# el_label, x, y, sXX, sYY, sZZ, sXY
1.000000000000000000e+00 6.657512664794921875e+01 3.083082008361816406e+01 -6.764715194702148438e+00 -2.508242130279541016e+00 -2.781887292861938477e+00 -2.702434062957763672e+00
2.000000000000000000e+00 6.637690734863281250e+01 3.081281661987304688e+01 -2.365783214569091797e+00 9.864447116851806641e-01 -4.138015806674957275e-01 6.812426447868347168e-01
3.000000000000000000e+00 6.617868041992187500e+01 3.079481506347656250e+01 -3.393025159835815430e+00 -4.363700449466705322e-01 -1.148818612098693848e+00 -8.623401820659637451e-02
4.000000000000000000e+00 6.598045349121093750e+01 3.077681159973144531e+01 -3.557579994201660156e+00 2.056719362735748291e-01 -1.005572438240051270e+00 1.377858072519302368e-01
5.000000000000000000e+00 6.658607482910156250e+01 3.077345085144042969e+01 8.347815513610839844e+00 -2.425144672393798828e+00 1.776801228523254395e+00 1.658737421035766602e+00
6.000000000000000000e+00 6.639514923095703125e+01 3.071720123291015625e+01 1.568393230438232422e+00 3.119668662548065186e-01 5.641080141067504883e-01 1.181580781936645508e+00
7.000000000000000000e+00 6.620422363281250000e+01 3.066095161437988281e+01 1.428601026535034180e+00 8.135309219360351562e-01 6.726395487785339355e-01 1.859006285667419434e+00
8.000000000000000000e+00 6.601329040527343750e+01 3.060470390319824219e+01 7.813017815351486206e-02 2.117471583187580109e-02 2.979146875441074371e-02 1.240729808807373047e+00
9.000000000000000000e+00 6.660797882080078125e+01 3.071930885314941406e+01 1.353954601287841797e+01 2.350210189819335938e+00 4.766927242279052734e+00 8.468278884887695312e+00
1.000000000000000000e+01 6.643165588378906250e+01 3.062696647644042969e+01 7.399561405181884766e+00 1.432609796524047852e+00 2.649651288986206055e+00 4.918824195861816406e+00
1.100000000000000000e+01 6.625533294677734375e+01 3.053462409973144531e+01 4.225437641143798828e+00 2.040130138397216797e+00 1.879670381546020508e+00 3.854186773300170898e+00
1.200000000000000000e+01 6.607901000976562500e+01 3.044227981567382812e+01 3.246434211730957031e+00 1.630457401275634766e+00 1.463067531585693359e+00 3.775774717330932617e+00
1.300000000000000000e+01 6.664001464843750000e+01 3.067046928405761719e+01 1.523773193359375000e+01 9.070635795593261719e+00 7.292510032653808594e+00 1.375726795196533203e+01
1.400000000000000000e+01 6.648503875732421875e+01 3.054556655883789062e+01 9.129428863525390625e+00 5.583208560943603516e+00 4.413791179656982422e+00 8.971405029296875000e+00
1.500000000000000000e+01 6.633006286621093750e+01 3.042066192626953125e+01 6.656166076660156250e+00 4.721485614776611328e+00 3.413295507431030273e+00 7.131609916687011719e+00
1.600000000000000000e+01 6.617509460449218750e+01 3.029575920104980469e+01 4.990271091461181641e+00 4.112783432006835938e+00 2.730916261672973633e+00 6.038517475128173828e+00
1.700000000000000000e+01 6.668093109130859375e+01 3.062879753112792969e+01 1.349803543090820312e+01 1.736472511291503906e+01 9.258828163146972656e+00 1.706645011901855469e+01
1.800000000000000000e+01 6.655323791503906250e+01 3.047611427307128906e+01 9.240336418151855469e+00 1.135227680206298828e+01 6.177783966064453125e+00 1.195714378356933594e+01
1.900000000000000000e+01 6.642555236816406250e+01 3.032343101501464844e+01 6.744626998901367188e+00 8.939411163330078125e+00 4.705211162567138672e+00 9.674838066101074219e+00
2.000000000000000000e+01 6.629785919189453125e+01 3.017074775695800781e+01 5.643206596374511719e+00 7.937219619750976562e+00 4.074127674102783203e+00 8.340630531311035156e+00
2.100000000000000000e+01 6.672917938232421875e+01 3.059589195251464844e+01 1.084519290924072266e+01 2.610692787170410156e+01 1.108563613891601562e+01 1.776173400878906250e+01
2.200000000000000000e+01 6.663365936279296875e+01 3.042127037048339844e+01 7.521994590759277344e+00 1.779266357421875000e+01 7.594397068023681641e+00 1.320237064361572266e+01
2.300000000000000000e+01 6.653813934326171875e+01 3.024664878845214844e+01 5.982427120208740234e+00 1.425968837738037109e+01 6.072634696960449219e+00 1.100264167785644531e+01
2.400000000000000000e+01 6.644261169433593750e+01 3.007202720642089844e+01 4.596546173095703125e+00 1.219130992889404297e+01 5.036356925964355469e+00 9.495557785034179688e+00
2.500000000000000000e+01 6.678291320800781250e+01 3.057300949096679688e+01 7.720370292663574219e+00 3.404008865356445312e+01 1.252813720703125000e+01 1.591468429565429688e+01
2.600000000000000000e+01 6.672321319580078125e+01 3.038313102722167969e+01 5.779101371765136719e+00 2.416894912719726562e+01 8.984415054321289062e+00 1.260151958465576172e+01
2.700000000000000000e+01 6.666352081298828125e+01 3.019325447082519531e+01 4.283068656921386719e+00 1.958477973937988281e+01 7.160354137420654297e+00 1.070984554290771484e+01
2.800000000000000000e+01 6.660382080078125000e+01 3.000337791442871094e+01 3.277411699295043945e+00 1.700385284423828125e+01 6.084379673004150391e+00 9.477198600769042969e+00
2.900000000000000000e+01 6.684008026123046875e+01 3.056102371215820312e+01 5.909368991851806641e+00 4.032031631469726562e+01 1.386890602111816406e+01 1.210925006866455078e+01
3.000000000000000000e+01 6.681848907470703125e+01 3.036315727233886719e+01 4.172860145568847656e+00 2.953259658813476562e+01 1.011163711547851562e+01 1.031719017028808594e+01
3.100000000000000000e+01 6.679689788818359375e+01 3.016529083251953125e+01 2.961792707443237305e+00 2.444294738769531250e+01 8.221422195434570312e+00 9.036829948425292969e+00
3.200000000000000000e+01 6.677530670166015625e+01 2.996742439270019531e+01 2.088623523712158203e+00 2.125257301330566406e+01 7.002358913421630859e+00 8.161180496215820312e+00
3.300000000000000000e+01 6.689848327636718750e+01 3.056039810180664062e+01 5.674212932586669922e+00 4.422609710693359375e+01 1.497009277343750000e+01 7.139492511749267578e+00
3.400000000000000000e+01 6.691582489013671875e+01 3.036211395263671875e+01 3.674336433410644531e+00 3.346992874145507812e+01 1.114328002929687500e+01 6.961658477783203125e+00
3.500000000000000000e+01 6.693315887451171875e+01 3.016382980346679688e+01 2.345720767974853516e+00 2.804826545715332031e+01 9.118195533752441406e+00 6.305638790130615234e+00
3.600000000000000000e+01 6.695050811767578125e+01 2.996554565429687500e+01 1.602523684501647949e+00 2.460907936096191406e+01 7.863481044769287109e+00 5.777106761932373047e+00
3.700000000000000000e+01 6.695588684082031250e+01 3.057115364074707031e+01 7.359128952026367188e+00 4.572666931152343750e+01 1.592573928833007812e+01 2.136787891387939453e+00
3.800000000000000000e+01 6.701149749755859375e+01 3.038003921508789062e+01 4.448124408721923828e+00 3.558985519409179688e+01 1.201139354705810547e+01 3.123411655426025391e+00
3.900000000000000000e+01 6.706710815429687500e+01 3.018892478942871094e+01 2.895490646362304688e+00 3.016436576843261719e+01 9.917956352233886719e+00 3.101523876190185547e+00
4.000000000000000000e+01 6.712272644042968750e+01 2.999781036376953125e+01 1.953707218170166016e+00 2.668956565856933594e+01 8.592981338500976562e+00 2.922730445861816406e+00
4.100000000000000000e+01 6.701010131835937500e+01 3.059287834167480469e+01 1.061968421936035156e+01 4.510326004028320312e+01 1.671688270568847656e+01 -2.070148706436157227e+00
4.200000000000000000e+01 6.710185241699218750e+01 3.041624832153320312e+01 6.528164386749267578e+00 3.597838592529296875e+01 1.275196456909179688e+01 -4.295925796031951904e-01
4.300000000000000000e+01 6.719361114501953125e+01 3.023961639404296875e+01 4.605240345001220703e+00 3.072931289672851562e+01 1.060036563873291016e+01 -1.684620976448059082e-02
4.400000000000000000e+01 6.728536224365234375e+01 3.006298637390136719e+01 3.358655691146850586e+00 2.729690361022949219e+01 9.196667671203613281e+00 1.998573988676071167e-01
4.500000000000000000e+01 6.705904388427734375e+01 3.062474060058593750e+01 1.479540538787841797e+01 4.307264709472656250e+01 1.736041641235351562e+01 -4.828747749328613281e+00
4.600000000000000000e+01 6.718343353271484375e+01 3.046935462951660156e+01 9.653895378112792969e+00 3.489558410644531250e+01 1.336484432220458984e+01 -3.146891355514526367e+00
4.700000000000000000e+01 6.730781555175781250e+01 3.031396675109863281e+01 7.208231925964355469e+00 3.000736618041992188e+01 1.116467952728271484e+01 -2.430527448654174805e+00
4.800000000000000000e+01 6.743220520019531250e+01 3.015857696533203125e+01 5.703916549682617188e+00 2.669917678833007812e+01 9.720928192138671875e+00 -2.043550729751586914e+00
4.900000000000000000e+01 6.710085296630859375e+01 3.066552543640136719e+01 1.919952774047851562e+01 4.035346603393554688e+01 1.786589813232421875e+01 -5.940452575683593750e+00
5.000000000000000000e+01 6.725311279296875000e+01 3.053732681274414062e+01 1.324261569976806641e+01 3.293426132202148438e+01 1.385306262969970703e+01 -4.600214481353759766e+00
5.100000000000000000e+01 6.740537261962890625e+01 3.040912628173828125e+01 1.035658836364746094e+01 2.836537551879882812e+01 1.161658954620361328e+01 -3.796435832977294922e+00
5.200000000000000000e+01 6.755762481689453125e+01 3.028092765808105469e+01 8.452881813049316406e+00 2.541459846496582031e+01 1.016024398803710938e+01 -3.322345972061157227e+00
5.300000000000000000e+01 6.713391876220703125e+01 3.071366691589355469e+01 2.310025024414062500e+01 3.772383117675781250e+01 1.824722480773925781e+01 -5.517756938934326172e+00
5.400000000000000000e+01 6.730822753906250000e+01 3.061756324768066406e+01 1.673651695251464844e+01 3.064253234863281250e+01 1.421371459960937500e+01 -4.648055553436279297e+00
5.500000000000000000e+01 6.748252868652343750e+01 3.052145767211914062e+01 1.340584468841552734e+01 2.646669578552246094e+01 1.196176242828369141e+01 -3.964181423187255859e+00
5.600000000000000000e+01 6.765682983398437500e+01 3.042535209655761719e+01 1.125020694732666016e+01 2.371498298645019531e+01 1.048955726623535156e+01 -3.445199728012084961e+00
5.700000000000000000e+01 6.715698242187500000e+01 3.076732635498046875e+01 2.598450279235839844e+01 3.562970733642578125e+01 1.848426246643066406e+01 -3.900647640228271484e+00
5.800000000000000000e+01 6.734666442871093750e+01 3.070699310302734375e+01 1.952837944030761719e+01 2.872327613830566406e+01 1.447549629211425781e+01 -3.447706937789916992e+00
5.900000000000000000e+01 6.753633880615234375e+01 3.064665985107421875e+01 1.583877658843994141e+01 2.476315498352050781e+01 1.218057918548583984e+01 -2.978825330734252930e+00
6.000000000000000000e+01 6.772601318359375000e+01 3.058632850646972656e+01 1.349368572235107422e+01 2.216957664489746094e+01 1.069897842407226562e+01 -2.601903438568115234e+00
6.100000000000000000e+01 6.716915893554687500e+01 3.082444763183593750e+01 2.758654212951660156e+01 3.454454040527343750e+01 1.863932418823242188e+01 -1.532175898551940918e+00
6.200000000000000000e+01 6.736695098876953125e+01 3.080219650268554688e+01 2.110918998718261719e+01 2.751238250732421875e+01 1.458647155761718750e+01 -1.376951575279235840e+00
6.300000000000000000e+01 6.756474304199218750e+01 3.077994346618652344e+01 1.726368904113769531e+01 2.381687164306640625e+01 1.232416820526123047e+01 -1.171847701072692871e+00
6.400000000000000000e+01 6.776253509521484375e+01 3.075769424438476562e+01 1.471915435791015625e+01 2.116830062866210938e+01 1.076623630523681641e+01 -1.045707106590270996e+00
6.500000000000000000e+01 6.716997528076171875e+01 3.088284683227539062e+01 2.770396423339843750e+01 3.441829681396484375e+01 1.863667869567871094e+01 1.120205283164978027e+00
6.600000000000000000e+01 6.736831665039062500e+01 3.089952659606933594e+01 2.125355911254882812e+01 2.748698425292968750e+01 1.462216281890869141e+01 1.024171113967895508e+00
6.700000000000000000e+01 6.756665802001953125e+01 3.091620826721191406e+01 1.739158630371093750e+01 2.366394042968750000e+01 1.231665802001953125e+01 9.541338682174682617e-01
6.800000000000000000e+01 6.776499938964843750e+01 3.093288993835449219e+01 1.483197975158691406e+01 2.121007156372070312e+01 1.081261539459228516e+01 8.300248980522155762e-01
6.900000000000000000e+01 6.715941619873046875e+01 3.094028663635253906e+01 2.640056610107421875e+01 3.544347000122070312e+01 1.855321121215820312e+01 3.535112619400024414e+00
7.000000000000000000e+01 6.735071563720703125e+01 3.099526214599609375e+01 1.989365196228027344e+01 2.847451782226562500e+01 1.451045131683349609e+01 3.211308956146240234e+00
7.100000000000000000e+01 6.754200744628906250e+01 3.105023765563964844e+01 1.622457885742187500e+01 2.454956626892089844e+01 1.223224353790283203e+01 2.783186197280883789e+00
7.200000000000000000e+01 6.773330688476562500e+01 3.110521316528320312e+01 1.378872299194335938e+01 2.198844909667968750e+01 1.073315143585205078e+01 2.551632881164550781e+00
7.300000000000000000e+01 6.713787078857421875e+01 3.099457359313964844e+01 2.372014999389648438e+01 3.737105560302734375e+01 1.832736206054687500e+01 5.294121265411376953e+00
7.400000000000000000e+01 6.731480407714843750e+01 3.108573722839355469e+01 1.734358215332031250e+01 3.034140396118164062e+01 1.430549526214599609e+01 4.574145317077636719e+00
7.500000000000000000e+01 6.749174499511718750e+01 3.117690467834472656e+01 1.390112781524658203e+01 2.618552017211914062e+01 1.202599430084228516e+01 3.911042451858520508e+00
7.600000000000000000e+01 6.766867828369140625e+01 3.126807022094726562e+01 1.174800586700439453e+01 2.335901260375976562e+01 1.053210544586181641e+01 3.489264965057373047e+00
7.700000000000000000e+01 6.710617065429687500e+01 3.104362487792968750e+01 2.002506828308105469e+01 3.998851394653320312e+01 1.800407409667968750e+01 5.911843299865722656e+00
7.800000000000000000e+01 6.726197052001953125e+01 3.116749191284179688e+01 1.395541858673095703e+01 3.256809234619140625e+01 1.395705318450927734e+01 4.728339195251464844e+00
7.900000000000000000e+01 6.741777801513671875e+01 3.129136085510253906e+01 1.095779323577880859e+01 2.815128135681152344e+01 1.173272228240966797e+01 3.976260423660278320e+00
8.000000000000000000e+01 6.757357788085937500e+01 3.141522789001464844e+01 8.983154296875000000e+00 2.510131263732910156e+01 1.022533988952636719e+01 3.441735744476318359e+00
8.100000000000000000e+01 6.706552886962890625e+01 3.108556747436523438e+01 1.571742153167724609e+01 4.269006347656250000e+01 1.752224540710449219e+01 5.059074401855468750e+00
8.200000000000000000e+01 6.719423675537109375e+01 3.123739624023437500e+01 1.038910293579101562e+01 3.466711425781250000e+01 1.351686573028564453e+01 3.475703716278076172e+00
8.300000000000000000e+01 6.732293701171875000e+01 3.138922500610351562e+01 7.851255893707275391e+00 2.978059196472167969e+01 1.128955459594726562e+01 2.811709880828857422e+00
8.400000000000000000e+01 6.745164489746093750e+01 3.154105567932128906e+01 6.273923873901367188e+00 2.668809318542480469e+01 9.888605117797851562e+00 2.434492111206054688e+00
8.500000000000000000e+01 6.701749420166015625e+01 3.111879539489746094e+01 1.151377391815185547e+01 4.486511993408203125e+01 1.691366767883300781e+01 2.547176599502563477e+00
8.600000000000000000e+01 6.711418151855468750e+01 3.129277610778808594e+01 7.223452568054199219e+00 3.590709686279296875e+01 1.293916511535644531e+01 9.455991387367248535e-01
8.700000000000000000e+01 6.721086883544921875e+01 3.146675682067871094e+01 5.169943332672119141e+00 3.068514060974121094e+01 1.075652503967285156e+01 5.226172804832458496e-01
8.800000000000000000e+01 6.730754852294921875e+01 3.164073753356933594e+01 4.018091201782226562e+00 2.723366737365722656e+01 9.375527381896972656e+00 3.557178080081939697e-01
8.900000000000000000e+01 6.696391296386718750e+01 3.114203643798828125e+01 8.192571640014648438e+00 4.577104949951171875e+01 1.618908691406250000e+01 -1.470654010772705078e+00
9.000000000000000000e+01 6.702487945556640625e+01 3.133151054382324219e+01 4.945254802703857422e+00 3.572850418090820312e+01 1.220212745666503906e+01 -2.505186319351196289e+00
9.100000000000000000e+01 6.708584594726562500e+01 3.152098655700683594e+01 3.438070535659790039e+00 3.034225845336914062e+01 1.013409900665283203e+01 -2.514573097229003906e+00
9.200000000000000000e+01 6.714680480957031250e+01 3.171046066284179688e+01 2.350116968154907227e+00 2.674272155761718750e+01 8.727851867675781250e+00 -2.464272975921630859e+00
9.300000000000000000e+01 6.690682983398437500e+01 3.115439987182617188e+01 6.196386337280273438e+00 4.457928848266601562e+01 1.523270225524902344e+01 -6.392522335052490234e+00
9.400000000000000000e+01 6.692974853515625000e+01 3.135211944580078125e+01 4.120134353637695312e+00 3.389153671264648438e+01 1.140350055694580078e+01 -6.343695163726806641e+00
9.500000000000000000e+01 6.695265960693359375e+01 3.154983711242675781e+01 2.654422521591186523e+00 2.838508415222167969e+01 9.311852455139160156e+00 -5.756671905517578125e+00
9.600000000000000000e+01 6.697557067871093750e+01 3.174755477905273438e+01 1.884031057357788086e+00 2.508120155334472656e+01 8.089570045471191406e+00 -5.269320487976074219e+00
9.700000000000000000e+01 6.684843444824218750e+01 3.115541648864746094e+01 6.273022651672363281e+00 4.106950759887695312e+01 1.420275878906250000e+01 -1.142864322662353516e+01
9.800000000000000000e+01 6.683242034912109375e+01 3.135381126403808594e+01 4.421640396118164062e+00 3.014181709289550781e+01 1.036903667449951172e+01 -9.817996025085449219e+00
9.900000000000000000e+01 6.681639862060546875e+01 3.155220794677734375e+01 3.207295656204223633e+00 2.502085304260253906e+01 8.468444824218750000e+00 -8.583433151245117188e+00
1.000000000000000000e+02 6.680037689208984375e+01 3.175060272216796875e+01 2.296694993972778320e+00 2.176716995239257812e+01 7.219159126281738281e+00 -7.644185543060302734e+00
1.010000000000000000e+02 6.679096221923828125e+01 3.114504432678222656e+01 7.886838436126708984e+00 3.506606674194335938e+01 1.288587188720703125e+01 -1.547379875183105469e+01
1.020000000000000000e+02 6.673662567138671875e+01 3.133652496337890625e+01 5.991747379302978516e+00 2.495718955993652344e+01 9.284681320190429688e+00 -1.230311775207519531e+01
1.030000000000000000e+02 6.668228912353515625e+01 3.152800559997558594e+01 4.472757816314697266e+00 2.024360466003417969e+01 7.414908409118652344e+00 -1.039903640747070312e+01
1.040000000000000000e+02 6.662794494628906250e+01 3.171948623657226562e+01 3.526696920394897461e+00 1.751702117919921875e+01 6.313115119934082031e+00 -9.177566528320312500e+00
1.050000000000000000e+02 6.673660278320312500e+01 3.112368202209472656e+01 1.096829223632812500e+01 2.728303909301757812e+01 1.147539901733398438e+01 -1.768746376037597656e+01
1.060000000000000000e+02 6.664602661132812500e+01 3.130091857910156250e+01 7.792696475982666016e+00 1.862495422363281250e+01 7.925295352935791016e+00 -1.312537956237792969e+01
1.070000000000000000e+02 6.655545043945312500e+01 3.147815895080566406e+01 6.233769893646240234e+00 1.493070411682128906e+01 6.349342346191406250e+00 -1.091918659210205078e+01
1.080000000000000000e+02 6.646487426757812500e+01 3.165539550781250000e+01 4.863372325897216797e+00 1.269129943847656250e+01 5.266401767730712891e+00 -9.425051689147949219e+00
1.090000000000000000e+02 6.668744659423828125e+01 3.109214401245117188e+01 1.376261043548583984e+01 1.853870010375976562e+01 9.690393447875976562e+00 -1.733665275573730469e+01
1.100000000000000000e+02 6.656410217285156250e+01 3.124835777282714844e+01 9.676295280456542969e+00 1.208425521850585938e+01 6.528164863586425781e+00 -1.216760253906250000e+01
1.110000000000000000e+02 6.644075012207031250e+01 3.140457153320312500e+01 7.194644927978515625e+00 9.549014091491699219e+00 5.023097515106201172e+00 -9.737182617187500000e+00
1.120000000000000000e+02 6.631740570068359375e+01 3.156078529357910156e+01 5.955953598022460938e+00 8.414004325866699219e+00 4.310987472534179688e+00 -8.496925354003906250e+00
1.130000000000000000e+02 6.664537048339843750e+01 3.105163955688476562e+01 1.586796760559082031e+01 9.965270996093750000e+00 7.749971389770507812e+00 -1.433703231811523438e+01
1.140000000000000000e+02 6.649397277832031250e+01 3.118085098266601562e+01 9.777405738830566406e+00 6.196526527404785156e+00 4.792179584503173828e+00 -9.344815254211425781e+00
1.150000000000000000e+02 6.634256744384765625e+01 3.131006240844726562e+01 7.425597667694091797e+00 5.109046459197998047e+00 3.760393142700195312e+00 -7.390820980072021484e+00
1.160000000000000000e+02 6.619116973876953125e+01 3.143927383422851562e+01 5.543633937835693359e+00 4.636623859405517578e+00 3.054077386856079102e+00 -6.171384334564208984e+00
1.170000000000000000e+02 6.661198425292968750e+01 3.100371932983398438e+01 1.460061836242675781e+01 2.922059774398803711e+00 5.256803512573242188e+00 -9.171584129333496094e+00
1.180000000000000000e+02 6.643832397460937500e+01 3.110098457336425781e+01 8.392839431762695312e+00 1.767162442207336426e+00 3.048000574111938477e+00 -5.340738296508789062e+00
1.190000000000000000e+02 6.626466369628906250e+01 3.119824981689453125e+01 5.179087162017822266e+00 2.291435003280639648e+00 2.241156578063964844e+00 -4.196750164031982422e+00
1.200000000000000000e+02 6.609101104736328125e+01 3.129551315307617188e+01 4.314879894256591797e+00 1.994043827056884766e+00 1.892677068710327148e+00 -3.903224706649780273e+00
1.210000000000000000e+02 6.658856201171875000e+01 3.095021629333496094e+01 9.979191780090332031e+00 -2.329622745513916016e+00 2.294870615005493164e+00 -2.231952667236328125e+00
1.220000000000000000e+02 6.639929199218750000e+01 3.101181221008300781e+01 2.812758922576904297e+00 4.664481580257415771e-01 9.837620854377746582e-01 -1.473822116851806641e+00
1.230000000000000000e+02 6.621002197265625000e+01 3.107340812683105469e+01 2.528907299041748047e+00 9.085893034934997559e-01 1.031248927116394043e+00 -2.124074459075927734e+00
1.240000000000000000e+02 6.602075195312500000e+01 3.113500213623046875e+01 1.264506697654724121e+00 2.233283668756484985e-01 4.463505148887634277e-01 -1.421608209609985352e+00
1.250000000000000000e+02 6.657601165771484375e+01 3.089317893981933594e+01 -4.748843193054199219e+00 -2.611176729202270508e+00 -2.208005905151367188e+00 2.638817071914672852e+00
1.260000000000000000e+02 6.637837219238281250e+01 3.091674804687500000e+01 -9.661105871200561523e-01 1.010525226593017578e+00 1.332438364624977112e-02 -7.437856793403625488e-01
1.270000000000000000e+02 6.618072509765625000e+01 3.094031524658203125e+01 -2.272991180419921875e+00 -4.198803007602691650e-01 -8.078613877296447754e-01 2.751535736024379730e-02
1.280000000000000000e+02 6.598308563232421875e+01 3.096388626098632812e+01 -2.633630275726318359e+00 2.296657413244247437e-01 -7.211893200874328613e-01 -1.322481781244277954e-01
1.290000000000000000e+02 2.333872413635253906e+01 3.602074050903320312e+01 1.425196509808301926e-02 5.461848559207282960e-05 4.291974939405918121e-03 2.162510296329855919e-03
1.300000000000000000e+02 2.389290046691894531e+01 3.609888076782226562e+01 1.728318072855472565e-02 -1.961408648639917374e-03 4.596531856805086136e-03 1.220057369209825993e-03
1.310000000000000000e+02 2.284308815002441406e+01 3.526721954345703125e+01 1.816875650547444820e-03 -1.277279690839350224e-03 1.618787937331944704e-04 3.988470416516065598e-03
1.320000000000000000e+02 2.421754455566406250e+01 3.556056594848632812e+01 3.114616498351097107e-03 -2.483178861439228058e-03 1.894312590593472123e-04 -5.921152187511324883e-04
1.330000000000000000e+02 2.498613166809082031e+01 3.604191207885742188e+01 1.473199389874935150e-02 -5.973703227937221527e-04 4.240387119352817535e-03 -1.454206299968063831e-03
1.340000000000000000e+02 2.485820960998535156e+01 3.530118560791015625e+01 -2.936922246590256691e-03 -2.973139518871903419e-03 -1.773018506355583668e-03 -4.178892355412244797e-03
1.350000000000000000e+02 2.364893722534179688e+01 3.528245925903320312e+01 8.840558584779500961e-04 -3.386563621461391449e-03 -7.507522823289036751e-04 8.943348075263202190e-04
1.360000000000000000e+02 2.269410705566406250e+01 3.600639724731445312e+01 1.077524200081825256e-02 -2.302936773048713803e-04 3.163484623655676842e-03 2.406750107184052467e-03
1.370000000000000000e+02 2.440931320190429688e+01 3.610589981079101562e+01 1.726173423230648041e-02 2.998598502017557621e-04 5.268478300422430038e-03 -1.110023004002869129e-03
1.380000000000000000e+02 2.713174057006835938e+01 3.578996658325195312e+01 -5.294058471918106079e-03 3.467024944256991148e-04 -1.484206761233508587e-03 -5.351447965949773788e-03
1.390000000000000000e+02 2.639669990539550781e+01 3.588855361938476562e+01 5.292974412441253662e-03 4.707929911091923714e-04 1.729130279272794724e-03 -4.799891263246536255e-03
1.400000000000000000e+02 2.560692596435546875e+01 3.524289321899414062e+01 -1.040249317884445190e-02 -3.585658269003033638e-03 -4.196445457637310028e-03 -7.666821591556072235e-03
1.410000000000000000e+02 2.704477500915527344e+01 3.505500793457031250e+01 -3.458644822239875793e-02 -2.764167766144964844e-05 -1.038422714918851852e-02 -1.520270109176635742e-02
1.420000000000000000e+02 2.786719703674316406e+01 3.568653869628906250e+01 -1.965180970728397369e-02 9.723011753521859646e-04 -5.603852216154336929e-03 -5.357238464057445526e-03
1.430000000000000000e+02 2.776436805725097656e+01 3.495370483398437500e+01 -5.172917246818542480e-02 1.415644772350788116e-03 -1.509405858814716339e-02 -1.807212270796298981e-02
1.440000000000000000e+02 2.632559776306152344e+01 3.515146636962890625e+01 -2.110100537538528442e-02 -1.371121150441467762e-03 -6.741638295352458954e-03 -1.158204115927219391e-02
1.450000000000000000e+02 2.566216468811035156e+01 3.598210525512695312e+01 1.148824952542781830e-02 -9.465943439863622189e-04 3.162496490404009819e-03 -3.345997072756290436e-03
1.460000000000000000e+02 2.933965110778808594e+01 3.544803619384765625e+01 -6.229518726468086243e-02 1.457927981391549110e-03 -1.825117692351341248e-02 -2.734595444053411484e-03
1.470000000000000000e+02 2.922042655944824219e+01 3.471769332885742188e+01 -9.882498532533645630e-02 5.011562258005142212e-03 -2.814402803778648376e-02 -2.339454181492328644e-02
1.480000000000000000e+02 2.848941230773925781e+01 3.484096145629882812e+01 -7.315164059400558472e-02 3.122425638139247894e-03 -2.100876532495021820e-02 -2.115652151405811310e-02
1.490000000000000000e+02 3.068212890625000000e+01 3.447154998779296875e+01 -1.614338308572769165e-01 9.168771095573902130e-03 -4.567951709032058716e-02 -2.386218123137950897e-02
1.500000000000000000e+02 2.995129966735839844e+01 3.459505081176757812e+01 -1.278870552778244019e-01 6.841497961431741714e-03 -3.631366789340972900e-02 -2.435088902711868286e-02
1.510000000000000000e+02 3.081263542175292969e+01 3.519998931884765625e+01 -1.214582920074462891e-01 1.646325108595192432e-03 -3.594359010457992554e-02 3.949434962123632431e-03
1.520000000000000000e+02 2.860299301147460938e+01 3.557225799560546875e+01 -3.845785185694694519e-02 1.355870161205530167e-03 -1.113059464842081070e-02 -4.398051183670759201e-03
1.530000000000000000e+02 3.007616424560546875e+01 3.532444381713867188e+01 -9.036124497652053833e-02 1.631397986784577370e-03 -2.661895379424095154e-02 -4.612878547050058842e-05
1.540000000000000000e+02 3.228277587890625000e+01 3.491655731201171875e+01 -2.029474526643753052e-01 2.162247255910187960e-05 -6.087774783372879028e-02 1.565442048013210297e-02
1.550000000000000000e+02 3.141323661804199219e+01 3.433660507202148438e+01 -1.997082978487014771e-01 1.069125160574913025e-02 -5.670511722564697266e-02 -2.358935587108135223e-02
1.560000000000000000e+02 3.301699829101562500e+01 3.477141952514648438e+01 -2.514817714691162109e-01 -2.249747485620900989e-04 -7.551202178001403809e-02 2.289257012307643890e-02
1.570000000000000000e+02 3.287635040283203125e+01 3.404490280151367188e+01 -2.902437448501586914e-01 1.266878377646207809e-02 -8.327248692512512207e-02 -2.077354304492473602e-02
1.580000000000000000e+02 3.360715103149414062e+01 3.390307235717773438e+01 -3.422071039676666260e-01 1.418806053698062897e-02 -9.840571880340576172e-02 -1.744381710886955261e-02
1.590000000000000000e+02 3.375072097778320312e+01 3.462901306152343750e+01 -3.046809136867523193e-01 -1.815437455661594868e-03 -9.194890409708023071e-02 3.115775063633918762e-02
1.600000000000000000e+02 3.214505767822265625e+01 3.418946456909179688e+01 -2.424604892730712891e-01 1.214781310409307480e-02 -6.909380108118057251e-02 -2.267773263156414032e-02
1.610000000000000000e+02 3.154802894592285156e+01 3.506427764892578125e+01 -1.584920287132263184e-01 1.399492379277944565e-03 -4.712776094675064087e-02 9.528656490147113800e-03
1.620000000000000000e+02 3.448552703857421875e+01 3.448280334472656250e+01 -3.636389374732971191e-01 -2.773026004433631897e-03 -1.099235862493515015e-01 4.068410769104957581e-02
1.630000000000000000e+02 3.581328582763671875e+01 3.345945358276367188e+01 -5.296060442924499512e-01 1.471680123358964920e-02 -1.544667780399322510e-01 -5.019330885261297226e-03
1.640000000000000000e+02 3.434083938598632812e+01 3.375708389282226562e+01 -3.996785581111907959e-01 1.440059859305620193e-02 -1.155833899974822998e-01 -1.397410966455936432e-02
1.650000000000000000e+02 3.654941177368164062e+01 3.331057739257812500e+01 -5.997098684310913086e-01 1.445924490690231323e-02 -1.755751967430114746e-01 2.364333195146173239e-04
1.660000000000000000e+02 3.595657730102539062e+01 3.418545532226562500e+01 -5.001021623611450195e-01 -6.154718343168497086e-03 -1.518770605325698853e-01 6.211209297180175781e-02
1.670000000000000000e+02 3.669200897216796875e+01 3.403672027587890625e+01 -5.788815021514892578e-01 -9.338603354990482330e-03 -1.764660328626632690e-01 7.311551272869110107e-02
1.680000000000000000e+02 3.522108078002929688e+01 3.433415222167968750e+01 -4.290264546871185303e-01 -5.017341580241918564e-03 -1.302131414413452148e-01 5.084299296140670776e-02
1.690000000000000000e+02 3.507709503173828125e+01 3.360829162597656250e+01 -4.619643092155456543e-01 1.541212946176528931e-02 -1.339656561613082886e-01 -9.498302824795246124e-03
1.700000000000000000e+02 3.742828750610351562e+01 3.389342117309570312e+01 -6.593291163444519043e-01 -1.000951137393712997e-02 -2.008015960454940796e-01 8.406348526477813721e-02
1.710000000000000000e+02 3.802332687377929688e+01 3.303014373779296875e+01 -7.526788711547851562e-01 1.423152815550565720e-02 -2.215341925621032715e-01 1.659593358635902405e-02
1.720000000000000000e+02 3.728625106811523438e+01 3.316717147827148438e+01 -6.737450361251831055e-01 1.321648340672254562e-02 -1.981585621833801270e-01 7.816274650394916534e-03
1.730000000000000000e+02 3.890202331542968750e+01 3.361664962768554688e+01 -8.252241015434265137e-01 -1.338047254830598831e-02 -2.515813708305358887e-01 1.101712211966514587e-01
1.740000000000000000e+02 3.963956451416015625e+01 3.347409820556640625e+01 -9.136438369750976562e-01 -1.551591232419013977e-02 -2.787479162216186523e-01 1.251227408647537231e-01
1.750000000000000000e+02 3.949879837036132812e+01 3.274760437011718750e+01 -9.217057824134826660e-01 1.556619256734848022e-02 -2.718418836593627930e-01 3.522710502147674561e-02
1.760000000000000000e+02 3.876083374023437500e+01 3.289023590087890625e+01 -8.339503407478332520e-01 1.423736102879047394e-02 -2.459138929843902588e-01 2.520108595490455627e-02
1.770000000000000000e+02 3.816493988037109375e+01 3.375647735595703125e+01 -7.394966483116149902e-01 -1.139870844781398773e-02 -2.252686023712158203e-01 9.634894877672195435e-02
1.780000000000000000e+02 4.037628555297851562e+01 3.333070373535156250e+01 -1.010584354400634766e+00 -1.751697994768619537e-02 -3.084304034709930420e-01 1.431694924831390381e-01
1.790000000000000000e+02 4.171068954467773438e+01 3.231314468383789062e+01 -1.216392040252685547e+00 9.625492617487907410e-03 -3.620299696922302246e-01 6.105799227952957153e-02
1.800000000000000000e+02 4.023619079589843750e+01 3.260407638549804688e+01 -1.014224767684936523e+00 1.452156249433755875e-02 -2.999109625816345215e-01 4.350348189473152161e-02
1.810000000000000000e+02 4.244785308837890625e+01 3.216765213012695312e+01 -1.320199012756347656e+00 6.371766794472932816e-03 -3.941481709480285645e-01 6.868884712457656860e-02
1.820000000000000000e+02 4.184893417358398438e+01 3.304013442993164062e+01 -1.232950568199157715e+00 -2.482261881232261658e-02 -3.773319423198699951e-01 1.796165853738784790e-01
1.830000000000000000e+02 4.258517456054687500e+01 3.289482498168945312e+01 -1.361530661582946777e+00 -3.154798597097396851e-02 -4.179235696792602539e-01 1.950904130935668945e-01
1.840000000000000000e+02 4.111263656616210938e+01 3.318542480468750000e+01 -1.118331432342529297e+00 -2.290014363825321198e-02 -3.423694670200347900e-01 1.611885875463485718e-01
1.850000000000000000e+02 4.097346878051757812e+01 3.245861816406250000e+01 -1.111123085021972656e+00 1.389079727232456207e-02 -3.291696608066558838e-01 5.312230065464973450e-02
1.860000000000000000e+02 4.332307434082031250e+01 3.275568008422851562e+01 -1.485925316810607910e+00 -3.133947029709815979e-02 -4.551794528961181641e-01 2.067689299583435059e-01
1.870000000000000000e+02 4.318753814697265625e+01 3.202817916870117188e+01 -1.429165482521057129e+00 1.891449443064630032e-03 -4.281822144985198975e-01 8.076614886522293091e-02
1.880000000000000000e+02 4.392967605590820312e+01 3.189475250244140625e+01 -1.545835733413696289e+00 4.768373444676399231e-03 -4.623201787471771240e-01 9.219837933778762817e-02
1.890000000000000000e+02 4.480221557617187500e+01 3.249026870727539062e+01 -1.730108976364135742e+00 -3.199979290366172791e-02 -5.286326408386230469e-01 2.378347367048263550e-01
1.900000000000000000e+02 4.541445922851562500e+01 3.162938690185546875e+01 -1.781209230422973633e+00 1.048819744028151035e-03 -5.340481400489807129e-01 1.059194207191467285e-01
1.910000000000000000e+02 4.554204177856445312e+01 3.235831069946289062e+01 -1.872445583343505859e+00 -3.812095522880554199e-02 -5.731699466705322266e-01 2.534104287624359131e-01
1.920000000000000000e+02 4.406255722045898438e+01 3.262272644042968750e+01 -1.602475643157958984e+00 -3.087521530687808990e-02 -4.900052547454833984e-01 2.200551927089691162e-01
1.930000000000000000e+02 4.467198181152343750e+01 3.176181983947753906e+01 -1.663763880729675293e+00 3.359427908435463905e-03 -4.981213212013244629e-01 9.827454388141632080e-02
1.940000000000000000e+02 4.628276062011718750e+01 3.223004150390625000e+01 -2.013348579406738281e+00 -3.778257220983505249e-02 -6.153393983840942383e-01 2.660540342330932617e-01
1.950000000000000000e+02 4.764949035644531250e+01 3.125085830688476562e+01 -2.172798395156860352e+00 -5.955633241683244705e-03 -6.536262035369873047e-01 1.232303380966186523e-01
1.960000000000000000e+02 4.615840911865234375e+01 3.150056076049804688e+01 -1.904737830162048340e+00 -3.454916877672076225e-03 -5.724578499794006348e-01 1.158143207430839539e-01
1.970000000000000000e+02 4.839503097534179688e+01 3.112652587890625000e+01 -2.294074296951293945e+00 -1.533077843487262726e-02 -6.928215026855468750e-01 1.223245039582252502e-01
1.980000000000000000e+02 4.776623153686523438e+01 3.198161315917968750e+01 -2.304940223693847656e+00 -3.873693570494651794e-02 -7.031031250953674316e-01 2.972642481327056885e-01
1.990000000000000000e+02 4.850796127319335938e+01 3.185791587829589844e+01 -2.490557432174682617e+00 -5.074866861104965210e-02 -7.623918652534484863e-01 3.049262464046478271e-01
2.000000000000000000e+02 4.702449035644531250e+01 3.210565567016601562e+01 -2.151139974594116211e+00 -3.840742632746696472e-02 -6.568642258644104004e-01 2.795810401439666748e-01
2.010000000000000000e+02 4.690394592285156250e+01 3.137553787231445312e+01 -2.036150693893432617e+00 -5.036186776123940945e-04 -6.109963059425354004e-01 1.248267218470573425e-01
2.020000000000000000e+02 4.925159072875976562e+01 3.174488639831542969e+01 -2.651329040527343750e+00 -4.567399248480796814e-02 -8.091009259223937988e-01 2.990031838417053223e-01
2.030000000000000000e+02 4.914293289184570312e+01 3.101285552978515625e+01 -2.421940803527832031e+00 -2.299189195036888123e-02 -7.334798574447631836e-01 1.340412795543670654e-01
2.040000000000000000e+02 4.989311599731445312e+01 3.090981101989746094e+01 -2.563254356384277344e+00 -1.199959125369787216e-02 -7.725762128829956055e-01 1.399619877338409424e-01
2.050000000000000000e+02 5.074266433715820312e+01 3.154084205627441406e+01 -2.929008007049560547e+00 -3.443269431591033936e-02 -8.890321850776672363e-01 3.096553087234497070e-01
2.060000000000000000e+02 5.139404296875000000e+01 3.070597648620605469e+01 -2.812020063400268555e+00 -1.828109286725521088e-02 -8.490903377532958984e-01 1.272068619728088379e-01
2.070000000000000000e+02 5.148847579956054688e+01 3.143994712829589844e+01 -3.111562490463256836e+00 -4.437981545925140381e-02 -9.467827081680297852e-01 3.123819231986999512e-01
2.080000000000000000e+02 4.999703216552734375e+01 3.164248847961425781e+01 -2.778002738952636719e+00 -3.571529686450958252e-02 -8.441153764724731445e-01 2.986398637294769287e-01
2.090000000000000000e+02 5.064348983764648438e+01 3.080751800537109375e+01 -2.694908142089843750e+00 -1.160582900047302246e-02 -8.119542002677917480e-01 1.308961212635040283e-01
2.100000000000000000e+02 5.373043823242187500e+01 3.117490577697753906e+01 -3.566613435745239258e+00 -2.802891843020915985e-02 -1.078392744064331055e+00 3.109798431396484375e-01
2.110000000000000000e+02 5.214544677734375000e+01 3.061188697814941406e+01 -2.937484741210937500e+00 -2.248499356210231781e-02 -8.879908919334411621e-01 1.323292702436447144e-01
2.120000000000000000e+02 5.440248107910156250e+01 3.035354614257812500e+01 -3.296760797500610352e+00 -2.919061109423637390e-02 -9.977854490280151367e-01 1.108731478452682495e-01
2.130000000000000000e+02 5.365017700195312500e+01 3.043926048278808594e+01 -3.199596405029296875e+00 -1.734106056392192841e-02 -9.650812149047851562e-01 1.208086460828781128e-01
2.140000000000000000e+02 5.447802734375000000e+01 3.108973121643066406e+01 -3.766942024230957031e+00 -4.605470225214958191e-02 -1.143899083137512207e+00 3.030730783939361572e-01
2.150000000000000000e+02 5.298280715942382812e+01 3.126048088073730469e+01 -3.407055616378784180e+00 -3.260359540581703186e-02 -1.031897783279418945e+00 3.030672669410705566e-01
2.160000000000000000e+02 5.223514938354492188e+01 3.134645080566406250e+01 -3.273125886917114258e+00 -3.831376507878303528e-02 -9.934318661689758301e-01 3.057502210140228271e-01
2.170000000000000000e+02 5.289782714843750000e+01 3.052537536621093750e+01 -3.073942184448242188e+00 -1.097407285124063492e-02 -9.254748821258544922e-01 1.361987441778182983e-01
2.180000000000000000e+02 5.597676467895507812e+01 3.095117187500000000e+01 -4.030037403106689453e+00 -2.268242649734020233e-02 -1.215815901756286621e+00 2.598491013050079346e-01
2.190000000000000000e+02 5.591128540039062500e+01 3.021406745910644531e+01 -3.506287336349487305e+00 -1.707520335912704468e-02 -1.057008743286132812e+00 1.198739185929298401e-01
2.200000000000000000e+02 5.515621185302734375e+01 3.027851104736328125e+01 -3.397688865661621094e+00 -3.793122246861457825e-02 -1.030686020851135254e+00 1.206332519650459290e-01
2.210000000000000000e+02 5.666648483276367188e+01 3.015038108825683594e+01 -3.588191032409667969e+00 -1.795786246657371521e-02 -1.081844687461853027e+00 9.999268501996994019e-02
2.220000000000000000e+02 5.672682952880859375e+01 3.088792037963867188e+01 -4.166461467742919922e+00 -1.791598089039325714e-02 -1.255313158035278320e+00 2.612883746623992920e-01
2.230000000000000000e+02 5.742179489135742188e+01 3.008745574951171875e+01 -3.630061388015747070e+00 -2.663499116897583008e-02 -1.097008943557739258e+00 9.679421782493591309e-02
2.240000000000000000e+02 5.747700500488281250e+01 3.082542610168457031e+01 -4.340679168701171875e+00 -3.578893840312957764e-02 -1.312940359115600586e+00 2.468937784433364868e-01
2.250000000000000000e+02 5.522682952880859375e+01 3.101518249511718750e+01 -3.924646377563476562e+00 -3.741021826863288879e-02 -1.188616991043090820e+00 2.757037281990051270e-01
2.260000000000000000e+02 5.893249130249023438e+01 2.998887443542480469e+01 -3.703603982925415039e+00 -8.463566191494464874e-03 -1.113620281219482422e+00 1.192348971962928772e-01
2.270000000000000000e+02 5.817713546752929688e+01 3.003364562988281250e+01 -3.670612335205078125e+00 -3.458793461322784424e-02 -1.111560106277465820e+00 1.078197732567787170e-01
2.280000000000000000e+02 6.044357681274414062e+01 2.990149307250976562e+01 -3.598925828933715820e+00 -7.752939127385616302e-03 -1.082003593444824219e+00 1.397513449192047119e-01
2.290000000000000000e+02 5.972956466674804688e+01 3.068365669250488281e+01 -4.622550010681152344e+00 -1.481084036640822887e-03 -1.387209296226501465e+00 1.998400688171386719e-01
2.300000000000000000e+02 5.822756195068359375e+01 3.077196121215820312e+01 -4.464964866638183594e+00 -2.497502416372299194e-02 -1.346982002258300781e+00 2.177713066339492798e-01
2.310000000000000000e+02 6.048074340820312500e+01 3.064058303833007812e+01 -4.736042022705078125e+00 -3.390888124704360962e-02 -1.430985331535339355e+00 1.832313239574432373e-01
2.320000000000000000e+02 5.897850036621093750e+01 3.072744750976562500e+01 -4.532426834106445312e+00 -1.795930415391921997e-02 -1.365115880966186523e+00 1.974068433046340942e-01
2.330000000000000000e+02 5.968797683715820312e+01 2.994482421875000000e+01 -3.686913251876831055e+00 -8.140003308653831482e-03 -1.108515977859497070e+00 1.119211465120315552e-01
2.340000000000000000e+02 6.195892715454101562e+01 3.057957458496093750e+01 -4.783461093902587891e+00 -1.967044919729232788e-02 -1.440939545631408691e+00 1.390478610992431641e-01
2.350000000000000000e+02 6.121915054321289062e+01 3.060984230041503906e+01 -4.791293621063232422e+00 -6.390719674527645111e-03 -1.439305305480957031e+00 1.580214351415634155e-01
2.360000000000000000e+02 6.370545578002929688e+01 2.974441528320312500e+01 -1.830943107604980469e+00 1.575333178043365479e-01 -5.020229220390319824e-01 8.651478886604309082e-01
2.370000000000000000e+02 6.114834976196289062e+01 2.987192535400390625e+01 -3.501463651657104492e+00 -2.103435806930065155e-02 -1.056749343872070312e+00 1.766270101070404053e-01
2.380000000000000000e+02 6.181642913818359375e+01 2.984425735473632812e+01 -3.275319814682006836e+00 2.066795527935028076e-02 -9.763955473899841309e-01 2.335975021123886108e-01
2.390000000000000000e+02 6.239925003051757812e+01 2.972714042663574219e+01 -2.806730270385742188e+00 8.650922216475009918e-03 -8.394238352775573730e-01 3.517776727676391602e-01
2.400000000000000000e+02 6.368173980712890625e+01 3.034000205993652344e+01 -3.847167968750000000e+00 1.073894649744033813e-01 -1.121933579444885254e+00 2.397488206624984741e-01
2.410000000000000000e+02 6.360117721557617188e+01 2.953265380859375000e+01 -1.293178796768188477e+00 2.997775673866271973e-01 -2.980203628540039062e-01 1.062466502189636230e+00
2.420000000000000000e+02 6.372891235351562500e+01 2.992919158935546875e+01 -2.226434230804443359e+00 1.139582321047782898e-01 -6.337427496910095215e-01 6.037535667419433594e-01
2.430000000000000000e+02 6.333614730834960938e+01 3.028636360168457031e+01 -3.889784097671508789e+00 1.718074828386306763e-02 -1.161780953407287598e+00 3.045065402984619141e-01
2.440000000000000000e+02 6.276002883911132812e+01 3.005079841613769531e+01 -3.331249952316284180e+00 2.708535268902778625e-02 -9.912494421005249023e-01 2.949590682983398438e-01
2.450000000000000000e+02 6.366627502441406250e+01 3.055266571044921875e+01 -4.392633914947509766e+00 1.701540499925613403e-01 -1.266744017601013184e+00 1.753594912588596344e-02
2.460000000000000000e+02 6.327911376953125000e+01 2.973027992248535156e+01 -2.088223457336425781e+00 1.373332440853118896e-01 -5.852670669555664062e-01 7.192525267601013184e-01
2.470000000000000000e+02 6.358259582519531250e+01 3.077680015563964844e+01 -5.290324687957763672e+00 6.533470749855041504e-02 -1.567497014999389648e+00 7.132080197334289551e-02
2.480000000000000000e+02 6.351414489746093750e+01 2.987175559997558594e+01 -2.330736637115478516e+00 1.327943950891494751e-01 -6.593826413154602051e-01 6.695293784141540527e-01
2.490000000000000000e+02 6.370801162719726562e+01 3.012907218933105469e+01 -2.849167346954345703e+00 5.747415870428085327e-02 -8.375079631805419922e-01 4.848299026489257812e-01
2.500000000000000000e+02 6.318066787719726562e+01 3.007280921936035156e+01 -3.295586585998535156e+00 -3.625969216227531433e-02 -9.995539188385009766e-01 3.870964646339416504e-01
2.510000000000000000e+02 6.289021301269531250e+01 2.963812637329101562e+01 -2.114506483078002930e+00 2.257361114025115967e-01 -5.666311383247375488e-01 5.739846825599670410e-01
2.520000000000000000e+02 6.327277374267578125e+01 3.058162689208984375e+01 -4.780041694641113281e+00 -7.396129518747329712e-02 -1.456200838088989258e+00 5.994053930044174194e-02
2.530000000000000000e+02 6.270656967163085938e+01 3.058976173400878906e+01 -4.832930088043212891e+00 -2.680172026157379150e-02 -1.457919478416442871e+00 9.898351132869720459e-02
2.540000000000000000e+02 6.344135665893554688e+01 3.008043861389160156e+01 -2.893113613128662109e+00 1.422973722219467163e-01 -8.252449035644531250e-01 4.485202431678771973e-01
2.550000000000000000e+02 6.519034576416015625e+01 3.059278869628906250e+01 -3.368967533111572266e+00 1.217190027236938477e-01 -9.741745591163635254e-01 3.384579420089721680e-01
2.560000000000000000e+02 6.534205627441406250e+01 3.058450889587402344e+01 -2.975530862808227539e+00 1.650296300649642944e-01 -8.431503772735595703e-01 4.137572944164276123e-01
2.570000000000000000e+02 6.594319152832031250e+01 2.951215171813964844e+01 2.736147642135620117e+00 6.978401184082031250e+00 2.914364576339721680e+00 6.611485004425048828e+00
2.580000000000000000e+02 6.794554138183593750e+01 3.175459480285644531e+01 5.957732200622558594e+00 2.098133277893066406e+01 8.081719398498535156e+00 2.923302173614501953e+00
2.590000000000000000e+02 6.778269958496093750e+01 3.187702178955078125e+01 4.384362220764160156e+00 2.170447158813476562e+01 7.826649665832519531e+00 1.946817517280578613e+00
2.600000000000000000e+02 6.720529937744140625e+01 3.190720558166503906e+01 1.636210203170776367e+00 2.420357704162597656e+01 7.751935958862304688e+00 -2.376008272171020508e+00
2.610000000000000000e+02 6.438442993164062500e+01 3.224597167968750000e+01 5.647727847099304199e-01 1.016578316688537598e+00 4.744053184986114502e-01 -1.567039847373962402e+00
2.620000000000000000e+02 6.536984252929687500e+01 3.102962112426757812e+01 -3.392426729202270508e+00 -3.649980574846267700e-02 -1.028677940368652344e+00 -3.845695406198501587e-02
2.630000000000000000e+02 6.394094467163085938e+01 2.950634765625000000e+01 -7.716324925422668457e-01 7.106513381004333496e-01 -1.829434186220169067e-02 1.443541526794433594e+00
2.640000000000000000e+02 6.484082794189453125e+01 3.050339126586914062e+01 -3.240748405456542969e+00 1.216256711632013321e-02 -9.685757756233215332e-01 2.951302826404571533e-01
2.650000000000000000e+02 6.656309509277343750e+01 2.977531242370605469e+01 2.535978794097900391e+00 1.556767272949218750e+01 5.431095600128173828e+00 8.395516395568847656e+00
2.660000000000000000e+02 6.577523040771484375e+01 3.074710464477539062e+01 -3.877084016799926758e+00 -1.559399366378784180e-01 -1.209907174110412598e+00 1.287812292575836182e-01
2.670000000000000000e+02 6.454744720458984375e+01 2.950296974182128906e+01 8.246234804391860962e-02 1.107143640518188477e+00 3.568817675113677979e-01 2.235335111618041992e+00
2.680000000000000000e+02 6.774486541748046875e+01 3.153019142150878906e+01 7.722634315490722656e+00 2.277035713195800781e+01 9.147896766662597656e+00 3.179314136505126953e+00
2.690000000000000000e+02 6.794703674316406250e+01 3.114162635803222656e+01 1.202988338470458984e+01 1.999964904785156250e+01 9.608860015869140625e+00 2.184496879577636719e+00
2.700000000000000000e+02 6.801981353759765625e+01 3.141159820556640625e+01 9.368558883666992188e+00 1.990756607055664062e+01 8.782837867736816406e+00 2.889917373657226562e+00
2.710000000000000000e+02 6.797894287109375000e+01 3.094214820861816406e+01 1.291637039184570312e+01 1.932951354980468750e+01 9.673765182495117188e+00 6.759548783302307129e-01
2.720000000000000000e+02 6.715840148925781250e+01 2.978465080261230469e+01 1.264497399330139160e+00 2.387226867675781250e+01 7.541029930114746094e+00 3.049307346343994141e+00
2.730000000000000000e+02 6.417961883544921875e+01 3.226583862304687500e+01 2.213095426559448242e-01 7.797718644142150879e-01 3.003244400024414062e-01 -1.316254615783691406e+00
2.740000000000000000e+02 6.400091552734375000e+01 3.229915237426757812e+01 4.694987833499908447e-02 1.063012480735778809e+00 3.329887092113494873e-01 -1.075192689895629883e+00
2.750000000000000000e+02 6.513239288330078125e+01 3.129836654663085938e+01 -1.398058772087097168e+00 2.046752721071243286e-01 -3.580150306224822998e-01 -5.370162129402160645e-01
2.760000000000000000e+02 6.520005798339843750e+01 3.227432632446289062e+01 1.998513102531433105e+00 2.701857328414916992e+00 1.410111069679260254e+00 -3.419256210327148438e+00
2.770000000000000000e+02 6.659011840820312500e+01 3.194273376464843750e+01 2.646734476089477539e+00 1.605389213562011719e+01 5.610187530517578125e+00 -8.119079589843750000e+00
2.780000000000000000e+02 6.658735656738281250e+01 3.221605682373046875e+01 1.965893387794494629e+00 1.534504699707031250e+01 5.193282127380371094e+00 -7.095304965972900391e+00
2.790000000000000000e+02 6.397760772705078125e+01 3.102209663391113281e+01 -4.186319351196289062e+00 -1.322868168354034424e-01 -1.295581817626953125e+00 6.491860747337341309e-02
2.800000000000000000e+02 6.603234863281250000e+01 3.158679771423339844e+01 4.573408603668212891e+00 4.070696830749511719e+00 2.593231678009033203e+00 -5.625677585601806641e+00
2.810000000000000000e+02 6.560366058349609375e+01 3.128634643554687500e+01 3.269836008548736572e-01 3.269579708576202393e-01 1.961824744939804077e-01 -1.226671576499938965e+00
2.820000000000000000e+02 6.578257751464843750e+01 3.099031066894531250e+01 -2.972130775451660156e+00 -9.153738617897033691e-02 -9.191004633903503418e-01 -3.957673534750938416e-02
2.830000000000000000e+02 6.797950744628906250e+01 3.074717712402343750e+01 1.292735099792480469e+01 1.942534065246582031e+01 9.705807685852050781e+00 -8.739709258079528809e-01
2.840000000000000000e+02 6.741161346435546875e+01 3.181787490844726562e+01 3.059753179550170898e+00 2.469076919555664062e+01 8.325157165527343750e+00 3.128617107868194580e-01
2.850000000000000000e+02 6.699835968017578125e+01 3.196405792236328125e+01 1.334030508995056152e+00 2.233687019348144531e+01 7.101270198822021484e+00 -4.788287639617919922e+00
2.860000000000000000e+02 6.638595581054687500e+01 3.188673973083496094e+01 3.798280954360961914e+00 1.187637042999267578e+01 4.702395439147949219e+00 -8.269268035888671875e+00
2.870000000000000000e+02 6.590761566162109375e+01 3.140556907653808594e+01 3.245232582092285156e+00 1.534143686294555664e+00 1.433812856674194336e+00 -3.327988624572753906e+00
2.880000000000000000e+02 6.582279968261718750e+01 3.120564842224121094e+01 7.836357951164245605e-01 5.725002884864807129e-01 4.068408310413360596e-01 -1.449780821800231934e+00
2.890000000000000000e+02 6.602956390380859375e+01 3.020181655883789062e+01 4.364065170288085938e+00 3.544220924377441406e+00 2.372485876083374023e+00 5.591221809387207031e+00
2.900000000000000000e+02 6.616415405273437500e+01 2.981856727600097656e+01 3.606956005096435547e+00 8.282595634460449219e+00 3.566865444183349609e+00 7.528913021087646484e+00
2.910000000000000000e+02 6.675900268554687500e+01 2.974966049194335938e+01 1.536653518676757812e+00 1.921103668212890625e+01 6.224306583404541016e+00 7.329096317291259766e+00
2.920000000000000000e+02 6.695781707763671875e+01 2.975162315368652344e+01 9.787315726280212402e-01 2.195719909667968750e+01 6.880779266357421875e+00 5.489063262939453125e+00
2.930000000000000000e+02 6.783019256591796875e+01 3.027340316772460938e+01 9.174535751342773438e+00 2.170762062072753906e+01 9.264646530151367188e+00 -3.161987066268920898e+00
2.940000000000000000e+02 6.395718002319335938e+01 2.993411636352539062e+01 -2.016560077667236328e+00 1.657685488462448120e-01 -5.552374124526977539e-01 7.582111358642578125e-01
2.950000000000000000e+02 6.417796325683593750e+01 3.075994873046875000e+01 -5.265677452087402344e+00 2.835845947265625000e-02 -1.571195721626281738e+00 2.013347111642360687e-02
2.960000000000000000e+02 6.438478851318359375e+01 3.074848556518554688e+01 -5.205296993255615234e+00 -3.755791345611214638e-03 -1.562715768814086914e+00 4.157039150595664978e-02
2.970000000000000000e+02 6.397192382812500000e+01 3.076991462707519531e+01 -5.427934646606445312e+00 -1.668256819248199463e-01 -1.678428053855895996e+00 1.459793746471405029e-01
2.980000000000000000e+02 6.823049926757812500e+01 3.093888854980468750e+01 1.131241226196289062e+01 1.769300460815429688e+01 8.701624870300292969e+00 5.669298768043518066e-01
2.990000000000000000e+02 6.616224670410156250e+01 3.221113586425781250e+01 2.956285953521728516e+00 9.443785667419433594e+00 3.720021486282348633e+00 -7.028847217559814453e+00
3.000000000000000000e+02 6.557749938964843750e+01 3.101638031005859375e+01 -3.196315765380859375e+00 6.248619407415390015e-02 -9.401488900184631348e-01 -5.213444679975509644e-02
3.010000000000000000e+02 6.559530639648437500e+01 3.225313568115234375e+01 2.710954189300537109e+00 4.604946613311767578e+00 2.194770097732543945e+00 -4.868421077728271484e+00
3.020000000000000000e+02 6.786135101318359375e+01 3.133852577209472656e+01 1.044074153900146484e+01 2.115176200866699219e+01 9.477750778198242188e+00 3.148054599761962891e+00
3.030000000000000000e+02 6.735405731201171875e+01 3.219517135620117188e+01 1.235960841178894043e+00 2.147259330749511719e+01 6.812566280364990234e+00 -1.381180405616760254e+00
3.040000000000000000e+02 6.637435150146484375e+01 3.219706726074218750e+01 2.629013538360595703e+00 1.205226802825927734e+01 4.404384613037109375e+00 -7.359457492828369141e+00
3.050000000000000000e+02 6.679251861572265625e+01 3.222270584106445312e+01 1.219746708869934082e+00 1.781403160095214844e+01 5.710133552551269531e+00 -6.138782501220703125e+00
3.060000000000000000e+02 6.611969757080078125e+01 3.004832458496093750e+01 4.431739807128906250e+00 6.113718032836914062e+00 3.163637399673461914e+00 7.068225860595703125e+00
3.070000000000000000e+02 6.637696075439453125e+01 2.982268714904785156e+01 3.490120887756347656e+00 1.169787120819091797e+01 4.556397914886474609e+00 8.500700950622558594e+00
3.080000000000000000e+02 6.770932006835937500e+01 3.011772727966308594e+01 6.717131614685058594e+00 2.314650535583496094e+01 8.959091186523437500e+00 -2.828815698623657227e+00
3.090000000000000000e+02 6.552165985107421875e+01 2.951102256774902344e+01 2.212382316589355469e+00 3.992072582244873047e+00 1.861336469650268555e+00 4.840335369110107422e+00
3.100000000000000000e+02 6.735537719726562500e+01 2.987028312683105469e+01 2.315806865692138672e+00 2.470214271545410156e+01 8.105384826660156250e+00 6.307678818702697754e-01
3.110000000000000000e+02 6.798493957519531250e+01 3.037825012207031250e+01 1.007290744781494141e+01 2.017795562744140625e+01 9.075259208679199219e+00 -2.593365430831909180e+00
3.120000000000000000e+02 6.728397369384765625e+01 3.206563949584960938e+01 1.316204190254211426e+00 2.266503715515136719e+01 7.194372177124023438e+00 -1.951758265495300293e+00
3.130000000000000000e+02 6.764792633056640625e+01 2.966524505615234375e+01 2.215060949325561523e+00 2.168401336669921875e+01 7.169722557067871094e+00 -4.581254720687866211e-01
3.140000000000000000e+02 6.754592895507812500e+01 2.998492240905761719e+01 4.473942756652832031e+00 2.431670570373535156e+01 8.637194633483886719e+00 -1.726038694381713867e+00
3.150000000000000000e+02 6.733750915527343750e+01 2.954357910156250000e+01 8.351895809173583984e-01 2.185658454895019531e+01 6.807532310485839844e+00 1.910968065261840820e+00
3.160000000000000000e+02 6.764575958251953125e+01 3.202189254760742188e+01 2.787445068359375000e+00 2.231823158264160156e+01 7.531702995300292969e+00 1.055672526359558105e+00
3.170000000000000000e+02 6.715504455566406250e+01 2.952644157409667969e+01 5.990054011344909668e-01 2.109837722778320312e+01 6.509214878082275391e+00 3.480329990386962891e+00
3.180000000000000000e+02 6.742726898193359375e+01 2.971191596984863281e+01 1.854923009872436523e+00 2.304824256896972656e+01 7.470949649810791016e+00 6.426629424095153809e-01
3.190000000000000000e+02 6.806498718261718750e+01 3.163327407836914062e+01 7.264490604400634766e+00 1.951484870910644531e+01 8.033802032470703125e+00 2.850702524185180664e+00
3.200000000000000000e+02 6.811992645263671875e+01 3.023032951354980469e+01 8.187255859375000000e+00 1.932403564453125000e+01 8.253387451171875000e+00 -2.808513641357421875e+00
3.210000000000000000e+02 6.821160125732421875e+01 3.055631637573242188e+01 1.051739025115966797e+01 1.800294303894042969e+01 8.556099891662597656e+00 -1.558427929878234863e+00
3.220000000000000000e+02 6.823105621337890625e+01 3.074336433410644531e+01 1.113087749481201172e+01 1.770991325378417969e+01 8.652237892150878906e+00 -5.871554613113403320e-01
3.230000000000000000e+02 6.818795776367187500e+01 3.132229995727539062e+01 9.868457794189453125e+00 1.851216316223144531e+01 8.514186859130859375e+00 2.440997123718261719e+00
3.240000000000000000e+02 6.788435363769531250e+01 2.993691253662109375e+01 5.401326656341552734e+00 2.122851943969726562e+01 7.988954067230224609e+00 -2.495832681655883789e+00
3.250000000000000000e+02 6.760314941406250000e+01 3.170091629028320312e+01 5.224781513214111328e+00 2.398694419860839844e+01 8.763517379760742188e+00 2.179103374481201172e+00
3.260000000000000000e+02 6.814906311035156250e+01 3.148034667968750000e+01 8.221172332763671875e+00 1.896967315673828125e+01 8.157253265380859375e+00 2.693610429763793945e+00
3.270000000000000000e+02 6.801079559326171875e+01 3.008917045593261719e+01 6.923191070556640625e+00 2.015326499938964844e+01 8.122936248779296875e+00 -2.821607351303100586e+00
3.280000000000000000e+02 6.751467895507812500e+01 3.212598037719726562e+01 1.615727782249450684e+00 2.168225288391113281e+01 6.989394187927246094e+00 -4.537332057952880859e-01
3.290000000000000000e+02 6.700052642822265625e+01 3.221579360961914062e+01 8.370556235313415527e-01 1.989089584350585938e+01 6.218385696411132812e+00 -4.526339530944824219e+00
3.300000000000000000e+02 6.749528503417968750e+01 2.958207893371582031e+01 1.594394683837890625e+00 2.164673805236816406e+01 6.972340106964111328e+00 4.074127078056335449e-01
3.310000000000000000e+02 6.398908233642578125e+01 3.123164749145507812e+01 -3.190720319747924805e+00 -1.925689913332462311e-02 -9.629931449890136719e-01 7.896352559328079224e-02
3.320000000000000000e+02 6.597418212890625000e+01 3.225920486450195312e+01 3.051564216613769531e+00 7.531850337982177734e+00 3.175024509429931641e+00 -6.408111572265625000e+00
3.330000000000000000e+02 6.539472198486328125e+01 3.227255630493164062e+01 2.273564100265502930e+00 3.418738365173339844e+00 1.707690715789794922e+00 -3.953115701675415039e+00
3.340000000000000000e+02 6.401923370361328125e+01 3.165559768676757812e+01 -1.462010025978088379e+00 1.793426871299743652e-01 -3.848001956939697266e-01 -2.871400117874145508e-01
3.350000000000000000e+02 6.541506195068359375e+01 3.189671897888183594e+01 2.426955223083496094e+00 2.215027093887329102e+00 1.392594695091247559e+00 -3.333742380142211914e+00
3.360000000000000000e+02 6.579314422607421875e+01 3.225834274291992188e+01 2.928825139999389648e+00 5.885642051696777344e+00 2.644340038299560547e+00 -5.542189121246337891e+00
3.370000000000000000e+02 6.679164123535156250e+01 3.196806716918945312e+01 1.811730146408081055e+00 1.959455108642578125e+01 6.421884536743164062e+00 -6.963663578033447266e+00
3.380000000000000000e+02 6.508460998535156250e+01 3.155513954162597656e+01 8.567336201667785645e-02 4.852378070354461670e-01 1.712733507156372070e-01 -1.184845685958862305e+00
3.390000000000000000e+02 6.516209411621093750e+01 3.102940368652343750e+01 -3.586824417114257812e+00 3.812316060066223145e-02 -1.064610362052917480e+00 -4.098746925592422485e-02
3.400000000000000000e+02 6.404267120361328125e+01 3.189144325256347656e+01 -7.793953418731689453e-01 3.086307048797607422e-01 -1.412293761968612671e-01 -6.268011927604675293e-01
3.410000000000000000e+02 6.453885650634765625e+01 3.118441772460937500e+01 -3.030942916870117188e+00 5.355342477560043335e-02 -8.932168483734130859e-01 -8.253012597560882568e-02
3.420000000000000000e+02 6.495767211914062500e+01 3.102307128906250000e+01 -3.776531457901000977e+00 6.859101820737123489e-03 -1.130901694297790527e+00 -5.973747000098228455e-03
3.430000000000000000e+02 6.417827606201171875e+01 3.101228332519531250e+01 -4.162635803222656250e+00 7.679305970668792725e-02 -1.225752830505371094e+00 1.255111694335937500e-01
3.440000000000000000e+02 6.460578918457031250e+01 3.226722717285156250e+01 1.060119390487670898e+00 1.349845647811889648e+00 7.229894995689392090e-01 -2.002801895141601562e+00
3.450000000000000000e+02 6.495481109619140625e+01 2.949333953857421875e+01 1.025630116462707520e+00 1.756350994110107422e+00 8.345943093299865723e-01 2.995379447937011719e+00
3.460000000000000000e+02 6.498484802246093750e+01 3.076491546630859375e+01 -5.043154716491699219e+00 -1.331310067325830460e-02 -1.516940355300903320e+00 2.734179049730300903e-02
3.470000000000000000e+02 6.458975982666015625e+01 3.074416351318359375e+01 -5.140485763549804688e+00 -2.761337906122207642e-02 -1.550429821014404297e+00 2.211813069880008698e-02
3.480000000000000000e+02 6.513212585449218750e+01 2.948023033142089844e+01 1.596277952194213867e+00 2.375483512878417969e+00 1.191528439521789551e+00 3.633950710296630859e+00
3.490000000000000000e+02 6.479025268554687500e+01 3.075192832946777344e+01 -5.096302986145019531e+00 2.471612580120563507e-02 -1.521476030349731445e+00 1.026050653308629990e-02
3.500000000000000000e+02 6.448389434814453125e+01 3.011202621459960938e+01 -1.886550784111022949e+00 2.705005705356597900e-01 -4.848150610923767090e-01 8.391714692115783691e-01
3.510000000000000000e+02 6.396763992309570312e+01 3.055517005920410156e+01 -4.370633125305175781e+00 -1.668190509080886841e-01 -1.361235618591308594e+00 1.387804448604583740e-01
3.520000000000000000e+02 6.395860290527343750e+01 3.034703254699707031e+01 -3.437423229217529297e+00 4.514009505510330200e-02 -1.017684936523437500e+00 1.715329289436340332e-01
3.530000000000000000e+02 6.615281677246093750e+01 2.951630973815917969e+01 2.554764032363891602e+00 9.484576225280761719e+00 3.611802101135253906e+00 7.271377086639404297e+00
3.540000000000000000e+02 6.655097961425781250e+01 2.950219917297363281e+01 1.545897126197814941e+00 1.467559051513671875e+01 4.866446495056152344e+00 7.376073837280273438e+00
3.550000000000000000e+02 6.524671173095703125e+01 2.975232887268066406e+01 1.416536569595336914e+00 1.920121192932128906e+00 1.000997304916381836e+00 3.250122308731079102e+00
3.560000000000000000e+02 6.475681304931640625e+01 2.951218414306640625e+01 4.407351613044738770e-01 1.438937067985534668e+00 5.639016628265380859e-01 2.593175411224365234e+00
3.570000000000000000e+02 6.491830444335937500e+01 2.984336280822753906e+01 2.019302248954772949e-01 1.027598023414611816e+00 3.688584864139556885e-01 2.120394706726074219e+00
3.580000000000000000e+02 6.493437194824218750e+01 3.024408340454101562e+01 -1.417157649993896484e+00 3.049245774745941162e-01 -3.336699306964874268e-01 9.925854206085205078e-01
3.590000000000000000e+02 6.635386657714843750e+01 2.951284790039062500e+01 2.051097631454467773e+00 1.180627918243408203e+01 4.157213211059570312e+00 7.561483860015869141e+00
3.600000000000000000e+02 6.675216674804687500e+01 2.949510765075683594e+01 9.766624569892883301e-01 1.744202613830566406e+01 5.525606632232666016e+00 6.496099472045898438e+00
3.610000000000000000e+02 6.695290374755859375e+01 2.949992752075195312e+01 5.993993878364562988e-01 1.978704643249511719e+01 6.115933895111083984e+00 5.207770824432373047e+00
3.620000000000000000e+02 6.437401580810546875e+01 3.100095367431640625e+01 -4.166953086853027344e+00 -5.115382000803947449e-02 -1.265432000160217285e+00 8.829949796199798584e-02
3.630000000000000000e+02 6.440827941894531250e+01 3.201215744018554688e+01 8.337603509426116943e-02 7.171299457550048828e-01 2.401517927646636963e-01 -1.141929149627685547e+00
3.640000000000000000e+02 6.416195678710937500e+01 2.972475814819335938e+01 -1.016688466072082520e+00 4.960058033466339111e-01 -1.562047749757766724e-01 1.321258664131164551e+00
3.650000000000000000e+02 6.520283508300781250e+01 3.205707168579101562e+01 2.028866529464721680e+00 2.098564147949218750e+00 1.238229155540466309e+00 -3.094840049743652344e+00
3.660000000000000000e+02 6.480716705322265625e+01 3.227028656005859375e+01 1.529911041259765625e+00 1.827659964561462402e+00 1.007271289825439453e+00 -2.539202928543090820e+00
3.670000000000000000e+02 6.619232177734375000e+01 3.176218986511230469e+01 4.614193916320800781e+00 7.732206821441650391e+00 3.703920364379882812e+00 -7.469075202941894531e+00
3.680000000000000000e+02 6.537838745117187500e+01 3.207239532470703125e+01 2.337746858596801758e+00 2.828737497329711914e+00 1.549945235252380371e+00 -3.625406742095947266e+00
3.690000000000000000e+02 6.438052368164062500e+01 3.117880058288574219e+01 -3.261734962463378906e+00 6.026678532361984253e-02 -9.604404568672180176e-01 2.726237662136554718e-02
3.700000000000000000e+02 6.503749084472656250e+01 3.180177497863769531e+01 1.077064275741577148e+00 9.508110284805297852e-01 6.083626151084899902e-01 -1.840190887451171875e+00
3.710000000000000000e+02 6.474905395507812500e+01 2.973897552490234375e+01 1.536166369915008545e-01 1.055480837821960449e+00 3.627292513847351074e-01 2.140741825103759766e+00
3.720000000000000000e+02 6.395080947875976562e+01 2.972088432312011719e+01 -1.452071905136108398e+00 4.425863027572631836e-01 -3.028456866741180420e-01 1.059077501296997070e+00
3.730000000000000000e+02 6.582498931884765625e+01 3.051888847351074219e+01 1.025433763861656189e-01 4.324993789196014404e-01 1.605128198862075806e-01 1.552241683006286621e+00
3.740000000000000000e+02 6.426792907714843750e+01 3.163526344299316406e+01 -1.306379318237304688e+00 1.771349012851715088e-01 -3.387733101844787598e-01 -3.427921533584594727e-01
3.750000000000000000e+02 6.449668121337890625e+01 3.166282463073730469e+01 -7.274748086929321289e-01 3.822046518325805664e-01 -1.035810410976409912e-01 -6.888327002525329590e-01
3.760000000000000000e+02 6.414563751220703125e+01 2.950553321838378906e+01 -5.908448696136474609e-01 6.484490633010864258e-01 1.728125847876071930e-02 1.574348688125610352e+00
3.770000000000000000e+02 6.570291900634765625e+01 3.190145683288574219e+01 3.377100944519042969e+00 3.783772706985473633e+00 2.148262023925781250e+00 -4.730359554290771484e+00
3.780000000000000000e+02 6.593097686767578125e+01 3.034444999694824219e+01 2.696440458297729492e+00 1.562708497047424316e+00 1.277744770050048828e+00 3.411479711532592773e+00
3.790000000000000000e+02 6.523912811279296875e+01 3.183428764343261719e+01 1.817250132560729980e+00 1.507604837417602539e+00 9.974564909934997559e-01 -2.578710556030273438e+00
3.800000000000000000e+02 6.553029632568359375e+01 3.170709419250488281e+01 2.357619285583496094e+00 1.676244974136352539e+00 1.210159301757812500e+00 -2.998316287994384766e+00
3.810000000000000000e+02 6.481453704833984375e+01 3.203539276123046875e+01 1.060717463493347168e+00 1.239911437034606934e+00 6.901886463165283203e-01 -1.995468974113464355e+00
3.820000000000000000e+02 6.531749725341796875e+01 3.159335327148437500e+01 1.126777172088623047e+00 8.665097951889038086e-01 5.979861021041870117e-01 -1.849748849868774414e+00
3.830000000000000000e+02 6.427928924560546875e+01 3.186688232421875000e+01 -4.075531363487243652e-01 5.163115262985229492e-01 3.262751922011375427e-02 -8.341403603553771973e-01
3.840000000000000000e+02 6.570543670654296875e+01 3.153303527832031250e+01 2.569108247756958008e+00 1.679467558860778809e+00 1.274572730064392090e+00 -3.037859678268432617e+00
3.850000000000000000e+02 6.536766052246093750e+01 3.076933097839355469e+01 -4.604713439941406250e+00 5.212587118148803711e-02 -1.365776181221008301e+00 1.901645362377166748e-01
3.860000000000000000e+02 6.570736694335937500e+01 2.976778221130371094e+01 2.720329999923706055e+00 3.922794103622436523e+00 1.992937326431274414e+00 5.082049846649169922e+00
3.870000000000000000e+02 6.505572509765625000e+01 2.965778160095214844e+01 9.491669535636901855e-01 1.610972762107849121e+00 7.680419087409973145e-01 2.908755064010620117e+00
3.880000000000000000e+02 6.511643218994140625e+01 3.033893203735351562e+01 -1.321210980415344238e+00 2.266688793897628784e-01 -3.283626437187194824e-01 9.686050415039062500e-01
3.890000000000000000e+02 6.554225158691406250e+01 3.203435516357421875e+01 2.759271860122680664e+00 3.325857400894165039e+00 1.825538754463195801e+00 -4.204543590545654297e+00
3.900000000000000000e+02 6.550579833984375000e+01 3.051817893981933594e+01 -1.503165483474731445e+00 6.872506439685821533e-02 -4.303320944309234619e-01 6.867552995681762695e-01
3.910000000000000000e+02 6.509732818603515625e+01 2.999550819396972656e+01 2.872675955295562744e-01 8.851681351661682129e-01 3.517307043075561523e-01 2.088463068008422852e+00
3.920000000000000000e+02 6.433245849609375000e+01 3.026322174072265625e+01 -2.676491022109985352e+00 5.941159650683403015e-02 -7.851238250732421875e-01 5.435167551040649414e-01
3.930000000000000000e+02 6.569949340820312500e+01 2.999148941040039062e+01 2.690243959426879883e+00 2.680458068847656250e+00 1.611210584640502930e+00 4.313074111938476562e+00
3.940000000000000000e+02 6.539454650878906250e+01 3.032732391357421875e+01 -6.293198466300964355e-02 5.432271361351013184e-01 1.440885514020919800e-01 1.643171668052673340e+00
3.950000000000000000e+02 6.434700775146484375e+01 2.950300407409667969e+01 -2.141953110694885254e-01 9.089207053184509277e-01 2.084176242351531982e-01 1.923519372940063477e+00
3.960000000000000000e+02 6.395628356933593750e+01 3.014223480224609375e+01 -2.730670213699340820e+00 6.553854048252105713e-02 -7.995395064353942871e-01 4.717829525470733643e-01
3.970000000000000000e+02 6.455255889892578125e+01 2.992617034912109375e+01 -8.790934681892395020e-01 3.658449947834014893e-01 -1.539745479822158813e-01 1.235555052757263184e+00
3.980000000000000000e+02 6.436207580566406250e+01 2.972042083740234375e+01 -7.215124964714050293e-01 5.258433818817138672e-01 -5.870074033737182617e-02 1.482948422431945801e+00
3.990000000000000000e+02 6.418032836914062500e+01 2.995110130310058594e+01 -1.801123857498168945e+00 3.174472153186798096e-01 -4.451030194759368896e-01 9.256900548934936523e-01
4.000000000000000000e+02 6.416264343261718750e+01 3.015624046325683594e+01 -2.327295303344726562e+00 1.227495074272155762e-01 -6.613637208938598633e-01 5.319999456405639648e-01
4.010000000000000000e+02 6.417817687988281250e+01 3.053314781188964844e+01 -4.167988777160644531e+00 -3.560767322778701782e-02 -1.261078834533691406e+00 2.238273769617080688e-01
4.020000000000000000e+02 6.439790344238281250e+01 3.048944664001464844e+01 -3.650017738342285156e+00 2.953539602458477020e-02 -1.086144685745239258e+00 2.115815579891204834e-01
4.030000000000000000e+02 6.455493927001953125e+01 2.972180366516113281e+01 -2.403726875782012939e-01 7.513853311538696289e-01 1.533038020133972168e-01 1.866817593574523926e+00
4.040000000000000000e+02 6.531859588623046875e+01 2.950235366821289062e+01 1.853543877601623535e+00 2.956975221633911133e+00 1.443155765533447266e+00 4.097864151000976562e+00
4.050000000000000000e+02 6.547325897216796875e+01 2.978041267395019531e+01 1.965611577033996582e+00 2.479728937149047852e+00 1.333602190017700195e+00 3.895069837570190430e+00
4.060000000000000000e+02 6.573205566406250000e+01 2.951054954528808594e+01 2.489088773727416992e+00 5.076127529144287109e+00 2.269564867019653320e+00 5.603103160858154297e+00
4.070000000000000000e+02 6.592985534667968750e+01 2.977595710754394531e+01 3.223387956619262695e+00 5.401982784271240234e+00 2.587611198425292969e+00 6.128228664398193359e+00
4.080000000000000000e+02 6.776857757568359375e+01 2.978296089172363281e+01 3.781543731689453125e+00 2.176114273071289062e+01 7.662806034088134766e+00 -1.800004482269287109e+00
4.090000000000000000e+02 6.760343170166015625e+01 2.980886268615722656e+01 3.271536350250244141e+00 2.299786758422851562e+01 7.880821228027343750e+00 -1.101278662681579590e+00
4.100000000000000000e+02 6.818520355224609375e+01 3.038173484802246094e+01 9.826226234436035156e+00 1.848335838317871094e+01 8.492875099182128906e+00 -2.313951969146728516e+00
4.110000000000000000e+02 6.795390319824218750e+01 3.056179428100585938e+01 1.186960697174072266e+01 1.997570037841796875e+01 9.553591728210449219e+00 -2.218375921249389648e+00
4.120000000000000000e+02 6.820478820800781250e+01 3.113985824584960938e+01 1.066416645050048828e+01 1.802177619934082031e+01 8.605782508850097656e+00 1.637279272079467773e+00
4.130000000000000000e+02 6.791983032226562500e+01 3.158897781372070312e+01 7.513342380523681641e+00 2.107156562805175781e+01 8.575471878051757812e+00 3.064297199249267578e+00
4.140000000000000000e+02 6.747169494628906250e+01 3.198458671569824219e+01 2.371585845947265625e+00 2.322207641601562500e+01 7.678098678588867188e+00 -7.578964810818433762e-03
4.150000000000000000e+02 6.718985748291015625e+01 3.221847534179687500e+01 7.820129990577697754e-01 2.121339607238769531e+01 6.598622798919677734e+00 -3.052305936813354492e+00
4.160000000000000000e+02 6.603650665283203125e+01 3.194810104370117188e+01 3.927669286727905273e+00 6.995810985565185547e+00 3.277044057846069336e+00 -6.652090072631835938e+00
4.170000000000000000e+02 6.500473785400390625e+01 3.227196502685546875e+01 1.882894754409790039e+00 2.144141674041748047e+00 1.208110928535461426e+00 -2.939525604248046875e+00
4.180000000000000000e+02 6.501220703125000000e+01 3.204197311401367188e+01 1.521791577339172363e+00 1.613785982131958008e+00 9.406732916831970215e-01 -2.566821813583374023e+00
4.190000000000000000e+02 6.461591339111328125e+01 3.203660964965820312e+01 7.009819149971008301e-01 9.492341279983520508e-01 4.950648248195648193e-01 -1.637269616127014160e+00
4.200000000000000000e+02 6.402648162841796875e+01 3.210940170288085938e+01 -1.807309985160827637e-01 6.286492943763732910e-01 1.343754976987838745e-01 -8.830838799476623535e-01
4.210000000000000000e+02 6.419757843017578125e+01 3.121242332458496094e+01 -3.266869783401489258e+00 4.703160375356674194e-03 -9.786499738693237305e-01 6.362993735820055008e-03
4.220000000000000000e+02 6.456616973876953125e+01 3.100046730041503906e+01 -4.097711086273193359e+00 6.461799889802932739e-02 -1.209927916526794434e+00 6.444750726222991943e-02
4.230000000000000000e+02 6.475915527343750000e+01 3.101192665100097656e+01 -3.951728582382202148e+00 3.300373209640383720e-03 -1.184528470039367676e+00 4.035175312310457230e-03
4.240000000000000000e+02 6.424430084228515625e+01 3.141847801208496094e+01 -2.151784896850585938e+00 6.720472127199172974e-02 -6.253740787506103516e-01 -1.659925431013107300e-01
4.250000000000000000e+02 6.400518798828125000e+01 3.144202995300292969e+01 -2.273176670074462891e+00 1.226061731576919556e-01 -6.451711654663085938e-01 -5.354697629809379578e-02
4.260000000000000000e+02 6.491384124755859375e+01 3.127468490600585938e+01 -2.108077287673950195e+00 1.101266294717788696e-01 -5.993852019309997559e-01 -2.880895435810089111e-01
4.270000000000000000e+02 6.471113586425781250e+01 3.123534202575683594e+01 -2.611753463745117188e+00 7.290933281183242798e-02 -7.616532444953918457e-01 -1.125293299555778503e-01
4.280000000000000000e+02 6.556645202636718750e+01 3.074356460571289062e+01 -4.167323589324951172e+00 5.827732849866151810e-03 -1.248448729515075684e+00 2.373014986515045166e-01
4.290000000000000000e+02 6.517617034912109375e+01 3.077482604980468750e+01 -4.921694755554199219e+00 6.102287396788597107e-02 -1.458201646804809570e+00 6.621717661619186401e-02
4.300000000000000000e+02 6.462654113769531250e+01 3.047113227844238281e+01 -3.355415344238281250e+00 2.620106935501098633e-02 -9.987642765045166016e-01 2.934188544750213623e-01
4.310000000000000000e+02 6.536614227294921875e+01 3.131769943237304688e+01 -3.861013352870941162e-01 3.371061980724334717e-01 -1.469853706657886505e-02 -9.777737855911254883e-01
4.320000000000000000e+02 6.565753173828125000e+01 3.039212608337402344e+01 4.208826422691345215e-01 6.122086048126220703e-01 3.099273741245269775e-01 1.762924432754516602e+00
4.330000000000000000e+02 6.571191406250000000e+01 3.019994354248046875e+01 2.064193725585937500e+00 1.597623348236083984e+00 1.098545074462890625e+00 3.240224123001098633e+00
4.340000000000000000e+02 6.587942504882812500e+01 3.019140434265136719e+01 3.130414962768554688e+00 2.559916973114013672e+00 1.707099556922912598e+00 4.182873725891113281e+00
4.350000000000000000e+02 6.590377044677734375e+01 2.999416160583496094e+01 3.490062475204467773e+00 4.147484779357910156e+00 2.291264295578002930e+00 5.494096755981445312e+00
4.360000000000000000e+02 6.586590576171875000e+01 3.174138450622558594e+01 3.972915649414062500e+00 3.780190229415893555e+00 2.325931787490844727e+00 -5.101674556732177734e+00
4.370000000000000000e+02 6.415332794189453125e+01 3.033453178405761719e+01 -3.351125478744506836e+00 -6.972337514162063599e-02 -1.026254653930664062e+00 2.723428606986999512e-01
4.380000000000000000e+02 6.470369720458984375e+01 3.019139289855957031e+01 -1.693302631378173828e+00 1.993615329265594482e-01 -4.481823146343231201e-01 9.134163260459899902e-01
4.390000000000000000e+02 6.484917449951171875e+01 3.152741050720214844e+01 -6.932271718978881836e-01 3.752801120281219482e-01 -9.538412094116210938e-02 -7.714433073997497559e-01
4.400000000000000000e+02 6.461277770996093750e+01 3.146158981323242188e+01 -1.499164342880249023e+00 1.490293890237808228e-01 -4.050405025482177734e-01 -4.220885634422302246e-01
4.410000000000000000e+02 6.444161224365234375e+01 3.133735847473144531e+01 -2.327090263366699219e+00 1.393892168998718262e-01 -6.563103199005126953e-01 -1.662537753582000732e-01
4.420000000000000000e+02 6.461544799804687500e+01 3.181755256652832031e+01 -1.375746279954910278e-01 5.074272155761718750e-01 1.109557822346687317e-01 -1.015491724014282227e+00
4.430000000000000000e+02 6.586530303955078125e+01 3.207716751098632812e+01 3.248407602310180664e+00 5.793653011322021484e+00 2.712618112564086914e+00 -5.760203838348388672e+00
4.440000000000000000e+02 6.481661224365234375e+01 3.178582382202148438e+01 3.443785011768341064e-01 6.839023828506469727e-01 3.084842562675476074e-01 -1.347330689430236816e+00
4.450000000000000000e+02 6.502649688720703125e+01 3.054903221130371094e+01 -3.309488534927368164e+00 1.111141815781593323e-01 -9.595123529434204102e-01 2.730289697647094727e-01
4.460000000000000000e+02 6.438056945800781250e+01 2.993474960327148438e+01 -1.389075279235839844e+00 3.240855634212493896e-01 -3.194968998432159424e-01 1.098718762397766113e+00
4.470000000000000000e+02 6.445008087158203125e+01 3.183782196044921875e+01 -3.269008398056030273e-01 5.300016403198242188e-01 6.093024089932441711e-02 -9.435899257659912109e-01
4.480000000000000000e+02 6.527153015136718750e+01 3.014612770080566406e+01 1.910239458084106445e-01 8.517360091209411621e-01 3.128280043601989746e-01 1.966888308525085449e+00
4.490000000000000000e+02 6.474295043945312500e+01 2.994762611389160156e+01 -4.271436631679534912e-01 5.486201643943786621e-01 3.644295409321784973e-02 1.540143847465515137e+00
4.500000000000000000e+02 6.525910949707031250e+01 3.044452476501464844e+01 -1.638894319534301758e+00 1.940449923276901245e-01 -4.334548115730285645e-01 6.582838892936706543e-01
4.510000000000000000e+02 6.548136138916015625e+01 3.002570152282714844e+01 1.565521955490112305e+00 1.570623397827148438e+00 9.408436417579650879e-01 3.047238111495971680e+00
4.520000000000000000e+02 6.554907226562500000e+01 3.022966003417968750e+01 6.787045001983642578e-01 9.478357434272766113e-01 4.879620671272277832e-01 2.274293899536132812e+00
4.530000000000000000e+02 6.368059921264648438e+01 3.171674156188964844e+01 -1.668429017066955566e+00 2.353323698043823242e-01 -4.299289882183074951e-01 -2.096932679414749146e-01
4.540000000000000000e+02 6.190295410156250000e+01 3.207147979736328125e+01 -1.880554437637329102e+00 4.149997234344482422e-02 -5.517163276672363281e-01 1.247670352458953857e-01
4.550000000000000000e+02 6.324687957763671875e+01 3.174135208129882812e+01 -1.925151109695434570e+00 7.043530046939849854e-02 -5.564147233963012695e-01 -1.051601916551589966e-01
4.560000000000000000e+02 6.376345825195312500e+01 3.210565948486328125e+01 -3.726189136505126953e-01 2.897011041641235352e-01 -2.487534284591674805e-02 -5.823353528976440430e-01
4.570000000000000000e+02 6.371376419067382812e+01 3.193200683593750000e+01 -1.084728240966796875e+00 3.700814545154571533e-01 -2.143940329551696777e-01 -4.837607145309448242e-01
4.580000000000000000e+02 6.350033569335937500e+01 3.215400695800781250e+01 -6.455788016319274902e-01 4.520786106586456299e-01 -5.805006250739097595e-02 -5.946578383445739746e-01
4.590000000000000000e+02 6.124894332885742188e+01 3.211508941650390625e+01 -1.987898230552673340e+00 2.369983680546283722e-02 -5.892595052719116211e-01 1.963743716478347778e-01
4.600000000000000000e+02 6.198530578613281250e+01 3.132800483703613281e+01 -3.315110445022583008e+00 -3.038011491298675537e-02 -1.003647089004516602e+00 2.286978662014007568e-01
4.610000000000000000e+02 6.282480239868164062e+01 3.159990119934082031e+01 -2.525843143463134766e+00 5.752697214484214783e-02 -7.404948472976684570e-01 8.521234989166259766e-02
4.620000000000000000e+02 6.125308990478515625e+01 3.137445449829101562e+01 -3.094169855117797852e+00 9.732138365507125854e-03 -9.253313541412353516e-01 2.245154529809951782e-01
4.630000000000000000e+02 6.371405792236328125e+01 3.147547912597656250e+01 -2.427428245544433594e+00 1.746214181184768677e-01 -6.758420467376708984e-01 -1.671397686004638672e-02
4.640000000000000000e+02 6.357613372802734375e+01 3.105701828002929688e+01 -3.921591043472290039e+00 7.395905256271362305e-02 -1.154289603233337402e+00 2.408221811056137085e-01
4.650000000000000000e+02 6.369270324707031250e+01 3.127467727661132812e+01 -3.191669225692749023e+00 1.555008888244628906e-01 -9.108505249023437500e-01 1.691558659076690674e-01
4.660000000000000000e+02 6.309286117553710938e+01 3.217545700073242188e+01 -1.013384222984313965e+00 2.705899178981781006e-01 -2.228382974863052368e-01 -2.752953171730041504e-01
4.670000000000000000e+02 6.252278518676757812e+01 3.211101531982421875e+01 -1.562183618545532227e+00 1.286736279726028442e-01 -4.300529956817626953e-01 -2.475021779537200928e-02
4.680000000000000000e+02 6.315421295166015625e+01 3.125976753234863281e+01 -3.541403293609619141e+00 -9.134965389966964722e-02 -1.089825868606567383e+00 1.889515519142150879e-01
4.690000000000000000e+02 6.268716430664062500e+01 3.122577667236328125e+01 -3.536766290664672852e+00 6.277226842939853668e-03 -1.059146761894226074e+00 2.342473566532135010e-01
4.700000000000000000e+02 6.368909835815429688e+01 3.230455780029296875e+01 -2.270415574312210083e-01 4.620460867881774902e-01 7.050136476755142212e-02 -8.199568390846252441e-01
4.710000000000000000e+02 6.341661834716796875e+01 3.143798637390136719e+01 -2.863456964492797852e+00 6.461574137210845947e-02 -8.396523594856262207e-01 4.027254879474639893e-02
4.720000000000000000e+02 5.902614212036132812e+01 3.150998687744140625e+01 -2.622877836227416992e+00 -3.013738617300987244e-02 -7.959045767784118652e-01 2.451906651258468628e-01
4.730000000000000000e+02 5.907215118408203125e+01 3.224856185913085938e+01 -1.901420116424560547e+00 1.336948946118354797e-02 -5.664151906967163086e-01 3.312563300132751465e-01
4.740000000000000000e+02 5.828060531616210938e+01 3.155119895935058594e+01 -2.423601150512695312e+00 4.329232033342123032e-03 -7.257815599441528320e-01 2.515224814414978027e-01
4.750000000000000000e+02 5.977254104614257812e+01 3.146639251708984375e+01 -2.790588378906250000e+00 3.221848746761679649e-03 -8.362099528312683105e-01 2.451419830322265625e-01
4.760000000000000000e+02 6.055696487426757812e+01 3.215964889526367188e+01 -1.997337937355041504e+00 2.906982973217964172e-02 -5.904804468154907227e-01 2.501543462276458740e-01
4.770000000000000000e+02 6.051979827880859375e+01 3.142056083679199219e+01 -2.928237199783325195e+00 -2.176586538553237915e-02 -8.850008845329284668e-01 2.331302314996719360e-01
4.780000000000000000e+02 5.833103179931640625e+01 3.228951644897460938e+01 -1.835869669914245605e+00 -1.636959053575992584e-02 -5.556717514991760254e-01 3.576362431049346924e-01
4.790000000000000000e+02 5.981412887573242188e+01 3.220522308349609375e+01 -1.957067489624023438e+00 -2.732539782300591469e-03 -5.879399776458740234e-01 2.859083116054534912e-01
4.800000000000000000e+02 5.604499816894531250e+01 3.173213005065917969e+01 -1.886504411697387695e+00 -4.425596818327903748e-02 -5.792281031608581543e-01 2.529018521308898926e-01
4.810000000000000000e+02 5.611047744750976562e+01 3.246923828125000000e+01 -1.475715279579162598e+00 -2.738349139690399170e-02 -4.509296119213104248e-01 3.827949464321136475e-01
4.820000000000000000e+02 5.530117034912109375e+01 3.179267501831054688e+01 -1.688292860984802246e+00 -7.499829865992069244e-03 -5.087378025054931641e-01 2.469573616981506348e-01
4.830000000000000000e+02 5.678963851928710938e+01 3.166926193237304688e+01 -2.071424484252929688e+00 -1.376367080956697464e-02 -6.255564689636230469e-01 2.692641019821166992e-01
4.840000000000000000e+02 5.759029388427734375e+01 3.234218597412109375e+01 -1.726745963096618652e+00 2.373856026679277420e-03 -5.173116326332092285e-01 3.695671558380126953e-01
4.850000000000000000e+02 5.753508758544921875e+01 3.160421562194824219e+01 -2.239609718322753906e+00 -2.722229063510894775e-02 -6.800495982170104980e-01 2.635752856731414795e-01
4.860000000000000000e+02 5.537178421020507812e+01 3.252934646606445312e+01 -1.359345555305480957e+00 -5.958793312311172485e-02 -4.256800413131713867e-01 3.736104667186737061e-01
4.870000000000000000e+02 5.684997940063476562e+01 3.240679931640625000e+01 -1.596952438354492188e+00 -5.289939045906066895e-02 -4.949555695056915283e-01 3.690507113933563232e-01
4.880000000000000000e+02 5.315649414062500000e+01 3.277415466308593750e+01 -9.802589416503906250e-01 -5.798367783427238464e-02 -3.114727735519409180e-01 3.232456445693969727e-01
4.890000000000000000e+02 5.307151031494140625e+01 3.203905105590820312e+01 -1.211013078689575195e+00 -4.719187691807746887e-02 -3.774614930152893066e-01 2.153966426849365234e-01
4.900000000000000000e+02 5.232960128784179688e+01 3.212165451049804688e+01 -1.061300158500671387e+00 -2.234653569757938385e-02 -3.250939846038818359e-01 1.956208497285842896e-01
4.910000000000000000e+02 5.381415176391601562e+01 3.195396995544433594e+01 -1.364590406417846680e+00 -2.214154228568077087e-02 -4.160195887088775635e-01 2.356873750686645508e-01
4.920000000000000000e+02 5.463307952880859375e+01 3.260275268554687500e+01 -1.234678268432617188e+00 -3.390115126967430115e-02 -3.805738091468811035e-01 3.566683530807495117e-01
4.930000000000000000e+02 5.455753707885742188e+01 3.186656951904296875e+01 -1.513397455215454102e+00 -4.192961752414703369e-02 -4.665981233119964600e-01 2.428101152181625366e-01
4.940000000000000000e+02 5.241930389404296875e+01 3.285622024536132812e+01 -8.737603425979614258e-01 -7.611212134361267090e-02 -2.849617600440979004e-01 3.022710978984832764e-01
4.950000000000000000e+02 5.389441299438476562e+01 3.268961715698242188e+01 -1.096029996871948242e+00 -7.502386718988418579e-02 -3.513161540031433105e-01 3.430210947990417480e-01
4.960000000000000000e+02 5.010603713989257812e+01 3.241886520385742188e+01 -7.148680090904235840e-01 -3.712412714958190918e-02 -2.255976498126983643e-01 1.465585678815841675e-01
4.970000000000000000e+02 5.020995712280273438e+01 3.315154266357421875e+01 -6.048187017440795898e-01 -5.061055347323417664e-02 -1.966287791728973389e-01 2.352512627840042114e-01
4.980000000000000000e+02 4.936609268188476562e+01 3.251750564575195312e+01 -6.151986718177795410e-01 -1.555903442203998566e-02 -1.892272979021072388e-01 1.350800991058349609e-01
4.990000000000000000e+02 5.084666061401367188e+01 3.231782531738281250e+01 -8.184872269630432129e-01 -2.708623930811882019e-02 -2.536720335483551025e-01 1.689846366643905640e-01
5.000000000000000000e+02 5.168240356445312500e+01 3.294850540161132812e+01 -7.759147286415100098e-01 -5.435082688927650452e-02 -2.490796744823455811e-01 2.667092084884643555e-01
5.010000000000000000e+02 5.158797073364257812e+01 3.221453475952148438e+01 -9.310872554779052734e-01 -3.587518259882926941e-02 -2.900887429714202881e-01 1.830259561538696289e-01
5.020000000000000000e+02 4.947475433349609375e+01 3.324953460693359375e+01 -5.135923027992248535e-01 -5.915844812989234924e-02 -1.718252301216125488e-01 2.132105529308319092e-01
5.030000000000000000e+02 5.094583892822265625e+01 3.305115127563476562e+01 -6.935595870018005371e-01 -6.740988790988922119e-02 -2.282908409833908081e-01 2.437636554241180420e-01
5.040000000000000000e+02 4.727144622802734375e+01 3.360919570922851562e+01 -3.347260057926177979e-01 -4.687886685132980347e-02 -1.144814640283584595e-01 1.425661742687225342e-01
5.050000000000000000e+02 4.715089797973632812e+01 3.287907791137695312e+01 -3.854247927665710449e-01 -2.469514682888984680e-02 -1.230359822511672974e-01 1.000894084572792053e-01
5.060000000000000000e+02 4.641378021240234375e+01 3.299990844726562500e+01 -3.247420787811279297e-01 -2.377733029425144196e-02 -1.045558229088783264e-01 8.178029954433441162e-02
5.070000000000000000e+02 4.788861083984375000e+01 3.275563049316406250e+01 -4.551540017127990723e-01 -2.273715846240520477e-02 -1.433673501014709473e-01 1.121237650513648987e-01
5.080000000000000000e+02 4.873987197875976562e+01 3.336110687255859375e+01 -4.444201886653900146e-01 -4.714076593518257141e-02 -1.474682837724685669e-01 1.823607981204986572e-01
5.090000000000000000e+02 4.862693405151367188e+01 3.262971878051757812e+01 -5.269038081169128418e-01 -3.124357201159000397e-02 -1.674442142248153687e-01 1.253797411918640137e-01
5.100000000000000000e+02 4.653813171386718750e+01 3.372938919067382812e+01 -2.818069159984588623e-01 -3.992276638746261597e-02 -9.651890397071838379e-02 1.405259966850280762e-01
5.110000000000000000e+02 4.800535202026367188e+01 3.348638153076171875e+01 -3.790012896060943604e-01 -5.450422316789627075e-02 -1.300516575574874878e-01 1.678414195775985718e-01
5.120000000000000000e+02 4.420226669311523438e+01 3.339414215087890625e+01 -1.804864853620529175e-01 -3.967411816120147705e-03 -5.533616989850997925e-02 5.467084050178527832e-02
5.130000000000000000e+02 4.433515167236328125e+01 3.412211608886718750e+01 -1.533764302730560303e-01 -4.259300231933593750e-02 -5.879083275794982910e-02 8.264876157045364380e-02
5.140000000000000000e+02 4.346595001220703125e+01 3.352351760864257812e+01 -1.433926671743392944e-01 -2.229209244251251221e-02 -4.970542713999748230e-02 4.217152297496795654e-02
5.150000000000000000e+02 4.493911361694335938e+01 3.326211166381835938e+01 -2.223338335752487183e-01 -2.651649527251720428e-02 -7.465510070323944092e-02 6.043494492769241333e-02
5.160000000000000000e+02 4.580409240722656250e+01 3.385649871826171875e+01 -2.341736704111099243e-01 -4.501176252961158752e-02 -8.375562727451324463e-02 1.124760359525680542e-01
5.170000000000000000e+02 4.567650985717773438e+01 3.312757492065429688e+01 -2.690610289573669434e-01 -1.111232396215200424e-02 -8.405201137065887451e-02 7.656269520521163940e-02
5.180000000000000000e+02 4.360148620605468750e+01 3.425101852416992188e+01 -1.304317712783813477e-01 -1.838253811001777649e-02 -4.464429616928100586e-02 7.147859781980514526e-02
5.190000000000000000e+02 4.506934738159179688e+01 3.399055862426757812e+01 -1.909144222736358643e-01 -3.081155195832252502e-02 -6.651779264211654663e-02 1.054653897881507874e-01
5.200000000000000000e+02 4.139850234985351562e+01 3.467833328247070312e+01 -6.306795030832290649e-02 -2.249839343130588531e-02 -2.566990442574024200e-02 4.554247483611106873e-02
5.210000000000000000e+02 4.199465942382812500e+01 3.380642318725585938e+01 -8.759128302335739136e-02 -1.524113398045301437e-02 -3.084972500801086426e-02 2.989332750439643860e-02
5.220000000000000000e+02 4.052394866943359375e+01 3.409660720825195312e+01 -4.670591279864311218e-02 -9.209517389535903931e-03 -1.677463017404079437e-02 1.775979064404964447e-02
5.230000000000000000e+02 4.213290405273437500e+01 3.453341293334960938e+01 -8.226142078638076782e-02 -1.529418863356113434e-02 -2.926668152213096619e-02 4.933613911271095276e-02
5.240000000000000000e+02 4.272992324829101562e+01 3.366130447387695312e+01 -1.135278418660163879e-01 -1.870599924586713314e-03 -3.461953252553939819e-02 3.653872758150100708e-02
5.250000000000000000e+02 4.286724853515625000e+01 3.438847732543945312e+01 -1.018830612301826477e-01 -3.142350912094116211e-02 -3.999197110533714294e-02 6.284950673580169678e-02
5.260000000000000000e+02 4.066404342651367188e+01 3.482323455810546875e+01 -4.624066501855850220e-02 -1.563399098813533783e-02 -1.856239698827266693e-02 3.378104791045188904e-02
5.270000000000000000e+02 4.125933456420898438e+01 3.395152664184570312e+01 -6.521520763635635376e-02 -3.707139985635876656e-03 -2.067670412361621857e-02 2.363954856991767883e-02
5.280000000000000000e+02 3.905131912231445312e+01 3.438002777099609375e+01 -2.119376696646213531e-02 -1.541976700536906719e-03 -6.820722948759794235e-03 1.137998420745134354e-02
5.290000000000000000e+02 3.845631790161132812e+01 3.524533081054687500e+01 -2.085264772176742554e-02 -3.731630276888608932e-03 -7.375283632427453995e-03 1.819821074604988098e-02
5.300000000000000000e+02 3.757802581787109375e+01 3.465816116333007812e+01 -6.207904312759637833e-03 3.045323072001338005e-03 -9.487743955105543137e-04 4.793670959770679474e-03
5.310000000000000000e+02 3.992870712280273438e+01 3.496635818481445312e+01 -2.746346965432167053e-02 -1.628757268190383911e-02 -1.312531251460313797e-02 2.773679234087467194e-02
5.320000000000000000e+02 3.978794097900390625e+01 3.423986434936523438e+01 -3.391163423657417297e-02 -3.560125362128019333e-03 -1.124152727425098419e-02 1.171158533543348312e-02
5.330000000000000000e+02 3.772006225585937500e+01 3.538441467285156250e+01 -8.601978421211242676e-03 -1.030931901186704636e-02 -5.673389416188001633e-03 1.269940100610256195e-02
5.340000000000000000e+02 3.919250869750976562e+01 3.510644531250000000e+01 -2.462965808808803558e-02 -8.806304074823856354e-03 -1.003078930079936981e-02 1.303842943161725998e-02
5.350000000000000000e+02 3.831470489501953125e+01 3.451899719238281250e+01 -1.239936146885156631e-02 -6.906271446496248245e-03 -5.791689734905958176e-03 4.905096255242824554e-03
5.360000000000000000e+02 3.551680755615234375e+01 3.582569122314453125e+01 2.214693930000066757e-03 -2.377789700403809547e-03 -4.892876313533633947e-05 1.317542977631092072e-03
5.370000000000000000e+02 3.610754394531250000e+01 3.495201110839843750e+01 3.807604545727372169e-03 8.570440113544464111e-04 1.399394590407609940e-03 5.734396399930119514e-04
5.380000000000000000e+02 3.463803482055664062e+01 3.524788665771484375e+01 8.693096227943897247e-03 -6.342821870930492878e-04 2.417644253000617027e-03 -1.423914567567408085e-03
5.390000000000000000e+02 3.684228134155273438e+01 3.480297470092773438e+01 5.050033360021188855e-05 -4.921804647892713547e-03 -1.461391337215900421e-03 2.868390176445245743e-03
5.400000000000000000e+02 3.698487472534179688e+01 3.552911758422851562e+01 -5.830218084156513214e-03 -1.463774708099663258e-03 -2.188197802752256393e-03 7.105373311787843704e-03
5.410000000000000000e+02 3.478272247314453125e+01 3.597360992431640625e+01 4.820278380066156387e-03 -5.070549668744206429e-04 1.293967012315988541e-03 3.496287157759070396e-03
5.420000000000000000e+02 3.625083541870117188e+01 3.567801284790039062e+01 5.877212606719695032e-05 -6.563822273164987564e-03 -1.951515092514455318e-03 8.001361042261123657e-03
5.430000000000000000e+02 3.537281799316406250e+01 3.509983062744140625e+01 6.955093704164028168e-03 -9.390187333337962627e-04 1.804822473786771297e-03 3.652047016657888889e-04
5.440000000000000000e+02 3.242737579345703125e+01 3.568672943115234375e+01 8.724400773644447327e-03 2.590170130133628845e-03 3.394371131435036659e-03 -1.905453857034444809e-03
5.450000000000000000e+02 3.169006347656250000e+01 3.583216094970703125e+01 8.247746154665946960e-03 -1.128556788899004459e-03 2.135756658390164375e-03 -1.912452280521392822e-03
5.460000000000000000e+02 3.330534362792968750e+01 3.626757049560546875e+01 3.642321797087788582e-03 1.459503429941833019e-03 1.530547626316547394e-03 -1.439355663023889065e-03
5.470000000000000000e+02 3.316469573974609375e+01 3.554105377197265625e+01 9.664929471909999847e-03 -1.530667534098029137e-03 2.440278651192784309e-03 -2.846862422302365303e-03
5.480000000000000000e+02 3.390202713012695312e+01 3.539514541625976562e+01 1.005583070218563080e-02 1.098058884963393211e-03 3.346167039126157761e-03 -1.073772436939179897e-03
5.490000000000000000e+02 3.404560089111328125e+01 3.612108612060546875e+01 4.959264304488897324e-03 -4.187454935163259506e-03 2.315428282599896193e-04 -1.695907092653214931e-03
5.500000000000000000e+02 3.182485580444335938e+01 3.655983352661132812e+01 5.134382750838994980e-03 1.380288507789373398e-03 1.954401377588510513e-03 -1.525481930002570152e-03
5.510000000000000000e+02 3.256509399414062500e+01 3.641382217407226562e+01 4.975983407348394394e-03 -8.828534919302910566e-05 1.466309418901801109e-03 -1.204138505272567272e-03
5.520000000000000000e+02 2.946516418457031250e+01 3.621912765502929688e+01 5.684617441147565842e-03 1.023245160467922688e-03 2.012358745560050011e-03 -1.426437404006719589e-03
5.530000000000000000e+02 2.958438682556152344e+01 3.694947052001953125e+01 3.779500257223844528e-03 -2.497125824447721243e-04 1.058936351910233498e-03 -1.611122046597301960e-03
5.540000000000000000e+02 2.872264671325683594e+01 3.634394836425781250e+01 4.757331218570470810e-03 -2.114069357048720121e-04 1.363777322694659233e-03 -1.273253816179931164e-03
5.550000000000000000e+02 3.020768547058105469e+01 3.609378433227539062e+01 6.650820840150117874e-03 -5.463413544930517673e-04 1.831343863159418106e-03 -1.656353590078651905e-03
5.560000000000000000e+02 3.095018768310546875e+01 3.596792221069335938e+01 7.599359378218650818e-03 1.511048991233110428e-03 2.733122557401657104e-03 -1.685918774455785751e-03
5.570000000000000000e+02 3.108069419860839844e+01 3.669636154174804688e+01 4.885697271674871445e-03 -1.108002499677240849e-03 1.133308396674692631e-03 -1.848653773777186871e-03
5.580000000000000000e+02 2.883622932434082031e+01 3.707524490356445312e+01 3.320612479001283646e-03 1.052113599143922329e-03 1.311817788518965244e-03 -1.881629810668528080e-03
5.590000000000000000e+02 3.033255004882812500e+01 3.682317352294921875e+01 4.175794776529073715e-03 1.725262729451060295e-03 1.770317321643233299e-03 -2.189234830439090729e-03
5.600000000000000000e+02 2.647223281860351562e+01 3.666142654418945312e+01 2.280089072883129120e-03 3.925577620975673199e-04 8.017939981073141098e-04 -6.751289474777877331e-04
5.610000000000000000e+02 2.572040748596191406e+01 3.676027679443359375e+01 1.742736203595995903e-03 4.501662260736338794e-05 5.363258533179759979e-04 -4.183360724709928036e-04
5.620000000000000000e+02 2.731099891662597656e+01 3.729562377929687500e+01 1.906976802274584770e-03 7.663948927074670792e-04 8.020114619284868240e-04 -1.503109000623226166e-03
5.630000000000000000e+02 2.722403526306152344e+01 3.656066131591796875e+01 3.016582690179347992e-03 -1.462683721911162138e-04 8.610943332314491272e-04 -7.880960474722087383e-04
5.640000000000000000e+02 2.797564125061035156e+01 3.645804595947265625e+01 3.853658912703394890e-03 6.957078003324568272e-04 1.364810043014585972e-03 -9.861992439255118370e-04
5.650000000000000000e+02 2.807846832275390625e+01 3.719087982177734375e+01 2.683094004169106483e-03 2.291990094818174839e-04 8.736879099160432816e-04 -1.553424517624080181e-03
5.660000000000000000e+02 2.577564430236816406e+01 3.749948883056640625e+01 1.196637400425970554e-03 4.823094059247523546e-04 5.036840448155999184e-04 -8.800383075140416622e-04
5.670000000000000000e+02 2.654333496093750000e+01 3.739851379394531250e+01 1.494975294917821884e-03 3.063528274651616812e-04 5.403984687291085720e-04 -8.874185732565820217e-04
5.680000000000000000e+02 2.340743637084960938e+01 3.754123687744140625e+01 4.209590551909059286e-04 5.379784124670550227e-05 1.424270740244537592e-04 -3.738581435754895210e-04
5.690000000000000000e+02 2.266618919372558594e+01 3.679620742797851562e+01 2.745042438618838787e-04 2.914071728810085915e-06 8.322549547301605344e-05 -1.035967579809948802e-04
5.700000000000000000e+02 2.419788742065429688e+01 3.680555725097656250e+01 7.727451156824827194e-04 3.718504012795165181e-05 2.429790474707260728e-04 -1.593562774360179901e-04
5.710000000000000000e+02 2.496211051940917969e+01 3.680892944335937500e+01 1.253088004887104034e-03 1.119688822655007243e-04 4.095170879736542702e-04 -3.058750298805534840e-04
5.720000000000000000e+02 2.499495697021484375e+01 3.754912567138671875e+01 9.002644219435751438e-04 1.852432469604536891e-04 3.256523050367832184e-04 -5.495258374139666557e-04
5.730000000000000000e+02 2.261228370666503906e+01 3.753591537475585938e+01 2.669107634574174881e-04 1.183339481940492988e-04 1.155734134954400361e-04 -2.005689020734280348e-04
5.740000000000000000e+02 2.343242454528808594e+01 3.680136489868164062e+01 4.993160255253314972e-04 6.004144779581110924e-06 1.515960611868649721e-04 -1.100556401070207357e-04
5.750000000000000000e+02 2.420181655883789062e+01 3.754558944702148438e+01 7.933111046440899372e-04 1.508016721345484257e-04 2.832338213920593262e-04 -4.933603922836482525e-04
5.760000000000000000e+02 1.998039245605468750e+01 3.692026138305664062e+01 1.705004615359939635e-05 8.141606667777523398e-05 2.953983494080603123e-05 1.742630274748080410e-06
5.770000000000000000e+02 2.062745285034179688e+01 3.732268142700195312e+01 6.955853314138948917e-05 3.122885755146853626e-05 3.023621866304893047e-05 -3.821007226179062854e-07
5.780000000000000000e+02 2.113145446777343750e+01 3.686664581298828125e+01 -3.950231621274724603e-05 -7.166686555137857795e-05 -3.335075234645046294e-05 -5.715955194318667054e-05
5.790000000000000000e+02 2.021580696105957031e+01 3.715901565551757812e+01 -2.528355798858683556e-05 6.045584086677990854e-05 1.055168468155898154e-05 1.611525294720195234e-05
5.800000000000000000e+02 2.186282539367675781e+01 3.673282623291015625e+01 1.225125160999596119e-04 6.914359983056783676e-05 5.749683259637095034e-05 -9.625020538805983961e-06
5.810000000000000000e+02 2.186202239990234375e+01 3.748466491699218750e+01 1.320180163020268083e-04 5.562130172620527446e-05 5.629179213428869843e-05 -1.780443853931501508e-04
5.820000000000000000e+02 2.119230079650878906e+01 3.743341445922851562e+01 1.520477089798077941e-04 -2.173576518771369592e-07 4.554910628939978778e-05 -8.873919432517141104e-05
5.830000000000000000e+02 2.068652153015136719e+01 3.649208450317382812e+01 2.696186857065185905e-05 -6.277092325035482645e-05 -1.074271676770877093e-05 -2.867346847779117525e-05
5.840000000000000000e+02 2.102560424804687500e+01 3.579481887817382812e+01 1.459460589103400707e-03 1.249046181328594685e-03 8.125520544126629829e-04 2.088140929117798805e-03
5.850000000000000000e+02 2.197462081909179688e+01 3.519912338256835938e+01 1.454838202334940434e-03 -2.055159857263788581e-04 3.747966547962278128e-04 5.039174575358629227e-03
5.860000000000000000e+02 2.189435958862304688e+01 3.593660354614257812e+01 6.403595674782991409e-03 2.008313749684020877e-04 1.981328241527080536e-03 3.047397360205650330e-03
5.870000000000000000e+02 2.057264900207519531e+01 3.514139175415039062e+01 3.502214676700532436e-04 4.651173017919063568e-03 1.500418409705162048e-03 1.009658211842179298e-03
5.880000000000000000e+02 2.112965202331542969e+01 3.506163787841796875e+01 1.351543120108544827e-03 4.189573694020509720e-03 1.662335125729441643e-03 4.057141020894050598e-03
5.890000000000000000e+02 2.114019012451171875e+01 3.337350463867187500e+01 -9.605107479728758335e-04 8.668501861393451691e-03 2.312397351488471031e-03 1.238977070897817612e-03
5.900000000000000000e+02 2.203515243530273438e+01 3.431491851806640625e+01 -3.078194567933678627e-03 -9.400177077623084188e-05 -9.516588761471211910e-04 3.794340416789054871e-03
5.910000000000000000e+02 2.545799636840820312e+01 3.357752227783203125e+01 -4.797992855310440063e-02 -1.385562587529420853e-02 -1.855066604912281036e-02 -3.013128228485584259e-02
5.920000000000000000e+02 2.696191024780273438e+01 3.432585906982421875e+01 -5.850597843527793884e-02 -3.001509932801127434e-03 -1.845224760472774506e-02 -2.775070816278457642e-02
5.930000000000000000e+02 2.205246162414550781e+01 3.330340194702148438e+01 -6.272476632148027420e-03 -5.170800723135471344e-03 -3.432983299717307091e-03 -1.187597401440143585e-03
5.940000000000000000e+02 2.099900245666503906e+01 2.542859649658203125e+01 -2.184119541198015213e-03 -2.037826329469680786e-01 -6.179002299904823303e-02 -3.165101632475852966e-02
5.950000000000000000e+02 2.606025505065917969e+01 1.679962730407714844e+01 -1.451203878968954086e-02 -6.408309340476989746e-01 -1.966028958559036255e-01 -4.089536666870117188e-01
5.960000000000000000e+02 3.319888305664062500e+01 1.231619930267333984e+01 5.875480920076370239e-02 -3.239528536796569824e-01 -7.955940812826156616e-02 -6.293763518333435059e-01
5.970000000000000000e+02 4.027466201782226562e+01 5.356587886810302734e+00 2.784230411052703857e-01 3.984647095203399658e-01 2.030663192272186279e-01 -4.305237829685211182e-01
5.980000000000000000e+02 5.091986846923828125e+01 -2.915484666824340820e+00 3.532865345478057861e-01 2.309281826019287109e+00 7.987705469131469727e-01 4.594235122203826904e-02
5.990000000000000000e+02 6.508872222900390625e+01 -1.740808486938476562e+01 9.482522308826446533e-02 5.271508693695068359e+00 1.609900236129760742e+00 1.626346707344055176e-01
6.000000000000000000e+02 7.003173828125000000e+01 -2.444799232482910156e+01 3.489403054118156433e-02 6.206205844879150391e+00 1.872329950332641602e+00 7.387448102235794067e-02
6.010000000000000000e+02 7.778234863281250000e+01 -3.059977722167968750e+01 -2.683519152924418449e-03 7.520759582519531250e+00 2.255422830581665039e+00 8.685820735991001129e-03
6.020000000000000000e+02 7.931592559814453125e+01 -2.644076347351074219e+01 2.261853776872158051e-03 7.806765556335449219e+00 2.342708110809326172e+00 -1.400931738317012787e-03
6.030000000000000000e+02 7.802471160888671875e+01 -2.357467460632324219e+01 1.680381014011800289e-03 7.611832618713378906e+00 2.284054040908813477e+00 1.507926546037197113e-02
6.040000000000000000e+02 7.934893035888671875e+01 -2.225984573364257812e+01 -8.202059543691575527e-04 7.851690292358398438e+00 2.355261087417602539e+00 1.106627401895821095e-03
6.050000000000000000e+02 7.266499328613281250e+01 -1.222453117370605469e+01 3.552239760756492615e-02 6.795796394348144531e+00 2.049395561218261719e+00 1.490553021430969238e-01
6.060000000000000000e+02 6.673730468750000000e+01 -4.319261550903320312e+00 1.362245082855224609e-01 5.633380889892578125e+00 1.730881571769714355e+00 3.279641270637512207e-01
6.070000000000000000e+02 5.920164489746093750e+01 1.432212591171264648e+00 3.055863678455352783e-01 3.840370416641235352e+00 1.243787050247192383e+00 3.813243210315704346e-01
6.080000000000000000e+02 5.043925476074218750e+01 1.037050151824951172e+01 4.356397688388824463e-01 1.488223910331726074e+00 5.771591067314147949e-01 -6.858113221824169159e-03
6.090000000000000000e+02 4.446605682373046875e+01 2.003229904174804688e+01 -1.727295070886611938e-01 2.456099689006805420e-01 2.186413854360580444e-02 -6.185747385025024414e-01
6.100000000000000000e+02 3.871931076049804688e+01 2.797380065917968750e+01 -7.331262826919555664e-01 7.339236140251159668e-02 -1.979201734066009521e-01 -4.322274625301361084e-01
6.110000000000000000e+02 3.172798347473144531e+01 3.282598876953125000e+01 -2.837215065956115723e-01 1.974673941731452942e-02 -7.919242978096008301e-02 -9.518025815486907959e-02
6.120000000000000000e+02 2.979674530029296875e+01 3.391274642944335938e+01 -1.552096754312515259e-01 8.642412722110748291e-03 -4.397017881274223328e-02 -4.873228818178176880e-02
6.130000000000000000e+02 2.141876029968261719e+01 -3.889996337890625000e+01 1.536482870578765869e-01 -1.990872740745544434e+00 -5.511673092842102051e-01 1.464414447546005249e-01
6.140000000000000000e+02 1.656203269958496094e+01 -3.864339828491210938e+01 1.618452668190002441e-01 -2.089468576014041901e-02 4.228517413139343262e-02 -1.988511830568313599e-01
6.150000000000000000e+02 1.919578170776367188e+01 -3.790100860595703125e+01 -4.247849285602569580e-01 -2.230421304702758789e+00 -7.965618371963500977e-01 -5.676094293594360352e-01
6.160000000000000000e+02 1.863776206970214844e+01 -3.934246444702148438e+01 1.120623052120208740e-01 -1.481569051742553711e+00 -4.108520150184631348e-01 -5.977730154991149902e-01
6.170000000000000000e+02 1.452877140045166016e+01 -3.647800064086914062e+01 2.821453660726547241e-02 2.779434621334075928e-02 1.680266484618186951e-02 -6.504561007022857666e-02
6.180000000000000000e+02 1.534732723236083984e+01 -3.760840988159179688e+01 2.511836886405944824e-01 6.909627467393875122e-02 9.608398377895355225e-02 -3.038198128342628479e-02
6.190000000000000000e+02 1.255710315704345703e+01 -3.263256454467773438e+01 7.548338733613491058e-03 1.320373918861150742e-02 6.225623190402984619e-03 -1.091275271028280258e-02
6.200000000000000000e+02 6.436640620231628418e-01 -2.472433853149414062e+01 2.274026519444305450e-05 -8.519900147803127766e-04 -2.487749443389475346e-04 7.353213277383474633e-06
6.210000000000000000e+02 6.723765730857849121e-01 -3.035361289978027344e+01 4.434426664374768734e-04 3.010587533935904503e-04 2.233504201285541058e-04 6.156991003081202507e-04
6.220000000000000000e+02 6.945314407348632812e-01 -3.176007652282714844e+01 -8.372293086722493172e-05 1.910226885229349136e-03 5.479512037709355354e-04 8.408301509916782379e-04
6.230000000000000000e+02 8.537448048591613770e-01 -3.734724426269531250e+01 -8.009162847883999348e-04 1.514100190252065659e-02 4.302025772631168365e-03 1.961644040420651436e-03
6.240000000000000000e+02 6.746766567230224609e+00 -3.866492462158203125e+01 -1.041401922702789307e-02 -6.856433174107223749e-05 -3.144775051623582840e-03 2.234742045402526855e-02
6.250000000000000000e+02 1.211251735687255859e+01 -4.145469665527343750e+01 -9.751169383525848389e-02 -2.627645805478096008e-02 -3.713644668459892273e-02 1.400433015078306198e-02
6.260000000000000000e+02 2.197251510620117188e+01 -3.366091537475585938e+01 -1.635867506265640259e-01 -2.311078310012817383e+00 -7.423995137214660645e-01 -1.798708140850067139e-01
6.270000000000000000e+02 1.966860580444335938e+01 -2.796226119995117188e+01 -5.400824360549449921e-03 -2.712389230728149414e+00 -8.153370618820190430e-01 -1.690826751291751862e-02
6.280000000000000000e+02 2.146887779235839844e+01 -3.069157028198242188e+01 -2.229337207973003387e-02 -2.449784040451049805e+00 -7.416232228279113770e-01 -7.619479298591613770e-02
6.290000000000000000e+02 1.991458892822265625e+01 -3.511917877197265625e+01 -1.372781246900558472e-01 -3.063076972961425781e+00 -9.601065516471862793e-01 -2.771322429180145264e-01
6.300000000000000000e+02 1.977520561218261719e+01 -3.659232711791992188e+01 -3.366278707981109619e-01 -2.793685913085937500e+00 -9.390941262245178223e-01 -4.379090666770935059e-01
6.310000000000000000e+02 1.968355560302734375e+01 -2.375416564941406250e+01 2.961475960910320282e-02 -2.548804998397827148e+00 -7.557570934295654297e-01 -6.622687727212905884e-02
6.320000000000000000e+02 1.976962280273437500e+01 -2.094725990295410156e+01 -8.516893722116947174e-03 -2.584090709686279297e+00 -7.777822613716125488e-01 -7.840620726346969604e-02
6.330000000000000000e+02 2.117173767089843750e+01 -2.514785385131835938e+01 3.262794762849807739e-02 -2.382502079010009766e+00 -7.049621939659118652e-01 -8.335544168949127197e-02
6.340000000000000000e+02 2.066845703125000000e+01 -1.330825209617614746e+00 -1.840266585350036621e-02 -2.227856159210205078e+00 -6.738775968551635742e-01 -1.260890811681747437e-01
6.350000000000000000e+02 2.035776901245117188e+01 -6.934659957885742188e+00 1.160008739680051804e-02 -2.321435928344726562e+00 -6.929507851600646973e-01 -6.756408512592315674e-02
6.360000000000000000e+02 2.160856819152832031e+01 -1.115761661529541016e+01 -1.275946758687496185e-02 -2.338336467742919922e+00 -7.053287625312805176e-01 -1.230334267020225525e-01
6.370000000000000000e+02 2.568666648864746094e+01 -2.532596206665039062e+01 2.798114344477653503e-02 -1.588711500167846680e+00 -4.682191014289855957e-01 -1.263729035854339600e-01
6.380000000000000000e+02 3.623727035522460938e+01 -3.346944427490234375e+01 7.727159559726715088e-02 2.409850656986236572e-01 9.547699987888336182e-02 -8.235384710133075714e-03
6.390000000000000000e+02 4.179275894165039062e+01 -3.261594772338867188e+01 1.062941178679466248e-01 1.159982204437255859e+00 3.798828721046447754e-01 -3.601910313591361046e-03
6.400000000000000000e+02 4.746062088012695312e+01 -4.013443756103515625e+01 9.802204370498657227e-02 2.181480407714843750e+00 6.838507056236267090e-01 4.541830625385046005e-03
6.410000000000000000e+02 5.380388641357421875e+01 -3.598324966430664062e+01 9.000441431999206543e-02 3.230829238891601562e+00 9.962500929832458496e-01 2.034155651926994324e-02
6.420000000000000000e+02 6.249058914184570312e+01 -4.085635375976562500e+01 5.835185572504997253e-02 4.832319736480712891e+00 1.467201471328735352e+00 9.011941030621528625e-03
6.430000000000000000e+02 5.763560104370117188e+01 -4.065629196166992188e+01 7.602233439683914185e-02 3.975343704223632812e+00 1.215409755706787109e+00 3.257210599258542061e-03
6.440000000000000000e+02 5.735101318359375000e+01 -2.917390251159667969e+01 1.017794981598854065e-01 3.919944286346435547e+00 1.206517100334167480e+00 6.250542402267456055e-02
6.450000000000000000e+02 5.572831344604492188e+01 -2.089288330078125000e+01 1.532766520977020264e-01 3.567628860473632812e+00 1.116271734237670898e+00 7.031214237213134766e-02
6.460000000000000000e+02 5.936761474609375000e+01 -1.557787227630615234e+01 1.662641316652297974e-01 4.181440353393554688e+00 1.304311275482177734e+00 1.534953862428665161e-01
6.470000000000000000e+02 5.890564727783203125e+01 -8.352664947509765625e+00 2.313057482242584229e-01 4.011502742767333984e+00 1.272842526435852051e+00 2.147658020257949829e-01
6.480000000000000000e+02 5.017780685424804688e+01 -1.376181602478027344e+01 2.270222753286361694e-01 2.440561294555664062e+00 8.002750277519226074e-01 2.271289378404617310e-02
6.490000000000000000e+02 4.698622894287109375e+01 -3.142403841018676758e+00 3.401270806789398193e-01 1.621635079383850098e+00 5.885286331176757812e-01 -7.727067917585372925e-02
6.500000000000000000e+02 3.892907333374023438e+01 -4.805030822753906250e+00 2.215483784675598145e-01 4.303666651248931885e-01 1.955745220184326172e-01 -2.547835409641265869e-01
6.510000000000000000e+02 3.243690490722656250e+01 -9.099878072738647461e-01 1.192799508571624756e-01 -4.900925755500793457e-01 -1.112437844276428223e-01 -3.660402595996856689e-01
6.520000000000000000e+02 2.781152343750000000e+01 -2.201959848403930664e+00 5.632107332348823547e-02 -1.135194063186645508e+00 -3.236618936061859131e-01 -3.031164407730102539e-01
6.530000000000000000e+02 2.059424209594726562e+01 -2.736569404602050781e+00 -3.408276662230491638e-02 -2.300764560699462891e+00 -7.004542350769042969e-01 -1.644086837768554688e-01
6.540000000000000000e+02 2.031876754760742188e+01 -9.739153861999511719e+00 -2.729563042521476746e-02 -2.583836793899536133e+00 -7.833396792411804199e-01 -8.668709546327590942e-02
6.550000000000000000e+02 1.995276260375976562e+01 -1.675328063964843750e+01 -1.546046987641602755e-04 -2.503526687622070312e+00 -7.511044144630432129e-01 -2.080823928117752075e-01
6.560000000000000000e+02 2.139595603942871094e+01 -1.676380920410156250e+01 2.497084625065326691e-02 -2.342802047729492188e+00 -6.953493952751159668e-01 -1.262884289026260376e-01
6.570000000000000000e+02 2.795286369323730469e+01 -3.044178199768066406e+01 1.935505541041493416e-03 -1.160433292388916016e+00 -3.475493192672729492e-01 -7.490318268537521362e-02
6.580000000000000000e+02 3.748839569091796875e+01 -4.069432830810546875e+01 1.095756068825721741e-01 4.384888708591461182e-01 1.644193530082702637e-01 2.569395583122968674e-03
6.590000000000000000e+02 4.237790679931640625e+01 -4.047589874267578125e+01 1.048665791749954224e-01 1.246909499168395996e+00 4.055328369140625000e-01 1.064624520950019360e-03
6.600000000000000000e+02 1.326830768585205078e+01 -3.578212738037109375e+01 4.195357859134674072e-02 1.681012287735939026e-02 1.762910932302474976e-02 -6.774433888494968414e-03
6.610000000000000000e+02 1.386801147460937500e+01 -3.439875411987304688e+01 2.128864638507366180e-02 2.009276300668716431e-02 1.241442281752824783e-02 -1.784272119402885437e-02
6.620000000000000000e+02 1.412667369842529297e+01 -3.304057312011718750e+01 -7.203096523880958557e-03 8.244800847023725510e-04 -1.913584885187447071e-03 1.186306471936404705e-03
6.630000000000000000e+02 1.348018932342529297e+01 -2.737458801269531250e+01 2.697193529456853867e-03 -1.873939072538632900e-05 8.035362116061151028e-04 -5.935646477155387402e-04
6.640000000000000000e+02 1.857437491416931152e+00 -1.757934951782226562e+01 -4.456026945263147354e-04 -1.003982106340117753e-04 -1.638002722756937146e-04 3.975035269832005724e-06
6.650000000000000000e+02 6.406604647636413574e-01 -2.331815147399902344e+01 8.781600627116858959e-05 -6.691755843348801136e-04 -1.744078763294965029e-04 -1.543541147839277983e-04
6.660000000000000000e+02 1.440508556365966797e+01 -3.030140304565429688e+01 -4.174598492681980133e-03 -1.948735909536480904e-03 -1.837000367231667042e-03 9.772288613021373749e-04
6.670000000000000000e+02 1.302776145935058594e+01 -3.001214408874511719e+01 3.820275887846946716e-03 2.304227789863944054e-03 1.837351126596331596e-03 -2.527142874896526337e-03
6.680000000000000000e+02 1.422653961181640625e+01 -2.208208084106445312e+01 -1.457928447052836418e-03 -2.933234791271388531e-04 -5.253755953162908554e-04 2.129408094333484769e-04
6.690000000000000000e+02 1.452592468261718750e+01 -1.346633052825927734e+01 -4.270955105312168598e-04 -3.059410300920717418e-05 -1.373068807879462838e-04 6.957901496207341552e-05
6.700000000000000000e+02 1.462525463104248047e+01 -6.550318241119384766e+00 2.435802889522165060e-04 -3.859842763631604612e-06 7.191613258328288794e-05 -2.117284384439699352e-05
6.710000000000000000e+02 1.460723018646240234e+01 -3.861626863479614258e+00 8.596899715485051274e-05 -1.505717500549508259e-05 2.127354673575609922e-05 -2.558907181082759053e-05
6.720000000000000000e+02 1.442936706542968750e+01 -2.839603900909423828e+00 1.760264603944960982e-05 1.001728305709548295e-04 3.533264316502027214e-05 -3.313331035315059125e-05
6.730000000000000000e+02 1.032382392883300781e+01 -2.655696153640747070e+00 -1.264198945136740804e-04 -4.942029408994130790e-05 -5.275205330690369010e-05 5.317165414453484118e-05
6.740000000000000000e+02 1.355138778686523438e+01 -1.058701705932617188e+01 3.717057115864008665e-04 1.631138547963928431e-05 1.164051282103173435e-04 -6.847114855190739036e-05
6.750000000000000000e+02 1.276785659790039062e+01 -1.884704780578613281e+01 9.110184037126600742e-04 -5.529788722924422473e-06 2.716465678531676531e-04 -3.312525805085897446e-04
6.760000000000000000e+02 1.339562892913818359e+01 -2.511918258666992188e+01 1.861137803643941879e-03 -4.967248532921075821e-04 4.093238967470824718e-04 -1.317697024205699563e-04
6.770000000000000000e+02 1.459982776641845703e+01 -2.622394371032714844e+01 3.683250397443771362e-03 -1.352834515273571014e-03 6.991247646510601044e-04 -8.022217662073671818e-05
6.780000000000000000e+02 1.109030151367187500e+01 -1.891517043113708496e+00 -9.784248686628416181e-05 -3.960388494306243956e-05 -4.123391045141033828e-05 1.427582537871785462e-05
6.790000000000000000e+02 4.284143447875976562e+00 -1.888394355773925781e+00 -4.525890108197927475e-05 -2.251112528028897941e-05 -2.033100827247835696e-05 -1.381464426231104881e-05
6.800000000000000000e+02 1.716468214988708496e+00 -1.060901927947998047e+01 3.918767615687102079e-04 2.899882019846700132e-05 1.262626756215468049e-04 -2.545399547670967877e-05
6.810000000000000000e+02 6.198928356170654297e-01 -1.770031547546386719e+01 4.208434256725013256e-04 -1.349093945464119315e-04 8.578020788263529539e-05 -3.768827809835784137e-05
6.820000000000000000e+02 2.790638923645019531e+00 -3.802400207519531250e+01 -9.713536128401756287e-04 1.197083387523889542e-02 3.299843985587358475e-03 7.143689785152673721e-03
6.830000000000000000e+02 2.257173347473144531e+01 -3.709838485717773438e+01 -9.183656424283981323e-02 -1.948182702064514160e+00 -6.120057702064514160e-01 7.378169149160385132e-02
6.840000000000000000e+02 2.753004646301269531e+01 -4.080377578735351562e+01 1.763811260461807251e-01 -1.312979936599731445e+00 -3.409796655178070068e-01 2.853762544691562653e-02
6.850000000000000000e+02 3.284657669067382812e+01 -3.762612533569335938e+01 9.586824476718902588e-02 -3.809208273887634277e-01 -8.551577478647232056e-02 6.177827890496701002e-05
6.860000000000000000e+02 1.978215408325195312e+01 -3.078947639465332031e+01 -2.702831663191318512e-02 -2.798314332962036133e+00 -8.476027846336364746e-01 -3.740780055522918701e-02
6.870000000000000000e+02 6.261147308349609375e+01 -3.742554855346679688e+01 5.027611926198005676e-02 4.859579563140869141e+00 1.472956657409667969e+00 2.709657326340675354e-02
6.880000000000000000e+02 6.742226409912109375e+01 -3.116629219055175781e+01 2.694989554584026337e-02 5.743048191070556641e+00 1.730999350547790527e+00 6.220460310578346252e-02
6.890000000000000000e+02 6.508375549316406250e+01 -2.747428894042968750e+01 5.982449278235435486e-02 5.290608406066894531e+00 1.605129837989807129e+00 6.835103780031204224e-02
6.900000000000000000e+02 6.395534515380859375e+01 -1.643687438964843750e+01 1.082539409399032593e-01 5.083131790161132812e+00 1.557415723800659180e+00 1.704881489276885986e-01
6.910000000000000000e+02 6.724078369140625000e+01 -4.100835037231445312e+01 3.035368770360946655e-02 5.646737098693847656e+00 1.703127264976501465e+00 8.720709010958671570e-03
6.920000000000000000e+02 7.067236328125000000e+01 -3.834228897094726562e+01 2.429050765931606293e-02 6.291046142578125000e+00 1.894600987434387207e+00 1.086623035371303558e-02
6.930000000000000000e+02 7.046106719970703125e+01 -3.088809967041015625e+01 2.499138005077838898e-02 6.237752437591552734e+00 1.878823161125183105e+00 5.002813041210174561e-02
6.940000000000000000e+02 7.249532318115234375e+01 -2.445840454101562500e+01 2.153318375349044800e-02 6.622951030731201172e+00 1.993345260620117188e+00 6.465481221675872803e-02
6.950000000000000000e+02 7.794146728515625000e+01 -4.163430404663085938e+01 6.311052292585372925e-02 7.524950981140136719e+00 2.276418447494506836e+00 1.771754585206508636e-02
6.960000000000000000e+02 7.794495391845703125e+01 -3.691793823242187500e+01 4.381740000098943710e-03 7.513276100158691406e+00 2.255297183990478516e+00 2.971778996288776398e-02
6.970000000000000000e+02 7.931021881103515625e+01 -3.339981079101562500e+01 4.042204935103654861e-03 7.764591693878173828e+00 2.330590248107910156e+00 5.037420778535306454e-04
6.980000000000000000e+02 7.804940795898437500e+01 -1.662525177001953125e+01 1.692111836746335030e-03 7.721550941467285156e+00 2.316972970962524414e+00 2.942625619471073151e-02
6.990000000000000000e+02 7.935441589355468750e+01 -1.250715732574462891e+01 2.247319644084200263e-04 8.046655654907226562e+00 2.414064168930053711e+00 5.232992116361856461e-03
7.000000000000000000e+02 7.290990447998046875e+01 -5.327646732330322266e+00 4.585857689380645752e-02 6.977362155914306641e+00 2.106966257095336914e+00 2.223764657974243164e-01
7.010000000000000000e+02 6.710791015625000000e+01 3.347639799118041992e+00 9.417249262332916260e-02 5.797623634338378906e+00 1.767538905143737793e+00 4.811984300613403320e-01
7.020000000000000000e+02 6.058751678466796875e+01 1.144966506958007812e+01 2.082934528589248657e-01 3.862767934799194336e+00 1.221318483352661133e+00 7.759292721748352051e-01
7.030000000000000000e+02 4.941531372070312500e+01 2.052180671691894531e+01 -1.030809432268142700e-01 4.585314989089965820e-01 1.066351681947708130e-01 -3.546580076217651367e-01
7.040000000000000000e+02 4.573424148559570312e+01 2.806358146667480469e+01 -1.330601692199707031e+00 8.547034114599227905e-02 -3.735393881797790527e-01 -3.791390955448150635e-01
7.050000000000000000e+02 3.709622192382812500e+01 3.248474121093750000e+01 -6.776896119117736816e-01 3.237520530819892883e-02 -1.935943365097045898e-01 -6.131879985332489014e-02
7.060000000000000000e+02 3.562113571166992188e+01 3.277581024169921875e+01 -5.413129925727844238e-01 2.971212565898895264e-02 -1.534802466630935669e-01 -6.518272310495376587e-02
7.070000000000000000e+02 3.341487884521484375e+01 3.321406173706054688e+01 -3.653111159801483154e-01 2.323237620294094086e-02 -1.026236191391944885e-01 -6.394086778163909912e-02
7.080000000000000000e+02 7.806542968750000000e+01 -9.652482032775878906e+00 2.977601718157529831e-03 7.892705440521240234e+00 2.368705034255981445e+00 4.700070992112159729e-02
7.090000000000000000e+02 7.936084747314453125e+01 -5.543462753295898438e+00 2.743684162851423025e-04 8.282801628112792969e+00 2.484922885894775391e+00 1.043637748807668686e-02
7.100000000000000000e+02 7.299235534667968750e+01 1.376140117645263672e+00 2.632413990795612335e-02 7.176632404327392578e+00 2.160887002944946289e+00 2.910875380039215088e-01
7.110000000000000000e+02 6.666396331787109375e+01 9.031721115112304688e+00 -3.474913164973258972e-02 5.825231552124023438e+00 1.737144827842712402e+00 6.358675956726074219e-01
7.120000000000000000e+02 5.635992813110351562e+01 2.227554130554199219e+01 -5.452401470392942429e-03 1.015086412429809570e+00 3.028902113437652588e-01 5.034489035606384277e-01
7.130000000000000000e+02 5.052034759521484375e+01 2.797930908203125000e+01 -1.757400155067443848e+00 5.478924140334129333e-02 -5.107832551002502441e-01 -2.815902233123779297e-01
7.140000000000000000e+02 4.200334167480468750e+01 3.087580680847167969e+01 -1.207676053047180176e+00 5.345813930034637451e-02 -3.462653756141662598e-01 -1.234636977314949036e-01
7.150000000000000000e+02 4.151537322998046875e+01 3.164092445373535156e+01 -1.174593687057495117e+00 3.605570271611213684e-02 -3.415614068508148193e-01 -3.877246007323265076e-02
7.160000000000000000e+02 3.930631256103515625e+01 3.206784820556640625e+01 -9.096024632453918457e-01 3.672977536916732788e-02 -2.618618011474609375e-01 -4.957108199596405029e-02
7.170000000000000000e+02 7.808725738525390625e+01 -2.704475879669189453e+00 3.784349886700510979e-03 8.150031089782714844e+00 2.446144819259643555e+00 7.252578437328338623e-02
7.180000000000000000e+02 7.937052154541015625e+01 2.823523521423339844e+00 -3.019193827640265226e-04 8.713151931762695312e+00 2.613855123519897461e+00 1.546989846974611282e-02
7.190000000000000000e+02 7.363270568847656250e+01 1.068022155761718750e+01 -1.428319215774536133e-01 7.752214908599853516e+00 2.282814979553222656e+00 2.274208664894104004e-01
7.200000000000000000e+02 6.562781524658203125e+01 1.954425048828125000e+01 -6.130301952362060547e-01 6.294157028198242188e+00 1.704338073730468750e+00 1.602927565574645996e+00
7.210000000000000000e+02 5.731682586669921875e+01 2.873953437805175781e+01 -2.501497268676757812e+00 1.888415776193141937e-02 -7.447839379310607910e-01 2.225634083151817322e-02
7.220000000000000000e+02 5.123385238647460938e+01 3.000597190856933594e+01 -2.532756328582763672e+00 -8.825662662275135517e-04 -7.600916624069213867e-01 -8.327833376824855804e-03
7.230000000000000000e+02 4.972370147705078125e+01 3.021740913391113281e+01 -2.329949855804443359e+00 2.615240868180990219e-03 -6.982004046440124512e-01 -6.938624195754528046e-03
7.240000000000000000e+02 4.821751022338867188e+01 3.043964767456054688e+01 -2.114012718200683594e+00 9.908858686685562134e-03 -6.312311887741088867e-01 -1.135561615228652954e-02
7.250000000000000000e+02 4.522412490844726562e+01 3.094685173034667969e+01 -1.679293394088745117e+00 2.746308967471122742e-02 -4.955491125583648682e-01 -1.776504889130592346e-02
7.260000000000000000e+02 7.811760711669921875e+01 4.304638862609863281e+00 -8.215054986067116261e-04 8.502392768859863281e+00 2.550471305847167969e+00 8.438473939895629883e-02
7.270000000000000000e+02 7.940651702880859375e+01 8.408110618591308594e+00 -5.582646699622273445e-04 9.034365653991699219e+00 2.710142374038696289e+00 4.175707232207059860e-03
7.280000000000000000e+02 7.397856903076171875e+01 1.685924148559570312e+01 -4.497245550155639648e-01 8.297382354736328125e+00 2.354297399520874023e+00 -1.599016785621643066e-01
7.290000000000000000e+02 6.225121688842773438e+01 2.873011970520019531e+01 -1.232147812843322754e+00 3.886412382125854492e-01 -2.530519664287567139e-01 9.563839435577392578e-01
7.300000000000000000e+02 5.736486053466796875e+01 2.939140701293945312e+01 -3.025869369506835938e+00 -1.534305512905120850e-02 -9.123637080192565918e-01 3.099112398922443390e-02
7.310000000000000000e+02 5.660033798217773438e+01 2.944050979614257812e+01 -3.012967586517333984e+00 -8.697199635207653046e-03 -9.064994454383850098e-01 1.861074380576610565e-02
7.320000000000000000e+02 5.428644943237304688e+01 2.961168861389160156e+01 -2.859490871429443359e+00 -1.681912131607532501e-02 -8.628929853439331055e-01 -9.785272181034088135e-03
7.330000000000000000e+02 7.827317047119140625e+01 1.129505348205566406e+01 -2.375089935958385468e-02 8.839964866638183594e+00 2.644864320755004883e+00 1.467863563448190689e-02
7.340000000000000000e+02 7.943788146972656250e+01 1.674991416931152344e+01 -7.798995357006788254e-03 8.984580039978027344e+00 2.693034172058105469e+00 -9.391000866889953613e-02
7.350000000000000000e+02 6.762487030029296875e+01 2.899737930297851562e+01 1.836362630128860474e-01 1.853096199035644531e+01 5.614379405975341797e+00 1.266289830207824707e+00
7.360000000000000000e+02 6.229104232788085938e+01 2.921561241149902344e+01 -1.982041597366333008e+00 1.846096068620681763e-01 -5.392295718193054199e-01 6.910605430603027344e-01
7.370000000000000000e+02 6.164648818969726562e+01 2.869428825378417969e+01 -1.566501975059509277e+00 2.954230010509490967e-01 -3.813236951828002930e-01 7.231097221374511719e-01
7.380000000000000000e+02 6.038329315185546875e+01 2.924567031860351562e+01 -2.711967229843139648e+00 3.870762512087821960e-02 -8.019778728485107422e-01 2.169594466686248779e-01
7.390000000000000000e+02 7.832219696044921875e+01 1.818123435974121094e+01 -6.346956640481948853e-02 8.616032600402832031e+00 2.565768718719482422e+00 -2.879714965820312500e-01
7.400000000000000000e+02 7.945766448974609375e+01 2.369619560241699219e+01 -1.811888068914413452e-02 7.070904731750488281e+00 2.115835905075073242e+00 -2.673642635345458984e-01
7.410000000000000000e+02 6.810527801513671875e+01 2.975116348266601562e+01 4.530660152435302734e+00 1.924155235290527344e+01 7.131663799285888672e+00 -2.234617948532104492e+00
7.420000000000000000e+02 7.835012054443359375e+01 2.232552337646484375e+01 -6.959916651248931885e-02 7.810781002044677734e+00 2.322354555130004883e+00 -6.007133722305297852e-01
7.430000000000000000e+02 7.944527435302734375e+01 2.927058982849121094e+01 2.075552754104137421e-02 4.865144729614257812e+00 1.465770006179809570e+00 -1.227886080741882324e-01
7.440000000000000000e+02 6.849248504638671875e+01 3.142339897155761719e+01 8.343352317810058594e+00 1.675292205810546875e+01 7.528882503509521484e+00 2.102394819259643555e+00
7.450000000000000000e+02 7.935444641113281250e+01 3.210283279418945312e+01 3.910504654049873352e-02 4.867240905761718750e+00 1.471903800964355469e+00 1.204173043370246887e-01
7.460000000000000000e+02 7.930287170410156250e+01 3.774094772338867188e+01 -4.595619812607765198e-02 6.837372779846191406e+00 2.037424802780151367e+00 2.765947878360748291e-01
7.470000000000000000e+02 7.483927154541015625e+01 3.688395690917968750e+01 -2.842735350131988525e-01 8.978703498840332031e+00 2.608329057693481445e+00 1.236971020698547363e+00
7.480000000000000000e+02 7.302700042724609375e+01 3.903512954711914062e+01 -1.100201606750488281e+00 9.775880813598632812e+00 2.602703809738159180e+00 7.810413241386413574e-01
7.490000000000000000e+02 6.260233306884765625e+01 3.555625915527343750e+01 8.192389011383056641e-01 2.382617712020874023e+00 9.605569839477539062e-01 -1.585375070571899414e+00
7.500000000000000000e+02 6.252157211303710938e+01 3.715068054199218750e+01 5.916818380355834961e-01 2.943409442901611328e+00 1.060527324676513672e+00 -1.320774197578430176e+00
7.510000000000000000e+02 6.181803131103515625e+01 3.280018234252929688e+01 -7.834190726280212402e-01 2.586553990840911865e-01 -1.574290990829467773e-01 -1.459428071975708008e-01
7.520000000000000000e+02 6.353807449340820312e+01 3.271302032470703125e+01 1.590950489044189453e-01 8.803041577339172363e-01 3.118197619915008545e-01 -1.123948335647583008e+00
7.530000000000000000e+02 6.394531250000000000e+01 3.266751861572265625e+01 5.988565087318420410e-01 1.182887434959411621e+00 5.345231294631958008e-01 -1.536169290542602539e+00
7.540000000000000000e+02 6.781101226806640625e+01 3.222476196289062500e+01 2.348413705825805664e+00 2.038943481445312500e+01 6.821354866027832031e+00 1.021902680397033691e+00
7.550000000000000000e+02 7.788797760009765625e+01 3.797336959838867188e+01 -1.208036392927169800e-01 7.389931678771972656e+00 2.180738449096679688e+00 6.570875644683837891e-01
7.560000000000000000e+02 5.716992950439453125e+01 3.680629348754882812e+01 3.901541829109191895e-01 3.298820555210113525e-01 2.160108685493469238e-01 2.512920200824737549e-01
7.570000000000000000e+02 5.552928543090820312e+01 3.553518676757812500e+01 -7.759704440832138062e-02 -3.007364645600318909e-02 -3.230120614171028137e-02 4.730832874774932861e-01
7.580000000000000000e+02 5.248813629150390625e+01 3.371395111083984375e+01 -6.414977908134460449e-01 -1.030367091298103333e-01 -2.233603447675704956e-01 3.715208768844604492e-01
7.590000000000000000e+02 5.542953491210937500e+01 3.340593338012695312e+01 -9.562239646911621094e-01 -4.521580412983894348e-02 -3.004319369792938232e-01 4.487200975418090820e-01
7.600000000000000000e+02 5.690967559814453125e+01 3.326825332641601562e+01 -1.095111846923828125e+00 -7.687560748308897018e-03 -3.308398425579071045e-01 4.384530484676361084e-01
7.610000000000000000e+02 5.838072967529296875e+01 3.311030578613281250e+01 -1.192353010177612305e+00 5.191985517740249634e-02 -3.421299457550048828e-01 3.828375041484832764e-01
7.620000000000000000e+02 4.739990234375000000e+01 3.453100585937500000e+01 -2.519251704216003418e-01 -7.887643575668334961e-02 -9.924048930406570435e-02 2.049879729747772217e-01
7.630000000000000000e+02 4.948166656494140625e+01 3.402808761596679688e+01 -3.979467749595642090e-01 -8.565852046012878418e-02 -1.450815945863723755e-01 2.491323053836822510e-01
7.640000000000000000e+02 5.016831207275390625e+01 3.410328674316406250e+01 -4.285824596881866455e-01 -1.016614809632301331e-01 -1.590731739997863770e-01 2.856850028038024902e-01
7.650000000000000000e+02 4.475783920288085938e+01 3.562884140014648438e+01 -8.025144785642623901e-02 -8.733426034450531006e-02 -5.027571320533752441e-02 1.250202208757400513e-01
7.660000000000000000e+02 4.450726318359375000e+01 3.487583923339843750e+01 -1.296204030513763428e-01 -4.763533174991607666e-02 -5.317671969532966614e-02 1.164750680327415466e-01
7.670000000000000000e+02 3.164863777160644531e+01 3.829531097412109375e+01 -4.422455094754695892e-05 -1.422864268533885479e-03 -4.401266633067280054e-04 -1.586723665241152048e-04
7.680000000000000000e+02 2.416696548461914062e+01 3.861108016967773438e+01 1.623728167032822967e-04 3.508359077386558056e-04 1.539626100566238165e-04 -6.514162523671984673e-04
7.690000000000000000e+02 2.243180465698242188e+01 3.843219757080078125e+01 1.484565582359209657e-04 1.932523737195879221e-04 1.025126839522272348e-04 -3.018565475940704346e-04
7.700000000000000000e+02 2.206415557861328125e+01 3.941624832153320312e+01 9.175793093163520098e-05 2.081156562780961394e-04 8.996207907330244780e-05 -2.854090125765651464e-04
7.710000000000000000e+02 2.093758583068847656e+01 3.814114761352539062e+01 5.215577402850612998e-05 9.492252866039052606e-05 4.412349153426475823e-05 -1.382836926495656371e-04
7.720000000000000000e+02 1.942854118347167969e+01 3.769694137573242188e+01 -8.981399878393858671e-05 3.822181952273240313e-06 -2.579754618636798114e-05 -4.191136758890934289e-05
7.730000000000000000e+02 1.918194055557250977e+00 2.602035522460937500e+01 7.019159511401085183e-06 -2.438554531636327738e-07 2.032591282841167413e-06 1.054481685969221871e-06
7.740000000000000000e+02 1.970969796180725098e+00 3.025107383728027344e+01 -5.654924734699307010e-06 -4.202517516205261927e-07 -1.822553031161078252e-06 -1.671553491178201512e-06
7.750000000000000000e+02 4.305805683135986328e+00 3.764169311523437500e+01 4.502959711771836737e-07 -6.536919045174727216e-06 -1.825986942094459664e-06 -2.588319603091804311e-06
7.760000000000000000e+02 1.999568581581115723e+00 4.162571334838867188e+01 4.202192485536215827e-06 8.234720780819770880e-07 1.507699266767303925e-06 1.351170340058160946e-06
7.770000000000000000e+02 1.381513118743896484e+01 3.796018600463867188e+01 3.008607927768025547e-05 1.715917096589691937e-05 1.417357452737633139e-05 -2.617400696180993691e-06
7.780000000000000000e+02 1.309980583190917969e+01 3.386508941650390625e+01 -1.115125269279815257e-05 -6.627362267863645684e-07 -3.544196488292072900e-06 1.481473304920655210e-06
7.790000000000000000e+02 1.460791969299316406e+01 2.288961219787597656e+01 9.660312571213580668e-06 1.877334341315872734e-07 2.954413957922952250e-06 5.736833941227814648e-07
7.800000000000000000e+02 1.442211723327636719e+01 1.735684204101562500e+01 6.550546459038741887e-06 -8.377925553304521600e-08 1.940030188052332960e-06 3.095493354976497358e-07
7.810000000000000000e+02 1.456282234191894531e+01 1.042643070220947266e+01 -4.735305083158891648e-06 -8.023234698839587509e-08 -1.444661165805882774e-06 -1.264500184561256901e-07
7.820000000000000000e+02 1.368157196044921875e+01 1.819083690643310547e+00 -7.786329661030322313e-07 -2.666521936589560937e-07 -3.135855592972802697e-07 -6.219642614269105252e-07
7.830000000000000000e+02 1.317466354370117188e+01 1.766191959381103516e+00 3.954957321639085421e-07 8.324971076945075765e-07 3.683978491153538926e-07 4.318059438901400426e-07
7.840000000000000000e+02 6.616712212562561035e-01 3.463383102416992188e+01 -3.858696345560019836e-06 -1.296701043429493438e-06 -1.546619273540272843e-06 1.486892074353818316e-06
7.850000000000000000e+02 6.423307657241821289e-01 2.757758522033691406e+01 4.840108431380940601e-06 -1.203189992082798199e-08 1.448422949579253327e-06 2.676454471384204226e-07
7.860000000000000000e+02 6.297197341918945312e-01 2.052169036865234375e+01 -6.774515895813237876e-06 -4.855725777019870293e-08 -2.046921963483328000e-06 4.290388915251241997e-07
7.870000000000000000e+02 1.814219355583190918e+00 1.618519401550292969e+01 -5.952175342827104032e-06 -2.024442125048153684e-07 -1.846385885073686950e-06 4.564906248560873792e-07
7.880000000000000000e+02 1.230161666870117188e+01 1.160346508026123047e+01 3.688387096190126613e-06 8.016369292818126269e-07 1.347007241747633088e-06 1.223247068082855549e-06
7.890000000000000000e+02 1.295452022552490234e+01 1.591466999053955078e+01 6.220405794010730460e-06 3.192598407864011278e-09 1.867079504336288664e-06 4.544318699117866345e-07
7.900000000000000000e+02 1.177285957336425781e+01 1.877510452270507812e+01 -7.071324489515973255e-06 1.446351518552546622e-07 -2.078006900774198584e-06 -3.853036503187468043e-07
7.910000000000000000e+02 1.342340850830078125e+01 2.420825958251953125e+01 9.818189937504939735e-06 2.756889898591907695e-07 3.028163746421341784e-06 1.040998654389113653e-06
7.920000000000000000e+02 1.353837585449218750e+01 2.556064796447753906e+01 -1.069210520654451102e-05 -5.044212230131961405e-07 -3.358957883392577060e-06 -1.360914779979793821e-06
7.930000000000000000e+02 1.235723495483398438e+01 2.921630287170410156e+01 -1.243634778802515939e-05 -4.405781510286033154e-06 -5.052638698543887585e-06 -5.742622761317761615e-06
7.940000000000000000e+02 6.025838255882263184e-01 1.487697601318359375e+01 -5.647819307341706008e-06 -1.302499583744065603e-07 -1.733420731397927739e-06 5.351507752493489534e-07
7.950000000000000000e+02 1.700408816337585449e+00 9.126529693603515625e+00 4.324924248066963628e-06 9.118369348470878322e-08 1.324832396676356439e-06 -2.456304173392709345e-07
7.960000000000000000e+02 8.921286582946777344e+00 2.610208034515380859e+00 -1.453806930840073619e-06 -3.117447135991824325e-07 -5.296654990161187015e-07 -2.986921856518165441e-07
7.970000000000000000e+02 9.653113365173339844e+00 1.864132046699523926e+00 -1.212690790453052614e-06 -1.678968430951499613e-07 -4.141762701692641713e-07 2.066053994553840312e-08
7.980000000000000000e+02 1.114758849143981934e+00 3.773967742919921875e+00 -1.840866048041789327e-06 1.076426428880949970e-06 -2.293318743795680348e-07 -2.368526565987849608e-06
7.990000000000000000e+02 5.294186472892761230e-01 6.396157264709472656e+00 -3.869077318086056039e-06 -3.767078453620342771e-07 -1.273735506401862949e-06 1.090525891811466863e-09
8.000000000000000000e+02 3.686508893966674805e+00 3.686087369918823242e+00 -2.952848035420174710e-06 -3.656360547665826743e-07 -9.955452924259589054e-07 4.316496244882728206e-07
8.010000000000000000e+02 1.347389984130859375e+01 1.041016960144042969e+01 4.108914254175033420e-06 3.362081315572140738e-07 1.333536829406511970e-06 5.616536213892686646e-07
8.020000000000000000e+02 1.447320079803466797e+01 2.013321876525878906e+01 8.045250979193951935e-06 6.642066807671653805e-08 2.433501549603533931e-06 2.432972507904196391e-07
8.030000000000000000e+02 1.533968448638916016e+01 3.115977859497070312e+01 1.718544444884173572e-05 5.641674647449690383e-07 5.324883659341139719e-06 1.045950057232403196e-06
8.040000000000000000e+02 1.521076202392578125e+01 2.975185394287109375e+01 -1.592728585819713771e-05 9.198549264510802459e-07 -4.502229330682894215e-06 -1.136949208557780366e-06
8.050000000000000000e+02 1.811371231079101562e+01 3.776935958862304688e+01 -8.391601295443251729e-05 1.128541334765031934e-04 8.681437066115904599e-06 8.651692041894420981e-06
8.060000000000000000e+02 1.912491226196289062e+01 3.904235839843750000e+01 -3.944496347685344517e-05 1.513383722340222448e-05 -7.293338057934306562e-06 -1.417581515852361917e-04
8.070000000000000000e+02 1.832358551025390625e+01 3.856493759155273438e+01 -1.436380698578432202e-04 6.343513086903840303e-05 -2.406088242423720658e-05 -4.271446960046887398e-05
8.080000000000000000e+02 1.201968765258789062e+01 4.121256256103515625e+01 2.292523458891082555e-05 1.994560261664446443e-05 1.286125097976764664e-05 1.152156437456142157e-05
8.090000000000000000e+02 1.976389122009277344e+01 3.783103561401367188e+01 -1.800933023332618177e-05 5.295943265082314610e-05 1.048503054335014895e-05 -4.670963608077727258e-05
8.100000000000000000e+02 3.220794296264648438e+01 3.776282882690429688e+01 4.774565459229052067e-04 -3.276071802247315645e-04 4.495480970945209265e-05 -3.958602901548147202e-04
8.110000000000000000e+02 3.557041549682617188e+01 3.690401840209960938e+01 -1.482239924371242523e-03 -7.908274419605731964e-03 -2.817154163494706154e-03 9.820452891290187836e-03
8.120000000000000000e+02 3.711563491821289062e+01 3.660415267944335938e+01 -4.456350579857826233e-03 -1.390533614903688431e-02 -5.508506204932928085e-03 1.529609132558107376e-02
8.130000000000000000e+02 3.888428115844726562e+01 3.781588745117187500e+01 -5.292975809425115585e-03 -3.369648754596710205e-02 -1.169683970510959625e-02 2.435980550944805145e-02
8.140000000000000000e+02 4.168797683715820312e+01 3.615060043334960938e+01 -4.690248146653175354e-02 -4.187567904591560364e-02 -2.663344889879226685e-02 7.007303833961486816e-02
8.150000000000000000e+02 4.255031585693359375e+01 3.623582077026367188e+01 -4.180597513914108276e-02 -5.581784993410110474e-02 -2.928714826703071594e-02 7.495975494384765625e-02
8.160000000000000000e+02 3.096925163269042969e+01 2.921189308166503906e+01 -2.962796986103057861e-01 -2.458550408482551575e-02 -9.625955671072006226e-02 -2.721374928951263428e-01
8.170000000000000000e+02 2.674076843261718750e+01 2.467810058593750000e+01 -9.895952045917510986e-02 -2.423740923404693604e-01 -1.024000793695449829e-01 -3.190630376338958740e-01
8.180000000000000000e+02 3.820388793945312500e+01 2.880320930480957031e+01 -7.356895804405212402e-01 7.062137126922607422e-02 -1.995204687118530273e-01 -3.696701526641845703e-01
8.190000000000000000e+02 4.401034927368164062e+01 2.768567466735839844e+01 -1.120868563652038574e+00 9.660344570875167847e-02 -3.072795271873474121e-01 -4.346465468406677246e-01
8.200000000000000000e+02 5.152658462524414062e+01 2.853762435913085938e+01 -2.038433313369750977e+00 3.274815529584884644e-02 -6.017055511474609375e-01 -2.029252201318740845e-01
8.210000000000000000e+02 5.808067321777343750e+01 2.871262168884277344e+01 -2.454208612442016602e+00 2.891987375915050507e-02 -7.275866270065307617e-01 7.386418431997299194e-02
8.220000000000000000e+02 6.345079421997070312e+01 2.920426177978515625e+01 -8.900086283683776855e-01 6.060127615928649902e-01 -8.519876003265380859e-02 1.341781616210937500e+00
8.230000000000000000e+02 3.353283309936523438e+01 1.573687076568603516e+01 -1.093584392219781876e-02 -2.552448809146881104e-01 -7.985422015190124512e-02 -6.637616157531738281e-01
8.240000000000000000e+02 3.379146957397460938e+01 1.673349571228027344e+01 -3.765282779932022095e-02 -2.253753244876861572e-01 -7.890844345092773438e-02 -6.705778241157531738e-01
8.250000000000000000e+02 4.467671203613281250e+01 2.092169952392578125e+01 -2.601300776004791260e-01 2.217781543731689453e-01 -1.150557398796081543e-02 -6.260693669319152832e-01
8.260000000000000000e+02 5.125225448608398438e+01 2.142850112915039062e+01 -1.535786837339401245e-01 5.022462606430053711e-01 1.046002730727195740e-01 -2.186533212661743164e-01
8.270000000000000000e+02 5.728355026245117188e+01 2.262819671630859375e+01 2.270976454019546509e-02 1.172718405723571777e+00 3.586284518241882324e-01 6.897494792938232422e-01
8.280000000000000000e+02 6.106628417968750000e+01 2.036867523193359375e+01 1.041223406791687012e-01 3.276588916778564453e+00 1.014213442802429199e+00 1.597098708152770996e+00
8.290000000000000000e+02 7.283741760253906250e+01 2.043292808532714844e+01 -7.998811006546020508e-01 8.815946578979492188e+00 2.404819726943969727e+00 -4.264879524707794189e-01
8.300000000000000000e+02 2.730296134948730469e+01 1.654517173767089844e+01 -1.839338801801204681e-02 -5.876727700233459473e-01 -1.818198561668395996e-01 -4.709693193435668945e-01
8.310000000000000000e+02 2.717268753051757812e+01 1.231027698516845703e+01 8.684204891324043274e-03 -7.870737910270690918e-01 -2.335168719291687012e-01 -4.657558202743530273e-01
8.320000000000000000e+02 2.590046882629394531e+01 4.214919567108154297e+00 -1.226546987891197205e-02 -1.241032481193542480e+00 -3.759894073009490967e-01 -3.346141874790191650e-01
8.330000000000000000e+02 2.594627571105957031e+01 2.881629705429077148e+00 -3.098494606092572212e-03 -1.275790333747863770e+00 -3.836666643619537354e-01 -3.176488280296325684e-01
8.340000000000000000e+02 3.448449707031250000e+01 4.495386600494384766e+00 1.555182635784149170e-01 -2.337495982646942139e-01 -2.346939966082572937e-02 -4.847754240036010742e-01
8.350000000000000000e+02 3.435575485229492188e+01 1.089634990692138672e+01 9.682288765907287598e-02 -2.463544756174087524e-01 -4.485948011279106140e-02 -6.166963577270507812e-01
8.360000000000000000e+02 2.838254356384277344e+01 9.343907356262207031e+00 2.304217219352722168e-02 -7.886683344841003418e-01 -2.296878397464752197e-01 -4.895538389682769775e-01
8.370000000000000000e+02 3.901301574707031250e+01 1.224407196044921875e+01 1.593351364135742188e-01 1.141755059361457825e-01 8.205319195985794067e-02 -6.167356371879577637e-01
8.380000000000000000e+02 4.014347839355468750e+01 1.396112346649169922e+01 1.332197338342666626e-01 1.665665060281753540e-01 8.993586897850036621e-02 -6.333315968513488770e-01
8.390000000000000000e+02 5.043664932250976562e+01 1.425436973571777344e+01 3.709594607353210449e-01 1.150841712951660156e+00 4.565403461456298828e-01 -6.046502664685249329e-02
8.400000000000000000e+02 6.626169586181640625e+01 1.029012489318847656e+01 -7.207647711038589478e-02 5.744649410247802734e+00 1.701771855354309082e+00 6.959290504455566406e-01
8.410000000000000000e+02 7.249022674560546875e+01 1.099859714508056641e+01 -1.870129704475402832e-01 7.508469104766845703e+00 2.196436882019042969e+00 2.920914590358734131e-01
8.420000000000000000e+02 2.105961418151855469e+01 1.839309883117675781e+01 -8.159362478181719780e-04 -7.330254316329956055e-01 -2.201524078845977783e-01 -5.274844542145729065e-02
8.430000000000000000e+02 2.106085014343261719e+01 1.698169708251953125e+01 -2.346777619095519185e-04 -8.584202527999877930e-01 -2.575964927673339844e-01 -5.426411703228950500e-02
8.440000000000000000e+02 2.106246185302734375e+01 9.934552192687988281e+00 -1.655111700529232621e-04 -1.511188745498657227e+00 -4.534062743186950684e-01 -5.472972989082336426e-02
8.450000000000000000e+02 2.101630592346191406e+01 4.286111354827880859e+00 -4.020335897803306580e-02 -2.109416246414184570e+00 -6.448858976364135742e-01 -1.408086717128753662e-01
8.460000000000000000e+02 2.105272865295410156e+01 5.703368186950683594e+00 -1.835307106375694275e-02 -1.966737985610961914e+00 -5.955273509025573730e-01 -8.148022741079330444e-02
8.470000000000000000e+02 4.733629226684570312e+01 1.768087893724441528e-01 3.781650960445404053e-01 1.554574847221374512e+00 5.798220038414001465e-01 -9.142179042100906372e-02
8.480000000000000000e+02 4.796751785278320312e+01 3.111778736114501953e+00 4.099372923374176025e-01 1.534380793571472168e+00 5.832954049110412598e-01 -9.403377771377563477e-02
8.490000000000000000e+02 6.155410766601562500e+01 2.323348522186279297e+00 2.540252506732940674e-01 4.381824016571044922e+00 1.390754818916320801e+00 4.575896859169006348e-01
8.500000000000000000e+02 6.568203735351562500e+01 1.754245996475219727e+00 1.427241116762161255e-01 5.435074806213378906e+00 1.673339724540710449e+00 4.490965306758880615e-01
8.510000000000000000e+02 7.127604675292968750e+01 3.652632236480712891e+00 1.593234390020370483e-02 6.839571475982666016e+00 2.056651115417480469e+00 3.721587657928466797e-01
8.520000000000000000e+02 2.106093025207519531e+01 1.275179767608642578e+01 -2.536221109039615840e-05 -1.248304724693298340e+00 -3.744990527629852295e-01 -5.490676313638687134e-02
8.530000000000000000e+02 3.964879608154296875e+01 2.626304626464843750e+00 2.761545777320861816e-01 3.970508873462677002e-01 2.019616365432739258e-01 -3.823499977588653564e-01
8.540000000000000000e+02 5.882412338256835938e+01 -6.009533405303955078e+00 2.599866688251495361e-01 3.937453746795654297e+00 1.259232163429260254e+00 2.407100498676300049e-01
8.550000000000000000e+02 5.826332855224609375e+01 -3.228015661239624023e+00 2.831322848796844482e-01 3.771099090576171875e+00 1.216269373893737793e+00 2.699750661849975586e-01
8.560000000000000000e+02 6.654360961914062500e+01 -2.551769018173217773e+00 1.339786946773529053e-01 5.610541343688964844e+00 1.723356008529663086e+00 3.513775169849395752e-01
8.570000000000000000e+02 7.168907928466796875e+01 -2.680893421173095703e+00 5.892915278673171997e-02 6.769618034362792969e+00 2.048564195632934570e+00 2.814102768898010254e-01
8.580000000000000000e+02 2.884589576721191406e+01 -3.552743911743164062e+00 7.228437066078186035e-02 -1.007966756820678711e+00 -2.807047069072723389e-01 -3.008546829223632812e-01
8.590000000000000000e+02 2.732433319091796875e+01 -8.274534225463867188e+00 3.656119853258132935e-02 -1.286228179931640625e+00 -3.749001026153564453e-01 -2.328431755304336548e-01
8.600000000000000000e+02 3.498887252807617188e+01 -1.628536987304687500e+01 1.071650683879852295e-01 -6.033625081181526184e-02 1.404864527285099030e-02 -1.497216969728469849e-01
8.610000000000000000e+02 4.364926910400390625e+01 -2.329895210266113281e+01 1.382899582386016846e-01 1.439756155014038086e+00 4.734138250350952148e-01 -1.448844186961650848e-02
8.620000000000000000e+02 5.068268585205078125e+01 -2.830935287475585938e+01 1.084426566958427429e-01 2.686071872711181641e+00 8.383543491363525391e-01 5.816179909743368626e-04
8.630000000000000000e+02 5.567890167236328125e+01 -3.239536285400390625e+01 9.694844484329223633e-02 3.582724809646606445e+00 1.103901982307434082e+00 4.700353741645812988e-02
8.640000000000000000e+02 3.463660812377929688e+01 -1.886017918586730957e+00 1.574684530496597290e-01 -1.921022832393646240e-01 -1.039014663547277451e-02 -3.518132269382476807e-01
8.650000000000000000e+02 3.351773071289062500e+01 -1.251743125915527344e+01 9.868614375591278076e-02 -3.287632763385772705e-01 -6.902313977479934692e-02 -1.892912387847900391e-01
8.660000000000000000e+02 4.407532882690429688e+01 -1.565008735656738281e+01 1.907276362180709839e-01 1.411875844001770020e+00 4.807810187339782715e-01 -6.065250560641288757e-02
8.670000000000000000e+02 4.889056015014648438e+01 -2.181430244445800781e+01 1.640745103359222412e-01 2.294766426086425781e+00 7.376523017883300781e-01 1.408206019550561905e-02
8.680000000000000000e+02 5.835536193847656250e+01 -2.376029586791992188e+01 1.144562661647796631e-01 4.046867847442626953e+00 1.248397231101989746e+00 8.475054800510406494e-02
8.690000000000000000e+02 4.125878524780273438e+01 -2.430372953414916992e+00 2.775472700595855713e-01 7.315759062767028809e-01 3.027369379997253418e-01 -2.457467913627624512e-01
8.700000000000000000e+02 4.024411392211914062e+01 -9.164334297180175781e+00 2.080907374620437622e-01 7.074363231658935547e-01 2.746581137180328369e-01 -1.749032735824584961e-01
8.710000000000000000e+02 4.655691146850585938e+01 -1.545647048950195312e+01 2.019770592451095581e-01 1.828275084495544434e+00 6.090756654739379883e-01 -1.395931746810674667e-02
8.720000000000000000e+02 5.719250488281250000e+01 -1.637842178344726562e+01 1.683202534914016724e-01 3.780070781707763672e+00 1.184517383575439453e+00 1.296663284301757812e-01
8.730000000000000000e+02 6.770351409912109375e+01 -1.110422992706298828e+01 1.016064211726188660e-01 5.813971042633056641e+00 1.774673223495483398e+00 2.177519798278808594e-01
8.740000000000000000e+02 6.602051544189453125e+01 -1.154313468933105469e+01 1.166501641273498535e-01 5.480341434478759766e+00 1.679097414016723633e+00 2.247732877731323242e-01
8.750000000000000000e+02 7.141106414794921875e+01 -1.071482563018798828e+01 5.558631941676139832e-02 6.560784816741943359e+00 1.984911322593688965e+00 1.905101835727691650e-01
8.760000000000000000e+02 2.893371009826660156e+01 -1.214310646057128906e+01 4.124907776713371277e-02 -1.043078064918518066e+00 -3.005487024784088135e-01 -1.905493140220642090e-01
8.770000000000000000e+02 2.764644050598144531e+01 -1.662846946716308594e+01 2.949380315840244293e-02 -1.291082501411437988e+00 -3.784765899181365967e-01 -1.332408338785171509e-01
8.780000000000000000e+02 3.874141693115234375e+01 -2.071242904663085938e+01 1.136722564697265625e-01 5.751447081565856934e-01 2.066451013088226318e-01 -8.066489547491073608e-02
8.790000000000000000e+02 4.202485656738281250e+01 -2.969441413879394531e+01 9.538313001394271851e-02 1.206306576728820801e+00 3.905069231986999512e-01 4.325050860643386841e-03
8.800000000000000000e+02 4.828110122680664062e+01 -3.051658630371093750e+01 1.017124950885772705e-01 2.239025592803955078e+00 7.022214531898498535e-01 1.646747626364231110e-02
8.810000000000000000e+02 3.430738830566406250e+01 -1.092698955535888672e+01 1.108196973800659180e-01 -2.030537575483322144e-01 -2.767021954059600830e-02 -2.058821916580200195e-01
8.820000000000000000e+02 4.129064178466796875e+01 -1.038331985473632812e+01 2.156777083873748779e-01 8.786914348602294922e-01 3.283107280731201172e-01 -1.392477303743362427e-01
8.830000000000000000e+02 5.170603179931640625e+01 -7.807141304016113281e+00 2.969795167446136475e-01 2.598685503005981445e+00 8.686995506286621094e-01 6.453931331634521484e-02
8.840000000000000000e+02 7.292822265625000000e+01 -1.939276504516601562e+01 2.664390765130519867e-02 6.774359703063964844e+00 2.040301084518432617e+00 9.505576640367507935e-02
8.850000000000000000e+02 7.094997406005859375e+01 -1.731451606750488281e+01 3.657903522253036499e-02 6.412117958068847656e+00 1.934609055519104004e+00 1.288284808397293091e-01
8.860000000000000000e+02 2.007702064514160156e+01 -1.535693454742431641e+01 -3.114138916134834290e-02 -2.656191587448120117e+00 -8.061999082565307617e-01 -2.253439277410507202e-01
8.870000000000000000e+02 3.606403350830078125e+01 -1.733810997009277344e+01 1.159867197275161743e-01 1.277677118778228760e-01 7.312633097171783447e-02 -1.323310434818267822e-01
8.880000000000000000e+02 4.159027481079101562e+01 -1.581103229522705078e+01 1.712943762540817261e-01 1.008535981178283691e+00 3.539490997791290283e-01 -9.259922057390213013e-02
8.890000000000000000e+02 4.542636489868164062e+01 -1.695519447326660156e+01 1.842513978481292725e-01 1.680481076240539551e+00 5.594197511672973633e-01 -3.757988661527633667e-02
8.900000000000000000e+02 2.712924766540527344e+01 -2.702352714538574219e+01 1.568304933607578278e-02 -1.351689338684082031e+00 -4.008018970489501953e-01 -1.115891560912132263e-01
8.910000000000000000e+02 3.704818344116210938e+01 -2.467236709594726562e+01 9.740397334098815918e-02 3.250000178813934326e-01 1.267212033271789551e-01 -7.408107817173004150e-02
8.920000000000000000e+02 4.225552749633789062e+01 -2.168870162963867188e+01 1.471409797668457031e-01 1.197154760360717773e+00 4.032887220382690430e-01 -3.145856410264968872e-02
8.930000000000000000e+02 3.874293518066406250e+01 -3.133588981628417969e+01 9.288059920072555542e-02 6.492828726768493652e-01 2.226490378379821777e-01 -2.984422817826271057e-02
8.940000000000000000e+02 7.232481384277343750e+01 -3.180879592895507812e+01 1.108794473111629486e-02 6.544126033782958984e+00 1.966564178466796875e+00 3.288158029317855835e-02
8.950000000000000000e+02 1.146007156372070312e+01 -3.098439979553222656e+01 4.804912954568862915e-03 6.120475474745035172e-03 3.277616575360298157e-03 -6.148410961031913757e-03
8.960000000000000000e+02 1.437434291839599609e+01 -1.767335128784179688e+01 6.244599353522062302e-04 -1.068475758074782789e-04 1.552837056806311011e-04 -1.014271110761910677e-04
8.970000000000000000e+02 1.151294517517089844e+01 -1.718500328063964844e+01 6.470404914580285549e-04 1.270893844775855541e-04 2.322389627806842327e-04 -2.833539620041847229e-04
8.980000000000000000e+02 1.459080600738525391e+01 -1.069321060180664062e+01 -3.865908365696668625e-04 -8.855437272359267808e-07 -1.162429107353091240e-04 4.427277235663495958e-05
8.990000000000000000e+02 1.250735282897949219e+01 -1.045665645599365234e+01 -3.563009086064994335e-04 -5.886761573492549360e-05 -1.245505554834380746e-04 1.321551826549693942e-04
9.000000000000000000e+02 5.722103118896484375e-01 -1.066526222229003906e+01 -4.503711534198373556e-04 -1.258882275578798726e-05 -1.388879900332540274e-04 -6.459624728449853137e-06
9.010000000000000000e+02 1.352673625946044922e+01 9.095269203186035156e+00 -3.680783265735954046e-06 -3.478930352684983518e-07 -1.208602839142258745e-06 -3.104023278410750208e-07
9.020000000000000000e+02 2.624761581420898438e+01 3.438563156127929688e+01 -4.342442750930786133e-02 -5.620254669338464737e-03 -1.471340470016002655e-02 -2.200940996408462524e-02
9.030000000000000000e+02 2.471482467651367188e+01 3.445894622802734375e+01 -1.968364603817462921e-02 -8.896671235561370850e-03 -8.574094623327255249e-03 -1.047029066830873489e-02
9.040000000000000000e+02 2.095844459533691406e+01 2.961379623413085938e+01 -2.307040151208639145e-03 -2.733323536813259125e-02 -8.892082609236240387e-03 -1.257808599621057510e-02
9.050000000000000000e+02 2.096614456176757812e+01 2.822238922119140625e+01 -2.432576380670070648e-03 -7.008911669254302979e-02 -2.175650931894779205e-02 -1.904599554836750031e-02
9.060000000000000000e+02 2.218187141418457031e+01 2.410585212707519531e+01 -9.195701219141483307e-03 -3.029353618621826172e-01 -9.363931417465209961e-02 -1.094674840569496155e-01
9.070000000000000000e+02 2.101762962341308594e+01 2.402563667297363281e+01 -2.577576786279678345e-03 -2.909484505653381348e-01 -8.805780857801437378e-02 -3.775194659829139709e-02
9.080000000000000000e+02 2.104644584655761719e+01 2.121170425415039062e+01 -1.973663922399282455e-03 -4.967547059059143066e-01 -1.496185213327407837e-01 -4.707681387662887573e-02
9.090000000000000000e+02 2.230941200256347656e+01 1.559354019165039062e+01 -5.245718057267367840e-04 -9.180825948715209961e-01 -2.755821645259857178e-01 -1.631657630205154419e-01
9.100000000000000000e+02 2.106040763854980469e+01 1.557031250000000000e+01 -5.872607653145678341e-05 -9.870743155479431152e-01 -2.961399257183074951e-01 -5.492839589715003967e-02
9.110000000000000000e+02 2.106026840209960938e+01 1.416039562225341797e+01 3.638960188254714012e-04 -1.117348194122314453e+00 -3.350952863693237305e-01 -5.494014546275138855e-02
9.120000000000000000e+02 2.230944252014160156e+01 1.135102748870849609e+01 7.542881066910922527e-04 -1.265112996101379395e+00 -3.793075978755950928e-01 -1.641978174448013306e-01
9.130000000000000000e+02 2.106160354614257812e+01 8.525385856628417969e+00 -1.434285193681716919e-03 -1.645598173141479492e+00 -4.941097199916839600e-01 -5.689379572868347168e-02
9.140000000000000000e+02 2.105816078186035156e+01 7.115947246551513672e+00 -4.090949951205402613e-04 -1.785417914390563965e+00 -5.357481241226196289e-01 -5.925457179546356201e-02
9.150000000000000000e+02 2.225170707702636719e+01 4.258224964141845703e+00 -6.381886452436447144e-02 -1.781641364097595215e+00 -5.536380410194396973e-01 -1.907013803720474243e-01
9.160000000000000000e+02 2.092739105224609375e+01 2.872561693191528320e+00 -3.250574693083763123e-02 -2.113155126571655273e+00 -6.436982750892639160e-01 -1.924676150083541870e-01
9.170000000000000000e+02 2.081020164489746094e+01 1.469295740127563477e+00 -1.883016666397452354e-03 -2.041252613067626953e+00 -6.129406690597534180e-01 -1.869949698448181152e-01
9.180000000000000000e+02 2.071797370910644531e+01 7.121385633945465088e-02 2.352331578731536865e-02 -2.055249929428100586e+00 -6.095179915428161621e-01 -1.392406821250915527e-01
9.190000000000000000e+02 2.048247337341308594e+01 -4.138874053955078125e+00 9.137886576354503632e-03 -2.217429399490356445e+00 -6.624874472618103027e-01 -1.617125421762466431e-01
9.200000000000000000e+02 2.196056556701660156e+01 -2.795620203018188477e+00 -2.255111746490001678e-02 -1.992901802062988281e+00 -6.046358346939086914e-01 -1.563117057085037231e-01
9.210000000000000000e+02 2.033997535705566406e+01 -8.335171699523925781e+00 -1.689417753368616104e-03 -2.461253881454467773e+00 -7.388829588890075684e-01 -5.725418031215667725e-02
9.220000000000000000e+02 2.022834014892578125e+01 -1.254642677307128906e+01 -3.844159422442317009e-03 -2.645734310150146484e+00 -7.948735356330871582e-01 -1.029491499066352844e-01
9.230000000000000000e+02 2.026947212219238281e+01 -1.114273643493652344e+01 1.262512407265603542e-03 -2.568882703781127930e+00 -7.702860832214355469e-01 -1.062531322240829468e-01
9.240000000000000000e+02 2.156998825073242188e+01 -1.255932140350341797e+01 -3.652014210820198059e-02 -2.365117073059082031e+00 -7.204911708831787109e-01 -1.721281260251998901e-01
9.250000000000000000e+02 1.979123497009277344e+01 -1.954607582092285156e+01 2.804972231388092041e-02 -2.455513238906860352e+00 -7.282390594482421875e-01 -9.829656779766082764e-02
9.260000000000000000e+02 2.133898544311523438e+01 -1.815439414978027344e+01 5.340845137834548950e-02 -2.321744918823242188e+00 -6.805009245872497559e-01 -1.294063776731491089e-01
9.270000000000000000e+02 1.973189163208007812e+01 -2.235101890563964844e+01 -1.003956794738769531e-02 -2.597354412078857422e+00 -7.822181582450866699e-01 -9.081172943115234375e-02
9.280000000000000000e+02 1.965992355346679688e+01 -2.655897903442382812e+01 1.185563951730728149e-02 -2.670052289962768555e+00 -7.974590063095092773e-01 -2.272093482315540314e-02
9.290000000000000000e+02 1.966561508178710938e+01 -2.515715789794921875e+01 2.255715895444154739e-03 -2.612613916397094727e+00 -7.831075191497802734e-01 -3.599367663264274597e-02
9.300000000000000000e+02 1.970605659484863281e+01 -2.936983680725097656e+01 4.426446743309497833e-03 -2.748379468917846680e+00 -8.231859207153320312e-01 -1.776524260640144348e-02
9.310000000000000000e+02 1.987580108642578125e+01 -3.221279525756835938e+01 -5.110295605845749378e-04 -2.874388456344604492e+00 -8.624697923660278320e-01 -5.909130349755287170e-02
9.320000000000000000e+02 2.188096237182617188e+01 -3.215807342529296875e+01 -9.052342921495437622e-02 -2.389905929565429688e+00 -7.441288232803344727e-01 -1.447638422250747681e-01
9.330000000000000000e+02 1.431522464752197266e+01 -3.167876625061035156e+01 6.005953531712293625e-03 2.070918999379500747e-04 1.863913726992905140e-03 -2.610960043966770172e-03
9.340000000000000000e+02 1.456697654724121094e+01 -2.756383514404296875e+01 -3.910216037184000015e-03 -1.759267179295420647e-03 -1.700844964943826199e-03 4.230859631206840277e-04
9.350000000000000000e+02 1.309212779998779297e+01 -2.388769912719726562e+01 -1.477488782256841660e-03 -2.120586723322048783e-04 -5.068642203696072102e-04 5.747143877670168877e-04
9.360000000000000000e+02 1.442109107971191406e+01 -2.351286315917968750e+01 2.201749011874198914e-03 -7.151106256060302258e-04 4.459915217012166977e-04 1.880400377558544278e-04
9.370000000000000000e+02 1.418358039855957031e+01 -2.057599449157714844e+01 8.582091541029512882e-04 -2.289312687935307622e-04 1.887833641376346350e-04 -6.492376269306987524e-05
9.380000000000000000e+02 1.292691230773925781e+01 -1.744087982177734375e+01 -7.248405017890036106e-04 -1.491632574470713735e-04 -2.622011234052479267e-04 3.624145756475627422e-04
9.390000000000000000e+02 1.442180347442626953e+01 -1.626381874084472656e+01 -5.336568574421107769e-04 -9.133453568210825324e-05 -1.874974113889038563e-04 1.313244865741580725e-04
9.400000000000000000e+02 1.460717773437500000e+01 -9.311151504516601562e+00 3.480357991065829992e-04 6.550180842168629169e-06 1.063757954398170114e-04 -3.147286042803898454e-05
9.410000000000000000e+02 1.254586410522460938e+01 -1.919780492782592773e+00 -7.122335955500602722e-05 -7.769357034703716636e-05 -4.467507824301719666e-05 1.955099469341803342e-05
9.420000000000000000e+02 1.301625633239746094e+01 -2.810505151748657227e+00 -1.009710758808068931e-04 -1.931302394950762391e-04 -8.823039388516917825e-05 1.442037464585155249e-04
9.430000000000000000e+02 1.428646183013916016e+01 -2.021854639053344727e+00 -2.512836363166570663e-05 4.503470336203463376e-05 5.971901373413857073e-06 -4.699656074080849066e-06
9.440000000000000000e+02 1.373815155029296875e+01 -2.029505968093872070e+00 -1.370732643408700824e-04 2.244542338303290308e-05 -3.438835119595751166e-05 6.684446816507261246e-06
9.450000000000000000e+02 1.317871093750000000e+01 -1.975617289543151855e+00 1.520007936051115394e-04 5.503035936271771789e-05 6.210934225236997008e-05 -9.972480620490387082e-05
9.460000000000000000e+02 1.182529354095458984e+01 -1.899301886558532715e+00 8.178137068171054125e-05 5.529288318939507008e-05 4.112227543373592198e-05 7.165000170061830431e-06
9.470000000000000000e+02 9.593400001525878906e+00 -1.880381941795349121e+00 -8.947528840508311987e-05 -5.185721965972334146e-05 -4.239975169184617698e-05 3.581099736038595438e-05
9.480000000000000000e+02 1.034732055664062500e+01 -1.884672522544860840e+00 9.810877236304804683e-05 4.512469968176446855e-05 4.297004124964587390e-05 -3.543955244822427630e-05
9.490000000000000000e+02 8.829508781433105469e+00 -1.879607915878295898e+00 9.514800331089645624e-05 5.226566281635314226e-05 4.422409983817487955e-05 -3.662152448669075966e-05
9.500000000000000000e+02 7.301598548889160156e+00 -1.869860291481018066e+00 1.077417764463461936e-04 3.566518353181891143e-05 4.302208617446012795e-05 -3.342232594150118530e-05
9.510000000000000000e+02 5.787546157836914062e+00 -1.848101973533630371e+00 5.906817932554986328e-06 5.436328137875534594e-05 1.808102933864574879e-05 -3.624469900387339294e-05
9.520000000000000000e+02 3.531899213790893555e+00 -1.940568923950195312e+00 3.215501237718854100e-06 4.274083403288386762e-05 1.378690012643346563e-05 -2.989791755680926144e-05
9.530000000000000000e+02 5.034537792205810547e+00 -1.856633543968200684e+00 6.596405000891536474e-05 -3.687258868012577295e-05 8.727437489142175764e-06 4.685810199589468539e-05
9.540000000000000000e+02 4.438744068145751953e+00 -2.659303665161132812e+00 8.300945773953571916e-05 -4.234631705912761390e-05 1.219894147652667016e-05 -1.783910010999534279e-05
9.550000000000000000e+02 2.768759727478027344e+00 -2.015924930572509766e+00 -8.832377716316841543e-06 3.690443577397672925e-07 -2.538999979151412845e-06 -2.012163122344645672e-06
9.560000000000000000e+02 1.997175455093383789e+00 -2.110811710357666016e+00 -3.749354073079302907e-05 -3.043934884772170335e-05 -2.037986632785759866e-05 1.417810608472791500e-06
9.570000000000000000e+02 1.212930321693420410e+00 -2.183026313781738281e+00 2.337860933039337397e-04 2.018377381318714470e-05 7.619096140842884779e-05 2.533287442929577082e-05
9.580000000000000000e+02 2.051166057586669922e+00 -4.164380645751953125e+01 -9.326188592240214348e-04 2.252612076699733734e-02 6.478050723671913147e-03 2.658741432242095470e-04
9.590000000000000000e+02 5.220210552215576172e+00 -3.759298706054687500e+01 3.147850511595606804e-04 3.774439916014671326e-03 1.226767548359930515e-03 1.454365719109773636e-02
9.600000000000000000e+02 1.025448203086853027e+00 -3.870552444458007812e+01 1.622916199266910553e-03 1.951828040182590485e-02 6.342359352856874466e-03 3.239228390157222748e-03
9.610000000000000000e+02 7.592313885688781738e-01 -3.457049942016601562e+01 -3.067302750423550606e-04 7.623474579304456711e-03 2.195023233070969582e-03 1.688332064077258110e-03
9.620000000000000000e+02 7.254582643508911133e-01 -3.316674804687500000e+01 6.483499309979379177e-04 4.433612804859876633e-03 1.524588791653513908e-03 1.591236796230077744e-03
9.630000000000000000e+02 6.593861579895019531e-01 -2.894729423522949219e+01 -1.474309538025408983e-04 -5.410345038399100304e-04 -2.065396402031183243e-04 1.416846062056720257e-04
9.640000000000000000e+02 6.517094969749450684e-01 -2.753982734680175781e+01 2.422270335955545306e-04 -9.152746642939746380e-04 -2.019142993958666921e-04 1.587803999427706003e-04
9.650000000000000000e+02 6.470170021057128906e-01 -2.613179206848144531e+01 -8.051741315284743905e-05 -9.514407138340175152e-04 -3.095874271821230650e-04 -1.233422954101115465e-04
9.660000000000000000e+02 6.365297436714172363e-01 -2.191334533691406250e+01 -2.028043090831488371e-04 -5.006181308999657631e-04 -2.110267232637852430e-04 -1.931111546582542360e-05
9.670000000000000000e+02 6.306473612785339355e-01 -2.050909614562988281e+01 2.855134371202439070e-04 -3.414592356421053410e-04 -1.678373700997326523e-05 -9.725407289806753397e-05
9.680000000000000000e+02 1.897154450416564941e+00 -2.034834671020507812e+01 -4.058133636135607958e-04 -1.986108836717903614e-04 -1.813272829167544842e-04 -7.428278877341654152e-06
9.690000000000000000e+02 6.152086853981018066e-01 -1.629440116882324219e+01 -4.604372370522469282e-04 -9.176050662063062191e-05 -1.656593231018632650e-04 -2.431251050438731909e-05
9.700000000000000000e+02 6.082319617271423340e-01 -1.488703536987304688e+01 4.645227163564413786e-04 -3.387297329027205706e-05 1.291949156438931823e-04 -1.865974809334147722e-06
9.710000000000000000e+02 5.989301800727844238e-01 -1.347900295257568359e+01 -4.671897913794964552e-04 -3.318112430861219764e-05 -1.501112710684537888e-04 -1.962535134225618094e-05
9.720000000000000000e+02 1.790390849113464355e+00 -1.339628124237060547e+01 4.056901670992374420e-04 8.300152330775745213e-06 1.241970894625410438e-04 -3.708718941197730601e-05
9.730000000000000000e+02 5.541522502899169922e-01 -9.261137008666992188e+00 4.390710673760622740e-04 1.310692186962114647e-05 1.356534048682078719e-04 -4.901935994894301984e-07
9.740000000000000000e+02 5.330631732940673828e-01 -7.860124111175537109e+00 -4.197104717604815960e-04 -2.135447175533045083e-06 -1.265537721337750554e-04 5.758423071711149532e-07
9.750000000000000000e+02 5.160077810287475586e-01 -6.456804752349853516e+00 3.861033474095165730e-04 1.510675429017283022e-05 1.203630308737047017e-04 -3.215471679141046479e-06
9.760000000000000000e+02 7.482543182373046875e+01 -4.030223083496093750e+01 2.956143580377101898e-02 7.028858184814453125e+00 2.117525815963745117e+00 -4.174051433801651001e-02
9.770000000000000000e+02 5.263548278808593750e+01 -4.020462036132812500e+01 8.801774680614471436e-02 3.023937225341796875e+00 9.335864782333374023e-01 6.012673489749431610e-03
9.780000000000000000e+02 3.262077331542968750e+01 -4.087349319458007812e+01 1.205891445279121399e-01 -4.024858772754669189e-01 -8.456901460886001587e-02 4.830379039049148560e-03
9.790000000000000000e+02 1.156470012664794922e+01 -3.947553253173828125e+01 -3.827844187617301941e-02 -3.058916330337524414e-02 -2.066028118133544922e-02 5.512917041778564453e-02
9.800000000000000000e+02 7.907343292236328125e+01 4.022083282470703125e+01 1.762531846761703491e-01 7.802842140197753906e+00 2.393728494644165039e+00 3.097265958786010742e-01
9.810000000000000000e+02 7.931066894531250000e+01 3.902138519287109375e+01 -7.296705245971679688e-02 7.278960227966308594e+00 2.161798000335693359e+00 1.653630435466766357e-01
9.820000000000000000e+02 7.593238067626953125e+01 4.045687103271484375e+01 -5.687987804412841797e-01 8.415474891662597656e+00 2.354002952575683594e+00 3.577825129032135010e-01
9.830000000000000000e+02 7.927352905273437500e+01 3.498782730102539062e+01 -5.175611004233360291e-03 5.675529003143310547e+00 1.701106071472167969e+00 2.796165943145751953e-01
9.840000000000000000e+02 7.787668609619140625e+01 3.371804428100585938e+01 1.603704839944839478e-01 6.514607906341552734e+00 2.002493381500244141e+00 5.809019804000854492e-01
9.850000000000000000e+02 7.928552246093750000e+01 3.355436706542968750e+01 5.763652175664901733e-02 5.215195178985595703e+00 1.581849575042724609e+00 2.172852456569671631e-01
9.860000000000000000e+02 7.941322326660156250e+01 3.067664146423339844e+01 7.219272851943969727e-02 4.727097511291503906e+00 1.439787030220031738e+00 -9.708053432404994965e-03
9.870000000000000000e+02 7.734370422363281250e+01 2.782817649841308594e+01 2.746987342834472656e-01 6.884857654571533203e+00 2.147866964340209961e+00 -7.719594240188598633e-01
9.880000000000000000e+02 7.946512603759765625e+01 2.647950553894042969e+01 -4.943626117892563343e-04 5.800145149230957031e+00 1.739895224571228027e+00 -2.558454275131225586e-01
9.890000000000000000e+02 7.732229614257812500e+01 2.506899833679199219e+01 -4.703356884419918060e-03 7.504535198211669922e+00 2.249949455261230469e+00 -9.914399385452270508e-01
9.900000000000000000e+02 7.946318054199218750e+01 2.508759689331054688e+01 1.566847600042819977e-02 6.435583591461181641e+00 1.935375571250915527e+00 -2.737126350402832031e-01
9.910000000000000000e+02 7.944583129882812500e+01 2.091980361938476562e+01 -2.138067781925201416e-02 8.127565383911132812e+00 2.431855440139770508e+00 -2.044319510459899902e-01
9.920000000000000000e+02 7.944169616699218750e+01 1.952944946289062500e+01 -9.104100987315177917e-03 8.509365081787109375e+00 2.550078392028808594e+00 -1.649351418018341064e-01
9.930000000000000000e+02 7.721770477294921875e+01 1.957591819763183594e+01 -1.768360584974288940e-01 8.423512458801269531e+00 2.474002838134765625e+00 -5.341710448265075684e-01
9.940000000000000000e+02 7.943914031982421875e+01 1.813922309875488281e+01 -1.909857429563999176e-02 8.791719436645507812e+00 2.631786346435546875e+00 -1.277710944414138794e-01
9.950000000000000000e+02 7.943135070800781250e+01 1.397384452819824219e+01 -4.532650113105773926e-03 9.158759117126464844e+00 2.746268033981323242e+00 -4.391108080744743347e-02
9.960000000000000000e+02 7.942823791503906250e+01 1.258493041992187500e+01 -8.949249982833862305e-03 9.169762611389160156e+00 2.748244047164916992e+00 -2.664386294782161713e-02
9.970000000000000000e+02 7.942316436767578125e+01 1.119451141357421875e+01 -2.114518545567989349e-03 9.146868705749511719e+00 2.743426084518432617e+00 -1.362597104161977768e-02
9.980000000000000000e+02 7.939619445800781250e+01 7.012258052825927734e+00 -3.453390672802925110e-03 8.959254264831542969e+00 2.686740159988403320e+00 9.118728339672088623e-03
9.990000000000000000e+02 7.938574218750000000e+01 5.616301059722900391e+00 -2.660025202203541994e-04 8.878200531005859375e+00 2.663380384445190430e+00 1.303283870220184326e-02
1.000000000000000000e+03 7.937709045410156250e+01 4.220380783081054688e+00 -8.697003358975052834e-04 8.795290946960449219e+00 2.638326406478881836e+00 1.433897297829389572e-02
1.001000000000000000e+03 7.936607360839843750e+01 3.226660192012786865e-02 -2.632422838360071182e-04 8.554145812988281250e+00 2.566164731979370117e+00 1.568854786455631256e-02
1.002000000000000000e+03 7.936376953125000000e+01 -1.362896323204040527e+00 8.772729197517037392e-04 8.478860855102539062e+00 2.543921232223510742e+00 1.494681555777788162e-02
1.003000000000000000e+03 7.808312988281250000e+01 -4.096220970153808594e+00 3.658327972516417503e-03 8.090937614440917969e+00 2.428378820419311523e+00 6.717614084482192993e-02
1.004000000000000000e+03 7.936150360107421875e+01 -4.150708198547363281e+00 1.013884670101106167e-03 8.342959403991699219e+00 2.503191947937011719e+00 1.192870736122131348e-02
1.005000000000000000e+03 7.935945892333984375e+01 -8.326576232910156250e+00 2.754126035142689943e-04 8.176325798034667969e+00 2.452980279922485352e+00 7.924062199890613556e-03
1.006000000000000000e+03 7.806047821044921875e+01 -1.104613208770751953e+01 2.711214590817689896e-03 7.852254390716552734e+00 2.356489658355712891e+00 4.331212490797042847e-02
1.007000000000000000e+03 7.935600280761718750e+01 -1.111313533782958984e+01 4.504900134634226561e-04 8.086193084716796875e+00 2.425993204116821289e+00 5.900840274989604950e-03
1.008000000000000000e+03 7.935374450683593750e+01 -1.529405307769775391e+01 -4.184053686913102865e-04 7.977261543273925781e+00 2.393053054809570312e+00 3.874799236655235291e-03
1.009000000000000000e+03 7.804906463623046875e+01 -1.802084541320800781e+01 2.559506567195057869e-03 7.694498538970947266e+00 2.309117555618286133e+00 2.629916369915008545e-02
1.010000000000000000e+03 7.935167694091796875e+01 -1.808237457275390625e+01 -4.176232032477855682e-04 7.919343471527099609e+00 2.375677824020385742e+00 2.197225578129291534e-03
1.011000000000000000e+03 7.934307098388671875e+01 -2.365166282653808594e+01 1.708170515485107899e-03 7.833866596221923828e+00 2.350672483444213867e+00 8.231348328990861773e-05
1.012000000000000000e+03 7.799368286132812500e+01 -2.496289825439453125e+01 2.774348948150873184e-03 7.592053890228271484e+00 2.278448581695556641e+00 1.182388514280319214e-02
1.013000000000000000e+03 7.933221435546875000e+01 -2.504515647888183594e+01 -1.281926175579428673e-03 7.818662643432617188e+00 2.345214128494262695e+00 -2.751797146629542112e-04
1.014000000000000000e+03 7.928179931640625000e+01 -2.923868751525878906e+01 3.535663126967847347e-04 7.789986133575439453e+00 2.337101936340332031e+00 -8.673498523421585560e-04
1.015000000000000000e+03 7.779371643066406250e+01 -3.199493598937988281e+01 -2.079059137031435966e-03 7.519872188568115234e+00 2.255337953567504883e+00 7.091141305863857269e-03
1.016000000000000000e+03 7.928282165527343750e+01 -3.202241897583007812e+01 -3.357113106176257133e-03 7.774396419525146484e+00 2.331311702728271484e+00 1.602471922524273396e-03
1.017000000000000000e+03 7.935883331298828125e+01 -3.610895156860351562e+01 9.317259304225444794e-03 7.714858531951904297e+00 2.317252874374389648e+00 1.130622159689664841e-02
1.018000000000000000e+03 7.925524902343750000e+01 -3.742091751098632812e+01 -1.856913417577743530e-02 7.664972305297851562e+00 2.293920993804931641e+00 2.774420939385890961e-02
1.019000000000000000e+03 7.900617218017578125e+01 -3.871543884277343750e+01 4.015205428004264832e-03 7.609463214874267578e+00 2.284043550491333008e+00 3.305578976869583130e-02
1.020000000000000000e+03 7.861779022216796875e+01 -4.006645965576171875e+01 -2.314415760338306427e-02 7.549932479858398438e+00 2.258036375045776367e+00 5.290060490369796753e-02
1.021000000000000000e+03 4.803285121917724609e+00 4.041209411621093750e+01 -1.010096002573845908e-05 -1.453882669011363760e-05 -7.391935923806158826e-06 1.599494908077758737e-06
1.022000000000000000e+03 2.742623710632324219e+01 3.804579162597656250e+01 9.277313947677612305e-04 7.971295272000133991e-04 5.174583056941628456e-04 -1.385308336466550827e-03
1.023000000000000000e+03 4.608911895751953125e+01 3.634278488159179688e+01 -6.185464188456535339e-02 -1.277138739824295044e-01 -5.687055364251136780e-02 2.174532413482666016e-01
1.024000000000000000e+03 6.703833770751953125e+01 3.645748901367187500e+01 -1.102120637893676758e+00 9.951787948608398438e+00 2.654900074005126953e+00 -1.913667321205139160e+00
1.025000000000000000e+03 1.267698407173156738e+00 2.698754310607910156e+00 -5.947813406237401068e-07 4.861693128077604342e-07 -3.258361047642210906e-08 3.317544212677603355e-07
1.026000000000000000e+03 3.099424362182617188e+00 2.727795600891113281e+00 -2.110953118972247466e-06 -1.059072815223771613e-06 -9.510077347840706352e-07 -2.170486368413548917e-07
1.027000000000000000e+03 5.280291080474853516e+00 2.686580181121826172e+00 1.110695507122727577e-06 9.182232929560996126e-07 6.086756343393062707e-07 -5.054396865489252377e-07
1.028000000000000000e+03 1.624819159507751465e+00 6.257853507995605469e+00 3.410591261854278855e-06 7.055093647068133578e-07 1.234830165230960120e-06 -2.368245901607224368e-07
1.029000000000000000e+03 5.678502321243286133e-01 9.224361419677734375e+00 -4.161865490459604189e-06 -4.796533659146007267e-08 -1.262949353986186907e-06 3.871394085308565991e-07
1.030000000000000000e+03 5.928099155426025391e-01 1.205150413513183594e+01 -4.851262929150834680e-06 -1.017521782387120766e-07 -1.485904590481368359e-06 4.199702345886180410e-07
1.031000000000000000e+03 1.782240390777587891e+00 1.195508766174316406e+01 4.756416728923795745e-06 2.465453405875450699e-07 1.500888515693077352e-06 -3.247071447276539402e-07
1.032000000000000000e+03 6.057170629501342773e-01 1.628764152526855469e+01 6.070691142667783424e-06 1.298886616041272646e-07 1.860173938439402264e-06 -5.740749315918947104e-07
1.033000000000000000e+03 1.832030177116394043e+00 1.758562469482421875e+01 6.341326752590248361e-06 1.122988777524369652e-07 1.936087755893822759e-06 -3.905421408489928581e-07
1.034000000000000000e+03 6.117597818374633789e-01 1.769865989685058594e+01 -6.420555564545793459e-06 -8.002061235856672283e-08 -1.950172872966504656e-06 5.517248382602701895e-07
1.035000000000000000e+03 6.359885334968566895e-01 2.192961502075195312e+01 6.710175057378364727e-06 1.903513435763670714e-07 2.070157961497898214e-06 -4.058597653511242243e-07
1.036000000000000000e+03 6.388933062553405762e-01 2.333844375610351562e+01 -6.530263817694503814e-06 -2.677376009785348288e-08 -1.967111302292323671e-06 3.477152290543017443e-07
1.037000000000000000e+03 1.920548319816589355e+00 2.319809532165527344e+01 7.123177510948153213e-06 1.015399178072584618e-07 2.167415232179337181e-06 3.454372006217454327e-07
1.038000000000000000e+03 6.397590041160583496e-01 2.474995803833007812e+01 6.169063908600946888e-06 1.076340865324709739e-07 1.883009417724679224e-06 -2.117184010330674937e-07
1.039000000000000000e+03 6.472529768943786621e-01 2.899044609069824219e+01 -3.834578819805756211e-06 -3.673481074883966357e-08 -1.161394038717844523e-06 -4.213779334349965211e-07
1.040000000000000000e+03 6.540860533714294434e-01 3.040422248840332031e+01 2.754402430582558736e-06 -8.335028667261212831e-08 8.013156502784113400e-07 6.168482968860189430e-07
1.041000000000000000e+03 1.998419880867004395e+00 3.166542053222656250e+01 4.817161425307858735e-06 8.319117910104978364e-07 1.694721959211165085e-06 1.598390554136130959e-06
1.042000000000000000e+03 6.611509323120117188e-01 3.181743621826171875e+01 -1.983558149731834419e-06 -6.080719003875856288e-07 -7.774890491418773308e-07 -3.005286544066620991e-07
1.043000000000000000e+03 6.597794890403747559e-01 3.602018737792968750e+01 7.155114872148260474e-06 1.337389676336897537e-06 2.547751364545547403e-06 -3.069221520490827970e-06
1.044000000000000000e+03 1.973104119300842285e+00 3.706536865234375000e+01 7.353693945333361626e-06 1.570846848153450992e-06 2.677362090253154747e-06 -6.073009899409953505e-06
1.045000000000000000e+03 8.692098855972290039e-01 3.871234512329101562e+01 1.179724949906812981e-05 1.945890971910557710e-06 4.122941845707828179e-06 -3.506683469822746702e-06
1.046000000000000000e+03 1.252288460731506348e+00 4.005904006958007812e+01 -9.981592484109569341e-06 1.985655671887798235e-06 -2.398780907242326066e-06 1.235080389960785396e-06
1.047000000000000000e+03 1.038781261444091797e+01 1.848185420036315918e+00 1.211459107253176626e-06 1.060928198626243102e-07 3.952655731609411305e-07 -2.268738370503342594e-07
1.048000000000000000e+03 8.932255744934082031e+00 1.868933200836181641e+00 1.060425006471632514e-06 3.255819081005029147e-07 4.158020772138115717e-07 8.038945509269979084e-08
1.049000000000000000e+03 8.212966918945312500e+00 1.870669722557067871e+00 -9.061255354936292861e-07 -4.877705919170693960e-07 -4.181688382232096046e-07 -6.115625694746995578e-08
1.050000000000000000e+03 8.192501068115234375e+00 2.614566564559936523e+00 1.195314666802005377e-06 5.471038662108185235e-07 5.227255428508215118e-07 2.440509661028045230e-07
1.051000000000000000e+03 7.494463443756103516e+00 1.872871398925781250e+00 8.063191785367962439e-07 6.284749360929708928e-07 4.304382343889301410e-07 -4.340868287044941098e-08
1.052000000000000000e+03 5.332249641418457031e+00 1.893525600433349609e+00 -8.641196700409636833e-07 -7.730641300440765917e-07 -4.911551059194607660e-07 4.859045361627067905e-07
1.053000000000000000e+03 4.608994483947753906e+00 1.904935240745544434e+00 1.085921553567459341e-06 7.121922749320219737e-07 5.394341542341862805e-07 -4.746116530895960750e-07
1.054000000000000000e+03 3.891844749450683594e+00 1.908760905265808105e+00 -1.416283453181677032e-06 -6.884384333716297988e-07 -6.314165830190177076e-07 3.220516759938618634e-07
1.055000000000000000e+03 3.186195135116577148e+00 1.899322271347045898e+00 1.698318101261975244e-06 6.685131666017696261e-07 7.100493917278072331e-07 5.080768161747073464e-08
1.056000000000000000e+03 2.491305112838745117e+00 1.883537292480468750e+00 -1.478907051932765171e-06 -7.995955684236832894e-07 -6.835508088443020824e-07 -4.872107410847092979e-07
1.057000000000000000e+03 1.802524805068969727e+00 1.879022598266601562e+00 7.686811613893951289e-07 1.059436385730805341e-06 5.484352527673763689e-07 5.436878609543782659e-07
1.058000000000000000e+03 1.186561203002929688e+01 1.779766917228698730e+00 8.643785349704558030e-07 3.349796031670848606e-07 3.598074442834331421e-07 -4.672749014389410149e-07
1.059000000000000000e+03 1.435569953918457031e+01 2.980180978775024414e+00 -1.578647186306625372e-07 -4.173330410139897140e-07 -1.725593250512247323e-07 1.010465325634868350e-06
1.060000000000000000e+03 1.459598159790039062e+01 3.783323287963867188e+00 1.949302259163232520e-06 3.228087734896689653e-07 6.816333097958704457e-07 -5.313540327733790036e-07
1.061000000000000000e+03 1.479364013671875000e+01 2.011975288391113281e+00 -1.347361262560298201e-06 -3.362187328548316145e-07 -5.050740128353936598e-07 -1.372202973470848519e-07
1.062000000000000000e+03 1.461559391021728516e+01 6.346816062927246094e+00 3.313931529191904701e-06 1.542394585385409300e-07 1.040451252265484072e-06 -3.819540381755359704e-07
1.063000000000000000e+03 1.460330104827880859e+01 7.698639869689941406e+00 -3.782448857236886397e-06 -1.330914045638564858e-07 -1.174662088487821165e-06 2.236552347767428728e-07
1.064000000000000000e+03 1.458500194549560547e+01 9.060420036315917969e+00 4.250160600349772722e-06 1.166701082411236712e-07 1.310049242420063820e-06 -4.071782555570280238e-08
1.065000000000000000e+03 1.453267192840576172e+01 1.179631614685058594e+01 5.151408913661725819e-06 -8.618093794154901843e-09 1.542837253509787843e-06 1.967650291589961853e-07
1.066000000000000000e+03 1.448622226715087891e+01 1.317483425140380859e+01 -5.346967100194888189e-06 9.313949789202524698e-08 -1.576148292770085391e-06 -1.167715737437902135e-07
1.067000000000000000e+03 1.442634677886962891e+01 1.456215858459472656e+01 5.453130142996087670e-06 8.891684899481333559e-08 1.662614067754475400e-06 1.219450354028595029e-07
1.068000000000000000e+03 1.440136814117431641e+01 1.595801544189453125e+01 -5.793274794996250421e-06 -7.828815995480908896e-08 -1.761468865879578516e-06 -2.988933260894555133e-07
1.069000000000000000e+03 1.317287540435791016e+01 2.012652015686035156e+01 -7.786795322317630053e-06 -9.373038523108334630e-08 -2.364157808187883347e-06 -3.137177202461316483e-07
1.070000000000000000e+03 1.452565383911132812e+01 2.151301002502441406e+01 -8.834083928377367556e-06 -4.061959213430554883e-09 -2.651443537615705281e-06 -3.515193043313047383e-07
1.071000000000000000e+03 1.481701183319091797e+01 2.563641357421875000e+01 1.166270430985605344e-05 3.494051554753241362e-07 3.603632649173960090e-06 1.081711616279790178e-06
1.072000000000000000e+03 1.331471443176269531e+01 2.284914207458496094e+01 -8.994586096378043294e-06 -2.122580298191678594e-07 -2.762053327387548052e-06 -7.568869477836415172e-07
1.073000000000000000e+03 1.492389297485351562e+01 2.701156234741210938e+01 -1.295584479521494359e-05 9.062032013673615438e-09 -3.884034867951413617e-06 -1.327807467532693408e-06
1.074000000000000000e+03 1.506565570831298828e+01 2.838127899169921875e+01 1.470851020712871104e-05 5.666697688866406679e-07 4.582554083754075691e-06 1.839585706875368487e-06
1.075000000000000000e+03 1.571490383148193359e+01 3.259688186645507812e+01 -2.076884084090124816e-05 1.504966576248989441e-06 -5.779162165708839893e-06 6.940361458873667289e-07
1.076000000000000000e+03 1.628527450561523438e+01 3.397206878662109375e+01 1.569660526001825929e-05 -3.622771828304394148e-06 3.622149733928381465e-06 -9.275153388443868607e-06
1.077000000000000000e+03 1.525613594055175781e+01 3.554839706420898438e+01 3.459825893514789641e-05 1.545656778034754097e-05 1.501644783274969086e-05 -6.771868811483727768e-06
1.078000000000000000e+03 1.716903305053710938e+01 3.646576309204101562e+01 6.616329483222216368e-05 1.246190004167146981e-05 2.358755955356173217e-05 2.854680496966466308e-05
1.079000000000000000e+03 2.164552116394042969e+01 3.829719161987304688e+01 1.278988347621634603e-04 9.393315121997147799e-05 6.654959724983200431e-05 -1.815299910958856344e-04
1.080000000000000000e+03 2.328199005126953125e+01 3.853821945190429688e+01 2.102881844621151686e-04 3.032506210729479790e-04 1.540616358397528529e-04 -4.384335479699075222e-04
1.081000000000000000e+03 2.605512428283691406e+01 3.848855590820312500e+01 5.379921058192849159e-04 5.955759552307426929e-04 3.400704008527100086e-04 -1.002141856588423252e-03
1.082000000000000000e+03 2.824263954162597656e+01 3.808798980712890625e+01 8.208527578972280025e-04 9.504790650680661201e-04 5.313995643518865108e-04 -1.976619707420468330e-03
1.083000000000000000e+03 2.917524147033691406e+01 3.807283020019531250e+01 1.097537693567574024e-03 4.677801916841417551e-04 4.695953684858977795e-04 -1.906584249809384346e-03
1.084000000000000000e+03 3.147185325622558594e+01 3.734075546264648438e+01 3.004884114488959312e-03 2.480677212588489056e-04 9.758856031112372875e-04 -1.164301880635321140e-03
1.085000000000000000e+03 3.260086441040039062e+01 3.732769012451171875e+01 1.654438092373311520e-03 9.385051089338958263e-05 5.244865897111594677e-04 -9.467746131122112274e-04
1.086000000000000000e+03 3.262117767333984375e+01 3.696083831787109375e+01 3.525233129039406776e-03 9.571047849021852016e-04 1.344701391644775867e-03 -5.789062706753611565e-04
1.087000000000000000e+03 3.384184646606445312e+01 3.729503631591796875e+01 1.969226286746561527e-04 -2.451771171763539314e-03 -6.764545687474310398e-04 2.356609475100412965e-04
1.088000000000000000e+03 3.473065185546875000e+01 3.721471023559570312e+01 6.667008274234831333e-04 -8.522298187017440796e-03 -2.356679178774356842e-03 1.995161408558487892e-03
1.089000000000000000e+03 3.726588439941406250e+01 3.792490768432617188e+01 -5.671951919794082642e-03 -1.880876533687114716e-02 -7.344215176999568939e-03 1.931590959429740906e-02
1.090000000000000000e+03 3.806778717041015625e+01 3.776722335815429688e+01 -4.935376811772584915e-03 -2.455881237983703613e-02 -8.848256431519985199e-03 2.346418611705303192e-02
1.091000000000000000e+03 3.962809371948242188e+01 3.635016632080078125e+01 -2.173693664371967316e-02 -2.832405641674995422e-02 -1.501829829066991806e-02 4.266789555549621582e-02
1.092000000000000000e+03 4.042654800415039062e+01 3.606375885009765625e+01 -3.619355708360671997e-02 -2.785398438572883606e-02 -1.921426132321357727e-02 4.535353556275367737e-02
1.093000000000000000e+03 4.099641036987304688e+01 3.561747360229492188e+01 -4.213820025324821472e-02 -3.139721229672431946e-02 -2.206062339246273041e-02 5.286766961216926575e-02
1.094000000000000000e+03 4.415468215942382812e+01 3.595272827148437500e+01 -7.578063011169433594e-02 -6.864310055971145630e-02 -4.332711920142173767e-02 1.211625635623931885e-01
1.095000000000000000e+03 4.380803298950195312e+01 3.505220794677734375e+01 -9.661106765270233154e-02 -5.849445983767509460e-02 -4.653165861964225769e-02 9.604838490486145020e-02
1.096000000000000000e+03 4.520997238159179688e+01 3.473785400390625000e+01 -1.500034034252166748e-01 -6.751279532909393311e-02 -6.525485962629318237e-02 1.236229166388511658e-01
1.097000000000000000e+03 4.665757369995117188e+01 3.460907745361328125e+01 -2.126059681177139282e-01 -7.826285809278488159e-02 -8.726064860820770264e-02 1.713865995407104492e-01
1.098000000000000000e+03 4.814824676513671875e+01 3.434706878662109375e+01 -3.066823780536651611e-01 -7.604593783617019653e-02 -1.148184984922409058e-01 2.114968895912170410e-01
1.099000000000000000e+03 5.094945526123046875e+01 3.402947998046875000e+01 -4.797398447990417480e-01 -1.002768501639366150e-01 -1.740050166845321655e-01 3.159346282482147217e-01
1.100000000000000000e+03 5.173654556274414062e+01 3.384145355224609375e+01 -5.649453997611999512e-01 -1.142777502536773682e-01 -2.037669420242309570e-01 3.497422337532043457e-01
1.101000000000000000e+03 5.322623062133789062e+01 3.362375640869140625e+01 -7.156046032905578613e-01 -1.123903170228004456e-01 -2.483984678983688354e-01 4.056012630462646484e-01
1.102000000000000000e+03 5.395908355712890625e+01 3.354877853393554688e+01 -7.982733845710754395e-01 -8.273406326770782471e-02 -2.643022239208221436e-01 4.236041009426116943e-01
1.103000000000000000e+03 5.623033905029296875e+01 3.436422348022460938e+01 -5.431739687919616699e-01 6.019206251949071884e-03 -1.611464172601699829e-01 4.550804495811462402e-01
1.104000000000000000e+03 5.617090606689453125e+01 3.333844375610351562e+01 -1.024582982063293457e+00 -5.739088729023933411e-02 -3.245921730995178223e-01 4.462656676769256592e-01
1.105000000000000000e+03 5.985383224487304688e+01 3.299054718017578125e+01 -1.191856741905212402e+00 8.951543271541595459e-02 -3.307023942470550537e-01 2.390387207269668579e-01
1.106000000000000000e+03 6.056922531127929688e+01 3.292972564697265625e+01 -1.103873372077941895e+00 9.983377903699874878e-02 -3.012118637561798096e-01 1.346882730722427368e-01
1.107000000000000000e+03 6.122180557250976562e+01 3.286429977416992188e+01 -9.670397043228149414e-01 1.320391744375228882e-01 -2.505001425743103027e-01 4.598287120461463928e-02
1.108000000000000000e+03 6.240423965454101562e+01 3.274583435058593750e+01 -6.315237283706665039e-01 3.388646543025970459e-01 -8.779771625995635986e-02 -3.684298396110534668e-01
1.109000000000000000e+03 6.297982406616210938e+01 3.271439361572265625e+01 -3.308334648609161377e-01 5.519090294837951660e-01 6.632267683744430542e-02 -6.797352433204650879e-01
1.110000000000000000e+03 6.441379547119140625e+01 3.262196350097656250e+01 1.182618021965026855e+00 1.687514185905456543e+00 8.610396385192871094e-01 -2.184987545013427734e+00
1.111000000000000000e+03 6.401547241210937500e+01 3.304922485351562500e+01 9.535174965858459473e-01 1.696664810180664062e+00 7.950547337532043457e-01 -2.086052179336547852e+00
1.112000000000000000e+03 6.682379150390625000e+01 3.258227539062500000e+01 5.256652235984802246e-01 1.618593025207519531e+01 5.013478755950927734e+00 -5.146009922027587891e+00
1.113000000000000000e+03 6.813529205322265625e+01 3.195570564270019531e+01 4.806726455688476562e+00 1.918550682067871094e+01 7.197669982910156250e+00 2.463586330413818359e+00
1.114000000000000000e+03 6.828210449218750000e+01 3.180716705322265625e+01 6.174887180328369141e+00 1.841869544982910156e+01 7.378074645996093750e+00 2.728557348251342773e+00
1.115000000000000000e+03 6.859281921386718750e+01 3.075480461120605469e+01 9.309176445007324219e+00 1.583280563354492188e+01 7.542594432830810547e+00 -3.850586116313934326e-01
1.116000000000000000e+03 6.857873535156250000e+01 3.051405715942382812e+01 8.885154724121093750e+00 1.611922073364257812e+01 7.501312732696533203e+00 -1.289093255996704102e+00
1.117000000000000000e+03 6.849142456054687500e+01 3.029173660278320312e+01 8.232806205749511719e+00 1.670599746704101562e+01 7.481640815734863281e+00 -2.010530948638916016e+00
1.118000000000000000e+03 6.824149322509765625e+01 2.992012214660644531e+01 5.799356460571289062e+00 1.863552665710449219e+01 7.330464839935302734e+00 -2.579175949096679688e+00
1.119000000000000000e+03 6.796783447265625000e+01 2.926619148254394531e+01 1.708362817764282227e+00 1.911118698120117188e+01 6.245864868164062500e+00 -7.590163350105285645e-01
1.120000000000000000e+03 6.552899932861328125e+01 2.919194412231445312e+01 1.969830036163330078e+00 5.157033920288085938e+00 2.138059139251708984e+00 5.275644302368164062e+00
1.121000000000000000e+03 6.432135772705078125e+01 2.919188499450683594e+01 2.570444643497467041e-01 1.340129852294921875e+00 4.791522920131683350e-01 2.323247432708740234e+00
1.122000000000000000e+03 6.409733581542968750e+01 2.918299293518066406e+01 -5.689282901585102081e-03 1.124404907226562500e+00 3.356146812438964844e-01 2.037061452865600586e+00
1.123000000000000000e+03 6.031926727294921875e+01 2.866607666015625000e+01 -2.033602714538574219e+00 1.321785748004913330e-01 -5.704272389411926270e-01 3.715976476669311523e-01
1.124000000000000000e+03 6.106647109985351562e+01 2.922373771667480469e+01 -2.449924468994140625e+00 6.048361957073211670e-02 -7.168322801589965820e-01 3.319734632968902588e-01
1.125000000000000000e+03 6.168521881103515625e+01 2.921657943725585938e+01 -2.192044973373413086e+00 1.292655616998672485e-01 -6.188338398933410645e-01 4.975275099277496338e-01
1.126000000000000000e+03 6.288325119018554688e+01 2.921457862854003906e+01 -1.540063142776489258e+00 3.107807338237762451e-01 -3.687847256660461426e-01 9.160878658294677734e-01
1.127000000000000000e+03 5.963748550415039062e+01 2.927799797058105469e+01 -2.872180938720703125e+00 1.850686594843864441e-02 -8.561021685600280762e-01 1.472911387681961060e-01
1.128000000000000000e+03 5.888370895385742188e+01 2.931148910522460938e+01 -2.969349384307861328e+00 2.153942186851054430e-04 -8.907401561737060547e-01 9.284146130084991455e-02
1.129000000000000000e+03 5.812580108642578125e+01 2.934766960144042969e+01 -3.011629819869995117e+00 -2.864766633138060570e-03 -9.043483734130859375e-01 5.996556952595710754e-02
1.130000000000000000e+03 5.583084869384765625e+01 2.948823547363281250e+01 -2.979729413986206055e+00 -1.538907829672098160e-02 -8.985355496406555176e-01 2.681010402739048004e-03
1.131000000000000000e+03 5.351772689819335938e+01 2.970539474487304688e+01 -2.793401479721069336e+00 -6.416214630007743835e-03 -8.399453163146972656e-01 -1.142406556755304337e-02
1.132000000000000000e+03 5.199123382568359375e+01 2.990325736999511719e+01 -2.624215364456176758e+00 -7.705612224526703358e-04 -7.874957919120788574e-01 -8.444571867585182190e-03
1.133000000000000000e+03 5.047799682617187500e+01 3.011151504516601562e+01 -2.433631658554077148e+00 3.486863570287823677e-03 -7.290434837341308594e-01 -5.846952553838491440e-03
1.134000000000000000e+03 4.746733474731445312e+01 3.056378173828125000e+01 -2.005225181579589844e+00 1.775551028549671173e-02 -5.962409377098083496e-01 -1.318333577364683151e-02
1.135000000000000000e+03 4.671842956542968750e+01 3.068900680541992188e+01 -1.899015665054321289e+00 2.260549366474151611e-02 -5.629230141639709473e-01 -1.392631977796554565e-02
1.136000000000000000e+03 4.597032546997070312e+01 3.081573295593261719e+01 -1.786780118942260742e+00 2.720222435891628265e-02 -5.278733968734741211e-01 -1.379265729337930679e-02
1.137000000000000000e+03 4.225363540649414062e+01 3.149576568603515625e+01 -1.269862771034240723e+00 3.239785879850387573e-02 -3.712394833564758301e-01 -3.443289920687675476e-02
1.138000000000000000e+03 4.299459457397460938e+01 3.135445022583007812e+01 -1.367987871170043945e+00 3.230394050478935242e-02 -4.007051587104797363e-01 -2.936153858900070190e-02
1.139000000000000000e+03 4.373727035522460938e+01 3.121773338317871094e+01 -1.469502449035644531e+00 2.966786734759807587e-02 -4.319503903388977051e-01 -2.490925416350364685e-02
1.140000000000000000e+03 4.077861785888671875e+01 3.178493881225585938e+01 -1.084582209587097168e+00 3.749627619981765747e-02 -3.141257762908935547e-01 -4.224448651075363159e-02
1.141000000000000000e+03 4.004225540161132812e+01 3.192765998840332031e+01 -9.943344593048095703e-01 3.844293951988220215e-02 -2.867674529552459717e-01 -4.455342888832092285e-02
1.142000000000000000e+03 3.635850143432617188e+01 3.262854766845703125e+01 -6.077502965927124023e-01 3.035518527030944824e-02 -1.732185333967208862e-01 -6.393177062273025513e-02
1.143000000000000000e+03 3.783329772949218750e+01 3.234494400024414062e+01 -7.507684230804443359e-01 3.308817371726036072e-02 -2.153040766716003418e-01 -5.794428661465644836e-02
1.144000000000000000e+03 3.906560516357421875e+01 3.143348312377929688e+01 -8.828522562980651855e-01 5.257091671228408813e-02 -2.490843981504440308e-01 -1.232185140252113342e-01
1.145000000000000000e+03 3.488452148437500000e+01 3.292303466796875000e+01 -4.791748523712158203e-01 2.780441567301750183e-02 -1.354111284017562866e-01 -6.549340486526489258e-02
1.146000000000000000e+03 3.414797973632812500e+01 3.306985855102539062e+01 -4.197785854339599609e-01 2.627844363451004028e-02 -1.180500462651252747e-01 -6.467986851930618286e-02
1.147000000000000000e+03 3.123185157775878906e+01 3.363960647583007812e+01 -2.263157516717910767e-01 1.513340882956981659e-02 -6.335470080375671387e-02 -5.637203529477119446e-02
1.148000000000000000e+03 3.268547439575195312e+01 3.335560226440429688e+01 -3.147923350334167480e-01 2.118045464158058167e-02 -8.808355778455734253e-02 -6.189497187733650208e-02
1.149000000000000000e+03 2.908549690246582031e+01 3.404657363891601562e+01 -1.247116625308990479e-01 4.615912679582834244e-03 -3.602872416377067566e-02 -4.415142908692359924e-02
1.150000000000000000e+03 2.837432670593261719e+01 3.416650390625000000e+01 -9.819677472114562988e-02 1.861099270172417164e-03 -2.890070341527462006e-02 -3.823938965797424316e-02
1.151000000000000000e+03 2.766720581054687500e+01 3.425734710693359375e+01 -7.654092460870742798e-02 -6.443769088946282864e-04 -2.315559051930904388e-02 -3.322558477520942688e-02
1.152000000000000000e+03 2.382345390319824219e+01 3.443366622924804688e+01 -1.132294721901416779e-02 -7.646584417670965195e-03 -5.690859630703926086e-03 -3.990509547293186188e-03
1.153000000000000000e+03 2.118354415893554688e+01 3.421409988403320312e+01 -2.395699499174952507e-03 4.445041064172983170e-03 6.148024694994091988e-04 3.230149159207940102e-03
1.154000000000000000e+03 6.699962615966796875e+01 2.914375686645507812e+01 -1.781205460429191589e-02 1.750450325012207031e+01 5.246007442474365234e+00 4.469601154327392578e+00
1.155000000000000000e+03 6.797608947753906250e+01 3.209180450439453125e+01 3.438875913619995117e+00 1.977510070800781250e+01 6.964193344116210938e+00 1.866564631462097168e+00
1.156000000000000000e+03 6.855754852294921875e+01 3.121173477172851562e+01 9.075530052185058594e+00 1.618021583557128906e+01 7.576723575592041016e+00 1.435212135314941406e+00
1.157000000000000000e+03 6.794132995605468750e+01 2.961337852478027344e+01 3.182599544525146484e+00 2.023265457153320312e+01 7.024576187133789062e+00 -1.653555274009704590e+00
1.158000000000000000e+03 6.876071166992187500e+01 3.188731765747070312e+01 5.553411483764648438e+00 1.600673103332519531e+01 6.468042850494384766e+00 2.388810634613037109e+00
1.159000000000000000e+03 6.888930511474609375e+01 3.164336585998535156e+01 6.584164142608642578e+00 1.528276634216308594e+01 6.560079097747802734e+00 2.048083782196044922e+00
1.160000000000000000e+03 6.722490692138671875e+01 2.918188858032226562e+01 1.616271329112350941e-03 1.882800674438476562e+01 5.648887157440185547e+00 3.261124610900878906e+00
1.161000000000000000e+03 6.744537353515625000e+01 2.884288978576660156e+01 -3.101961910724639893e-01 1.763637733459472656e+01 5.197854042053222656e+00 2.280249118804931641e+00
1.162000000000000000e+03 6.763550567626953125e+01 3.234166717529296875e+01 1.411549091339111328e+00 2.051508522033691406e+01 6.577990531921386719e+00 -2.647425234317779541e-01
1.163000000000000000e+03 6.695689392089843750e+01 3.299310684204101562e+01 -8.470264077186584473e-02 1.538557720184326172e+01 4.590262413024902344e+00 -4.165750980377197266e+00
1.164000000000000000e+03 6.777819824218750000e+01 2.948908233642578125e+01 2.030581235885620117e+00 2.054510498046875000e+01 6.772705554962158203e+00 -6.138375997543334961e-01
1.165000000000000000e+03 6.638754272460937500e+01 3.253128433227539062e+01 1.479303836822509766e+00 1.211320972442626953e+01 4.077754020690917969e+00 -6.421504974365234375e+00
1.166000000000000000e+03 6.524944305419921875e+01 3.259423446655273438e+01 2.200094699859619141e+00 3.795745372772216797e+00 1.798751950263977051e+00 -3.975584983825683594e+00
1.167000000000000000e+03 6.574606323242187500e+01 3.264102554321289062e+01 2.380175113677978516e+00 6.726988315582275391e+00 2.732148885726928711e+00 -5.442873477935791016e+00
1.168000000000000000e+03 6.579984283447265625e+01 3.246900558471679688e+01 2.591600418090820312e+00 6.645167827606201172e+00 2.771030426025390625e+00 -5.695047855377197266e+00
1.169000000000000000e+03 6.618494415283203125e+01 3.251215362548828125e+01 2.042535066604614258e+00 1.038769626617431641e+01 3.729069471359252930e+00 -6.571894168853759766e+00
1.170000000000000000e+03 6.660086059570312500e+01 3.257579040527343750e+01 8.952986598014831543e-01 1.416493892669677734e+01 4.518071174621582031e+00 -5.897383213043212891e+00
1.171000000000000000e+03 6.336829757690429688e+01 3.331354904174804688e+01 6.346020698547363281e-01 1.398581385612487793e+00 6.099550724029541016e-01 -1.507394790649414062e+00
1.172000000000000000e+03 6.462109375000000000e+01 3.254823684692382812e+01 1.392796158790588379e+00 1.966860890388488770e+00 1.007897138595581055e+00 -2.523799657821655273e+00
1.173000000000000000e+03 6.281682968139648438e+01 2.876636695861816406e+01 -8.871088624000549316e-01 5.812065601348876953e-01 -9.177067875862121582e-02 1.307774424552917480e+00
1.174000000000000000e+03 6.372798538208007812e+01 2.877833747863769531e+01 -6.375792622566223145e-02 1.181293129920959473e+00 3.352605700492858887e-01 2.079532384872436523e+00
1.175000000000000000e+03 6.493772888183593750e+01 2.923610496520996094e+01 1.115186452865600586e+00 2.230859041213989258e+00 1.003813624382019043e+00 3.469323396682739258e+00
1.176000000000000000e+03 6.474231719970703125e+01 2.921565628051757812e+01 9.204387068748474121e-01 1.981917858123779297e+00 8.707069754600524902e-01 3.130694866180419922e+00
1.177000000000000000e+03 2.027093696594238281e+01 3.798414611816406250e+01 -1.213688392454059795e-05 6.587569805560633540e-05 1.612164305697660893e-05 -4.990248271496966481e-05
1.178000000000000000e+03 1.420557308197021484e+01 1.887599349021911621e+00 6.024665708537213504e-07 2.355393604602795676e-07 2.514017864996276330e-07 -1.045920186015791842e-07
1.179000000000000000e+03 1.257305812835693359e+01 1.750805258750915527e+00 -4.511650217864371371e-07 -5.874804855920956470e-07 -3.115936522135598352e-07 2.656161086633801460e-07
1.180000000000000000e+03 6.238665390014648438e+01 3.332720947265625000e+01 4.684618115425109863e-02 6.430090665817260742e-01 2.069565802812576294e-01 -6.652330160140991211e-01
1.181000000000000000e+03 6.290162658691406250e+01 3.327218627929687500e+01 2.763651013374328613e-01 8.762893676757812500e-01 3.457963466644287109e-01 -9.695568680763244629e-01
1.182000000000000000e+03 6.183493804931640625e+01 3.345969772338867188e+01 -1.572453230619430542e-01 5.293451547622680664e-01 1.116299554705619812e-01 -4.279096126556396484e-01
1.183000000000000000e+03 6.224811172485351562e+01 2.823578834533691406e+01 -7.170619964599609375e-01 6.879366636276245117e-01 -8.737594820559024811e-03 1.299929857254028320e+00
1.184000000000000000e+03 6.279653930664062500e+01 2.830575370788574219e+01 -4.155787825584411621e-01 9.300732612609863281e-01 1.543483585119247437e-01 1.617849469184875488e+00
1.185000000000000000e+03 6.499716949462890625e+01 2.895934867858886719e+01 1.457406759262084961e+00 3.123392581939697266e+00 1.374239802360534668e+00 4.024951934814453125e+00
1.186000000000000000e+03 2.050650405883789062e+01 3.899813842773437500e+01 3.894939800375141203e-05 1.117204301408492029e-04 4.520094807958230376e-05 -8.986559259938076138e-05
1.187000000000000000e+03 2.297829627990722656e+01 3.977318191528320312e+01 -5.118587068864144385e-06 4.773708060383796692e-04 1.416756713297218084e-04 -4.269521450623869896e-04
1.188000000000000000e+03 6.055353164672851562e+00 1.883734703063964844e+00 7.822310976735025179e-07 7.860349455768300686e-07 4.704798186594416620e-07 -3.467502551757206675e-07
1.189000000000000000e+03 9.654883384704589844e+00 2.600159883499145508e+00 1.719783654152706731e-06 4.385147178709303262e-08 5.290905278343416285e-07 1.881482347698693047e-07
1.190000000000000000e+03 6.775963306427001953e+00 1.877410531044006348e+00 -7.675101301174436230e-07 -7.218179689516546205e-07 -4.467984240363875870e-07 1.991411124890873907e-07
1.191000000000000000e+03 7.467793941497802734e+00 2.622371196746826172e+00 -1.040026859300269280e-06 -7.239322030727635138e-07 -5.291877300805936102e-07 -9.156205749150103657e-08
1.192000000000000000e+03 8.179265022277832031e+00 3.364871501922607422e+00 -1.417275257153960411e-06 -6.125669642642606050e-07 -6.089526891628338490e-07 -4.646764466542663286e-07
1.193000000000000000e+03 5.992174148559570312e+00 4.239149570465087891e+00 -1.065183823811821640e-06 -1.241206746271927841e-06 -6.919171937624923885e-07 6.982507017028183327e-08
1.194000000000000000e+03 1.651998043060302734e+00 7.709267139434814453e+00 -4.141538738622330129e-06 -2.395577496372425230e-07 -1.314328869739256334e-06 2.150300986158981686e-07
1.195000000000000000e+03 2.269589424133300781e+00 3.513434171676635742e+00 -1.657203256399952807e-06 -1.664763317421602551e-06 -9.965899607777828351e-07 1.704164901639160234e-06
1.196000000000000000e+03 3.837513923645019531e-01 2.092990398406982422e+00 1.580874936735199299e-06 8.530230957148887683e-07 7.301694040506845340e-07 -4.526089014689205214e-07
1.197000000000000000e+03 1.113189578056335449e+00 1.930523753166198730e+00 2.166150920857035089e-07 -1.353934180770011153e-06 -3.411957152366085211e-07 -3.177459575454122387e-07
1.198000000000000000e+03 1.113264560699462891e+01 1.817980051040649414e+00 -1.105893147723691072e-06 -1.754808209852853906e-07 -3.844122034024621826e-07 4.037536029954935657e-07
1.199000000000000000e+03 9.668034553527832031e+00 3.349716424942016602e+00 -2.243000835733255371e-06 3.634524858853183105e-08 -6.619966370635665953e-07 -5.164145022718003020e-07
1.200000000000000000e+03 2.552239990234375000e+01 3.443992233276367188e+01 -3.036414645612239838e-02 -6.999382749199867249e-03 -1.120905857533216476e-02 -1.700270734727382660e-02
1.201000000000000000e+03 2.760375595092773438e+01 3.294626235961914062e+01 -1.119733005762100220e-01 -1.083670835942029953e-02 -3.684300184249877930e-02 -6.746421009302139282e-02
1.202000000000000000e+03 2.691724014282226562e+01 3.361487197875976562e+01 -7.744032144546508789e-02 -8.537770248949527740e-03 -2.579342760145664215e-02 -4.320476204156875610e-02
1.203000000000000000e+03 2.409111785888671875e+01 3.076605224609375000e+01 -4.555132612586021423e-02 -6.020361557602882385e-02 -3.172648325562477112e-02 -6.721425801515579224e-02
1.204000000000000000e+03 2.827051734924316406e+01 3.355508041381835938e+01 -1.153709888458251953e-01 -2.201867289841175079e-03 -3.527185693383216858e-02 -5.608773231506347656e-02
1.205000000000000000e+03 2.893046951293945312e+01 3.343363952636718750e+01 -1.428731679916381836e-01 1.842716708779335022e-03 -4.230913519859313965e-02 -6.421480327844619751e-02
1.206000000000000000e+03 3.029389190673828125e+01 3.311104202270507812e+01 -2.057558000087738037e-01 1.054426282644271851e-02 -5.856346338987350464e-02 -8.105310052633285522e-02
1.207000000000000000e+03 3.051123619079589844e+01 3.377805709838867188e+01 -1.888524144887924194e-01 1.175336260348558426e-02 -5.312971770763397217e-02 -5.292201414704322815e-02
1.208000000000000000e+03 2.959956932067871094e+01 3.326762390136718750e+01 -1.725569963455200195e-01 6.381188984960317612e-03 -4.985274001955986023e-02 -7.256782054901123047e-02
1.209000000000000000e+03 5.327159118652343750e+01 3.458957290649414062e+01 -4.299328923225402832e-01 -1.379037052392959595e-01 -1.703509837388992310e-01 4.366105496883392334e-01
1.210000000000000000e+03 5.764350509643554688e+01 3.318860626220703125e+01 -1.152779340744018555e+00 -1.668561995029449463e-02 -3.508394658565521240e-01 4.134969711303710938e-01
1.211000000000000000e+03 5.698415374755859375e+01 3.429306411743164062e+01 -5.481927990913391113e-01 -3.400465939193964005e-03 -1.654779762029647827e-01 4.177059233188629150e-01
1.212000000000000000e+03 5.603075027465820312e+01 3.640208053588867188e+01 2.157578617334365845e-01 7.610674202442169189e-02 8.755938708782196045e-02 3.888075947761535645e-01
1.213000000000000000e+03 5.845335006713867188e+01 3.401822280883789062e+01 -5.928698778152465820e-01 1.144263893365859985e-01 -1.435330361127853394e-01 3.111624419689178467e-01
1.214000000000000000e+03 5.194567489624023438e+01 3.649331665039062500e+01 5.394351202994585037e-03 -2.053076326847076416e-01 -5.997398495674133301e-02 3.987549245357513428e-01
1.215000000000000000e+03 4.913991928100585938e+01 3.474946975708007812e+01 -2.838494479656219482e-01 -1.009072437882423401e-01 -1.154270097613334656e-01 2.761653959751129150e-01
1.216000000000000000e+03 5.103939437866210938e+01 3.511077117919921875e+01 -2.780590355396270752e-01 -1.550879627466201782e-01 -1.299441009759902954e-01 3.495514094829559326e-01
1.217000000000000000e+03 5.260679626464843750e+01 3.552080154418945312e+01 -2.140537500381469727e-01 -1.797393858432769775e-01 -1.181379407644271851e-01 4.028488993644714355e-01
1.218000000000000000e+03 5.254829025268554688e+01 3.465654373168945312e+01 -3.975685536861419678e-01 -1.591701805591583252e-01 -1.670216321945190430e-01 4.132999181747436523e-01
1.219000000000000000e+03 5.469285964965820312e+01 3.347634887695312500e+01 -8.746043443679809570e-01 -8.564967662096023560e-02 -2.880761921405792236e-01 4.460283219814300537e-01
1.220000000000000000e+03 5.473102951049804688e+01 3.450570297241210938e+01 -4.783371984958648682e-01 -8.374104648828506470e-02 -1.686234772205352783e-01 4.840288460254669189e-01
1.221000000000000000e+03 5.547385787963867188e+01 3.443836975097656250e+01 -5.071948170661926270e-01 -6.078598275780677795e-02 -1.703942418098449707e-01 4.883573353290557861e-01
1.222000000000000000e+03 5.912091827392578125e+01 3.304624557495117188e+01 -1.214416146278381348e+00 5.604135990142822266e-02 -3.475124239921569824e-01 3.122244477272033691e-01
1.223000000000000000e+03 5.918601989746093750e+01 3.392169189453125000e+01 -5.558045506477355957e-01 2.386996895074844360e-01 -9.513145685195922852e-02 2.042215615510940552e-01
1.224000000000000000e+03 6.124694061279296875e+01 3.363975143432617188e+01 -2.582349181175231934e-01 4.045006334781646729e-01 4.387971013784408569e-02 -2.625658810138702393e-01
1.225000000000000000e+03 4.884318542480468750e+01 3.411050415039062500e+01 -3.478440940380096436e-01 -8.150074630975723267e-02 -1.288034468889236450e-01 2.329425960779190063e-01
1.226000000000000000e+03 4.592970657348632812e+01 3.465396881103515625e+01 -1.784503161907196045e-01 -6.634020060300827026e-02 -7.343715429306030273e-02 1.580784320831298828e-01
1.227000000000000000e+03 3.195788764953613281e+01 3.349698257446289062e+01 -2.688424587249755859e-01 1.784898899495601654e-02 -7.529804110527038574e-02 -5.995608866214752197e-02
1.228000000000000000e+03 3.245355606079101562e+01 3.269126510620117188e+01 -3.278399109840393066e-01 2.334112301468849182e-02 -9.134963899850845337e-02 -1.017409935593605042e-01
1.229000000000000000e+03 3.100545692443847656e+01 3.296518325805664062e+01 -2.435491830110549927e-01 1.498212572187185287e-02 -6.857011467218399048e-02 -8.913655579090118408e-02
1.230000000000000000e+03 3.318233871459960938e+01 3.255645370483398438e+01 -3.757632374763488770e-01 2.808652445673942566e-02 -1.043030172586441040e-01 -1.067312955856323242e-01
1.231000000000000000e+03 4.533196640014648438e+01 3.548819351196289062e+01 -1.179769188165664673e-01 -8.191742002964019775e-02 -5.996830016374588013e-02 1.630819439888000488e-01
1.232000000000000000e+03 4.597819900512695312e+01 3.550129699707031250e+01 -1.264030337333679199e-01 -9.745929390192031860e-02 -6.715869903564453125e-02 1.648626029491424561e-01
1.233000000000000000e+03 4.375195312500000000e+01 3.727386856079101562e+01 -1.068518683314323425e-02 -9.849882125854492188e-02 -3.275520354509353638e-02 9.800643473863601685e-02
1.234000000000000000e+03 4.308578491210937500e+01 3.521130752563476562e+01 -8.711180835962295532e-02 -3.624617680907249451e-02 -3.700739517807960510e-02 7.873861491680145264e-02
1.235000000000000000e+03 1.178485584259033203e+01 -2.652884244918823242e+00 -1.501764054410159588e-04 5.782707376056350768e-06 -4.331811214797198772e-05 -2.069014726657769643e-06
1.236000000000000000e+03 1.030210304260253906e+01 -3.457727909088134766e+00 1.476432807976379991e-04 6.008700438542291522e-05 6.231908628251403570e-05 -7.643776916665956378e-05
1.237000000000000000e+03 1.106424617767333984e+01 -2.656896591186523438e+00 1.461665669921785593e-04 2.233905615867115557e-05 5.055168730905279517e-05 -4.604825517162680626e-05
1.238000000000000000e+03 4.339965820312500000e+01 3.616902542114257812e+01 -4.645205661654472351e-02 -8.107212930917739868e-02 -3.825725615024566650e-02 1.084482222795486450e-01
1.239000000000000000e+03 4.330598449707031250e+01 3.829695129394531250e+01 -2.974023111164569855e-03 -9.557732194662094116e-02 -2.956540323793888092e-02 9.676954150199890137e-02
1.240000000000000000e+03 4.161119842529296875e+01 3.541720962524414062e+01 -5.605883151292800903e-02 -2.950863353908061981e-02 -2.567023970186710358e-02 5.781772360205650330e-02
1.241000000000000000e+03 3.530920028686523438e+01 3.837055969238281250e+01 8.658335427753627300e-04 -1.638059318065643311e-02 -4.654427524656057358e-03 6.454658694565296173e-03
1.242000000000000000e+03 4.002539825439453125e+01 3.820442962646484375e+01 1.350698340684175491e-02 -6.711968034505844116e-02 -1.608380861580371857e-02 4.416184872388839722e-02
1.243000000000000000e+03 3.790007781982421875e+01 3.646020507812500000e+01 -9.543255902826786041e-03 -1.453350763767957687e-02 -7.223029155284166336e-03 1.863354071974754333e-02
1.244000000000000000e+03 3.737339782714843750e+01 3.106016349792480469e+01 -7.183737158775329590e-01 5.508030951023101807e-02 -1.989880204200744629e-01 -1.861471980810165405e-01
1.245000000000000000e+03 3.833293151855468750e+01 3.156837844848632812e+01 -8.085488080978393555e-01 4.927968233823776245e-02 -2.277807295322418213e-01 -1.243175342679023743e-01
1.246000000000000000e+03 3.857030105590820312e+01 3.220606994628906250e+01 -8.283063173294067383e-01 3.589360415935516357e-02 -2.377238124608993530e-01 -5.303842574357986450e-02
1.247000000000000000e+03 3.979825210571289062e+01 3.129825019836425781e+01 -9.609273672103881836e-01 5.367645248770713806e-02 -2.721752822399139404e-01 -1.238533705472946167e-01
1.248000000000000000e+03 3.538711547851562500e+01 3.213212585449218750e+01 -5.416353344917297363e-01 3.805308789014816284e-02 -1.510746777057647705e-01 -1.193259432911872864e-01
1.249000000000000000e+03 3.391464996337890625e+01 3.241799926757812500e+01 -4.276410043239593506e-01 3.144580125808715820e-02 -1.188585609197616577e-01 -1.116672754287719727e-01
1.250000000000000000e+03 3.465078735351562500e+01 3.227584838867187500e+01 -4.827078580856323242e-01 3.547127172350883484e-02 -1.341709792613983154e-01 -1.157137230038642883e-01
1.251000000000000000e+03 3.759816741943359375e+01 3.170547294616699219e+01 -7.369751334190368652e-01 4.720444604754447937e-02 -2.069312036037445068e-01 -1.237887367606163025e-01
1.252000000000000000e+03 4.126561737060546875e+01 3.102041816711425781e+01 -1.123567819595336914e+00 5.370474234223365784e-02 -3.209589421749114990e-01 -1.236270070075988770e-01
1.253000000000000000e+03 4.348409271240234375e+01 3.058820152282714844e+01 -1.383653044700622559e+00 5.165769904851913452e-02 -3.995986282825469971e-01 -1.226564124226570129e-01
1.254000000000000000e+03 1.245943927764892578e+01 2.317813158035278320e+00 6.796835236855258700e-07 3.969896624766988680e-07 3.230019558486674214e-07 -5.458350642584264278e-07
1.255000000000000000e+03 1.039630603790283203e+01 2.571331501007080078e+00 -1.829364919103682041e-06 1.746736302266072016e-07 -4.964073809787805658e-07 1.292039257805299712e-07
1.256000000000000000e+03 1.336454963684082031e+01 2.539261341094970703e+00 1.091106696549104527e-06 7.688779533054912463e-07 5.579954063250625040e-07 1.312402218900388107e-06
1.257000000000000000e+03 4.448019790649414062e+01 3.108183860778808594e+01 -1.573073983192443848e+00 3.020684793591499329e-02 -4.628601372241973877e-01 -1.995425112545490265e-02
1.258000000000000000e+03 4.274353790283203125e+01 3.073091125488281250e+01 -1.295339822769165039e+00 5.116505920886993408e-02 -3.732524216175079346e-01 -1.233717501163482666e-01
1.259000000000000000e+03 4.422555541992187500e+01 3.044695281982421875e+01 -1.474323749542236328e+00 4.939956963062286377e-02 -4.274772703647613525e-01 -1.233220472931861877e-01
1.260000000000000000e+03 4.721893692016601562e+01 2.991568946838378906e+01 -1.843017458915710449e+00 3.711200878024101257e-02 -5.417716503143310547e-01 -1.257002502679824829e-01
1.261000000000000000e+03 4.797341156005859375e+01 2.979138755798339844e+01 -1.931460380554199219e+00 3.301582857966423035e-02 -5.695334076881408691e-01 -1.249941736459732056e-01
1.262000000000000000e+03 4.496991729736328125e+01 3.030746078491210938e+01 -1.565328240394592285e+00 4.930052533745765686e-02 -4.548083245754241943e-01 -1.228328570723533630e-01
1.263000000000000000e+03 4.646721267700195312e+01 3.004204750061035156e+01 -1.749892473220825195e+00 4.347230866551399231e-02 -5.119260549545288086e-01 -1.248266100883483887e-01
1.264000000000000000e+03 5.652036666870117188e+01 2.810549736022949219e+01 -2.078496456146240234e+00 4.702547937631607056e-02 -6.094412803649902344e-01 -1.311078108847141266e-02
1.265000000000000000e+03 5.275183486938476562e+01 2.980390167236328125e+01 -2.714523077011108398e+00 -2.095420146360993385e-03 -8.149855732917785645e-01 -1.312719658017158508e-02
1.266000000000000000e+03 5.505776214599609375e+01 2.953931236267089844e+01 -2.920932769775390625e+00 -1.357893645763397217e-02 -8.803535103797912598e-01 -6.462032441049814224e-03
1.267000000000000000e+03 5.100233840942382812e+01 2.933659744262695312e+01 -2.259460210800170898e+00 1.763166673481464386e-02 -6.725485920906066895e-01 -1.177086904644966125e-01
1.268000000000000000e+03 4.896995925903320312e+01 3.032432365417480469e+01 -2.222288131713867188e+00 8.239333517849445343e-03 -6.642146706581115723e-01 -8.545611053705215454e-03
1.269000000000000000e+03 5.024290847778320312e+01 2.944875526428222656e+01 -2.186401844024658203e+00 1.773870736360549927e-02 -6.505989432334899902e-01 -1.202661693096160889e-01
1.270000000000000000e+03 4.948556900024414062e+01 2.955955505371093750e+01 -2.105511188507080078e+00 2.426533773541450500e-02 -6.243737339973449707e-01 -1.213291957974433899e-01
1.271000000000000000e+03 5.575314712524414062e+01 2.877645111083984375e+01 -2.491641759872436523e+00 1.421882864087820053e-02 -7.432268857955932617e-01 -4.742528870701789856e-02
1.272000000000000000e+03 5.654406738281250000e+01 2.876346015930175781e+01 -2.512496948242187500e+00 4.252182319760322571e-03 -7.524734139442443848e-01 -1.817386597394943237e-02
1.273000000000000000e+03 3.098888206481933594e+01 3.903374862670898438e+01 -1.106532639823853970e-03 -1.873018569312989712e-03 -8.938653627410531044e-04 -1.419965759851038456e-03
1.274000000000000000e+03 3.006241035461425781e+01 3.789677429199218750e+01 1.484177075326442719e-03 1.271438086405396461e-03 8.266845252364873886e-04 -2.160173840820789337e-03
1.275000000000000000e+03 3.079570198059082031e+01 3.761608886718750000e+01 2.022295724600553513e-03 -7.475935271941125393e-04 3.824106825049966574e-04 -2.476350171491503716e-03
1.276000000000000000e+03 3.283356094360351562e+01 3.832577514648437500e+01 -8.388810092583298683e-04 -6.695472984574735165e-04 -4.525285039562731981e-04 5.762648652307689190e-04
1.277000000000000000e+03 8.064809799194335938e+00 -1.877070784568786621e+00 -1.018770562950521708e-04 -4.759971125167794526e-05 -4.484302917262539268e-05 3.447669587330892682e-05
1.278000000000000000e+03 9.573644638061523438e+00 -2.652176380157470703e+00 1.190234906971454620e-04 5.591359149548225105e-05 5.248112574918195605e-05 -5.139656423125416040e-05
1.279000000000000000e+03 7.294198513031005859e+00 -2.618325710296630859e+00 -1.367794757243245840e-04 -3.356256638653576374e-05 -5.110261190566234291e-05 2.474591565260197967e-05
1.280000000000000000e+03 8.052837371826171875e+00 -2.640036344528198242e+00 1.234836381627246737e-04 5.060975308879278600e-05 5.222801701165735722e-05 -2.988028245454188436e-05
1.281000000000000000e+03 8.814572334289550781e+00 -2.649086713790893555e+00 -1.161009349743835628e-04 -6.041975939297117293e-05 -5.295620940160006285e-05 4.346331479609943926e-05
1.282000000000000000e+03 6.542510032653808594e+00 -1.857388615608215332e+00 -7.791254029143601656e-05 -4.065332541358657181e-05 -3.556975934770889580e-05 3.253008981118910015e-05
1.283000000000000000e+03 6.551409244537353516e+00 -2.577364921569824219e+00 1.332459360128268600e-04 2.220831993327010423e-05 4.663627623813226819e-05 -4.910947609459981322e-05
1.284000000000000000e+03 5.132338047027587891e+00 -2.562332391738891602e+00 -5.567958578467369080e-05 5.053755739936605096e-05 -1.542607947158103343e-06 -4.335649282438680530e-05
1.285000000000000000e+03 1.601910352706909180e+00 -7.850121498107910156e+00 3.849126514978706837e-04 1.948638055182527751e-05 1.213197028846479952e-04 -1.857371171354316175e-05
1.286000000000000000e+03 4.008428573608398438e+00 -3.602927207946777344e+00 1.057683221006300300e-05 9.174616934615187347e-06 5.925434834352927282e-06 -1.511327864136546850e-04
1.287000000000000000e+03 4.634853601455688477e-01 -3.620362520217895508e+00 3.501511237118393183e-04 -1.306695867242524400e-05 1.011252461466938257e-04 -1.363506544294068590e-05
1.288000000000000000e+03 4.075833857059478760e-01 -2.205823183059692383e+00 -3.311658801976591349e-04 -3.011275794051471166e-06 -1.002531498670578003e-04 1.409744754710118286e-06
1.289000000000000000e+03 5.026530027389526367e-01 -5.041172981262207031e+00 -3.586373641155660152e-04 -1.743298889778088778e-05 -1.128211006289348006e-04 1.770487688190769404e-05
1.290000000000000000e+03 2.674730682373046875e+01 3.815488052368164062e+01 7.713761879131197929e-04 9.261113009415566921e-04 5.092462524771690369e-04 -1.366876298561692238e-03
1.291000000000000000e+03 2.828008651733398438e+01 3.910190963745117188e+01 -6.680663791485130787e-04 1.427689916454255581e-03 2.278870670124888420e-04 -1.430238597095012665e-03
1.292000000000000000e+03 2.966414833068847656e+01 3.939478683471679688e+01 -1.436321763321757317e-03 5.851465975865721703e-04 -2.553525264374911785e-04 -2.034463454037904739e-03
1.293000000000000000e+03 2.462038993835449219e+01 4.117856979370117188e+01 -9.565533837303519249e-04 9.215845493599772453e-04 -1.049065122060710564e-05 -2.461832773406058550e-04
1.294000000000000000e+03 2.515074729919433594e+01 3.865946197509765625e+01 4.111222515348345041e-04 5.543993320316076279e-04 2.896564838010817766e-04 -9.367056773044168949e-04
1.295000000000000000e+03 2.399158287048339844e+01 3.995747756958007812e+01 -1.527327185613103211e-05 6.049012299627065659e-04 1.768883957993239164e-04 -5.429352167993783951e-04
1.296000000000000000e+03 2.732544136047363281e+01 3.872620010375976562e+01 4.650261544156819582e-04 8.568884804844856262e-04 3.965743817389011383e-04 -1.423789886757731438e-03
1.297000000000000000e+03 2.522443389892578125e+01 4.004758071899414062e+01 -7.562481332570314407e-04 8.852158207446336746e-04 3.869029751513153315e-05 -8.169429493136703968e-04
1.298000000000000000e+03 2.292689704895019531e+01 3.439503860473632812e+01 -5.792096722871065140e-03 -5.663463845849037170e-03 -3.436668077483773232e-03 1.328532816842198372e-03
1.299000000000000000e+03 2.294941711425781250e+01 3.335358047485351562e+01 -1.347726024687290192e-02 -1.267061196267604828e-02 -7.844361476600170135e-03 -7.170716300606727600e-03
1.300000000000000000e+03 2.620325088500976562e+01 3.360470962524414062e+01 -6.136480346322059631e-02 -1.171282865107059479e-02 -2.192328870296478271e-02 -3.704883530735969543e-02
1.301000000000000000e+03 2.624855613708496094e+01 3.282630157470703125e+01 -7.831621170043945312e-02 -2.007544599473476410e-02 -2.951749786734580994e-02 -5.546142160892486572e-02
1.302000000000000000e+03 2.097691535949707031e+01 3.232374572753906250e+01 -1.640507136471569538e-03 1.028217654675245285e-02 2.592500764876604080e-03 -2.085554180666804314e-03
1.303000000000000000e+03 1.987076759338378906e+01 3.876546096801757812e+01 5.203632463235408068e-05 9.842943109106272459e-05 4.513972817221656442e-05 -1.124304762925021350e-04
1.304000000000000000e+03 2.249463462829589844e+01 -4.105134582519531250e+01 3.557663559913635254e-01 -1.957144618034362793e+00 -4.804134666919708252e-01 1.057096421718597412e-01
1.305000000000000000e+03 1.305933475494384766e+01 -3.722944259643554688e+01 1.013268306851387024e-01 -3.030365705490112305e-02 2.130695059895515442e-02 -3.522636741399765015e-02
1.306000000000000000e+03 1.223093414306640625e+01 2.551027870178222656e+01 9.866991604212671518e-06 7.603273957101919223e-07 3.188195705661200918e-06 1.176137516267772298e-06
1.307000000000000000e+03 1.310405349731445312e+01 3.196601867675781250e+01 6.156079507491085678e-06 1.704117153167317156e-06 2.358058964091469534e-06 7.778532562952023000e-06
1.308000000000000000e+03 1.362873458862304688e+01 3.084148406982421875e+01 -1.540280209155753255e-05 -5.467153641802724451e-06 -6.260986992856487632e-06 -7.616913535457570106e-06
1.309000000000000000e+03 1.364290618896484375e+01 2.690621948242187500e+01 1.186361805594060570e-05 7.164120461311540566e-07 3.774009201151784509e-06 2.112879883497953415e-06
1.310000000000000000e+03 1.672868537902832031e+01 3.526050949096679688e+01 -1.785056701919529587e-05 -1.056428754964144900e-05 -8.524456461600493640e-06 -5.336828508006874472e-07
1.311000000000000000e+03 1.704922866821289062e+01 3.771383285522460938e+01 -1.053865053108893335e-04 -3.788299363804981112e-05 -4.298084968468174338e-05 1.492292722105048597e-05
1.312000000000000000e+03 1.495595359802246094e+01 3.434547424316406250e+01 -2.120383942383341491e-05 1.050295668392209336e-05 -3.210264821973396465e-06 7.006805390119552612e-06
1.313000000000000000e+03 1.444982147216796875e+01 1.874808502197265625e+01 -7.343770448642317206e-06 6.131744356707713450e-08 -2.184735876653576270e-06 -2.000372063548638835e-07
1.314000000000000000e+03 1.312089061737060547e+01 1.875380897521972656e+01 7.296173407667083666e-06 -1.018925743778709148e-07 2.158284360120887868e-06 2.553455544784810627e-07
1.315000000000000000e+03 1.471282291412353516e+01 2.426312828063964844e+01 -1.068952678906498477e-05 4.049403035111254212e-09 -3.205643224646337330e-06 -7.584332024634932168e-07
1.316000000000000000e+03 1.371936702728271484e+01 2.823223686218261719e+01 -1.285736834688577801e-05 -1.254738776879094075e-06 -4.233631898387102410e-06 -3.011647777384496294e-06
1.317000000000000000e+03 1.217619323730468750e+01 3.029465103149414062e+01 1.262888326891697943e-05 5.009069354855455458e-06 5.291385605232790112e-06 5.669981419487157837e-06
1.318000000000000000e+03 1.305251407623291016e+01 1.736422538757324219e+01 -6.838211902504554018e-06 2.715681546305859229e-07 -1.969993036254891194e-06 -2.609483829019154655e-07
1.319000000000000000e+03 1.339825534820556641e+01 1.173011302947998047e+01 -4.679051471612183377e-06 -1.544689069987725816e-07 -1.450056174689962063e-06 -8.070356898315367289e-07
1.320000000000000000e+03 1.303872680664062500e+01 1.445759105682373047e+01 -5.946148121438454837e-06 -1.233929367572272895e-07 -1.820862280510482378e-06 -6.986952598708739970e-07
1.321000000000000000e+03 1.461816406250000000e+01 5.021427154541015625e+00 -2.741079015322611667e-06 -1.474531075018603588e-07 -8.665596169521450065e-07 4.684092971274367301e-07
1.322000000000000000e+03 1.184219169616699219e+01 2.418925285339355469e+00 -1.125307221627735998e-06 -9.074163642708299449e-08 -3.648146389423345681e-07 6.472029667747847270e-07
1.323000000000000000e+03 1.048269271850585938e+01 4.085331439971923828e+00 -3.145407617921591736e-06 3.942746218399406644e-07 -8.253398959823243786e-07 -5.064737820248410571e-07
1.324000000000000000e+03 1.356652832031250000e+01 7.792491912841796875e+00 3.321549911561305635e-06 2.950841917481739074e-07 1.084990230992843863e-06 1.194817258465263876e-07
1.325000000000000000e+03 1.326587295532226562e+01 1.307031059265136719e+01 5.369690370571333915e-06 -1.222008734202972846e-07 1.574246766722353641e-06 8.974388379101583268e-07
1.326000000000000000e+03 7.929779815673828125e+01 -2.783894538879394531e+01 -1.528296153992414474e-03 7.797829151153564453e+00 2.338890314102172852e+00 -2.042877487838268280e-03
1.327000000000000000e+03 7.729196929931640625e+01 -3.787756347656250000e+01 -2.524179778993129730e-02 7.417815685272216797e+00 2.217772245407104492e+00 4.867084324359893799e-02
1.328000000000000000e+03 7.934762573242187500e+01 -3.476459884643554688e+01 -1.263829972594976425e-02 7.745783329010009766e+00 2.319943428039550781e+00 1.081945747137069702e-02
1.329000000000000000e+03 7.813881683349609375e+01 3.213056945800781250e+01 2.462141960859298706e-01 5.998675823211669922e+00 1.873466968536376953e+00 2.492441684007644653e-01
1.330000000000000000e+03 7.931308746337890625e+01 3.637753295898437500e+01 2.044869959354400635e-02 6.241632461547851562e+00 1.878624320030212402e+00 2.886914610862731934e-01
1.331000000000000000e+03 7.935076141357421875e+01 -2.086878585815429688e+01 5.790019058622419834e-04 7.871960639953613281e+00 2.361761808395385742e+00 8.423319668509066105e-04
1.332000000000000000e+03 7.788480377197265625e+01 -2.776412391662597656e+01 1.541628036648035049e-03 7.548692703247070312e+00 2.265070438385009766e+00 6.570539437234401703e-03
1.333000000000000000e+03 7.794512939453125000e+01 -2.635771369934082031e+01 2.634454751387238503e-03 7.570279121398925781e+00 2.271873950958251953e+00 8.551526814699172974e-03
1.334000000000000000e+03 7.927395629882812500e+01 -3.063524246215820312e+01 2.717454626690596342e-04 7.782620429992675781e+00 2.334867715835571289e+00 -1.552682020701467991e-03
1.335000000000000000e+03 7.802134704589843750e+01 -3.468850326538085938e+01 -5.019275937229394913e-03 7.542999267578125000e+00 2.261394023895263672e+00 1.618305034935474396e-02
1.336000000000000000e+03 7.787812805175781250e+01 -3.336222076416015625e+01 -1.081367675215005875e-02 7.526122093200683594e+00 2.254592657089233398e+00 1.885364390909671783e-02
1.337000000000000000e+03 7.492797851562500000e+01 -3.743235778808593750e+01 -1.678819768130779266e-02 7.058285236358642578e+00 2.112449169158935547e+00 -4.349976405501365662e-02
1.338000000000000000e+03 7.633893585205078125e+01 -3.898034667968750000e+01 -9.439894929528236389e-03 7.366053104400634766e+00 2.206983804702758789e+00 1.170291844755411148e-02
1.339000000000000000e+03 7.830117034912109375e+01 1.405324077606201172e+01 -4.050001502037048340e-02 8.865936279296875000e+00 2.647630929946899414e+00 -6.621994078159332275e-02
1.340000000000000000e+03 7.943506622314453125e+01 1.536159133911132812e+01 -1.363766845315694809e-02 9.101941108703613281e+00 2.726490974426269531e+00 -6.609160453081130981e-02
1.341000000000000000e+03 7.833598327636718750e+01 2.094713401794433594e+01 -6.716474145650863647e-02 8.150285720825195312e+00 2.424936294555664062e+00 -4.972991943359375000e-01
1.342000000000000000e+03 7.945146179199218750e+01 2.230801963806152344e+01 -3.016351955011487007e-03 7.645318984985351562e+00 2.292690753936767578e+00 -2.382426708936691284e-01
1.343000000000000000e+03 7.828819274902343750e+01 3.067281913757324219e+01 1.982937157154083252e-01 5.803680896759033203e+00 1.800592422485351562e+00 -7.034327834844589233e-02
1.344000000000000000e+03 7.839125823974609375e+01 2.786512947082519531e+01 1.038683801889419556e-01 6.130520820617675781e+00 1.870316743850708008e+00 -5.378852486610412598e-01
1.345000000000000000e+03 7.946010589599609375e+01 2.787297821044921875e+01 4.252920299768447876e-02 5.247566699981689453e+00 1.587028861045837402e+00 -2.034229338169097900e-01
1.346000000000000000e+03 7.839059448242187500e+01 2.508781623840332031e+01 -7.145930081605911255e-03 6.967872142791748047e+00 2.088217735290527344e+00 -7.060301303863525391e-01
1.347000000000000000e+03 7.836946105957031250e+01 2.370342254638671875e+01 -3.254271671175956726e-02 7.414164543151855469e+00 2.214486598968505859e+00 -6.693196296691894531e-01
1.348000000000000000e+03 7.831232452392578125e+01 1.542699813842773438e+01 -4.325958713889122009e-02 8.830085754394531250e+00 2.636047840118408203e+00 -1.242585480213165283e-01
1.349000000000000000e+03 7.831935119628906250e+01 1.680259513854980469e+01 -6.147009879350662231e-02 8.749659538269042969e+00 2.606456756591796875e+00 -1.994457542896270752e-01
1.350000000000000000e+03 7.713301849365234375e+01 1.141196250915527344e+01 -5.016754567623138428e-02 8.564677238464355469e+00 2.554352760314941406e+00 4.451821744441986084e-02
1.351000000000000000e+03 7.821521759033203125e+01 8.513089179992675781e+00 -1.364287734031677246e-02 8.730011940002441406e+00 2.614910840988159180e+00 5.916710570454597473e-02
1.352000000000000000e+03 7.941560363769531250e+01 9.802333831787109375e+00 -6.113486364483833313e-03 9.099229812622070312e+00 2.727934837341308594e+00 -3.223292762413620949e-03
1.353000000000000000e+03 7.935116577148437500e+01 -1.947623252868652344e+01 5.210242816247045994e-04 7.894141197204589844e+00 2.368398666381835938e+00 1.971167745068669319e-03
1.354000000000000000e+03 7.935404205322265625e+01 -1.390052890777587891e+01 7.267463370226323605e-04 8.010496139526367188e+00 2.403367042541503906e+00 4.091478884220123291e-03
1.355000000000000000e+03 7.936042785644531250e+01 -6.935065269470214844e+00 8.397019701078534126e-04 8.227381706237792969e+00 2.468466281890869141e+00 9.218976832926273346e-03
1.356000000000000000e+03 7.809661102294921875e+01 8.982580900192260742e-02 1.579515635967254639e-03 8.280968666076660156e+00 2.484764337539672852e+00 8.214914053678512573e-02
1.357000000000000000e+03 7.936759185791015625e+01 1.427253127098083496e+00 1.089770885300822556e-04 8.632623672485351562e+00 2.589819669723510742e+00 1.564068533480167389e-02
1.358000000000000000e+03 7.835954284667968750e+01 2.926236534118652344e+01 1.893614083528518677e-01 5.871664524078369141e+00 1.818307757377624512e+00 -3.302555084228515625e-01
1.359000000000000000e+03 7.814927673339843750e+01 4.165744781494140625e+01 -3.347980678081512451e-01 7.989820003509521484e+00 2.296506643295288086e+00 9.390881657600402832e-02
1.360000000000000000e+03 7.790242004394531250e+01 3.934781265258789062e+01 -4.332242161035537720e-02 7.622322082519531250e+00 2.273699760437011719e+00 6.822070479393005371e-01
1.361000000000000000e+03 7.800378417968750000e+01 3.668304824829101562e+01 -2.457999810576438904e-02 7.064037799835205078e+00 2.111837387084960938e+00 7.502624392509460449e-01
1.362000000000000000e+03 7.578960418701171875e+01 3.476185989379882812e+01 2.947442233562469482e-01 8.072566032409667969e+00 2.510193109512329102e+00 1.090530753135681152e+00
1.363000000000000000e+03 7.824740600585937500e+01 9.907591819763183594e+00 -1.441034395247697830e-02 8.791934013366699219e+00 2.633256912231445312e+00 4.032347723841667175e-02
1.364000000000000000e+03 7.810179138183593750e+01 2.896510601043701172e+00 -6.800255505368113518e-04 8.425153732299804688e+00 2.527342081069946289e+00 8.476793766021728516e-02
1.365000000000000000e+03 7.682222747802734375e+01 -1.271595835685729980e+00 8.692362345755100250e-03 7.942492008209228516e+00 2.385355472564697266e+00 1.325869560241699219e-01
1.366000000000000000e+03 7.936230468750000000e+01 -2.757417678833007812e+00 3.718161024153232574e-04 8.408269882202148438e+00 2.522592544555664062e+00 1.346762571483850479e-02
1.367000000000000000e+03 7.807575988769531250e+01 -6.874234199523925781e+00 3.195498604327440262e-03 7.984477043151855469e+00 2.396301746368408203e+00 5.644360557198524475e-02
1.368000000000000000e+03 7.807937622070312500e+01 -5.486629486083984375e+00 3.847385756671428680e-03 8.035443305969238281e+00 2.411787033081054688e+00 6.192072108387947083e-02
1.369000000000000000e+03 7.935765838623046875e+01 -9.719465255737304688e+00 5.379832582548260689e-04 8.129368782043457031e+00 2.438971996307373047e+00 7.066101767122745514e-03
1.370000000000000000e+03 7.805535888671875000e+01 -1.244110774993896484e+01 2.513840561732649803e-03 7.814718723297119141e+00 2.345169782638549805e+00 3.903177753090858459e-02
1.371000000000000000e+03 7.935245513916015625e+01 -1.668835639953613281e+01 1.184614840894937515e-03 7.946615219116210938e+00 2.384339809417724609e+00 2.887907670810818672e-03
1.372000000000000000e+03 7.804918670654296875e+01 -1.941602897644042969e+01 1.341193797998130322e-03 7.672292232513427734e+00 2.302090167999267578e+00 2.256037853658199310e-02
1.373000000000000000e+03 2.215521621704101562e+01 1.414738059043884277e+00 1.502640359103679657e-02 -1.902830958366394043e+00 -5.663413405418395996e-01 -1.733959913253784180e-01
1.374000000000000000e+03 2.349637222290039062e+01 1.385614275932312012e+00 -1.393541460856795311e-03 -1.689954996109008789e+00 -5.074045658111572266e-01 -2.266279011964797974e-01
1.375000000000000000e+03 2.018306159973144531e+01 -1.395358467102050781e+01 -6.363800913095474243e-02 -2.778158903121948242e+00 -8.525390625000000000e-01 -1.650017648935317993e-01
1.376000000000000000e+03 1.378127765655517578e+01 -3.875646591186523438e+01 8.533897250890731812e-02 -2.061924524605274200e-02 1.941591873764991760e-02 8.087072521448135376e-02
1.377000000000000000e+03 1.985262489318847656e+01 -1.814865875244140625e+01 2.131264843046665192e-02 -2.435901403427124023e+00 -7.243766188621520996e-01 -1.568512618541717529e-01
1.378000000000000000e+03 1.113532543182373047e+01 -3.221028518676757812e+01 9.826376102864742279e-03 -2.776586217805743217e-03 2.114936942234635353e-03 -7.443617563694715500e-03
1.379000000000000000e+03 2.039690589904785156e+01 -5.536826610565185547e+00 2.558132261037826538e-02 -2.213407754898071289e+00 -6.563479304313659668e-01 -1.092982664704322815e-01
1.380000000000000000e+03 2.210332107543945312e+01 1.287837326526641846e-02 2.109778486192226410e-02 -1.955969452857971191e+00 -5.804615020751953125e-01 -2.060966044664382935e-01
1.381000000000000000e+03 2.168062400817871094e+01 -8.363636970520019531e+00 -1.084215659648180008e-02 -2.212224006652832031e+00 -6.669198274612426758e-01 -1.519838422536849976e-01
1.382000000000000000e+03 2.129948616027832031e+01 -1.954512786865234375e+01 4.522174969315528870e-02 -2.326802253723144531e+00 -6.844741702079772949e-01 -1.426619291305541992e-01
1.383000000000000000e+03 2.178047370910644531e+01 -5.591560363769531250e+00 4.526536539196968079e-02 -2.115396022796630859e+00 -6.210392117500305176e-01 -1.560720205307006836e-01
1.384000000000000000e+03 1.992378425598144531e+01 -3.364540100097656250e+01 -1.061384975910186768e-01 -3.021344900131225586e+00 -9.382449984550476074e-01 -1.313747316598892212e-01
1.385000000000000000e+03 2.146409225463867188e+01 -1.536939620971679688e+01 -3.900551423430442810e-02 -2.351851463317871094e+00 -7.172570824623107910e-01 -1.142112389206886292e-01
1.386000000000000000e+03 2.152603912353515625e+01 -1.396575355529785156e+01 -6.885167211294174194e-02 -2.323632478713989258e+00 -7.177452445030212402e-01 -1.501672416925430298e-01
1.387000000000000000e+03 2.186367988586425781e+01 -4.199819564819335938e+00 2.476383559405803680e-02 -2.073062181472778320e+00 -6.144894957542419434e-01 -1.374308764934539795e-01
1.388000000000000000e+03 2.229838180541992188e+01 7.110359191894531250e+00 -1.273791305720806122e-02 -1.619345664978027344e+00 -4.896250963211059570e-01 -1.802083104848861694e-01
1.389000000000000000e+03 2.438313102722167969e+01 -2.232618713378906250e+01 3.797389194369316101e-02 -1.827009201049804688e+00 -5.367106199264526367e-01 -1.136634498834609985e-01
1.390000000000000000e+03 1.188673305511474609e+01 -2.840655517578125000e+01 2.327609108760952950e-03 2.428899751976132393e-03 1.426952658221125603e-03 -1.458801561966538429e-03
1.391000000000000000e+03 2.220724868774414062e+01 2.829674720764160156e+00 -3.920751437544822693e-02 -1.841567039489746094e+00 -5.642323493957519531e-01 -1.739790886640548706e-01
1.392000000000000000e+03 1.453847026824951172e+01 -2.487664604187011719e+01 -2.997858449816703796e-03 -1.087753917090594769e-03 -1.225683721713721752e-03 1.962826208909973502e-04
1.393000000000000000e+03 1.127737331390380859e+01 -2.617363739013671875e+01 1.352299470454454422e-03 -3.224541724193841219e-04 3.089535748586058617e-04 2.438904630253091455e-04
1.394000000000000000e+03 2.114486312866210938e+01 -2.653923606872558594e+01 6.017821840941905975e-03 -2.418341875076293945e+00 -7.236971855163574219e-01 -7.299729436635971069e-02
1.395000000000000000e+03 2.098017311096191406e+01 2.682649612426757812e+01 -2.432485343888401985e-03 -1.295972615480422974e-01 -3.960892185568809509e-02 -2.558637782931327820e-02
1.396000000000000000e+03 2.106176757812500000e+01 1.134318733215332031e+01 4.802752519026398659e-04 -1.379530429840087891e+00 -4.137150347232818604e-01 -5.474448949098587036e-02
1.397000000000000000e+03 2.095915031433105469e+01 3.099127388000488281e+01 -1.907458761706948280e-03 -1.133617246523499489e-03 -9.123227791860699654e-04 -6.829842459410429001e-03
1.398000000000000000e+03 1.483039093017578125e+01 -2.150990247726440430e+00 -2.771086292341351509e-05 -9.175932063953951001e-05 -3.584105434129014611e-05 6.887010385980829597e-05
1.399000000000000000e+03 2.164632797241210938e+01 -9.758266448974609375e+00 -2.695800177752971649e-02 -2.247545480728149414e+00 -6.823510527610778809e-01 -1.288468241691589355e-01
1.400000000000000000e+03 2.172201919555664062e+01 -6.976421356201171875e+00 2.864081412553787231e-02 -2.153065919876098633e+00 -6.373275518417358398e-01 -1.555926650762557983e-01
1.401000000000000000e+03 2.231111145019531250e+01 9.939902305603027344e+00 -9.640838252380490303e-04 -1.381194949150085449e+00 -4.146477282047271729e-01 -1.657865196466445923e-01
1.402000000000000000e+03 2.356764793395996094e+01 1.701224899291992188e+01 -5.568457301706075668e-03 -7.484141588211059570e-01 -2.261947840452194214e-01 -2.550101578235626221e-01
1.403000000000000000e+03 2.103388595581054688e+01 2.261882972717285156e+01 -1.458814600482583046e-03 -3.893576264381408691e-01 -1.172449290752410889e-01 -4.276987165212631226e-02
1.404000000000000000e+03 2.324440193176269531e+01 2.559011840820312500e+01 -2.556958794593811035e-02 -2.312857657670974731e-01 -7.705660909414291382e-02 -1.455925554037094116e-01
1.405000000000000000e+03 2.105481910705566406e+01 1.980343818664550781e+01 -8.384910179302096367e-04 -6.119816303253173828e-01 -1.838460266590118408e-01 -5.055490881204605103e-02
1.406000000000000000e+03 2.230142974853515625e+01 1.986690711975097656e+01 -5.453094840049743652e-03 -5.859673023223876953e-01 -1.774261295795440674e-01 -1.485839188098907471e-01
1.407000000000000000e+03 2.357225608825683594e+01 1.991523551940917969e+01 -1.330859027802944183e-02 -5.536090135574340820e-01 -1.700752824544906616e-01 -2.370957881212234497e-01
1.408000000000000000e+03 2.231379508972167969e+01 1.701664161682128906e+01 -2.062641549855470657e-03 -8.041836619377136230e-01 -2.418738901615142822e-01 -1.606767475605010986e-01
1.409000000000000000e+03 2.231251335144042969e+01 1.844473075866699219e+01 -3.217650810256600380e-03 -6.926693320274353027e-01 -2.087661027908325195e-01 -1.564087718725204468e-01
1.410000000000000000e+03 2.202737045288085938e+01 2.824934387207031250e+01 -1.081338524818420410e-02 -1.035520508885383606e-01 -3.430962935090065002e-02 -5.663528665900230408e-02
1.411000000000000000e+03 2.334427261352539062e+01 2.420323181152343750e+01 -2.424637600779533386e-02 -3.010038733482360840e-01 -9.757507592439651489e-02 -1.738190352916717529e-01
1.412000000000000000e+03 2.230639076232910156e+01 1.417734622955322266e+01 3.868720668833702803e-04 -1.033918142318725586e+00 -3.100593686103820801e-01 -1.642782986164093018e-01
1.413000000000000000e+03 1.319602108001708984e+01 -1.462429141998291016e+01 -5.166156915947794914e-04 -1.133753103204071522e-04 -1.889973063953220844e-04 1.855381706263870001e-04
1.414000000000000000e+03 1.363271522521972656e+01 -7.927594661712646484e+00 3.029468352906405926e-04 -2.485832192178349942e-05 8.342655200976878405e-05 -5.939284528722055256e-05
1.415000000000000000e+03 1.461923885345458984e+01 -7.927401065826416016e+00 -3.007368650287389755e-04 7.681016541027929634e-06 -8.791675645625218749e-05 2.296111779287457466e-05
1.416000000000000000e+03 1.105276107788085938e+01 -3.460954904556274414e+00 -1.645401644054800272e-04 -3.235262556700035930e-05 -5.906783553655259311e-05 8.748438267502933741e-05
1.417000000000000000e+03 1.348236846923828125e+01 -1.191133022308349609e+01 -4.324773035477846861e-04 -2.590867734397761524e-05 -1.375157880829647183e-04 1.120043307309970260e-04
1.418000000000000000e+03 1.456676006317138672e+01 -1.207664775848388672e+01 4.084632091689854860e-04 -2.784464868454961106e-06 1.217036260641179979e-04 -4.736966002383269370e-05
1.419000000000000000e+03 1.364150714874267578e+01 -5.315654754638671875e+00 2.273821883136406541e-04 -1.093270475394092500e-05 6.493484397651627660e-05 -6.947634392417967319e-05
1.420000000000000000e+03 1.462440490722656250e+01 -5.186433315277099609e+00 -1.693644444458186626e-04 1.111669007514137775e-05 -4.747432831209152937e-05 2.061727718682959676e-05
1.421000000000000000e+03 1.447230815887451172e+01 -1.486219978332519531e+01 4.579055530484765768e-04 -1.863606667029671371e-05 1.317808491876348853e-04 -7.564357656519860029e-05
1.422000000000000000e+03 1.430670738220214844e+01 -1.909623336791992188e+01 -7.332052919082343578e-04 -1.553175534354522824e-04 -2.665568608790636063e-04 1.440950727555900812e-04
1.423000000000000000e+03 1.361177921295166016e+01 -2.628124427795410156e+01 -2.366789150983095169e-03 -7.506526308134198189e-04 -9.352325578220188618e-04 8.908201707527041435e-04
1.424000000000000000e+03 2.200792694091796875e+01 2.960913467407226562e+01 -1.128642074763774872e-02 -6.065226718783378601e-02 -2.158160693943500519e-02 -3.913662582635879517e-02
1.425000000000000000e+03 2.307389640808105469e+01 2.827255821228027344e+01 -2.623457647860050201e-02 -1.213371008634567261e-01 -4.427150264382362366e-02 -9.142184257507324219e-02
1.426000000000000000e+03 1.379549741744995117e+00 -4.008074951171875000e+01 -2.628888469189405441e-03 2.201617322862148285e-02 5.816185381263494492e-03 1.514664967544376850e-03
1.427000000000000000e+03 6.976109743118286133e-01 3.738399505615234375e+01 -1.037154470395762473e-05 -3.181688441600272199e-07 -3.206914016118389554e-06 3.233167035432416014e-06
1.428000000000000000e+03 6.652912497520446777e-01 3.323069381713867188e+01 2.186931169489980675e-06 3.875803997743787477e-07 7.723535304648976307e-07 -3.588452273106668144e-07
1.429000000000000000e+03 2.320710897445678711e+00 3.807685852050781250e+01 -8.478300514980219305e-06 -3.874573394568869844e-06 -3.705862127389991656e-06 4.041793999931542203e-06
1.430000000000000000e+03 6.401493549346923828e-01 2.616450500488281250e+01 -5.630204668705118820e-06 6.506099481384808314e-08 -1.669543166826770175e-06 9.721894400627206778e-09
1.431000000000000000e+03 1.944956302642822266e+00 2.883829116821289062e+01 6.201149972184794024e-06 -1.562511755537343561e-07 1.813469680200796574e-06 1.875762677627790254e-06
1.432000000000000000e+03 7.946993708610534668e-01 -3.596425628662109375e+01 7.782858447171747684e-04 1.142040453851222992e-02 3.659607144072651863e-03 2.376716118305921555e-03
1.433000000000000000e+03 2.168863773345947266e+00 -3.285616302490234375e+01 9.773796191439032555e-04 3.149731317535042763e-03 1.238133292645215988e-03 3.478844650089740753e-03
1.434000000000000000e+03 3.208735942840576172e+00 2.729624366760253906e+01 8.635589438199531287e-06 -5.332269665814237669e-07 2.430708718748064712e-06 2.303432438566233031e-06
1.435000000000000000e+03 3.192401647567749023e+00 2.449677085876464844e+01 8.366701877093873918e-06 -4.726661870790849207e-07 2.368210516578983516e-06 1.226263975695474073e-06
1.436000000000000000e+03 2.018821954727172852e+00 3.308729553222656250e+01 -3.769593149627326056e-06 -2.751340161921689287e-06 -1.956280129888909869e-06 -8.948304497380377143e-08
1.437000000000000000e+03 3.230952501296997070e+00 3.907989501953125000e+01 7.291758265637326986e-06 3.464826704657752998e-06 3.226975422876421362e-06 -6.909758212714223191e-06
1.438000000000000000e+03 2.014034032821655273e+00 -3.008341407775878906e+01 6.078150472603738308e-04 7.693939842283725739e-04 4.131626919843256474e-04 1.176101271994411945e-03
1.439000000000000000e+03 1.956906557083129883e+00 -2.730520248413085938e+01 3.173371660523116589e-04 -1.750072697177529335e-04 4.269896817277185619e-05 1.582763252372387797e-05
1.440000000000000000e+03 2.428805589675903320e+00 -3.691828918457031250e+01 8.312450372613966465e-04 1.156589016318321228e-02 3.719140542671084404e-03 7.465669419616460800e-03
1.441000000000000000e+03 1.917562007904052734e+00 -2.173398590087890625e+01 3.067972138524055481e-04 -2.492191852070391178e-04 1.727340531942900270e-05 -3.416993422433733940e-04
1.442000000000000000e+03 6.206355690956115723e-01 1.911120414733886719e+01 6.649023362115258351e-06 1.145603576446774241e-07 2.029074948950437829e-06 -5.055754286331648473e-07
1.443000000000000000e+03 5.992075204849243164e-01 1.346445465087890625e+01 5.213792519498383626e-06 1.272043448352633277e-07 1.602298993930162396e-06 -4.744474040307977702e-07
1.444000000000000000e+03 5.523133277893066406e-01 7.808857440948486328e+00 3.848799224215326831e-06 1.287558148987955065e-07 1.193266484733612742e-06 -3.383258331268734764e-07
1.445000000000000000e+03 3.675190448760986328e+00 -3.911955261230468750e+01 -2.928365487605333328e-03 1.420662365853786469e-02 3.383477451279759407e-03 1.055872812867164612e-02
1.446000000000000000e+03 4.036375045776367188e+00 -3.536704254150390625e+01 2.807089360430836678e-03 4.039109218865633011e-03 2.053859643638134003e-03 1.033687125891447067e-02
1.447000000000000000e+03 2.281377315521240234e+00 -3.424780654907226562e+01 1.366460695862770081e-03 5.559452809393405914e-03 2.077774144709110260e-03 5.507414229214191437e-03
1.448000000000000000e+03 2.075767040252685547e+00 -3.146767044067382812e+01 1.103462534956634045e-03 1.719026244245469570e-03 8.467466104775667191e-04 2.530667698010802269e-03
1.449000000000000000e+03 3.264232635498046875e+00 -2.706490707397460938e+01 2.761709911283105612e-04 -4.235442247590981424e-05 7.014496804913505912e-05 5.346181569620966911e-04
1.450000000000000000e+03 1.930364966392517090e+00 -2.312199211120605469e+01 -2.884665445890277624e-04 -3.373110957909375429e-04 -1.877332979347556829e-04 -2.029136339842807502e-05
1.451000000000000000e+03 1.944414496421813965e+00 -2.590967559814453125e+01 -1.294367757509462535e-05 -3.970116085838526487e-04 -1.229865883942693472e-04 1.280197466257959604e-04
1.452000000000000000e+03 3.176048517227172852e+00 -2.016898727416992188e+01 3.838055126834660769e-04 -3.446812115726061165e-05 1.048012200044468045e-04 -3.520169702824205160e-04
1.453000000000000000e+03 6.243804693222045898e-01 -1.910486984252929688e+01 -3.775435034185647964e-04 -2.339433267479762435e-04 -1.834460563259199262e-04 -2.229711208201479167e-05
1.454000000000000000e+03 1.875571966171264648e+00 -1.896404647827148438e+01 3.765549045056104660e-04 -1.347687648376449943e-04 7.253583316924050450e-05 -2.208545774919912219e-04
1.455000000000000000e+03 1.838108777999877930e+00 -1.618989181518554688e+01 4.120035446248948574e-04 -5.269250686978921294e-05 1.077933120541274548e-04 -1.032704021781682968e-04
1.456000000000000000e+03 5.864818692207336426e-01 -1.207155799865722656e+01 4.573784826789051294e-04 5.841221081936964765e-06 1.389659155393019319e-04 5.673199211742030457e-06
1.457000000000000000e+03 1.756776571273803711e+00 -1.200041580200195312e+01 -4.080021753907203674e-04 -4.699374403571709991e-05 -1.364987692795693874e-04 5.589608008449431509e-06
1.458000000000000000e+03 5.030259132385253906e+00 -4.215592861175537109e+00 1.153889679699204862e-04 2.371005575696472079e-05 4.172970875515602529e-05 -7.235799421323463321e-05
1.459000000000000000e+03 3.733792304992675781e+00 -2.795452356338500977e+00 9.348822459287475795e-06 -3.411224315641447902e-05 -7.429026027239160612e-06 7.161900430219247937e-05
1.460000000000000000e+03 3.003732681274414062e+00 -2.993291854858398438e+00 -8.732742571737617254e-05 1.385899522574618459e-04 1.537875868962146342e-05 -4.179612369625829160e-05
1.461000000000000000e+03 1.399058580398559570e+00 -3.586076498031616211e+00 -2.750435378402471542e-04 5.367224366636946797e-05 -6.641139043495059013e-05 -1.703723683021962643e-05
1.462000000000000000e+03 4.657649695873260498e-01 5.020763397216796875e+00 4.585132501233601943e-06 3.650864641713269521e-07 1.485065695305820554e-06 5.652377694786991924e-07
1.463000000000000000e+03 2.412989854812622070e+00 4.399007320404052734e+00 -8.286688739644887391e-07 -7.104713972694298718e-07 -4.617420756858336972e-07 -1.698072651379334275e-06
1.464000000000000000e+03 1.748467564582824707e+00 1.054170513153076172e+01 -4.461255230125971138e-06 -1.500163477885507746e-07 -1.383381459163501859e-06 2.669449088443798246e-07
1.465000000000000000e+03 5.821568369865417480e-01 1.063872337341308594e+01 4.502070623857434839e-06 8.012814589619665639e-08 1.374659632347174920e-06 -3.864990105739707360e-07
1.466000000000000000e+03 1.799839615821838379e+00 1.336829662322998047e+01 -5.062135642219800502e-06 -2.796521130221663043e-07 -1.602536258360487409e-06 4.065935854669078253e-07
1.467000000000000000e+03 1.894372344017028809e+00 2.039799690246582031e+01 6.909916919539682567e-06 9.646905141380557325e-08 2.101915697494405322e-06 -1.353302447881787884e-08
1.468000000000000000e+03 1.861178159713745117e+00 1.899274635314941406e+01 -6.597240371775114909e-06 -1.648162140099884709e-08 -1.984116579478722997e-06 1.828288276328748907e-07
1.469000000000000000e+03 1.918375253677368164e+00 2.460699272155761719e+01 -7.146086772991111502e-06 1.588889944059701520e-07 -2.096159278153209016e-06 -6.160449288472591434e-07
1.470000000000000000e+03 6.703919982910156250e+01 3.253016662597656250e+01 3.323781788349151611e-01 1.789546585083007812e+01 5.468353271484375000e+00 -4.117475986480712891e+00
1.471000000000000000e+03 6.472767639160156250e+01 3.279497909545898438e+01 1.589255213737487793e+00 2.595485925674438477e+00 1.255422353744506836e+00 -2.963613271713256836e+00
1.472000000000000000e+03 6.480609130859375000e+01 3.254233169555664062e+01 1.609736084938049316e+00 2.369453191757202148e+00 1.193756818771362305e+00 -2.889254093170166016e+00
1.473000000000000000e+03 6.545455932617187500e+01 3.253102493286132812e+01 2.493314266204833984e+00 4.649709701538085938e+00 2.142907142639160156e+00 -4.641025543212890625e+00
1.474000000000000000e+03 6.563046264648437500e+01 3.247886657714843750e+01 2.596530675888061523e+00 5.449504375457763672e+00 2.413810491561889648e+00 -5.090538501739501953e+00
1.475000000000000000e+03 6.573574829101562500e+01 2.918265533447265625e+01 2.128226280212402344e+00 6.353292465209960938e+00 2.544455528259277344e+00 5.926373481750488281e+00
1.476000000000000000e+03 6.532501983642578125e+01 2.919732093811035156e+01 1.747114896774291992e+00 3.941375970840454102e+00 1.706547260284423828e+00 4.605053901672363281e+00
1.477000000000000000e+03 6.655641937255859375e+01 2.918027877807617188e+01 7.650384902954101562e-01 1.388503265380859375e+01 4.395021438598632812e+00 6.445279598236083984e+00
1.478000000000000000e+03 6.676921081542968750e+01 2.916368293762207031e+01 2.971430122852325439e-01 1.583400058746337891e+01 4.839343070983886719e+00 5.694505214691162109e+00
1.479000000000000000e+03 6.742308807373046875e+01 2.927843856811523438e+01 3.813640177249908447e-01 2.008691978454589844e+01 6.140485286712646484e+00 1.814854025840759277e+00
1.480000000000000000e+03 6.800020599365234375e+01 3.248862838745117188e+01 1.907315135002136230e+00 1.871580696105957031e+01 6.186936378479003906e+00 9.783391952514648438e-01
1.481000000000000000e+03 6.731306457519531250e+01 2.858874702453613281e+01 -5.459669828414916992e-01 1.625149536132812500e+01 4.711658477783203125e+00 2.929828166961669922e+00
1.482000000000000000e+03 6.858798980712890625e+01 3.098690605163574219e+01 9.357207298278808594e+00 1.586367225646972656e+01 7.566264152526855469e+00 5.863045454025268555e-01
1.483000000000000000e+03 6.835456848144531250e+01 3.010502433776855469e+01 7.219926357269287109e+00 1.772426795959472656e+01 7.483258247375488281e+00 -2.552093505859375000e+00
1.484000000000000000e+03 6.849657440185546875e+01 2.979742622375488281e+01 5.376368522644042969e+00 1.732524681091308594e+01 6.810484409332275391e+00 -2.394185066223144531e+00
1.485000000000000000e+03 6.851117706298828125e+01 2.959296607971191406e+01 4.387289524078369141e+00 1.728478813171386719e+01 6.501623153686523438e+00 -2.195093631744384766e+00
1.486000000000000000e+03 6.816441345214843750e+01 3.233300781250000000e+01 2.814367055892944336e+00 1.877929496765136719e+01 6.478098869323730469e+00 1.729600191116333008e+00
1.487000000000000000e+03 6.724494934082031250e+01 3.248172378540039062e+01 3.432825505733489990e-01 1.940054321289062500e+01 5.923147678375244141e+00 -2.780483245849609375e+00
1.488000000000000000e+03 6.453575897216796875e+01 2.920479965209960938e+01 5.751052498817443848e-01 1.707859992980957031e+00 6.848895549774169922e-01 2.710011720657348633e+00
1.489000000000000000e+03 6.404534149169921875e+01 2.874497795104980469e+01 3.200137615203857422e-01 1.624248623847961426e+00 5.832787156105041504e-01 2.567980766296386719e+00
1.490000000000000000e+03 6.320594406127929688e+01 3.383809661865234375e+01 7.693136334419250488e-01 1.728149533271789551e+00 7.492389678955078125e-01 -1.525421500205993652e+00
1.491000000000000000e+03 6.332511138916015625e+01 2.878510284423828125e+01 -5.121670365333557129e-01 8.873784542083740234e-01 1.125634312629699707e-01 1.666212797164916992e+00
1.492000000000000000e+03 1.244745731353759766e+01 -2.646157026290893555e+00 6.485764606622979045e-05 5.481028711074031889e-05 3.590037886169739068e-05 2.838842374330852181e-05
1.493000000000000000e+03 6.286230850219726562e+01 3.377416992187500000e+01 6.431663036346435547e-01 1.257776141166687012e+00 5.702826976776123047e-01 -1.293137788772583008e+00
1.494000000000000000e+03 6.245285034179687500e+01 3.388101196289062500e+01 4.265421032905578613e-01 1.055894374847412109e+00 4.447309374809265137e-01 -9.829068779945373535e-01
1.495000000000000000e+03 6.374473571777343750e+01 3.349843597412109375e+01 9.725576043128967285e-01 1.941442966461181641e+00 8.742001652717590332e-01 -1.980324745178222656e+00
1.496000000000000000e+03 6.098902511596679688e+01 2.811381530761718750e+01 -1.259259223937988281e+00 3.758316934108734131e-01 -2.650282382965087891e-01 7.561657428741455078e-01
1.497000000000000000e+03 6.327341842651367188e+01 2.836697959899902344e+01 -1.197265237569808960e-01 1.216320395469665527e+00 3.289781808853149414e-01 1.993394613265991211e+00
1.498000000000000000e+03 6.394668960571289062e+01 2.834866142272949219e+01 4.757094979286193848e-01 1.998538136482238770e+00 7.422742843627929688e-01 2.800837993621826172e+00
1.499000000000000000e+03 5.991267776489257812e+01 3.387250518798828125e+01 -4.461010694503784180e-01 2.505335509777069092e-01 -5.867025628685951233e-02 2.402994967997074127e-02
1.500000000000000000e+03 2.760120773315429688e+01 3.360347747802734375e+01 -9.444408863782882690e-02 -4.612875636667013168e-03 -2.971708960831165314e-02 -4.898970201611518860e-02
1.501000000000000000e+03 3.007168960571289062e+01 3.242790222167968750e+01 -2.188776731491088867e-01 5.918097216635942459e-03 -6.388787180185317993e-02 -1.105038002133369446e-01
1.502000000000000000e+03 2.054426956176757812e+01 3.991305160522460938e+01 -1.893439621198922396e-04 2.451526816003024578e-04 1.674261147854849696e-05 -1.518459321232512593e-04
1.503000000000000000e+03 2.124070739746093750e+01 3.917166900634765625e+01 3.431087679928168654e-05 2.212237304775044322e-04 7.666038436582311988e-05 -2.559860295150429010e-04
1.504000000000000000e+03 1.386342144012451172e+01 2.696259975433349609e+00 -2.069192987619317137e-06 7.546015012849238701e-07 -3.943774515846598661e-07 -2.912340733018936589e-07
1.505000000000000000e+03 3.800656080245971680e+00 2.755938291549682617e+00 2.031433041338459589e-06 6.006353032717015594e-07 7.896204579083132558e-07 -2.678927160104649374e-07
1.506000000000000000e+03 6.016384601593017578e+00 2.654390573501586914e+00 -1.009774564408871811e-06 -9.134877814176434185e-07 -5.769787208009802271e-07 3.038794034182501491e-07
1.507000000000000000e+03 5.996325492858886719e+00 3.437903404235839844e+00 1.101901261790771969e-06 1.072831764759030193e-06 6.524198852275731042e-07 -2.363487965340027586e-07
1.508000000000000000e+03 6.725928783416748047e+00 3.404600381851196289e+00 -1.172997599496738985e-06 -9.633849913370795548e-07 -6.409147772501455620e-07 -5.820561810310209694e-08
1.509000000000000000e+03 8.919400215148925781e+00 3.358694314956665039e+00 1.798173570932704024e-06 3.338321903356700204e-07 6.396017511178797577e-07 6.042592985977535136e-07
1.510000000000000000e+03 6.744613170623779297e+00 2.635534048080444336e+00 9.777708100955351256e-07 8.605884431744925678e-07 5.515078100870596245e-07 -9.593669858531939099e-08
1.511000000000000000e+03 7.448917865753173828e+00 3.380491018295288086e+00 1.238865365849051159e-06 8.101840762719803024e-07 6.147148496893350966e-07 2.467594413246843033e-07
1.512000000000000000e+03 4.494739055633544922e+00 3.573557853698730469e+00 1.814682832446123939e-06 7.950252438604366034e-07 7.829124228919681627e-07 -7.723017461103154346e-07
1.513000000000000000e+03 4.536990642547607422e+00 2.728971719741821289e+00 -1.496265440437127836e-06 -7.392619068014028016e-07 -6.706582098559010774e-07 6.145875772745057475e-07
1.514000000000000000e+03 1.824018597602844238e+00 2.606599569320678711e+00 -1.577872581037809141e-06 -9.258506565856805537e-07 -7.511169997087563388e-07 -8.181450539268553257e-07
1.515000000000000000e+03 1.113620567321777344e+01 2.511888980865478516e+00 1.604006797606416512e-06 -1.502060200664345757e-07 4.361402545782766538e-07 -5.161599005987227429e-07
1.516000000000000000e+03 1.120317745208740234e+01 3.236634731292724609e+00 -2.374084033363033086e-06 6.106507157710439060e-07 -5.290299895932548679e-07 5.387918804444780108e-07
1.517000000000000000e+03 2.694994544982910156e+01 3.289634323120117188e+01 -9.450548887252807617e-02 -1.499943714588880539e-02 -3.285147622227668762e-02 -6.176525354385375977e-02
1.518000000000000000e+03 2.466297149658203125e+01 3.354168701171875000e+01 -3.467573598027229309e-02 -1.747375540435314178e-02 -1.564484648406505585e-02 -2.360008843243122101e-02
1.519000000000000000e+03 2.469412422180175781e+01 3.262685394287109375e+01 -4.908344894647598267e-02 -2.693256922066211700e-02 -2.280480600893497467e-02 -4.035927727818489075e-02
1.520000000000000000e+03 5.628245162963867188e+01 3.540782165527343750e+01 -8.582507818937301636e-02 7.753650844097137451e-02 -2.486569341272115707e-03 4.375208616256713867e-01
1.521000000000000000e+03 5.432612991333007812e+01 3.655356979370117188e+01 1.249390468001365662e-01 -1.663796454668045044e-01 -1.243217848241329193e-02 4.099999368190765381e-01
1.522000000000000000e+03 4.973768234252929688e+01 3.519292449951171875e+01 -2.402853071689605713e-01 -1.350198239088058472e-01 -1.125915423035621643e-01 3.155690729618072510e-01
1.523000000000000000e+03 3.078660964965820312e+01 3.227667617797851562e+01 -2.538967728614807129e-01 1.177840679883956909e-02 -7.263550907373428345e-02 -1.199828237295150757e-01
1.524000000000000000e+03 5.708440017700195312e+01 3.543027114868164062e+01 -7.944727689027786255e-02 1.264257878065109253e-01 1.409355457872152328e-02 3.470389842987060547e-01
1.525000000000000000e+03 5.772152709960937500e+01 3.416856765747070312e+01 -5.701068639755249023e-01 7.843944430351257324e-02 -1.475002318620681763e-01 3.847465813159942627e-01
1.526000000000000000e+03 2.202812004089355469e+01 3.220028305053710938e+01 -8.972547948360443115e-03 -1.570548675954341888e-02 -7.403410505503416061e-03 -1.061567477881908417e-02
1.527000000000000000e+03 2.444316864013671875e+01 3.177365875244140625e+01 -4.667947813868522644e-02 -4.114576801657676697e-02 -2.634757570922374725e-02 -5.263675376772880554e-02
1.528000000000000000e+03 5.180389785766601562e+01 3.481948089599609375e+01 -3.500207066535949707e-01 -1.468293517827987671e-01 -1.490550190210342407e-01 3.736549317836761475e-01
1.529000000000000000e+03 4.170148849487304688e+01 3.857519531250000000e+01 7.957579568028450012e-03 -8.691232651472091675e-02 -2.368642389774322510e-02 8.503624051809310913e-02
1.530000000000000000e+03 2.820405578613281250e+01 3.297637176513671875e+01 -1.280212104320526123e-01 -6.377264857292175293e-03 -4.031954333186149597e-02 -7.220500707626342773e-02
1.531000000000000000e+03 2.936014366149902344e+01 3.259649658203125000e+01 -1.835337877273559570e-01 3.775497607421129942e-04 -5.494686961174011230e-02 -9.812045842409133911e-02
1.532000000000000000e+03 5.859980392456054688e+01 3.490933227539062500e+01 -1.484702527523040771e-01 3.743597865104675293e-01 6.776686012744903564e-02 2.300282418727874756e-01
1.533000000000000000e+03 5.194658279418945312e+01 3.566571426391601562e+01 -1.934575289487838745e-01 -1.874139308929443359e-01 -1.142614334821701050e-01 3.984763622283935547e-01
1.534000000000000000e+03 5.031894683837890625e+01 3.567885208129882812e+01 -1.715442687273025513e-01 -1.482111811637878418e-01 -9.592663496732711792e-02 3.388246595859527588e-01
1.535000000000000000e+03 5.399468612670898438e+01 3.455196380615234375e+01 -4.472740888595581055e-01 -1.364354938268661499e-01 -1.751128733158111572e-01 4.728161096572875977e-01
1.536000000000000000e+03 5.326079940795898438e+01 3.557444381713867188e+01 -1.754857897758483887e-01 -1.759204119443893433e-01 -1.054218560457229614e-01 4.310788810253143311e-01
1.537000000000000000e+03 5.924910354614257812e+01 3.479938125610351562e+01 -6.590661406517028809e-02 4.271028935909271240e-01 1.083588823676109314e-01 -2.906850725412368774e-02
1.538000000000000000e+03 6.060819244384765625e+01 3.379222488403320312e+01 -3.414402306079864502e-01 2.797988355159759521e-01 -1.849242299795150757e-02 -9.223579615354537964e-02
1.539000000000000000e+03 5.997905349731445312e+01 3.486879348754882812e+01 1.311499774456024170e-01 5.515647530555725098e-01 2.048144191503524780e-01 -2.086924463510513306e-01
1.540000000000000000e+03 6.145802688598632812e+01 3.450261306762695312e+01 3.853332400321960449e-01 8.066120743751525879e-01 3.575835824012756348e-01 -6.648702025413513184e-01
1.541000000000000000e+03 6.077392578125000000e+01 3.482440567016601562e+01 3.009799122810363770e-01 7.358465194702148438e-01 3.110479414463043213e-01 -4.975467324256896973e-01
1.542000000000000000e+03 4.752039718627929688e+01 3.578554916381835938e+01 -1.267248541116714478e-01 -1.279060393571853638e-01 -7.638926804065704346e-02 2.260052859783172607e-01
1.543000000000000000e+03 3.297060012817382812e+01 3.189026451110839844e+01 -3.814583718776702881e-01 2.769743651151657104e-02 -1.061282753944396973e-01 -1.483061164617538452e-01
1.544000000000000000e+03 4.665418624877929688e+01 3.571590805053710938e+01 -1.207198128104209900e-01 -1.106821522116661072e-01 -6.942059099674224854e-02 2.090830653905868530e-01
1.545000000000000000e+03 4.606786727905273438e+01 3.773835372924804688e+01 6.541381776332855225e-02 -1.908605545759201050e-01 -3.763401880860328674e-02 1.735329180955886841e-01
1.546000000000000000e+03 3.370062255859375000e+01 3.175987052917480469e+01 -4.300822019577026367e-01 3.349313139915466309e-02 -1.189767271280288696e-01 -1.559106260538101196e-01
1.547000000000000000e+03 1.256086063385009766e+01 2.794348001480102539e+00 -2.060018999827661901e-07 3.021135341896297177e-08 -5.273716396914096549e-08 8.166579164026188664e-07
1.548000000000000000e+03 9.551609039306640625e+00 -3.449415206909179688e+00 -1.380070898449048400e-04 -7.092989108059555292e-05 -6.268109427765011787e-05 6.320417014649137855e-05
1.549000000000000000e+03 1.362994194030761719e+01 -4.065073966979980469e+00 -2.297616447322070599e-04 4.351134703028947115e-05 -5.587508712778799236e-05 6.901666347403079271e-05
1.550000000000000000e+03 9.521574974060058594e+00 -4.280086994171142578e+00 1.724341855151578784e-04 7.183526031440123916e-05 7.328083302127197385e-05 -8.969596092356368899e-05
1.551000000000000000e+03 4.029327011108398438e+01 3.052827644348144531e+01 -9.945273995399475098e-01 6.650874018669128418e-02 -2.784056067466735840e-01 -1.985562443733215332e-01
1.552000000000000000e+03 1.365695953369140625e+01 -2.974519729614257812e+00 2.365918917348608375e-04 -2.290089832968078554e-05 6.410729838535189629e-05 -5.735577360610477626e-05
1.553000000000000000e+03 3.883415222167968750e+01 3.079180335998535156e+01 -8.519552350044250488e-01 6.227000430226325989e-02 -2.369055598974227905e-01 -1.930274367332458496e-01
1.554000000000000000e+03 3.686292648315429688e+01 3.184491539001464844e+01 -6.687751412391662598e-01 4.361551254987716675e-02 -1.875478774309158325e-01 -1.235606893897056580e-01
1.555000000000000000e+03 3.788851165771484375e+01 3.027204704284667969e+01 -7.553536891937255859e-01 6.431233882904052734e-02 -2.073124051094055176e-01 -2.506950199604034424e-01
1.556000000000000000e+03 3.443557739257812500e+01 3.162339019775390625e+01 -4.822825193405151367e-01 3.791509196162223816e-02 -1.333102285861968994e-01 -1.633562296628952026e-01
1.557000000000000000e+03 3.612513732910156250e+01 3.198763847351074219e+01 -6.034395694732666016e-01 4.148168861865997314e-02 -1.685873568058013916e-01 -1.218010708689689636e-01
1.558000000000000000e+03 3.590504837036132812e+01 3.134141159057617188e+01 -5.948904752731323242e-01 4.685706645250320435e-02 -1.644100248813629150e-01 -1.762552857398986816e-01
1.559000000000000000e+03 4.053158569335937500e+01 3.116094779968261719e+01 -1.040286302566528320e+00 5.484876036643981934e-02 -2.956312596797943115e-01 -1.231503561139106750e-01
1.560000000000000000e+03 4.102302551269531250e+01 3.039128684997558594e+01 -1.067553639411926270e+00 6.796430796384811401e-02 -2.998767793178558350e-01 -2.010041326284408569e-01
1.561000000000000000e+03 3.956338119506835938e+01 3.066121482849121094e+01 -9.216953516006469727e-01 6.550265103578567505e-02 -2.568578124046325684e-01 -1.951154023408889771e-01
1.562000000000000000e+03 4.323237228393554688e+01 2.995203590393066406e+01 -1.296570181846618652e+00 6.632915139198303223e-02 -3.690723180770874023e-01 -2.113301008939743042e-01
1.563000000000000000e+03 4.249419784545898438e+01 3.009918022155761719e+01 -1.219036698341369629e+00 6.775861233472824097e-02 -3.453834354877471924e-01 -2.077484130859375000e-01
1.564000000000000000e+03 4.397116088867187500e+01 2.980657386779785156e+01 -1.373478412628173828e+00 6.686272472143173218e-02 -3.919847011566162109e-01 -2.139218449592590332e-01
1.565000000000000000e+03 4.571762847900390625e+01 3.017196083068847656e+01 -1.659095287322998047e+00 4.607851803302764893e-02 -4.839050471782684326e-01 -1.247875690460205078e-01
1.566000000000000000e+03 1.353203105926513672e+01 4.227146625518798828e+00 -3.254258672313881107e-06 1.143918950674560620e-07 -9.419600246474146843e-07 -4.938365805173816625e-08
1.567000000000000000e+03 4.546503067016601562e+01 2.952162551879882812e+01 -1.528672337532043457e+00 6.328274309635162354e-02 -4.396168887615203857e-01 -2.200684100389480591e-01
1.568000000000000000e+03 5.958798599243164062e+01 2.867393112182617188e+01 -2.230148077011108398e+00 7.888265699148178101e-02 -6.453796029090881348e-01 2.407121211290359497e-01
1.569000000000000000e+03 3.810475540161132812e+01 3.092400932312011719e+01 -7.837412953376770020e-01 5.952025949954986572e-02 -2.172663062810897827e-01 -1.893062889575958252e-01
1.570000000000000000e+03 5.332479858398437500e+01 2.897215652465820312e+01 -2.404552936553955078e+00 1.264157984405755997e-02 -7.175734639167785645e-01 -1.152775213122367859e-01
1.571000000000000000e+03 5.494147491455078125e+01 2.878975296020507812e+01 -2.465405225753784180e+00 2.053831238299608231e-03 -7.390054464340209961e-01 -8.148135244846343994e-02
1.572000000000000000e+03 5.176493072509765625e+01 2.922009849548339844e+01 -2.323822975158691406e+00 1.249991636723279953e-02 -6.933969259262084961e-01 -1.186335235834121704e-01
1.573000000000000000e+03 4.924401855468750000e+01 2.889320182800292969e+01 -1.890112638473510742e+00 3.990676254034042358e-02 -5.550617575645446777e-01 -2.194741070270538330e-01
1.574000000000000000e+03 5.253637313842773438e+01 2.909903907775878906e+01 -2.369677066802978516e+00 1.245534140616655350e-02 -7.071664929389953613e-01 -1.176677793264389038e-01
1.575000000000000000e+03 4.900315475463867188e+01 2.821706199645996094e+01 -1.682955265045166016e+00 5.978287383913993835e-02 -4.869517087936401367e-01 -2.995467483997344971e-01
1.576000000000000000e+03 4.872940063476562500e+01 2.967268753051757812e+01 -2.020760059356689453e+00 2.585645206272602081e-02 -5.984711050987243652e-01 -1.240505203604698181e-01
1.577000000000000000e+03 5.000321197509765625e+01 2.877908515930175781e+01 -1.950143575668334961e+00 3.847175836563110352e-02 -5.735015273094177246e-01 -2.137550264596939087e-01
1.578000000000000000e+03 5.652241134643554688e+01 2.746547889709472656e+01 -1.695529460906982422e+00 9.865909069776535034e-02 -4.790610969066619873e-01 1.865952461957931519e-02
1.579000000000000000e+03 5.485941696166992188e+01 2.801008224487304688e+01 -2.013916015625000000e+00 4.418290406465530396e-02 -5.909199714660644531e-01 -1.179771497845649719e-01
1.580000000000000000e+03 4.471520614624023438e+01 2.966208839416503906e+01 -1.452030062675476074e+00 6.454302370548248291e-02 -4.162461161613464355e-01 -2.178548276424407959e-01
1.581000000000000000e+03 4.175649642944335938e+01 3.024755477905273438e+01 -1.143391251564025879e+00 6.721596419811248779e-02 -3.228525817394256592e-01 -2.045946270227432251e-01
1.582000000000000000e+03 6.503932476043701172e+00 -3.320217132568359375e+00 -2.043877029791474342e-04 -2.983097510877996683e-05 -7.026560342637822032e-05 2.858492553059477359e-05
1.583000000000000000e+03 2.683241128921508789e+00 -7.828132629394531250e+00 -3.273143956903368235e-04 -3.267236752435564995e-05 -1.079960347851738334e-04 4.114399780519306660e-05
1.584000000000000000e+03 7.921350002288818359e+00 -5.035226345062255859e+00 -1.340173039352521300e-04 -1.043360171024687588e-04 -7.150599412852898240e-05 3.610474323068046942e-06
1.585000000000000000e+03 5.843818664550781250e+00 -3.203394412994384766e+00 1.508039858890697360e-04 5.082465213490650058e-05 6.048859358998015523e-05 -1.229494228027760983e-04
1.586000000000000000e+03 5.832915306091308594e+00 -2.538480043411254883e+00 -5.803936073789373040e-05 -3.713530168170109391e-05 -2.855239836208056659e-05 6.949576345505192876e-05
1.587000000000000000e+03 2.786517381668090820e+00 -4.221378803253173828e+00 3.326865844428539276e-04 2.592154196463525295e-04 1.775706041371449828e-04 -1.349741360172629356e-04
1.588000000000000000e+03 4.260089874267578125e+00 -4.419438838958740234e+00 1.462007639929652214e-05 4.431706111063249409e-05 1.768114270817022771e-05 1.169451570603996515e-04
1.589000000000000000e+03 2.251657247543334961e+00 -3.333421945571899414e+00 2.031715484918095171e-05 -1.389575190842151642e-04 -3.559210745152086020e-05 1.063910895027220249e-05
1.590000000000000000e+03 1.521995544433593750e+00 -5.046261310577392578e+00 3.217875782866030931e-04 4.563928450806997716e-05 1.102280584746040404e-04 -8.647753929835744202e-06
1.591000000000000000e+03 8.790390968322753906e+00 -3.440733194351196289e+00 1.335571723757311702e-04 7.136347994673997164e-05 6.147619569674134254e-05 -5.389814759837463498e-05
1.592000000000000000e+03 5.883869171142578125e+01 2.868961906433105469e+01 -2.361812114715576172e+00 5.448635295033454895e-02 -6.921977400779724121e-01 1.482246071100234985e-01
1.593000000000000000e+03 2.671052551269531250e+01 4.030341720581054688e+01 -7.219791295938193798e-04 1.175154116936028004e-03 1.359525049338117242e-04 -1.136439386755228043e-03
1.594000000000000000e+03 2.788688278198242188e+01 3.997746658325195312e+01 -8.186236373148858547e-04 1.192234223708510399e-03 1.120831584557890892e-04 -1.091814832761883736e-03
1.595000000000000000e+03 2.212717819213867188e+01 4.170321655273437500e+01 -1.586573198437690735e-04 5.801988882012665272e-04 1.264624588657170534e-04 -5.318051989888772368e-05
1.596000000000000000e+03 2.381890869140625000e+01 3.345833587646484375e+01 -2.231824025511741638e-02 -1.719453185796737671e-02 -1.185383182018995285e-02 -1.436098292469978333e-02
1.597000000000000000e+03 1.885074043273925781e+01 3.771845245361328125e+01 -1.303387980442494154e-04 -4.581458415486849844e-05 -5.284601502353325486e-05 2.495475655450718477e-06
1.598000000000000000e+03 1.154035472869873047e+01 1.606462669372558594e+01 -4.945781711285235360e-06 -2.049766578693379415e-07 -1.545227519272884820e-06 4.817699164050281979e-07
1.599000000000000000e+03 1.239283466339111328e+01 1.036066150665283203e+01 -3.457183311184053309e-06 -6.990322276578808669e-07 -1.246864599124819506e-06 -6.792971589675289579e-07
1.600000000000000000e+03 1.233403110504150391e+01 2.680311203002929688e+01 -1.071070073521696031e-05 -1.488698558205214795e-06 -3.659819640233763494e-06 -1.934130750669282861e-06
1.601000000000000000e+03 2.297495460510253906e+01 -1.115888595581054688e+01 -3.012564405798912048e-02 -2.043299913406372070e+00 -6.220276355743408203e-01 -1.745695173740386963e-01
1.602000000000000000e+03 2.350810813903808594e+01 -3.491739928722381592e-02 4.224940203130245209e-03 -1.720650911331176758e+00 -5.149278044700622559e-01 -2.271381467580795288e-01
1.603000000000000000e+03 3.837955892086029053e-01 3.771254539489746094e+00 -5.082618827145779505e-06 -8.848308539199933875e-07 -1.790234932741441298e-06 -1.243771862391440663e-06
1.604000000000000000e+03 2.446030616760253906e+01 -7.051633358001708984e+00 2.484168671071529388e-02 -1.726527214050292969e+00 -5.105056762695312500e-01 -2.084213495254516602e-01
1.605000000000000000e+03 2.308501243591308594e+01 -7.020273685455322266e+00 2.490857429802417755e-02 -1.952602386474609375e+00 -5.783081650733947754e-01 -1.915349662303924561e-01
1.606000000000000000e+03 2.284254646301269531e+01 -1.813315773010253906e+01 4.374808445572853088e-02 -2.097140312194824219e+00 -6.160176992416381836e-01 -1.233610063791275024e-01
1.607000000000000000e+03 2.204383659362792969e+01 -1.387971162796020508e+00 -1.682925596833229065e-02 -1.953013777732849121e+00 -5.909529328346252441e-01 -2.103546112775802612e-01
1.608000000000000000e+03 2.346341133117675781e+01 -1.450523853302001953e+00 6.655601784586906433e-03 -1.762429356575012207e+00 -5.267320871353149414e-01 -2.146002203226089478e-01
1.609000000000000000e+03 1.172277736663818359e+01 3.127824974060058594e+01 -1.663066177570726722e-05 3.151433247694512829e-06 -4.043768512929091230e-06 -8.068671377259306610e-06
1.610000000000000000e+03 1.422830486297607422e+01 3.308575820922851562e+01 7.260397524078143761e-06 -3.573329649952938780e-06 1.106120407712296583e-06 -2.702249048525118269e-06
1.611000000000000000e+03 1.185628604888916016e+01 2.146945571899414062e+01 -7.955542969284579158e-06 -4.853915243074879982e-07 -2.532280404921039008e-06 -4.920649416817468591e-07
1.612000000000000000e+03 1.169499301910400391e+01 1.743057060241699219e+01 6.338693765428615734e-06 -5.248596934848137607e-08 1.885862388917303178e-06 8.138345464203666779e-08
1.613000000000000000e+03 2.286710739135742188e+01 -1.674086189270019531e+01 1.310066320002079010e-02 -2.087396621704101562e+00 -6.222888231277465820e-01 -1.069234982132911682e-01
1.614000000000000000e+03 1.177326869964599609e+01 1.402698135375976562e+01 3.686856871354393661e-06 8.383162821701262146e-07 1.357551923319988418e-06 2.027111122515634634e-06
1.615000000000000000e+03 1.323116970062255859e+01 2.148885726928710938e+01 8.424551197094842792e-06 2.326133170527100447e-07 2.597149205030291341e-06 5.845147938998707104e-07
1.616000000000000000e+03 1.358967399597167969e+01 6.519470691680908203e+00 -2.977068334075738676e-06 -2.137846877303672954e-07 -9.572559065418317914e-07 9.754632657177353394e-09
1.617000000000000000e+03 1.052270603179931641e+01 4.895672321319580078e+00 3.434689688219805248e-06 -1.065360564211914607e-07 9.984461257772636600e-07 7.840865805519570131e-07
1.618000000000000000e+03 1.358816528320312500e+01 5.304746150970458984e+00 2.804996029226458631e-06 2.214818550783093087e-08 8.481432587359449826e-07 -6.236454197505736374e-08
1.619000000000000000e+03 8.924936294555664062e+00 4.110367774963378906e+00 -2.110803507093805820e-06 -4.137034750328894006e-07 -7.573520406367606483e-07 -9.695672815723810345e-07
1.620000000000000000e+03 8.206760406494140625e+00 -3.342814636230468750e+01 1.451086252927780151e-02 -8.286026306450366974e-03 1.867450773715972900e-03 3.200841369107365608e-03
1.621000000000000000e+03 1.282821941375732422e+01 -3.134075736999511719e+01 -2.215716987848281860e-03 1.113060978241264820e-03 -3.307967854198068380e-04 5.696637090295553207e-04
1.622000000000000000e+03 1.181575584411621094e+01 2.012267875671386719e+01 7.571663445560261607e-06 3.914208690503073740e-08 2.283241656186874025e-06 3.638679970663361019e-07
1.623000000000000000e+03 7.461869049072265625e+01 -3.378165054321289062e+01 -1.325895544141530991e-02 6.927430152893066406e+00 2.074251413345336914e+00 9.098873473703861237e-03
1.624000000000000000e+03 7.712386322021484375e+01 -3.606468963623046875e+01 -1.134573202580213547e-02 7.379778861999511719e+00 2.210530042648315430e+00 3.022335283458232880e-02
1.625000000000000000e+03 7.539730834960937500e+01 -2.206267738342285156e+01 1.215110346674919128e-02 7.169994354248046875e+00 2.154643774032592773e+00 4.703113436698913574e-02
1.626000000000000000e+03 7.782394409179687500e+01 -2.918226242065429688e+01 -8.771084249019622803e-04 7.532317638397216797e+00 2.259432077407836914e+00 3.843178506940603256e-03
1.627000000000000000e+03 7.328359985351562500e+01 -3.811388397216796875e+01 3.005912876687943935e-04 6.677597999572753906e+00 2.003369569778442383e+00 -7.917501963675022125e-03
1.628000000000000000e+03 7.832743072509765625e+01 1.956405067443847656e+01 -7.894985377788543701e-02 8.417004585266113281e+00 2.501416444778442383e+00 -3.933938145637512207e-01
1.629000000000000000e+03 7.612557220458984375e+01 1.820005989074707031e+01 -2.737174034118652344e-01 8.484327316284179688e+00 2.463182926177978516e+00 -4.202686250209808350e-01
1.630000000000000000e+03 7.527898406982421875e+01 3.851670074462890625e+01 -5.634347796440124512e-01 8.831098556518554688e+00 2.480298995971679688e+00 9.374185204505920410e-01
1.631000000000000000e+03 7.635156250000000000e+01 3.601247787475585938e+01 -4.282959923148155212e-02 7.956251621246337891e+00 2.374026536941528320e+00 1.046895623207092285e+00
1.632000000000000000e+03 7.780162048339843750e+01 3.532170104980468750e+01 8.448948711156845093e-02 6.850244998931884766e+00 2.080420255661010742e+00 7.318370342254638672e-01
1.633000000000000000e+03 7.707007598876953125e+01 3.199365043640136719e+01 4.633814394474029541e-01 6.786489009857177734e+00 2.174961090087890625e+00 2.848847508430480957e-01
1.634000000000000000e+03 7.804214477539062500e+01 -2.219023513793945312e+01 2.240168163552880287e-03 7.630718231201171875e+00 2.289887428283691406e+00 1.726294495165348053e-02
1.635000000000000000e+03 7.669815063476562500e+01 -2.349234962463378906e+01 6.295819301158189774e-03 7.383139133453369141e+00 2.216830492019653320e+00 2.997849322855472565e-02
1.636000000000000000e+03 7.620520019531250000e+01 -3.055860710144042969e+01 -2.735607326030731201e-03 7.238191127777099609e+00 2.170636653900146484e+00 9.686381556093692780e-03
1.637000000000000000e+03 7.633323669433593750e+01 -2.909026908874511719e+01 1.064114389009773731e-03 7.262185096740722656e+00 2.178974866867065430e+00 1.524237636476755142e-02
1.638000000000000000e+03 7.529268646240234375e+01 -2.475244903564453125e+01 9.045348502695560455e-03 7.126251697540283203e+00 2.140588998794555664e+00 4.388414323329925537e-02
1.639000000000000000e+03 7.646443176269531250e+01 -2.765023994445800781e+01 7.499819621443748474e-03 7.299531936645507812e+00 2.192109584808349609e+00 1.808297075331211090e-02
1.640000000000000000e+03 7.664748382568359375e+01 -2.486465454101562500e+01 6.928262766450643539e-03 7.360856533050537109e+00 2.210335493087768555e+00 2.470332197844982147e-02
1.641000000000000000e+03 7.616456604003906250e+01 -3.202754974365234375e+01 -4.797158762812614441e-03 7.235465049743652344e+00 2.169200420379638672e+00 1.334069855511188507e-02
1.642000000000000000e+03 7.666994476318359375e+01 -3.484112548828125000e+01 -2.893587015569210052e-02 7.320136070251464844e+00 2.187360048294067383e+00 3.100655600428581238e-02
1.643000000000000000e+03 7.484273529052734375e+01 -2.892400169372558594e+01 1.122355740517377853e-02 7.002661228179931641e+00 2.104165554046630859e+00 3.008778020739555359e-02
1.644000000000000000e+03 7.727171325683593750e+01 2.369303703308105469e+01 -1.081747561693191528e-01 7.805925369262695312e+00 2.309325218200683594e+00 -9.508217573165893555e-01
1.645000000000000000e+03 7.716644287109375000e+01 1.277646636962890625e+01 -7.201376557350158691e-02 8.605177879333496094e+00 2.559949159622192383e+00 -8.301408961415290833e-03
1.646000000000000000e+03 7.829067230224609375e+01 1.267634773254394531e+01 -2.600681409239768982e-02 8.867596626281738281e+00 2.652477025985717773e+00 -1.930058747529983521e-02
1.647000000000000000e+03 7.497564697265625000e+01 1.301501560211181641e+01 -1.855320781469345093e-01 8.167106628417968750e+00 2.394472360610961914e+00 5.721978098154067993e-02
1.648000000000000000e+03 7.718820953369140625e+01 1.413415145874023438e+01 -8.685950934886932373e-02 8.625679016113281250e+00 2.561645746231079102e+00 -7.296608388423919678e-02
1.649000000000000000e+03 7.840119934082031250e+01 2.647461700439453125e+01 7.407529652118682861e-02 6.516539096832275391e+00 1.977184414863586426e+00 -6.563337445259094238e-01
1.650000000000000000e+03 7.804824829101562500e+01 -2.080638504028320312e+01 1.550376066006720066e-03 7.650249958038330078e+00 2.295540094375610352e+00 2.161590009927749634e-02
1.651000000000000000e+03 7.672692871093750000e+01 -2.212399291992187500e+01 5.312277469784021378e-03 7.405564308166503906e+00 2.223263025283813477e+00 3.525009006261825562e-02
1.652000000000000000e+03 7.504193878173828125e+01 2.843359947204589844e+01 8.719480633735656738e-01 8.233953475952148438e+00 2.731770515441894531e+00 -9.933246374130249023e-01
1.653000000000000000e+03 7.817740631103515625e+01 7.112144470214843750e+00 -6.009333766996860504e-03 8.655987739562988281e+00 2.594993591308593750e+00 7.341143488883972168e-02
1.654000000000000000e+03 7.538702392578125000e+01 -1.511492061614990234e+01 1.091668661683797836e-02 7.269690513610839844e+00 2.184182167053222656e+00 8.401592820882797241e-02
1.655000000000000000e+03 7.545458984375000000e+01 -8.144702911376953125e+00 1.818520203232765198e-02 7.430138587951660156e+00 2.234497070312500000e+00 1.297123134136199951e-01
1.656000000000000000e+03 7.805164337158203125e+01 -1.522904014587402344e+01 2.479795832186937332e-03 7.749516487121582031e+00 2.325598955154418945e+00 3.197520598769187927e-02
1.657000000000000000e+03 7.555226898193359375e+01 -1.259956359863281250e+00 1.711292937397956848e-02 7.667261600494384766e+00 2.305312395095825195e+00 1.828544735908508301e-01
1.658000000000000000e+03 7.807121276855468750e+01 -8.261445045471191406e+00 3.273712936788797379e-03 7.937021255493164062e+00 2.382088422775268555e+00 5.206016451120376587e-02
1.659000000000000000e+03 7.814215087890625000e+01 5.708827972412109375e+00 -4.997252486646175385e-03 8.579145431518554688e+00 2.572244405746459961e+00 7.940977811813354492e-02
1.660000000000000000e+03 7.545038604736328125e+01 4.483661174774169922e+00 -4.238253924995660782e-03 7.882708549499511719e+00 2.363541126251220703e+00 2.122147381305694580e-01
1.661000000000000000e+03 7.722156524658203125e+01 2.095117187500000000e+01 -1.844363659620285034e-01 8.267003059387207031e+00 2.424769878387451172e+00 -6.965119242668151855e-01
1.662000000000000000e+03 7.686096191406250000e+01 5.819952964782714844e+00 -7.399868220090866089e-03 8.274043083190917969e+00 2.479993104934692383e+00 1.444183290004730225e-01
1.663000000000000000e+03 7.809223175048828125e+01 -1.308424711227416992e+00 3.641023067757487297e-03 8.213186264038085938e+00 2.465048313140869141e+00 7.770497351884841919e-02
1.664000000000000000e+03 7.681329345703125000e+01 -2.665094852447509766e+00 1.003546826541423798e-02 7.885356426239013672e+00 2.368617534637451172e+00 1.255086362361907959e-01
1.665000000000000000e+03 7.675688171386718750e+01 -9.590011596679687500e+00 8.486238308250904083e-03 7.646804809570312500e+00 2.296587228775024414e+00 8.557583391666412354e-02
1.666000000000000000e+03 7.672668457031250000e+01 -1.656958770751953125e+01 6.821373943239450455e-03 7.485928058624267578e+00 2.247824907302856445e+00 5.342419445514678955e-02
1.667000000000000000e+03 7.667723846435546875e+01 3.347441864013671875e+01 4.061581492424011230e-01 7.243900775909423828e+00 2.295017719268798828e+00 7.338963150978088379e-01
1.668000000000000000e+03 7.724922180175781250e+01 3.059878730773925781e+01 4.864389300346374512e-01 6.632307052612304688e+00 2.135623693466186523e+00 -1.090400367975234985e-01
1.669000000000000000e+03 7.721691894531250000e+01 1.820396614074707031e+01 -1.656360328197479248e-01 8.524788856506347656e+00 2.507745742797851562e+00 -3.893837332725524902e-01
1.670000000000000000e+03 7.611660003662109375e+01 1.955190086364746094e+01 -3.175216317176818848e-01 8.473147392272949219e+00 2.446687698364257812e+00 -5.890703201293945312e-01
1.671000000000000000e+03 7.708062744140625000e+01 1.003654479980468750e+01 -3.946742042899131775e-02 8.504929542541503906e+00 2.539638757705688477e+00 8.111273497343063354e-02
1.672000000000000000e+03 7.693408966064453125e+01 7.237555980682373047e+00 -1.989194937050342560e-02 8.356486320495605469e+00 2.500978231430053711e+00 1.294774115085601807e-01
1.673000000000000000e+03 7.805269622802734375e+01 -1.383490848541259766e+01 2.020601183176040649e-03 7.780648231506347656e+00 2.334800720214843750e+00 3.639747574925422668e-02
1.674000000000000000e+03 7.672907257080078125e+01 -1.516899394989013672e+01 6.532243918627500534e-03 7.513526916503906250e+00 2.256017684936523438e+00 6.064310669898986816e-02
1.675000000000000000e+03 7.676938629150390625e+01 -8.201528549194335938e+00 9.049185551702976227e-03 7.687971591949462891e+00 2.309106349945068359e+00 9.207561612129211426e-02
1.676000000000000000e+03 7.809685516357421875e+01 1.489724874496459961e+00 5.361686926335096359e-04 8.351922988891601562e+00 2.505737781524658203e+00 8.462144434452056885e-02
1.677000000000000000e+03 7.682415008544921875e+01 1.256505250930786133e-01 8.049533702433109283e-03 8.000503540039062500e+00 2.402565956115722656e+00 1.407822668552398682e-01
1.678000000000000000e+03 7.681613159179687500e+01 4.395538806915283203e+00 -3.245446132495999336e-03 8.198007583618164062e+00 2.458428621292114258e+00 1.470098942518234253e-01
1.679000000000000000e+03 7.551534271240234375e+01 5.960473060607910156e+00 -1.668989844620227814e-02 7.960163116455078125e+00 2.383042097091674805e+00 2.014040350914001465e-01
1.680000000000000000e+03 7.679197692871093750e+01 -5.438050746917724609e+00 9.999959729611873627e-03 7.780193805694580078e+00 2.337058067321777344e+00 1.087101399898529053e-01
1.681000000000000000e+03 7.678097534179687500e+01 -6.819291591644287109e+00 9.877718053758144379e-03 7.732090950012207031e+00 2.322590589523315430e+00 1.007844656705856323e-01
1.682000000000000000e+03 7.680285644531250000e+01 -4.053124904632568359e+00 1.029966678470373154e-02 7.830752372741699219e+00 2.352315664291381836e+00 1.171864271163940430e-01
1.683000000000000000e+03 7.673157501220703125e+01 -1.377328205108642578e+01 6.198960356414318085e-03 7.542179584503173828e+00 2.264513492584228516e+00 6.487945467233657837e-02
1.684000000000000000e+03 7.674601745605468750e+01 -1.098338699340820312e+01 8.195154368877410889e-03 7.608281135559082031e+00 2.284942865371704102e+00 7.773830741643905640e-02
1.685000000000000000e+03 7.543130493164062500e+01 -9.529706954956054688e+00 1.646956056356430054e-02 7.391403198242187500e+00 2.222361803054809570e+00 1.189888417720794678e-01
1.686000000000000000e+03 7.673831939697265625e+01 -2.075433540344238281e+01 4.563701339066028595e-03 7.423924446105957031e+00 2.228546380996704102e+00 3.728836029767990112e-02
1.687000000000000000e+03 7.673078918457031250e+01 -1.797011375427246094e+01 4.953203257173299789e-03 7.465260505676269531e+00 2.241064071655273438e+00 4.863153398036956787e-02
1.688000000000000000e+03 7.538607788085937500e+01 -1.652663993835449219e+01 1.392019726336002350e-02 7.245979785919189453e+00 2.177969932556152344e+00 7.918149977922439575e-02
1.689000000000000000e+03 2.228253364562988281e+01 5.689988136291503906e+00 -4.272655025124549866e-02 -1.713303327560424805e+00 -5.268089771270751953e-01 -1.977453380823135376e-01
1.690000000000000000e+03 2.354292869567871094e+01 9.907724380493164062e+00 -1.401275047101080418e-03 -1.252499461174011230e+00 -3.761702179908752441e-01 -2.583843767642974854e-01
1.691000000000000000e+03 2.268395996093750000e+01 -2.515496253967285156e+01 2.471638284623622894e-02 -2.149812459945678711e+00 -6.375288367271423340e-01 -9.791832417249679565e-02
1.692000000000000000e+03 2.124357032775878906e+01 -2.234235000610351562e+01 1.551111321896314621e-02 -2.324993610382080078e+00 -6.928447484970092773e-01 -7.683423906564712524e-02
1.693000000000000000e+03 2.201376342773437500e+01 3.094458770751953125e+01 -9.701700881123542786e-03 -3.174698352813720703e-02 -1.243460550904273987e-02 -2.315083704888820648e-02
1.694000000000000000e+03 2.548358535766601562e+01 3.269269943237304688e+01 -6.194198876619338989e-02 -2.410135976970195770e-02 -2.581300400197505951e-02 -4.763855785131454468e-02
1.695000000000000000e+03 2.353847312927246094e+01 1.273035621643066406e+01 1.328964135609567165e-03 -1.054946422576904297e+00 -3.160852491855621338e-01 -2.589812576770782471e-01
1.696000000000000000e+03 1.272777843475341797e+01 -2.667145156860351562e+01 7.702885195612907410e-04 -4.186164005659520626e-05 2.185280609410256147e-04 -1.075597028830088675e-04
1.697000000000000000e+03 2.518673515319824219e+01 3.142732238769531250e+01 -6.669946759939193726e-02 -4.827188327908515930e-02 -3.449140489101409912e-02 -7.413477450609207153e-02
1.698000000000000000e+03 2.206865882873535156e+01 2.687959480285644531e+01 -1.050978153944015503e-02 -1.580876111984252930e-01 -5.057922005653381348e-02 -7.403172552585601807e-02
1.699000000000000000e+03 2.314987945556640625e+01 2.694354057312011719e+01 -2.651618979871273041e-02 -1.719167679548263550e-01 -5.952988937497138977e-02 -1.186739802360534668e-01
1.700000000000000000e+03 1.363640689849853516e+01 -6.609128952026367188e+00 -2.667929220478981733e-04 2.824248258548323065e-05 -7.156513311201706529e-05 7.263301813509315252e-05
1.701000000000000000e+03 2.212442398071289062e+01 2.550111198425292969e+01 -1.044668909162282944e-02 -2.249558568000793457e-01 -7.062076777219772339e-02 -9.266383945941925049e-02
1.702000000000000000e+03 2.466146850585937500e+01 2.290307617187500000e+01 -4.108378291130065918e-02 -3.565486669540405273e-01 -1.192897334694862366e-01 -2.653526067733764648e-01
1.703000000000000000e+03 2.115241050720214844e+01 -2.791799163818359375e+01 2.124964818358421326e-02 -2.458456754684448242e+00 -7.311621308326721191e-01 -6.007460877299308777e-02
1.704000000000000000e+03 2.223450279235839844e+01 2.269591331481933594e+01 -8.688753470778465271e-03 -3.903012275695800781e-01 -1.196969971060752869e-01 -1.255598962306976318e-01
1.705000000000000000e+03 2.344359397888183594e+01 2.278666687011718750e+01 -2.074618078768253326e-02 -3.801195323467254639e-01 -1.202597096562385559e-01 -1.985226571559906006e-01
1.706000000000000000e+03 2.352755546569824219e+01 2.135364151000976562e+01 -1.830720342695713043e-02 -4.638654291629791260e-01 -1.446517854928970337e-01 -2.202759087085723877e-01
1.707000000000000000e+03 2.227647590637207031e+01 2.128225898742675781e+01 -6.428895052522420883e-03 -4.855073392391204834e-01 -1.475808769464492798e-01 -1.387749165296554565e-01
1.708000000000000000e+03 2.489238166809082031e+01 1.993271255493164062e+01 -2.687068842351436615e-02 -5.136665105819702148e-01 -1.621611565351486206e-01 -3.155705630779266357e-01
1.709000000000000000e+03 1.304422092437744141e+01 -1.602525138854980469e+01 5.555911920964717865e-04 1.790156784409191459e-05 1.720478321658447385e-04 -1.757184072630479932e-04
1.710000000000000000e+03 1.131764984130859375e+01 -1.852411460876464844e+01 -8.229792001657187939e-04 -4.054011078551411629e-04 -3.685140982270240784e-04 7.109536672942340374e-04
1.711000000000000000e+03 1.164515876770019531e+01 -1.573221588134765625e+01 -6.089152884669601917e-04 -1.116189232561737299e-04 -2.161602606065571308e-04 3.667255805339664221e-04
1.712000000000000000e+03 1.259661197662353516e+01 -9.201882362365722656e+00 2.876208745874464512e-04 3.849932545563206077e-05 9.783605491975322366e-05 -6.510636740131303668e-05
1.713000000000000000e+03 1.360148906707763672e+01 -9.261548995971679688e+00 -3.388751356396824121e-04 -5.777269507234450430e-07 -1.018358598230406642e-04 5.418405635282397270e-05
1.714000000000000000e+03 1.240773296356201172e+01 -1.170086574554443359e+01 4.066103720106184483e-04 5.812152085127308965e-05 1.394195714965462685e-04 -1.560697855893522501e-04
1.715000000000000000e+03 2.354090690612792969e+01 1.414938640594482422e+01 3.152493736706674099e-04 -9.531809091567993164e-01 -2.858597040176391602e-01 -2.589766383171081543e-01
1.716000000000000000e+03 2.355195617675781250e+01 1.557124710083007812e+01 -2.302315551787614822e-03 -8.515795469284057617e-01 -2.561645507812500000e-01 -2.580911815166473389e-01
1.717000000000000000e+03 2.230684280395507812e+01 1.276197052001953125e+01 8.002993417903780937e-04 -1.149702429771423340e+00 -3.446706533432006836e-01 -1.643268615007400513e-01
1.718000000000000000e+03 2.354217720031738281e+01 1.131936264038085938e+01 1.177694182842969894e-03 -1.155336141586303711e+00 -3.462475240230560303e-01 -2.591963112354278564e-01
1.719000000000000000e+03 1.101896190643310547e+01 -1.978009986877441406e+01 5.615932750515639782e-04 8.054206264205276966e-04 4.101041704416275024e-04 -2.798179630190134048e-04
1.720000000000000000e+03 1.184702491760253906e+01 -2.448026084899902344e+01 1.346109085716307163e-03 -4.104808904230594635e-04 2.806884585879743099e-04 -1.849334657890722156e-04
1.721000000000000000e+03 2.230686950683593750e+01 8.523948669433593750e+00 -3.311364445835351944e-03 -1.496332287788391113e+00 -4.498931169509887695e-01 -1.670033037662506104e-01
1.722000000000000000e+03 2.352273178100585938e+01 7.077543258666992188e+00 -2.465437725186347961e-02 -1.436082363128662109e+00 -4.382210373878479004e-01 -2.636022567749023438e-01
1.723000000000000000e+03 2.315035438537597656e+01 -5.650187492370605469e+00 3.537452593445777893e-02 -1.910949349403381348e+00 -5.626724362373352051e-01 -1.809989213943481445e-01
1.724000000000000000e+03 2.324282455444335938e+01 -4.266548156738281250e+00 1.964166387915611267e-02 -1.851929783821105957e+00 -5.496864318847656250e-01 -1.875964552164077759e-01
1.725000000000000000e+03 3.300491333007812500e+00 3.010382652282714844e+01 8.062591405177954584e-06 3.691859546961495653e-07 2.529533048800658435e-06 3.138532065349863842e-06
1.726000000000000000e+03 1.926348924636840820e+00 2.742929267883300781e+01 -6.813349500589538366e-06 2.499024276403361000e-07 -1.969034201465547085e-06 -1.410588652106525842e-06
1.727000000000000000e+03 4.836831569671630859e+00 3.290749740600585938e+01 -8.558254194213077426e-06 -3.763676659218617715e-06 -3.696579142342670821e-06 -4.368044301372719929e-06
1.728000000000000000e+03 3.081170320510864258e+00 3.710642242431640625e+01 -1.323200422120862640e-06 8.285654757855809294e-07 -1.483904696897297981e-07 1.065905735231353901e-06
1.729000000000000000e+03 3.247012376785278320e+00 2.869535446166992188e+01 -8.669090675539337099e-06 2.170853008465201128e-07 -2.535601424824562855e-06 -2.485548520780866966e-06
1.730000000000000000e+03 1.982320785522460938e+00 3.583333587646484375e+01 -4.312644705350976437e-06 -3.020483745785895735e-06 -2.199938535341061652e-06 3.466928546913550235e-06
1.731000000000000000e+03 2.012340545654296875e+00 3.448609161376953125e+01 3.987855961895547807e-06 2.620058694446925074e-06 1.982374442377476953e-06 -2.164361603718134575e-06
1.732000000000000000e+03 3.416142940521240234e+00 3.298555755615234375e+01 5.413929557107621804e-06 3.210238219253369607e-06 2.587250264696194790e-06 2.859469077520770952e-06
1.733000000000000000e+03 4.737443923950195312e+00 3.139899635314941406e+01 1.009550396702252328e-05 1.387005795550066978e-06 3.444752792347571813e-06 4.663961590267717838e-06
1.734000000000000000e+03 3.361008167266845703e+00 3.152735328674316406e+01 -7.184357400547014549e-06 -1.830661062740546186e-06 -2.704505504880216904e-06 -2.603478606033604592e-06
1.735000000000000000e+03 3.849788427352905273e+00 -3.686655807495117188e+01 -8.293793071061372757e-04 6.588581018149852753e-03 1.727760420180857182e-03 1.010475121438503265e-02
1.736000000000000000e+03 3.782694101333618164e+00 -3.389593505859375000e+01 3.061658004298806190e-03 1.684198155999183655e-03 1.423756941221654415e-03 6.514988373965024948e-03
1.737000000000000000e+03 3.347675085067749023e+00 -2.979695129394531250e+01 1.282720942981541157e-03 3.749070747289806604e-04 4.972884198650717735e-04 1.866118516772985458e-03
1.738000000000000000e+03 1.978134512901306152e+00 -2.869718170166015625e+01 4.332265525590628386e-04 4.300106229493394494e-05 1.428682735422626138e-04 7.906876271590590477e-04
1.739000000000000000e+03 1.915854096412658691e+00 2.179622077941894531e+01 -7.076807833072962239e-06 -1.196660690538919880e-07 -2.158942152163945138e-06 -1.934658797608790337e-07
1.740000000000000000e+03 3.208922863006591797e+00 2.308718490600585938e+01 -7.976291271916124970e-06 1.273146921221268713e-07 -2.354693151573883370e-06 -6.746904546162113547e-07
1.741000000000000000e+03 3.128542184829711914e+00 -1.880693435668945312e+01 -5.136600811965763569e-04 -3.710935561684891582e-05 -1.652308274060487747e-04 2.377923192398156971e-05
1.742000000000000000e+03 2.919893741607666016e+00 -1.191889572143554688e+01 3.452002420090138912e-04 5.339882409316487610e-05 1.195797158288769424e-04 -5.325371603248640895e-05
1.743000000000000000e+03 1.664085268974304199e+00 -9.224126815795898438e+00 -3.879273426719009876e-04 -2.602987842692527920e-05 -1.241871650563552976e-04 1.755249468260444701e-05
1.744000000000000000e+03 3.039979219436645508e+00 1.749010658264160156e+01 -6.422655133064836264e-06 -1.095661232852762623e-07 -1.959666406037285924e-06 3.182559851211408386e-07
1.745000000000000000e+03 2.981320858001708984e+00 1.187735748291015625e+01 -4.615313628164585680e-06 -3.990922721186507260e-07 -1.504321744505432434e-06 1.943549818861356471e-07
1.746000000000000000e+03 1.817117571830749512e+00 -1.479420757293701172e+01 -4.349376249592751265e-04 -5.800749568152241409e-05 -1.478835329180583358e-04 -5.472152679431019351e-06
1.747000000000000000e+03 2.965594768524169922e+00 -1.330295658111572266e+01 -3.931222017854452133e-04 -5.668598532793112099e-05 -1.349424564978107810e-04 8.087934475042857230e-06
1.748000000000000000e+03 4.524513244628906250e+00 5.274636745452880859e+00 2.249339104309910908e-06 7.735912959105917253e-07 9.068791086974670179e-07 -2.223639739895588718e-06
1.749000000000000000e+03 2.731307744979858398e+00 7.643209457397460938e+00 4.082417035533580929e-06 3.845511855615768582e-07 1.340090420853812248e-06 1.434788146070786752e-07
1.750000000000000000e+03 1.806784749031066895e+00 1.478155708312988281e+01 5.502162821358069777e-06 2.707261046452913433e-07 1.731866746013110969e-06 -4.659239891680044821e-07
1.751000000000000000e+03 3.014717578887939453e+00 1.610895156860351562e+01 5.981671165500301868e-06 2.680757802409061696e-07 1.874924123512755614e-06 -3.756085220629756805e-07
1.752000000000000000e+03 2.825282096862792969e+00 9.035985946655273438e+00 -4.168698978901375085e-06 -2.122293665252072969e-07 -1.314278620156983379e-06 1.586012920995472086e-08
1.753000000000000000e+03 5.628939628601074219e+00 -3.804122209548950195e+00 -2.191603853134438396e-04 -1.842102938098832965e-04 -1.210112022818066180e-04 1.740035804687067866e-05
1.754000000000000000e+03 2.543407678604125977e+00 -5.206390857696533203e+00 -3.086109063588082790e-04 -1.341402385151013732e-04 -1.328253420069813728e-04 9.611788118490949273e-05
1.755000000000000000e+03 1.544076442718505859e+00 -6.476579666137695312e+00 -3.770693147089332342e-04 -2.344915992580354214e-05 -1.201555496663786471e-04 1.513058759883278981e-05
1.756000000000000000e+03 3.298306465148925781e+00 -2.843744087219238281e+01 1.180110732093453407e-03 3.637933405116200447e-04 4.631712217815220356e-04 6.021390436217188835e-04
1.757000000000000000e+03 3.218267202377319336e+00 -2.153888702392578125e+01 -5.071730120107531548e-04 -5.290566696203313768e-05 -1.680236164247617126e-04 -5.722578862332738936e-06
1.758000000000000000e+03 2.381666183471679688e+00 -3.561706161499023438e+01 -4.893577715847641230e-05 8.150049485266208649e-03 2.430333988741040230e-03 5.762232467532157898e-03
1.759000000000000000e+03 3.239781141281127930e+00 -2.291550254821777344e+01 4.255349049344658852e-04 2.124825414284714498e-06 1.282979210373014212e-04 -4.472689179237931967e-04
1.760000000000000000e+03 3.045516014099121094e+00 -1.607689857482910156e+01 -4.637785023078322411e-04 -1.637821333133615553e-05 -1.440470077795907855e-04 1.162862008641241118e-05
1.761000000000000000e+03 3.218218564987182617e+00 2.168165397644042969e+01 7.495972567994613200e-06 2.495648629974311916e-07 2.323661192349391058e-06 4.495262260206800420e-07
1.762000000000000000e+03 2.862672805786132812e+00 -1.054127788543701172e+01 -3.471579693723469973e-04 -5.312294160830788314e-05 -1.200842671096324921e-04 3.250269583077169955e-05
1.763000000000000000e+03 2.783378839492797852e+00 -9.172983169555664062e+00 3.264346159994602203e-04 3.439870488364249468e-05 1.082499948097392917e-04 -4.361801620689220726e-05
1.764000000000000000e+03 3.569546461105346680e+00 -3.250258255004882812e+01 2.631859388202428818e-03 1.397230778820812702e-03 1.208727015182375908e-03 4.933529067784547806e-03
1.765000000000000000e+03 5.659951686859130859e+00 -3.482277297973632812e+01 6.722537800669670105e-03 -2.793945139274001122e-03 1.178577775135636330e-03 1.044958736747503281e-02
1.766000000000000000e+03 1.937316179275512695e+00 -2.451407241821289062e+01 2.523299772292375565e-04 -3.408954071346670389e-04 -2.656963079061824828e-05 -3.587073297239840031e-04
1.767000000000000000e+03 4.548500061035156250e+00 -2.409142684936523438e+01 7.598831434734165668e-04 2.556763647589832544e-04 3.046678612008690834e-04 -4.309464129619300365e-04
1.768000000000000000e+03 3.245362520217895508e+00 -2.568408012390136719e+01 6.426775944419205189e-04 8.025918214116245508e-05 2.168810460716485977e-04 -3.306831931695342064e-04
1.769000000000000000e+03 3.006953239440917969e+00 -1.469194507598876953e+01 3.738424566108733416e-04 2.958264303742907941e-06 1.130402160924859345e-04 -9.051562665263190866e-05
1.770000000000000000e+03 2.919351577758789062e+00 1.045367431640625000e+01 4.306875780457630754e-06 2.458916981140646385e-07 1.365830257782363333e-06 -1.125921968991860922e-07
1.771000000000000000e+03 3.004292964935302734e+00 1.330047225952148438e+01 4.942372015648288652e-06 4.507966480105096707e-07 1.617950601939810440e-06 -2.995491570345620858e-07
1.772000000000000000e+03 3.094567060470581055e+00 1.888110923767089844e+01 6.878479780425550416e-06 -1.681779338014166569e-07 2.013090579566778615e-06 -1.590719307387189474e-07
1.773000000000000000e+03 2.348376655578613281e+01 2.809638261795043945e+00 -2.664708346128463745e-02 -1.634404778480529785e+00 -4.983155429363250732e-01 -2.221674174070358276e-01
1.774000000000000000e+03 2.300644874572753906e+01 -9.767965316772460938e+00 -9.503036737442016602e-03 -2.024420499801635742e+00 -6.101770997047424316e-01 -1.709924489259719849e-01
1.775000000000000000e+03 1.373439979553222656e+01 2.953986549377441406e+01 1.476223678764654323e-05 5.748693183704745024e-07 4.601131877279840410e-06 4.854896360484417528e-06
1.776000000000000000e+03 1.195064449310302734e+01 2.282291030883789062e+01 8.423624421993736178e-06 2.113625896527082659e-07 2.590496023913146928e-06 7.802480581631243695e-07
1.777000000000000000e+03 1.576031112670898438e+01 3.693531417846679688e+01 -2.596483682282269001e-05 -2.018915438384283334e-05 -1.384619827149435878e-05 -1.686436735326424241e-05
1.778000000000000000e+03 2.290012741088867188e+01 -1.534967517852783203e+01 -2.057434245944023132e-02 -2.069766283035278320e+00 -6.271021962165832520e-01 -1.258729547262191772e-01
1.779000000000000000e+03 2.294865608215332031e+01 -1.255578613281250000e+01 -4.107886552810668945e-02 -2.058364391326904297e+00 -6.298329830169677734e-01 -1.480051577091217041e-01
1.780000000000000000e+03 1.154549503326416016e+01 -3.522979354858398438e+01 2.213512361049652100e-02 -1.042522955685853958e-02 3.512968076393008232e-03 -1.611391454935073853e-02
1.781000000000000000e+03 8.928876876831054688e+00 -3.943260192871093750e+01 -2.362711541354656219e-02 -6.094224285334348679e-03 -8.916401304304599762e-03 2.880936674773693085e-02
1.782000000000000000e+03 2.350576019287109375e+01 5.660631179809570312e+00 -4.167003557085990906e-02 -1.510747075080871582e+00 -4.657251238822937012e-01 -2.560839653015136719e-01
1.783000000000000000e+03 3.843051910400390625e+01 3.885606002807617188e+01 -2.504712203517556190e-03 -3.043836914002895355e-02 -9.882924146950244904e-03 2.484588325023651123e-02
1.784000000000000000e+03 4.269294357299804688e+01 3.720507812500000000e+01 -1.283140759915113449e-02 -8.425052464008331299e-02 -2.912457846105098724e-02 9.400928020477294922e-02
1.785000000000000000e+03 3.732126998901367188e+01 4.114264297485351562e+01 7.929425686597824097e-03 -4.153905063867568970e-02 -1.008288748562335968e-02 7.605211343616247177e-03
1.786000000000000000e+03 3.642868423461914062e+01 3.831151199340820312e+01 1.042894902639091015e-03 -2.276757918298244476e-02 -6.517405156046152115e-03 1.560775097459554672e-02
1.787000000000000000e+03 3.958032989501953125e+01 4.019808197021484375e+01 2.187547273933887482e-02 -6.871777772903442383e-02 -1.405269280076026917e-02 1.651388965547084808e-02
1.788000000000000000e+03 4.153231430053710938e+01 3.703403091430664062e+01 -1.463511772453784943e-02 -6.074274331331253052e-02 -2.261335961520671844e-02 6.242899224162101746e-02
1.789000000000000000e+03 2.335654640197753906e+01 -2.863855838775634766e+00 1.353148650377988815e-02 -1.801250338554382324e+00 -5.363156795501708984e-01 -2.049393653869628906e-01
1.790000000000000000e+03 2.283076286315917969e+01 -1.952779960632324219e+01 3.958488255739212036e-02 -2.077612400054931641e+00 -6.114082336425781250e-01 -1.247230395674705505e-01
1.791000000000000000e+03 1.238655567169189453e+01 2.804210853576660156e+01 1.186252211482496932e-05 1.844356802394031547e-06 4.112063379579922184e-06 2.912071977334562689e-06
1.792000000000000000e+03 1.100964736938476562e+01 2.674553298950195312e+01 9.844351552601438016e-06 1.582011691425577737e-06 3.427908950470737182e-06 9.863432524070958607e-07
1.793000000000000000e+03 3.261771392822265625e+01 3.957576751708984375e+01 -2.695788629353046417e-03 -2.594012999907135963e-03 -1.586940488778054714e-03 1.152392709627747536e-03
1.794000000000000000e+03 2.127402114868164062e+01 -2.094029045104980469e+01 9.185526520013809204e-03 -2.293288707733154297e+00 -6.852309703826904297e-01 -1.289168894290924072e-01
1.795000000000000000e+03 2.292188453674316406e+01 -3.036603736877441406e+01 -5.761787667870521545e-02 -2.222478628158569336e+00 -6.840289831161499023e-01 -1.263438761234283447e-01
1.796000000000000000e+03 2.256731605529785156e+01 -2.785993766784667969e+01 3.733281977474689484e-03 -2.194559812545776367e+00 -6.572479605674743652e-01 -1.104956790804862976e-01
1.797000000000000000e+03 2.686276626586914062e+01 3.934629440307617188e+01 -3.627196711022406816e-04 1.229671877808868885e-03 2.600856532808393240e-04 -1.266987528651952744e-03
1.798000000000000000e+03 2.407756423950195312e+01 -2.663193893432617188e+01 6.176534574478864670e-03 -1.916238546371459961e+00 -5.730186104774475098e-01 -1.178077012300491333e-01
1.799000000000000000e+03 2.124307441711425781e+01 -2.929058265686035156e+01 -2.286567538976669312e-02 -2.482659101486206055e+00 -7.516574263572692871e-01 -6.732004135847091675e-02
1.800000000000000000e+03 1.508190536499023438e+01 -4.040715789794921875e+01 -1.639930456876754761e-01 -1.624186635017395020e-01 -9.792350977659225464e-02 2.114851586520671844e-02
1.801000000000000000e+03 2.526602745056152344e+01 -3.621516418457031250e+01 -4.802756011486053467e-03 -1.568550467491149902e+00 -4.720059633255004883e-01 6.742198765277862549e-02
1.802000000000000000e+03 5.106396198272705078e+00 -4.052739334106445312e+01 -1.079544425010681152e-02 1.325359661132097244e-02 7.374455453827977180e-04 7.835711352527141571e-03
1.803000000000000000e+03 6.614549255371093750e+01 3.279524993896484375e+01 1.498261451721191406e+00 1.013763523101806641e+01 3.490769147872924805e+00 -5.944120407104492188e+00
1.804000000000000000e+03 6.595592498779296875e+01 2.891557502746582031e+01 1.371875643730163574e+00 8.529863357543945312e+00 2.970521450042724609e+00 6.088267803192138672e+00
1.805000000000000000e+03 6.615005493164062500e+01 2.920466232299804688e+01 1.670142292976379395e+00 9.824220657348632812e+00 3.448308944702148438e+00 6.725529670715332031e+00
1.806000000000000000e+03 6.523828887939453125e+01 3.321720123291015625e+01 1.616662025451660156e+00 5.226244449615478516e+00 2.052871942520141602e+00 -4.237105846405029297e+00
1.807000000000000000e+03 6.677664947509765625e+01 2.878685951232910156e+01 -1.021015420556068420e-01 1.458998489379882812e+01 4.346364974975585938e+00 5.085981369018554688e+00
1.808000000000000000e+03 6.653424835205078125e+01 3.292185592651367188e+01 6.725100278854370117e-01 1.305053138732910156e+01 4.116912364959716797e+00 -5.384228706359863281e+00
1.809000000000000000e+03 6.880966949462890625e+01 3.009442138671875000e+01 6.764611721038818359e+00 1.565946865081787109e+01 6.727223873138427734e+00 -1.989814400672912598e+00
1.810000000000000000e+03 6.905388641357421875e+01 3.051539802551269531e+01 7.534698486328125000e+00 1.445615768432617188e+01 6.597256660461425781e+00 -9.464588165283203125e-01
1.811000000000000000e+03 6.831507110595703125e+01 2.920567512512207031e+01 2.247444152832031250e+00 1.771198654174804688e+01 5.987829685211181641e+00 -1.434840321540832520e+00
1.812000000000000000e+03 6.900000000000000000e+01 3.138905715942382812e+01 7.262827396392822266e+00 1.477838516235351562e+01 6.612363815307617188e+00 1.546245455741882324e+00
1.813000000000000000e+03 6.744631958007812500e+01 3.242676544189453125e+01 7.955215573310852051e-01 2.015993881225585938e+01 6.286638259887695312e+00 -1.390812516212463379e+00
1.814000000000000000e+03 6.903067779541015625e+01 3.080070495605468750e+01 7.974276065826416016e+00 1.442072868347167969e+01 6.718501567840576172e+00 -6.985490769147872925e-02
1.815000000000000000e+03 6.860269927978515625e+01 3.212876129150390625e+01 4.434698581695556641e+00 1.683553123474121094e+01 6.381068706512451172e+00 2.391513109207153320e+00
1.816000000000000000e+03 6.902070617675781250e+01 3.108679580688476562e+01 7.835953712463378906e+00 1.448513793945312500e+01 6.696327686309814453e+00 7.146676182746887207e-01
1.817000000000000000e+03 6.263705444335937500e+01 3.436835479736328125e+01 7.223346233367919922e-01 1.615227699279785156e+00 7.012686729431152344e-01 -1.369331121444702148e+00
1.818000000000000000e+03 6.198650360107421875e+01 3.410384750366210938e+01 3.989666998386383057e-01 8.970577120780944824e-01 3.888073265552520752e-01 -7.956821322441101074e-01
1.819000000000000000e+03 6.230074310302734375e+01 3.462393569946289062e+01 6.206772327423095703e-01 1.453584551811218262e+00 6.222785711288452148e-01 -1.113435149192810059e+00
1.820000000000000000e+03 6.327762985229492188e+01 3.465333938598632812e+01 7.984493970870971680e-01 2.625053644180297852e+00 1.027050852775573730e+00 -1.843909263610839844e+00
1.821000000000000000e+03 6.100729370117187500e+01 2.867111015319824219e+01 -1.812156915664672852e+00 1.929347217082977295e-01 -4.857666492462158203e-01 5.389486551284790039e-01
1.822000000000000000e+03 6.029055023193359375e+01 2.807511138916015625e+01 -1.481629967689514160e+00 2.702772617340087891e-01 -3.634057939052581787e-01 5.517791509628295898e-01
1.823000000000000000e+03 6.428438568115234375e+01 3.330811309814453125e+01 1.217346668243408203e+00 2.634088277816772461e+00 1.155430436134338379e+00 -2.622180700302124023e+00
1.824000000000000000e+03 6.353122711181640625e+01 3.405910110473632812e+01 8.782852292060852051e-01 2.436265945434570312e+00 9.943653345108032227e-01 -2.089969158172607422e+00
1.825000000000000000e+03 6.164255142211914062e+01 2.816914367675781250e+01 -9.973534941673278809e-01 5.081614851951599121e-01 -1.467576026916503906e-01 1.004998207092285156e+00
1.826000000000000000e+03 6.292387390136718750e+01 2.737758445739746094e+01 1.239968910813331604e-01 1.829211831092834473e+00 5.859625935554504395e-01 2.278644800186157227e+00
1.827000000000000000e+03 2.638106727600097656e+01 3.207710647583007812e+01 -9.124664217233657837e-02 -3.009800426661968231e-02 -3.640339523553848267e-02 -7.631772756576538086e-02
1.828000000000000000e+03 6.422983551025390625e+01 2.810438919067382812e+01 6.382611989974975586e-01 2.874787092208862305e+00 1.053914546966552734e+00 3.337591886520385742e+00
1.829000000000000000e+03 6.369424438476562500e+01 2.809926223754882812e+01 3.939427435398101807e-01 1.994807481765747070e+00 7.166250348091125488e-01 2.706235408782958984e+00
1.830000000000000000e+03 6.283417510986328125e+01 2.784330368041992188e+01 -8.302540332078933716e-02 1.347470045089721680e+00 3.793333768844604492e-01 1.970639586448669434e+00
1.831000000000000000e+03 2.771601867675781250e+01 3.229019165039062500e+01 -1.292677521705627441e-01 -1.837838627398014069e-02 -4.429383948445320129e-02 -9.140157699584960938e-02
1.832000000000000000e+03 8.176345825195312500e+00 4.118587493896484375e+00 1.574527573211526033e-06 6.682140565317240544e-07 6.728225230290263426e-07 7.050161912047769874e-07
1.833000000000000000e+03 1.043110275268554688e+01 3.317919254302978516e+00 2.514877678549964912e-06 -4.052680537824926432e-07 6.328829158519511111e-07 1.404341958277655067e-07
1.834000000000000000e+03 5.253229141235351562e+00 4.311250209808349609e+00 1.137887579716334585e-06 1.234507521985506173e-06 7.117184850358171389e-07 -8.668823738844366744e-07
1.835000000000000000e+03 4.573399543762207031e+00 6.263224601745605469e+00 -1.738652599669876508e-06 -1.000292513708700426e-06 -8.216835567509406246e-07 2.067904915747931227e-06
1.836000000000000000e+03 5.254597187042236328e+00 3.493809223175048828e+00 -1.298970801144605502e-06 -9.922531489792163484e-07 -6.873671622997790109e-07 5.882324671802052762e-07
1.837000000000000000e+03 3.029919624328613281e+00 5.097926616668701172e+00 3.376113454578444362e-06 1.295024731007288210e-06 1.401341478413087316e-06 9.918758223648183048e-07
1.838000000000000000e+03 2.917957115173339844e+01 3.192137908935546875e+01 -1.924944818019866943e-01 -8.145980536937713623e-03 -6.019213795661926270e-02 -1.241023838520050049e-01
1.839000000000000000e+03 2.874475479125976562e+01 3.283472061157226562e+01 -1.534484326839447021e-01 -4.788010846823453903e-03 -4.747093468904495239e-02 -8.525957167148590088e-02
1.840000000000000000e+03 2.946283817291259766e+00 3.618088245391845703e+00 1.761345401973812841e-06 2.200299377363990061e-06 1.188493456538708415e-06 1.257951907973620109e-06
1.841000000000000000e+03 1.454908013343811035e+00 4.862914562225341797e+00 -1.678882313171925489e-06 -2.098137628081531147e-07 -5.666088327416218817e-07 8.187302000806084834e-07
1.842000000000000000e+03 1.646461367607116699e+00 3.290634870529174805e+00 3.403608616281417198e-06 5.319403726389282383e-07 1.180664753519522492e-06 5.645135274789936375e-07
1.843000000000000000e+03 2.985455703735351562e+01 3.172315216064453125e+01 -2.237647026777267456e-01 -1.065067015588283539e-03 -6.744892895221710205e-02 -1.368635296821594238e-01
1.844000000000000000e+03 3.058245086669921875e+01 3.156756591796875000e+01 -2.585319876670837402e-01 2.632936229929327965e-03 -7.676970958709716797e-02 -1.532214879989624023e-01
1.845000000000000000e+03 5.789674377441406250e+01 3.523339462280273438e+01 -9.020743519067764282e-02 1.437363922595977783e-01 1.605868712067604065e-02 2.892086803913116455e-01
1.846000000000000000e+03 5.903384399414062500e+01 3.561921691894531250e+01 2.152466028928756714e-01 6.834205389022827148e-01 2.696001529693603516e-01 -7.202260196208953857e-02
1.847000000000000000e+03 3.278730010986328125e+01 3.121470451354980469e+01 -3.831849694252014160e-01 2.487739361822605133e-02 -1.074922755360603333e-01 -1.881059855222702026e-01
1.848000000000000000e+03 3.151474380493164062e+01 3.214167785644531250e+01 -2.930996716022491455e-01 1.624563895165920258e-02 -8.305620402097702026e-02 -1.311503648757934570e-01
1.849000000000000000e+03 5.325041198730468750e+01 3.727350616455078125e+01 2.074545025825500488e-01 -1.850546151399612427e-01 6.719967350363731384e-03 3.589547872543334961e-01
1.850000000000000000e+03 5.184847640991210938e+01 3.762845993041992188e+01 1.746688336133956909e-01 -2.243592888116836548e-01 -1.490713655948638916e-02 3.354748189449310303e-01
1.851000000000000000e+03 9.687912940979003906e+00 4.112212181091308594e+00 2.726180127865518443e-06 1.103917046663127621e-08 8.211658268919563852e-07 9.273008458876574878e-07
1.852000000000000000e+03 1.022464656829833984e+01 -5.222470760345458984e+00 2.572027733549475670e-04 -2.491528448445023969e-06 7.641338015673682094e-05 -6.807670433772727847e-05
1.853000000000000000e+03 1.027263641357421875e+01 -4.303594112396240234e+00 -1.592735934536904097e-04 -7.523153180954977870e-05 -7.035153976175934076e-05 6.882278103148564696e-05
1.854000000000000000e+03 1.099243545532226562e+01 -5.199926853179931641e+00 -6.086744178901426494e-05 -1.098600114346481860e-04 -5.121823778608813882e-05 3.481748080957913771e-06
1.855000000000000000e+03 3.224350738525390625e+01 3.201541519165039062e+01 -3.360467553138732910e-01 2.273819036781787872e-02 -9.399256855249404907e-02 -1.399526149034500122e-01
1.856000000000000000e+03 3.351279449462890625e+01 3.109448242187500000e+01 -4.288919866085052490e-01 3.089137375354766846e-02 -1.194001808762550354e-01 -1.983301341533660889e-01
1.857000000000000000e+03 2.792797279357910156e+01 3.161599540710449219e+01 -1.463756263256072998e-01 -2.563965506851673126e-02 -5.160458385944366455e-02 -1.159201413393020630e-01
1.858000000000000000e+03 3.132613182067871094e+01 3.144322776794433594e+01 -2.990815341472625732e-01 1.092490274459123611e-02 -8.644699305295944214e-02 -1.663223952054977417e-01
1.859000000000000000e+03 3.934015655517578125e+01 3.001255607604980469e+01 -8.801174163818359375e-01 7.210910320281982422e-02 -2.424024939537048340e-01 -2.622594535350799561e-01
1.860000000000000000e+03 4.079008865356445312e+01 2.974780845642089844e+01 -1.010150194168090820e+00 7.655506581068038940e-02 -2.800785303115844727e-01 -2.727573513984680176e-01
1.861000000000000000e+03 3.516936874389648438e+01 3.148356246948242188e+01 -5.368738770484924316e-01 4.302687197923660278e-02 -1.481541097164154053e-01 -1.700302511453628540e-01
1.862000000000000000e+03 3.664110183715820312e+01 3.119943428039550781e+01 -6.552032828330993652e-01 5.158788338303565979e-02 -1.810846179723739624e-01 -1.813465058803558350e-01
1.863000000000000000e+03 3.840598297119140625e+01 2.947728157043457031e+01 -7.783837914466857910e-01 7.130546122789382935e-02 -2.121234983205795288e-01 -3.159763514995574951e-01
1.864000000000000000e+03 4.006563949584960938e+01 2.988299560546875000e+01 -9.444593191146850586e-01 7.543894648551940918e-02 -2.607060968875885010e-01 -2.669442296028137207e-01
1.865000000000000000e+03 3.424323272705078125e+01 3.096507453918457031e+01 -4.775262176990509033e-01 3.760578110814094543e-02 -1.319761276245117188e-01 -2.083911150693893433e-01
1.866000000000000000e+03 3.497186279296875000e+01 3.082969284057617188e+01 -5.288046598434448242e-01 4.314560443162918091e-02 -1.456977128982543945e-01 -2.180412113666534424e-01
1.867000000000000000e+03 5.728648757934570312e+01 2.809520912170410156e+01 -2.034439563751220703e+00 5.974265933036804199e-02 -5.924090743064880371e-01 4.829497635364532471e-02
1.868000000000000000e+03 5.804598999023437500e+01 2.807666397094726562e+01 -1.951751708984375000e+00 9.671219438314437866e-02 -5.565118193626403809e-01 1.302465200424194336e-01
1.869000000000000000e+03 4.372238159179687500e+01 2.915682792663574219e+01 -1.273503422737121582e+00 7.826658338308334351e-02 -3.585710227489471436e-01 -2.957136332988739014e-01
1.870000000000000000e+03 7.250637531280517578e+00 -3.390993833541870117e+00 1.474999444326385856e-04 6.489159568445757031e-05 6.371745985234156251e-05 -2.986178515129722655e-06
1.871000000000000000e+03 1.174112224578857422e+01 -5.313092708587646484e+00 1.098692446248605847e-04 2.488176978658884764e-04 1.076060798368416727e-04 -2.161977172363549471e-04
1.872000000000000000e+03 4.298662185668945312e+01 2.930439567565917969e+01 -1.207348704338073730e+00 7.927589118480682373e-02 -3.384218215942382812e-01 -2.900056540966033936e-01
1.873000000000000000e+03 5.412776565551757812e+01 2.885362243652343750e+01 -2.434283256530761719e+00 6.506658624857664108e-03 -7.283329367637634277e-01 -1.025339588522911072e-01
1.874000000000000000e+03 5.395914077758789062e+01 2.805937957763671875e+01 -2.013179540634155273e+00 3.648238256573677063e-02 -5.930091142654418945e-01 -1.599775850772857666e-01
1.875000000000000000e+03 4.672340774536132812e+01 2.859498977661132812e+01 -1.526180267333984375e+00 7.004241645336151123e-02 -4.368413388729095459e-01 -3.083295822143554688e-01
1.876000000000000000e+03 4.621630477905273438e+01 2.938798332214355469e+01 -1.606907963752746582e+00 5.923819914460182190e-02 -4.643009305000305176e-01 -2.228274792432785034e-01
1.877000000000000000e+03 4.697012710571289062e+01 2.925913047790527344e+01 -1.680889964103698730e+00 5.587602406740188599e-02 -4.875041544437408447e-01 -2.233613580465316772e-01
1.878000000000000000e+03 4.772731018066406250e+01 2.913264465332031250e+01 -1.755043864250183105e+00 4.960105940699577332e-02 -5.116328597068786621e-01 -2.240224927663803101e-01
1.879000000000000000e+03 3.861466217041015625e+01 3.014016914367675781e+01 -8.165737986564636230e-01 6.909718364477157593e-02 -2.242429852485656738e-01 -2.562224268913269043e-01
1.880000000000000000e+03 3.570216369628906250e+01 3.068998146057128906e+01 -5.819822549819946289e-01 4.926692694425582886e-02 -1.598145961761474609e-01 -2.270301580429077148e-01
1.881000000000000000e+03 5.127981567382812500e+01 2.785218620300292969e+01 -1.777853131294250488e+00 5.005258321762084961e-02 -5.183401703834533691e-01 -2.708611190319061279e-01
1.882000000000000000e+03 5.310569381713867188e+01 2.824708747863769531e+01 -2.053360939025878906e+00 3.452579304575920105e-02 -6.056505441665649414e-01 -1.815961152315139771e-01
1.883000000000000000e+03 4.848544692993164062e+01 2.901036071777343750e+01 -1.823511838912963867e+00 4.623020812869071960e-02 -5.331844687461853027e-01 -2.217971831560134888e-01
1.884000000000000000e+03 5.027778244018554688e+01 2.728598976135253906e+01 -1.529284596443176270e+00 7.511926442384719849e-02 -4.362495839595794678e-01 -3.419484198093414307e-01
1.885000000000000000e+03 5.651625442504882812e+01 2.682211112976074219e+01 -1.356237173080444336e+00 1.650645881891250610e-01 -3.573517799377441406e-01 7.684177160263061523e-02
1.886000000000000000e+03 5.572569274902343750e+01 2.808508110046386719e+01 -2.070415019989013672e+00 4.157084226608276367e-02 -6.086532473564147949e-01 -6.797266751527786255e-02
1.887000000000000000e+03 4.791493606567382812e+01 3.742132568359375000e+01 6.683462858200073242e-02 -2.027944177389144897e-01 -4.078793898224830627e-02 2.432834059000015259e-01
1.888000000000000000e+03 1.194781780242919922e+01 3.069782018661499023e+00 1.364818444926640950e-06 -2.518069663892674726e-07 3.339034435612120433e-07 -1.147684884017508011e-06
1.889000000000000000e+03 1.221908760070800781e+01 3.733102321624755859e+00 -2.400521452727844007e-06 8.514899150213750545e-07 -4.647094726806244580e-07 1.242761527464608662e-06
1.890000000000000000e+03 4.446519470214843750e+01 2.900914573669433594e+01 -1.337865710258483887e+00 7.851381599903106689e-02 -3.778055608272552490e-01 -3.000812530517578125e-01
1.891000000000000000e+03 4.521678543090820312e+01 2.886465263366699219e+01 -1.403328657150268555e+00 7.594260573387145996e-02 -3.982158303260803223e-01 -3.045725524425506592e-01
1.892000000000000000e+03 4.151687240600585938e+01 2.960473632812500000e+01 -1.075194597244262695e+00 7.841721922159194946e-02 -2.990332245826721191e-01 -2.781818807125091553e-01
1.893000000000000000e+03 8.929475784301757812e+00 4.856632232666015625e+00 2.456021547914133407e-06 4.400139061999652768e-07 8.688106163390330039e-07 1.288699877477483824e-06
1.894000000000000000e+03 4.596994018554687500e+01 2.872698211669921875e+01 -1.464786529541015625e+00 7.420510053634643555e-02 -4.171743988990783691e-01 -3.066684305667877197e-01
1.895000000000000000e+03 5.230247497558593750e+01 2.840284729003906250e+01 -2.062444686889648438e+00 2.776211313903331757e-02 -6.104047298431396484e-01 -1.953361332416534424e-01
1.896000000000000000e+03 4.225062942504882812e+01 2.945428466796875000e+01 -1.141986250877380371e+00 7.822098582983016968e-02 -3.191295564174652100e-01 -2.846984863281250000e-01
1.897000000000000000e+03 5.076300430297851562e+01 2.866213607788085938e+01 -2.001706600189208984e+00 3.204812481999397278e-02 -5.908975601196289062e-01 -2.101594060659408569e-01
1.898000000000000000e+03 4.675665855407714844e+00 -3.426810979843139648e+00 -1.276686962228268385e-04 5.391950980992987752e-05 -2.212475556007120758e-05 5.606669583357870579e-05
1.899000000000000000e+03 6.227440834045410156e+00 -4.979121685028076172e+00 -1.792645343812182546e-04 -3.090576137765310705e-05 -6.305109127424657345e-05 4.867303869104944170e-05
1.900000000000000000e+03 8.021259307861328125e+00 -3.423765659332275391e+00 -1.266369508812204003e-04 -7.958923379192128778e-05 -6.186785321915522218e-05 3.374068910488858819e-05
1.901000000000000000e+03 3.788854598999023438e+00 -7.781529903411865234e+00 2.315456513315439224e-04 4.712341979029588401e-05 8.360071660717949271e-05 -4.265865572961047292e-05
1.902000000000000000e+03 3.341568231582641602e+00 -3.790105819702148438e+00 8.920361869968473911e-05 -1.500593061791732907e-04 -1.825670369726140052e-05 2.452127228025346994e-04
1.903000000000000000e+03 3.637643575668334961e+00 -6.526162624359130859e+00 -2.092501235892996192e-04 -4.764779077959246933e-05 -7.706937321927398443e-05 3.437447958276607096e-05
1.904000000000000000e+03 2.579798698425292969e+00 -6.514286518096923828e+00 3.266105195507407188e-04 4.593979610945098102e-05 1.117650899686850607e-04 -5.445860006147995591e-05
1.905000000000000000e+03 6.095686340332031250e+01 3.608736038208007812e+01 6.232379674911499023e-01 1.319071650505065918e+00 5.826928615570068359e-01 -7.796356678009033203e-01
1.906000000000000000e+03 5.988818359375000000e+01 3.602202987670898438e+01 4.546835124492645264e-01 8.905956745147705078e-01 4.035837650299072266e-01 -4.262135624885559082e-01
1.907000000000000000e+03 5.880454635620117188e+01 2.806116867065429688e+01 -1.834269165992736816e+00 1.354186683893203735e-01 -5.096551775932312012e-01 2.403943538665771484e-01
1.908000000000000000e+03 1.269603633880615234e+01 -4.214146614074707031e+00 2.238213055534288287e-04 -4.574244667310267687e-05 5.342365693650208414e-05 -7.694651867495849729e-05
1.909000000000000000e+03 1.180256175994873047e+01 -3.438398838043212891e+00 2.349353599129244685e-04 -5.296150993672199547e-05 5.459215390146709979e-05 -7.392993575194850564e-05
1.910000000000000000e+03 1.292700862884521484e+01 3.214853763580322266e+00 -4.893802270089508966e-07 -9.092148616218764801e-07 -4.195785265892482130e-07 -1.618598730601661373e-06
1.911000000000000000e+03 1.132463455200195312e+01 3.983675718307495117e+00 3.227619799872627482e-06 -7.345975063799414784e-07 7.479067107851733454e-07 -1.540461767035594676e-07
1.912000000000000000e+03 1.356488895416259766e+01 3.387284278869628906e+00 3.884360012307297438e-06 -4.585494650655164151e-07 1.027743223858124111e-06 2.541861192639771616e-07
1.913000000000000000e+03 2.392266845703125000e+01 3.244554901123046875e+01 -3.278199955821037292e-02 -3.090593218803405762e-02 -1.910637877881526947e-02 -3.203757479786872864e-02
1.914000000000000000e+03 2.307393074035644531e+01 3.092360305786132812e+01 -2.572696655988693237e-02 -4.961682483553886414e-02 -2.260313741862773895e-02 -4.344006255269050598e-02
1.915000000000000000e+03 2.303765487670898438e+01 3.220956039428710938e+01 -2.114702761173248291e-02 -2.726947329938411713e-02 -1.452495064586400986e-02 -2.323691174387931824e-02
1.916000000000000000e+03 1.223925495147705078e+01 -1.296377468109130859e+01 -4.678523400798439980e-04 -1.192140625789761543e-04 -1.761199237080290914e-04 2.362372761126607656e-04
1.917000000000000000e+03 1.191313457489013672e+01 -1.428886222839355469e+01 4.658682446461170912e-04 1.850045809987932444e-04 1.952618476934731007e-04 -2.093934454023838043e-04
1.918000000000000000e+03 1.260159492492675781e+01 -6.680885791778564453e+00 3.312305780127644539e-04 -1.119420194299891591e-04 6.578656757483258843e-05 -6.722722901031374931e-05
1.919000000000000000e+03 1.264944648742675781e+01 -7.935299396514892578e+00 -2.971499343402683735e-04 4.607787559507414699e-05 -7.532161544077098370e-05 2.487658821337390691e-05
1.920000000000000000e+03 5.397912597656250000e+01 3.560181427001953125e+01 -1.384568959474563599e-01 -1.503062844276428223e-01 -8.662895113229751587e-02 4.304964244365692139e-01
1.921000000000000000e+03 5.476276397705078125e+01 3.560677719116210938e+01 -7.750208675861358643e-02 -1.234148815274238586e-01 -6.027508899569511414e-02 4.647603631019592285e-01
1.922000000000000000e+03 1.249800586700439453e+01 7.869008064270019531e+00 -3.117722826573299244e-06 -4.549937386855162913e-07 -1.071814949682448059e-06 -3.016540972566872369e-07
1.923000000000000000e+03 4.222996520996093750e+01 4.104544067382812500e+01 8.118018507957458496e-02 -1.373116075992584229e-01 -1.683942601084709167e-02 3.381425514817237854e-02
1.924000000000000000e+03 2.717406272888183594e+01 4.171735000610351562e+01 -2.110554138198494911e-03 1.485878834500908852e-03 -1.874025620054453611e-04 -5.350207793526351452e-04
1.925000000000000000e+03 1.183522891998291016e+01 -4.312495231628417969e+00 -2.138025010935962200e-04 -3.883390309056267142e-05 -7.579092198284342885e-05 1.654847583267837763e-04
1.926000000000000000e+03 1.817254638671875000e+01 4.160284805297851562e+01 4.950247239321470261e-05 4.665609594667330384e-05 2.884757122956216335e-05 -1.181605148303788155e-05
1.927000000000000000e+03 2.497488403320312500e+01 -3.973829746246337891e-02 1.151894219219684601e-02 -1.500655055046081543e+00 -4.467408359050750732e-01 -2.583917975425720215e-01
1.928000000000000000e+03 2.476657104492187500e+01 -2.968257904052734375e+00 2.509100735187530518e-02 -1.599069952964782715e+00 -4.721936881542205811e-01 -2.349162995815277100e-01
1.929000000000000000e+03 2.439276123046875000e+01 -1.809273719787597656e+01 3.312336280941963196e-02 -1.825334906578063965e+00 -5.376634597778320312e-01 -1.152132973074913025e-01
1.930000000000000000e+03 2.441711807250976562e+01 -1.950018501281738281e+01 4.743641242384910583e-02 -1.828571319580078125e+00 -5.343405008316040039e-01 -1.160225048661231995e-01
1.931000000000000000e+03 2.473414993286132812e+01 2.823507547378540039e+00 -1.701639033854007721e-02 -1.451918959617614746e+00 -4.406806230545043945e-01 -2.747013270854949951e-01
1.932000000000000000e+03 2.438871955871582031e+01 -1.669524383544921875e+01 1.728321425616741180e-02 -1.821834206581115723e+00 -5.413653254508972168e-01 -1.268509775400161743e-01
1.933000000000000000e+03 2.303974342346191406e+01 -8.389233589172363281e+00 2.596138976514339447e-03 -1.974561929702758789e+00 -5.915897488594055176e-01 -1.816532313823699951e-01
1.934000000000000000e+03 2.451966667175292969e+01 -5.711180686950683594e+00 3.058260492980480194e-02 -1.695160627365112305e+00 -4.993734061717987061e-01 -2.171858549118041992e-01
1.935000000000000000e+03 1.336439990997314453e+01 -1.325386238098144531e+01 4.688015324063599110e-04 1.508064087829552591e-05 1.451646530767902732e-04 -1.024276425596326590e-04
1.936000000000000000e+03 2.437917709350585938e+01 -1.252240848541259766e+01 -2.036825008690357208e-02 -1.803818583488464355e+00 -5.472560524940490723e-01 -1.689105927944183350e-01
1.937000000000000000e+03 1.091091823577880859e+01 2.550920486450195312e+01 -9.201672583003528416e-06 -1.153060452452336904e-06 -3.106420081167016178e-06 -6.537960075547744054e-07
1.938000000000000000e+03 5.270279407501220703e+00 1.025558471679687500e+01 4.323341272538527846e-06 -3.240225225908943685e-07 1.199795633510802872e-06 -8.367084660676482599e-07
1.939000000000000000e+03 1.245671463012695312e+01 9.106425285339355469e+00 3.272507683504954912e-06 5.659902626575785689e-07 1.151549440692178905e-06 4.374879836177569814e-07
1.940000000000000000e+03 9.057097434997558594e+00 1.997602653503417969e+01 7.467944669770076871e-06 -1.630648860384553700e-08 2.235491365354391746e-06 2.168656919820932671e-06
1.941000000000000000e+03 1.107127189636230469e+01 1.489890289306640625e+01 1.066652544068347197e-06 -5.614691644950653426e-07 1.515550138719845563e-07 -2.173967459384584799e-06
1.942000000000000000e+03 7.606095886230468750e+01 1.288810825347900391e+01 -1.204358190298080444e-01 8.375157356262207031e+00 2.476416349411010742e+00 1.866818033158779144e-02
1.943000000000000000e+03 7.427539825439453125e+01 -1.271576523780822754e+00 2.755997888743877411e-02 7.385967254638671875e+00 2.224058151245117188e+00 2.247164547443389893e-01
1.944000000000000000e+03 7.681332397460937500e+01 1.532888770103454590e+00 1.912122475914657116e-03 8.061118125915527344e+00 2.418909072875976562e+00 1.477421075105667114e-01
1.945000000000000000e+03 7.555074310302734375e+01 1.255801916122436523e-01 1.370328757911920547e-02 7.717951774597167969e+00 2.319496393203735352e+00 1.905021667480468750e-01
1.946000000000000000e+03 7.409677124023437500e+01 -9.466981887817382812e+00 2.737495303153991699e-02 7.127499580383300781e+00 2.146462440490722656e+00 1.502197235822677612e-01
1.947000000000000000e+03 7.509344482421875000e+01 3.390757369995117188e+01 6.372668743133544922e-01 8.399948120117187500e+00 2.711164474487304688e+00 1.108649969100952148e+00
1.948000000000000000e+03 7.536529541015625000e+01 3.043008232116699219e+01 1.115773320198059082e+00 7.881607055664062500e+00 2.699214220046997070e+00 -2.121211141347885132e-01
1.949000000000000000e+03 7.552004241943359375e+01 -4.020326614379882812e+00 1.894787140190601349e-02 7.565824031829833984e+00 2.275431632995605469e+00 1.621886342763900757e-01
1.950000000000000000e+03 7.549918365478515625e+01 -5.396152019500732422e+00 1.952012069523334503e-02 7.516501903533935547e+00 2.260806560516357422e+00 1.520886421203613281e-01
1.951000000000000000e+03 7.553887176513671875e+01 -2.641117334365844727e+00 1.862563565373420715e-02 7.615077972412109375e+00 2.290111064910888672e+00 1.719091981649398804e-01
1.952000000000000000e+03 7.403678894042968750e+01 -1.650370979309082031e+01 1.756981946527957916e-02 7.001045703887939453e+00 2.105584621429443359e+00 9.583069384098052979e-02
1.953000000000000000e+03 7.680436706542968750e+01 2.961144208908081055e+00 -5.794753815280273557e-05 8.128992080688476562e+00 2.438680171966552734e+00 1.496910899877548218e-01
1.954000000000000000e+03 7.547801971435546875e+01 2.994711399078369141e+00 -1.243210164830088615e-03 7.813279628753662109e+00 2.343611001968383789e+00 2.119730859994888306e-01
1.955000000000000000e+03 7.701200103759765625e+01 8.645543098449707031e+00 -2.711528353393077850e-02 8.433219909667968750e+00 2.521831274032592773e+00 1.092481538653373718e-01
1.956000000000000000e+03 7.566011810302734375e+01 7.407766342163085938e+00 -3.398474678397178650e-02 8.049528121948242188e+00 2.404663085937500000e+00 1.862931251525878906e-01
1.957000000000000000e+03 7.541091918945312500e+01 -1.092398166656494141e+01 1.583541557192802429e-02 7.355548381805419922e+00 2.211415052413940430e+00 1.111973002552986145e-01
1.958000000000000000e+03 7.673654937744140625e+01 -1.237898254394531250e+01 7.255101110786199570e-03 7.573417663574218750e+00 2.274201869964599609e+00 7.157516479492187500e-02
1.959000000000000000e+03 7.539597320556640625e+01 -1.232140159606933594e+01 1.572382450103759766e-02 7.321629524230957031e+00 2.201205968856811523e+00 1.009577810764312744e-01
1.960000000000000000e+03 7.600742340087890625e+01 1.155185604095458984e+01 -9.513098746538162231e-02 8.314359664916992188e+00 2.465768575668334961e+00 7.687783986330032349e-02
1.961000000000000000e+03 7.540138244628906250e+01 -1.794003868103027344e+01 1.276553608477115631e-02 7.222575187683105469e+00 2.170602321624755859e+00 6.802331656217575073e-02
1.962000000000000000e+03 7.673741912841796875e+01 -1.936848640441894531e+01 6.130368448793888092e-03 7.441354751586914062e+00 2.234245538711547852e+00 4.453646391630172729e-02
1.963000000000000000e+03 7.542379760742187500e+01 -1.934317970275878906e+01 7.792075630277395248e-03 7.212884426116943359e+00 2.166203022003173828e+00 6.172494217753410339e-02
1.964000000000000000e+03 7.720771026611328125e+01 1.548680210113525391e+01 -1.154611408710479736e-01 8.622916221618652344e+00 2.552236557006835938e+00 -1.593730449676513672e-01
1.965000000000000000e+03 7.609603881835937500e+01 1.421723747253417969e+01 -1.600847095251083374e-01 8.423487663269042969e+00 2.479020833969116211e+00 -6.233062595129013062e-02
1.966000000000000000e+03 7.592115783691406250e+01 1.020139217376708984e+01 -6.675410270690917969e-02 8.239705085754394531e+00 2.451885461807250977e+00 1.261963546276092529e-01
1.967000000000000000e+03 7.400655364990234375e+01 -2.332254409790039062e+01 1.222751848399639130e-02 6.906569480895996094e+00 2.075639009475708008e+00 5.859163403511047363e-02
1.968000000000000000e+03 7.502988433837890625e+01 1.948548316955566406e+01 -4.527601301670074463e-01 8.534749984741210938e+00 2.424597024917602539e+00 -5.563185214996337891e-01
1.969000000000000000e+03 7.721651458740234375e+01 1.684195327758789062e+01 -1.326917111873626709e-01 8.590883255004882812e+00 2.537457466125488281e+00 -2.618315815925598145e-01
1.970000000000000000e+03 7.613006591796875000e+01 1.686430740356445312e+01 -2.388127893209457397e-01 8.479406356811523438e+00 2.472178220748901367e+00 -2.799907624721527100e-01
1.971000000000000000e+03 7.379819488525390625e+01 -2.593295288085937500e+01 1.829529367387294769e-02 6.861954212188720703e+00 2.064074754714965820e+00 5.287051945924758911e-02
1.972000000000000000e+03 7.656961822509765625e+01 -2.624525070190429688e+01 4.771858919411897659e-03 7.333232879638671875e+00 2.201401472091674805e+00 2.310242131352424622e-02
1.973000000000000000e+03 7.536034393310546875e+01 -2.340645980834960938e+01 9.597218595445156097e-03 7.156387805938720703e+00 2.149795532226562500e+00 4.257822409272193909e-02
1.974000000000000000e+03 7.735395050048828125e+01 2.644446945190429688e+01 1.269715428352355957e-01 7.176231384277343750e+00 2.190960884094238281e+00 -9.554461240768432617e-01
1.975000000000000000e+03 7.626818084716796875e+01 2.504597663879394531e+01 -3.585088253021240234e-02 8.023963928222656250e+00 2.396433830261230469e+00 -1.188731193542480469e+00
1.976000000000000000e+03 7.731488800048828125e+01 2.921785736083984375e+01 3.830282986164093018e-01 6.681680202484130859e+00 2.119412660598754883e+00 -5.017496347427368164e-01
1.977000000000000000e+03 7.631610870361328125e+01 2.776751327514648438e+01 4.534441828727722168e-01 7.563717842102050781e+00 2.405148506164550781e+00 -9.753654599189758301e-01
1.978000000000000000e+03 7.411855316162109375e+01 -3.590987777709960938e+01 1.100407168269157410e-02 6.869972229003906250e+00 2.064292907714843750e+00 -5.120526999235153198e-03
1.979000000000000000e+03 7.431688690185546875e+01 -3.211931228637695312e+01 1.534256851300597191e-03 6.889138221740722656e+00 2.067201852798461914e+00 1.355822477489709854e-02
1.980000000000000000e+03 7.723604583740234375e+01 2.232197761535644531e+01 -1.521698832511901855e-01 8.064786911010742188e+00 2.373785257339477539e+00 -8.349979519844055176e-01
1.981000000000000000e+03 7.610333251953125000e+01 2.091769409179687500e+01 -3.247089087963104248e-01 8.449420928955078125e+00 2.437413692474365234e+00 -7.778882980346679688e-01
1.982000000000000000e+03 7.341852569580078125e+01 -2.863770294189453125e+01 1.069086883217096329e-02 6.751763343811035156e+00 2.028736352920532227e+00 4.616367816925048828e-02
1.983000000000000000e+03 7.534541320800781250e+01 -3.527896118164062500e+01 -1.991233602166175842e-02 7.095420837402343750e+00 2.122652530670166016e+00 -1.380352396517992020e-02
1.984000000000000000e+03 7.632567596435546875e+01 -3.346346282958984375e+01 -1.462092157453298569e-02 7.267445087432861328e+00 2.175847291946411133e+00 8.087317459285259247e-03
1.985000000000000000e+03 7.456114959716796875e+01 -3.044495201110839844e+01 2.857510233297944069e-03 6.929382324218750000e+00 2.079671859741210938e+00 2.558890357613563538e-02
1.986000000000000000e+03 7.493676757812500000e+01 3.252652740478515625e+01 1.171865820884704590e+00 8.278738021850585938e+00 2.835181236267089844e+00 7.452624440193176270e-01
1.987000000000000000e+03 7.627747344970703125e+01 3.050317573547363281e+01 8.047833442687988281e-01 7.300766944885253906e+00 2.431665182113647461e+00 -1.693688929080963135e-01
1.988000000000000000e+03 7.634373474121093750e+01 2.639384269714355469e+01 1.898102313280105591e-01 7.782190322875976562e+00 2.391600131988525391e+00 -1.154825806617736816e+00
1.989000000000000000e+03 7.615718841552734375e+01 2.367477607727050781e+01 -1.910959482192993164e-01 8.232728958129882812e+00 2.412489891052246094e+00 -1.109383463859558105e+00
1.990000000000000000e+03 7.685071563720703125e+01 3.743393325805664062e+01 -1.663149595260620117e-01 7.869996070861816406e+00 2.311104297637939453e+00 8.024089932441711426e-01
1.991000000000000000e+03 2.475849533081054688e+01 1.123872089385986328e+01 2.231056801974773407e-03 -1.048110842704772949e+00 -3.137639462947845459e-01 -3.384405076503753662e-01
1.992000000000000000e+03 1.266086292266845703e+01 -2.260619544982910156e+01 8.716933079995214939e-04 -9.718222427181899548e-04 -3.003868550877086818e-05 4.557393913273699582e-05
1.993000000000000000e+03 1.248647117614746094e+01 -2.027587127685546875e+01 -1.066632685251533985e-03 -8.609706419520080090e-04 -5.782810039818286896e-04 8.800827199593186378e-04
1.994000000000000000e+03 2.292835617065429688e+01 -1.395396900177001953e+01 -3.605335205793380737e-02 -2.078274250030517578e+00 -6.342982649803161621e-01 -1.416154354810714722e-01
1.995000000000000000e+03 2.439269065856933594e+01 -1.391438865661621094e+01 -2.042241767048835754e-02 -1.803708195686340332e+00 -5.472391843795776367e-01 -1.406662762165069580e-01
1.996000000000000000e+03 2.475526618957519531e+01 9.827845573425292969e+00 3.232565941289067268e-04 -1.132894754409790039e+00 -3.397714495658874512e-01 -3.362166285514831543e-01
1.997000000000000000e+03 2.475675392150878906e+01 1.264530086517333984e+01 2.454698551446199417e-03 -9.639524817466735840e-01 -2.884493470191955566e-01 -3.402009010314941406e-01
1.998000000000000000e+03 5.804057121276855469e+00 -2.524755859375000000e+01 1.535511109977960587e-03 3.172197320964187384e-04 5.558192497119307518e-04 -5.654344568029046059e-04
1.999000000000000000e+03 1.172029781341552734e+01 -2.972767448425292969e+01 -4.580640234053134918e-04 -2.112472284352406859e-04 -2.007933653658255935e-04 1.287057384615764022e-04
2.000000000000000000e+03 2.585324096679687500e+01 2.307605361938476562e+01 -6.518638134002685547e-02 -3.245107233524322510e-01 -1.169091314077377319e-01 -3.173122406005859375e-01
2.001000000000000000e+03 2.482115936279296875e+01 2.142933273315429688e+01 -3.280379250645637512e-02 -4.364807009696960449e-01 -1.407853513956069946e-01 -2.953870892524719238e-01
2.002000000000000000e+03 2.476406860351562500e+01 1.405718612670898438e+01 -4.614448334905318916e-05 -8.761102557182312012e-01 -2.628469169139862061e-01 -3.408340513706207275e-01
2.003000000000000000e+03 2.357840538024902344e+01 1.846767044067382812e+01 -9.577695280313491821e-03 -6.484200954437255859e-01 -1.973993480205535889e-01 -2.473726421594619751e-01
2.004000000000000000e+03 2.486417198181152344e+01 1.843486976623535156e+01 -1.850778982043266296e-02 -6.001065969467163086e-01 -1.855843216180801392e-01 -3.310183882713317871e-01
2.005000000000000000e+03 2.481877899169921875e+01 1.694753265380859375e+01 -1.035118661820888519e-02 -6.945165395736694336e-01 -2.114603221416473389e-01 -3.376526832580566406e-01
2.006000000000000000e+03 9.900706291198730469e+00 -1.826065254211425781e+01 4.667894972953945398e-04 5.753996665589511395e-04 3.126567462459206581e-04 -3.624845994636416435e-04
2.007000000000000000e+03 2.303992843627929688e+01 2.959185218811035156e+01 -2.641252055764198303e-02 -8.133258670568466187e-02 -3.232353180646896362e-02 -6.723589450120925903e-02
2.008000000000000000e+03 2.500113105773925781e+01 3.053486824035644531e+01 -6.789437681436538696e-02 -6.638358533382415771e-02 -4.028338938951492310e-02 -9.360495954751968384e-02
2.009000000000000000e+03 2.353417205810546875e+01 8.488920211791992188e+00 -6.760213989764451981e-03 -1.353113293647766113e+00 -4.079620540142059326e-01 -2.609896659851074219e-01
2.010000000000000000e+03 2.474520492553710938e+01 8.418492317199707031e+00 -8.983303792774677277e-03 -1.208524107933044434e+00 -3.652522265911102295e-01 -3.323002755641937256e-01
2.011000000000000000e+03 2.422301483154296875e+01 2.702564430236816406e+01 -4.793152958154678345e-02 -1.733924895524978638e-01 -6.639720499515533447e-02 -1.584738492965698242e-01
2.012000000000000000e+03 2.450101470947265625e+01 2.432944107055664062e+01 -4.505717381834983826e-02 -2.869571149349212646e-01 -9.960428625345230103e-02 -2.280228883028030396e-01
2.013000000000000000e+03 2.435956954956054688e+01 2.570447349548339844e+01 -4.719712585210800171e-02 -2.269724458456039429e-01 -8.225087076425552368e-02 -1.934309452772140503e-01
2.014000000000000000e+03 2.409953498840332031e+01 2.829878807067871094e+01 -4.782566055655479431e-02 -1.282879561185836792e-01 -5.283408612012863159e-02 -1.250159591436386108e-01
2.015000000000000000e+03 2.583380699157714844e+01 3.046210479736328125e+01 -9.138303250074386597e-02 -6.543998420238494873e-02 -4.704690352082252502e-02 -1.144353970885276794e-01
2.016000000000000000e+03 2.473118400573730469e+01 7.018630504608154297e+00 -1.901952922344207764e-02 -1.280419111251831055e+00 -3.898316025733947754e-01 -3.235229849815368652e-01
2.017000000000000000e+03 7.271139526367187500e+01 4.124796676635742188e+01 -1.359565138816833496e+00 9.775056838989257812e+00 2.524647712707519531e+00 2.466049492359161377e-01
2.018000000000000000e+03 1.055352306365966797e+01 -2.095163345336914062e+01 -1.028803293593227863e-03 -2.355399483349174261e-04 -3.793029754888266325e-04 3.506735374685376883e-04
2.019000000000000000e+03 3.085475921630859375e+00 -1.744761657714843750e+01 3.993833088316023350e-04 -4.206951416563242674e-05 1.071941369445994496e-04 -2.175432746298611164e-04
2.020000000000000000e+03 4.166390419006347656e+00 -1.458383846282958984e+01 -4.248160403221845627e-04 -1.440022060705814511e-05 -1.317648711847141385e-04 -1.125209223573619965e-06
2.021000000000000000e+03 4.569707393646240234e+00 2.159949302673339844e+01 -8.531947969458997250e-06 -5.330974417461220582e-08 -2.575577354946290143e-06 -4.760269689541019034e-07
2.022000000000000000e+03 3.173768758773803711e+00 2.028123283386230469e+01 -7.217828624561661854e-06 1.592745917378124432e-07 -2.117566054948838428e-06 -2.924917055224796059e-07
2.023000000000000000e+03 4.497237205505371094e+00 2.303162384033203125e+01 9.189117008645553142e-06 -6.275482178352831397e-07 2.568470790720311925e-06 1.274616920454718638e-06
2.024000000000000000e+03 4.307559967041015625e+00 -1.729645538330078125e+01 -5.491377087309956551e-04 7.215111691039055586e-05 -1.430959819117560983e-04 4.942117084283381701e-05
2.025000000000000000e+03 4.230091571807861328e+00 -1.595268344879150391e+01 3.780945262406021357e-04 -2.464560202497523278e-05 1.060346767189912498e-04 -1.427598181180655956e-04
2.026000000000000000e+03 5.772606849670410156e+00 2.707167816162109375e+01 1.141280608862871304e-05 -7.860793402869603597e-07 3.188018126820679754e-06 2.172508402509265579e-06
2.027000000000000000e+03 4.640723228454589844e+00 2.996237754821777344e+01 -1.110644643631530926e-05 -2.293831187216710532e-07 -3.400748710191692226e-06 -3.322787961224094033e-06
2.028000000000000000e+03 4.628405570983886719e+00 -2.817333412170410156e+01 1.117782201617956161e-03 -1.875255402410402894e-04 2.790769794955849648e-04 1.044500037096440792e-03
2.029000000000000000e+03 3.242031574249267578e+00 -2.429864501953125000e+01 -3.397343971300870180e-04 -5.379064532462507486e-05 -1.180575127364136279e-04 6.344213034026324749e-05
2.030000000000000000e+03 4.575604915618896484e+00 -2.270451164245605469e+01 -6.123502971604466438e-04 1.360497262794524431e-04 -1.428901596227660775e-04 1.176048499473836273e-05
2.031000000000000000e+03 4.227764129638671875e+00 1.741493988037109375e+01 6.349811428663088009e-06 2.782297485737217357e-07 1.988412350328871980e-06 -1.995894223227878683e-07
2.032000000000000000e+03 4.300299644470214844e+00 1.876055526733398438e+01 -6.679375474050175399e-06 -3.706954387894256797e-08 -2.014933443206246011e-06 4.727065743281855248e-07
2.033000000000000000e+03 4.482413768768310547e+00 2.015370941162109375e+01 7.442076821462251246e-06 -6.188627139636082575e-07 2.046964254986960441e-06 -4.181601696018333314e-07
2.034000000000000000e+03 4.203104496002197266e+00 1.606966018676757812e+01 -6.031401881045894697e-06 -3.171883804498065729e-07 -1.904577061395684723e-06 1.183048823349963641e-07
2.035000000000000000e+03 4.546823978424072266e+00 -2.132217025756835938e+01 4.496548790484666824e-04 1.622748677618801594e-04 1.835789298638701439e-04 -3.656947810668498278e-04
2.036000000000000000e+03 4.388039112091064453e+00 -1.862028503417968750e+01 3.896492708008736372e-04 6.113050767453387380e-05 1.352339313598349690e-04 -2.957616525236517191e-04
2.037000000000000000e+03 3.190443277359008789e+00 2.590052223205566406e+01 -8.633020115667022765e-06 5.884552365387207828e-07 -2.413369657006114721e-06 -1.728731149341911077e-06
2.038000000000000000e+03 4.455624103546142578e+00 2.580777359008789062e+01 9.917363058775663376e-06 -8.483154942950932309e-07 2.720714292081538588e-06 2.208841806350392289e-06
2.039000000000000000e+03 4.457029819488525391e+00 2.442894744873046875e+01 -9.513394616078585386e-06 7.589834467580658384e-07 -2.626323521326412447e-06 -1.822405238272040151e-06
2.040000000000000000e+03 9.751022338867187500e+00 -2.305334472656250000e+01 -1.712069264613091946e-03 7.899606134742498398e-04 -2.766325778793543577e-04 5.308776162564754486e-04
2.041000000000000000e+03 4.537692546844482422e+00 -2.546207046508789062e+01 -2.679488097783178091e-04 2.019634703174233437e-04 -1.979559601750224829e-05 2.934348303824663162e-04
2.042000000000000000e+03 3.007897853851318359e+00 1.471695232391357422e+01 -5.444205271487589926e-06 -3.673128219361387892e-07 -1.743455413816263899e-06 3.645113508810027270e-07
2.043000000000000000e+03 4.211397171020507812e+00 1.327415275573730469e+01 -4.976456693839281797e-06 -5.343450197869969998e-07 -1.653240474297490437e-06 2.482333059106167639e-07
2.044000000000000000e+03 4.203248023986816406e+00 1.469438076019287109e+01 5.545351541513809934e-06 4.019412642719544237e-07 1.784187816156190820e-06 -1.863592729023366701e-07
2.045000000000000000e+03 4.020530700683593750e+00 -1.046997928619384766e+01 2.843650581780821085e-04 5.401926318882033229e-05 1.015153029584325850e-04 -5.931183841312304139e-05
2.046000000000000000e+03 3.918131113052368164e+00 -9.109834671020507812e+00 -2.695448056329041719e-04 -4.527973578660748899e-05 -9.444736497243866324e-05 3.565163206076249480e-05
2.047000000000000000e+03 4.122466087341308594e+00 -1.320828533172607422e+01 3.134369326289743185e-04 7.727805495960637927e-05 1.172144911834038794e-04 -6.925237539689987898e-05
2.048000000000000000e+03 4.555626392364501953e+00 2.856289482116699219e+01 1.056614291883306578e-05 -4.223089433708082652e-07 3.043150172743480653e-06 3.194517148585873656e-06
2.049000000000000000e+03 4.772581577301025391e+00 3.607031631469726562e+01 2.084085735987173393e-06 -1.168108701676828787e-05 -2.879100520658539608e-06 1.131109002017183229e-06
2.050000000000000000e+03 3.332680702209472656e+00 3.583413696289062500e+01 3.194676992279710248e-06 2.545318011470953934e-06 1.721998501125199255e-06 -3.580534894354059361e-06
2.051000000000000000e+03 3.426981449127197266e+00 -3.114446449279785156e+01 2.268506214022636414e-03 7.703069131821393967e-04 9.116439032368361950e-04 2.668861066922545433e-03
2.052000000000000000e+03 4.684147834777832031e+00 -2.951604843139648438e+01 2.717349911108613014e-03 1.686607720330357552e-04 8.658032165840268135e-04 1.383772934786975384e-03
2.053000000000000000e+03 5.442170143127441406e+00 1.179295158386230469e+01 -4.914365490549243987e-06 -5.893369348086707760e-07 -1.651110778766451403e-06 1.070798347768686654e-07
2.054000000000000000e+03 4.083921909332275391e+00 -1.183725261688232422e+01 -3.359380934853106737e-04 -8.504091238137334585e-05 -1.262937003048136830e-04 3.745282810996286571e-05
2.055000000000000000e+03 5.560690879821777344e+00 -6.092559337615966797e+00 8.744799561100080609e-05 1.129862430389039218e-04 6.013027086737565696e-05 5.470262476592324674e-05
2.056000000000000000e+03 4.194815158843994141e+00 1.182392215728759766e+01 4.457938757695956156e-06 6.105635748099302873e-07 1.520550654277030844e-06 -1.650388554708115407e-07
2.057000000000000000e+03 6.117371082305908203e+00 3.126765251159667969e+01 -1.433530542271910235e-05 -4.161462356933043338e-07 -4.425435236043995246e-06 -3.608806991906021722e-06
2.058000000000000000e+03 3.423120021820068359e+00 3.443771743774414062e+01 -2.319133500350289978e-06 -6.867685442557558417e-06 -2.756045660134986974e-06 -2.478493854596308665e-08
2.059000000000000000e+03 4.888307571411132812e+00 3.448080825805664062e+01 5.134210823598550633e-06 7.149402335926424712e-06 3.685084038806962781e-06 6.127811047917930409e-06
2.060000000000000000e+03 4.884974956512451172e+00 -3.211140060424804688e+01 5.071911960840225220e-03 -9.219617932103574276e-04 1.244985149241983891e-03 4.156819079071283340e-03
2.061000000000000000e+03 6.056246757507324219e+00 -3.171679687500000000e+01 4.911459516733884811e-03 -2.099019940942525864e-03 8.437318610958755016e-04 3.744636662304401398e-03
2.062000000000000000e+03 3.938031196594238281e+00 8.931825637817382812e+00 3.743268052858184092e-06 3.216830464225495234e-07 1.219485284309484996e-06 -1.752349731987123960e-07
2.063000000000000000e+03 3.528494596481323242e+00 -5.392381668090820312e+00 1.456956233596429229e-04 1.179552054964005947e-04 7.909525447757914662e-05 2.740833042480517179e-05
2.064000000000000000e+03 2.705961465835571289e+00 6.265954971313476562e+00 -3.843101694656070322e-06 -1.217152203025761992e-06 -1.518076146567182150e-06 -4.985163855053542648e-07
2.065000000000000000e+03 5.996767997741699219e+00 5.049584388732910156e+00 5.940214009569899645e-07 1.634280579310143366e-06 6.684905997644818854e-07 5.939215341754788824e-09
2.066000000000000000e+03 1.318769645690917969e+01 -2.862139129638671875e+01 -2.348190871998667717e-03 -1.051721628755331039e-03 -1.019973773509263992e-03 1.013652305118739605e-03
2.067000000000000000e+03 1.179428768157958984e+01 -2.714658737182617188e+01 -1.084147836081683636e-03 -2.103362785419449210e-04 -3.883452154695987701e-04 3.854121896438300610e-04
2.068000000000000000e+03 6.573233604431152344e+00 -3.604982757568359375e+01 4.526942037045955658e-03 -6.200135219842195511e-03 -5.019579548388719559e-04 1.487610302865505219e-02
2.069000000000000000e+03 5.967830657958984375e+00 3.833988952636718750e+01 5.739272637583781034e-06 -1.096907453757012263e-05 -1.568940433571697213e-06 2.579208967290469445e-06
2.070000000000000000e+03 2.278923416137695312e+01 -2.232779693603515625e+01 2.978633530437946320e-02 -2.090478181838989258e+00 -6.182075738906860352e-01 -1.218534708023071289e-01
2.071000000000000000e+03 2.120619010925292969e+01 -2.374603462219238281e+01 2.737103402614593506e-02 -2.383378028869628906e+00 -7.068020701408386230e-01 -7.981197535991668701e-02
2.072000000000000000e+03 1.726568603515625000e+01 3.912026214599609375e+01 8.311127021443098783e-05 3.345446384628303349e-05 3.496972203720360994e-05 8.326510578626766801e-05
2.073000000000000000e+03 1.119415855407714844e+01 3.871269989013671875e+01 -3.004130849149078131e-05 -2.739628371273283847e-06 -9.834280717768706381e-06 -1.138679272116860375e-05
2.074000000000000000e+03 2.439650344848632812e+01 -1.530650424957275391e+01 -6.161708384752273560e-03 -1.814335823059082031e+00 -5.461492538452148438e-01 -1.273034662008285522e-01
2.075000000000000000e+03 4.908527374267578125e+01 3.628351974487304688e+01 -3.248044103384017944e-02 -1.626866459846496582e-01 -5.855012685060501099e-02 3.081559538841247559e-01
2.076000000000000000e+03 5.066626358032226562e+01 3.642737197875976562e+01 -1.929394155740737915e-02 -2.052872180938720703e-01 -6.737434864044189453e-02 3.643657863140106201e-01
2.077000000000000000e+03 2.348743438720703125e+01 4.234451770782470703e+00 -4.711659625172615051e-02 -1.575840353965759277e+00 -4.868870973587036133e-01 -2.398523092269897461e-01
2.078000000000000000e+03 2.481874656677246094e+01 1.414821863174438477e+00 -2.521091373637318611e-03 -1.478662133216857910e+00 -4.443549513816833496e-01 -2.633852958679199219e-01
2.079000000000000000e+03 2.471214103698730469e+01 5.618285179138183594e+00 -3.046399541199207306e-02 -1.342116355895996094e+00 -4.117740988731384277e-01 -3.088307082653045654e-01
2.080000000000000000e+03 3.463907623291015625e+01 4.031497573852539062e+01 -2.738566836342215538e-03 -1.296244561672210693e-02 -4.710303619503974915e-03 4.783555632457137108e-04
2.081000000000000000e+03 1.264789009094238281e+01 3.600204467773437500e+01 -2.932244024123065174e-05 -1.743241682561347261e-06 -9.319704986410215497e-06 3.077652991123613901e-06
2.082000000000000000e+03 7.498205661773681641e+00 3.114851379394531250e+01 1.743513894325587898e-05 -2.482711636275780620e-07 5.156060524313943461e-06 3.154542810079874471e-06
2.083000000000000000e+03 2.438254737854003906e+01 -1.113399410247802734e+01 -1.516711898148059845e-02 -1.790452599525451660e+00 -5.416859388351440430e-01 -1.776314675807952881e-01
2.084000000000000000e+03 2.266248130798339844e+01 -2.912658119201660156e+01 8.239575661718845367e-03 -2.205105066299438477e+00 -6.590596437454223633e-01 -9.766019880771636963e-02
2.085000000000000000e+03 2.461956024169921875e+01 -4.354046344757080078e+00 3.224211931228637695e-02 -1.652501225471496582e+00 -4.860777258872985840e-01 -2.229702025651931763e-01
2.086000000000000000e+03 2.941492843627929688e+01 4.088366699218750000e+01 -2.487388672307133675e-03 1.318479771725833416e-03 -3.506726934574544430e-04 -1.216564094647765160e-03
2.087000000000000000e+03 2.180217933654785156e+01 4.038909912109375000e+01 -1.575039204908534884e-04 3.682819078676402569e-04 6.323339039226993918e-05 -3.559153992682695389e-04
2.088000000000000000e+03 1.212567806243896484e+01 1.283436203002929688e+01 -3.918148195225512609e-06 -7.117622544683399610e-07 -1.388973146276839543e-06 -1.966768650163430721e-06
2.089000000000000000e+03 1.107579898834228516e+01 2.791151809692382812e+01 -1.114647511712973937e-05 -2.791755377984372899e-06 -4.181469194008968771e-06 -2.109987008225289173e-06
2.090000000000000000e+03 7.090123653411865234e+00 1.071304225921630859e+01 -3.067176521653891541e-06 -1.538003516543540172e-06 -1.381553943247126881e-06 -1.816528538256534375e-06
2.091000000000000000e+03 2.281851577758789062e+01 -2.092443275451660156e+01 4.216147586703300476e-02 -2.086847066879272461e+00 -6.134057044982910156e-01 -1.143466606736183167e-01
2.092000000000000000e+03 1.081173896789550781e+01 -3.339045333862304688e+01 1.568438299000263214e-02 -3.255410119891166687e-03 3.728691721335053444e-03 -6.788318045437335968e-03
2.093000000000000000e+03 1.217877197265625000e+01 -3.390694427490234375e+01 1.894470676779747009e-02 1.097900443710386753e-03 6.012781988829374313e-03 -1.319095771759748459e-02
2.094000000000000000e+03 2.420658493041992188e+01 -2.521128082275390625e+01 3.298245370388031006e-02 -1.864879131317138672e+00 -5.495690107345581055e-01 -1.146917194128036499e-01
2.095000000000000000e+03 2.261273193359375000e+01 -2.653736686706542969e+01 2.426916360855102539e-02 -2.164719104766845703e+00 -6.421349644660949707e-01 -9.816861897706985474e-02
2.096000000000000000e+03 1.209516906738281250e+01 2.417837333679199219e+01 -9.131901606451719999e-06 -3.101444292497035349e-07 -2.832613972714170814e-06 -8.182825581570796203e-07
2.097000000000000000e+03 3.234317779541015625e+01 4.145210266113281250e+01 -3.767066635191440582e-03 -4.748754203319549561e-03 -2.554746111854910851e-03 4.475837631616741419e-04
2.098000000000000000e+03 6.543000030517578125e+01 3.296433258056640625e+01 1.854273676872253418e+00 5.630804538726806641e+00 2.245523452758789062e+00 -4.682045936584472656e+00
2.099000000000000000e+03 6.593685913085937500e+01 3.273795700073242188e+01 1.929659485816955566e+00 8.476669311523437500e+00 3.121898651123046875e+00 -5.833564281463623047e+00
2.100000000000000000e+03 6.584411621093750000e+01 3.298131561279296875e+01 1.581679463386535645e+00 8.132616996765136719e+00 2.914288759231567383e+00 -5.309626579284667969e+00
2.101000000000000000e+03 6.594688415527343750e+01 2.920699119567871094e+01 1.961480855941772461e+00 8.098155021667480469e+00 3.017890930175781250e+00 6.438757419586181641e+00
2.102000000000000000e+03 6.702834320068359375e+01 2.873094177246093750e+01 -4.064670503139495850e-01 1.584584426879882812e+01 4.631813049316406250e+00 4.077607154846191406e+00
2.103000000000000000e+03 6.634548187255859375e+01 3.308488082885742188e+01 7.524508833885192871e-01 1.147015666961669922e+01 3.666782379150390625e+00 -5.408317565917968750e+00
2.104000000000000000e+03 6.860225677490234375e+01 2.995656585693359375e+01 6.279955863952636719e+00 1.682400703430175781e+01 6.931189060211181641e+00 -2.397222757339477539e+00
2.105000000000000000e+03 6.859127807617187500e+01 2.939602279663085938e+01 3.276068449020385742e+00 1.684603309631347656e+01 6.036630630493164062e+00 -1.916413426399230957e+00
2.106000000000000000e+03 6.800320434570312500e+01 2.890860557556152344e+01 7.265399098396301270e-01 1.777922439575195312e+01 5.551729202270507812e+00 -1.009074971079826355e-01
2.107000000000000000e+03 6.817456054687500000e+01 2.904611206054687500e+01 1.383347392082214355e+00 1.780281066894531250e+01 5.755847454071044922e+00 -8.050646185874938965e-01
2.108000000000000000e+03 6.896269226074218750e+01 2.953268241882324219e+01 4.363996028900146484e+00 1.538746547698974609e+01 5.925438404083251953e+00 -2.108985185623168945e+00
2.109000000000000000e+03 6.890128326416015625e+01 3.257037353515625000e+01 3.027768373489379883e+00 1.568471240997314453e+01 5.613744258880615234e+00 2.080837965011596680e+00
2.110000000000000000e+03 6.821002960205078125e+01 3.270948410034179688e+01 1.554920077323913574e+00 1.770334625244140625e+01 5.777480125427246094e+00 1.033562541007995605e+00
2.111000000000000000e+03 6.912826538085937500e+01 3.196962547302246094e+01 5.187160015106201172e+00 1.486123275756835938e+01 6.014517784118652344e+00 2.231858015060424805e+00
2.112000000000000000e+03 6.735251617431640625e+01 3.278792190551757812e+01 7.194177806377410889e-02 1.787665176391601562e+01 5.384578227996826172e+00 -2.345607995986938477e+00
2.113000000000000000e+03 6.480963897705078125e+01 2.841616058349609375e+01 9.380161762237548828e-01 3.804706573486328125e+00 1.422816872596740723e+00 4.018119812011718750e+00
2.114000000000000000e+03 6.452924346923828125e+01 3.300099945068359375e+01 1.402800798416137695e+00 2.587180137634277344e+00 1.196994304656982422e+00 -2.798370122909545898e+00
2.115000000000000000e+03 6.330915832519531250e+01 2.796007537841796875e+01 1.581359356641769409e-01 1.683037161827087402e+00 5.523518919944763184e-01 2.325171709060668945e+00
2.116000000000000000e+03 6.280846023559570312e+01 3.490371704101562500e+01 7.416042089462280273e-01 2.248645067214965820e+00 8.970747590065002441e-01 -1.593100786209106445e+00
2.117000000000000000e+03 6.405780029296875000e+01 3.373918533325195312e+01 1.148800730705261230e+00 2.824014902114868164e+00 1.191844701766967773e+00 -2.545943021774291992e+00
2.118000000000000000e+03 5.282782745361328125e+01 2.753107643127441406e+01 -1.758921265602111816e+00 5.679822713136672974e-02 -5.106369256973266602e-01 -2.316066473722457886e-01
2.119000000000000000e+03 6.564311981201171875e+01 2.811024665832519531e+01 5.633950233459472656e-01 7.518359184265136719e+00 2.424526214599609375e+00 5.102836132049560547e+00
2.120000000000000000e+03 6.513952636718750000e+01 2.862154197692871094e+01 1.202312588691711426e+00 4.661713123321533203e+00 1.759207725524902344e+00 4.539063930511474609e+00
2.121000000000000000e+03 6.403684997558593750e+01 3.564922714233398438e+01 5.485569834709167480e-01 4.525882244110107422e+00 1.522331714630126953e+00 -2.471810340881347656e+00
2.122000000000000000e+03 6.194534301757812500e+01 3.512012863159179688e+01 5.431160926818847656e-01 1.408125162124633789e+00 5.853723883628845215e-01 -1.022559523582458496e+00
2.123000000000000000e+03 6.167386627197265625e+01 2.764043617248535156e+01 -5.721506476402282715e-01 7.946230173110961914e-01 6.674171239137649536e-02 1.293542504310607910e+00
2.124000000000000000e+03 5.577627563476562500e+01 2.743592453002929688e+01 -1.728033542633056641e+00 8.743990957736968994e-02 -4.921780824661254883e-01 -4.317877069115638733e-02
2.125000000000000000e+03 5.955716323852539062e+01 2.805787277221679688e+01 -1.667083859443664551e+00 1.912629157304763794e-01 -4.427462816238403320e-01 3.832655847072601318e-01
2.126000000000000000e+03 6.228480529785156250e+01 2.773664093017578125e+01 -3.275980055332183838e-01 1.035784959793090820e+00 2.124560773372650146e-01 1.610643029212951660e+00
2.127000000000000000e+03 6.375231552124023438e+01 3.489442443847656250e+01 7.733938694000244141e-01 3.561343669891357422e+00 1.300421237945556641e+00 -2.295710802078247070e+00
2.128000000000000000e+03 6.182328796386718750e+01 2.655551719665527344e+01 -6.706456840038299561e-02 1.519245505332946777e+00 4.356543123722076416e-01 1.795456290245056152e+00
2.129000000000000000e+03 2.723512649536132812e+01 3.144119453430175781e+01 -1.272269487380981445e-01 -3.529391065239906311e-02 -4.875625669956207275e-02 -1.121369972825050354e-01
2.130000000000000000e+03 2.706375885009765625e+01 3.217779159545898438e+01 -1.098475083708763123e-01 -2.493087202310562134e-02 -4.043351486325263977e-02 -8.463961631059646606e-02
2.131000000000000000e+03 2.856199264526367188e+01 3.187653732299804688e+01 -1.645429134368896484e-01 -1.703200116753578186e-02 -5.447247251868247986e-02 -1.164948344230651855e-01
2.132000000000000000e+03 3.733285665512084961e+00 4.539926528930664062e+00 2.980909357575001195e-06 -1.145091232501727063e-06 5.507454261532984674e-07 -2.614471213746583089e-06
2.133000000000000000e+03 4.506317615509033203e+00 4.409930706024169922e+00 -2.282168452438781969e-06 -4.531358683834696421e-07 -8.205913104575301986e-07 1.390731767969555221e-06
2.134000000000000000e+03 6.192806625366210938e+01 3.596017074584960938e+01 7.565248012542724609e-01 1.958477258682250977e+00 8.145006299018859863e-01 -1.210581183433532715e+00
2.135000000000000000e+03 6.721521854400634766e+00 4.199862957000732422e+00 1.374151111122046132e-06 1.020865624923317228e-06 7.185050208136090077e-07 2.677079180557484506e-07
2.136000000000000000e+03 5.349439144134521484e+00 6.052000045776367188e+00 -8.658686567741824547e-08 1.325358880421845242e-06 3.716315859492169693e-07 -1.304723809880670160e-06
2.137000000000000000e+03 2.568286514282226562e+01 3.192800140380859375e+01 -7.266804575920104980e-02 -3.711471334099769592e-02 -3.293482586741447449e-02 -6.935899704694747925e-02
2.138000000000000000e+03 2.403555107116699219e+01 2.954174613952636719e+01 -4.540116339921951294e-02 -9.042432159185409546e-02 -4.074764624238014221e-02 -9.358623623847961426e-02
2.139000000000000000e+03 5.267367362976074219e+00 5.154057502746582031e+00 -6.644007726208656095e-07 -1.505424961578682996e-06 -6.509476975224970374e-07 1.192962372442707419e-06
2.140000000000000000e+03 8.891084671020507812e+00 5.588295936584472656e+00 -2.631155894050607458e-06 -5.624225991596176755e-07 -9.580735422787256539e-07 -1.201621785185125191e-06
2.141000000000000000e+03 6.423446655273437500e+01 3.433909606933593750e+01 8.834509253501892090e-01 3.892473697662353516e+00 1.432777404785156250e+00 -2.763370275497436523e+00
2.142000000000000000e+03 7.442903041839599609e+00 4.158057212829589844e+00 -1.371778239445120562e-06 -8.295490943055483513e-07 -6.603982001252006739e-07 -3.822356404725724133e-07
2.143000000000000000e+03 8.196140289306640625e+00 4.851573467254638672e+00 -1.907592150018899702e-06 -5.294353968565701507e-07 -7.311082868000085000e-07 -1.002183466880524065e-06
2.144000000000000000e+03 3.040027427673339844e+01 3.083586883544921875e+01 -2.628527581691741943e-01 -7.112484890967607498e-03 -8.098956942558288574e-02 -1.873781532049179077e-01
2.145000000000000000e+03 3.117021560668945312e+01 3.073020553588867188e+01 -3.013060688972473145e-01 1.799645018763840199e-03 -8.985193073749542236e-02 -2.011115998029708862e-01
2.146000000000000000e+03 8.755294799804687500e+00 -4.252086639404296875e+00 -1.310900988755747676e-04 -1.036861212924122810e-04 -7.043287041597068310e-05 7.676194218220189214e-05
2.147000000000000000e+03 2.958340072631835938e+01 3.097845268249511719e+01 -2.222451865673065186e-01 -1.641328074038028717e-02 -7.159753888845443726e-02 -1.688099503517150879e-01
2.148000000000000000e+03 2.833550262451171875e+01 3.244785690307617188e+01 -1.485679894685745239e-01 -1.099991519004106522e-02 -4.787037149071693420e-02 -9.412706643342971802e-02
2.149000000000000000e+03 3.263404083251953125e+01 3.052791976928710938e+01 -3.813762664794921875e-01 1.794083788990974426e-02 -1.090306267142295837e-01 -2.269757091999053955e-01
2.150000000000000000e+03 3.206204223632812500e+01 3.132848167419433594e+01 -3.401414453983306885e-01 1.757967285811901093e-02 -9.676853567361831665e-02 -1.777309477329254150e-01
2.151000000000000000e+03 6.029235839843750000e+01 2.747191619873046875e+01 -1.016802191734313965e+00 4.583784937858581543e-01 -1.675270944833755493e-01 7.504655718803405762e-01
2.152000000000000000e+03 3.335425949096679688e+01 3.041919708251953125e+01 -4.243518114089965820e-01 2.607696503400802612e-02 -1.194824576377868652e-01 -2.393088340759277344e-01
2.153000000000000000e+03 7.972540378570556641e+00 -4.224109172821044922e+00 1.279308489756658673e-04 1.032633663271553814e-04 6.935826240805909038e-05 -3.718244988704100251e-05
2.154000000000000000e+03 1.158861351013183594e+01 -9.113272666931152344e+00 -2.263380592921748757e-04 -1.202706043841317296e-04 -1.039825947373174131e-04 1.179537139250896871e-04
2.155000000000000000e+03 3.984907150268554688e+01 2.921846771240234375e+01 -8.920329213142395020e-01 7.943995296955108643e-02 -2.437778860330581665e-01 -3.311984539031982422e-01
2.156000000000000000e+03 3.407633209228515625e+01 3.029947280883789062e+01 -4.698429107666015625e-01 3.320110961794853210e-02 -1.309925466775894165e-01 -2.514097988605499268e-01
2.157000000000000000e+03 3.716216659545898438e+01 3.040882682800292969e+01 -6.953743100166320801e-01 5.987794324755668640e-02 -1.906489133834838867e-01 -2.431866824626922607e-01
2.158000000000000000e+03 3.912847900390625000e+01 2.934822273254394531e+01 -8.347967863082885742e-01 7.629756629467010498e-02 -2.275497764348983765e-01 -3.231840729713439941e-01
2.159000000000000000e+03 4.056731414794921875e+01 2.908259391784667969e+01 -9.490212798118591309e-01 8.308622241020202637e-02 -2.597805261611938477e-01 -3.384294807910919189e-01
2.160000000000000000e+03 3.643414306640625000e+01 3.054862213134765625e+01 -6.381457448005676270e-01 5.425115302205085754e-02 -1.751683801412582397e-01 -2.357043325901031494e-01
2.161000000000000000e+03 3.479695510864257812e+01 3.016991615295410156e+01 -5.169821381568908691e-01 4.082339629530906677e-02 -1.428476274013519287e-01 -2.633084058761596680e-01
2.162000000000000000e+03 7.107151985168457031e+00 -5.008884429931640625e+00 1.921991497511044145e-04 3.985204602940939367e-05 6.961535837035626173e-05 -2.974567905766889453e-05
2.163000000000000000e+03 3.512963294982910156e+00 -4.493721008300781250e+00 -1.835080765886232257e-04 -1.319637813139706850e-04 -9.464155300520360470e-05 -1.901135401567444205e-04
2.164000000000000000e+03 4.275227737426757812e+01 2.864288330078125000e+01 -1.118856549263000488e+00 8.706092834472656250e-02 -3.095386922359466553e-01 -3.611399829387664795e-01
2.165000000000000000e+03 4.551441192626953125e+01 2.740296745300292969e+01 -1.201334118843078613e+00 9.688080847263336182e-02 -3.313359916210174561e-01 -4.388373494148254395e-01
2.166000000000000000e+03 3.892421340942382812e+01 2.866624450683593750e+01 -7.863671183586120605e-01 7.645522803068161011e-02 -2.129735797643661499e-01 -3.810549974441528320e-01
2.167000000000000000e+03 3.551888275146484375e+01 3.003281211853027344e+01 -5.665056705474853516e-01 4.735515639185905457e-02 -1.557451486587524414e-01 -2.749097347259521484e-01
2.168000000000000000e+03 5.726250457763671875e+01 2.745402145385742188e+01 -1.627525329589843750e+00 1.322611719369888306e-01 -4.485792517662048340e-01 1.051141321659088135e-01
2.169000000000000000e+03 5.877375030517578125e+01 2.742474365234375000e+01 -1.368281602859497070e+00 2.582038938999176025e-01 -3.330233395099639893e-01 3.586234450340270996e-01
2.170000000000000000e+03 5.499186325073242188e+01 2.727482795715332031e+01 -1.654688715934753418e+00 8.808714151382446289e-02 -4.699804484844207764e-01 -1.109819561243057251e-01
2.171000000000000000e+03 4.128693008422851562e+01 2.894024848937988281e+01 -1.006126403808593750e+00 8.462785184383392334e-02 -2.764495611190795898e-01 -3.463161587715148926e-01
2.172000000000000000e+03 4.976198959350585938e+01 2.809858131408691406e+01 -1.725510954856872559e+00 5.487796291708946228e-02 -5.011898875236511230e-01 -2.935286462306976318e-01
2.173000000000000000e+03 5.722925186157226562e+01 2.680195426940917969e+01 -1.260895013809204102e+00 2.283204346895217896e-01 -3.097723722457885742e-01 1.765366792678833008e-01
2.174000000000000000e+03 4.422765731811523438e+01 2.834910011291503906e+01 -1.228159546852111816e+00 8.784954994916915894e-02 -3.420929908752441406e-01 -3.728722333908081055e-01
2.175000000000000000e+03 7.170238018035888672e+00 -4.187519073486328125e+00 -1.436046586604788899e-04 -1.094447652576491237e-04 -7.591483154101297259e-05 1.039777998812496662e-05
2.176000000000000000e+03 1.252310848236083984e+01 6.676003932952880859e+00 2.990764642163412645e-06 3.067956697577756131e-07 9.892680736811598763e-07 1.664720059579849476e-07
2.177000000000000000e+03 4.497856140136718750e+01 2.820350456237792969e+01 -1.279536843299865723e+00 8.800490945577621460e-02 -3.574595749378204346e-01 -3.764339685440063477e-01
2.178000000000000000e+03 6.331476688385009766e+00 -4.108344554901123047e+00 2.231133985333144665e-04 1.221364655066281557e-04 1.035749592119827867e-04 1.543204598419833928e-05
2.179000000000000000e+03 4.201639556884765625e+01 2.879171752929687500e+01 -1.062035679817199707e+00 8.672629296779632568e-02 -2.925927937030792236e-01 -3.536644876003265381e-01
2.180000000000000000e+03 5.801203918457031250e+01 2.743757247924804688e+01 -1.517757534980773926e+00 1.805412173271179199e-01 -4.011648893356323242e-01 2.144486010074615479e-01
2.181000000000000000e+03 1.262550067901611328e+01 -5.421328544616699219e+00 -2.618104626890271902e-04 -1.277042429137509316e-05 -8.237426663981750607e-05 1.076003536581993103e-04
2.182000000000000000e+03 4.748166275024414062e+01 2.846589660644531250e+01 -1.581841349601745605e+00 6.673587858676910400e-02 -4.545316398143768311e-01 -3.073057532310485840e-01
2.183000000000000000e+03 4.724345779418945312e+01 2.779496002197265625e+01 -1.419733762741088867e+00 8.054149150848388672e-02 -4.017576873302459717e-01 -3.781349658966064453e-01
2.184000000000000000e+03 5.044005203247070312e+01 3.740288162231445312e+01 8.994998782873153687e-02 -2.125009447336196899e-01 -3.676528483629226685e-02 3.272793591022491455e-01
2.185000000000000000e+03 1.244849014282226562e+01 4.541949748992919922e+00 3.046974597964435816e-06 -1.329959502527344739e-07 8.741936312617326621e-07 -1.965011904303537449e-07
2.186000000000000000e+03 1.032567119598388672e+01 7.951170444488525391e+00 -3.471643140073865652e-06 -4.311842758397688158e-07 -1.170848236142774113e-06 -3.303304083601688035e-07
2.187000000000000000e+03 5.186125564575195312e+01 3.926193237304687500e+01 4.196079075336456299e-01 -2.271453589200973511e-01 5.773876607418060303e-02 2.290864437818527222e-01
2.188000000000000000e+03 6.117218780517578125e+01 3.758737945556640625e+01 6.700078845024108887e-01 2.143859863281250000e+00 8.441603183746337891e-01 -9.879970550537109375e-01
2.189000000000000000e+03 5.668293762207031250e+01 3.848092269897460938e+01 7.049503326416015625e-01 3.330549895763397217e-01 3.114016056060791016e-01 1.861015260219573975e-01
2.190000000000000000e+03 1.143494987487792969e+01 4.794100284576416016e+00 -3.334742132210521959e-06 2.096337539114756510e-07 -9.375325475957652088e-07 -2.463853832068707561e-07
2.191000000000000000e+03 2.496266746520996094e+01 -1.525908946990966797e+00 1.775254681706428528e-02 -1.532285094261169434e+00 -4.543597698211669922e-01 -2.522558569908142090e-01
2.192000000000000000e+03 2.636065483093261719e+01 2.462423145771026611e-01 2.120589464902877808e-02 -1.298230051994323730e+00 -3.831072449684143066e-01 -2.978673279285430908e-01
2.193000000000000000e+03 2.598548507690429688e+01 -1.804348945617675781e+01 4.107620194554328918e-02 -1.547414064407348633e+00 -4.519013464450836182e-01 -1.295564472675323486e-01
2.194000000000000000e+03 2.597392082214355469e+01 -1.664258003234863281e+01 1.450514793395996094e-02 -1.547538638114929199e+00 -4.599100351333618164e-01 -1.240013763308525085e-01
2.195000000000000000e+03 2.599120712280273438e+01 -4.467208385467529297e+00 4.026571661233901978e-02 -1.448132157325744629e+00 -4.223599433898925781e-01 -2.494467049837112427e-01
2.196000000000000000e+03 2.442580413818359375e+01 -8.393684387207031250e+00 1.406702678650617599e-02 -1.757745146751403809e+00 -5.231034159660339355e-01 -2.053478360176086426e-01
2.197000000000000000e+03 1.028055477142333984e+01 -1.560409069061279297e+01 4.698542761616408825e-04 2.964536543004214764e-05 1.498498895671218634e-04 -1.758518628776073456e-04
2.198000000000000000e+03 1.132767868041992188e+01 1.029980945587158203e+01 3.170050831613480113e-06 8.588630180383916013e-07 1.208674234476347920e-06 2.853525984392035753e-07
2.199000000000000000e+03 9.649435997009277344e+00 5.723934173583984375e+00 2.957941887871129438e-06 5.338393975762301125e-07 1.047534397002891637e-06 1.390471766171685886e-06
2.200000000000000000e+03 7.416203308105468750e+01 3.456248092651367188e+01 5.088849663734436035e-01 9.102259635925292969e+00 2.883343458175659180e+00 1.360599517822265625e+00
2.201000000000000000e+03 7.451226806640625000e+01 3.557608413696289062e+01 5.415593832731246948e-02 9.076141357421875000e+00 2.739089250564575195e+00 1.335299015045166016e+00
2.202000000000000000e+03 1.035741138458251953e+01 1.749685668945312500e+01 -6.002943791827419773e-06 -1.576084827092927299e-07 -1.848165652518218849e-06 -1.024063067234237678e-06
2.203000000000000000e+03 1.112079143524169922e+01 1.253404808044433594e+01 2.254286300740204751e-06 1.784800701898348052e-06 1.211726043948146980e-06 1.355938366032205522e-06
2.204000000000000000e+03 1.042466640472412109e+01 2.009013557434082031e+01 -7.717963853792753071e-06 1.981188688660040498e-07 -2.255953404528554529e-06 -9.459382113163883332e-07
2.205000000000000000e+03 5.831844711303710938e+01 3.646114349365234375e+01 3.656428754329681396e-01 6.110187768936157227e-01 2.929984927177429199e-01 9.581055492162704468e-02
2.206000000000000000e+03 1.134828090667724609e+01 -1.146868610382080078e+01 -4.201422561891376972e-04 -6.712992035318166018e-05 -1.461816573282703757e-04 2.306186215719208121e-04
2.207000000000000000e+03 9.908649444580078125e+00 -1.319894027709960938e+01 2.681781479623168707e-04 3.404353919904679060e-04 1.825840590754523873e-04 2.118340489687398076e-05
2.208000000000000000e+03 1.015612220764160156e+01 -3.439114379882812500e+01 2.956616505980491638e-02 -8.786708116531372070e-03 6.233836989849805832e-03 -3.145392751321196556e-03
2.209000000000000000e+03 6.960210800170898438e+00 -3.105975151062011719e+01 6.618451327085494995e-03 -1.254281960427761078e-03 1.609250786714255810e-03 1.847556908614933491e-03
2.210000000000000000e+03 7.537589263916015625e+01 2.755652427673339844e+01 6.012718081474304199e-01 8.163934707641601562e+00 2.629561901092529297e+00 -1.150711059570312500e+00
2.211000000000000000e+03 7.629836273193359375e+01 2.916819190979003906e+01 6.695160269737243652e-01 7.399940490722656250e+00 2.420836925506591797e+00 -6.296101808547973633e-01
2.212000000000000000e+03 7.456305694580078125e+01 2.734442138671875000e+01 6.858221888542175293e-01 8.723950386047363281e+00 2.822931766510009766e+00 -1.312469124794006348e+00
2.213000000000000000e+03 7.525074005126953125e+01 2.506087875366210938e+01 -5.423824861645698547e-02 8.536884307861328125e+00 2.544793844223022461e+00 -1.310852169990539551e+00
2.214000000000000000e+03 1.532540416717529297e+01 4.026528549194335938e+01 -4.066854307893663645e-05 -6.496389687526971102e-05 -3.168973125866614282e-05 -3.248010784773214255e-07
2.215000000000000000e+03 2.583973503112792969e+01 -1.106670475006103516e+01 2.228124300017952919e-03 -1.540821313858032227e+00 -4.615779519081115723e-01 -1.962899714708328247e-01
2.216000000000000000e+03 2.440213012695312500e+01 -9.753968238830566406e+00 -5.361977964639663696e-03 -1.769309997558593750e+00 -5.324016213417053223e-01 -1.999225467443466187e-01
2.217000000000000000e+03 7.505448150634765625e+01 -2.748415565490722656e+01 6.815875880420207977e-03 7.056391239166259766e+00 2.118962287902832031e+00 3.352506831288337708e-02
2.218000000000000000e+03 2.586215019226074219e+01 -7.056242465972900391e+00 3.044120222330093384e-02 -1.505272984504699707e+00 -4.424495398998260498e-01 -2.309859693050384521e-01
2.219000000000000000e+03 7.395181274414062500e+01 1.937868690490722656e+01 -5.967453122138977051e-01 8.576113700866699219e+00 2.393810510635375977e+00 -4.550485908985137939e-01
2.220000000000000000e+03 7.542174530029296875e+01 -2.071841430664062500e+01 1.195802260190248489e-02 7.190316200256347656e+00 2.160682201385498047e+00 5.928779765963554382e-02
2.221000000000000000e+03 7.403224945068359375e+01 -2.200029945373535156e+01 2.462330088019371033e-02 6.940343856811523438e+00 2.089490175247192383e+00 6.696742773056030273e-02
2.222000000000000000e+03 7.489503479003906250e+01 1.172265148162841797e+01 -1.379866302013397217e-01 8.083297729492187500e+00 2.383593320846557617e+00 1.238596513867378235e-01
2.223000000000000000e+03 7.398944854736328125e+01 4.538726329803466797e+00 -5.941458512097597122e-03 7.523353099822998047e+00 2.255223512649536133e+00 2.750909328460693359e-01
2.224000000000000000e+03 7.425837707519531250e+01 -2.632085561752319336e+00 2.845778875052928925e-02 7.341429710388183594e+00 2.210966348648071289e+00 2.146154344081878662e-01
2.225000000000000000e+03 7.538960266113281250e+01 -1.371642208099365234e+01 1.335578598082065582e-02 7.293737888336181641e+00 2.192128181457519531e+00 9.175810217857360840e-02
2.226000000000000000e+03 7.403742218017578125e+01 -1.506628799438476562e+01 1.925639808177947998e-02 7.014668464660644531e+00 2.110177516937255859e+00 1.038649901747703552e-01
2.227000000000000000e+03 7.547739410400390625e+01 -6.769084453582763672e+00 1.975324004888534546e-02 7.471940994262695312e+00 2.247508287429809570e+00 1.401125043630599976e-01
2.228000000000000000e+03 7.413308715820312500e+01 -8.085387229919433594e+00 3.098284080624580383e-02 7.165497779846191406e+00 2.158944129943847656e+00 1.626283526420593262e-01
2.229000000000000000e+03 7.423345947265625000e+01 -3.996327877044677734e+00 3.010167181491851807e-02 7.292187690734863281e+00 2.196686744689941406e+00 2.032157927751541138e-01
2.230000000000000000e+03 7.406054687500000000e+01 6.153392314910888672e+00 -2.555210888385772705e-02 7.606747150421142578e+00 2.274358510971069336e+00 2.714453041553497314e-01
2.231000000000000000e+03 7.420333862304687500e+01 -5.358754158020019531e+00 3.224546462297439575e-02 7.248970031738281250e+00 2.184364795684814453e+00 1.891613751649856567e-01
2.232000000000000000e+03 7.406234741210937500e+01 -1.086487007141113281e+01 2.486190386116504669e-02 7.094171524047851562e+00 2.135710000991821289e+00 1.383320242166519165e-01
2.233000000000000000e+03 7.552312469482421875e+01 1.536410450935363770e+00 1.160451956093311310e-02 7.762967586517333984e+00 2.332371711730957031e+00 2.023970037698745728e-01
2.234000000000000000e+03 7.403801727294921875e+01 -1.226934814453125000e+01 2.553521655499935150e-02 7.064932823181152344e+00 2.127140283584594727e+00 1.297635287046432495e-01
2.235000000000000000e+03 7.407239532470703125e+01 -1.794649124145507812e+01 2.238155528903007507e-02 6.990305900573730469e+00 2.103806257247924805e+00 9.231817722320556641e-02
2.236000000000000000e+03 7.413359069824218750e+01 -1.934726333618164062e+01 1.556669548153877258e-02 6.967487812042236328e+00 2.094916343688964844e+00 7.830473780632019043e-02
2.237000000000000000e+03 7.504502105712890625e+01 1.816908836364746094e+01 -4.048999547958374023e-01 8.461112022399902344e+00 2.416863679885864258e+00 -3.908945620059967041e-01
2.238000000000000000e+03 7.391916656494140625e+01 -2.462953567504882812e+01 1.395317912101745605e-02 6.887803554534912109e+00 2.070527076721191406e+00 5.068886280059814453e-02
2.239000000000000000e+03 7.612161254882812500e+01 1.553979778289794922e+01 -1.917131692171096802e-01 8.459169387817382812e+00 2.480237007141113281e+00 -1.578372269868850708e-01
2.240000000000000000e+03 7.368729400634765625e+01 -2.726782989501953125e+01 1.610211096704006195e-02 6.818686962127685547e+00 2.050436735153198242e+00 4.567741230130195618e-02
2.241000000000000000e+03 7.519177246093750000e+01 -2.610116958618164062e+01 1.492840144783258438e-02 7.092584609985351562e+00 2.132253885269165039e+00 3.458487614989280701e-02
2.242000000000000000e+03 7.580245971679687500e+01 8.823040962219238281e+00 -4.977512359619140625e-02 8.148794174194335938e+00 2.429705858230590820e+00 1.597903370857238770e-01
2.243000000000000000e+03 7.416885375976562500e+01 -6.718985080718994141e+00 3.168432042002677917e-02 7.206258296966552734e+00 2.171382904052734375e+00 1.766404360532760620e-01
2.244000000000000000e+03 7.427711486816406250e+01 8.763447403907775879e-02 2.320820279419422150e-02 7.430923461914062500e+00 2.236239433288574219e+00 2.388627678155899048e-01
2.245000000000000000e+03 7.415392303466796875e+01 2.955773353576660156e+00 9.116855449974536896e-03 7.497095108032226562e+00 2.251863479614257812e+00 2.613980770111083984e-01
2.246000000000000000e+03 7.424418640136718750e+01 1.484166026115417480e+00 1.801783405244350433e-02 7.472244739532470703e+00 2.247078657150268555e+00 2.471291720867156982e-01
2.247000000000000000e+03 7.436928558349609375e+01 7.660828113555908203e+00 -5.347507447004318237e-02 7.757098197937011719e+00 2.311086893081665039e+00 2.465906888246536255e-01
2.248000000000000000e+03 7.403157043457031250e+01 -1.366532611846923828e+01 2.535662613809108734e-02 7.036058902740478516e+00 2.118424654006958008e+00 1.167969405651092529e-01
2.249000000000000000e+03 7.609855651855468750e+01 2.229301834106445312e+01 -2.908195555210113525e-01 8.367313385009765625e+00 2.422948122024536133e+00 -9.738376140594482422e-01
2.250000000000000000e+03 7.410151672363281250e+01 -2.068879699707031250e+01 1.453361660242080688e-02 6.960230350494384766e+00 2.092429161071777344e+00 6.935416162014007568e-02
2.251000000000000000e+03 7.477354431152343750e+01 1.041338443756103516e+01 -1.069981902837753296e-01 7.988953113555908203e+00 2.364586353302001953e+00 1.714415848255157471e-01
2.252000000000000000e+03 7.460248565673828125e+01 9.066253662109375000e+00 -7.313836365938186646e-02 7.884496212005615234e+00 2.343407392501831055e+00 2.141100019216537476e-01
2.253000000000000000e+03 7.293166351318359375e+01 -3.010013198852539062e+01 2.022600546479225159e-02 6.671484947204589844e+00 2.007513284683227539e+00 3.753280639648437500e-02
2.254000000000000000e+03 7.318623352050781250e+01 -3.466089630126953125e+01 -1.016933191567659378e-02 6.697098255157470703e+00 2.006078720092773438e+00 1.185768097639083862e-02
2.255000000000000000e+03 7.502440643310546875e+01 1.430246829986572266e+01 -2.295542806386947632e-01 8.244799613952636719e+00 2.404573440551757812e+00 -2.184840478003025055e-02
2.256000000000000000e+03 7.505262756347656250e+01 1.687032318115234375e+01 -3.415231704711914062e-01 8.389709472656250000e+00 2.414456129074096680e+00 -2.426779717206954956e-01
2.257000000000000000e+03 7.504804229736328125e+01 1.558528041839599609e+01 -2.874497175216674805e-01 8.317943572998046875e+00 2.409147977828979492e+00 -1.247415542602539062e-01
2.258000000000000000e+03 7.453838348388671875e+01 3.326064682006835938e+01 9.926394224166870117e-01 8.660616874694824219e+00 2.895977020263671875e+00 1.039858937263488770e+00
2.259000000000000000e+03 7.610243988037109375e+01 3.175547027587890625e+01 7.733507156372070312e-01 7.447611808776855469e+00 2.466288805007934570e+00 2.908737659454345703e-01
2.260000000000000000e+03 6.456903934478759766e+00 -1.563245582580566406e+01 2.442930126562714577e-04 1.401256486133206636e-05 7.749167707515880466e-05 -5.773246448370628059e-05
2.261000000000000000e+03 4.733318328857421875e+00 -3.082008361816406250e+01 2.771964995190501213e-03 -2.332665171707049012e-04 7.616095244884490967e-04 2.845557173714041710e-03
2.262000000000000000e+03 6.076380729675292969e+00 -2.930080604553222656e+01 2.610469236969947815e-03 -1.054647145792841911e-03 4.667466564569622278e-04 1.197372097522020340e-03
2.263000000000000000e+03 1.178428840637207031e+01 -2.155862617492675781e+01 4.048660630360245705e-04 8.871820173226296902e-04 3.876144182868301868e-04 -2.962888102047145367e-04
2.264000000000000000e+03 7.499565887451171875e+01 2.082639884948730469e+01 -4.914031028747558594e-01 8.613418579101562500e+00 2.436604499816894531e+00 -7.483962178230285645e-01
2.265000000000000000e+03 2.594685745239257812e+01 8.312421798706054688e+00 -9.556067525409162045e-04 -1.079271554946899414e+00 -3.240681588649749756e-01 -3.881124556064605713e-01
2.266000000000000000e+03 5.875626087188720703e+00 -2.654766845703125000e+01 1.073609309969469905e-04 1.109729928430169821e-04 6.550017860718071461e-05 5.850126035511493683e-04
2.267000000000000000e+03 4.490631103515625000e+00 2.717994689941406250e+01 -1.055347547662677243e-05 8.223313443522783928e-07 -2.919343160101561807e-06 -2.537815362302353606e-06
2.268000000000000000e+03 5.993726253509521484e+00 2.981822586059570312e+01 1.351690207229694352e-05 -5.364881872083060443e-08 4.038975930598098785e-06 3.575815298972884193e-06
2.269000000000000000e+03 2.618224334716796875e+01 2.154033279418945312e+01 -5.723864212632179260e-02 -3.915363848209381104e-01 -1.346325129270553589e-01 -3.654614686965942383e-01
2.270000000000000000e+03 2.616158103942871094e+01 1.830543708801269531e+01 -2.692062780261039734e-02 -5.571151971817016602e-01 -1.752107441425323486e-01 -4.055295884609222412e-01
2.271000000000000000e+03 7.501103973388671875e+01 2.368322372436523438e+01 -3.358229696750640869e-01 8.703938484191894531e+00 2.510434627532958984e+00 -1.179131984710693359e+00
2.272000000000000000e+03 7.491670227050781250e+01 2.223311614990234375e+01 -4.666455686092376709e-01 8.710121154785156250e+00 2.473042488098144531e+00 -9.699170589447021484e-01
2.273000000000000000e+03 2.596325111389160156e+01 1.110481071472167969e+01 5.915521178394556046e-03 -9.465009570121765137e-01 -2.821756303310394287e-01 -4.049730598926544189e-01
2.274000000000000000e+03 1.448004913330078125e+01 -2.891961097717285156e+01 3.906155936419963837e-03 -1.393038663081824780e-03 7.539351936429738998e-04 -6.594033329747617245e-04
2.275000000000000000e+03 2.478507232666015625e+01 1.548641109466552734e+01 -4.061792511492967606e-03 -7.860633134841918945e-01 -2.370375245809555054e-01 -3.403790593147277832e-01
2.276000000000000000e+03 3.156691169738769531e+01 1.765710258483886719e+01 -5.732222273945808411e-02 -3.217208981513977051e-01 -1.137129366397857666e-01 -6.208835840225219727e-01
2.277000000000000000e+03 5.780399799346923828e+00 2.307546424865722656e+01 -9.219535058946348727e-06 4.696014173077855958e-07 -2.624979970278218389e-06 -2.546257974245236255e-06
2.278000000000000000e+03 9.276135444641113281e+00 2.312986373901367188e+01 5.065187906438950449e-06 4.706864444870006992e-07 1.660762336541665718e-06 -1.071741621672117617e-06
2.279000000000000000e+03 6.445016860961914062e+00 -1.031096267700195312e+01 2.414452319499105215e-04 -6.522548210341483355e-05 5.286592568154446781e-05 -2.176238922402262688e-05
2.280000000000000000e+03 5.203592777252197266e+00 -1.039923477172851562e+01 -2.979648415930569172e-04 -2.446859616611618549e-05 -9.673002932686358690e-05 5.842942118761129677e-05
2.281000000000000000e+03 2.593201637268066406e+01 6.934065818786621094e+00 -9.749622084200382233e-03 -1.135287880897521973e+00 -3.435112237930297852e-01 -3.743839263916015625e-01
2.282000000000000000e+03 2.529776573181152344e+01 2.714432334899902344e+01 -7.483445107936859131e-02 -1.669130921363830566e-01 -7.252426445484161377e-02 -1.957427710294723511e-01
2.283000000000000000e+03 2.597778320312500000e+01 1.390910625457763672e+01 7.783349137753248215e-04 -8.001881241798400879e-01 -2.398229390382766724e-01 -4.108450114727020264e-01
2.284000000000000000e+03 2.510798072814941406e+01 2.835810279846191406e+01 -7.369130849838256836e-02 -1.248139813542366028e-01 -5.955158919095993042e-02 -1.557591110467910767e-01
2.285000000000000000e+03 2.607736778259277344e+01 2.849830627441406250e+01 -1.017348915338516235e-01 -1.136458441615104675e-01 -6.461422145366668701e-02 -1.791768968105316162e-01
2.286000000000000000e+03 5.954203128814697266e+00 -2.252213287353515625e+01 6.536548025906085968e-04 4.498255439102649689e-04 3.310441097710281610e-04 -1.901252107927575707e-04
2.287000000000000000e+03 9.676392555236816406e+00 2.676412582397460938e+01 -9.759805834619328380e-06 -1.590953502272896003e-06 -3.405227744224248454e-06 -3.215612309759308118e-07
2.288000000000000000e+03 5.716489315032958984e+00 2.441125297546386719e+01 9.744445378601085395e-06 -7.427269110849010758e-07 2.700515551623539068e-06 2.406208523098030128e-06
2.289000000000000000e+03 5.536821842193603516e+00 -1.710948562622070312e+01 4.103552200831472874e-04 -5.217540092417038977e-05 1.074539395631290972e-04 -2.075071679428219795e-04
2.290000000000000000e+03 5.379512310028076172e+00 -1.581052303314208984e+01 -5.029236781410872936e-04 1.246162282768636942e-04 -1.134922422352246940e-04 -5.070134648121893406e-06
2.291000000000000000e+03 5.284040451049804688e+00 -1.448016643524169922e+01 3.116595617029815912e-04 6.740321259712800384e-05 1.137188301072455943e-04 -6.423567538149654865e-05
2.292000000000000000e+03 6.576708316802978516e+00 1.611908149719238281e+01 -5.807879460917320102e-06 -3.718693903920211596e-07 -1.853924686656682752e-06 -1.051973868015920743e-06
2.293000000000000000e+03 4.468799114227294922e+00 -1.995863151550292969e+01 -5.963837029412388802e-04 6.331286567728966475e-05 -1.599212555447593331e-04 2.052418676612433046e-05
2.294000000000000000e+03 7.034945011138916016e+00 -1.812652397155761719e+01 3.490737290121614933e-04 2.707545645534992218e-04 1.859484909800812602e-04 -2.688171807676553726e-04
2.295000000000000000e+03 5.869876861572265625e+00 2.843267059326171875e+01 -1.310550578637048602e-05 9.766367838892620057e-07 -3.638660928118042648e-06 -2.403833832431701012e-06
2.296000000000000000e+03 4.571176528930664062e+00 -2.681777381896972656e+01 1.419523730874061584e-03 3.806716413237154484e-04 5.400585941970348358e-04 -2.117698313668370247e-04
2.297000000000000000e+03 7.199455738067626953e+00 -2.621681594848632812e+01 2.031253417953848839e-03 7.665843004360795021e-04 8.393513271585106850e-04 -8.488424355164170265e-04
2.298000000000000000e+03 2.696785736083984375e+01 2.335005378723144531e+01 -8.825515955686569214e-02 -2.951209247112274170e-01 -1.150128245353698730e-01 -3.581346273422241211e-01
2.299000000000000000e+03 2.801081657409667969e+01 2.366398620605468750e+01 -1.181678250432014465e-01 -2.575331628322601318e-01 -1.127102971076965332e-01 -3.984604775905609131e-01
2.300000000000000000e+03 8.475127220153808594e+00 -1.090773010253906250e+01 -2.863320987671613693e-04 -3.219702339265495539e-04 -1.824907085392624140e-04 1.995600323425605893e-04
2.301000000000000000e+03 5.459130287170410156e+00 1.862435722351074219e+01 5.753843197453534231e-06 7.227340006465965416e-07 1.942973085533594713e-06 6.688131293230981100e-08
2.302000000000000000e+03 6.344854354858398438e+00 2.061981582641601562e+01 -7.794051271048374474e-06 -5.967742566781453206e-08 -2.356118557145236991e-06 -4.310795702622272074e-06
2.303000000000000000e+03 5.921320438385009766e+00 -2.107780456542968750e+01 -6.576110026799142361e-04 2.020884421654045582e-04 -1.366567594232037663e-04 -1.336846889898879454e-05
2.304000000000000000e+03 5.672711849212646484e+00 -1.839171981811523438e+01 -5.935000954195857048e-04 7.406955410260707140e-05 -1.558291551191359758e-04 1.304425968555733562e-04
2.305000000000000000e+03 6.422092914581298828e+00 3.452307128906250000e+01 -1.223539857164723799e-05 -5.028416126151569188e-06 -5.179144409339642152e-06 -8.058292223722673953e-06
2.306000000000000000e+03 5.403562545776367188e+00 1.736836051940917969e+01 -6.046830549166770652e-06 -4.722627124920109054e-07 -1.955728066604933701e-06 -4.052816962030192371e-07
2.307000000000000000e+03 5.390180110931396484e+00 1.472276210784912109e+01 -5.675222382706124336e-06 -3.899281466601678403e-07 -1.819545104808639735e-06 -3.078405939049844164e-07
2.308000000000000000e+03 5.964226245880126953e+00 -2.789863777160644531e+01 2.556989900767803192e-03 4.655009834095835686e-04 9.067472419701516628e-04 -1.577551593072712421e-04
2.309000000000000000e+03 5.200953960418701172e+00 -3.342972183227539062e+01 4.858040716499090195e-03 -8.935682708397507668e-04 1.189341768622398376e-03 7.170462515205144882e-03
2.310000000000000000e+03 9.773401260375976562e+00 -3.186098861694335938e+01 1.013711933046579361e-02 -2.537830965593457222e-03 2.279786625877022743e-03 -3.082725685089826584e-03
2.311000000000000000e+03 4.093707561492919922e+00 1.036649608612060547e+01 -4.072955107403686270e-06 -2.778928092084242962e-07 -1.305254386352316942e-06 1.018579922629214707e-07
2.312000000000000000e+03 1.030046463012695312e+01 1.025325679779052734e+01 -3.546936113707488403e-06 -6.612286824747570790e-07 -1.262449472960724961e-06 3.042210892090224661e-07
2.313000000000000000e+03 5.272591590881347656e+00 -1.177081203460693359e+01 2.567678166087716818e-04 1.331008097622543573e-04 1.169605893664993346e-04 -8.499364048475399613e-05
2.314000000000000000e+03 4.912207126617431641e+00 -7.686123371124267578e+00 -1.648264442337676883e-04 -8.098762191366404295e-05 -7.374421693384647369e-05 -1.553756374050863087e-05
2.315000000000000000e+03 5.024372577667236328e+00 8.778577804565429688e+00 -3.330804247525520623e-06 -6.235511023078288417e-07 -1.186306576528295409e-06 1.210127720696618780e-06
2.316000000000000000e+03 3.781618118286132812e+00 7.575377464294433594e+00 -3.327762215121765621e-06 -4.709222309884353308e-07 -1.139605387834308203e-06 2.731798360855464125e-07
2.317000000000000000e+03 7.009549617767333984e+00 -2.390123176574707031e+01 1.042762305587530136e-03 4.677746619563549757e-04 4.531611048150807619e-04 -1.320649025728926063e-04
2.318000000000000000e+03 1.229732894897460938e+01 -2.556624031066894531e+01 -1.116617582738399506e-03 1.501163642387837172e-04 -2.899503451772034168e-04 5.103372968733310699e-04
2.319000000000000000e+03 1.065142059326171875e+01 -2.521005058288574219e+01 -1.016775146126747131e-03 8.326671668328344822e-04 -5.523240179172717035e-05 4.691272042691707611e-04
2.320000000000000000e+03 9.499165534973144531e+00 -2.585764122009277344e+01 1.494031283073127270e-03 1.114865997806191444e-03 7.826692308299243450e-04 -1.085917698219418526e-03
2.321000000000000000e+03 1.071973228454589844e+01 1.337360286712646484e+01 -3.383418061275733635e-06 3.059701327856600983e-07 -9.232343245457741432e-07 -2.431144366710213944e-06
2.322000000000000000e+03 4.691102981567382812e+00 -6.425319194793701172e+00 6.353785283863544464e-05 2.127275365637615323e-05 2.544318158470559865e-05 2.957650394819211215e-05
2.323000000000000000e+03 4.447311401367187500e+00 -5.340041637420654297e+00 -2.284541005792561918e-05 -9.326839790446683764e-05 -3.483414184302091599e-05 -5.623344623018056154e-05
2.324000000000000000e+03 2.589675521850585938e+01 -5.767632484436035156e+00 3.807745501399040222e-02 -1.481047749519348145e+00 -4.328910708427429199e-01 -2.364053726196289062e-01
2.325000000000000000e+03 2.616692733764648438e+01 -3.154096126556396484e+00 3.578068315982818604e-02 -1.398666858673095703e+00 -4.088658392429351807e-01 -2.612866461277008057e-01
2.326000000000000000e+03 2.587087249755859375e+01 -1.244653320312500000e+01 -2.092929324135184288e-03 -1.541749954223632812e+00 -4.631528854370117188e-01 -1.723770350217819214e-01
2.327000000000000000e+03 2.583879661560058594e+01 -9.701305389404296875e+00 1.254133973270654678e-02 -1.535328745841979980e+00 -4.568361937999725342e-01 -2.070795893669128418e-01
2.328000000000000000e+03 7.494881153106689453e+00 -2.898363876342773438e+01 4.160579293966293335e-03 5.247386870905756950e-04 1.405595452524721622e-03 -2.414518530713394284e-04
2.329000000000000000e+03 2.470437431335449219e+01 4.219855308532714844e+00 -2.794352546334266663e-02 -1.399249553680419922e+00 -4.281579256057739258e-01 -2.886553406715393066e-01
2.330000000000000000e+03 2.584975051879882812e+01 -8.360756874084472656e+00 1.965009421110153198e-02 -1.519322752952575684e+00 -4.499017894268035889e-01 -2.233262658119201660e-01
2.331000000000000000e+03 1.038693523406982422e+01 2.145091819763183594e+01 8.244171112892217934e-06 2.915183756613259902e-07 2.560706889198627323e-06 4.904805450678395573e-07
2.332000000000000000e+03 2.442518234252929688e+01 -2.090946006774902344e+01 3.724651411175727844e-02 -1.820412397384643555e+00 -5.349497795104980469e-01 -1.233095154166221619e-01
2.333000000000000000e+03 2.274315452575683594e+01 -2.374047851562500000e+01 3.250779211521148682e-02 -2.103833675384521484e+00 -6.213977932929992676e-01 -1.000342816114425659e-01
2.334000000000000000e+03 1.124244308471679688e+01 1.146219921112060547e+01 -2.818064103848882951e-06 -1.418521264895389322e-06 -1.270975531042495277e-06 -5.038450012762041297e-07
2.335000000000000000e+03 1.014362621307373047e+01 2.990908241271972656e+01 7.945575816847849637e-06 5.468676590680843219e-06 4.024275767733342946e-06 -8.079882718448061496e-06
2.336000000000000000e+03 1.041855907440185547e+01 1.877601814270019531e+01 6.899328582221642137e-06 -9.211041174239653628e-08 2.042165533566731028e-06 1.056864789461542387e-06
2.337000000000000000e+03 8.615560531616210938e+00 -3.130076789855957031e+01 9.233728982508182526e-03 -1.843902166001498699e-03 2.216947963461279869e-03 -9.447130141779780388e-04
2.338000000000000000e+03 2.643870162963867188e+01 -1.832710027694702148e+00 3.130396455526351929e-02 -1.335139274597167969e+00 -3.911505937576293945e-01 -2.765434980392456055e-01
2.339000000000000000e+03 2.590860176086425781e+01 5.564841270446777344e+00 -1.154638733714818954e-02 -1.191691279411315918e+00 -3.609713017940521240e-01 -3.543794751167297363e-01
2.340000000000000000e+03 2.608276176452636719e+01 1.556816697120666504e+00 1.005574036389589310e-02 -1.308786153793334961e+00 -3.896191120147705078e-01 -3.053058981895446777e-01
2.341000000000000000e+03 2.591741561889648438e+01 -1.384251785278320312e+01 5.971421953290700912e-03 -1.548000216484069824e+00 -4.626086652278900146e-01 -1.591704487800598145e-01
2.342000000000000000e+03 2.393787956237792969e+01 -2.894577598571777344e+01 1.028131810016930103e-03 -1.929472446441650391e+00 -5.785332918167114258e-01 -1.378646045923233032e-01
2.343000000000000000e+03 1.110270595550537109e+01 2.897867202758789062e+01 1.156966845883289352e-05 4.775902198161929846e-06 4.903671197098447010e-06 2.356445520490524359e-06
2.344000000000000000e+03 8.281975746154785156e+00 2.562473106384277344e+01 -9.176044841296970844e-06 -7.726597459623008035e-07 -2.984611455758567899e-06 -8.900361194719152991e-07
2.345000000000000000e+03 6.260488986968994141e+00 3.282722473144531250e+01 1.400526798533974215e-05 1.564573608447972219e-06 4.670952421292895451e-06 6.838545687060104683e-06
2.346000000000000000e+03 5.219409942626953125e+01 4.134664154052734375e+01 6.163882613182067871e-01 -2.103457599878311157e-01 1.218127608299255371e-01 6.660336256027221680e-02
2.347000000000000000e+03 6.539810180664062500e+01 2.889505577087402344e+01 1.589216470718383789e+00 5.122682571411132812e+00 2.013569593429565430e+00 5.115767955780029297e+00
2.348000000000000000e+03 6.635169982910156250e+01 2.919396972656250000e+01 1.330358386039733887e+00 1.185577583312988281e+01 3.955840110778808594e+00 6.761213302612304688e+00
2.349000000000000000e+03 6.631530761718750000e+01 2.852298736572265625e+01 2.858882248401641846e-01 1.112552070617675781e+01 3.423422574996948242e+00 5.589373111724853516e+00
2.350000000000000000e+03 6.571697998046875000e+01 3.323466110229492188e+01 1.343999862670898438e+00 7.527135848999023438e+00 2.661340713500976562e+00 -4.970037937164306641e+00
2.351000000000000000e+03 6.655362701416015625e+01 2.882499122619628906e+01 2.938703298568725586e-01 1.312949180603027344e+01 4.027008533477783203e+00 5.718394756317138672e+00
2.352000000000000000e+03 7.396417236328125000e+01 2.396489715576171875e+01 -4.336256086826324463e-01 9.131031036376953125e+00 2.609221696853637695e+00 -1.173312306404113770e+00
2.353000000000000000e+03 6.759631347656250000e+01 2.840177536010742188e+01 -6.015505790710449219e-01 1.610757637023925781e+01 4.651807785034179688e+00 1.899182319641113281e+00
2.354000000000000000e+03 6.734875488281250000e+01 3.306066131591796875e+01 -2.641634047031402588e-01 1.661202430725097656e+01 4.904358386993408203e+00 -2.502159357070922852e+00
2.355000000000000000e+03 6.840262603759765625e+01 2.888750457763671875e+01 1.361986041069030762e+00 1.675127220153808594e+01 5.433977127075195312e+00 -9.802759885787963867e-01
2.356000000000000000e+03 6.386038589477539062e+01 2.778348159790039062e+01 4.329647421836853027e-01 2.643781900405883789e+00 9.230239987373352051e-01 3.008187294006347656e+00
2.357000000000000000e+03 6.879124450683593750e+01 2.941735649108886719e+01 3.732813358306884766e+00 1.599095630645751953e+01 5.917130947113037109e+00 -2.076294660568237305e+00
2.358000000000000000e+03 6.930872344970703125e+01 2.985547447204589844e+01 5.211857318878173828e+00 1.428392696380615234e+01 5.848735332489013672e+00 -1.799287080764770508e+00
2.359000000000000000e+03 6.926902770996093750e+01 3.243750762939453125e+01 3.576206445693969727e+00 1.458788394927978516e+01 5.449226856231689453e+00 2.159555912017822266e+00
2.360000000000000000e+03 6.946688842773437500e+01 3.148829841613769531e+01 6.135040760040283203e+00 1.363925266265869141e+01 5.932288169860839844e+00 1.423845767974853516e+00
2.361000000000000000e+03 6.913484954833984375e+01 3.308307266235351562e+01 1.631910920143127441e+00 1.467250251770019531e+01 4.891324043273925781e+00 1.719632744789123535e+00
2.362000000000000000e+03 6.942005920410156250e+01 3.085191535949707031e+01 7.008860111236572266e+00 1.345386981964111328e+01 6.138818740844726562e+00 2.646967954933643341e-02
2.363000000000000000e+03 6.476987457275390625e+01 3.327082443237304688e+01 1.472718715667724609e+00 3.793246269226074219e+00 1.579789519309997559e+00 -3.502631425857543945e+00
2.364000000000000000e+03 6.591274261474609375e+01 2.868148040771484375e+01 9.470962882041931152e-01 8.521093368530273438e+00 2.840456962585449219e+00 5.810866832733154297e+00
2.365000000000000000e+03 6.342299652099609375e+01 2.755333900451660156e+01 2.978695929050445557e-01 2.243857622146606445e+00 7.625181078910827637e-01 2.660573005676269531e+00
2.366000000000000000e+03 6.486981964111328125e+01 2.790527915954589844e+01 7.721418142318725586e-01 4.668635368347167969e+00 1.632233142852783203e+00 4.220869064331054688e+00
2.367000000000000000e+03 6.100849151611328125e+01 2.755215835571289062e+01 -8.060183525085449219e-01 6.125309467315673828e-01 -5.804623290896415710e-02 1.004810571670532227e+00
2.368000000000000000e+03 6.235812759399414062e+01 2.723059654235839844e+01 -7.145594060420989990e-02 1.450160264968872070e+00 4.136112928390502930e-01 1.908675789833068848e+00
2.369000000000000000e+03 6.173728942871093750e+01 2.710750579833984375e+01 -2.733295559883117676e-01 1.124977827072143555e+00 2.554944753646850586e-01 1.555587053298950195e+00
2.370000000000000000e+03 5.102835464477539062e+01 2.715969467163085938e+01 -1.532381176948547363e+00 7.806571573019027710e-02 -4.362946450710296631e-01 -3.205645680427551270e-01
2.371000000000000000e+03 4.648678207397460938e+01 2.792799186706542969e+01 -1.375700831413269043e+00 8.410326391458511353e-02 -3.874792754650115967e-01 -3.791481256484985352e-01
2.372000000000000000e+03 6.830553054809570312e+00 6.929146289825439453e+00 2.333053544134600088e-06 1.358580334454018157e-06 1.107490106733166613e-06 2.232167389593087137e-06
2.373000000000000000e+03 8.235106468200683594e+00 5.498769283294677734e+00 2.903311042246059515e-06 -1.015124553305213340e-07 8.405395419686101377e-07 1.010422693070722744e-06
2.374000000000000000e+03 9.696539878845214844e+00 4.896673202514648438e+00 -3.025854994120891206e-06 -1.967520830703506363e-07 -9.667820677350391634e-07 -1.223560047947103158e-06
2.375000000000000000e+03 6.641137123107910156e+00 5.836395263671875000e+00 1.700368557067122310e-06 1.848414285632316023e-06 1.064634830072463956e-06 1.308865535065706354e-06
2.376000000000000000e+03 2.652493286132812500e+01 3.132514762878417969e+01 -1.048276647925376892e-01 -4.408252239227294922e-02 -4.467305541038513184e-02 -1.037534698843955994e-01
2.377000000000000000e+03 2.743260002136230469e+01 3.066977691650390625e+01 -1.412474215030670166e-01 -4.910164326429367065e-02 -5.710471794009208679e-02 -1.443351209163665771e-01
2.378000000000000000e+03 6.424682617187500000e+01 3.476725769042968750e+01 7.301040291786193848e-01 4.512676715850830078e+00 1.572834134101867676e+00 -2.799119710922241211e+00
2.379000000000000000e+03 3.764027357101440430e+00 5.337446212768554688e+00 -2.959355242637684569e-06 -7.163224040596105624e-07 -1.102703322430897970e-06 2.568712034189957194e-06
2.380000000000000000e+03 6.734508991241455078e+00 5.037696838378906250e+00 -1.651251636758388486e-06 -1.193477487504424062e-06 -8.534187259101599921e-07 -8.525560133421095088e-07
2.381000000000000000e+03 9.466988563537597656e+00 -5.146407604217529297e+00 -1.876275782706215978e-04 -1.270366337848827243e-04 -9.439926361665129662e-05 1.850536937126889825e-04
2.382000000000000000e+03 8.706002235412597656e+00 -5.069788932800292969e+00 7.840056787244975567e-05 1.657887332839891315e-04 7.325678598135709763e-05 -7.881422789068892598e-05
2.383000000000000000e+03 7.471895217895507812e+00 4.964824199676513672e+00 1.493467948421312030e-06 5.362683168641524389e-07 6.089209136916906573e-07 4.604882803960208548e-07
2.384000000000000000e+03 8.111080169677734375e+00 6.031802177429199219e+00 -3.901946456608129665e-06 6.396471690095495433e-07 -9.786897408048389480e-07 -1.339053710580628831e-06
2.385000000000000000e+03 2.889851951599121094e+01 3.131146049499511719e+01 -1.910405606031417847e-01 -2.092593535780906677e-02 -6.358994543552398682e-02 -1.472441107034683228e-01
2.386000000000000000e+03 5.954065704345703125e+01 2.742745780944824219e+01 -1.203144192695617676e+00 3.414250612258911133e-01 -2.585157155990600586e-01 5.418926477432250977e-01
2.387000000000000000e+03 6.106667327880859375e+01 2.699540328979492188e+01 -4.586299657821655273e-01 8.915044069290161133e-01 1.298623383045196533e-01 1.245423078536987305e+00
2.388000000000000000e+03 1.050926303863525391e+01 5.794979572296142578e+00 -3.439556849116343074e-06 -1.341770285989696276e-07 -1.072120198841730598e-06 -7.680268936383072287e-07
2.389000000000000000e+03 3.105343627929687500e+01 2.999411010742187500e+01 -3.007282614707946777e-01 -9.341876953840255737e-03 -9.302104264497756958e-02 -2.356784939765930176e-01
2.390000000000000000e+03 3.027598381042480469e+01 3.007916259765625000e+01 -2.641540169715881348e-01 -1.900493539869785309e-02 -8.494769036769866943e-02 -2.195040732622146606e-01
2.391000000000000000e+03 3.191057205200195312e+01 3.062973213195800781e+01 -3.407388627529144287e-01 1.044873613864183426e-02 -9.908703714609146118e-02 -2.143060714006423950e-01
2.392000000000000000e+03 3.178934860229492188e+01 2.990950012207031250e+01 -3.376035988330841064e-01 -4.385669890325516462e-04 -1.014126464724540710e-01 -2.508999109268188477e-01
2.393000000000000000e+03 3.250935363769531250e+01 2.982474899291992188e+01 -3.765050768852233887e-01 9.083478711545467377e-03 -1.102264821529388428e-01 -2.652561366558074951e-01
2.394000000000000000e+03 2.941724014282226562e+01 3.016519165039062500e+01 -2.237954586744308472e-01 -3.068301640450954437e-02 -7.634354382753372192e-02 -2.004022449254989624e-01
2.395000000000000000e+03 2.850365066528320312e+01 3.009777450561523438e+01 -1.868155747652053833e-01 -4.626087844371795654e-02 -6.992293894290924072e-02 -1.874641925096511841e-01
2.396000000000000000e+03 2.824888992309570312e+01 3.089706230163574219e+01 -1.716038137674331665e-01 -3.375614807009696960e-02 -6.160799041390419006e-02 -1.511994302272796631e-01
2.397000000000000000e+03 3.322531890869140625e+01 2.973223686218261719e+01 -4.169542789459228516e-01 1.768802665174007416e-02 -1.197798773646354675e-01 -2.790682613849639893e-01
2.398000000000000000e+03 3.964176940917968750e+01 2.852750396728515625e+01 -8.366085290908813477e-01 8.167393505573272705e-02 -2.264803797006607056e-01 -3.900998830795288086e-01
2.399000000000000000e+03 3.768345260620117188e+01 2.961151313781738281e+01 -7.225840687751770020e-01 6.619363278150558472e-02 -1.969171464443206787e-01 -3.063539862632751465e-01
2.400000000000000000e+03 4.035184860229492188e+01 2.838945770263671875e+01 -8.852947354316711426e-01 8.505813032388687134e-02 -2.400709837675094604e-01 -3.996887505054473877e-01
2.401000000000000000e+03 3.696406555175781250e+01 2.975039291381835938e+01 -6.695898771286010742e-01 5.994266271591186523e-02 -1.828941702842712402e-01 -2.967719733715057373e-01
2.402000000000000000e+03 3.800388717651367188e+01 2.811930656433105469e+01 -6.913049221038818359e-01 6.598783284425735474e-02 -1.875951141119003296e-01 -4.187903404235839844e-01
2.403000000000000000e+03 3.393754577636718750e+01 2.962558937072753906e+01 -4.592060148715972900e-01 2.687853015959262848e-02 -1.296982467174530029e-01 -2.928545176982879639e-01
2.404000000000000000e+03 4.106665039062500000e+01 2.825067710876464844e+01 -9.334633946418762207e-01 8.906278759241104126e-02 -2.533201873302459717e-01 -4.082729816436767578e-01
2.405000000000000000e+03 5.326222419738769531e+00 -5.113157749176025391e+00 -4.417091622599400580e-05 5.566761683439835906e-05 3.449010364420246333e-06 -1.681182402535341680e-05
2.406000000000000000e+03 6.294443130493164062e+00 -5.854478836059570312e+00 2.748493861872702837e-04 -8.293735299957916141e-05 5.757361213909462094e-05 -2.482271702319849283e-05
2.407000000000000000e+03 3.624315261840820312e+01 2.989169883728027344e+01 -6.169654726982116699e-01 5.420914664864540100e-02 -1.688269078731536865e-01 -2.858342230319976807e-01
2.408000000000000000e+03 3.729232025146484375e+01 2.825773620605468750e+01 -6.486828923225402832e-01 5.954667180776596069e-02 -1.767408698797225952e-01 -4.053573310375213623e-01
2.409000000000000000e+03 4.475867843627929688e+01 2.754321670532226562e+01 -1.163301348686218262e+00 9.652721881866455078e-02 -3.200322091579437256e-01 -4.381591081619262695e-01
2.410000000000000000e+03 3.464522171020507812e+01 2.950342750549316406e+01 -5.030625462532043457e-01 3.502486273646354675e-02 -1.404113173484802246e-01 -3.061981201171875000e-01
2.411000000000000000e+03 4.348745727539062500e+01 2.849645996093750000e+01 -1.173501014709472656e+00 8.832899481058120728e-02 -3.255515992641448975e-01 -3.670396804809570312e-01
2.412000000000000000e+03 4.456223297119140625e+01 2.688836860656738281e+01 -1.052034974098205566e+00 1.051862463355064392e-01 -2.840546369552612305e-01 -4.887929558753967285e-01
2.413000000000000000e+03 9.261380195617675781e+00 8.108456611633300781e+00 2.893176997531554662e-06 4.994078608433483168e-07 1.017775502987205982e-06 -9.104083176225685747e-08
2.414000000000000000e+03 4.179981613159179688e+01 2.810898208618164062e+01 -9.825057387351989746e-01 9.113583713769912720e-02 -2.674109637737274170e-01 -4.163863956928253174e-01
2.415000000000000000e+03 3.535431671142578125e+01 2.936905670166015625e+01 -5.471841692924499512e-01 4.317400604486465454e-02 -1.512030363082885742e-01 -3.195856213569641113e-01
2.416000000000000000e+03 3.606625747680664062e+01 2.922695350646972656e+01 -5.936698913574218750e-01 5.032490193843841553e-02 -1.630034893751144409e-01 -3.331253230571746826e-01
2.417000000000000000e+03 7.042296409606933594e+00 -7.686511993408203125e+00 -6.544744974235072732e-05 -1.490531576564535499e-04 -6.435018440242856741e-05 4.170112879364751279e-05
2.418000000000000000e+03 5.177186203002929688e+01 2.701614379882812500e+01 -1.521199703216552734e+00 7.891741394996643066e-02 -4.326846897602081299e-01 -2.991195619106292725e-01
2.419000000000000000e+03 5.482193374633789062e+01 2.626618576049804688e+01 -1.222476959228515625e+00 1.639565676450729370e-01 -3.175561130046844482e-01 -8.181965351104736328e-02
2.420000000000000000e+03 4.952286911010742188e+01 2.740884399414062500e+01 -1.512077689170837402e+00 7.666805386543273926e-02 -4.306228756904602051e-01 -3.547922372817993164e-01
2.421000000000000000e+03 5.204594039916992188e+01 2.771039009094238281e+01 -1.776899218559265137e+00 5.513508245348930359e-02 -5.165292620658874512e-01 -2.529156804084777832e-01
2.422000000000000000e+03 7.890613555908203125e+00 -5.867984771728515625e+00 1.503689418314024806e-04 5.645189594360999763e-05 6.204625242389738560e-05 1.034185061143944040e-05
2.423000000000000000e+03 5.430673217773437500e+01 2.682040596008300781e+01 -1.481808423995971680e+00 1.085441857576370239e-01 -4.119792878627777100e-01 -1.462925970554351807e-01
2.424000000000000000e+03 4.381940078735351562e+01 2.702264404296875000e+01 -1.019991040229797363e+00 1.019353792071342468e-01 -2.754167020320892334e-01 -4.874353110790252686e-01
2.425000000000000000e+03 4.327301406860351562e+01 2.782846450805664062e+01 -1.077615141868591309e+00 9.419856965541839600e-02 -2.950249910354614258e-01 -4.302014410495758057e-01
2.426000000000000000e+03 4.824302291870117188e+01 2.833942413330078125e+01 -1.636093735694885254e+00 6.185408309102058411e-02 -4.722719192504882812e-01 -3.056802153587341309e-01
2.427000000000000000e+03 5.531330108642578125e+01 2.668592071533203125e+01 -1.350726246833801270e+00 1.576909869909286499e-01 -3.579105734825134277e-01 -6.039188429713249207e-02
2.428000000000000000e+03 5.643858718872070312e+01 2.614974594116210938e+01 -1.026641488075256348e+00 2.720812261104583740e-01 -2.263680696487426758e-01 1.285543590784072876e-01
2.429000000000000000e+03 4.800619125366210938e+01 2.766328239440917969e+01 -1.456057429313659668e+00 7.880789041519165039e-02 -4.131748378276824951e-01 -3.733338117599487305e-01
2.430000000000000000e+03 2.583598899841308594e+01 3.125766181945800781e+01 -8.745662868022918701e-02 -4.963589087128639221e-02 -4.112775623798370361e-02 -9.332010895013809204e-02
2.431000000000000000e+03 2.499199485778808594e+01 2.949657821655273438e+01 -7.008617371320724487e-02 -9.162667393684387207e-02 -4.851385205984115601e-02 -1.200882419943809509e-01
2.432000000000000000e+03 6.032804489135742188e+01 2.685062217712402344e+01 -6.292344331741333008e-01 6.980879902839660645e-01 2.065607719123363495e-02 9.643887281417846680e-01
2.433000000000000000e+03 5.953146743774414062e+01 2.676914596557617188e+01 -7.974050641059875488e-01 5.469935536384582520e-01 -7.512343674898147583e-02 7.161679863929748535e-01
2.434000000000000000e+03 5.363373947143554688e+01 2.727177047729492188e+01 -1.661072015762329102e+00 7.631422579288482666e-02 -4.754273593425750732e-01 -1.929933130741119385e-01
2.435000000000000000e+03 5.796988677978515625e+01 2.679101371765136719e+01 -1.144780039787292480e+00 2.926993668079376221e-01 -2.556242048740386963e-01 3.149455785751342773e-01
2.436000000000000000e+03 1.145524215698242188e+01 6.788820743560791016e+00 -3.008718977071112022e-06 -4.562068340874247951e-07 -1.039477751874073874e-06 -2.359372217597410781e-07
2.437000000000000000e+03 6.175106811523437500e+01 3.940963745117187500e+01 3.888403773307800293e-01 3.364439964294433594e+00 1.125984072685241699e+00 -8.308943510055541992e-01
2.438000000000000000e+03 1.251937580108642578e+01 5.552019596099853516e+00 -2.949649797301390208e-06 -1.113584531253763998e-07 -9.183024758385727182e-07 -2.096423923347856544e-09
2.439000000000000000e+03 5.947093963623046875e+01 3.740373229980468750e+01 6.181865930557250977e-01 1.254436135292053223e+00 5.617868304252624512e-01 -3.485459685325622559e-01
2.440000000000000000e+03 5.889955139160156250e+01 3.922019577026367188e+01 7.590307593345642090e-01 1.275508642196655273e+00 6.103618144989013672e-01 -6.699641048908233643e-02
2.441000000000000000e+03 1.023359394073486328e+01 1.626777839660644531e+01 5.420866273198043928e-06 8.059722667042024113e-09 1.628677750886708964e-06 1.411540097251418047e-06
2.442000000000000000e+03 9.156802177429199219e+00 1.255143451690673828e+01 4.601293312589405105e-06 5.854949449712876230e-07 1.556036409056105185e-06 -5.791947046418499667e-07
2.443000000000000000e+03 1.076534652709960938e+01 2.421721649169921875e+01 8.449758752249181271e-06 4.998274789613788016e-07 2.684875880731851794e-06 1.961028672781139903e-08
2.444000000000000000e+03 3.691608667373657227e+00 6.349196910858154297e+00 2.588553343230159953e-06 1.175802481157006696e-06 1.129306724578782450e-06 -9.115076977650460321e-07
2.445000000000000000e+03 7.383834838867187500e+01 3.372352981567382812e+01 9.844602942466735840e-01 9.186089515686035156e+00 3.051165103912353516e+00 1.271758317947387695e+00
2.446000000000000000e+03 7.298693084716796875e+01 3.315575790405273438e+01 1.615761876106262207e+00 9.720307350158691406e+00 3.400820970535278320e+00 1.281688809394836426e+00
2.447000000000000000e+03 2.606863975524902344e+01 -1.946038055419921875e+01 4.730118811130523682e-02 -1.544259190559387207e+00 -4.490873813629150391e-01 -1.217631325125694275e-01
2.448000000000000000e+03 7.512044906616210938e+00 7.294811725616455078e+00 -3.677542963487212546e-06 -4.722386393041233532e-07 -1.244934423993981909e-06 -1.526646769889339339e-06
2.449000000000000000e+03 2.726634788513183594e+01 1.766790628433227539e+00 2.197721228003501892e-02 -1.122144222259521484e+00 -3.300501108169555664e-01 -3.459590077400207520e-01
2.450000000000000000e+03 2.711823272705078125e+01 2.962665319442749023e+00 1.064103282988071442e-02 -1.123106837272644043e+00 -3.337397575378417969e-01 -3.534537553787231445e-01
2.451000000000000000e+03 1.144629573822021484e+01 -1.030508422851562500e+01 2.907453745137900114e-04 1.063880627043545246e-04 1.191400297102518380e-04 -1.794368581613525748e-04
2.452000000000000000e+03 9.684958457946777344e+00 -8.675760269165039062e+00 -3.211422881577163935e-04 -1.588102750247344375e-04 -1.439857733203098178e-04 3.395870735403150320e-04
2.453000000000000000e+03 9.094543457031250000e+00 1.872176170349121094e+01 -6.838386070739943534e-06 -3.695967976113934128e-08 -2.062603698504972272e-06 -1.967617890841211192e-06
2.454000000000000000e+03 7.777121543884277344e+00 1.492100524902343750e+01 -5.467157734528882429e-06 -2.163852741432492621e-07 -1.705062913970323280e-06 -1.040107804328727070e-06
2.455000000000000000e+03 8.212538719177246094e+00 2.331481361389160156e+01 -7.413655112031847239e-06 -2.250309307783027180e-07 -2.291605824211728759e-06 -3.245263314965995960e-06
2.456000000000000000e+03 8.233590126037597656e+00 2.442650222778320312e+01 7.778588042128831148e-06 8.492182814734405838e-07 2.588341885711997747e-06 1.712040557322325185e-06
2.457000000000000000e+03 6.615395069122314453e+00 1.342785549163818359e+01 -5.127095391799230129e-06 -6.385847655110410415e-07 -1.729703967612294946e-06 -8.987149726635834668e-07
2.458000000000000000e+03 2.731039047241210938e+01 -7.004055976867675781e+00 3.885849937796592712e-02 -1.280459284782409668e+00 -3.724802434444427490e-01 -2.467102855443954468e-01
2.459000000000000000e+03 2.753781318664550781e+01 -3.368285655975341797e+00 4.722086712718009949e-02 -1.195173144340515137e+00 -3.443856835365295410e-01 -2.785871028900146484e-01
2.460000000000000000e+03 7.538883972167968750e+01 2.633397483825683594e+01 2.188237160444259644e-01 8.311408042907714844e+00 2.559069395065307617e+00 -1.300439834594726562e+00
2.461000000000000000e+03 1.083827209472656250e+01 -1.370925712585449219e+01 -2.034803037531673908e-04 -5.013562040403485298e-04 -2.114509552484378219e-04 2.192797837778925896e-04
2.462000000000000000e+03 7.071144104003906250e+01 -2.604018592834472656e+01 2.060553990304470062e-02 6.316398620605468750e+00 1.901101231575012207e+00 6.978442519903182983e-02
2.463000000000000000e+03 7.537024688720703125e+01 2.929195213317871094e+01 9.999346733093261719e-01 7.944201469421386719e+00 2.683240890502929688e+00 -6.882956624031066895e-01
2.464000000000000000e+03 7.445742034912109375e+01 2.874300384521484375e+01 1.165369153022766113e+00 8.559451103210449219e+00 2.917446136474609375e+00 -9.471722841262817383e-01
2.465000000000000000e+03 7.430273437500000000e+01 3.124966430664062500e+01 1.660502672195434570e+00 8.549586296081542969e+00 3.063026666641235352e+00 2.212555259466171265e-01
2.466000000000000000e+03 7.421411132812500000e+01 3.260161972045898438e+01 1.383784174919128418e+00 8.790665626525878906e+00 3.052334785461425781e+00 8.814258575439453125e-01
2.467000000000000000e+03 9.771038055419921875e+00 2.792444801330566406e+01 1.009787229122593999e-05 2.603514758448000066e-06 3.810416046690079384e-06 -1.981271964268671582e-07
2.468000000000000000e+03 7.267554473876953125e+01 -2.326768684387207031e+01 2.424508146941661835e-02 6.679287433624267578e+00 2.011059761047363281e+00 7.499267905950546265e-02
2.469000000000000000e+03 7.378774261474609375e+01 1.193242740631103516e+01 -1.911722421646118164e-01 7.859415054321289062e+00 2.300472736358642578e+00 1.772248893976211548e-01
2.470000000000000000e+03 7.389909362792968750e+01 1.316271400451660156e+01 -2.437415719032287598e-01 7.967556476593017578e+00 2.317144393920898438e+00 1.206389591097831726e-01
2.471000000000000000e+03 7.396890258789062500e+01 1.811354255676269531e+01 -5.289608836174011230e-01 8.432089805603027344e+00 2.370938539505004883e+00 -2.918053567409515381e-01
2.472000000000000000e+03 7.268634796142578125e+01 -1.650210571289062500e+01 2.937290817499160767e-02 6.734910964965820312e+00 2.029285192489624023e+00 1.094370558857917786e-01
2.473000000000000000e+03 7.273120117187500000e+01 -1.803275489807128906e+01 2.529277093708515167e-02 6.741960525512695312e+00 2.030175924301147461e+00 9.724994003772735596e-02
2.474000000000000000e+03 7.277318572998046875e+01 -9.395938873291015625e+00 4.238725826144218445e-02 6.861663818359375000e+00 2.071215391159057617e+00 1.789694130420684814e-01
2.475000000000000000e+03 7.271740722656250000e+01 -1.080010986328125000e+01 3.783119097352027893e-02 6.823243618011474609e+00 2.058322429656982422e+00 1.634178012609481812e-01
2.476000000000000000e+03 7.297556304931640625e+01 -1.304903745651245117e+00 3.934149071574211121e-02 7.100757122039794922e+00 2.142029523849487305e+00 2.675534784793853760e-01
2.477000000000000000e+03 7.296908569335937500e+01 -2.640525817871093750e+00 4.156195372343063354e-02 7.053520679473876953e+00 2.128524780273437500e+00 2.527424097061157227e-01
2.478000000000000000e+03 7.255133819580078125e+01 4.245588779449462891e+00 -5.428484873846173286e-04 7.186711788177490234e+00 2.155850648880004883e+00 3.313273787498474121e-01
2.479000000000000000e+03 7.264137268066406250e+01 6.683947563171386719e+00 -4.235384613275527954e-02 7.301233768463134766e+00 2.177664041519165039e+00 3.312220573425292969e-01
2.480000000000000000e+03 7.294812011718750000e+01 -3.985798358917236328e+00 4.449110850691795349e-02 7.016977787017822266e+00 2.118440628051757812e+00 2.362387031316757202e-01
2.481000000000000000e+03 8.384899139404296875e+00 3.648361968994140625e+01 -1.911627805384341627e-05 -3.338961505505722016e-06 -6.736571776855271310e-06 -1.004467048915103078e-05
2.482000000000000000e+03 7.310517883300781250e+01 8.065336227416992188e+00 -6.856577843427658081e-02 7.491356372833251953e+00 2.226837158203125000e+00 2.996979951858520508e-01
2.483000000000000000e+03 7.341623687744140625e+01 9.392605781555175781e+00 -1.090128868818283081e-01 7.626470565795898438e+00 2.255237340927124023e+00 2.684136629104614258e-01
2.484000000000000000e+03 7.240827178955078125e+01 -2.708435440063476562e+01 1.224381290376186371e-02 6.598821163177490234e+00 1.983319401741027832e+00 6.131536513566970825e-02
2.485000000000000000e+03 1.138776588439941406e+01 9.103967666625976562e+00 -3.191782298017642461e-06 -6.010504876030609012e-07 -1.137849835686211009e-06 -3.504148367028392386e-07
2.486000000000000000e+03 8.341747283935546875e+00 -1.932767295837402344e+01 5.270647234283387661e-04 5.173927638679742813e-04 3.133372229058295488e-04 -3.441144945099949837e-04
2.487000000000000000e+03 1.012985515594482422e+01 -1.698944091796875000e+01 -6.661654333584010601e-04 -2.170181542169302702e-04 -2.649550733622163534e-04 4.250901984050869942e-04
2.488000000000000000e+03 2.639133262634277344e+01 2.734146690368652344e+01 -1.088881492614746094e-01 -1.480178833007812500e-01 -7.707180827856063843e-02 -2.282839119434356689e-01
2.489000000000000000e+03 2.547742080688476562e+01 2.585298347473144531e+01 -7.372614741325378418e-02 -2.120849192142486572e-01 -8.574331551790237427e-02 -2.345559149980545044e-01
2.490000000000000000e+03 7.396316528320312500e+01 1.439028453826904297e+01 -3.096386790275573730e-01 8.075331687927246094e+00 2.329707860946655273e+00 4.053821042180061340e-02
2.491000000000000000e+03 2.856017112731933594e+01 1.618822097778320312e+01 -1.911957561969757080e-02 -5.320599675178527832e-01 -1.653538644313812256e-01 -5.258206725120544434e-01
2.492000000000000000e+03 9.352402687072753906e+00 -2.061544990539550781e+01 9.003835730254650116e-04 4.302651213947683573e-04 3.991946286987513304e-04 -2.614702098071575165e-04
2.493000000000000000e+03 2.715301704406738281e+01 8.173089981079101562e+00 1.001086644828319550e-02 -9.526264667510986328e-01 -2.827846705913543701e-01 -4.353483021259307861e-01
2.494000000000000000e+03 2.716630744934082031e+01 1.092057514190673828e+01 1.062765624374151230e-02 -8.456711173057556152e-01 -2.505130469799041748e-01 -4.589898884296417236e-01
2.495000000000000000e+03 2.595659065246582031e+01 9.704140663146972656e+00 3.275557886809110641e-03 -1.014305353164672852e+00 -3.033089637756347656e-01 -3.986918032169342041e-01
2.496000000000000000e+03 2.596601104736328125e+01 1.250667095184326172e+01 4.010477568954229355e-03 -8.739904165267944336e-01 -2.609939873218536377e-01 -4.086422920227050781e-01
2.497000000000000000e+03 2.962598991394042969e+01 7.827043056488037109e+00 4.542131349444389343e-02 -7.057749032974243164e-01 -1.981060802936553955e-01 -5.013539791107177734e-01
2.498000000000000000e+03 6.160242080688476562e+00 -8.943306922912597656e+00 -2.054068900179117918e-04 -8.609308679297100753e-06 -6.420486170100048184e-05 -2.991917062900029123e-05
2.499000000000000000e+03 5.053412437438964844e+00 -9.035897254943847656e+00 2.388819411862641573e-04 1.705677823338191956e-05 7.678161637159064412e-05 -7.336854196182684973e-06
2.500000000000000000e+03 2.600600624084472656e+01 1.533347415924072266e+01 -6.079091224819421768e-03 -7.224119305610656738e-01 -2.185473144054412842e-01 -4.108871221542358398e-01
2.501000000000000000e+03 2.718747329711914062e+01 1.370112037658691406e+01 2.380639314651489258e-03 -7.240529656410217285e-01 -2.165016978979110718e-01 -4.700501561164855957e-01
2.502000000000000000e+03 7.390158081054687500e+01 2.064943313598632812e+01 -6.427477002143859863e-01 8.733213424682617188e+00 2.427139759063720703e+00 -6.272934079170227051e-01
2.503000000000000000e+03 6.990887641906738281e+00 2.568271446228027344e+01 1.001484451990108937e-05 -4.679213461145081965e-08 2.990415850945282727e-06 1.757898985488282051e-06
2.504000000000000000e+03 5.719465255737304688e+00 2.573900032043457031e+01 -1.070054531737696379e-05 7.031276822999643628e-07 -2.999225444000330754e-06 -2.328624532310641371e-06
2.505000000000000000e+03 9.644742012023925781e+00 -2.704567146301269531e+01 4.366529465187340975e-04 -8.996058604680001736e-04 -1.388858654536306858e-04 8.199486183002591133e-04
2.506000000000000000e+03 5.824987411499023438e+00 -2.393437576293945312e+01 -8.691403781995177269e-04 4.953569732606410980e-04 -1.121350142057053745e-04 8.232627442339435220e-05
2.507000000000000000e+03 6.794414997100830078e+00 -1.684645652770996094e+01 -5.545374006032943726e-04 4.145896818954497576e-04 -4.198431997792795300e-05 1.290619093197165057e-05
2.508000000000000000e+03 2.590194892883300781e+01 2.953309822082519531e+01 -9.551146626472473145e-02 -8.788763731718063354e-02 -5.501973256468772888e-02 -1.438467949628829956e-01
2.509000000000000000e+03 8.473413467407226562e+00 2.808724594116210938e+01 -1.176722344098379835e-05 -1.247389036507229321e-06 -3.904383902408881113e-06 1.386409280712541658e-06
2.510000000000000000e+03 1.080826091766357422e+01 -2.252463722229003906e+01 3.516855649650096893e-04 -6.893050158396363258e-04 -1.012858410831540823e-04 4.954272299073636532e-04
2.511000000000000000e+03 1.136533737182617188e+01 -2.342894744873046875e+01 -1.384950708597898483e-03 1.164022367447614670e-03 -6.627848779316991568e-05 4.820309113711118698e-04
2.512000000000000000e+03 6.636355876922607422e+00 1.966192054748535156e+01 6.750230113539146259e-06 8.310251331522522378e-08 2.049999693554127589e-06 3.305068958070478402e-06
2.513000000000000000e+03 5.628295898437500000e+00 1.984209442138671875e+01 -4.192826054350007325e-06 1.640492826027184492e-07 -1.208632966154254973e-06 8.980214261100627482e-07
2.514000000000000000e+03 6.579195499420166016e+00 1.480316352844238281e+01 5.476520072988932952e-06 4.305107950131059624e-07 1.772109271769295447e-06 8.353039220310165547e-07
2.515000000000000000e+03 5.412161350250244141e+00 1.330480194091796875e+01 5.437461368273943663e-06 4.427228930126148043e-07 1.764055241437745281e-06 1.301783925100608030e-07
2.516000000000000000e+03 5.385078907012939453e+00 1.607398223876953125e+01 5.941055860603228211e-06 3.897406202213460347e-07 1.899239009617303964e-06 3.738510656603466487e-07
2.517000000000000000e+03 5.766872406005859375e+00 -1.970396232604980469e+01 3.314542409498244524e-04 2.803003881126642227e-04 1.835263828979805112e-04 -2.479677496012300253e-04
2.518000000000000000e+03 8.229800224304199219e+00 -2.043860435485839844e+01 -1.064552576281130314e-03 1.020136041915975511e-04 -2.887616865336894989e-04 5.682844785042107105e-04
2.519000000000000000e+03 2.742080116271972656e+01 2.197637176513671875e+01 -8.347590267658233643e-02 -3.400987982749938965e-01 -1.270724087953567505e-01 -4.098380804061889648e-01
2.520000000000000000e+03 2.759427452087402344e+01 -1.517378520965576172e+01 3.338197246193885803e-02 -1.273771405220031738e+00 -3.721168339252471924e-01 -1.545277386903762817e-01
2.521000000000000000e+03 2.732156753540039062e+01 -9.599139213562011719e+00 2.777063660323619843e-02 -1.290562272071838379e+00 -3.788374960422515869e-01 -2.211646288633346558e-01
2.522000000000000000e+03 7.516180419921875000e+01 3.152749252319335938e+01 1.217890381813049316e+00 8.087453842163085938e+00 2.791603088378906250e+00 2.948642373085021973e-01
2.523000000000000000e+03 6.341799259185791016e+00 -1.439874935150146484e+01 -4.070124705322086811e-04 -6.603584188269451261e-05 -1.419144973624497652e-04 7.957264460856094956e-05
2.524000000000000000e+03 2.563719177246093750e+01 2.449400711059570312e+01 -7.099782675504684448e-02 -2.665046155452728271e-01 -1.012507304549217224e-01 -2.762090563774108887e-01
2.525000000000000000e+03 1.069699859619140625e+01 -2.830986022949218750e+01 7.662413408979773521e-04 -1.137250917963683605e-03 -1.113028847612440586e-04 8.396299672313034534e-04
2.526000000000000000e+03 1.076221275329589844e+01 -2.710834121704101562e+01 5.514543736353516579e-04 3.140420420095324516e-03 1.107562449760735035e-03 -1.966047100722789764e-03
2.527000000000000000e+03 8.373493194580078125e+00 9.232753753662109375e+00 4.057376827404368669e-06 -9.369049394081230275e-07 9.361415322928223759e-07 2.222823241027072072e-07
2.528000000000000000e+03 4.796058177947998047e+00 7.425103187561035156e+00 2.139290700142737478e-06 4.247604579177277628e-07 7.692153758398490027e-07 -1.473450197408965323e-06
2.529000000000000000e+03 6.028399467468261719e+00 8.756248474121093750e+00 3.065686769332387485e-06 1.534558236926386598e-06 1.380073513246315997e-06 -6.492834927485091612e-07
2.530000000000000000e+03 1.020651817321777344e+01 1.251126670837402344e+01 -2.234761950603569858e-06 -1.780399543349631131e-06 -1.204548425448592752e-06 1.722557385619438719e-06
2.531000000000000000e+03 5.265197753906250000e+00 -1.313382720947265625e+01 -3.524468920659273863e-04 -1.076458356692455709e-04 -1.380278117721900344e-04 1.863972283899784088e-05
2.532000000000000000e+03 6.384672164916992188e+00 -1.312553787231445312e+01 3.274515911471098661e-04 1.762288302415981889e-04 1.511041191406548023e-04 -1.082177841453813016e-04
2.533000000000000000e+03 6.712863445281982422e+00 1.198563385009765625e+01 4.382715360407019034e-06 1.231571104653994553e-06 1.684285962255671620e-06 1.192419745166262146e-06
2.534000000000000000e+03 6.021057605743408203e+00 -7.674243927001953125e+00 1.977932261070236564e-04 1.156606958829797804e-04 9.403617877978831530e-05 2.100404344673734158e-06
2.535000000000000000e+03 6.164451599121093750e+00 -6.661049365997314453e+00 -3.895106201525777578e-04 -1.534863404231145978e-04 -1.628990867175161839e-04 -6.382134597515687346e-05
2.536000000000000000e+03 2.777495002746582031e+01 -1.932644844055175781e+01 6.064215674996376038e-02 -1.229317784309387207e+00 -3.506026864051818848e-01 -1.208530738949775696e-01
2.537000000000000000e+03 7.192716979980468750e+01 3.591734695434570312e+01 -3.453618586063385010e-01 1.076614570617675781e+01 3.126235246658325195e+00 1.363096594810485840e+00
2.538000000000000000e+03 2.595770263671875000e+01 -1.524670696258544922e+01 8.868343196809291840e-03 -1.552563428878784180e+00 -4.631085395812988281e-01 -1.350108683109283447e-01
2.539000000000000000e+03 2.713868331909179688e+01 6.817817687988281250e+00 7.552681025117635727e-03 -1.002394795417785645e+00 -2.984526455402374268e-01 -4.153598546981811523e-01
2.540000000000000000e+03 2.757928466796875000e+01 6.878042817115783691e-01 4.211481660604476929e-02 -1.106042981147766113e+00 -3.191784322261810303e-01 -3.337907791137695312e-01
2.541000000000000000e+03 2.834663772583007812e+01 5.362575054168701172e+00 2.384439669549465179e-02 -9.069357514381408691e-01 -2.649274170398712158e-01 -4.272331893444061279e-01
2.542000000000000000e+03 1.020016574859619141e+01 -3.063188934326171875e+01 5.601981189101934433e-03 -2.821150701493024826e-03 8.342490764334797859e-04 -2.835453720763325691e-03
2.543000000000000000e+03 1.003202724456787109e+01 -1.428006076812744141e+01 -5.159659776836633682e-04 3.753816999960690737e-04 -4.217528476146981120e-05 3.519043457345105708e-05
2.544000000000000000e+03 1.105526256561279297e+01 2.990894126892089844e+01 -1.233749935636296868e-05 -6.468525043601403013e-06 -5.641807547362986952e-06 -5.092929313832428306e-06
2.545000000000000000e+03 5.525695037841796875e+01 3.751902008056640625e+01 3.915890455245971680e-01 -3.192314878106117249e-02 1.078997701406478882e-01 3.470933139324188232e-01
2.546000000000000000e+03 2.604565811157226562e+01 -2.238049507141113281e+01 3.329508379101753235e-02 -1.548760771751403809e+00 -4.546397328376770020e-01 -1.216563805937767029e-01
2.547000000000000000e+03 2.430096054077148438e+01 -2.375844573974609375e+01 3.506205230951309204e-02 -1.845476508140563965e+00 -5.431243181228637695e-01 -1.245404779911041260e-01
2.548000000000000000e+03 1.051814365386962891e+01 2.285106849670410156e+01 -8.049725693126674742e-06 9.923832067215698771e-08 -2.385146217420697212e-06 1.265390494609164307e-07
2.549000000000000000e+03 2.630417060852050781e+01 1.990034294128417969e+01 -4.389577731490135193e-02 -4.657336175441741943e-01 -1.528888195753097534e-01 -3.951252996921539307e-01
2.550000000000000000e+03 2.425009727478027344e+01 -3.018891143798828125e+01 -4.591763764619827271e-02 -1.858460307121276855e+00 -5.713133811950683594e-01 -1.379975676536560059e-01
2.551000000000000000e+03 4.814307785034179688e+01 4.113476562500000000e+01 2.890446782112121582e-01 -2.856205999851226807e-01 1.027218881063163280e-03 7.646351307630538940e-02
2.552000000000000000e+03 4.497813415527343750e+01 3.987575912475585938e+01 1.136816069483757019e-01 -1.921423375606536865e-01 -2.353822067379951477e-02 8.448785543441772461e-02
2.553000000000000000e+03 2.555605888366699219e+01 -2.694714164733886719e+01 5.852105561643838882e-03 -1.615760803222656250e+00 -4.829725921154022217e-01 -1.220892742276191711e-01
2.554000000000000000e+03 2.387038230895996094e+01 -2.787306022644042969e+01 1.177407708019018173e-02 -1.940702557563781738e+00 -5.786785483360290527e-01 -1.147113144397735596e-01
2.555000000000000000e+03 1.190387630462646484e+01 3.447823333740234375e+01 2.469582614139653742e-05 -3.989249535152339377e-07 7.289070254046237096e-06 -4.242692284606164321e-06
2.556000000000000000e+03 1.155268287658691406e+01 -6.958242416381835938e+00 -1.893877779366448522e-04 2.533736114855855703e-04 1.919574970088433474e-05 -9.084743942366912961e-05
2.557000000000000000e+03 9.322319030761718750e+00 -6.030840396881103516e+00 4.583903137245215476e-05 3.775892837438732386e-04 1.270284992642700672e-04 -2.041047846432775259e-04
2.558000000000000000e+03 9.912564277648925781e+00 2.899625396728515625e+01 -1.182313735625939444e-05 -3.313055913167772815e-06 -4.540857844403944910e-06 1.349590206700668205e-06
2.559000000000000000e+03 2.585060691833496094e+01 -2.383616828918457031e+01 3.759579360485076904e-02 -1.565626502037048340e+00 -4.584092199802398682e-01 -1.137120798230171204e-01
2.560000000000000000e+03 7.316718292236328125e+01 3.731120681762695312e+01 -6.404799222946166992e-01 9.907131195068359375e+00 2.779995441436767578e+00 1.174780130386352539e+00
2.561000000000000000e+03 7.255731964111328125e+01 -2.191608619689941406e+01 2.713891677558422089e-02 6.677271842956542969e+00 2.011323213577270508e+00 7.959446310997009277e-02
2.562000000000000000e+03 7.270687866210937500e+01 -1.502624416351318359e+01 3.003063425421714783e-02 6.762374401092529297e+00 2.037721633911132812e+00 1.272729486227035522e-01
2.563000000000000000e+03 7.820855617523193359e+00 -3.475511169433593750e+01 1.687041670083999634e-02 -9.468047879636287689e-03 2.220710972324013710e-03 9.495611302554607391e-03
2.564000000000000000e+03 9.086079597473144531e+00 -3.552274703979492188e+01 1.821786537766456604e-02 -1.985716819763183594e-02 -4.917905898764729500e-04 7.490347605198621750e-03
2.565000000000000000e+03 2.701734924316406250e+01 -7.721028327941894531e-01 3.299072012305259705e-02 -1.240135669708251953e+00 -3.621434867382049561e-01 -3.004002571105957031e-01
2.566000000000000000e+03 7.282124328613281250e+01 -8.022417068481445312e+00 4.351999610662460327e-02 6.901549816131591797e+00 2.083520889282226562e+00 1.935667097568511963e-01
2.567000000000000000e+03 1.059575653076171875e+01 3.642237854003906250e+01 2.504335498088039458e-05 3.259425284340977669e-06 8.490834261465352029e-06 1.016391615848988295e-05
2.568000000000000000e+03 1.036041641235351562e+01 3.348438644409179688e+01 2.250382749480195343e-05 -7.682774594286456704e-06 4.446315870154649019e-06 5.086411420052172616e-06
2.569000000000000000e+03 8.339349746704101562e+00 3.881135940551757812e+01 7.599683613079832867e-06 1.484214044467080384e-05 6.732547262799926102e-06 1.589972453075461090e-05
2.570000000000000000e+03 1.028020477294921875e+01 -1.130405044555664062e+01 4.009447293356060982e-04 -1.336028653895482421e-04 8.020256063900887966e-05 -1.005795056698843837e-04
2.571000000000000000e+03 6.610011291503906250e+01 3.308465194702148438e+01 1.105649232864379883e+00 1.003304958343505859e+01 3.341609716415405273e+00 -5.470070838928222656e+00
2.572000000000000000e+03 6.697169494628906250e+01 3.360124588012695312e+01 -4.350674152374267578e-01 1.382619476318359375e+01 4.017338275909423828e+00 -3.578527450561523438e+00
2.573000000000000000e+03 6.674450683593750000e+01 2.843604850769042969e+01 -3.348949253559112549e-01 1.340157699584960938e+01 3.920004606246948242e+00 4.716670513153076172e+00
2.574000000000000000e+03 6.724361419677734375e+01 2.824398612976074219e+01 -8.109833002090454102e-01 1.481671905517578125e+01 4.201720714569091797e+00 3.203561782836914062e+00
2.575000000000000000e+03 6.960502624511718750e+01 3.030866622924804688e+01 6.065968990325927734e+00 1.319956588745117188e+01 5.779660701751708984e+00 -9.827618598937988281e-01
2.576000000000000000e+03 6.759165954589843750e+01 3.277216339111328125e+01 2.603008151054382324e-01 1.837808418273925781e+01 5.591515541076660156e+00 -1.218896746635437012e+00
2.577000000000000000e+03 6.853005981445312500e+01 2.905748367309570312e+01 2.074852466583251953e+00 1.674457168579101562e+01 5.645827293395996094e+00 -1.521413683891296387e+00
2.578000000000000000e+03 7.451332855224609375e+01 3.034977340698242188e+01 1.496524572372436523e+00 8.441878318786621094e+00 2.981520891189575195e+00 -2.786187231540679932e-01
2.579000000000000000e+03 6.949034118652343750e+01 3.059827613830566406e+01 6.619253158569335938e+00 1.328635311126708984e+01 5.971682071685791016e+00 -5.094534158706665039e-01
2.580000000000000000e+03 7.429138946533203125e+01 2.517817497253417969e+01 -9.788984805345535278e-02 9.009757041931152344e+00 2.673560142517089844e+00 -1.361253023147583008e+00
2.581000000000000000e+03 6.878763580322265625e+01 2.892672538757324219e+01 2.002295017242431641e+00 1.578285503387451172e+01 5.335545063018798828e+00 -1.562490344047546387e+00
2.582000000000000000e+03 6.886083221435546875e+01 2.918446350097656250e+01 2.802216529846191406e+00 1.569433116912841797e+01 5.548964500427246094e+00 -1.875810146331787109e+00
2.583000000000000000e+03 7.004358673095703125e+01 3.184768676757812500e+01 4.669886112213134766e+00 1.262916851043701172e+01 5.189716339111328125e+00 1.538874268531799316e+00
2.584000000000000000e+03 7.229527282714843750e+01 3.400486373901367188e+01 1.059725880622863770e+00 1.049162101745605469e+01 3.465404033660888672e+00 1.619760394096374512e+00
2.585000000000000000e+03 6.883586883544921875e+01 3.322893524169921875e+01 1.140108108520507812e+00 1.517144775390625000e+01 4.893466472625732422e+00 1.350730180740356445e+00
2.586000000000000000e+03 7.006830596923828125e+01 3.034904479980468750e+01 5.355674266815185547e+00 1.234906482696533203e+01 5.311421871185302734e+00 -7.574638724327087402e-01
2.587000000000000000e+03 6.981381988525390625e+01 2.923337936401367188e+01 3.357940912246704102e+00 1.334310817718505859e+01 5.010314941406250000e+00 -1.848168611526489258e+00
2.588000000000000000e+03 7.358966064453125000e+01 3.301092910766601562e+01 1.458470821380615234e+00 9.265666007995605469e+00 3.217241048812866211e+00 1.117004871368408203e+00
2.589000000000000000e+03 6.993122863769531250e+01 3.146147918701171875e+01 5.343157291412353516e+00 1.257525920867919922e+01 5.375524997711181641e+00 1.119443893432617188e+00
2.590000000000000000e+03 6.578767395019531250e+01 2.842794036865234375e+01 8.203619718551635742e-01 7.936221122741699219e+00 2.626975059509277344e+00 5.428615093231201172e+00
2.591000000000000000e+03 6.554027557373046875e+01 2.774173927307128906e+01 3.475911319255828857e-01 7.359529018402099609e+00 2.312135934829711914e+00 4.631830692291259766e+00
2.592000000000000000e+03 6.505084991455078125e+01 3.412463378906250000e+01 9.027494192123413086e-01 5.924036026000976562e+00 2.048035621643066406e+00 -3.810716867446899414e+00
2.593000000000000000e+03 6.626506042480468750e+01 2.816553878784179688e+01 -2.304833568632602692e-02 1.060787487030029297e+01 3.175447940826416016e+00 5.163857460021972656e+00
2.594000000000000000e+03 6.456085968017578125e+01 3.357581329345703125e+01 1.344633698463439941e+00 3.780926942825317383e+00 1.537668108940124512e+00 -3.207214117050170898e+00
2.595000000000000000e+03 6.305015563964843750e+01 2.689693450927734375e+01 2.155728638172149658e-01 2.363901853561401367e+00 7.738424539566040039e-01 2.536341428756713867e+00
2.596000000000000000e+03 6.116028213500976562e+01 2.644148063659667969e+01 -2.401349097490310669e-01 1.192094564437866211e+00 2.855878770351409912e-01 1.463498592376708984e+00
2.597000000000000000e+03 8.726668357849121094e+00 6.275021553039550781e+00 3.263400913056102581e-06 -1.449271849196520634e-07 9.355421752843540162e-07 5.905923785576305818e-07
2.598000000000000000e+03 6.024178504943847656e+00 5.823908805847167969e+00 1.126732485090542468e-07 -1.550510091874457430e-06 -4.313510544307064265e-07 1.616424896155876922e-07
2.599000000000000000e+03 2.697252273559570312e+01 2.875606727600097656e+01 -1.280575245618820190e-01 -1.005997285246849060e-01 -6.859717518091201782e-02 -1.966232061386108398e-01
2.600000000000000000e+03 2.663748359680175781e+01 3.052320098876953125e+01 -1.157076507806777954e-01 -5.953044071793556213e-02 -5.257142707705497742e-02 -1.313826739788055420e-01
2.601000000000000000e+03 4.928664779663085938e+01 2.671166229248046875e+01 -1.314447283744812012e+00 9.807428717613220215e-02 -3.649118840694427490e-01 -4.062447845935821533e-01
2.602000000000000000e+03 4.626488113403320312e+01 2.726238632202148438e+01 -1.236527919769287109e+00 9.517975151538848877e-02 -3.424044549465179443e-01 -4.385935664176940918e-01
2.603000000000000000e+03 7.667111396789550781e+00 5.645973682403564453e+00 -5.473481223816634156e-07 9.840952088779886253e-07 1.310241231067266199e-07 8.745867035031551495e-07
2.604000000000000000e+03 7.221550464630126953e+00 6.185335159301757812e+00 -1.413086920365458354e-06 -1.748381919242092408e-06 -9.484406291448976845e-07 -1.560874579809023999e-06
2.605000000000000000e+03 6.048870086669921875e+01 2.630055999755859375e+01 -3.598079979419708252e-01 9.837466478347778320e-01 1.871815919876098633e-01 1.172132134437561035e+00
2.606000000000000000e+03 2.662509346008300781e+01 2.603380966186523438e+01 -1.078772023320198059e-01 -1.904605329036712646e-01 -8.950132131576538086e-02 -2.747251987457275391e-01
2.607000000000000000e+03 3.090516662597656250e+01 2.836858177185058594e+01 -2.894647419452667236e-01 -4.213201999664306641e-02 -9.947902709245681763e-02 -3.113624751567840576e-01
2.608000000000000000e+03 3.241789245605468750e+01 2.910011863708496094e+01 -3.684823215007781982e-01 -2.953181974589824677e-03 -1.114306524395942688e-01 -3.034430444240570068e-01
2.609000000000000000e+03 3.165042495727539062e+01 2.834431457519531250e+01 -3.230659365653991699e-01 -2.978497557342052460e-02 -1.058552712202072144e-01 -3.270377814769744873e-01
2.610000000000000000e+03 2.804813003540039062e+01 2.833148956298828125e+01 -1.719576120376586914e-01 -9.301219135522842407e-02 -7.949093729257583618e-02 -2.451909035444259644e-01
2.611000000000000000e+03 1.039326190948486328e+01 6.821000099182128906e+00 3.373254230609745719e-06 4.733750529339886270e-07 1.153988819169171620e-06 4.966307756149035413e-07
2.612000000000000000e+03 3.382765197753906250e+01 2.894514656066894531e+01 -4.468565881252288818e-01 1.767196878790855408e-02 -1.287553906440734863e-01 -3.322797417640686035e-01
2.613000000000000000e+03 3.748633193969726562e+01 2.894064712524414062e+01 -6.874182820320129395e-01 6.376533210277557373e-02 -1.870958805084228516e-01 -3.584078848361968994e-01
2.614000000000000000e+03 3.709795761108398438e+01 2.756036376953125000e+01 -6.067901253700256348e-01 5.087710544466972351e-02 -1.667739152908325195e-01 -4.487143754959106445e-01
2.615000000000000000e+03 7.086532592773437500e+00 -5.866886138916015625e+00 -2.372063463553786278e-04 -1.495549167884746566e-05 -7.564855332020670176e-05 -1.977662577701266855e-05
2.616000000000000000e+03 3.677558898925781250e+01 2.908245086669921875e+01 -6.396269798278808594e-01 5.758864432573318481e-02 -1.746115088462829590e-01 -3.456653058528900146e-01
2.617000000000000000e+03 3.659070587158203125e+01 2.840180015563964844e+01 -6.074146628379821777e-01 5.148765817284584045e-02 -1.667781025171279907e-01 -3.920457065105438232e-01
2.618000000000000000e+03 8.447556495666503906e+00 -9.246050834655761719e+00 -8.421564416494220495e-05 -3.548958047758787870e-04 -1.317334390478208661e-04 1.318636932410299778e-04
2.619000000000000000e+03 4.438747406005859375e+01 2.623982429504394531e+01 -9.479111433029174805e-01 1.114490479230880737e-01 -2.509386241436004639e-01 -5.310851931571960449e-01
2.620000000000000000e+03 3.520538711547851562e+01 2.869882583618164062e+01 -5.262719392776489258e-01 3.608651459217071533e-02 -1.470556259155273438e-01 -3.615167438983917236e-01
2.621000000000000000e+03 3.451448059082031250e+01 2.882976531982421875e+01 -4.857207834720611572e-01 2.749834395945072174e-02 -1.374667286872863770e-01 -3.469585180282592773e-01
2.622000000000000000e+03 5.576842880249023438e+01 2.629981613159179688e+01 -1.133747696876525879e+00 2.179626226425170898e-01 -2.747355401515960693e-01 2.060829289257526398e-02
2.623000000000000000e+03 4.531010437011718750e+01 2.674812889099121094e+01 -1.081422567367553711e+00 1.057864129543304443e-01 -2.926908433437347412e-01 -4.887299537658691406e-01
2.624000000000000000e+03 3.943594360351562500e+01 2.781305503845214844e+01 -7.763759493827819824e-01 8.015226572751998901e-02 -2.088671028614044189e-01 -4.464545547962188721e-01
2.625000000000000000e+03 4.308557891845703125e+01 2.715628623962402344e+01 -9.842434525489807129e-01 9.954554587602615356e-02 -2.654093801975250244e-01 -4.832616746425628662e-01
2.626000000000000000e+03 3.639955520629882812e+01 2.770166778564453125e+01 -5.718453526496887207e-01 4.424226284027099609e-02 -1.582809388637542725e-01 -4.330767095088958740e-01
2.627000000000000000e+03 1.088301277160644531e+01 -7.765064239501953125e+00 -1.284016034333035350e-04 -3.035672416444867849e-04 -1.295906549785286188e-04 2.747229300439357758e-04
2.628000000000000000e+03 8.643071174621582031e+00 -5.854121685028076172e+00 -5.543609222513623536e-05 -1.533900649519637227e-04 -6.264784315135329962e-05 -8.939798135543242097e-06
2.629000000000000000e+03 5.873471069335937500e+01 2.678081130981445312e+01 -1.000119924545288086e+00 3.941496312618255615e-01 -1.817910969257354736e-01 4.802952408790588379e-01
2.630000000000000000e+03 6.005313491821289062e+01 2.590250396728515625e+01 -3.242174685001373291e-01 9.548612833023071289e-01 1.891931295394897461e-01 1.098703384399414062e+00
2.631000000000000000e+03 5.077780914306640625e+01 2.645602035522460938e+01 -1.306356549263000488e+00 1.052620485424995422e-01 -3.603283464908599854e-01 -3.611836731433868408e-01
2.632000000000000000e+03 5.250124359130859375e+01 2.682557106018066406e+01 -1.464961647987365723e+00 9.250375628471374512e-02 -4.117373824119567871e-01 -2.728936374187469482e-01
2.633000000000000000e+03 4.253842163085937500e+01 2.796833801269531250e+01 -1.030056357383728027e+00 9.326314926147460938e-02 -2.810379564762115479e-01 -4.234027862548828125e-01
2.634000000000000000e+03 4.876593780517578125e+01 2.753395080566406250e+01 -1.488851428031921387e+00 7.677305489778518677e-02 -4.236235022544860840e-01 -3.673824071884155273e-01
2.635000000000000000e+03 5.003767395019531250e+01 2.658276367187500000e+01 -1.313953042030334473e+00 1.012550592422485352e-01 -3.638093769550323486e-01 -3.841098546981811523e-01
2.636000000000000000e+03 4.777579879760742188e+01 2.698319625854492188e+01 -1.289077162742614746e+00 9.409838169813156128e-02 -3.584936261177062988e-01 -4.297232031822204590e-01
2.637000000000000000e+03 5.319117736816406250e+01 2.655215454101562500e+01 -1.363120675086975098e+00 1.266960799694061279e-01 -3.709273934364318848e-01 -2.238253504037857056e-01
2.638000000000000000e+03 6.470594024658203125e+01 3.412506103515625000e+01 9.596424698829650879e-01 4.994726657867431641e+00 1.786310791969299316e+00 -3.362699508666992188e+00
2.639000000000000000e+03 6.337089157104492188e+01 3.634760665893554688e+01 5.368280410766601562e-01 3.854162454605102539e+00 1.317297220230102539e+00 -1.758858680725097656e+00
2.640000000000000000e+03 5.149599456787109375e+01 2.631560325622558594e+01 -1.278506398200988770e+00 1.133571341633796692e-01 -3.495447933673858643e-01 -3.297317326068878174e-01
2.641000000000000000e+03 5.217785263061523438e+01 2.613675880432128906e+01 -1.224214315414428711e+00 1.257724016904830933e-01 -3.295325934886932373e-01 -2.890616655349731445e-01
2.642000000000000000e+03 1.147828960418701172e+01 5.731017112731933594e+00 3.080833266722038388e-06 1.619226139837337541e-07 9.728266832098597661e-07 2.130224174834438600e-07
2.643000000000000000e+03 1.141955089569091797e+01 7.922678470611572266e+00 3.084253194174380042e-06 5.694597007277479861e-07 1.096113805942877661e-06 3.629714910857728682e-07
2.644000000000000000e+03 5.717847442626953125e+01 2.613142776489257812e+01 -9.405333995819091797e-01 3.346751034259796143e-01 -1.817574948072433472e-01 2.620584964752197266e-01
2.645000000000000000e+03 4.701712036132812500e+01 2.712244415283203125e+01 -1.264018654823303223e+00 9.497141093015670776e-02 -3.507141768932342529e-01 -4.353685975074768066e-01
2.646000000000000000e+03 4.605265426635742188e+01 2.659950447082519531e+01 -1.102504968643188477e+00 1.069333180785179138e-01 -2.986715137958526611e-01 -4.868075251579284668e-01
2.647000000000000000e+03 4.754684829711914062e+01 2.629582023620605469e+01 -1.128856539726257324e+00 1.107158660888671875e-01 -3.054421842098236084e-01 -4.739328920841217041e-01
2.648000000000000000e+03 5.791517257690429688e+01 2.613252830505371094e+01 -8.351379036903381348e-01 4.308466911315917969e-01 -1.212873607873916626e-01 4.081741869449615479e-01
2.649000000000000000e+03 1.114727687835693359e+01 -6.071611881256103516e+00 1.604576245881617069e-04 -2.188821381423622370e-04 -1.752735624904744327e-05 6.196950562298297882e-05
2.650000000000000000e+03 9.213335990905761719e+00 1.133108425140380859e+01 -4.400817488203756511e-06 -5.622109711111988872e-07 -1.488908537794486620e-06 9.060734669219527859e-07
2.651000000000000000e+03 7.830418109893798828e+00 1.863025856018066406e+01 6.568185654032276943e-06 2.433446866234589834e-07 2.043459062406327575e-06 2.591016709629911929e-06
2.652000000000000000e+03 7.369544506072998047e+00 -1.542276954650878906e+01 -2.927010646089911461e-04 8.160078323271591216e-06 -8.536229870514944196e-05 3.271002788096666336e-04
2.653000000000000000e+03 6.488903808593750000e+01 3.623381805419921875e+01 -3.085791319608688354e-02 6.377913475036621094e+00 1.904116749763488770e+00 -2.639291524887084961e+00
2.654000000000000000e+03 1.034324550628662109e+01 9.106453895568847656e+00 3.576197059373953380e-06 3.966424628742970526e-07 1.191851879411842674e-06 2.838429757900939876e-08
2.655000000000000000e+03 7.181702423095703125e+01 2.029701042175292969e+01 -9.273768067359924316e-01 8.796161651611328125e+00 2.360635519027709961e+00 -1.439151912927627563e-01
2.656000000000000000e+03 7.446138000488281250e+01 2.812130355834960938e+01 9.076710939407348633e-01 8.656816482543945312e+00 2.869346380233764648e+00 -1.176638722419738770e+00
2.657000000000000000e+03 7.448465728759765625e+01 2.633060073852539062e+01 2.710719704627990723e-01 8.885161399841308594e+00 2.746870040893554688e+00 -1.389335751533508301e+00
2.658000000000000000e+03 7.455610656738281250e+01 2.947193336486816406e+01 1.421546220779418945e+00 8.457798957824707031e+00 2.963803768157958984e+00 -7.011829018592834473e-01
2.659000000000000000e+03 7.314311981201171875e+01 3.487868499755859375e+01 3.834645450115203857e-01 9.926232337951660156e+00 3.092909097671508789e+00 1.519186735153198242e+00
2.660000000000000000e+03 2.967575836181640625e+01 5.140950202941894531e+00 4.664985463023185730e-02 -7.553212642669677734e-01 -2.126014232635498047e-01 -4.550815820693969727e-01
2.661000000000000000e+03 5.806455993652343750e+01 4.138760757446289062e+01 9.070580005645751953e-01 8.535251021385192871e-01 5.281749367713928223e-01 2.196495793759822845e-02
2.662000000000000000e+03 6.269667148590087891e+00 9.885710716247558594e+00 -1.647899580348166637e-06 1.480496507610951085e-06 -5.022093674256211671e-08 1.447352246941591147e-06
2.663000000000000000e+03 1.022451972961425781e+01 1.138878822326660156e+01 3.376732365723000839e-06 1.222424998559290543e-06 1.379747232022054959e-06 -8.938150699577818159e-07
2.664000000000000000e+03 1.171734619140625000e+01 -7.968375682830810547e+00 1.678337430348619819e-04 5.191408126847818494e-05 6.592435238417237997e-05 -1.199318012368166819e-05
2.665000000000000000e+03 1.032211875915527344e+01 -1.016065120697021484e+01 -3.466423950158059597e-04 -1.160295505542308092e-04 -1.388015807606279850e-04 1.996289647649973631e-04
2.666000000000000000e+03 6.620286464691162109e+00 1.856824493408203125e+01 -5.787689588032662868e-06 -7.797162311362626497e-07 -1.970221774172387086e-06 -2.019147814280586317e-06
2.667000000000000000e+03 7.647005558013916016e+00 9.731738090515136719e+00 2.184926870540948585e-07 2.350292561459355056e-06 7.706356086600862909e-07 1.388536134072637651e-06
2.668000000000000000e+03 6.944796752929687500e+01 3.293593215942382812e+01 2.305652618408203125e+00 1.415863704681396484e+01 4.939286708831787109e+00 2.038367271423339844e+00
2.669000000000000000e+03 7.276808166503906250e+01 -2.059051704406738281e+01 2.145690284669399261e-02 6.711943149566650391e+00 2.020020008087158203e+00 8.433049917221069336e-02
2.670000000000000000e+03 6.859593200683593750e+01 2.874311828613281250e+01 1.274942636489868164e+00 1.593993759155273438e+01 5.164463996887207031e+00 -1.097601652145385742e+00
2.671000000000000000e+03 8.855543136596679688e+00 -8.441537857055664062e+00 1.710401411401107907e-04 1.898608315968886018e-04 1.082702874555252492e-04 -2.830792509485036135e-04
2.672000000000000000e+03 7.044580841064453125e+01 -4.004426479339599609e+00 7.396358996629714966e-02 6.479952812194824219e+00 1.966174840927124023e+00 2.883315980434417725e-01
2.673000000000000000e+03 9.485754013061523438e+00 2.433744049072265625e+01 -7.549846486654132605e-06 -1.278191689380037133e-06 -2.648411509653669782e-06 1.601401677930880396e-08
2.674000000000000000e+03 7.286694335937500000e+01 2.778811216354370117e+00 2.140347100794315338e-02 7.209663391113281250e+00 2.169320106506347656e+00 3.086872994899749756e-01
2.675000000000000000e+03 7.299653625488281250e+01 2.019472420215606689e-02 3.438485786318778992e-02 7.141368389129638672e+00 2.152725934982299805e+00 2.766432762145996094e-01
2.676000000000000000e+03 8.994543075561523438e+00 1.626530265808105469e+01 -6.001793281029677019e-06 1.043782305032436852e-07 -1.769224468262109440e-06 -1.936023181769996881e-06
2.677000000000000000e+03 9.061639785766601562e+00 1.748626899719238281e+01 6.195113201101776212e-06 1.672731571034091758e-07 1.908715830722940154e-06 2.005932856263825670e-06
2.678000000000000000e+03 3.059890174865722656e+01 -1.953933906555175781e+01 6.626741588115692139e-02 -7.724292874336242676e-01 -2.118485569953918457e-01 -1.264157444238662720e-01
2.679000000000000000e+03 2.756658172607421875e+01 -1.801050376892089844e+01 3.409685939550399780e-02 -1.290064454078674316e+00 -3.767902851104736328e-01 -1.210179701447486877e-01
2.680000000000000000e+03 7.287796020507812500e+01 1.925477218627929688e+01 -7.311328053474426270e-01 8.574673652648925781e+00 2.353062391281127930e+00 -2.716788947582244873e-01
2.681000000000000000e+03 6.529366016387939453e+00 -1.175201702117919922e+01 -3.530747781042009592e-04 -1.574696798343211412e-04 -1.531633315607905388e-04 6.912898243172094226e-05
2.682000000000000000e+03 7.146269226074218750e+01 -2.366138648986816406e+01 3.124130517244338989e-02 6.464044570922851562e+00 1.948585867881774902e+00 7.042317837476730347e-02
2.683000000000000000e+03 7.229690551757812500e+01 -2.576478767395019531e+01 2.374313957989215851e-02 6.595328330993652344e+00 1.985721468925476074e+00 5.433179438114166260e-02
2.684000000000000000e+03 9.660660743713378906e+00 -1.945976448059082031e+01 -8.923660498112440109e-04 -2.987672050949186087e-04 -3.573399735614657402e-04 5.250374670140445232e-04
2.685000000000000000e+03 8.930000305175781250e+00 -2.175269889831542969e+01 -1.373393926769495010e-03 2.763257070910185575e-04 -3.291204920969903469e-04 6.141518824733793736e-04
2.686000000000000000e+03 7.189044189453125000e+01 8.594548225402832031e+00 -9.516645967960357666e-02 7.208482265472412109e+00 2.133994817733764648e+00 3.578836321830749512e-01
2.687000000000000000e+03 7.148959350585937500e+01 -1.630003166198730469e+01 4.214479774236679077e-02 6.531247615814208984e+00 1.972017765045166016e+00 1.144680976867675781e-01
2.688000000000000000e+03 7.178366088867187500e+01 5.526464462280273438e+00 -1.341007370501756668e-02 7.056796073913574219e+00 2.113015890121459961e+00 3.636417090892791748e-01
2.689000000000000000e+03 7.053357696533203125e+01 2.119770526885986328e+00 4.820409789681434631e-02 6.620807647705078125e+00 2.000703573226928711e+00 3.711773157119750977e-01
2.690000000000000000e+03 7.148730468750000000e+01 -9.315863609313964844e+00 5.310420319437980652e-02 6.604622840881347656e+00 1.997318148612976074e+00 2.036652863025665283e-01
2.691000000000000000e+03 7.162481689453125000e+01 -5.302324771881103516e+00 5.875438079237937927e-02 6.709449768066406250e+00 2.030461072921752930e+00 2.478656470775604248e-01
2.692000000000000000e+03 7.224485778808593750e+01 9.789708137512207031e+00 -1.367256492376327515e-01 7.374346733093261719e+00 2.171286344528198242e+00 3.286776542663574219e-01
2.693000000000000000e+03 7.288945770263671875e+01 1.804210853576660156e+01 -6.428002715110778809e-01 8.362102508544921875e+00 2.315790891647338867e+00 -1.418517678976058960e-01
2.694000000000000000e+03 7.398193359375000000e+01 1.562110042572021484e+01 -3.731306493282318115e-01 8.181324958801269531e+00 2.342458248138427734e+00 -4.992063716053962708e-02
2.695000000000000000e+03 7.382956695556640625e+01 3.197686386108398438e+01 1.843680858612060547e+00 8.931754112243652344e+00 3.232630491256713867e+00 6.373472809791564941e-01
2.696000000000000000e+03 7.286528015136718750e+01 -6.669865608215332031e+00 4.697322100400924683e-02 6.939135074615478516e+00 2.095832586288452148e+00 2.065172195434570312e-01
2.697000000000000000e+03 7.039289951324462891e+00 2.319252777099609375e+01 8.624569090898148715e-06 -3.837123188077384839e-07 2.472256937835481949e-06 2.895028501370688900e-06
2.698000000000000000e+03 2.716076087951660156e+01 9.541695594787597656e+00 1.236974820494651794e-02 -9.016516208648681641e-01 -2.667845785617828369e-01 -4.490000903606414795e-01
2.699000000000000000e+03 2.722224617004394531e+01 1.510878372192382812e+01 -6.104646716266870499e-03 -6.581631302833557129e-01 -1.992803215980529785e-01 -4.717637002468109131e-01
2.700000000000000000e+03 7.016240692138671875e+01 3.229806137084960938e+01 3.744601964950561523e+00 1.266743087768554688e+01 4.923609733581542969e+00 1.799146175384521484e+00
2.701000000000000000e+03 5.392352676391601562e+01 3.867629623413085938e+01 4.722975790500640869e-01 -1.739413738250732422e-01 8.950685709714889526e-02 2.724059820175170898e-01
2.702000000000000000e+03 2.776495552062988281e+01 1.952802085876464844e+01 -5.688482522964477539e-02 -4.300475120544433594e-01 -1.460797041654586792e-01 -4.661496281623840332e-01
2.703000000000000000e+03 3.084629440307617188e+01 2.744821929931640625e+01 -2.765065133571624756e-01 -6.581380963325500488e-02 -1.026960983872413635e-01 -3.541291654109954834e-01
2.704000000000000000e+03 2.960921287536621094e+01 1.179271411895751953e+01 2.484401315450668335e-02 -6.072419881820678711e-01 -1.747193932533264160e-01 -5.503336787223815918e-01
2.705000000000000000e+03 3.038372039794921875e+01 1.822425460815429688e+01 -6.299059092998504639e-02 -3.629365563392639160e-01 -1.277781426906585693e-01 -5.818767547607421875e-01
2.706000000000000000e+03 8.471476554870605469e+00 -1.807028007507324219e+01 -7.343183970078825951e-04 -1.995681232074275613e-04 -2.801659575197845697e-04 4.509211576078087091e-04
2.707000000000000000e+03 2.913285636901855469e+01 1.885664939880371094e+01 -6.357163190841674805e-02 -3.972623944282531738e-01 -1.382502168416976929e-01 -5.320176482200622559e-01
2.708000000000000000e+03 2.746924018859863281e+01 1.800517463684082031e+01 -3.365899249911308289e-02 -5.141789317131042480e-01 -1.643513739109039307e-01 -4.683364033699035645e-01
2.709000000000000000e+03 7.265349578857421875e+01 -1.363524436950683594e+01 3.826599195599555969e-02 6.781836032867431641e+00 2.046030521392822266e+00 1.389978528022766113e-01
2.710000000000000000e+03 7.032164573669433594e+00 -2.500582122802734375e+01 -1.269934931769967079e-03 1.189614296890795231e-03 -2.409620356047526002e-05 1.555032795295119286e-04
2.711000000000000000e+03 7.263324737548828125e+00 -2.758860588073730469e+01 8.900213870219886303e-04 -4.174684581812471151e-04 1.417658786522224545e-04 4.716790863312780857e-04
2.712000000000000000e+03 6.595457553863525391e+00 1.737324523925781250e+01 5.900945325265638530e-06 4.945832756675372366e-07 1.918658654176397249e-06 1.339457980975566898e-06
2.713000000000000000e+03 7.814536094665527344e+00 1.742662048339843750e+01 -6.055339326849207282e-06 -3.671723902698431630e-07 -1.926753611769527197e-06 -2.057388655885006301e-06
2.714000000000000000e+03 7.775051116943359375e+00 1.980711936950683594e+01 -7.355964044108986855e-06 -4.517632135048188502e-08 -2.220342139480635524e-06 -2.738049261097330600e-06
2.715000000000000000e+03 6.814405822753906250e+01 2.836988258361816406e+01 -1.167047321796417236e-01 1.605077743530273438e+01 4.780221939086914062e+00 3.791755437850952148e-01
2.716000000000000000e+03 7.159144401550292969e+00 -2.066562271118164062e+01 2.150564105249941349e-04 3.249395522288978100e-04 1.619987888261675835e-04 -2.312841970706358552e-04
2.717000000000000000e+03 7.291213989257812500e+01 1.564277458190917969e+01 -4.512673020362854004e-01 8.033740997314453125e+00 2.274742126464843750e+00 6.159603968262672424e-02
2.718000000000000000e+03 8.212788581848144531e+00 -1.450216770172119141e+01 -3.967795637436211109e-04 -9.249954746337607503e-05 -1.467837428208440542e-04 6.174170412123203278e-04
2.719000000000000000e+03 9.411684036254882812e+00 -1.170926380157470703e+01 9.088082879316061735e-05 4.229149781167507172e-04 1.541387464385479689e-04 -2.431895882182288915e-05
2.720000000000000000e+03 2.840206909179687500e+01 1.343290710449218750e+01 6.954934448003768921e-03 -6.474521756172180176e-01 -1.921491622924804688e-01 -5.196978449821472168e-01
2.721000000000000000e+03 2.761736869812011719e+01 2.987154006958007812e+01 -1.512184441089630127e-01 -6.418483704328536987e-02 -6.462098658084869385e-02 -1.752120852470397949e-01
2.722000000000000000e+03 2.733672332763671875e+01 -4.581358909606933594e+00 5.034184455871582031e-02 -1.236113429069519043e+00 -3.557314872741699219e-01 -2.666926085948944092e-01
2.723000000000000000e+03 2.915971565246582031e+01 -2.366932630538940430e+00 7.182935625314712524e-02 -9.533349275588989258e-01 -2.644516527652740479e-01 -3.206473588943481445e-01
2.724000000000000000e+03 9.993763923645019531e+00 -2.200373840332031250e+01 1.232111826539039612e-03 1.546832500025629997e-04 4.160384996794164181e-04 -1.499624195275828242e-04
2.725000000000000000e+03 1.008789539337158203e+01 -2.412620544433593750e+01 1.553632784634828568e-03 -5.334712914191186428e-04 3.060484305024147034e-04 1.795681018847972155e-04
2.726000000000000000e+03 7.128744506835937500e+01 -1.217104244232177734e+01 5.252367630600929260e-02 6.508284091949462891e+00 1.968242287635803223e+00 1.700869351625442505e-01
2.727000000000000000e+03 9.102526664733886719e+00 -1.559392452239990234e+01 -5.964088486507534981e-04 -4.409165921970270574e-05 -1.921501534525305033e-04 5.134419188834726810e-04
2.728000000000000000e+03 7.918471813201904297e+00 -6.708241462707519531e+00 -1.733448152663186193e-04 -3.206716064596548676e-05 -6.162359204608947039e-05 8.245053322752937675e-05
2.729000000000000000e+03 2.838623237609863281e+01 1.206200313568115234e+01 1.553652621805667877e-02 -6.990139484405517578e-01 -2.050432264804840088e-01 -5.131420493125915527e-01
2.730000000000000000e+03 2.923152160644531250e+01 2.290399551391601562e+01 -1.441882401704788208e-01 -2.371666878461837769e-01 -1.144064739346504211e-01 -4.585657715797424316e-01
2.731000000000000000e+03 7.319226074218750000e+01 3.595606994628906250e+01 -1.784910410642623901e-01 9.929141998291015625e+00 2.925195217132568359e+00 1.442274093627929688e+00
2.732000000000000000e+03 8.463281631469726562e+00 -2.728552818298339844e+01 2.225215779617428780e-03 1.714452751912176609e-03 1.181900501251220703e-03 -1.356197288259863853e-03
2.733000000000000000e+03 7.271044158935546875e+01 2.151499938964843750e+01 -8.542304635047912598e-01 9.067684173583984375e+00 2.464035987854003906e+00 -5.394002795219421387e-01
2.734000000000000000e+03 7.374799346923828125e+01 2.194050979614257812e+01 -6.616109013557434082e-01 8.958683013916015625e+00 2.489121675491333008e+00 -8.238184452056884766e-01
2.735000000000000000e+03 2.727975845336914062e+01 -5.788891792297363281e+00 4.859685525298118591e-02 -1.268036007881164551e+00 -3.658317327499389648e-01 -2.578802406787872314e-01
2.736000000000000000e+03 2.835737037658691406e+01 2.261385536193847656e+01 -1.119010820984840393e-01 -2.841152250766754150e-01 -1.188048869371414185e-01 -4.380843639373779297e-01
2.737000000000000000e+03 2.970781517028808594e+01 2.002960205078125000e+01 -9.198320657014846802e-02 -3.343312740325927734e-01 -1.278943419456481934e-01 -5.386621356010437012e-01
2.738000000000000000e+03 2.842107009887695312e+01 2.086371803283691406e+01 -8.746274560689926147e-02 -3.490125834941864014e-01 -1.309425979852676392e-01 -4.729898571968078613e-01
2.739000000000000000e+03 2.710969161987304688e+01 5.488444805145263672e+00 4.576149862259626389e-03 -1.046640396118164062e+00 -3.126192986965179443e-01 -3.960776031017303467e-01
2.740000000000000000e+03 2.837191009521484375e+01 6.669785499572753906e+00 2.778614126145839691e-02 -8.683815002441406250e-01 -2.521786093711853027e-01 -4.517121613025665283e-01
2.741000000000000000e+03 7.635457038879394531e+00 3.271644592285156250e+01 -2.153093555534724146e-05 1.562545776323531754e-06 -5.990517365717096254e-06 -3.358857384228031151e-06
2.742000000000000000e+03 8.879981994628906250e+00 3.253488922119140625e+01 1.801000507839489728e-05 2.344860149605665356e-06 6.106459295551758260e-06 1.460608586967282463e-06
2.743000000000000000e+03 3.037243652343750000e+01 -9.304797172546386719e+00 6.715534627437591553e-02 -8.143538832664489746e-01 -2.241595685482025146e-01 -2.353260070085525513e-01
2.744000000000000000e+03 2.884798622131347656e+01 -8.136679649353027344e+00 5.305982753634452820e-02 -1.042630434036254883e+00 -2.968711853027343750e-01 -2.465009540319442749e-01
2.745000000000000000e+03 7.146223449707031250e+01 -1.845765304565429688e+01 3.066131472587585449e-02 6.499417304992675781e+00 1.959023594856262207e+00 1.036752685904502869e-01
2.746000000000000000e+03 2.708441734313964844e+01 4.204249858856201172e+00 9.866258129477500916e-03 -1.090203523635864258e+00 -3.241011798381805420e-01 -3.732865750789642334e-01
2.747000000000000000e+03 6.810765838623046875e+01 3.880129241943359375e+01 -1.541665196418762207e+00 9.657538414001464844e+00 2.434762001037597656e+00 -4.554219543933868408e-01
2.748000000000000000e+03 7.139131927490234375e+01 7.462406158447265625e+00 -6.346072256565093994e-02 7.017846107482910156e+00 2.086315631866455078e+00 3.941873908042907715e-01
2.749000000000000000e+03 8.160161018371582031e+00 1.113917064666748047e+01 4.239872851030668244e-06 7.197696731964242645e-07 1.487892745899443980e-06 -1.488938039528875379e-07
2.750000000000000000e+03 7.215522003173828125e+01 -2.820647811889648438e+01 2.513694576919078827e-02 6.551012992858886719e+00 1.972844958305358887e+00 4.737612605094909668e-02
2.751000000000000000e+03 2.740062713623046875e+01 -1.232127189636230469e+01 2.075994759798049927e-02 -1.290145635604858398e+00 -3.808157145977020264e-01 -1.868784725666046143e-01
2.752000000000000000e+03 8.693854331970214844e+00 2.933450317382812500e+01 1.149454146798234433e-05 1.585171958140563220e-06 3.923913936887402087e-06 -4.258436092641204596e-06
2.753000000000000000e+03 2.807234001159667969e+01 -1.163466811180114746e+00 4.561226442456245422e-02 -1.097959280014038086e+00 -3.157041072845458984e-01 -3.173882365226745605e-01
2.754000000000000000e+03 1.050964069366455078e+01 -2.947715950012207031e+01 2.981994999572634697e-03 3.809849265962839127e-03 2.037553349509835243e-03 -3.258319804444909096e-03
2.755000000000000000e+03 7.680729866027832031e+00 -3.214421463012695312e+01 8.157819509506225586e-03 -6.356214173138141632e-03 5.404816474765539169e-04 1.164761837571859360e-03
2.756000000000000000e+03 7.180105590820312500e+01 1.253457307815551758e+00 4.135708138346672058e-02 6.905469894409179688e+00 2.084048032760620117e+00 3.357811570167541504e-01
2.757000000000000000e+03 7.169719696044921875e+01 -2.767813205718994141e-02 4.919050633907318115e-02 6.829472064971923828e+00 2.063598871231079102e+00 3.188066184520721436e-01
2.758000000000000000e+03 3.020986366271972656e+01 2.928192710876464844e+01 -2.613478302955627441e-01 -3.461885824799537659e-02 -8.879000693559646606e-02 -2.537070810794830322e-01
2.759000000000000000e+03 2.832653999328613281e+01 1.961772561073303223e+00 2.801091969013214111e-02 -9.906399846076965332e-01 -2.887887060642242432e-01 -3.670076429843902588e-01
2.760000000000000000e+03 2.827046394348144531e+01 4.148173332214355469e+00 3.030854836106300354e-02 -9.424835443496704102e-01 -2.736524939537048340e-01 -4.088971912860870361e-01
2.761000000000000000e+03 2.613081359863281250e+01 -2.090565299987792969e+01 4.111381992697715759e-02 -1.541002750396728516e+00 -4.499666690826416016e-01 -1.126001477241516113e-01
2.762000000000000000e+03 7.152519226074218750e+01 -7.961953163146972656e+00 6.223553046584129333e-02 6.635365009307861328e+00 2.009280204772949219e+00 2.177138775587081909e-01
2.763000000000000000e+03 1.232190132141113281e+01 3.280965805053710938e+01 2.298627919117279816e-07 -1.120547267419169657e-06 -2.672053369678906165e-07 -8.792833796178456396e-06
2.764000000000000000e+03 2.798546600341796875e+01 -2.487391382455825806e-01 3.777976706624031067e-02 -1.088786482810974121e+00 -3.153020441532135010e-01 -3.255334794521331787e-01
2.765000000000000000e+03 6.413522720336914062e+00 3.636277770996093750e+01 4.277424068277468905e-06 1.250940476893447340e-05 5.036048605688847601e-06 1.155085647042142227e-05
2.766000000000000000e+03 8.044166564941406250e+00 3.443497467041015625e+01 2.144449172192253172e-05 2.714831452976795845e-07 6.514792403322644532e-06 7.592166639369679615e-06
2.767000000000000000e+03 8.355959892272949219e+00 2.685232734680175781e+01 1.029709437716519460e-05 8.321869700012030080e-07 3.338784381412551738e-06 7.022836712167190854e-08
2.768000000000000000e+03 7.058093547821044922e+00 2.696346282958984375e+01 -1.176490150101017207e-05 2.152735447680242942e-07 -3.464888322923798114e-06 -1.071633732863119803e-06
2.769000000000000000e+03 7.140206146240234375e+01 -1.506211376190185547e+01 4.372503980994224548e-02 6.518063545227050781e+00 1.968536615371704102e+00 1.316285729408264160e-01
2.770000000000000000e+03 2.918106460571289062e+01 -2.824476814270019531e+01 1.643619500100612640e-02 -9.561951756477355957e-01 -2.819276750087738037e-01 -7.499340176582336426e-02
2.771000000000000000e+03 2.704962539672851562e+01 -2.540858840942382812e+01 2.333205938339233398e-02 -1.370455861091613770e+00 -4.041371643543243408e-01 -1.161376014351844788e-01
2.772000000000000000e+03 7.050698852539062500e+01 -2.052659606933593750e+01 4.453387111425399780e-02 6.304853916168212891e+00 1.904816269874572754e+00 1.044270545244216919e-01
2.773000000000000000e+03 2.364710426330566406e+01 -3.149827384948730469e+01 -1.039188057184219360e-01 -1.999832630157470703e+00 -6.311254501342773438e-01 -1.292109191417694092e-01
2.774000000000000000e+03 2.500478172302246094e+01 -2.832833099365234375e+01 -1.162474416196346283e-02 -1.709836721420288086e+00 -5.164384245872497559e-01 -1.279806941747665405e-01
2.775000000000000000e+03 7.142397308349609375e+01 -2.940069580078125000e+01 2.081456594169139862e-02 6.418003082275390625e+00 1.931645393371582031e+00 4.621335491538047791e-02
2.776000000000000000e+03 9.045029640197753906e+00 -1.445329475402832031e+01 3.629294806160032749e-04 -2.864927810151129961e-04 2.293100806127768010e-05 -2.542933216318488121e-04
2.777000000000000000e+03 2.748943138122558594e+01 -1.372946739196777344e+01 2.123767137527465820e-02 -1.279097080230712891e+00 -3.773578405380249023e-01 -1.658505499362945557e-01
2.778000000000000000e+03 7.256225109100341797e+00 2.202458763122558594e+01 -8.809255632513668388e-06 1.608752739912233665e-07 -2.594513944131904282e-06 -2.221412387370946817e-06
2.779000000000000000e+03 7.567288875579833984e+00 2.092941474914550781e+01 8.527379577571991831e-06 -4.472796888421726180e-08 2.544795506764785387e-06 2.078038278341409750e-06
2.780000000000000000e+03 5.518582534790039062e+01 4.033907318115234375e+01 7.714260816574096680e-01 7.863152772188186646e-02 2.550172805786132812e-01 1.174560636281967163e-01
2.781000000000000000e+03 7.178250312805175781e+00 2.828295516967773438e+01 1.334395710728131235e-05 -5.602199735221802257e-07 3.835120878648012877e-06 3.813822502252151025e-07
2.782000000000000000e+03 8.453221321105957031e+00 -1.366106224060058594e+01 2.047902671620249748e-04 4.563776310533285141e-04 1.983503752853721380e-04 -3.044556360691785812e-04
2.783000000000000000e+03 1.022856807708740234e+01 -1.226749134063720703e+01 -3.479944716673344374e-04 -2.415171766187995672e-04 -1.768535003066062927e-04 1.631935265322681516e-05
2.784000000000000000e+03 1.018695354461669922e+01 1.417303085327148438e+01 5.269881967251421884e-06 -6.442274980145157315e-07 1.387696329402388074e-06 1.662313593442377169e-06
2.785000000000000000e+03 6.601613616943359375e+01 3.408972930908203125e+01 1.924456655979156494e-01 9.474817276000976562e+00 2.900178909301757812e+00 -4.230908393859863281e+00
2.786000000000000000e+03 6.591745758056640625e+01 2.794074821472167969e+01 1.948286741971969604e-01 8.763631820678710938e+00 2.687538146972656250e+00 5.064778327941894531e+00
2.787000000000000000e+03 6.484797668457031250e+01 3.480400466918945312e+01 6.190801858901977539e-01 5.830454826354980469e+00 1.934860467910766602e+00 -3.402091741561889648e+00
2.788000000000000000e+03 6.746103668212890625e+01 2.773804092407226562e+01 -9.902074933052062988e-01 1.397851753234863281e+01 3.896492958068847656e+00 2.596844673156738281e+00
2.789000000000000000e+03 6.754264068603515625e+01 2.809600639343261719e+01 -8.445583581924438477e-01 1.511459541320800781e+01 4.281011104583740234e+00 2.298438787460327148e+00
2.790000000000000000e+03 7.266034698486328125e+01 3.052725982666015625e+01 2.723486423492431641e+00 9.601062774658203125e+00 3.697364568710327148e+00 -1.876742988824844360e-01
2.791000000000000000e+03 6.425534820556640625e+01 2.692028045654296875e+01 3.832648098468780518e-01 4.214657306671142578e+00 1.379376649856567383e+00 3.572853803634643555e+00
2.792000000000000000e+03 7.006642913818359375e+01 3.001749229431152344e+01 4.928514003753662109e+00 1.251795291900634766e+01 5.233940124511718750e+00 -1.203296542167663574e+00
2.793000000000000000e+03 6.602584075927734375e+01 2.827220153808593750e+01 3.820450007915496826e-01 9.389136314392089844e+00 2.931354522705078125e+00 5.330100536346435547e+00
2.794000000000000000e+03 6.796322631835937500e+01 3.326602554321289062e+01 6.438030302524566650e-02 1.644667816162109375e+01 4.953317642211914062e+00 -4.914470613002777100e-01
2.795000000000000000e+03 7.241141510009765625e+01 2.594596672058105469e+01 -8.486185222864151001e-02 1.020062065124511719e+01 3.034727811813354492e+00 -1.349317431449890137e+00
2.796000000000000000e+03 6.843939208984375000e+01 2.842060852050781250e+01 2.925911843776702881e-01 1.572455120086669922e+01 4.805142879486083984e+00 -3.293457329273223877e-01
2.797000000000000000e+03 7.013804626464843750e+01 3.069759559631347656e+01 5.523396492004394531e+00 1.219484615325927734e+01 5.315472602844238281e+00 -1.810967922210693359e-01
2.798000000000000000e+03 6.917308044433593750e+01 2.926561355590820312e+01 3.462697029113769531e+00 1.481961631774902344e+01 5.484694004058837891e+00 -2.045408725738525391e+00
2.799000000000000000e+03 6.984180450439453125e+01 3.111906814575195312e+01 5.918565273284912109e+00 1.260031223297119141e+01 5.555663108825683594e+00 5.261349678039550781e-01
2.800000000000000000e+03 7.323179626464843750e+01 3.251470184326171875e+01 1.885541796684265137e+00 9.439357757568359375e+00 3.397469997406005859e+00 1.028293251991271973e+00
2.801000000000000000e+03 6.506181335449218750e+01 2.746276092529296875e+01 4.102346599102020264e-01 5.756687164306640625e+00 1.850076556205749512e+00 4.320776939392089844e+00
2.802000000000000000e+03 6.405471038818359375e+01 2.738574981689453125e+01 4.860836565494537354e-01 3.368159770965576172e+00 1.156273007392883301e+00 3.334238052368164062e+00
2.803000000000000000e+03 6.642253112792968750e+01 3.344039154052734375e+01 2.491363584995269775e-01 1.140667438507080078e+01 3.496743202209472656e+00 -4.695050716400146484e+00
2.804000000000000000e+03 6.246068191528320312e+01 2.670522689819335938e+01 8.258894085884094238e-02 1.899708390235900879e+00 5.946891903877258301e-01 2.160647392272949219e+00
2.805000000000000000e+03 6.320852279663085938e+01 2.639747619628906250e+01 2.224819064140319824e-01 2.951468706130981445e+00 9.521851539611816406e-01 2.738963127136230469e+00
2.806000000000000000e+03 6.123516082763671875e+01 2.585231018066406250e+01 -4.047825559973716736e-02 1.562154889106750488e+00 4.565029740333557129e-01 1.639646410942077637e+00
2.807000000000000000e+03 6.595619964599609375e+01 3.450584411621093750e+01 6.815177947282791138e-02 9.165154457092285156e+00 2.769991874694824219e+00 -3.832686662673950195e+00
2.808000000000000000e+03 6.455821990966796875e+01 3.449789810180664062e+01 7.975673675537109375e-01 4.927307128906250000e+00 1.717462301254272461e+00 -3.189721584320068359e+00
2.809000000000000000e+03 6.191718292236328125e+01 2.595508193969726562e+01 5.772149935364723206e-02 1.939942359924316406e+00 5.992991924285888672e-01 2.001897811889648438e+00
2.810000000000000000e+03 7.381744384765625000e+01 2.948615264892578125e+01 1.717190265655517578e+00 8.894280433654785156e+00 3.183441162109375000e+00 -7.377832531929016113e-01
2.811000000000000000e+03 7.384358978271484375e+01 2.735911750793457031e+01 7.346389889717102051e-01 9.150621414184570312e+00 2.965578317642211914e+00 -1.398417949676513672e+00
2.812000000000000000e+03 7.061498260498046875e+01 3.064522552490234375e+01 4.662597179412841797e+00 1.145639801025390625e+01 4.835698604583740234e+00 -2.763671576976776123e-01
2.813000000000000000e+03 7.371215057373046875e+01 3.024243354797363281e+01 1.977163434028625488e+00 8.927059173583984375e+00 3.271266937255859375e+00 -3.530598878860473633e-01
2.814000000000000000e+03 6.201465606689453125e+01 2.527342414855957031e+01 1.283311396837234497e-01 2.418044567108154297e+00 7.639127373695373535e-01 2.133949995040893555e+00
2.815000000000000000e+03 2.941734504699707031e+01 2.932712554931640625e+01 -2.268306612968444824e-01 -4.765178263187408447e-02 -8.234473317861557007e-02 -2.374273389577865601e-01
2.816000000000000000e+03 2.860745429992675781e+01 2.927455902099609375e+01 -1.958480626344680786e-01 -6.074802204966545105e-02 -7.697882503271102905e-02 -2.233603596687316895e-01
2.817000000000000000e+03 3.307140731811523438e+01 2.834652137756347656e+01 -3.960066735744476318e-01 -3.574506146833300591e-03 -1.198743507266044617e-01 -3.560418486595153809e-01
2.818000000000000000e+03 3.312950515747070312e+01 2.903590202331542969e+01 -4.074126183986663818e-01 7.897940464317798615e-03 -1.198544055223464966e-01 -3.179976344108581543e-01
2.819000000000000000e+03 2.734504699707031250e+01 2.779277038574218750e+01 -1.414424329996109009e-01 -1.224098131060600281e-01 -7.915567606687545776e-02 -2.436832338571548462e-01
2.820000000000000000e+03 7.235466766357421875e+01 3.317758560180664062e+01 1.768204569816589355e+00 1.022044563293457031e+01 3.596595048904418945e+00 1.453171849250793457e+00
2.821000000000000000e+03 7.305902099609375000e+01 3.396777725219726562e+01 9.940726161003112793e-01 9.849928855895996094e+00 3.253200292587280273e+00 1.494315862655639648e+00
2.822000000000000000e+03 2.868145751953125000e+01 2.854163932800292969e+01 -1.959408968687057495e-01 -7.741262018680572510e-02 -8.200605213642120361e-02 -2.521241009235382080e-01
2.823000000000000000e+03 8.066624641418457031e+00 -8.484870910644531250e+00 1.162537046184297651e-05 -4.638384780264459550e-05 -1.042754320224048570e-05 1.765548804542049766e-04
2.824000000000000000e+03 3.780444717407226562e+01 2.742968177795410156e+01 -6.442453861236572266e-01 5.990395694971084595e-02 -1.753024160861968994e-01 -4.632704555988311768e-01
2.825000000000000000e+03 3.589837646484375000e+01 2.855313301086425781e+01 -5.659078955650329590e-01 4.407173022627830505e-02 -1.565508544445037842e-01 -3.765249252319335938e-01
2.826000000000000000e+03 3.374004364013671875e+01 2.826562118530273438e+01 -4.342881739139556885e-01 8.778239600360393524e-03 -1.276529729366302490e-01 -3.696301281452178955e-01
2.827000000000000000e+03 3.439865112304687500e+01 2.814422035217285156e+01 -4.662536382675170898e-01 1.679575070738792419e-02 -1.348373740911483765e-01 -3.831953704357147217e-01
2.828000000000000000e+03 4.423684692382812500e+01 2.559875106811523438e+01 -8.489742279052734375e-01 1.180723235011100769e-01 -2.192705720663070679e-01 -5.661409497261047363e-01
2.829000000000000000e+03 3.506642913818359375e+01 2.802594184875488281e+01 -4.983632862567901611e-01 2.551902458071708679e-02 -1.418532729148864746e-01 -4.008571505546569824e-01
2.830000000000000000e+03 4.511581420898437500e+01 2.609969139099121094e+01 -9.664040207862854004e-01 1.154253780841827393e-01 -2.552935779094696045e-01 -5.294183492660522461e-01
2.831000000000000000e+03 4.235165405273437500e+01 2.728677368164062500e+01 -9.458929896354675293e-01 9.632787853479385376e-02 -2.548695504665374756e-01 -4.788925051689147949e-01
2.832000000000000000e+03 5.640569686889648438e+01 2.545675659179687500e+01 -7.651947140693664551e-01 3.949090838432312012e-01 -1.110856905579566956e-01 2.014573216438293457e-01
2.833000000000000000e+03 5.713019180297851562e+01 2.542614555358886719e+01 -6.640925407409667969e-01 4.658915996551513672e-01 -5.946028232574462891e-02 3.444354832172393799e-01
2.834000000000000000e+03 4.955566787719726562e+01 2.513158798217773438e+01 -9.283043146133422852e-01 1.577372103929519653e-01 -2.311701327562332153e-01 -4.398010373115539551e-01
2.835000000000000000e+03 5.053190231323242188e+01 2.573083305358886719e+01 -1.092491865158081055e+00 1.381844431161880493e-01 -2.862922549247741699e-01 -3.849301636219024658e-01
2.836000000000000000e+03 4.853225326538085938e+01 2.684531974792480469e+01 -1.303598403930664062e+00 9.532728046178817749e-02 -3.624813258647918701e-01 -4.192481637001037598e-01
2.837000000000000000e+03 4.979821395874023438e+01 2.586555099487304688e+01 -1.115505695343017578e+00 1.306874155998229980e-01 -2.954454720020294189e-01 -4.188247621059417725e-01
2.838000000000000000e+03 4.086600112915039062e+01 2.752430725097656250e+01 -8.592616319656372070e-01 8.976848423480987549e-02 -2.308479547500610352e-01 -4.647083878517150879e-01
2.839000000000000000e+03 4.365827941894531250e+01 2.635842132568359375e+01 -9.222273826599121094e-01 1.070384904742240906e-01 -2.445566803216934204e-01 -5.306363105773925781e-01
2.840000000000000000e+03 5.433927917480468750e+01 2.572300529479980469e+01 -1.035653233528137207e+00 2.039946466684341431e-01 -2.494975775480270386e-01 -9.949428588151931763e-02
2.841000000000000000e+03 5.536243057250976562e+01 2.578690147399902344e+01 -9.818629622459411621e-01 2.557349205017089844e-01 -2.178384214639663696e-01 1.886500976979732513e-02
2.842000000000000000e+03 4.904973602294921875e+01 2.600428199768066406e+01 -1.126201152801513672e+00 1.200227439403533936e-01 -3.018535375595092773e-01 -4.422763884067535400e-01
2.843000000000000000e+03 5.942290496826171875e+01 2.607494544982910156e+01 -5.248104929924011230e-01 7.445503473281860352e-01 6.592194736003875732e-02 8.418703675270080566e-01
2.844000000000000000e+03 9.465637207031250000e+00 6.606753349304199219e+00 -2.276166014780756086e-06 -9.566712151354295202e-07 -9.698511576061719097e-07 -1.161610725830541924e-06
2.845000000000000000e+03 5.248059844970703125e+01 2.528014564514160156e+01 -9.622896909713745117e-01 1.908441781997680664e-01 -2.314336448907852173e-01 -2.618502974510192871e-01
2.846000000000000000e+03 5.485100555419921875e+01 2.527194976806640625e+01 -8.439540266990661621e-01 2.878750264644622803e-01 -1.668237000703811646e-01 -8.418510667979717255e-03
2.847000000000000000e+03 5.123535919189453125e+01 2.559278869628906250e+01 -1.058015584945678711e+00 1.514684706926345825e-01 -2.719641327857971191e-01 -3.484044075012207031e-01
2.848000000000000000e+03 5.866385269165039062e+01 2.612142944335937500e+01 -6.980479955673217773e-01 5.423836112022399902e-01 -4.669931903481483459e-02 5.977033972740173340e-01
2.849000000000000000e+03 6.059909439086914062e+01 2.578971481323242188e+01 -1.464447975158691406e-01 1.277638196945190430e+00 3.393580019474029541e-01 1.359552979469299316e+00
2.850000000000000000e+03 5.856737518310546875e+01 2.545086860656738281e+01 -4.509566724300384521e-01 7.221326828002929688e-01 8.135280013084411621e-02 6.940902471542358398e-01
2.851000000000000000e+03 4.070428085327148438e+01 2.674090576171875000e+01 -7.785279750823974609e-01 8.972113579511642456e-02 -2.066420465707778931e-01 -5.205924510955810547e-01
2.852000000000000000e+03 4.679687118530273438e+01 2.644767189025878906e+01 -1.120426297187805176e+00 1.077924966812133789e-01 -3.037901520729064941e-01 -4.825103580951690674e-01
2.853000000000000000e+03 4.656766128540039062e+01 2.576109313964843750e+01 -9.804068207740783691e-01 1.214751973748207092e-01 -2.576794922351837158e-01 -5.204063057899475098e-01
2.854000000000000000e+03 6.453234863281250000e+01 3.520315551757812500e+01 6.163075566291809082e-01 5.309659957885742188e+00 1.777790188789367676e+00 -2.955030202865600586e+00
2.855000000000000000e+03 5.336019897460937500e+01 2.553988265991210938e+01 -1.008139967918395996e+00 2.140928953886032104e-01 -2.382141202688217163e-01 -1.910592019557952881e-01
2.856000000000000000e+03 5.280593490600585938e+01 2.588964653015136719e+01 -1.141078352928161621e+00 1.648062467575073242e-01 -2.928816378116607666e-01 -2.495883405208587646e-01
2.857000000000000000e+03 4.293054580688476562e+01 2.647683715820312500e+01 -8.954308629035949707e-01 1.022128611803054810e-01 -2.379654049873352051e-01 -5.283172726631164551e-01
2.858000000000000000e+03 7.035042572021484375e+01 -5.267127990722656250e+00 7.555633038282394409e-02 6.428821086883544922e+00 1.951313138008117676e+00 2.751279175281524658e-01
2.859000000000000000e+03 7.164816284179687500e+01 2.483049392700195312e+00 3.128523752093315125e-02 6.909206867218017578e+00 2.082147598266601562e+00 3.548528552055358887e-01
2.860000000000000000e+03 4.014550399780273438e+01 2.765487098693847656e+01 -8.188593387603759766e-01 8.582243323326110840e-02 -2.199110835790634155e-01 -4.564352631568908691e-01
2.861000000000000000e+03 3.829688644409179688e+01 2.662528228759765625e+01 -6.279541254043579102e-01 6.020319461822509766e-02 -1.703252792358398438e-01 -5.137557387351989746e-01
2.862000000000000000e+03 9.968805313110351562e+00 -7.457653045654296875e+00 2.917906385846436024e-04 1.167873197118751705e-04 1.225733867613598704e-04 -2.834389451891183853e-04
2.863000000000000000e+03 8.781771659851074219e+00 -6.574108123779296875e+00 1.767099165590479970e-04 -1.837490854086354375e-04 -2.111751882694079541e-06 -2.294465593877248466e-05
2.864000000000000000e+03 1.014644432067871094e+01 -6.261435508728027344e+00 -3.456880513112992048e-04 -2.555358514655381441e-05 -1.113724938477389514e-04 2.102865255437791348e-04
2.865000000000000000e+03 7.369420623779296875e+01 2.654603385925292969e+01 3.690934479236602783e-01 9.333572387695312500e+00 2.910799741744995117e+00 -1.446060180664062500e+00
2.866000000000000000e+03 5.379883956909179688e+01 2.617169570922851562e+01 -1.224590420722961426e+00 1.554744094610214233e-01 -3.207348287105560303e-01 -1.715354025363922119e-01
2.867000000000000000e+03 8.407203674316406250e+00 1.012842273712158203e+01 -4.639814051188295707e-06 2.381770087822587811e-07 -1.320491151091118809e-06 1.633954980206908658e-07
2.868000000000000000e+03 9.322369575500488281e+00 1.021409225463867188e+01 4.268514658178901300e-06 1.608722470791690284e-07 1.328816097156959586e-06 -5.778334184469713364e-07
2.869000000000000000e+03 7.167990112304687500e+01 -3.992649793624877930e+00 6.071731820702552795e-02 6.741195201873779297e+00 2.040573835372924805e+00 2.629581093788146973e-01
2.870000000000000000e+03 7.041919708251953125e+01 3.338923263549804688e+01 1.714679121971130371e+00 1.255103874206542969e+01 4.279715061187744141e+00 1.875212430953979492e+00
2.871000000000000000e+03 7.084549713134765625e+01 2.825880432128906250e+01 1.671953797340393066e+00 1.181147289276123047e+01 4.045027732849121094e+00 -1.640883207321166992e+00
2.872000000000000000e+03 7.215292358398437500e+01 3.488756942749023438e+01 2.881262898445129395e-01 1.067302608489990234e+01 3.288345813751220703e+00 1.584974527359008789e+00
2.873000000000000000e+03 7.066754150390625000e+01 3.406159591674804688e+01 7.647683620452880859e-01 1.210920715332031250e+01 3.862192869186401367e+00 1.666152119636535645e+00
2.874000000000000000e+03 7.260426521301269531e+00 8.162118911743164062e+00 2.415739345451584086e-06 2.073298901450471021e-06 1.346711428595881443e-06 1.134442641159694176e-06
2.875000000000000000e+03 8.236213684082031250e+00 8.309673309326171875e+00 -3.067627858399646357e-06 -8.465428891213377938e-07 -1.174251224256295245e-06 -8.107018061309645418e-07
2.876000000000000000e+03 7.783354282379150391e+00 -1.629713439941406250e+01 -4.975944102625362575e-05 -6.606055540032684803e-04 -2.131094952346757054e-04 2.086839522235095501e-04
2.877000000000000000e+03 1.060275554656982422e+01 -8.936429023742675781e+00 2.775767934508621693e-04 1.374590792693197727e-04 1.245107559952884912e-04 -2.421620738459751010e-04
2.878000000000000000e+03 2.877349662780761719e+01 1.754854011535644531e+01 -3.979378938674926758e-02 -4.647419750690460205e-01 -1.513607203960418701e-01 -5.271372795104980469e-01
2.879000000000000000e+03 2.909270286560058594e+01 2.191773796081542969e+01 -1.224187612533569336e-01 -2.789193987846374512e-01 -1.204014495015144348e-01 -4.787675440311431885e-01
2.880000000000000000e+03 3.002548599243164062e+01 2.756520652770996094e+01 -2.399736791849136353e-01 -8.196664601564407349e-02 -9.658209979534149170e-02 -3.280305862426757812e-01
2.881000000000000000e+03 7.045954895019531250e+01 -2.778771638870239258e+00 7.836409658193588257e-02 6.504223346710205078e+00 1.974776268005371094e+00 3.046029806137084961e-01
2.882000000000000000e+03 7.019673156738281250e+01 -1.059002304077148438e+01 7.075408846139907837e-02 6.315914630889892578e+00 1.916000604629516602e+00 2.072151899337768555e-01
2.883000000000000000e+03 6.995889282226562500e+01 -1.202285385131835938e+01 7.380320131778717041e-02 6.263602256774902344e+00 1.901221632957458496e+00 1.889830976724624634e-01
2.884000000000000000e+03 7.016880798339843750e+01 -2.832102203369140625e+01 3.164896368980407715e-02 6.209795951843261719e+00 1.872433423995971680e+00 5.792795866727828979e-02
2.885000000000000000e+03 2.838357543945312500e+01 1.069364166259765625e+01 2.064784802496433258e-02 -7.469460964202880859e-01 -2.178894728422164917e-01 -5.019851326942443848e-01
2.886000000000000000e+03 2.844861030578613281e+01 1.481105899810791016e+01 -4.707331303507089615e-03 -5.921717882156372070e-01 -1.790637224912643433e-01 -5.230745077133178711e-01
2.887000000000000000e+03 7.014097595214843750e+01 -1.676496124267578125e+01 5.261758342385292053e-02 6.239184856414794922e+00 1.887540698051452637e+00 1.534163951873779297e-01
2.888000000000000000e+03 7.010291290283203125e+01 -1.773651885986328125e+01 6.049781292676925659e-02 6.220154285430908203e+00 1.884195685386657715e+00 1.254999786615371704e-01
2.889000000000000000e+03 7.185461044311523438e+00 -8.756433486938476562e+00 -8.932089258451014757e-06 3.483409091131761670e-05 7.770600859657861292e-06 -4.403952698339708149e-05
2.890000000000000000e+03 7.180704498291015625e+01 1.797708892822265625e+01 -7.372719049453735352e-01 8.246610641479492188e+00 2.252801656723022461e+00 6.786517053842544556e-02
2.891000000000000000e+03 7.052243804931640625e+01 -1.570537757873535156e+01 4.877418279647827148e-02 6.320439338684082031e+00 1.910764098167419434e+00 1.585750877857208252e-01
2.892000000000000000e+03 7.289734649658203125e+01 1.683041000366210938e+01 -5.479049086570739746e-01 8.188446998596191406e+00 2.292162656784057617e+00 -2.677254751324653625e-02
2.893000000000000000e+03 7.282637786865234375e+01 1.334166622161865234e+01 -3.083400726318359375e-01 7.766377449035644531e+00 2.237411260604858398e+00 1.981077045202255249e-01
2.894000000000000000e+03 2.856651115417480469e+01 -4.659638881683349609e+00 5.345686152577400208e-02 -1.064311861991882324e+00 -3.032564818859100342e-01 -2.780617475509643555e-01
2.895000000000000000e+03 2.920512390136718750e+01 7.372596859931945801e-02 6.035908311605453491e-02 -9.126874208450317383e-01 -2.556985020637512207e-01 -3.577927649021148682e-01
2.896000000000000000e+03 7.069613647460937500e+01 6.462055683135986328e+00 -3.188819065690040588e-02 6.815501213073730469e+00 2.035083770751953125e+00 4.191804826259613037e-01
2.897000000000000000e+03 3.082328987121582031e+01 1.153946399688720703e+01 3.641185909509658813e-02 -5.215421319007873535e-01 -1.455390751361846924e-01 -5.746307373046875000e-01
2.898000000000000000e+03 2.837673950195312500e+01 8.007638931274414062e+00 2.672421000897884369e-02 -8.291136026382446289e-01 -2.407168149948120117e-01 -4.731428623199462891e-01
2.899000000000000000e+03 7.182035827636718750e+01 1.915982437133789062e+01 -8.401900529861450195e-01 8.507309913635253906e+00 2.300136089324951172e+00 -3.900922834873199463e-02
2.900000000000000000e+03 2.962767028808593750e+01 1.043929576873779297e+01 3.540329635143280029e-02 -6.446108818054199219e-01 -1.827622801065444946e-01 -5.385702848434448242e-01
2.901000000000000000e+03 8.551818847656250000e+00 -2.298262977600097656e+01 9.160006302408874035e-04 1.025493605993688107e-03 5.824482650496065617e-04 -8.408924331888556480e-04
2.902000000000000000e+03 7.267008972167968750e+01 1.219230175018310547e+01 -2.359227389097213745e-01 7.641486167907714844e+00 2.221668958663940430e+00 2.504307329654693604e-01
2.903000000000000000e+03 7.110244750976562500e+01 1.021290874481201172e+01 -1.659335643053054810e-01 7.117059707641601562e+00 2.085337877273559570e+00 3.989838957786560059e-01
2.904000000000000000e+03 9.252622604370117188e+00 -9.829023361206054688e+00 2.469673636369407177e-04 3.008559579029679298e-04 1.643470022827386856e-04 -2.992246008943766356e-04
2.905000000000000000e+03 7.600815773010253906e+00 -9.921676635742187500e+00 7.542627372458809987e-06 2.368663117522373796e-04 7.332267705351114273e-05 -1.858321229519788176e-05
2.906000000000000000e+03 7.833889484405517578e+00 1.362075710296630859e+01 4.700600584328640252e-06 7.544915092694282066e-07 1.636527599657711107e-06 6.625044193242501933e-07
2.907000000000000000e+03 7.013898468017578125e+01 3.077757835388183594e+00 3.978499397635459900e-02 6.549246311187744141e+00 1.976709365844726562e+00 3.953790664672851562e-01
2.908000000000000000e+03 2.967941665649414062e+01 1.446585941314697266e+01 1.654380117543041706e-03 -5.242931246757507324e-01 -1.567916274070739746e-01 -5.670366287231445312e-01
2.909000000000000000e+03 2.884975242614746094e+01 -6.820311546325683594e+00 5.796876922249794006e-02 -1.037915468215942383e+00 -2.939839959144592285e-01 -2.605272829532623291e-01
2.910000000000000000e+03 7.050423145294189453e+00 -1.943748092651367188e+01 -6.259987712837755680e-04 1.080877700587734580e-05 -1.845569931901991367e-04 1.570976892253383994e-04
2.911000000000000000e+03 7.818609237670898438e+00 -2.144036102294921875e+01 6.247457931749522686e-04 6.626860122196376324e-04 3.862295416183769703e-04 -5.216104327701032162e-04
2.912000000000000000e+03 7.291182708740234375e+01 1.447914314270019531e+01 -3.768757879734039307e-01 7.896059036254882812e+00 2.255754947662353516e+00 1.325009912252426147e-01
2.913000000000000000e+03 1.067438697814941406e+01 3.067244338989257812e+01 3.673321998576284386e-06 -3.232833705624216236e-06 1.321465248338427045e-07 1.126705774368019775e-05
2.914000000000000000e+03 2.864551353454589844e+01 -5.673450946807861328e+00 6.132281199097633362e-02 -1.054508447647094727e+00 -2.979556918144226074e-01 -2.710396349430084229e-01
2.915000000000000000e+03 7.322183609008789062e+00 -1.438745498657226562e+01 3.202444058842957020e-04 1.770212402334436774e-04 1.491797011112794280e-04 -3.231556038372218609e-04
2.916000000000000000e+03 7.162541198730468750e+01 -1.351480841636657715e+00 5.584615096449851990e-02 6.783987045288085938e+00 2.051949977874755859e+00 3.014679551124572754e-01
2.917000000000000000e+03 7.077082061767578125e+01 1.157020807266235352e+00 5.698258802294731140e-02 6.669984340667724609e+00 2.018090009689331055e+00 3.557939231395721436e-01
2.918000000000000000e+03 8.511070251464843750e+00 2.233916664123535156e+01 7.025486411293968558e-06 -2.045894831326222629e-07 2.046269173661130480e-06 4.276509116607485339e-06
2.919000000000000000e+03 8.405355453491210938e+00 -2.606891632080078125e+01 1.161663749371655285e-04 -7.083882810547947884e-04 -1.776665740180760622e-04 1.412374665960669518e-03
2.920000000000000000e+03 7.306078910827636719e+00 -2.262000274658203125e+01 -6.366572924889624119e-04 -5.099556437926366925e-05 -2.062958519672974944e-04 2.362191735301166773e-04
2.921000000000000000e+03 8.025274276733398438e+00 -2.425840759277343750e+01 3.615824680309742689e-04 -4.942159284837543964e-04 -3.979004759457893670e-05 5.783242522738873959e-04
2.922000000000000000e+03 9.036103248596191406e+00 -3.022481918334960938e+01 4.614704288542270660e-03 1.348777092061936855e-03 1.789044472388923168e-03 -1.531303278170526028e-03
2.923000000000000000e+03 8.908097267150878906e+00 -2.494846534729003906e+01 -3.486755304038524628e-04 1.744296634569764137e-03 4.186863370705395937e-04 -8.031370234675705433e-04
2.924000000000000000e+03 2.938442039489746094e+01 2.850783157348632812e+01 -2.228877246379852295e-01 -6.632051616907119751e-02 -8.676247298717498779e-02 -2.692740559577941895e-01
2.925000000000000000e+03 1.009863567352294922e+01 3.228935623168945312e+01 -1.897597212519031018e-05 2.708427189190842910e-07 -5.611538654193282127e-06 8.962122706179798115e-07
2.926000000000000000e+03 2.800404357910156250e+01 -2.087610054016113281e+01 4.031002148985862732e-02 -1.207022666931152344e+00 -3.500137925148010254e-01 -1.232424080371856689e-01
2.927000000000000000e+03 2.961304092407226562e+01 -2.460263442993164062e+01 5.187999084591865540e-02 -9.225817322731018066e-01 -2.612105309963226318e-01 -9.156928211450576782e-02
2.928000000000000000e+03 2.971227455139160156e+01 -2.293636322021484375e+01 3.536266833543777466e-02 -9.548668265342712402e-01 -2.758512496948242188e-01 -1.119076758623123169e-01
2.929000000000000000e+03 6.882097625732421875e+01 -2.118800926208496094e+01 5.486375093460083008e-02 5.986433982849121094e+00 1.812389373779296875e+00 1.028346717357635498e-01
2.930000000000000000e+03 8.891324996948242188e+00 -1.272171592712402344e+01 -2.552337828092277050e-04 -4.378784506116062403e-04 -2.079336700262501836e-04 1.925463147927075624e-04
2.931000000000000000e+03 2.962932586669921875e+01 6.521446704864501953e+00 5.081371963024139404e-02 -7.292547821998596191e-01 -2.035323232412338257e-01 -4.785974025726318359e-01
2.932000000000000000e+03 9.057117462158203125e+00 1.382114410400390625e+01 -5.628763574350159615e-06 -2.801187548584493925e-08 -1.697032644187856931e-06 -2.708474653445591684e-07
2.933000000000000000e+03 2.907394027709960938e+01 -1.355587100982666016e+01 4.083975404500961304e-02 -1.023700952529907227e+00 -2.948583662509918213e-01 -1.761047095060348511e-01
2.934000000000000000e+03 2.734158897399902344e+01 -1.094901752471923828e+01 2.246180176734924316e-02 -1.294402241706848145e+00 -3.815821409225463867e-01 -2.009091973304748535e-01
2.935000000000000000e+03 8.914883613586425781e+00 2.124974632263183594e+01 -7.640260264452081174e-06 -7.587483423776575364e-07 -2.519702775316545740e-06 -2.391743691987358034e-06
2.936000000000000000e+03 7.325860595703125000e+01 2.300739479064941406e+01 -6.834685802459716797e-01 9.247066497802734375e+00 2.569079399108886719e+00 -9.303837418556213379e-01
2.937000000000000000e+03 2.781739425659179688e+01 2.481709671020507812e+01 -1.279240846633911133e-01 -2.171715945005416870e-01 -1.035287007689476013e-01 -3.560123145580291748e-01
2.938000000000000000e+03 7.237424468994140625e+01 2.243304824829101562e+01 -8.971831798553466797e-01 9.353447914123535156e+00 2.536879301071166992e+00 -5.965810418128967285e-01
2.939000000000000000e+03 7.183764648437500000e+01 2.127760124206542969e+01 -9.846519231796264648e-01 9.078570365905761719e+00 2.428175449371337891e+00 -2.632121443748474121e-01
2.940000000000000000e+03 2.964822196960449219e+01 9.111810684204101562e+00 3.949208557605743408e-02 -6.790650486946105957e-01 -1.918718814849853516e-01 -5.197374224662780762e-01
2.941000000000000000e+03 2.777351570129394531e+01 2.603818893432617188e+01 -1.434219330549240112e-01 -1.697649955749511719e-01 -9.395607560873031616e-02 -3.152864575386047363e-01
2.942000000000000000e+03 2.779871177673339844e+01 2.906355094909667969e+01 -1.608012318611145020e-01 -8.154457062482833862e-02 -7.270374149084091187e-02 -2.118985503911972046e-01
2.943000000000000000e+03 7.098377990722656250e+01 -2.216038322448730469e+01 3.441648930311203003e-02 6.380565643310546875e+00 1.924494624137878418e+00 8.020328730344772339e-02
2.944000000000000000e+03 2.824577903747558594e+01 3.013096570968627930e+00 3.358384594321250916e-02 -9.735347628593444824e-01 -2.819852828979492188e-01 -3.846936523914337158e-01
2.945000000000000000e+03 2.946321678161621094e+01 3.955685377120971680e+00 5.399528145790100098e-02 -7.970613837242126465e-01 -2.229198366403579712e-01 -4.326765835285186768e-01
2.946000000000000000e+03 7.185025024414062500e+01 -1.984860610961914062e+01 3.296337649226188660e-02 6.567162990570068359e+00 1.980037927627563477e+00 9.336925297975540161e-02
2.947000000000000000e+03 2.962043762207031250e+01 1.313538742065429688e+01 1.391540654003620148e-02 -5.695810317993164062e-01 -1.666996926069259644e-01 -5.582166910171508789e-01
2.948000000000000000e+03 7.776973247528076172e+00 -1.206511497497558594e+01 2.642348990775644779e-04 3.879860159941017628e-04 1.956662745214998722e-04 -2.129054628312587738e-04
2.949000000000000000e+03 7.953013896942138672e+00 1.232994747161865234e+01 -3.980607743869768456e-06 -1.172721226794237737e-06 -1.545998657093150541e-06 -3.352018040914117591e-07
2.950000000000000000e+03 7.024897766113281250e+01 8.140710830688476562e+00 -8.225720375776290894e-02 6.773411273956298828e+00 2.007346153259277344e+00 4.561661183834075928e-01
2.951000000000000000e+03 6.829148101806640625e+01 -1.799005699157714844e+01 6.873349845409393311e-02 5.868256092071533203e+00 1.781096935272216797e+00 1.293078511953353882e-01
2.952000000000000000e+03 2.926656341552734375e+01 -1.506075859069824219e+01 4.678540676832199097e-02 -9.869593977928161621e-01 -2.820521891117095947e-01 -1.570990234613418579e-01
2.953000000000000000e+03 6.892467498779296875e+01 -2.960208320617675781e+01 2.737668156623840332e-02 5.978756904602050781e+00 1.801840066909790039e+00 6.348079442977905273e-02
2.954000000000000000e+03 7.119431304931640625e+01 -1.368552303314208984e+01 5.345951393246650696e-02 6.485813617706298828e+00 1.961781978607177734e+00 1.486020982265472412e-01
2.955000000000000000e+03 9.337098121643066406e+00 3.395528030395507812e+01 -1.945867734320927411e-05 3.926889348804252222e-06 -4.659536443796241656e-06 3.531856236804742366e-06
2.956000000000000000e+03 7.127318572998046875e+01 -2.738682365417480469e+01 2.784774079918861389e-02 6.396953105926513672e+00 1.927440285682678223e+00 5.536057800054550171e-02
2.957000000000000000e+03 6.918052673339843750e+01 -2.690659713745117188e+01 3.829427808523178101e-02 6.017868995666503906e+00 1.816848993301391602e+00 7.065307348966598511e-02
2.958000000000000000e+03 6.828494262695312500e+01 -2.528512763977050781e+01 2.924090623855590820e-02 5.855839729309082031e+00 1.765524148941040039e+00 8.298119157552719116e-02
2.959000000000000000e+03 2.930688667297363281e+01 1.877188205718994141e+00 5.553320422768592834e-02 -8.683187365531921387e-01 -2.438356578350067139e-01 -3.914966285228729248e-01
2.960000000000000000e+03 7.135852050781250000e+01 1.133557987213134766e+01 -2.222177237272262573e-01 7.268194675445556641e+00 2.113793134689331055e+00 3.709405064582824707e-01
2.961000000000000000e+03 7.073400878906250000e+01 9.140884399414062500e+00 -1.195270866155624390e-01 6.949966907501220703e+00 2.049131870269775391e+00 4.326785206794738770e-01
2.962000000000000000e+03 3.087015724182128906e+01 1.927486610412597656e+01 -8.995073288679122925e-02 -3.089515864849090576e-01 -1.196706965565681458e-01 -5.872583985328674316e-01
2.963000000000000000e+03 3.048293304443359375e+01 2.088786506652832031e+01 -1.235960051417350769e-01 -2.738433182239532471e-01 -1.192317977547645569e-01 -5.467801690101623535e-01
2.964000000000000000e+03 2.508085250854492188e+01 -3.272930145263671875e+01 -6.883355975151062012e-02 -1.684277653694152832e+00 -5.259333848953247070e-01 -8.213015645742416382e-02
2.965000000000000000e+03 2.744832611083984375e+01 -2.879973030090332031e+01 -2.133910078555345535e-03 -1.233940720558166504e+00 -3.708223998546600342e-01 -9.384210407733917236e-02
2.966000000000000000e+03 2.781580734252929688e+01 -2.262114715576171875e+01 3.546452522277832031e-02 -1.240698337554931641e+00 -3.615701496601104736e-01 -1.137396097183227539e-01
2.967000000000000000e+03 2.734944534301757812e+01 -2.408815765380859375e+01 3.173598647117614746e-02 -1.309072017669677734e+00 -3.832007944583892822e-01 -1.222217604517936707e-01
2.968000000000000000e+03 6.923284149169921875e+01 -3.271183013916015625e+01 2.595175057649612427e-02 6.004440784454345703e+00 1.809117794036865234e+00 5.915116518735885620e-02
2.969000000000000000e+03 7.142260742187500000e+01 -3.373550415039062500e+01 3.932671155780553818e-03 6.379273891448974609e+00 1.914962053298950195e+00 2.224119752645492554e-02
2.970000000000000000e+03 1.006760501861572266e+01 1.515411376953125000e+01 -5.948036687186686322e-06 1.072333475349296350e-06 -1.462710997657268308e-06 -1.769737650647584815e-06
2.971000000000000000e+03 6.555250549316406250e+01 3.532337570190429688e+01 -2.753718942403793335e-02 7.594321250915527344e+00 2.270035266876220703e+00 -3.160196781158447266e+00
2.972000000000000000e+03 6.670851135253906250e+01 2.811120414733886719e+01 -4.923470914363861084e-01 1.236826896667480469e+01 3.562776327133178711e+00 4.474292278289794922e+00
2.973000000000000000e+03 6.554644775390625000e+01 3.351005172729492188e+01 1.215247988700866699e+00 7.163835048675537109e+00 2.513725042343139648e+00 -4.661558628082275391e+00
2.974000000000000000e+03 7.040045928955078125e+01 2.995498847961425781e+01 4.396026611328125000e+00 1.188685321807861328e+01 4.884863853454589844e+00 -1.113690137863159180e+00
2.975000000000000000e+03 6.982525634765625000e+01 2.959122657775878906e+01 4.223283767700195312e+00 1.310238170623779297e+01 5.197699546813964844e+00 -1.694698929786682129e+00
2.976000000000000000e+03 6.881900024414062500e+01 2.821977806091308594e+01 5.014203190803527832e-01 1.499773406982421875e+01 4.649746417999267578e+00 -8.396691679954528809e-01
2.977000000000000000e+03 7.357926177978515625e+01 3.097196578979492188e+01 2.146630764007568359e+00 9.038883209228515625e+00 3.355654239654541016e+00 7.771179080009460449e-02
2.978000000000000000e+03 6.649376678466796875e+01 2.811673355102539062e+01 -2.693331539630889893e-01 1.161327743530273438e+01 3.403183460235595703e+00 4.893441677093505859e+00
2.979000000000000000e+03 6.946344757080078125e+01 3.341428375244140625e+01 1.275349617004394531e+00 1.398293685913085938e+01 4.577486038208007812e+00 1.680247306823730469e+00
2.980000000000000000e+03 7.313233947753906250e+01 2.445975303649902344e+01 -4.804604351520538330e-01 9.568829536437988281e+00 2.726510763168334961e+00 -1.174414873123168945e+00
2.981000000000000000e+03 6.846152496337890625e+01 3.397001266479492188e+01 -3.008516430854797363e-01 1.458972263336181641e+01 4.286661148071289062e+00 1.150548458099365234e-01
2.982000000000000000e+03 6.917131042480468750e+01 2.814300727844238281e+01 7.191554903984069824e-01 1.428802013397216797e+01 4.502152442932128906e+00 -1.108867287635803223e+00
2.983000000000000000e+03 6.376055908203125000e+01 2.665921783447265625e+01 3.046930134296417236e-01 3.536451339721679688e+00 1.152343273162841797e+00 3.150942564010620117e+00
2.984000000000000000e+03 6.973078918457031250e+01 2.725879669189453125e+01 -2.731224708259105682e-02 1.277121829986572266e+01 3.823171854019165039e+00 -8.943688273429870605e-01
2.985000000000000000e+03 6.753606414794921875e+01 3.358460235595703125e+01 -5.772119760513305664e-01 1.508621883392333984e+01 4.352702140808105469e+00 -1.929757595062255859e+00
2.986000000000000000e+03 7.046014404296875000e+01 2.943097114562988281e+01 3.621272325515747070e+00 1.210715293884277344e+01 4.718527317047119141e+00 -1.566037893295288086e+00
2.987000000000000000e+03 6.511086273193359375e+01 2.608923339843750000e+01 -1.897971332073211670e-01 6.531728744506835938e+00 1.902579426765441895e+00 3.708853960037231445e+00
2.988000000000000000e+03 6.731253051757812500e+01 3.398435211181640625e+01 -7.640388011932373047e-01 1.368022441864013672e+01 3.874855756759643555e+00 -2.482090473175048828e+00
2.989000000000000000e+03 6.993915557861328125e+01 3.348122787475585938e+01 1.447452187538146973e+00 1.323681354522705078e+01 4.405279636383056641e+00 1.827550053596496582e+00
2.990000000000000000e+03 7.110701751708984375e+01 3.362425994873046875e+01 1.443531394004821777e+00 1.154486751556396484e+01 3.896519660949707031e+00 1.751030921936035156e+00
2.991000000000000000e+03 6.970098876953125000e+01 3.237042236328125000e+01 3.761137485504150391e+00 1.357032108306884766e+01 5.199437618255615234e+00 2.063726425170898438e+00
2.992000000000000000e+03 7.056356811523437500e+01 3.173074913024902344e+01 4.288119316101074219e+00 1.171308326721191406e+01 4.800360679626464844e+00 1.143158555030822754e+00
2.993000000000000000e+03 7.028072357177734375e+01 3.281013488769531250e+01 2.718741893768310547e+00 1.265367794036865234e+01 4.611725807189941406e+00 1.915806770324707031e+00
2.994000000000000000e+03 7.022868347167968750e+01 3.103863525390625000e+01 5.408234596252441406e+00 1.200659942626953125e+01 5.224450111389160156e+00 3.557834923267364502e-01
2.995000000000000000e+03 6.483986663818359375e+01 3.381194305419921875e+01 1.191080570220947266e+00 4.857296943664550781e+00 1.814513206481933594e+00 -3.632103681564331055e+00
2.996000000000000000e+03 6.340229034423828125e+01 2.590281105041503906e+01 1.882522255182266235e-01 3.542823314666748047e+00 1.119322657585144043e+00 2.901946544647216797e+00
2.997000000000000000e+03 6.258916854858398438e+01 2.614212417602539062e+01 1.524701118469238281e-01 2.387851238250732422e+00 7.620964050292968750e-01 2.350195169448852539e+00
2.998000000000000000e+03 6.445346832275390625e+01 3.725638198852539062e+01 -1.212569624185562134e-01 6.074593544006347656e+00 1.786000967025756836e+00 -2.061660289764404297e+00
2.999000000000000000e+03 6.276378250122070312e+01 2.552868843078613281e+01 1.499993503093719482e-01 2.957478761672973633e+00 9.322434067726135254e-01 2.505226850509643555e+00
3.000000000000000000e+03 7.330203247070312500e+01 2.594090080261230469e+01 9.173674136400222778e-02 9.565520286560058594e+00 2.897177219390869141e+00 -1.397124409675598145e+00
3.001000000000000000e+03 6.902106475830078125e+01 2.869655799865722656e+01 1.655586242675781250e+00 1.510502433776855469e+01 5.028182983398437500e+00 -1.494833230972290039e+00
3.002000000000000000e+03 3.237464904785156250e+01 2.835663604736328125e+01 -3.583971261978149414e-01 -1.703811623156070709e-02 -1.126305758953094482e-01 -3.417148292064666748e-01
3.003000000000000000e+03 3.014307594299316406e+01 2.843770980834960938e+01 -2.542788386344909668e-01 -5.599169060587882996e-02 -9.308115392923355103e-02 -2.916155457496643066e-01
3.004000000000000000e+03 3.261289596557617188e+01 2.692902565002441406e+01 -3.495146930217742920e-01 -3.745624795556068420e-02 -1.160912811756134033e-01 -4.183737337589263916e-01
3.005000000000000000e+03 6.620027923583984375e+01 2.775454521179199219e+01 -1.821163743734359741e-01 1.000848579406738281e+01 2.947910785675048828e+00 4.710000991821289062e+00
3.006000000000000000e+03 6.445661163330078125e+01 2.642543601989746094e+01 1.542781442403793335e-01 4.926106929779052734e+00 1.524115562438964844e+00 3.584573030471801758e+00
3.007000000000000000e+03 7.328807067871093750e+01 3.154509925842285156e+01 2.147083282470703125e+00 9.205767631530761719e+00 3.405855178833007812e+00 4.553752243518829346e-01
3.008000000000000000e+03 7.221041870117187500e+01 3.247042083740234375e+01 2.408882856369018555e+00 1.015943622589111328e+01 3.770495653152465820e+00 1.193707585334777832e+00
3.009000000000000000e+03 6.053541946411132812e+01 2.518199157714843750e+01 -4.937557876110076904e-02 1.476469516754150391e+00 4.281281828880310059e-01 1.451619863510131836e+00
3.010000000000000000e+03 3.761339950561523438e+01 2.673786544799804688e+01 -6.009264588356018066e-01 5.183099955320358276e-02 -1.647286415100097656e-01 -5.007141828536987305e-01
3.011000000000000000e+03 4.120656585693359375e+01 2.545438957214355469e+01 -6.851110458374023438e-01 9.250402450561523438e-02 -1.777821034193038940e-01 -5.916202664375305176e-01
3.012000000000000000e+03 3.572893905639648438e+01 2.787075805664062500e+01 -5.377473235130310059e-01 3.581737726926803589e-02 -1.505789905786514282e-01 -4.192023277282714844e-01
3.013000000000000000e+03 3.691132354736328125e+01 2.684912490844726562e+01 -5.669414997100830078e-01 4.412973672151565552e-02 -1.568435430526733398e-01 -4.911925792694091797e-01
3.014000000000000000e+03 3.242022323608398438e+01 2.761490058898925781e+01 -3.551311194896697998e-01 -2.722106315195560455e-02 -1.147056519985198975e-01 -3.809676766395568848e-01
3.015000000000000000e+03 4.583922576904296875e+01 2.593494987487792969e+01 -9.783621430397033691e-01 1.174324974417686462e-01 -2.582788765430450439e-01 -5.261940956115722656e-01
3.016000000000000000e+03 3.617294311523437500e+01 2.695986175537109375e+01 -5.264387130737304688e-01 3.108498826622962952e-02 -1.486061215400695801e-01 -4.760470986366271973e-01
3.017000000000000000e+03 3.494356155395507812e+01 2.737254905700683594e+01 -4.747184514999389648e-01 1.415414642542600632e-02 -1.381692886352539062e-01 -4.332423210144042969e-01
3.018000000000000000e+03 3.552018356323242188e+01 2.718323326110839844e+01 -4.990541636943817139e-01 2.251384779810905457e-02 -1.429620981216430664e-01 -4.554346501827239990e-01
3.019000000000000000e+03 4.353266906738281250e+01 2.568344116210937500e+01 -8.278420567512512207e-01 1.089913323521614075e-01 -2.156552076339721680e-01 -5.669109821319580078e-01
3.020000000000000000e+03 4.220333862304687500e+01 2.660110092163085938e+01 -8.658702373504638672e-01 9.937775880098342896e-02 -2.299477308988571167e-01 -5.238919854164123535e-01
3.021000000000000000e+03 4.280544281005859375e+01 2.577774810791015625e+01 -8.058415651321411133e-01 1.057550981640815735e-01 -2.100259363651275635e-01 -5.651247501373291016e-01
3.022000000000000000e+03 5.620045471191406250e+01 2.487615966796875000e+01 -5.797282457351684570e-01 4.821503758430480957e-01 -2.927335910499095917e-02 2.334977835416793823e-01
3.023000000000000000e+03 5.660688400268554688e+01 2.442598724365234375e+01 -4.235384464263916016e-01 6.224026679992675781e-01 5.965926498174667358e-02 3.630726635456085205e-01
3.024000000000000000e+03 4.856032943725585938e+01 2.454227066040039062e+01 -7.948403358459472656e-01 1.750845909118652344e-01 -1.859267204999923706e-01 -4.892572462558746338e-01
3.025000000000000000e+03 4.829794692993164062e+01 2.614787483215332031e+01 -1.133321285247802734e+00 1.146215125918388367e-01 -3.056099414825439453e-01 -4.610373377799987793e-01
3.026000000000000000e+03 4.880702972412109375e+01 2.528201675415039062e+01 -9.558328390121459961e-01 1.459649652242660522e-01 -2.429603636264801025e-01 -4.687964022159576416e-01
3.027000000000000000e+03 7.383128356933593750e+01 2.878209686279296875e+01 1.409428477287292480e+00 8.965759277343750000e+00 3.112556219100952148e+00 -1.011198401451110840e+00
3.028000000000000000e+03 5.531810760498046875e+01 2.483827018737792969e+01 -6.731660962104797363e-01 3.646447062492370605e-01 -9.255640953779220581e-02 7.892643660306930542e-02
3.029000000000000000e+03 5.189383316040039062e+01 2.544587516784667969e+01 -1.017129778861999512e+00 1.729294061660766602e-01 -2.532601058483123779e-01 -3.066631555557250977e-01
3.030000000000000000e+03 5.719494628906250000e+01 2.473957633972167969e+01 -4.355782270431518555e-01 6.086765527725219727e-01 5.192949995398521423e-02 4.410210251808166504e-01
3.031000000000000000e+03 5.786134719848632812e+01 2.546772575378417969e+01 -5.698308944702148438e-01 5.691775679588317871e-01 -1.959946239367127419e-04 5.014129281044006348e-01
3.032000000000000000e+03 4.140266799926757812e+01 2.604434967041015625e+01 -7.648198008537292480e-01 9.594649821519851685e-02 -2.006619870662689209e-01 -5.567241907119750977e-01
3.033000000000000000e+03 4.146861648559570312e+01 2.670827484130859375e+01 -8.296154737472534180e-01 9.633061289787292480e-02 -2.199854701757431030e-01 -5.221775174140930176e-01
3.034000000000000000e+03 5.924522018432617188e+01 2.537476348876953125e+01 -3.188844919204711914e-01 9.368878006935119629e-01 1.854009926319122314e-01 9.215915203094482422e-01
3.035000000000000000e+03 6.124601745605468750e+01 2.520070648193359375e+01 5.201488733291625977e-02 1.880481243133544922e+00 5.797488093376159668e-01 1.737840056419372559e+00
3.036000000000000000e+03 4.730783462524414062e+01 2.559141540527343750e+01 -9.794006347656250000e-01 1.275718212127685547e-01 -2.555486559867858887e-01 -5.100435614585876465e-01
3.037000000000000000e+03 5.783588409423828125e+01 2.482483863830566406e+01 -3.830104768276214600e-01 7.264291644096374512e-01 1.030256077647209167e-01 5.917574763298034668e-01
3.038000000000000000e+03 5.846441650390625000e+01 2.478942298889160156e+01 -2.798600196838378906e-01 8.854990601539611816e-01 1.816917061805725098e-01 7.713866829872131348e-01
3.039000000000000000e+03 3.994114303588867188e+01 2.685833740234375000e+01 -7.424281835556030273e-01 8.141391724348068237e-02 -1.983042806386947632e-01 -5.117169618606567383e-01
3.040000000000000000e+03 2.676715660095214844e+01 2.966768264770507812e+01 -1.227105930447578430e-01 -7.789060473442077637e-02 -6.018035858869552612e-02 -1.618331968784332275e-01
3.041000000000000000e+03 5.909216308593750000e+01 2.468177795410156250e+01 -1.719776093959808350e-01 1.107776761054992676e+00 2.807397246360778809e-01 9.665082693099975586e-01
3.042000000000000000e+03 5.988397216796875000e+01 2.525595664978027344e+01 -1.828835755586624146e-01 1.146232008934020996e+00 2.890045344829559326e-01 1.158299922943115234e+00
3.043000000000000000e+03 8.942603111267089844e+00 -7.447094917297363281e+00 -1.834499707911163568e-04 -6.784483412047848105e-05 -7.538843783549964428e-05 2.247355878353118896e-04
3.044000000000000000e+03 2.885758018493652344e+01 2.490627670288085938e+01 -1.650336235761642456e-01 -1.849782466888427734e-01 -1.050035580992698669e-01 -3.947848379611968994e-01
3.045000000000000000e+03 7.051879882812500000e+00 -6.742988586425781250e+00 1.623290154384449124e-04 1.375360443489626050e-04 8.995951793622225523e-05 2.279903674207162112e-05
3.046000000000000000e+03 5.029250335693359375e+01 2.497969055175781250e+01 -8.941565752029418945e-01 1.808665692806243896e-01 -2.139870077371597290e-01 -4.023755192756652832e-01
3.047000000000000000e+03 5.100874710083007812e+01 2.482874298095703125e+01 -8.541111350059509277e-01 1.954343318939208984e-01 -1.976030319929122925e-01 -3.553376495838165283e-01
3.048000000000000000e+03 8.249426841735839844e+00 7.483664512634277344e+00 4.292292487662052736e-06 -2.505577469946729252e-07 1.212520487570145633e-06 5.950420813860546332e-07
3.049000000000000000e+03 6.926616668701171875e+01 -3.975207328796386719e+00 8.968322724103927612e-02 6.206720352172851562e+00 1.888921141624450684e+00 3.142426609992980957e-01
3.050000000000000000e+03 7.025313568115234375e+01 -6.579253196716308594e+00 7.896707952022552490e-02 6.396051883697509766e+00 1.942505717277526855e+00 2.530094385147094727e-01
3.051000000000000000e+03 7.151712036132812500e+01 1.252624225616455078e+01 -2.828302085399627686e-01 7.401123523712158203e+00 2.135488033294677734e+00 3.308248817920684814e-01
3.052000000000000000e+03 3.850886917114257812e+01 2.728573799133300781e+01 -6.815797686576843262e-01 6.752973049879074097e-02 -1.842150241136550903e-01 -4.767951965332031250e-01
3.053000000000000000e+03 7.384606933593750000e+01 2.809459686279296875e+01 1.070049166679382324e+00 9.065058708190917969e+00 3.040532350540161133e+00 -1.276541829109191895e+00
3.054000000000000000e+03 7.457796096801757812e+00 -1.328110122680664062e+01 -4.433892900124192238e-04 -2.392570168012753129e-04 -2.047938905889168382e-04 2.331331925233826041e-04
3.055000000000000000e+03 6.913682556152343750e+01 -1.041647815704345703e+01 8.765943348407745361e-02 6.125073909759521484e+00 1.863820075988769531e+00 2.145552337169647217e-01
3.056000000000000000e+03 6.875127410888671875e+01 -1.166930007934570312e+01 8.576515316963195801e-02 6.039812564849853516e+00 1.837673306465148926e+00 2.047772258520126343e-01
3.057000000000000000e+03 8.974641799926757812e+00 7.290466308593750000e+00 -6.087216206651646644e-07 1.338760142743922188e-07 -1.424536861804881482e-07 1.480688752053538337e-06
3.058000000000000000e+03 7.156822204589843750e+01 3.717454528808593750e+01 -9.966347813606262207e-01 1.070516204833984375e+01 2.912558317184448242e+00 9.662118554115295410e-01
3.059000000000000000e+03 2.923444557189941406e+01 2.768946266174316406e+01 -2.075437754392623901e-01 -9.446573257446289062e-02 -9.060285240411758423e-02 -2.992220818996429443e-01
3.060000000000000000e+03 2.806569671630859375e+01 2.711069297790527344e+01 -1.609424054622650146e-01 -1.318196654319763184e-01 -8.782862871885299683e-02 -2.875033617019653320e-01
3.061000000000000000e+03 3.199144172668457031e+01 1.866681861877441406e+01 -8.623538166284561157e-02 -2.763295471668243408e-01 -1.087694764137268066e-01 -6.241556406021118164e-01
3.062000000000000000e+03 3.003625106811523438e+01 1.704473686218261719e+01 -3.770039603114128113e-02 -4.181456565856933594e-01 -1.367538124322891235e-01 -5.778774023056030273e-01
3.063000000000000000e+03 7.165522003173828125e+01 2.203684997558593750e+01 -1.017517805099487305e+00 9.337722778320312500e+00 2.496061325073242188e+00 -3.448008596897125244e-01
3.064000000000000000e+03 3.002450370788574219e+01 -3.817038774490356445e+00 8.290772885084152222e-02 -8.322929143905639648e-01 -2.248155474662780762e-01 -3.139196932315826416e-01
3.065000000000000000e+03 3.054371070861816406e+01 -2.554707527160644531e+00 8.996199071407318115e-02 -7.435237765312194824e-01 -1.960685402154922485e-01 -3.311960101127624512e-01
3.066000000000000000e+03 6.739243316650390625e+01 -1.883704948425292969e+01 6.702782958745956421e-02 5.697261333465576172e+00 1.729286789894104004e+00 1.310303658246994019e-01
3.067000000000000000e+03 6.823497772216796875e+01 -1.979121398925781250e+01 5.258738622069358826e-02 5.913689136505126953e+00 1.789882898330688477e+00 1.104399710893630981e-01
3.068000000000000000e+03 7.180848693847656250e+01 1.562580776214599609e+01 -5.088731050491333008e-01 7.849707603454589844e+00 2.202250480651855469e+00 2.008724957704544067e-01
3.069000000000000000e+03 6.346927165985107422e+00 7.737130641937255859e+00 -3.573176627469365485e-06 -1.180476488116255496e-06 -1.426095877832267433e-06 -7.931120080684195273e-07
3.070000000000000000e+03 6.280666351318359375e+00 6.454727649688720703e+00 -8.557011597076780163e-07 -1.362039483865373768e-06 -6.653222044405993074e-07 -1.595415369592956267e-06
3.071000000000000000e+03 3.083118057250976562e+01 1.283691215515136719e+01 2.795079536736011505e-02 -4.914951026439666748e-01 -1.390632838010787964e-01 -5.907424092292785645e-01
3.072000000000000000e+03 2.980866050720214844e+01 1.577862834930419922e+01 -1.736138202250003815e-02 -4.723595678806304932e-01 -1.469162851572036743e-01 -5.720412135124206543e-01
3.073000000000000000e+03 3.124614334106445312e+01 1.655882644653320312e+01 -3.261018171906471252e-02 -3.672381937503814697e-01 -1.199545115232467651e-01 -6.153470277786254883e-01
3.074000000000000000e+03 2.905496215820312500e+01 2.389549064636230469e+01 -1.518370807170867920e-01 -2.159497141838073730e-01 -1.103360354900360107e-01 -4.301954209804534912e-01
3.075000000000000000e+03 3.087418746948242188e+01 1.021132755279541016e+01 5.016269534826278687e-02 -5.358964800834655762e-01 -1.457201391458511353e-01 -5.633086562156677246e-01
3.076000000000000000e+03 6.233864212036132812e+01 4.146209335327148438e+01 2.136706411838531494e-01 4.038971424102783203e+00 1.275792598724365234e+00 -3.039203286170959473e-01
3.077000000000000000e+03 6.372376632690429688e+01 3.855124282836914062e+01 4.088935628533363342e-02 5.049889564514160156e+00 1.527233719825744629e+00 -1.281267642974853516e+00
3.078000000000000000e+03 6.891720581054687500e+01 6.360462665557861328e+00 -3.234722884371876717e-03 6.351983547210693359e+00 1.904624581336975098e+00 4.866565167903900146e-01
3.079000000000000000e+03 7.065768432617187500e+01 4.700656890869140625e+00 9.066108614206314087e-03 6.731000900268554688e+00 2.022020101547241211e+00 3.995130956172943115e-01
3.080000000000000000e+03 7.032392883300781250e+01 -1.578369498252868652e+00 7.432449609041213989e-02 6.493894577026367188e+00 1.970465660095214844e+00 3.303072154521942139e-01
3.081000000000000000e+03 6.933062744140625000e+01 -2.282729148864746094e+01 4.730468243360519409e-02 6.072958469390869141e+00 1.836079001426696777e+00 9.453491121530532837e-02
3.082000000000000000e+03 7.022828674316406250e+01 -7.925208568572998047e+00 7.585962861776351929e-02 6.378814220428466797e+00 1.936402201652526855e+00 2.422919720411300659e-01
3.083000000000000000e+03 7.026322174072265625e+01 -9.251131057739257812e+00 6.770169734954833984e-02 6.350456237792968750e+00 1.925447344779968262e+00 2.275223881006240845e-01
3.084000000000000000e+03 6.960005950927734375e+01 2.009340667724609375e+01 -1.060292959213256836e+00 8.432592391967773438e+00 2.211689949035644531e+00 5.542533993721008301e-01
3.085000000000000000e+03 7.074745178222656250e+01 1.795080566406250000e+01 -7.968332171440124512e-01 8.051563262939453125e+00 2.176419019699096680e+00 3.058155179023742676e-01
3.086000000000000000e+03 8.791487693786621094e+00 -1.679810142517089844e+01 4.075831093359738588e-04 5.230180104263126850e-04 2.791803271975368261e-04 -3.293954068794846535e-04
3.087000000000000000e+03 3.062727546691894531e+01 -1.329732799530029297e+01 6.234411522746086121e-02 -7.768244147300720215e-01 -2.143440842628479004e-01 -1.770930886268615723e-01
3.088000000000000000e+03 7.020407104492187500e+01 2.053507995605468750e+01 -1.063595175743103027e+00 8.656140327453613281e+00 2.277763605117797852e+00 3.640343844890594482e-01
3.089000000000000000e+03 7.078451538085937500e+01 1.914006233215332031e+01 -9.159944057464599609e-01 8.381594657897949219e+00 2.239680051803588867e+00 2.385877072811126709e-01
3.090000000000000000e+03 6.912711334228515625e+01 -9.294708251953125000e+00 8.130931109189987183e-02 6.112278938293457031e+00 1.858076572418212891e+00 2.335127145051956177e-01
3.091000000000000000e+03 7.156617736816406250e+01 -6.625061511993408203e+00 6.153529137372970581e-02 6.671505928039550781e+00 2.019912481307983398e+00 2.373449653387069702e-01
3.092000000000000000e+03 6.591737365722656250e+01 3.769569015502929688e+01 -7.588221430778503418e-01 7.832976818084716797e+00 2.122246503829956055e+00 -1.979809165000915527e+00
3.093000000000000000e+03 2.956576156616210938e+01 -4.990384578704833984e+00 6.783032417297363281e-02 -9.148129820823669434e-01 -2.540948092937469482e-01 -2.968339323997497559e-01
3.094000000000000000e+03 7.000360107421875000e+01 3.422904968261718750e+01 3.256085813045501709e-01 1.275466918945312500e+01 3.924083471298217773e+00 1.418320655822753906e+00
3.095000000000000000e+03 7.161764526367187500e+01 3.388675689697265625e+01 1.180964708328247070e+00 1.108788108825683594e+01 3.680653810501098633e+00 1.715059161186218262e+00
3.096000000000000000e+03 3.127126884460449219e+01 -1.651204490661621094e+01 6.857561320066452026e-02 -6.757144331932067871e-01 -1.821416467428207397e-01 -1.397535651922225952e-01
3.097000000000000000e+03 2.908003997802734375e+01 -1.843277549743652344e+01 4.832515120506286621e-02 -1.021127700805664062e+00 -2.918407618999481201e-01 -1.294625699520111084e-01
3.098000000000000000e+03 6.999948120117187500e+01 1.063226318359375000e+01 -1.905255615711212158e-01 6.868396282196044922e+00 2.003361225128173828e+00 4.866636395454406738e-01
3.099000000000000000e+03 6.963422393798828125e+01 9.659197807312011719e+00 -1.401816755533218384e-01 6.699733734130859375e+00 1.967865586280822754e+00 5.060099363327026367e-01
3.100000000000000000e+03 3.089341354370117188e+01 1.411706829071044922e+01 9.669729508459568024e-03 -4.530434608459472656e-01 -1.330121159553527832e-01 -6.010270118713378906e-01
3.101000000000000000e+03 6.769927978515625000e+01 -2.802860832214355469e+01 3.846478834748268127e-02 5.775498867034912109e+00 1.744189023971557617e+00 6.005994975566864014e-02
3.102000000000000000e+03 3.107169342041015625e+01 5.113841056823730469e+00 7.716424018144607544e-02 -6.151717901229858398e-01 -1.614022552967071533e-01 -4.754683077335357666e-01
3.103000000000000000e+03 3.083951759338378906e+01 6.467175960540771484e+00 6.644532829523086548e-02 -6.151093840599060059e-01 -1.645992100238800049e-01 -5.027875304222106934e-01
3.104000000000000000e+03 3.091837120056152344e+01 7.619315147399902344e+00 6.907304376363754272e-02 -5.806945562362670898e-01 -1.534864604473114014e-01 -5.233002901077270508e-01
3.105000000000000000e+03 9.530710220336914062e+00 -3.323488235473632812e+01 1.364276837557554245e-02 -8.412799797952175140e-03 1.568990526720881462e-03 -3.422768088057637215e-03
3.106000000000000000e+03 3.011878395080566406e+01 2.180686187744140625e+01 -1.351048797369003296e-01 -2.599686682224273682e-01 -1.185220628976821899e-01 -5.169749259948730469e-01
3.107000000000000000e+03 3.090041923522949219e+01 -1.478928756713867188e+01 5.929325148463249207e-02 -7.426903247833251953e-01 -2.050191313028335571e-01 -1.648601144552230835e-01
3.108000000000000000e+03 2.944316101074218750e+01 -1.674470901489257812e+01 5.226993188261985779e-02 -9.566925764083862305e-01 -2.713268101215362549e-01 -1.467863321304321289e-01
3.109000000000000000e+03 3.244622421264648438e+01 5.468044281005859375e+00 1.102463603019714355e-01 -4.478973150253295898e-01 -1.012952849268913269e-01 -4.985300302505493164e-01
3.110000000000000000e+03 9.373619079589843750e+00 -2.918539237976074219e+01 3.819297999143600464e-03 -1.513154478743672371e-03 6.918430444784462452e-04 -1.327775185927748680e-03
3.111000000000000000e+03 2.574617576599121094e+01 -2.965115737915039062e+01 -1.906180009245872498e-02 -1.578375935554504395e+00 -4.792313277721405029e-01 -1.076041013002395630e-01
3.112000000000000000e+03 3.233408355712890625e+01 -3.172509574890136719e+01 4.858316108584403992e-02 -4.192919731140136719e-01 -1.112126484513282776e-01 -1.843923516571521759e-02
3.113000000000000000e+03 6.981094360351562500e+01 -5.768824815750122070e-01 7.700514793395996094e-02 6.398058891296386719e+00 1.942519187927246094e+00 3.556348085403442383e-01
3.114000000000000000e+03 6.954263305664062500e+01 1.642587542533874512e+00 6.738607585430145264e-02 6.360629081726074219e+00 1.928404569625854492e+00 3.955456018447875977e-01
3.115000000000000000e+03 9.542037010192871094e+00 -3.773412704467773438e+01 6.947441492229700089e-03 -2.949081361293792725e-02 -6.763011682778596878e-03 4.177036881446838379e-02
3.116000000000000000e+03 1.129817581176757812e+01 -3.771521759033203125e+01 5.741200968623161316e-02 -3.393347933888435364e-02 7.043559569865465164e-03 3.314084932208061218e-02
3.117000000000000000e+03 6.493353366851806641e+00 -3.281655502319335938e+01 8.784619159996509552e-03 -3.875569673255085945e-03 1.472714706324040890e-03 5.288601387292146683e-03
3.118000000000000000e+03 6.506979370117187500e+01 3.551014709472656250e+01 1.913467794656753540e-01 6.673585891723632812e+00 2.059479951858520508e+00 -3.096186637878417969e+00
3.119000000000000000e+03 6.541207122802734375e+01 2.704173660278320312e+01 -1.698458567261695862e-02 7.034454345703125000e+00 2.105240821838378906e+00 4.224599838256835938e+00
3.120000000000000000e+03 6.696598052978515625e+01 3.429376983642578125e+01 -6.541705131530761719e-01 1.225640964508056641e+01 3.480671644210815430e+00 -2.997238636016845703e+00
3.121000000000000000e+03 6.662209320068359375e+01 3.452214431762695312e+01 -5.319147109985351562e-01 1.117295169830322266e+01 3.192311048507690430e+00 -3.442428588867187500e+00
3.122000000000000000e+03 6.691493225097656250e+01 2.804448509216308594e+01 -7.237238287925720215e-01 1.318193721771240234e+01 3.737464189529418945e+00 3.847182750701904297e+00
3.123000000000000000e+03 6.561187744140625000e+01 3.450241470336914062e+01 4.134933054447174072e-01 7.750231742858886719e+00 2.449117422103881836e+00 -3.863880872726440430e+00
3.124000000000000000e+03 7.315252685546875000e+01 2.942794609069824219e+01 2.015117168426513672e+00 9.332895278930664062e+00 3.404403686523437500e+00 -8.408959507942199707e-01
3.125000000000000000e+03 6.715688323974609375e+01 2.789039611816406250e+01 -8.981839418411254883e-01 1.375784683227539062e+01 3.857898950576782227e+00 3.273476362228393555e+00
3.126000000000000000e+03 7.052839660644531250e+01 3.027873802185058594e+01 4.634914398193359375e+00 1.160887527465820312e+01 4.873136997222900391e+00 -7.049275040626525879e-01
3.127000000000000000e+03 7.185837554931640625e+01 2.320459365844726562e+01 -9.371922612190246582e-01 9.710097312927246094e+00 2.631871461868286133e+00 -6.222073435783386230e-01
3.128000000000000000e+03 6.789808654785156250e+01 2.798172950744628906e+01 -7.348241806030273438e-01 1.513185310363769531e+01 4.319108963012695312e+00 1.255155801773071289e+00
3.129000000000000000e+03 6.496178436279296875e+01 2.667218971252441406e+01 3.579670190811157227e-02 6.013895511627197266e+00 1.814907670021057129e+00 3.861460685729980469e+00
3.130000000000000000e+03 6.931328582763671875e+01 2.886571121215820312e+01 2.379197597503662109e+00 1.437599372863769531e+01 5.026557445526123047e+00 -1.800141572952270508e+00
3.131000000000000000e+03 7.190840911865234375e+01 2.555034255981445312e+01 -3.669693470001220703e-01 1.042893123626708984e+01 3.018588542938232422e+00 -1.180584311485290527e+00
3.132000000000000000e+03 6.853453826904296875e+01 2.815161132812500000e+01 7.879875600337982178e-02 1.516897678375244141e+01 4.574332714080810547e+00 -2.683217525482177734e-01
3.133000000000000000e+03 6.806668090820312500e+01 3.412763977050781250e+01 -7.733328938484191895e-01 1.431121349334716797e+01 4.061364173889160156e+00 -9.156389236450195312e-01
3.134000000000000000e+03 6.880190277099609375e+01 3.370288467407226562e+01 1.767996549606323242e-01 1.472687244415283203e+01 4.471101760864257812e+00 8.309687972068786621e-01
3.135000000000000000e+03 6.874897003173828125e+01 2.850616073608398438e+01 9.155384898185729980e-01 1.541542053222656250e+01 4.899287700653076172e+00 -1.050168156623840332e+00
3.136000000000000000e+03 7.347303009033203125e+01 2.528512954711914062e+01 -1.615431159734725952e-01 9.481258392333984375e+00 2.795914649963378906e+00 -1.350639820098876953e+00
3.137000000000000000e+03 7.125622558593750000e+01 3.462387847900390625e+01 3.750735223293304443e-01 1.150100898742675781e+01 3.562824964523315430e+00 1.601892948150634766e+00
3.138000000000000000e+03 7.025529479980468750e+01 2.163376426696777344e+01 -1.161375284194946289e+00 9.053935050964355469e+00 2.367768049240112305e+00 2.853962182998657227e-01
3.139000000000000000e+03 7.099918365478515625e+01 3.011690711975097656e+01 3.974155902862548828e+00 1.108040904998779297e+01 4.516369342803955078e+00 -7.698829174041748047e-01
3.140000000000000000e+03 6.767975616455078125e+01 3.444052505493164062e+01 -9.116200804710388184e-01 1.339517784118652344e+01 3.745067358016967773e+00 -1.662651300430297852e+00
3.141000000000000000e+03 7.303562164306640625e+01 2.686370468139648438e+01 5.142942070960998535e-01 9.768133163452148438e+00 3.084728240966796875e+00 -1.480984926223754883e+00
3.142000000000000000e+03 6.791161346435546875e+01 3.367497634887695312e+01 -4.970981180667877197e-01 1.508358383178710938e+01 4.375945568084716797e+00 -1.081782102584838867e+00
3.143000000000000000e+03 7.319769287109375000e+01 2.748169898986816406e+01 8.334124088287353516e-01 9.628155708312988281e+00 3.138470411300659180e+00 -1.462509751319885254e+00
3.144000000000000000e+03 6.395020675659179688e+01 2.618239402770996094e+01 2.001761645078659058e-01 4.157710552215576172e+00 1.307366013526916504e+00 3.269522666931152344e+00
3.145000000000000000e+03 7.126240539550781250e+01 3.316255187988281250e+01 2.042956113815307617e+00 1.126492595672607422e+01 3.992364645004272461e+00 1.725616931915283203e+00
3.146000000000000000e+03 7.296275329589843750e+01 3.105831718444824219e+01 2.497906684875488281e+00 9.377770423889160156e+00 3.562703132629394531e+00 1.423063725233078003e-01
3.147000000000000000e+03 7.066255950927734375e+01 3.221156311035156250e+01 3.556844234466552734e+00 1.177965736389160156e+01 4.600950717926025391e+00 1.491880893707275391e+00
3.148000000000000000e+03 7.176520538330078125e+01 3.215071105957031250e+01 2.867965459823608398e+00 1.046078777313232422e+01 3.998625755310058594e+00 1.102038264274597168e+00
3.149000000000000000e+03 7.038124084472656250e+01 3.134849929809570312e+01 4.816251754760742188e+00 1.183721256256103516e+01 4.996039390563964844e+00 7.816540598869323730e-01
3.150000000000000000e+03 7.119885253906250000e+01 3.214842605590820312e+01 3.263477563858032227e+00 1.109164714813232422e+01 4.306537628173828125e+00 1.253546357154846191e+00
3.151000000000000000e+03 7.279197692871093750e+01 2.632818412780761719e+01 2.332341969013214111e-01 9.897331237792968750e+00 3.039169549942016602e+00 -1.441397666931152344e+00
3.152000000000000000e+03 3.363843917846679688e+01 2.759286499023437500e+01 -4.144569337368011475e-01 -4.296991508454084396e-03 -1.256261765956878662e-01 -4.049847126007080078e-01
3.153000000000000000e+03 3.166773986816406250e+01 2.747400283813476562e+01 -3.131397366523742676e-01 -4.828548803925514221e-02 -1.084275692701339722e-01 -3.718276321887969971e-01
3.154000000000000000e+03 5.456560897827148438e+01 2.367450523376464844e+01 -4.035711586475372314e-01 4.890807569026947021e-01 2.565287426114082336e-02 6.872195750474929810e-02
3.155000000000000000e+03 5.292765045166015625e+01 2.494695472717285156e+01 -8.347026109695434570e-01 2.541554868221282959e-01 -1.741641312837600708e-01 -2.051528096199035645e-01
3.156000000000000000e+03 6.271878814697265625e+01 2.435190200805664062e+01 9.453126043081283569e-02 3.452579498291015625e+00 1.064133167266845703e+00 2.443494558334350586e+00
3.157000000000000000e+03 2.983985137939453125e+01 2.669757080078125000e+01 -2.240480184555053711e-01 -1.083835139870643616e-01 -9.972946345806121826e-02 -3.575525283813476562e-01
3.158000000000000000e+03 4.492006683349609375e+01 2.546008110046386719e+01 -8.602713942527770996e-01 1.245111450552940369e-01 -2.207280695438385010e-01 -5.617302656173706055e-01
3.159000000000000000e+03 4.805561447143554688e+01 2.543374633789062500e+01 -9.701351523399353027e-01 1.361721009016036987e-01 -2.501889169216156006e-01 -4.928401708602905273e-01
3.160000000000000000e+03 3.744979858398437500e+01 2.601315689086914062e+01 -5.515984892845153809e-01 4.306781291961669922e-02 -1.525592058897018433e-01 -5.389329195022583008e-01
3.161000000000000000e+03 4.076840209960937500e+01 2.599705123901367188e+01 -7.174826860427856445e-01 8.816721290349960327e-02 -1.887946426868438721e-01 -5.612553954124450684e-01
3.162000000000000000e+03 2.852251052856445312e+01 2.787825393676757812e+01 -1.854182183742523193e-01 -9.718953818082809448e-02 -8.478233218193054199e-02 -2.714984416961669922e-01
3.163000000000000000e+03 2.881266593933105469e+01 2.590859222412109375e+01 -1.803302466869354248e-01 -1.509404629468917847e-01 -9.938121587038040161e-02 -3.561209142208099365e-01
3.164000000000000000e+03 6.313191604614257812e+01 2.500936317443847656e+01 1.154327020049095154e-01 3.616265773773193359e+00 1.119509577751159668e+00 2.673714160919189453e+00
3.165000000000000000e+03 6.197847366333007812e+01 2.449175643920898438e+01 1.262866258621215820e-01 2.760977983474731445e+00 8.661794066429138184e-01 2.145306825637817383e+00
3.166000000000000000e+03 4.346334838867187500e+01 2.497611999511718750e+01 -7.412934303283691406e-01 1.133180335164070129e-01 -1.883926242589950562e-01 -5.963876843452453613e-01
3.167000000000000000e+03 3.675328445434570312e+01 2.612699890136718750e+01 -5.249238610267639160e-01 3.377054631710052490e-02 -1.473459899425506592e-01 -5.267954468727111816e-01
3.168000000000000000e+03 3.606406021118164062e+01 2.620458602905273438e+01 -4.877422153949737549e-01 1.840211823582649231e-02 -1.408020257949829102e-01 -5.105985403060913086e-01
3.169000000000000000e+03 3.526718902587890625e+01 2.600923538208007812e+01 -4.448606371879577637e-01 1.198633253807201982e-04 -1.334222257137298584e-01 -5.060670375823974609e-01
3.170000000000000000e+03 4.208085632324218750e+01 2.590163421630859375e+01 -7.853643894195556641e-01 1.011334285140037537e-01 -2.052692919969558716e-01 -5.632060170173645020e-01
3.171000000000000000e+03 4.560009002685546875e+01 2.525966072082519531e+01 -8.563085794448852539e-01 1.280360072851181030e-01 -2.184817790985107422e-01 -5.590587258338928223e-01
3.172000000000000000e+03 4.907553482055664062e+01 2.364897537231445312e+01 -6.159290671348571777e-01 2.318232804536819458e-01 -1.152317300438880920e-01 -4.613137245178222656e-01
3.173000000000000000e+03 4.270981597900390625e+01 2.505508232116699219e+01 -7.152664661407470703e-01 1.125155314803123474e-01 -1.808252781629562378e-01 -6.022979617118835449e-01
3.174000000000000000e+03 4.931104278564453125e+01 2.439108085632324219e+01 -7.664242386817932129e-01 1.916238218545913696e-01 -1.724401265382766724e-01 -4.518073499202728271e-01
3.175000000000000000e+03 5.535960006713867188e+01 2.399211502075195312e+01 -4.306709766387939453e-01 5.040800571441650391e-01 2.202272042632102966e-02 1.597887277603149414e-01
3.176000000000000000e+03 5.387539291381835938e+01 2.511963653564453125e+01 -8.542405962944030762e-01 2.613511085510253906e-01 -1.778668463230133057e-01 -1.170831099152565002e-01
3.177000000000000000e+03 5.735254669189453125e+01 2.415993690490722656e+01 -2.608494460582733154e-01 7.870641946792602539e-01 1.578644216060638428e-01 5.364603400230407715e-01
3.178000000000000000e+03 3.895029449462890625e+01 2.642332458496093750e+01 -6.566083431243896484e-01 6.860367208719253540e-02 -1.764014065265655518e-01 -5.308962464332580566e-01
3.179000000000000000e+03 4.704857254028320312e+01 2.485806083679199219e+01 -8.331815004348754883e-01 1.468207985162734985e-01 -2.059082090854644775e-01 -5.372998714447021484e-01
3.180000000000000000e+03 7.274391937255859375e+01 3.204058837890625000e+01 2.319451570510864258e+00 9.662986755371093750e+00 3.594731569290161133e+00 8.590821027755737305e-01
3.181000000000000000e+03 7.113701629638671875e+01 3.056525802612304688e+01 4.034108161926269531e+00 1.088206768035888672e+01 4.474853038787841797e+00 -3.088843822479248047e-01
3.182000000000000000e+03 7.175763702392578125e+01 3.321557235717773438e+01 1.942134380340576172e+00 1.081927204132080078e+01 3.828421831130981445e+00 1.611655473709106445e+00
3.183000000000000000e+03 3.921561431884765625e+01 2.709690666198730469e+01 -7.118204832077026367e-01 7.499774545431137085e-02 -1.910468339920043945e-01 -4.923683404922485352e-01
3.184000000000000000e+03 4.630809402465820312e+01 2.504982757568359375e+01 -8.487559556961059570e-01 1.355330348014831543e-01 -2.139668762683868408e-01 -5.523691773414611816e-01
3.185000000000000000e+03 7.102642059326171875e+01 2.858580780029296875e+01 2.138313531875610352e+00 1.151167011260986328e+01 4.094995021820068359e+00 -1.611851215362548828e+00
3.186000000000000000e+03 6.931256103515625000e+01 2.848021316528320312e+01 1.349192857742309570e+00 1.422970008850097656e+01 4.673667907714843750e+00 -1.453267335891723633e+00
3.187000000000000000e+03 5.831871032714843750e+01 2.415009689331054688e+01 -1.629576683044433594e-01 1.013836264610290527e+00 2.552635669708251953e-01 8.059838414192199707e-01
3.188000000000000000e+03 7.304505920410156250e+01 3.007051467895507812e+01 2.348453998565673828e+00 9.359811782836914062e+00 3.512479543685913086e+00 -4.696545302867889404e-01
3.189000000000000000e+03 5.889073944091796875e+01 2.399710655212402344e+01 -6.484767794609069824e-02 1.246502995491027832e+00 3.544965982437133789e-01 9.948697090148925781e-01
3.190000000000000000e+03 5.973566436767578125e+01 2.454749488830566406e+01 -5.270281061530113220e-02 1.376448273658752441e+00 3.971236348152160645e-01 1.221719503402709961e+00
3.191000000000000000e+03 6.118558120727539062e+01 2.447313880920410156e+01 9.547069668769836426e-02 2.141127109527587891e+00 6.709793806076049805e-01 1.792581558227539062e+00
3.192000000000000000e+03 7.173123931884765625e+01 3.264436721801757812e+01 2.427312612533569336e+00 1.068413734436035156e+01 3.933434963226318359e+00 1.442927718162536621e+00
3.193000000000000000e+03 5.237244415283203125e+01 2.467217254638671875e+01 -7.759948968887329102e-01 2.543430328369140625e-01 -1.564955562353134155e-01 -2.509634196758270264e-01
3.194000000000000000e+03 6.911846160888671875e+01 2.488312721252441406e+00 6.112766638398170471e-02 6.280922889709472656e+00 1.902615189552307129e+00 4.154391586780548096e-01
3.195000000000000000e+03 3.306226348876953125e+01 2.770505905151367188e+01 -3.852362334728240967e-01 -1.393764372915029526e-02 -1.197521686553955078e-01 -3.851329982280731201e-01
3.196000000000000000e+03 3.195970726013183594e+01 2.373464775085449219e+01 -2.364597469568252563e-01 -1.358863711357116699e-01 -1.117038354277610779e-01 -5.214183330535888672e-01
3.197000000000000000e+03 6.829388427734375000e+01 -9.929445266723632812e+00 9.751086682081222534e-02 5.947755813598632812e+00 1.813580036163330078e+00 2.275964468717575073e-01
3.198000000000000000e+03 3.017986297607421875e+01 2.411363220214843750e+01 -1.924061030149459839e-01 -1.738282740116119385e-01 -1.098703145980834961e-01 -4.590487182140350342e-01
3.199000000000000000e+03 9.341320991516113281e+00 9.148207664489746094e+00 -3.871663011523196474e-06 -1.696797369277192047e-08 -1.166589299828046933e-06 1.357904011456412263e-07
3.200000000000000000e+03 6.922703552246093750e+01 -1.915934562683105469e+00 9.735233336687088013e-02 6.232765197753906250e+00 1.899035215377807617e+00 3.440686166286468506e-01
3.201000000000000000e+03 7.087833404541015625e+01 2.021992683410644531e+01 -1.025036931037902832e+00 8.717087745666503906e+00 2.307615280151367188e+00 1.452487409114837646e-01
3.202000000000000000e+03 7.118491363525390625e+01 2.152671432495117188e+01 -1.081428647041320801e+00 9.181527137756347656e+00 2.430029392242431641e+00 -9.381853044033050537e-02
3.203000000000000000e+03 6.850880432128906250e+01 2.767125511169433594e+01 -5.624272823333740234e-01 1.432686328887939453e+01 4.129330635070800781e+00 2.703768908977508545e-01
3.204000000000000000e+03 7.245999145507812500e+01 2.496196746826171875e+01 -4.593191742897033691e-01 1.000061225891113281e+01 2.862387895584106445e+00 -1.149725794792175293e+00
3.205000000000000000e+03 6.814481353759765625e+01 9.284729957580566406e+00 -9.506844729185104370e-02 6.266689300537109375e+00 1.851486206054687500e+00 5.823470950126647949e-01
3.206000000000000000e+03 5.170052719116210938e+01 2.471824836730957031e+01 -8.109184503555297852e-01 2.205410897731781006e-01 -1.771132051944732666e-01 -3.078323900699615479e-01
3.207000000000000000e+03 6.983208465576171875e+01 5.590950012207031250e+00 8.732977323234081268e-03 6.565997123718261719e+00 1.972419023513793945e+00 4.409687221050262451e-01
3.208000000000000000e+03 6.964345550537109375e+01 7.220316886901855469e+00 -4.157203063368797302e-02 6.575065612792968750e+00 1.960048079490661621e+00 4.733359515666961670e-01
3.209000000000000000e+03 6.768013000488281250e+01 2.721415901184082031e+01 -1.123402595520019531e+00 1.309203910827636719e+01 3.590590953826904297e+00 2.010329961776733398e+00
3.210000000000000000e+03 6.892776489257812500e+01 1.908779335021972656e+01 -9.476597905158996582e-01 7.887191772460937500e+00 2.081859588623046875e+00 7.896989583969116211e-01
3.211000000000000000e+03 3.959710311889648438e+01 2.609368896484375000e+01 -6.685376167297363281e-01 7.593771070241928101e-02 -1.777799725532531738e-01 -5.515821576118469238e-01
3.212000000000000000e+03 7.255728149414062500e+01 2.375572776794433594e+01 -7.149718999862670898e-01 9.666528701782226562e+00 2.685467004776000977e+00 -9.318179488182067871e-01
3.213000000000000000e+03 6.932374572753906250e+01 3.605261611938476562e+01 -1.247114896774291992e+00 1.194680786132812500e+01 3.209908008575439453e+00 2.036910653114318848e-01
3.214000000000000000e+03 3.269647598266601562e+01 1.716072463989257812e+01 -4.949146509170532227e-02 -2.758279740810394287e-01 -9.759583324193954468e-02 -6.492014527320861816e-01
3.215000000000000000e+03 3.307316970825195312e+01 1.813445091247558594e+01 -7.854327559471130371e-02 -2.362908571958541870e-01 -9.445024281740188599e-02 -6.533144712448120117e-01
3.216000000000000000e+03 7.027210235595703125e+01 1.164771556854248047e+01 -2.453554570674896240e-01 7.025635719299316406e+00 2.034084081649780273e+00 4.634221792221069336e-01
3.217000000000000000e+03 7.179376220703125000e+01 1.678852844238281250e+01 -6.241964697837829590e-01 8.012009620666503906e+00 2.216343879699707031e+00 1.479739248752593994e-01
3.218000000000000000e+03 2.898523712158203125e+01 2.684438133239746094e+01 -1.923087239265441895e-01 -1.240658685564994812e-01 -9.491237998008728027e-02 -3.282923102378845215e-01
3.219000000000000000e+03 3.102523422241210938e+01 1.536973571777343750e+01 -8.918149396777153015e-03 -4.123994410037994385e-01 -1.263952851295471191e-01 -6.094990968704223633e-01
3.220000000000000000e+03 3.240904617309570312e+01 1.611874389648437500e+01 -2.247560024261474609e-02 -3.132227659225463867e-01 -1.007095053791999817e-01 -6.441832780838012695e-01
3.221000000000000000e+03 3.201482772827148438e+01 1.131608295440673828e+01 5.907512828707695007e-02 -4.359445273876190186e-01 -1.130608171224594116e-01 -5.985941886901855469e-01
3.222000000000000000e+03 3.202687835693359375e+01 1.255979061126708984e+01 4.095414653420448303e-02 -4.075724184513092041e-01 -1.099854782223701477e-01 -6.149051785469055176e-01
3.223000000000000000e+03 3.101624107360839844e+01 8.848804473876953125e+00 6.485201418399810791e-02 -5.522579550743103027e-01 -1.462217867374420166e-01 -5.455074310302734375e-01
3.224000000000000000e+03 3.201942062377929688e+01 1.010599899291992188e+01 6.071639433503150940e-02 -4.597677290439605713e-01 -1.197154000401496887e-01 -5.778715610504150391e-01
3.225000000000000000e+03 3.147274208068847656e+01 2.022299575805664062e+01 -1.215130239725112915e-01 -2.578652501106262207e-01 -1.138134822249412537e-01 -5.906912088394165039e-01
3.226000000000000000e+03 3.108874511718750000e+01 2.168302917480468750e+01 -1.579893529415130615e-01 -2.209162265062332153e-01 -1.136716753244400024e-01 -5.524031519889831543e-01
3.227000000000000000e+03 6.959304046630859375e+01 3.979249715805053711e+00 3.305422514677047729e-02 6.442800045013427734e+00 1.942756295204162598e+00 4.264566004276275635e-01
3.228000000000000000e+03 7.080869293212890625e+01 3.555138015747070312e+01 -4.568609297275543213e-01 1.159724998474121094e+01 3.342116594314575195e+00 1.213473796844482422e+00
3.229000000000000000e+03 6.930143737792968750e+01 3.401476669311523438e+01 1.970147937536239624e-01 1.377831077575683594e+01 4.192597866058349609e+00 1.079161763191223145e+00
3.230000000000000000e+03 6.994814300537109375e+01 8.294941782951354980e-01 7.052497565746307373e-02 6.423858642578125000e+00 1.948315143585205078e+00 3.732466399669647217e-01
3.231000000000000000e+03 6.529032135009765625e+01 -2.444060325622558594e+01 6.611618399620056152e-02 5.271096229553222656e+00 1.601163744926452637e+00 9.236122667789459229e-02
3.232000000000000000e+03 6.658103179931640625e+01 -2.629373550415039062e+01 5.453015118837356567e-02 5.543038845062255859e+00 1.679270625114440918e+00 5.853055045008659363e-02
3.233000000000000000e+03 9.638376235961914062e+00 -2.820177459716796875e+01 2.125743310898542404e-03 2.853699028491973877e-03 1.493832678534090519e-03 -2.937687560915946960e-03
3.234000000000000000e+03 3.251181030273437500e+01 1.962445831298828125e+01 -1.197397857904434204e-01 -2.282174825668334961e-01 -1.043871790170669556e-01 -6.256244778633117676e-01
3.235000000000000000e+03 6.980011749267578125e+01 1.910659408569335938e+01 -9.535222649574279785e-01 8.175500869750976562e+00 2.166593551635742188e+00 5.133154988288879395e-01
3.236000000000000000e+03 2.933431243896484375e+01 -1.156082510948181152e+00 6.383883208036422729e-02 -9.125661849975585938e-01 -2.546181976795196533e-01 -3.367405533790588379e-01
3.237000000000000000e+03 3.071200752258300781e+01 -5.359934806823730469e+00 9.124086052179336548e-02 -7.630767226219177246e-01 -2.015507519245147705e-01 -2.883968651294708252e-01
3.238000000000000000e+03 7.021070861816406250e+01 -1.897183418273925781e+01 3.549974784255027771e-02 6.226059913635253906e+00 1.878467917442321777e+00 1.153981238603591919e-01
3.239000000000000000e+03 3.143741416931152344e+01 3.620327711105346680e+00 9.075668454170227051e-02 -5.901454687118530273e-01 -1.498166322708129883e-01 -4.488378465175628662e-01
3.240000000000000000e+03 2.929063415527343750e+01 2.963205337524414062e+00 5.012145638465881348e-02 -8.441035151481628418e-01 -2.381946146488189697e-01 -4.108568727970123291e-01
3.241000000000000000e+03 6.860387420654296875e+01 3.303736925125122070e+00 6.261947751045227051e-02 6.168116092681884766e+00 1.869220733642578125e+00 4.391910433769226074e-01
3.242000000000000000e+03 5.941259384155273438e+00 2.173645210266113281e+01 8.411600902036298066e-06 4.739362111649825238e-07 2.665661213541170582e-06 2.614806817291537300e-06
3.243000000000000000e+03 3.028788948059082031e+01 2.295160484313964844e+01 -1.711782664060592651e-01 -2.071107625961303711e-01 -1.134867072105407715e-01 -4.922820925712585449e-01
3.244000000000000000e+03 3.305707550048828125e+01 2.569657707214355469e+01 -3.366191983222961426e-01 -5.437153950333595276e-02 -1.172972247004508972e-01 -4.824686944484710693e-01
3.245000000000000000e+03 7.189485168457031250e+01 1.454578208923339844e+01 -4.321359097957611084e-01 7.734082221984863281e+00 2.190583944320678711e+00 2.435171306133270264e-01
3.246000000000000000e+03 7.094950103759765625e+01 1.430719566345214844e+01 -4.345702230930328369e-01 7.459738731384277344e+00 2.107550382614135742e+00 3.798358440399169922e-01
3.247000000000000000e+03 3.189789390563964844e+01 6.848649501800537109e+00 8.172084391117095947e-02 -4.993852972984313965e-01 -1.252993345260620117e-01 -5.224675536155700684e-01
3.248000000000000000e+03 3.208121490478515625e+01 1.379517269134521484e+01 2.360070683062076569e-02 -3.813369274139404297e-01 -1.073208600282669067e-01 -6.265516877174377441e-01
3.249000000000000000e+03 3.220479965209960938e+01 1.499311542510986328e+01 8.907605661079287529e-04 -3.479984998703002930e-01 -1.041323244571685791e-01 -6.365509629249572754e-01
3.250000000000000000e+03 3.025319671630859375e+01 3.174219846725463867e+00 6.718375533819198608e-02 -7.222237586975097656e-01 -1.965119987726211548e-01 -4.247786700725555420e-01
3.251000000000000000e+03 6.985892772674560547e+00 -3.394078063964843750e+01 9.428654797375202179e-03 -7.459685206413269043e-03 5.906909354962408543e-04 7.054901216179132462e-03
3.252000000000000000e+03 2.989007759094238281e+01 -2.112787437438964844e+01 4.550693184137344360e-02 -9.299260973930358887e-01 -2.653257548809051514e-01 -1.084066331386566162e-01
3.253000000000000000e+03 2.826756477355957031e+01 -2.503536796569824219e+01 3.528722375631332397e-02 -1.164003610610961914e+00 -3.386149108409881592e-01 -1.068082526326179504e-01
3.254000000000000000e+03 3.002858734130859375e+01 -2.601491546630859375e+01 3.168031573295593262e-02 -8.423757553100585938e-01 -2.432086318731307983e-01 -8.201751857995986938e-02
3.255000000000000000e+03 3.171308898925781250e+01 -2.125513648986816406e+01 6.449061632156372070e-02 -5.538629293441772461e-01 -1.468116939067840576e-01 -1.146656721830368042e-01
3.256000000000000000e+03 7.898786067962646484e+00 -3.029367637634277344e+01 5.020969547331333160e-03 -3.543126629665493965e-03 4.433529393281787634e-04 -4.033801087643951178e-04
3.257000000000000000e+03 6.888377380371093750e+01 -7.981764316558837891e+00 9.660789370536804199e-02 6.075476646423339844e+00 1.851625323295593262e+00 2.592117786407470703e-01
3.258000000000000000e+03 6.582347106933593750e+01 2.664638710021972656e+01 -3.914926052093505859e-01 8.154912948608398438e+00 2.329025983810424805e+00 4.025241374969482422e+00
3.259000000000000000e+03 6.676532745361328125e+01 2.781268310546875000e+01 -6.720026135444641113e-01 1.204338264465332031e+01 3.411414146423339844e+00 4.029523372650146484e+00
3.260000000000000000e+03 7.083178710937500000e+01 2.920698928833007812e+01 3.022063255310058594e+00 1.161779022216796875e+01 4.391955852508544922e+00 -1.505130410194396973e+00
3.261000000000000000e+03 7.065578460693359375e+01 2.883715438842773438e+01 2.552451610565185547e+00 1.194218254089355469e+01 4.348390102386474609e+00 -1.659505248069763184e+00
3.262000000000000000e+03 6.784757995605468750e+01 2.655330467224121094e+01 -1.296466231346130371e+00 1.219991111755371094e+01 3.271033525466918945e+00 1.817355275154113770e+00
3.263000000000000000e+03 7.214547729492187500e+01 3.085482025146484375e+01 3.156552791595458984e+00 9.973092079162597656e+00 3.938893556594848633e+00 2.990273572504520416e-02
3.264000000000000000e+03 7.073007965087890625e+01 2.975917243957519531e+01 3.918103933334350586e+00 1.150222206115722656e+01 4.626097679138183594e+00 -1.200473904609680176e+00
3.265000000000000000e+03 6.871397399902343750e+01 2.659812736511230469e+01 -1.076747536659240723e+00 1.268196392059326172e+01 3.481564998626708984e+00 5.339340567588806152e-01
3.266000000000000000e+03 6.823804473876953125e+01 2.736115074157714844e+01 -9.060405492782592773e-01 1.390091514587402344e+01 3.898462295532226562e+00 9.348686337471008301e-01
3.267000000000000000e+03 6.628815460205078125e+01 3.458004379272460938e+01 -2.268397510051727295e-01 9.819838523864746094e+00 2.877899408340454102e+00 -3.649778127670288086e+00
3.268000000000000000e+03 7.043023681640625000e+01 2.842942428588867188e+01 1.841199159622192383e+00 1.233902740478515625e+01 4.254067897796630859e+00 -1.683831453323364258e+00
3.269000000000000000e+03 6.462597656250000000e+01 2.589010429382324219e+01 -3.508202731609344482e-02 5.392728805541992188e+00 1.607293963432312012e+00 3.469266653060913086e+00
3.270000000000000000e+03 6.903971099853515625e+01 2.783485794067382812e+01 1.578531041741371155e-02 1.419325256347656250e+01 4.262711524963378906e+00 -6.060572266578674316e-01
3.271000000000000000e+03 6.872612762451171875e+01 2.794906616210937500e+01 -4.633061587810516357e-02 1.465068435668945312e+01 4.381306171417236328e+00 -4.126725494861602783e-01
3.272000000000000000e+03 6.724357604980468750e+01 3.478476333618164062e+01 -9.231480956077575684e-01 1.207258033752441406e+01 3.344829797744750977e+00 -2.350656032562255859e+00
3.273000000000000000e+03 6.845067596435546875e+01 3.445429611206054688e+01 -7.703811526298522949e-01 1.378259086608886719e+01 3.903662919998168945e+00 -2.353976219892501831e-01
3.274000000000000000e+03 6.705142211914062500e+01 2.662312126159667969e+01 -1.138144731521606445e+00 1.111859798431396484e+01 2.994136095046997070e+00 2.938755989074707031e+00
3.275000000000000000e+03 6.940431213378906250e+01 2.785055541992187500e+01 4.566184878349304199e-01 1.372152614593505859e+01 4.253443241119384766e+00 -1.093232631683349609e+00
3.276000000000000000e+03 6.983244323730468750e+01 2.799333572387695312e+01 9.280121326446533203e-01 1.315153121948242188e+01 4.223863124847412109e+00 -1.368136644363403320e+00
3.277000000000000000e+03 6.973161315917968750e+01 2.845262527465820312e+01 1.547327995300292969e+00 1.355105304718017578e+01 4.529514312744140625e+00 -1.593468189239501953e+00
3.278000000000000000e+03 7.005000305175781250e+01 2.867505645751953125e+01 2.181617021560668945e+00 1.286689567565917969e+01 4.514553546905517578e+00 -1.702036499977111816e+00
3.279000000000000000e+03 6.904139709472656250e+01 3.475803756713867188e+01 -6.860716938972473145e-01 1.323495769500732422e+01 3.764665842056274414e+00 3.976743817329406738e-01
3.280000000000000000e+03 6.637209320068359375e+01 3.418572235107421875e+01 -9.594106674194335938e-02 1.059394550323486328e+01 3.149401426315307617e+00 -3.969074964523315430e+00
3.281000000000000000e+03 7.239852142333984375e+01 3.142317390441894531e+01 2.865566492080688477e+00 9.847150802612304688e+00 3.813815355300903320e+00 4.912349581718444824e-01
3.282000000000000000e+03 6.807565307617187500e+01 3.494876480102539062e+01 -1.058727860450744629e+00 1.283267402648925781e+01 3.532183885574340820e+00 -9.553704261779785156e-01
3.283000000000000000e+03 6.753701019287109375e+01 3.536914443969726562e+01 -1.132644891738891602e+00 1.174454212188720703e+01 3.183569192886352539e+00 -1.747608780860900879e+00
3.284000000000000000e+03 6.364735794067382812e+01 2.546299552917480469e+01 8.943488448858261108e-02 4.006788253784179688e+00 1.228866934776306152e+00 2.976597309112548828e+00
3.285000000000000000e+03 6.413420867919921875e+01 2.568432807922363281e+01 4.228978231549263000e-02 4.726918220520019531e+00 1.430762410163879395e+00 3.268065452575683594e+00
3.286000000000000000e+03 7.178578186035156250e+01 3.160693359375000000e+01 3.259893178939819336e+00 1.032572937011718750e+01 4.075686931610107422e+00 6.965784430503845215e-01
3.287000000000000000e+03 7.112176513671875000e+01 3.109461021423339844e+01 4.056790828704833984e+00 1.087172985076904297e+01 4.478556156158447266e+00 3.536743223667144775e-01
3.288000000000000000e+03 7.123512268066406250e+01 3.265719985961914062e+01 2.608253002166748047e+00 1.115534496307373047e+01 4.129079341888427734e+00 1.564054012298583984e+00
3.289000000000000000e+03 7.321044158935546875e+01 2.877435874938964844e+01 1.649741053581237793e+00 9.416685104370117188e+00 3.319927930831909180e+00 -1.142127990722656250e+00
3.290000000000000000e+03 7.247939300537109375e+01 2.999857139587402344e+01 2.794501543045043945e+00 9.792569160461425781e+00 3.776121139526367188e+00 -5.889499783515930176e-01
3.291000000000000000e+03 7.114647674560546875e+01 3.163153266906738281e+01 3.880924463272094727e+00 1.099371337890625000e+01 4.462391376495361328e+00 8.671731352806091309e-01
3.292000000000000000e+03 7.262139129638671875e+01 2.764124870300292969e+01 9.951665997505187988e-01 1.007107830047607422e+01 3.319873571395874023e+00 -1.496516346931457520e+00
3.293000000000000000e+03 6.686310577392578125e+01 3.564004135131835938e+01 -9.184625148773193359e-01 1.034190845489501953e+01 2.827033758163452148e+00 -2.414234399795532227e+00
3.294000000000000000e+03 3.064624214172363281e+01 2.652101898193359375e+01 -2.570073902606964111e-01 -9.227931499481201172e-02 -1.047860160470008850e-01 -3.894508481025695801e-01
3.295000000000000000e+03 4.600029754638671875e+01 2.430138015747070312e+01 -7.172607779502868652e-01 1.513524800539016724e-01 -1.697724908590316772e-01 -5.754673480987548828e-01
3.296000000000000000e+03 7.324597167968750000e+01 2.812310218811035156e+01 1.239703774452209473e+00 9.504231452941894531e+00 3.223180532455444336e+00 -1.335566759109497070e+00
3.297000000000000000e+03 2.966985321044921875e+01 2.586083030700683594e+01 -2.067425549030303955e-01 -1.358788311481475830e-01 -1.027864143252372742e-01 -3.841006159782409668e-01
3.298000000000000000e+03 6.252007675170898438e+01 2.358887672424316406e+01 3.845069929957389832e-02 3.543089389801025391e+00 1.074462056159973145e+00 2.273097276687622070e+00
3.299000000000000000e+03 4.185033416748046875e+01 2.443883514404296875e+01 -6.129470467567443848e-01 1.031541600823402405e-01 -1.529378592967987061e-01 -6.291300058364868164e-01
3.300000000000000000e+03 6.334408569335937500e+01 2.409917449951171875e+01 -3.198908641934394836e-02 4.272056579589843750e+00 1.272020220756530762e+00 2.633984327316284180e+00
3.301000000000000000e+03 7.138115692138671875e+01 2.979109382629394531e+01 3.444904804229736328e+00 1.080508422851562500e+01 4.274996757507324219e+00 -9.592046737670898438e-01
3.302000000000000000e+03 3.631039047241210938e+01 2.555943679809570312e+01 -4.721873402595520020e-01 1.607508771121501923e-02 -1.368336826562881470e-01 -5.495070219039916992e-01
3.303000000000000000e+03 4.191604232788085938e+01 2.517977333068847656e+01 -6.911461353302001953e-01 1.012490168213844299e-01 -1.769691258668899536e-01 -6.009893417358398438e-01
3.304000000000000000e+03 4.186944580078125000e+01 2.376081657409667969e+01 -5.409124493598937988e-01 1.049330979585647583e-01 -1.307937949895858765e-01 -6.485853791236877441e-01
3.305000000000000000e+03 6.043149566650390625e+01 2.446901512145996094e+01 3.487694263458251953e-02 1.699733138084411621e+00 5.203830003738403320e-01 1.490120053291320801e+00
3.306000000000000000e+03 4.425501632690429688e+01 2.435541915893554688e+01 -6.747180223464965820e-01 1.327148526906967163e-01 -1.626009643077850342e-01 -6.108982563018798828e-01
3.307000000000000000e+03 4.469362640380859375e+01 2.484683799743652344e+01 -7.601572871208190918e-01 1.340585201978683472e-01 -1.878296285867691040e-01 -5.889566540718078613e-01
3.308000000000000000e+03 5.080559539794921875e+01 2.401515960693359375e+01 -6.587244272232055664e-01 2.537677288055419922e-01 -1.214870139956474304e-01 -3.530814647674560547e-01
3.309000000000000000e+03 5.235089111328125000e+01 2.397783470153808594e+01 -6.145997643470764160e-01 3.136157393455505371e-01 -9.029520303010940552e-02 -2.264297157526016235e-01
3.310000000000000000e+03 4.780314254760742188e+01 2.469282913208007812e+01 -8.168583512306213379e-01 1.583954840898513794e-01 -1.975388526916503906e-01 -5.168357491493225098e-01
3.311000000000000000e+03 4.811293029785156250e+01 2.299864959716796875e+01 -5.060286521911621094e-01 2.393213510513305664e-01 -8.001219481229782104e-02 -5.037092566490173340e-01
3.312000000000000000e+03 4.265524673461914062e+01 2.431628036499023438e+01 -6.271258592605590820e-01 1.152756363153457642e-01 -1.535550653934478760e-01 -6.296454071998596191e-01
3.313000000000000000e+03 4.528631210327148438e+01 2.456333351135253906e+01 -7.446911334991455078e-01 1.383717060089111328e-01 -1.818958371877670288e-01 -5.870168209075927734e-01
3.314000000000000000e+03 5.574980926513671875e+01 2.442454910278320312e+01 -4.926809072494506836e-01 4.935614168643951416e-01 2.641539613250643015e-04 1.930597126483917236e-01
3.315000000000000000e+03 3.427814865112304688e+01 2.741568183898925781e+01 -4.439679384231567383e-01 5.271234083920717239e-03 -1.316090077161788940e-01 -4.211918115615844727e-01
3.316000000000000000e+03 3.326508331298828125e+01 2.714393806457519531e+01 -3.877534270286560059e-01 -1.838080771267414093e-02 -1.218402683734893799e-01 -4.209714531898498535e-01
3.317000000000000000e+03 5.005231094360351562e+01 2.422710800170898438e+01 -7.228955030441284180e-01 2.152288854122161865e-01 -1.522999852895736694e-01 -4.102432727813720703e-01
3.318000000000000000e+03 4.754873275756835938e+01 2.391898727416992188e+01 -6.693243980407714844e-01 1.838590353727340698e-01 -1.456395983695983887e-01 -5.336108207702636719e-01
3.319000000000000000e+03 5.568463897705078125e+01 2.359851837158203125e+01 -3.084222078323364258e-01 6.321260929107666016e-01 9.711117297410964966e-02 2.523103058338165283e-01
3.320000000000000000e+03 5.760605621337890625e+01 2.372050285339355469e+01 -1.301545053720474243e-01 9.853488206863403320e-01 2.565582990646362305e-01 6.660131812095642090e-01
3.321000000000000000e+03 5.297753524780273438e+01 2.380138015747070312e+01 -5.315371155738830566e-01 3.628953695297241211e-01 -5.059251934289932251e-02 -1.459368616342544556e-01
3.322000000000000000e+03 4.676964950561523438e+01 2.408676147460937500e+01 -6.924105286598205566e-01 1.658792793750762939e-01 -1.579593718051910400e-01 -5.584118366241455078e-01
3.323000000000000000e+03 5.780967712402343750e+01 2.424138832092285156e+01 -2.317604422569274902e-01 8.846440911293029785e-01 1.958651095628738403e-01 6.706486940383911133e-01
3.324000000000000000e+03 6.893365478515625000e+01 2.747675132751464844e+01 -3.609447777271270752e-01 1.377485561370849609e+01 4.024173259735107422e+00 -2.395534664392471313e-01
3.325000000000000000e+03 5.858404541015625000e+01 2.338258552551269531e+01 3.103506751358509064e-02 1.336165785789489746e+00 4.101602435111999512e-01 9.829920530319213867e-01
3.326000000000000000e+03 5.159027099609375000e+01 2.390538787841796875e+01 -6.243590116500854492e-01 2.794606685638427734e-01 -1.034694910049438477e-01 -2.921946346759796143e-01
3.327000000000000000e+03 5.953162002563476562e+01 2.376403236389160156e+01 4.504321143031120300e-02 1.573258280754089355e+00 4.854904413223266602e-01 1.234936356544494629e+00
3.328000000000000000e+03 6.183161163330078125e+01 2.368067550659179688e+01 1.089506074786186218e-01 2.966844081878662109e+00 9.227383732795715332e-01 2.060706377029418945e+00
3.329000000000000000e+03 5.909999084472656250e+01 2.305035209655761719e+01 8.843108266592025757e-02 1.618236064910888672e+00 5.120001435279846191e-01 1.146928310394287109e+00
3.330000000000000000e+03 3.812405395507812500e+01 2.602368354797363281e+01 -5.893017053604125977e-01 5.435245484113693237e-02 -1.604847759008407593e-01 -5.457637906074523926e-01
3.331000000000000000e+03 5.439371490478515625e+01 2.469480705261230469e+01 -6.955605149269104004e-01 3.302937746047973633e-01 -1.095800250768661499e-01 -2.711001411080360413e-02
3.332000000000000000e+03 5.339454650878906250e+01 2.447873115539550781e+01 -6.846855282783508301e-01 3.152616024017333984e-01 -1.108271777629852295e-01 -1.430447399616241455e-01
3.333000000000000000e+03 6.029224777221679688e+01 2.364609527587890625e+01 1.086458936333656311e-01 1.944839596748352051e+00 6.160456538200378418e-01 1.495417594909667969e+00
3.334000000000000000e+03 3.209392166137695312e+01 2.120432662963867188e+01 -1.650005728006362915e-01 -1.989167034626007080e-01 -1.091751828789710999e-01 -5.895074009895324707e-01
3.335000000000000000e+03 4.017036437988281250e+01 2.556558227539062500e+01 -6.599422693252563477e-01 7.943536341190338135e-02 -1.741520613431930542e-01 -5.781738758087158203e-01
3.336000000000000000e+03 6.590025329589843750e+01 3.926979827880859375e+01 -8.719610571861267090e-01 7.532424449920654297e+00 1.998138904571533203e+00 -1.185040831565856934e+00
3.337000000000000000e+03 6.983984375000000000e+01 3.512987899780273438e+01 -5.277445316314697266e-01 1.247667503356933594e+01 3.584679126739501953e+00 9.408479928970336914e-01
3.338000000000000000e+03 7.028368377685546875e+01 3.666350173950195312e+01 -1.172744631767272949e+00 1.142392349243164062e+01 3.075353622436523438e+00 6.202772855758666992e-01
3.339000000000000000e+03 2.980601310729980469e+01 2.506862449645996094e+01 -2.019372582435607910e-01 -1.522071659564971924e-01 -1.062433272600173950e-01 -4.181325435638427734e-01
3.340000000000000000e+03 3.168929862976074219e+01 2.564281082153320312e+01 -2.774271965026855469e-01 -9.416499733924865723e-02 -1.114776581525802612e-01 -4.544188976287841797e-01
3.341000000000000000e+03 7.063887786865234375e+01 2.213625907897949219e+01 -1.198032736778259277e+00 9.451144218444824219e+00 2.475933313369750977e+00 6.152428686618804932e-02
3.342000000000000000e+03 3.258090591430664062e+01 2.449900627136230469e+01 -2.844795882701873779e-01 -9.324291348457336426e-02 -1.133167520165443420e-01 -5.119765400886535645e-01
3.343000000000000000e+03 7.143053436279296875e+01 2.613024711608886719e+01 -2.186112254858016968e-01 1.089015769958496094e+01 3.201463937759399414e+00 -1.197385191917419434e+00
3.344000000000000000e+03 3.486705780029296875e+01 1.637539863586425781e+01 -2.460147812962532043e-02 -1.710386872291564941e-01 -5.869204923510551453e-02 -6.841650605201721191e-01
3.345000000000000000e+03 6.892989349365234375e+01 1.105233669281005859e+01 -2.036221325397491455e-01 6.598768711090087891e+00 1.918543934822082520e+00 5.794116258621215820e-01
3.346000000000000000e+03 6.716532135009765625e+01 9.794314384460449219e+00 -8.617112040519714355e-02 6.000529289245605469e+00 1.774307489395141602e+00 6.551252007484436035e-01
3.347000000000000000e+03 7.064601135253906250e+01 1.551889038085937500e+01 -5.449610948562622070e-01 7.562462329864501953e+00 2.105250358581542969e+00 3.891103267669677734e-01
3.348000000000000000e+03 3.190229988098144531e+01 2.667437362670898438e+01 -3.073168992996215820e-01 -6.260301172733306885e-02 -1.109759733080863953e-01 -4.131914973258972168e-01
3.349000000000000000e+03 7.067528533935546875e+01 1.676174354553222656e+01 -6.686428189277648926e-01 7.789927959442138672e+00 2.136385679244995117e+00 3.556750714778900146e-01
3.350000000000000000e+03 6.914192962646484375e+01 1.438817787170410156e+01 -4.361040294170379639e-01 7.025355339050292969e+00 1.976775407791137695e+00 5.999771356582641602e-01
3.351000000000000000e+03 3.143394088745117188e+01 2.273759269714355469e+01 -1.926858276128768921e-01 -1.812818199396133423e-01 -1.121902912855148315e-01 -5.369009971618652344e-01
3.352000000000000000e+03 3.308388519287109375e+01 9.798009872436523438e+00 9.009277075529098511e-02 -3.580917418003082275e-01 -8.039969205856323242e-02 -5.915897488594055176e-01
3.353000000000000000e+03 6.922296142578125000e+01 1.199827098846435547e+01 -2.651256918907165527e-01 6.768362045288085938e+00 1.950971007347106934e+00 5.640950202941894531e-01
3.354000000000000000e+03 6.805938720703125000e+01 1.997129821777343750e+01 -9.797811508178710938e-01 7.782520294189453125e+00 2.040821790695190430e+00 1.089974045753479004e+00
3.355000000000000000e+03 3.353206253051757812e+01 1.905811119079589844e+01 -1.135669425129890442e-01 -1.947017759084701538e-01 -9.248061478137969971e-02 -6.568116545677185059e-01
3.356000000000000000e+03 3.324172592163085938e+01 1.351866149902343750e+01 3.791106492280960083e-02 -3.051772713661193848e-01 -8.017986267805099487e-02 -6.443530321121215820e-01
3.357000000000000000e+03 6.862177276611328125e+01 7.873106956481933594e+00 -4.734284430742263794e-02 6.331021785736083984e+00 1.885103702545166016e+00 5.285110473632812500e-01
3.358000000000000000e+03 3.412447738647460938e+01 1.767084312438964844e+01 -6.870320439338684082e-02 -1.925904154777526855e-01 -7.838808745145797729e-02 -6.750838160514831543e-01
3.359000000000000000e+03 6.860427093505859375e+01 1.070792317390441895e+00 8.366400003433227539e-02 6.142250537872314453e+00 1.867774367332458496e+00 4.051357805728912354e-01
3.360000000000000000e+03 3.318313217163085938e+01 1.107767391204833984e+01 7.823523879051208496e-02 -3.345957100391387939e-01 -7.690814882516860962e-02 -6.144739985466003418e-01
3.361000000000000000e+03 6.797723388671875000e+01 -1.555900287628173828e+01 8.350944519042968750e-02 5.853251457214355469e+00 1.781028270721435547e+00 1.666509509086608887e-01
3.362000000000000000e+03 3.212508773803710938e+01 -4.133513450622558594e+00 1.136693805456161499e-01 -5.357034802436828613e-01 -1.266102343797683716e-01 -3.123241961002349854e-01
3.363000000000000000e+03 3.166681480407714844e+01 -3.122121572494506836e+00 1.063062995672225952e-01 -6.024993658065795898e-01 -1.488579213619232178e-01 -3.284443318843841553e-01
3.364000000000000000e+03 3.200402832031250000e+01 -7.913116931915283203e+00 9.613760560750961304e-02 -5.642884373664855957e-01 -1.404452621936798096e-01 -2.556451857089996338e-01
3.365000000000000000e+03 3.046871757507324219e+01 -6.680914402008056641e+00 7.973083853721618652e-02 -7.990794181823730469e-01 -2.158045619726181030e-01 -2.720668911933898926e-01
3.366000000000000000e+03 2.871751022338867188e+01 1.082652807235717773e+00 5.775311961770057678e-02 -9.494845271110534668e-01 -2.675194144248962402e-01 -3.618105649948120117e-01
3.367000000000000000e+03 3.046753311157226562e+01 1.823867440223693848e+00 7.739297300577163696e-02 -7.178194522857666016e-01 -1.921279579401016235e-01 -3.999955952167510986e-01
3.368000000000000000e+03 3.290010833740234375e+01 4.013098716735839844e+00 1.198231503367424011e-01 -4.147804081439971924e-01 -8.848717808723449707e-02 -4.714749455451965332e-01
3.369000000000000000e+03 3.062849044799804688e+01 3.646036386489868164e-01 8.473963290452957153e-02 -7.137168049812316895e-01 -1.886931508779525757e-01 -3.803105652332305908e-01
3.370000000000000000e+03 3.080919265747070312e+01 -1.136413455009460449e+00 9.057295322418212891e-02 -7.075628638267517090e-01 -1.850969791412353516e-01 -3.548029065132141113e-01
3.371000000000000000e+03 3.037504386901855469e+01 -1.059488868713378906e+01 6.428969651460647583e-02 -8.145278096199035645e-01 -2.250714302062988281e-01 -2.164825350046157837e-01
3.372000000000000000e+03 3.044989585876464844e+01 -1.191396331787109375e+01 6.319100409746170044e-02 -8.060036897659301758e-01 -2.228438109159469604e-01 -2.016237974166870117e-01
3.373000000000000000e+03 3.334825134277343750e+01 1.466525554656982422e+01 1.510557346045970917e-02 -2.829059362411499023e-01 -8.034010976552963257e-02 -6.552866101264953613e-01
3.374000000000000000e+03 6.930799102783203125e+01 -2.880157470703125000e+00 9.518598765134811401e-02 6.247163772583007812e+00 1.902704834938049316e+00 3.300132751464843750e-01
3.375000000000000000e+03 3.212273788452148438e+01 -1.295096778869628906e+01 8.309764415025711060e-02 -5.475656986236572266e-01 -1.393404155969619751e-01 -1.958762109279632568e-01
3.376000000000000000e+03 6.909514617919921875e+01 -5.173798084259033203e+00 9.830145537853240967e-02 6.165419578552246094e+00 1.879116296768188477e+00 2.906399965286254883e-01
3.377000000000000000e+03 3.247174453735351562e+01 -1.430704689025878906e+01 8.357027918100357056e-02 -4.953862130641937256e-01 -1.235447824001312256e-01 -1.700543761253356934e-01
3.378000000000000000e+03 6.609143829345703125e+01 -1.587437820434570312e+01 9.825848788022994995e-02 5.478674888610839844e+00 1.673080086708068848e+00 1.639928221702575684e-01
3.379000000000000000e+03 6.810743713378906250e+01 5.548211097717285156e+00 3.830470517277717590e-02 6.113470077514648438e+00 1.845532536506652832e+00 5.006277561187744141e-01
3.380000000000000000e+03 6.771364593505859375e+01 2.664034843444824219e+00 8.783924579620361328e-02 5.926329612731933594e+00 1.804250717163085938e+00 4.511135816574096680e-01
3.381000000000000000e+03 3.521096801757812500e+01 6.590765476226806641e+00 1.550168991088867188e-01 -1.766817420721054077e-01 -6.499451119452714920e-03 -5.296527147293090820e-01
3.382000000000000000e+03 3.382220840454101562e+01 5.990923881530761719e+00 1.345467716455459595e-01 -3.050056099891662598e-01 -5.113764852285385132e-02 -5.170087814331054688e-01
3.383000000000000000e+03 3.213673019409179688e+01 -1.838018798828125000e+01 6.498517096042633057e-02 -5.572193264961242676e-01 -1.476702392101287842e-01 -1.205397248268127441e-01
3.384000000000000000e+03 6.797964477539062500e+01 7.042786598205566406e+00 -4.065148066729307175e-03 6.129430770874023438e+00 1.837609648704528809e+00 5.382586717605590820e-01
3.385000000000000000e+03 6.917360687255859375e+01 8.740657806396484375e+00 -8.908113837242126465e-02 6.518198966979980469e+00 1.928735375404357910e+00 5.203127264976501465e-01
3.386000000000000000e+03 6.700521850585937500e+01 -2.182272529602050781e+01 6.553293019533157349e-02 5.651425361633300781e+00 1.715087413787841797e+00 1.036243438720703125e-01
3.387000000000000000e+03 6.747371673583984375e+01 -2.358678245544433594e+01 5.848876386880874634e-02 5.734829902648925781e+00 1.737995624542236328e+00 8.999082446098327637e-02
3.388000000000000000e+03 2.867006111145019531e+01 -2.659991645812988281e+01 2.494553290307521820e-02 -1.021364331245422363e+00 -2.989256381988525391e-01 -8.566762506961822510e-02
3.389000000000000000e+03 7.952431201934814453e+00 -3.699632644653320312e+01 1.259745284914970398e-02 -1.400307752192020416e-02 -4.216874949634075165e-04 2.104630321264266968e-02
3.390000000000000000e+03 3.171810722351074219e+01 -2.330384063720703125e+01 6.272829324007034302e-02 -5.513142943382263184e-01 -1.465757936239242554e-01 -8.224118500947952271e-02
3.391000000000000000e+03 2.696595382690429688e+01 -3.398178482055664062e+01 -2.668914385139942169e-02 -1.257597208023071289e+00 -3.852859139442443848e-01 -3.181036561727523804e-02
3.392000000000000000e+03 2.952757644653320312e+01 -3.466964721679687500e+01 2.648317441344261169e-02 -8.946692347526550293e-01 -2.604558169841766357e-01 3.091053292155265808e-02
3.393000000000000000e+03 6.649942779541015625e+01 2.769552803039550781e+01 -4.954675137996673584e-01 1.097713184356689453e+01 3.144499540328979492e+00 4.403524875640869141e+00
3.394000000000000000e+03 6.675273895263671875e+01 3.500863647460937500e+01 -7.382987737655639648e-01 1.076492309570312500e+01 3.007987499237060547e+00 -2.904719829559326172e+00
3.395000000000000000e+03 7.120819854736328125e+01 2.919065093994140625e+01 2.864818096160888672e+00 1.116666984558105469e+01 4.209446430206298828e+00 -1.394170403480529785e+00
3.396000000000000000e+03 6.668040466308593750e+01 2.718019485473632812e+01 -8.395269513130187988e-01 1.097227287292480469e+01 3.039823770523071289e+00 3.752256393432617188e+00
3.397000000000000000e+03 6.551804351806640625e+01 2.535095787048339844e+01 -5.747419595718383789e-01 7.158551692962646484e+00 1.975142955780029297e+00 3.296689033508300781e+00
3.398000000000000000e+03 7.122162628173828125e+01 2.823624420166015625e+01 1.637718200683593750e+00 1.128217601776123047e+01 3.875968456268310547e+00 -1.592574357986450195e+00
3.399000000000000000e+03 7.065542602539062500e+01 2.347872352600097656e+01 -1.145723223686218262e+00 9.984629631042480469e+00 2.651671886444091797e+00 -1.569440662860870361e-01
3.400000000000000000e+03 6.743313598632812500e+01 2.692395973205566406e+01 -1.241819381713867188e+00 1.228873920440673828e+01 3.314075946807861328e+00 2.557733058929443359e+00
3.401000000000000000e+03 6.625313568115234375e+01 3.504274368286132812e+01 -3.865714073181152344e-01 9.549503326416015625e+00 2.748879432678222656e+00 -3.319523572921752930e+00
3.402000000000000000e+03 6.889087677001953125e+01 2.702614593505859375e+01 -7.189774513244628906e-01 1.315027904510498047e+01 3.729390382766723633e+00 6.808036565780639648e-02
3.403000000000000000e+03 6.845327758789062500e+01 2.698263549804687500e+01 -1.011438727378845215e+00 1.325310611724853516e+01 3.672500133514404297e+00 7.471299767494201660e-01
3.404000000000000000e+03 7.078276062011718750e+01 2.781069564819335938e+01 1.096696972846984863e+00 1.186575889587402344e+01 3.888736724853515625e+00 -1.572556614875793457e+00
3.405000000000000000e+03 6.937664031982421875e+01 2.743959045410156250e+01 -8.692921698093414307e-02 1.336031532287597656e+01 3.982015848159790039e+00 -7.302237153053283691e-01
3.406000000000000000e+03 6.916887664794921875e+01 2.623237991333007812e+01 -1.024387478828430176e+00 1.219955921173095703e+01 3.352551460266113281e+00 1.810913532972335815e-01
3.407000000000000000e+03 6.834272766113281250e+01 2.617101287841796875e+01 -1.303150057792663574e+00 1.204490470886230469e+01 3.222526311874389648e+00 1.150336861610412598e+00
3.408000000000000000e+03 7.134828948974609375e+01 2.391409111022949219e+01 -9.442110061645507812e-01 1.009279918670654297e+01 2.744576454162597656e+00 -6.036061644554138184e-01
3.409000000000000000e+03 7.184490203857421875e+01 2.722360420227050781e+01 6.951119899749755859e-01 1.068081188201904297e+01 3.412777185440063477e+00 -1.514160990715026855e+00
3.410000000000000000e+03 7.029775238037109375e+01 2.796097183227539062e+01 1.129836320877075195e+00 1.251901912689208984e+01 4.094656467437744141e+00 -1.546633720397949219e+00
3.411000000000000000e+03 6.596719360351562500e+01 3.651410293579101562e+01 -5.907968878746032715e-01 8.292858123779296875e+00 2.310618162155151367e+00 -2.497380733489990234e+00
3.412000000000000000e+03 6.793540191650390625e+01 3.606567764282226562e+01 -1.282906055450439453e+00 1.128240776062011719e+01 2.999850511550903320e+00 -1.121766448020935059e+00
3.413000000000000000e+03 6.860561370849609375e+01 3.547259140014648438e+01 -1.147623181343078613e+00 1.237372398376464844e+01 3.367830276489257812e+00 -3.302292823791503906e-01
3.414000000000000000e+03 6.365457153320312500e+01 2.467198944091796875e+01 -2.104652859270572662e-02 4.495308876037597656e+00 1.342278599739074707e+00 2.831408977508544922e+00
3.415000000000000000e+03 6.403827667236328125e+01 2.517582702636718750e+01 -4.557456076145172119e-02 4.790070533752441406e+00 1.423348784446716309e+00 3.134613275527954102e+00
3.416000000000000000e+03 3.452602005004882812e+01 2.491701889038085938e+01 -3.674222528934478760e-01 -3.666921332478523254e-02 -1.212274432182312012e-01 -5.441105961799621582e-01
3.417000000000000000e+03 4.564825439453125000e+01 2.351564598083496094e+01 -5.874893069267272949e-01 1.702290177345275879e-01 -1.251780837774276733e-01 -5.964627861976623535e-01
3.418000000000000000e+03 7.252854156494140625e+01 2.938038825988769531e+01 2.371790885925292969e+00 9.892999649047851562e+00 3.679437398910522461e+00 -9.850928783416748047e-01
3.419000000000000000e+03 7.188338470458984375e+01 2.999327659606933594e+01 3.155573606491088867e+00 1.025681686401367188e+01 4.023717403411865234e+00 -6.729151010513305664e-01
3.420000000000000000e+03 7.242764282226562500e+01 2.709710502624511719e+01 6.558110713958740234e-01 1.022837162017822266e+01 3.265254735946655273e+00 -1.512215375900268555e+00
3.421000000000000000e+03 7.270902252197265625e+01 2.814883995056152344e+01 1.358409166336059570e+00 9.916048049926757812e+00 3.382337331771850586e+00 -1.416224360466003418e+00
3.422000000000000000e+03 7.175794982910156250e+01 2.660095214843750000e+01 1.941342800855636597e-01 1.068349647521972656e+01 3.263289213180541992e+00 -1.406881093978881836e+00
3.423000000000000000e+03 3.674946212768554688e+01 2.495033073425292969e+01 -4.596611857414245605e-01 1.690665446221828461e-02 -1.328263580799102783e-01 -5.789476037025451660e-01
3.424000000000000000e+03 3.850702667236328125e+01 2.492884063720703125e+01 -5.266647934913635254e-01 4.719010740518569946e-02 -1.438423991203308105e-01 -5.983271598815917969e-01
3.425000000000000000e+03 5.397378158569335938e+01 2.404380035400390625e+01 -5.264168977737426758e-01 4.081910550594329834e-01 -3.546776250004768372e-02 -4.182809591293334961e-02
3.426000000000000000e+03 6.316949081420898438e+01 2.343565177917480469e+01 -7.215492427349090576e-02 4.208293914794921875e+00 1.240841746330261230e+00 2.457248210906982422e+00
3.427000000000000000e+03 6.109210968017578125e+01 2.367977333068847656e+01 1.347070336341857910e-01 2.429321765899658203e+00 7.692086100578308105e-01 1.806134581565856934e+00
3.428000000000000000e+03 6.175236892700195312e+01 2.290090370178222656e+01 8.068379014730453491e-02 3.129018545150756836e+00 9.629107117652893066e-01 1.959178090095520020e+00
3.429000000000000000e+03 3.547458267211914062e+01 2.513252639770507812e+01 -4.119974374771118164e-01 -1.108607556670904160e-02 -1.269250512123107910e-01 -5.555175542831420898e-01
3.430000000000000000e+03 3.355601501464843750e+01 2.650975799560546875e+01 -3.840242326259613037e-01 -2.461811155080795288e-02 -1.225927025079727173e-01 -4.548873305320739746e-01
3.431000000000000000e+03 3.369083404541015625e+01 2.575143241882324219e+01 -3.660485148429870605e-01 -3.762001916766166687e-02 -1.211005598306655884e-01 -4.944218099117279053e-01
3.432000000000000000e+03 3.595043182373046875e+01 2.436603546142578125e+01 -3.928370475769042969e-01 -1.371484622359275818e-02 -1.219655647873878479e-01 -5.889249444007873535e-01
3.433000000000000000e+03 4.254663085937500000e+01 2.357040786743164062e+01 -5.413686037063598633e-01 1.156721562147140503e-01 -1.277089416980743408e-01 -6.499487757682800293e-01
3.434000000000000000e+03 6.563794708251953125e+01 2.604336547851562500e+01 -4.300099909305572510e-01 7.503976345062255859e+00 2.122189760208129883e+00 3.707370758056640625e+00
3.435000000000000000e+03 7.194136047363281250e+01 2.441697120666503906e+01 -7.240798473358154297e-01 1.005948352813720703e+01 2.800621271133422852e+00 -9.093309044837951660e-01
3.436000000000000000e+03 4.435972595214843750e+01 2.303568649291992188e+01 -5.170154571533203125e-01 1.566610783338546753e-01 -1.081063076853752136e-01 -6.321510076522827148e-01
3.437000000000000000e+03 4.350061035156250000e+01 2.419972229003906250e+01 -6.397626996040344238e-01 1.261964738368988037e-01 -1.540698558092117310e-01 -6.249973773956298828e-01
3.438000000000000000e+03 4.959042739868164062e+01 2.278051567077636719e+01 -4.358596801757812500e-01 3.047407865524291992e-01 -3.933566063642501831e-02 -4.110373854637145996e-01
3.439000000000000000e+03 4.832178115844726562e+01 2.378141593933105469e+01 -6.464588642120361328e-01 2.037511318922042847e-01 -1.328123211860656738e-01 -5.018338561058044434e-01
3.440000000000000000e+03 5.049242401123046875e+01 2.330470085144042969e+01 -5.156981945037841797e-01 2.966904044151306152e-01 -6.570234149694442749e-02 -3.605265915393829346e-01
3.441000000000000000e+03 4.980068206787109375e+01 2.350445747375488281e+01 -5.818330645561218262e-01 2.509522140026092529e-01 -9.926426410675048828e-02 -4.155101478099822998e-01
3.442000000000000000e+03 5.489958572387695312e+01 2.430886268615722656e+01 -5.369779467582702637e-01 4.159702956676483154e-01 -3.630229458212852478e-02 7.255397737026214600e-02
3.443000000000000000e+03 5.515754318237304688e+01 2.347648429870605469e+01 -3.231997489929199219e-01 5.752549171447753906e-01 7.561656087636947632e-02 1.699714809656143188e-01
3.444000000000000000e+03 4.482175445556640625e+01 2.385312080383300781e+01 -6.245692372322082520e-01 1.466133445501327515e-01 -1.433867663145065308e-01 -6.127099990844726562e-01
3.445000000000000000e+03 4.070560455322265625e+01 2.494074440002441406e+01 -6.234225630760192871e-01 8.646766096353530884e-02 -1.610864698886871338e-01 -6.115031838417053223e-01
3.446000000000000000e+03 4.648477935791015625e+01 2.326918411254882812e+01 -5.581617951393127441e-01 1.870928704738616943e-01 -1.113206818699836731e-01 -5.722252726554870605e-01
3.447000000000000000e+03 4.731026840209960938e+01 2.310575485229492188e+01 -5.339683890342712402e-01 2.103158831596374512e-01 -9.709575772285461426e-02 -5.434762835502624512e-01
3.448000000000000000e+03 6.240646743774414062e+01 2.285642814636230469e+01 1.041192840784788132e-02 3.684406995773315430e+00 1.108445644378662109e+00 2.157577037811279297e+00
3.449000000000000000e+03 5.708316040039062500e+01 2.335297775268554688e+01 -1.086461171507835388e-01 9.356103539466857910e-01 2.480892837047576904e-01 5.856137871742248535e-01
3.450000000000000000e+03 5.850302886962890625e+01 2.250869369506835938e+01 9.559204429388046265e-02 1.557202219963073730e+00 4.958382844924926758e-01 9.895336031913757324e-01
3.451000000000000000e+03 5.807242965698242188e+01 2.353335189819335938e+01 -6.334497034549713135e-02 1.143495917320251465e+00 3.240452706813812256e-01 8.001071810722351074e-01
3.452000000000000000e+03 6.043601608276367188e+01 2.195100402832031250e+01 1.607193499803543091e-01 2.578181505203247070e+00 8.216702938079833984e-01 1.553044676780700684e+00
3.453000000000000000e+03 7.113478851318359375e+01 2.271695137023925781e+01 -1.091500163078308105e+00 9.627903938293457031e+00 2.560921192169189453e+00 -2.495815604925155640e-01
3.454000000000000000e+03 6.874363708496093750e+01 2.073768806457519531e+01 -1.103844881057739258e+00 8.349670410156250000e+00 2.173747777938842773e+00 8.728323578834533691e-01
3.455000000000000000e+03 6.610827636718750000e+01 3.564865493774414062e+01 -5.106349587440490723e-01 8.834941864013671875e+00 2.497292041778564453e+00 -2.957520246505737305e+00
3.456000000000000000e+03 6.720999145507812500e+01 -1.409078836441040039e+00 1.260975450277328491e-01 5.776582717895507812e+00 1.770804166793823242e+00 3.742287158966064453e-01
3.457000000000000000e+03 6.824219512939453125e+01 -1.925986051559448242e+00 1.082201749086380005e-01 6.013108730316162109e+00 1.836398601531982422e+00 3.547186851501464844e-01
3.458000000000000000e+03 3.959412384033203125e+01 2.494591903686523438e+01 -5.773693919181823730e-01 7.065393030643463135e-02 -1.520146429538726807e-01 -6.052226424217224121e-01
3.459000000000000000e+03 3.389728546142578125e+01 2.303445243835449219e+01 -2.700051665306091309e-01 -9.545001387596130371e-02 -1.096365600824356079e-01 -5.934920310974121094e-01
3.460000000000000000e+03 6.788579559326171875e+01 1.145567989349365234e+01 -1.930812299251556396e-01 6.309043884277343750e+00 1.834788799285888672e+00 6.559075713157653809e-01
3.461000000000000000e+03 3.036225128173828125e+01 2.563289260864257812e+01 -2.280521541833877563e-01 -1.260775625705718994e-01 -1.062389165163040161e-01 -4.163835942745208740e-01
3.462000000000000000e+03 3.123953247070312500e+01 2.450201606750488281e+01 -2.339610904455184937e-01 -1.344855576753616333e-01 -1.105339974164962769e-01 -4.778834283351898193e-01
3.463000000000000000e+03 7.136695861816406250e+01 2.506607437133789062e+01 -6.934908628463745117e-01 1.054279518127441406e+01 2.954791307449340820e+00 -8.595525622367858887e-01
3.464000000000000000e+03 7.038000488281250000e+01 2.420985794067382812e+01 -1.142733931541442871e+00 1.037744045257568359e+01 2.770411968231201172e+00 -1.424721926450729370e-01
3.465000000000000000e+03 6.974211120605468750e+01 1.799786949157714844e+01 -8.258267045021057129e-01 7.848571777343750000e+00 2.106823444366455078e+00 5.441545844078063965e-01
3.466000000000000000e+03 6.928099060058593750e+01 2.085767936706542969e+01 -1.158855795860290527e+00 8.643341064453125000e+00 2.245345592498779297e+00 6.925495862960815430e-01
3.467000000000000000e+03 3.130489921569824219e+01 2.618638992309570312e+01 -2.747713029384613037e-01 -8.624637126922607422e-02 -1.083053052425384521e-01 -4.141146242618560791e-01
3.468000000000000000e+03 3.201840972900390625e+01 2.501439285278320312e+01 -2.799122631549835205e-01 -9.495157003402709961e-02 -1.124591529369354248e-01 -4.845809936523437500e-01
3.469000000000000000e+03 3.294096755981445312e+01 2.330544281005859375e+01 -2.550029456615447998e-01 -1.167743206024169922e-01 -1.115331724286079407e-01 -5.634981393814086914e-01
3.470000000000000000e+03 5.356463623046875000e+01 2.333312416076660156e+01 -3.986459076404571533e-01 4.535118639469146729e-01 1.645978726446628571e-02 -5.447888374328613281e-02
3.471000000000000000e+03 3.909724807739257812e+01 2.545301628112792969e+01 -5.948636531829833984e-01 6.592812389135360718e-02 -1.586806625127792358e-01 -5.831565260887145996e-01
3.472000000000000000e+03 3.719580078125000000e+01 2.435341072082519531e+01 -4.378778040409088135e-01 1.593203283846378326e-02 -1.265837401151657104e-01 -6.082135438919067383e-01
3.473000000000000000e+03 3.453031921386718750e+01 1.856271934509277344e+01 -1.005114540457725525e-01 -1.594343185424804688e-01 -7.798372954130172729e-02 -6.790275573730468750e-01
3.474000000000000000e+03 3.444362640380859375e+01 2.582009506225585938e+01 -4.003587067127227783e-01 -1.951228082180023193e-02 -1.259612888097763062e-01 -5.032278299331665039e-01
3.475000000000000000e+03 3.287417221069335938e+01 2.629792404174804688e+01 -3.423055410385131836e-01 -4.755619540810585022e-02 -1.169585213065147400e-01 -4.532905817031860352e-01
3.476000000000000000e+03 6.883798217773437500e+01 1.817677497863769531e+01 -8.255764245986938477e-01 7.611561298370361328e+00 2.035795450210571289e+00 7.572273015975952148e-01
3.477000000000000000e+03 3.297962188720703125e+01 2.512458038330078125e+01 -3.168247938156127930e-01 -7.003366947174072266e-02 -1.160575449466705322e-01 -5.028492212295532227e-01
3.478000000000000000e+03 6.725574493408203125e+01 6.237047195434570312e+00 3.645687550306320190e-02 5.907846927642822266e+00 1.783291220664978027e+00 5.400784015655517578e-01
3.479000000000000000e+03 6.890268707275390625e+01 4.800052165985107422e+00 3.348993882536888123e-02 6.292552947998046875e+00 1.897812843322753906e+00 4.614649415016174316e-01
3.480000000000000000e+03 6.560617065429687500e+01 3.201690435409545898e+00 1.320614665746688843e-01 5.430012226104736328e+00 1.668622136116027832e+00 4.933348596096038818e-01
3.481000000000000000e+03 6.819622039794921875e+01 1.904038906097412109e+00 8.241841197013854980e-02 6.037445068359375000e+00 1.835959076881408691e+00 4.195637106895446777e-01
3.482000000000000000e+03 3.593394851684570312e+01 1.608211326599121094e+01 -8.415644057095050812e-03 -1.145407110452651978e-01 -3.688690438866615295e-02 -6.916380524635314941e-01
3.483000000000000000e+03 3.435001754760742188e+01 1.213527202606201172e+01 7.819385826587677002e-02 -2.390369921922683716e-01 -4.825293645262718201e-02 -6.376463174819946289e-01
3.484000000000000000e+03 6.807614898681640625e+01 -4.310939610004425049e-01 1.142109632492065430e-01 5.986618518829345703e+00 1.830248832702636719e+00 3.863324522972106934e-01
3.485000000000000000e+03 6.755144500732421875e+01 5.064684748649597168e-01 1.068722456693649292e-01 5.876638412475585938e+00 1.795053124427795410e+00 4.055524170398712158e-01
3.486000000000000000e+03 3.310120391845703125e+01 7.539021015167236328e+00 1.062990650534629822e-01 -3.767856061458587646e-01 -8.114596456289291382e-02 -5.480965375900268555e-01
3.487000000000000000e+03 3.433006668090820312e+01 9.524507522583007812e+00 1.148030757904052734e-01 -2.552589774131774902e-01 -4.213676974177360535e-02 -5.905504822731018066e-01
3.488000000000000000e+03 7.044795227050781250e+01 1.270123100280761719e+01 -3.202936351299285889e-01 7.198462009429931641e+00 2.063450574874877930e+00 4.431205987930297852e-01
3.489000000000000000e+03 3.446772766113281250e+01 1.439362239837646484e+01 3.035676851868629456e-02 -2.144050151109695435e-01 -5.521447584033012390e-02 -6.667218208312988281e-01
3.490000000000000000e+03 3.463597488403320312e+01 1.541824150085449219e+01 4.200458992272615433e-03 -1.945172101259231567e-01 -5.709502846002578735e-02 -6.768545508384704590e-01
3.491000000000000000e+03 3.041184043884277344e+01 -8.007377624511718750e+00 7.410342991352081299e-02 -8.128102421760559082e-01 -2.216120511293411255e-01 -2.496458142995834351e-01
3.492000000000000000e+03 2.883824729919433594e+01 -9.456490516662597656e+00 4.807449877262115479e-02 -1.052339792251586914e+00 -3.012796044349670410e-01 -2.273896932601928711e-01
3.493000000000000000e+03 3.236441421508789062e+01 8.928210258483886719e+00 8.476667851209640503e-02 -4.314464032649993896e-01 -1.040039211511611938e-01 -5.645275115966796875e-01
3.494000000000000000e+03 3.437771987915039062e+01 1.329987525939941406e+01 5.488289520144462585e-02 -2.296731323003768921e-01 -5.243707075715065002e-02 -6.538934111595153809e-01
3.495000000000000000e+03 2.886154174804687500e+01 -1.078611373901367188e+01 4.334233328700065613e-02 -1.051562190055847168e+00 -3.024659454822540283e-01 -2.126520574092864990e-01
3.496000000000000000e+03 6.593218994140625000e+01 -9.660412788391113281e+00 1.333703696727752686e-01 5.461368083953857422e+00 1.678421497344970703e+00 2.483939379453659058e-01
3.497000000000000000e+03 6.677679443359375000e+01 -1.043283081054687500e+01 1.184754371643066406e-01 5.625532627105712891e+00 1.723202466964721680e+00 2.313857078552246094e-01
3.498000000000000000e+03 6.702244567871093750e+01 -1.234404754638671875e+01 1.055275872349739075e-01 5.662590980529785156e+00 1.730435490608215332e+00 2.102030962705612183e-01
3.499000000000000000e+03 3.371131896972656250e+01 -1.734688186645507812e+01 9.170246124267578125e-02 -2.739650309085845947e-01 -5.467877164483070374e-02 -1.370958834886550903e-01
3.500000000000000000e+03 3.293408203125000000e+01 -1.577861499786376953e+01 8.979774266481399536e-02 -4.157655835151672363e-01 -9.779035300016403198e-02 -1.505757272243499756e-01
3.501000000000000000e+03 3.213105010986328125e+01 6.435183286666870117e-01 1.112568825483322144e-01 -5.234702229499816895e-01 -1.236639991402626038e-01 -3.974567055702209473e-01
3.502000000000000000e+03 3.183467102050781250e+01 2.135299921035766602e+00 1.024086996912956238e-01 -5.483984351158142090e-01 -1.337969154119491577e-01 -4.255355596542358398e-01
3.503000000000000000e+03 3.362119293212890625e+01 1.051994323730468750e+00 1.406275033950805664e-01 -3.365469872951507568e-01 -5.877584218978881836e-02 -4.084283113479614258e-01
3.504000000000000000e+03 6.952706146240234375e+01 1.292796516418457031e+01 -3.381244242191314697e-01 6.903295516967773438e+00 1.969551324844360352e+00 5.516268610954284668e-01
3.505000000000000000e+03 6.814950561523437500e+01 1.241459178924560547e+01 -2.748672366142272949e-01 6.472095012664794922e+00 1.859168291091918945e+00 6.712918877601623535e-01
3.506000000000000000e+03 3.355678176879882812e+01 -5.129090785980224609e+00 1.374255567789077759e-01 -3.297250866889953613e-01 -5.768985673785209656e-02 -2.957110702991485596e-01
3.507000000000000000e+03 6.822413635253906250e+01 -2.887125253677368164e+00 1.096618697047233582e-01 5.985151767730712891e+00 1.828444123268127441e+00 3.485633432865142822e-01
3.508000000000000000e+03 6.508757781982421875e+01 -1.497620868682861328e+01 1.172433197498321533e-01 5.287860393524169922e+00 1.621531128883361816e+00 1.801659762859344482e-01
3.509000000000000000e+03 6.906102752685546875e+01 -1.882470130920410156e+01 4.740237444639205933e-02 6.031803131103515625e+00 1.823761582374572754e+00 1.153824329376220703e-01
3.510000000000000000e+03 6.762970733642578125e+01 8.464324951171875000e+00 -4.462373256683349609e-02 6.083517551422119141e+00 1.811668157577514648e+00 5.893352627754211426e-01
3.511000000000000000e+03 6.734012603759765625e+01 1.424180388450622559e+00 1.025952920317649841e-01 5.817792892456054688e+00 1.776116490364074707e+00 4.308622479438781738e-01
3.512000000000000000e+03 7.198716735839843750e+01 2.941854095458984375e+01 2.637501716613769531e+00 1.028267860412597656e+01 3.876054286956787109e+00 -1.069833278656005859e+00
3.513000000000000000e+03 7.138609313964843750e+01 2.880320739746093750e+01 2.295383214950561523e+00 1.106462001800537109e+01 4.008001327514648438e+00 -1.496657967567443848e+00
3.514000000000000000e+03 6.613693237304687500e+01 2.398146247863769531e+01 -9.057206511497497559e-01 7.701306819915771484e+00 2.038675785064697266e+00 2.582301616668701172e+00
3.515000000000000000e+03 6.619874572753906250e+01 2.593938446044921875e+01 -8.455066680908203125e-01 8.861594200134277344e+00 2.404826164245605469e+00 3.341612339019775391e+00
3.516000000000000000e+03 6.800956726074218750e+01 2.565966224670410156e+01 -1.374194741249084473e+00 1.113053894042968750e+01 2.926903247833251953e+00 1.620336294174194336e+00
3.517000000000000000e+03 7.007103729248046875e+01 2.757102012634277344e+01 4.391887485980987549e-01 1.265133571624755859e+01 3.927157402038574219e+00 -1.240591049194335938e+00
3.518000000000000000e+03 7.260793304443359375e+01 2.873963165283203125e+01 1.832216739654541016e+00 9.901789665222167969e+00 3.520201921463012695e+00 -1.247172474861145020e+00
3.519000000000000000e+03 6.699658966064453125e+01 2.750890159606933594e+01 -9.449238777160644531e-01 1.240552234649658203e+01 3.438179731369018555e+00 3.434249639511108398e+00
3.520000000000000000e+03 6.622363281250000000e+01 2.697870254516601562e+01 -5.926450490951538086e-01 9.411316871643066406e+00 2.645601511001586914e+00 4.029923439025878906e+00
3.521000000000000000e+03 6.936558532714843750e+01 2.702067565917968750e+01 -5.080147385597229004e-01 1.297384071350097656e+01 3.739747762680053711e+00 -4.244227409362792969e-01
3.522000000000000000e+03 7.080243682861328125e+01 2.730828475952148438e+01 5.475897192955017090e-01 1.178786945343017578e+01 3.700637578964233398e+00 -1.441995978355407715e+00
3.523000000000000000e+03 7.043794250488281250e+01 2.638115692138671875e+01 -3.780227005481719971e-01 1.171630764007568359e+01 3.401485443115234375e+00 -8.968104720115661621e-01
3.524000000000000000e+03 7.003639984130859375e+01 2.685171127319335938e+01 -1.968793720006942749e-01 1.235794258117675781e+01 3.648319005966186523e+00 -9.079520106315612793e-01
3.525000000000000000e+03 7.034465789794921875e+01 2.483611106872558594e+01 -1.028227806091308594e+00 1.080104255676269531e+01 2.931844234466552734e+00 -3.111633360385894775e-01
3.526000000000000000e+03 7.087905120849609375e+01 2.576008224487304688e+01 -5.786631107330322266e-01 1.105475711822509766e+01 3.142827987670898438e+00 -8.654559254646301270e-01
3.527000000000000000e+03 6.626323699951171875e+01 2.647404670715332031e+01 -7.571061253547668457e-01 9.392007827758789062e+00 2.590470552444458008e+00 3.671860456466674805e+00
3.528000000000000000e+03 6.389145660400390625e+01 2.392103385925292969e+01 -1.760110557079315186e-01 4.911571502685546875e+00 1.420668125152587891e+00 2.685039043426513672e+00
3.529000000000000000e+03 6.412415313720703125e+01 2.439048385620117188e+01 -1.761990040540695190e-01 5.141820430755615234e+00 1.489686489105224609e+00 2.874553680419921875e+00
3.530000000000000000e+03 4.529497146606445312e+01 2.268766975402832031e+01 -4.725708663463592529e-01 1.857354342937469482e-01 -8.605062961578369141e-02 -6.111267209053039551e-01
3.531000000000000000e+03 7.124937438964843750e+01 2.669090652465820312e+01 9.771698713302612305e-02 1.120511627197265625e+01 3.390849828720092773e+00 -1.305547595024108887e+00
3.532000000000000000e+03 7.226382446289062500e+01 2.801025962829589844e+01 1.289625048637390137e+00 1.031011486053466797e+01 3.479922056198120117e+00 -1.484468936920166016e+00
3.533000000000000000e+03 6.495214843750000000e+01 2.547648048400878906e+01 -2.979712188243865967e-01 6.232939720153808594e+00 1.780490517616271973e+00 3.405515909194946289e+00
3.534000000000000000e+03 5.246992492675781250e+01 2.324584770202636719e+01 -4.224111437797546387e-01 3.977120220661163330e-01 -7.409731391817331314e-03 -1.717899292707443237e-01
3.535000000000000000e+03 5.429569244384765625e+01 2.288538742065429688e+01 -2.486093938350677490e-01 5.957903861999511719e-01 1.041542962193489075e-01 8.588432520627975464e-02
3.536000000000000000e+03 3.432843399047851562e+01 2.395925712585449219e+01 -3.222276866436004639e-01 -6.160731241106987000e-02 -1.151505038142204285e-01 -5.741748809814453125e-01
3.537000000000000000e+03 6.305669403076171875e+01 2.273513603210449219e+01 -8.370675891637802124e-02 4.249368667602539062e+00 1.249698638916015625e+00 2.298874855041503906e+00
3.538000000000000000e+03 7.091583251953125000e+01 3.866896057128906250e+01 -1.441637039184570312e+00 1.053313064575195312e+01 2.727448225021362305e+00 4.026523530483245850e-01
3.539000000000000000e+03 4.399024200439453125e+01 2.209497261047363281e+01 -3.935760855674743652e-01 1.697303503751754761e-01 -6.715371459722518921e-02 -6.473550200462341309e-01
3.540000000000000000e+03 4.303926849365234375e+01 2.244326019287109375e+01 -4.264127612113952637e-01 1.398940533399581909e-01 -8.595561236143112183e-02 -6.620258688926696777e-01
3.541000000000000000e+03 4.887415695190429688e+01 2.289393234252929688e+01 -4.767730534076690674e-01 2.651331126689910889e-01 -6.349198520183563232e-02 -4.629143774509429932e-01
3.542000000000000000e+03 4.794227981567382812e+01 2.147581291198730469e+01 -2.915563583374023438e-01 3.084858059883117676e-01 5.078840535134077072e-03 -4.854168891906738281e-01
3.543000000000000000e+03 5.807538223266601562e+01 2.293877983093261719e+01 5.295734107494354248e-02 1.302986502647399902e+00 4.067831337451934814e-01 8.688854575157165527e-01
3.544000000000000000e+03 5.652128982543945312e+01 2.348140335083007812e+01 -1.778826862573623657e-01 8.249943256378173828e-01 1.941334903240203857e-01 4.427860379219055176e-01
3.545000000000000000e+03 4.797002029418945312e+01 2.221528053283691406e+01 -3.835468888282775879e-01 2.753316760063171387e-01 -3.246456384658813477e-02 -5.022338032722473145e-01
3.546000000000000000e+03 6.106493759155273438e+01 2.286191177368164062e+01 1.329735219478607178e-01 2.674165964126586914e+00 8.421418070793151855e-01 1.784360408782958984e+00
3.547000000000000000e+03 4.340734481811523438e+01 2.333837127685546875e+01 -5.375739336013793945e-01 1.351694166660308838e-01 -1.207213476300239563e-01 -6.444470882415771484e-01
3.548000000000000000e+03 5.167063522338867188e+01 2.301209449768066406e+01 -4.157902896404266357e-01 3.815531730651855469e-01 -1.027113571763038635e-02 -2.446415126323699951e-01
3.549000000000000000e+03 4.621335220336914062e+01 2.238031196594238281e+01 -4.282928109169006348e-01 2.159492373466491699e-01 -6.370307505130767822e-02 -5.793721079826354980e-01
3.550000000000000000e+03 4.712372589111328125e+01 2.223230743408203125e+01 -3.986487984657287598e-01 2.428116649389266968e-01 -4.675114154815673828e-02 -5.423504114151000977e-01
3.551000000000000000e+03 4.112694931030273438e+01 2.431569671630859375e+01 -5.803374052047729492e-01 9.138232469558715820e-02 -1.466865241527557373e-01 -6.326230764389038086e-01
3.552000000000000000e+03 7.162329864501953125e+01 2.836407852172851562e+01 1.759126663208007812e+00 1.087704944610595703e+01 3.790852785110473633e+00 -1.539377927780151367e+00
3.553000000000000000e+03 5.778797912597656250e+01 2.092559623718261719e+01 1.953640729188919067e-01 1.716294407844543457e+00 5.734975337982177734e-01 8.774598240852355957e-01
3.554000000000000000e+03 5.827561950683593750e+01 2.191218948364257812e+01 1.395848542451858521e-01 1.621231198310852051e+00 5.282447934150695801e-01 9.605121612548828125e-01
3.555000000000000000e+03 3.255242156982421875e+01 2.546851730346679688e+01 -3.085982203483581543e-01 -7.340980321168899536e-02 -1.146024093031883240e-01 -4.795266091823577881e-01
3.556000000000000000e+03 6.882870483398437500e+01 2.578218841552734375e+01 -1.274170517921447754e+00 1.169315242767333984e+01 3.125694513320922852e+00 6.779181361198425293e-01
3.557000000000000000e+03 6.029604721069335938e+01 2.277735900878906250e+01 1.406335532665252686e-01 2.254372119903564453e+00 7.185017466545104980e-01 1.528188347816467285e+00
3.558000000000000000e+03 6.234428024291992188e+01 2.216917610168457031e+01 -4.627020825864747167e-05 3.791028976440429688e+00 1.137294769287109375e+00 2.058038234710693359e+00
3.559000000000000000e+03 3.959783935546875000e+01 2.376047325134277344e+01 -4.767201840877532959e-01 6.628714501857757568e-02 -1.231299117207527161e-01 -6.519195437431335449e-01
3.560000000000000000e+03 6.114613723754882812e+01 2.200875473022460938e+01 1.114901751279830933e-01 2.972453594207763672e+00 9.251831173896789551e-01 1.743059635162353516e+00
3.561000000000000000e+03 6.891044616699218750e+01 2.136449623107910156e+01 -1.189168453216552734e+00 8.638782501220703125e+00 2.234884023666381836e+00 8.698477745056152344e-01
3.562000000000000000e+03 7.072050476074218750e+01 2.101938629150390625e+01 -1.098932385444641113e+00 8.990933418273925781e+00 2.367600440979003906e+00 1.280252486467361450e-01
3.563000000000000000e+03 6.933654785156250000e+01 2.194733619689941406e+01 -1.262256979942321777e+00 9.122682571411132812e+00 2.358127593994140625e+00 6.679846644401550293e-01
3.564000000000000000e+03 3.457744216918945312e+01 8.035177230834960938e+00 1.336474418640136719e-01 -2.380148768424987793e-01 -3.131023049354553223e-02 -5.613382458686828613e-01
3.565000000000000000e+03 3.254977798461914062e+01 2.228824615478515625e+01 -2.110113948583602905e-01 -1.522691696882247925e-01 -1.089841723442077637e-01 -5.817936658859252930e-01
3.566000000000000000e+03 3.337399291992187500e+01 2.417237663269042969e+01 -2.971803247928619385e-01 -8.452745527029037476e-02 -1.145123392343521118e-01 -5.419275164604187012e-01
3.567000000000000000e+03 3.294087219238281250e+01 -2.389271259307861328e+00 1.244063749909400940e-01 -4.384880065917968750e-01 -9.422449022531509399e-02 -3.432944118976593018e-01
3.568000000000000000e+03 7.028835296630859375e+01 2.548559761047363281e+01 -8.935071825981140137e-01 1.120840740203857422e+01 3.094470024108886719e+00 -4.493653774261474609e-01
3.569000000000000000e+03 6.820838928222656250e+01 1.914524269104003906e+01 -8.992424607276916504e-01 7.602069377899169922e+00 2.010848045349121094e+00 9.746812582015991211e-01
3.570000000000000000e+03 6.945236206054687500e+01 3.779784774780273438e+01 -1.600802898406982422e+00 1.090249061584472656e+01 2.790506124496459961e+00 2.557589858770370483e-02
3.571000000000000000e+03 3.311269760131835938e+01 2.057561492919921875e+01 -1.623660027980804443e-01 -1.775768399238586426e-01 -1.019828543066978455e-01 -6.287614703178405762e-01
3.572000000000000000e+03 3.499497985839843750e+01 1.941348075866699219e+01 -1.381839215755462646e-01 -1.256358325481414795e-01 -7.914592325687408447e-02 -6.807333230972290039e-01
3.573000000000000000e+03 6.940659332275390625e+01 1.558426094055175781e+01 -5.592044591903686523e-01 7.261948585510253906e+00 2.010823249816894531e+00 5.918250679969787598e-01
3.574000000000000000e+03 6.953535461425781250e+01 1.685125160217285156e+01 -6.918656229972839355e-01 7.518951416015625000e+00 2.048125743865966797e+00 5.816683769226074219e-01
3.575000000000000000e+03 4.133346176147460938e+01 2.370164108276367188e+01 -5.212188363075256348e-01 9.710268676280975342e-02 -1.272348463535308838e-01 -6.535854935646057129e-01
3.576000000000000000e+03 3.781843185424804688e+01 2.464962387084960938e+01 -4.826050996780395508e-01 3.497305139899253845e-02 -1.342896074056625366e-01 -6.040835380554199219e-01
3.577000000000000000e+03 3.665962219238281250e+01 2.377551841735839844e+01 -3.891194760799407959e-01 -3.999265842139720917e-03 -1.179356202483177185e-01 -6.214521527290344238e-01
3.578000000000000000e+03 3.786938858032226562e+01 1.212570285797119141e+01 1.382887363433837891e-01 2.920241467654705048e-02 5.024734511971473694e-02 -6.314819455146789551e-01
3.579000000000000000e+03 3.225658035278320312e+01 2.602245712280273438e+01 -3.084995746612548828e-01 -7.004966586828231812e-02 -1.135647743940353394e-01 -4.537582993507385254e-01
3.580000000000000000e+03 3.104498672485351562e+01 2.542537689208984375e+01 -2.444987744092941284e-01 -1.168944835662841797e-01 -1.084179729223251343e-01 -4.372212588787078857e-01
3.581000000000000000e+03 6.641837310791015625e+01 4.005323410034179688e+00 1.000207886099815369e-01 5.642673492431640625e+00 1.722808241844177246e+00 5.065767168998718262e-01
3.582000000000000000e+03 7.009712982177734375e+01 1.371205329895019531e+01 -3.998015224933624268e-01 7.185022830963134766e+00 2.035566329956054688e+00 4.780431687831878662e-01
3.583000000000000000e+03 6.797937011718750000e+01 4.061413764953613281e+00 6.538230180740356445e-02 6.033854007720947266e+00 1.829770922660827637e+00 4.735974967479705811e-01
3.584000000000000000e+03 3.558436203002929688e+01 1.418719482421875000e+01 4.787818714976310730e-02 -1.439578682184219360e-01 -2.882390469312667847e-02 -6.718709468841552734e-01
3.585000000000000000e+03 6.707947540283203125e+01 1.263301944732666016e+01 -2.457650750875473022e-01 6.187540531158447266e+00 1.782532691955566406e+00 7.742437124252319336e-01
3.586000000000000000e+03 6.657032012939453125e+01 1.101207733154296875e+01 -1.314628273248672485e-01 5.892411708831787109e+00 1.728284597396850586e+00 7.353131771087646484e-01
3.587000000000000000e+03 3.550826263427734375e+01 1.204630756378173828e+01 9.758996963500976562e-02 -1.542752385139465332e-01 -1.700558140873908997e-02 -6.407350301742553711e-01
3.588000000000000000e+03 3.671387100219726562e+01 1.404709434509277344e+01 6.590946763753890991e-02 -6.885204464197158813e-02 -8.827717392705380917e-04 -6.707576513290405273e-01
3.589000000000000000e+03 3.401900863647460938e+01 -1.372134590148925781e+01 1.095047816634178162e-01 -2.264677286148071289e-01 -3.508888557553291321e-02 -1.740935891866683960e-01
3.590000000000000000e+03 3.333790588378906250e+01 -1.036211776733398438e+01 1.063649877905845642e-01 -3.545007109642028809e-01 -7.444071769714355469e-02 -2.212354987859725952e-01
3.591000000000000000e+03 6.889860534667968750e+01 -6.507966995239257812e+00 9.274972975254058838e-02 6.104325771331787109e+00 1.859122633934020996e+00 2.805413305759429932e-01
3.592000000000000000e+03 6.599575805664062500e+01 -8.026286363601684570e-01 1.520261913537979126e-01 5.498515129089355469e+00 1.695162415504455566e+00 3.919382989406585693e-01
3.593000000000000000e+03 6.783627319335937500e+01 -4.925584316253662109e+00 1.153451949357986450e-01 5.894288539886474609e+00 1.802890181541442871e+00 3.131409883499145508e-01
3.594000000000000000e+03 6.764768981933593750e+01 -8.208067893981933594e+00 1.066164225339889526e-01 5.824431419372558594e+00 1.779314398765563965e+00 2.533574998378753662e-01
3.595000000000000000e+03 6.747341156005859375e+01 -9.361615180969238281e+00 1.138959452509880066e-01 5.796706199645996094e+00 1.773180603981018066e+00 2.474083155393600464e-01
3.596000000000000000e+03 3.328475570678710938e+01 2.540185928344726562e+00 1.313745975494384766e-01 -3.855865001678466797e-01 -7.626357674598693848e-02 -4.390897154808044434e-01
3.597000000000000000e+03 3.487511062622070312e+01 2.958225011825561523e+00 1.680146008729934692e-01 -1.845464259386062622e-01 -4.959550220519304276e-03 -4.539068639278411865e-01
3.598000000000000000e+03 6.966291809082031250e+01 4.038282775878906250e+01 -1.691025853157043457e+00 1.004920196533203125e+01 2.507452964782714844e+00 -3.309002518653869629e-02
3.599000000000000000e+03 6.670006561279296875e+01 4.133939743041992188e+01 -1.267257094383239746e+00 8.242783546447753906e+00 2.092657804489135742e+00 -3.500846326351165771e-01
3.600000000000000000e+03 6.918521881103515625e+01 -1.662711715698242188e+01 6.234950572252273560e-02 6.073497772216796875e+00 1.840754151344299316e+00 1.251309067010879517e-01
3.601000000000000000e+03 3.700704956054687500e+01 1.585279846191406250e+01 9.088503196835517883e-03 -5.342390015721321106e-02 -1.330061908811330795e-02 -6.927009224891662598e-01
3.602000000000000000e+03 6.651681518554687500e+01 1.364407420158386230e+00 1.234735473990440369e-01 5.633132457733154297e+00 1.726981759071350098e+00 4.414021074771881104e-01
3.603000000000000000e+03 3.206265640258789062e+01 -6.623987197875976562e+00 1.094028428196907043e-01 -5.487136840820312500e-01 -1.317932456731796265e-01 -2.739447951316833496e-01
3.604000000000000000e+03 3.213049697875976562e+01 -5.343142986297607422e+00 1.081399470567703247e-01 -5.390220880508422852e-01 -1.292646378278732300e-01 -2.962628602981567383e-01
3.605000000000000000e+03 3.722124862670898438e+01 1.670288085937500000e+01 -2.355641126632690430e-02 -4.210820421576499939e-02 -1.969938538968563080e-02 -6.999250650405883789e-01
3.606000000000000000e+03 3.515635681152343750e+01 1.727836608886718750e+01 -5.457680672407150269e-02 -1.465556621551513672e-01 -6.033974140882492065e-02 -6.899950504302978516e-01
3.607000000000000000e+03 6.720783233642578125e+01 -1.452141761779785156e+01 8.969962596893310547e-02 5.708389759063720703e+00 1.739426732063293457e+00 1.830749958753585815e-01
3.608000000000000000e+03 6.671804809570312500e+01 -8.774032592773437500e+00 1.156508103013038635e-01 5.601387977600097656e+00 1.715111613273620605e+00 2.533870041370391846e-01
3.609000000000000000e+03 6.340628051757812500e+01 -8.652918815612792969e+00 1.715441346168518066e-01 4.919327735900878906e+00 1.527261495590209961e+00 2.518189251422882080e-01
3.610000000000000000e+03 6.819966888427734375e+01 -3.837302446365356445e+00 1.123262196779251099e-01 5.978000640869140625e+00 1.827098011970520020e+00 3.241761624813079834e-01
3.611000000000000000e+03 6.726160430908203125e+01 4.772149085998535156e+00 6.788327544927597046e-02 5.871749401092529297e+00 1.781889796257019043e+00 5.084311366081237793e-01
3.612000000000000000e+03 6.647570800781250000e+01 5.448490142822265625e+00 7.522194087505340576e-02 5.684143066406250000e+00 1.727809548377990723e+00 5.411483049392700195e-01
3.613000000000000000e+03 3.103351020812988281e+01 -2.500724220275878906e+01 5.202305316925048828e-02 -6.691741943359375000e-01 -1.851453334093093872e-01 -8.161476999521255493e-02
3.614000000000000000e+03 6.652870178222656250e+01 2.356635284423828125e+01 -1.026405930519104004e+00 8.004037857055664062e+00 2.093289613723754883e+00 2.274024724960327148e+00
3.615000000000000000e+03 7.180553436279296875e+01 2.901900482177734375e+01 2.366063833236694336e+00 1.053146743774414062e+01 3.869259357452392578e+00 -1.288237571716308594e+00
3.616000000000000000e+03 6.750305938720703125e+01 2.611564064025878906e+01 -1.303466439247131348e+00 1.118067550659179688e+01 2.963162660598754883e+00 2.240783691406250000e+00
3.617000000000000000e+03 6.853105926513671875e+01 3.688404464721679688e+01 -1.462674498558044434e+00 1.101832675933837891e+01 2.866695642471313477e+00 -4.544997215270996094e-01
3.618000000000000000e+03 6.455059814453125000e+01 2.488330650329589844e+01 -2.571434974670410156e-01 5.630825996398925781e+00 1.612104773521423340e+00 3.126419305801391602e+00
3.619000000000000000e+03 6.787303924560546875e+01 2.403470420837402344e+01 -1.355169773101806641e+00 9.633677482604980469e+00 2.483552455902099609e+00 1.563570499420166016e+00
3.620000000000000000e+03 7.128557586669921875e+01 2.778207778930664062e+01 1.141625881195068359e+00 1.125236988067626953e+01 3.718198776245117188e+00 -1.562337040901184082e+00
3.621000000000000000e+03 7.075273895263671875e+01 2.680692672729492188e+01 3.033339604735374451e-02 1.161466503143310547e+01 3.493499517440795898e+00 -1.183319091796875000e+00
3.622000000000000000e+03 6.960753631591796875e+01 2.656523704528808594e+01 -6.519443988800048828e-01 1.241898536682128906e+01 3.530112266540527344e+00 -3.865272402763366699e-01
3.623000000000000000e+03 6.954986572265625000e+01 2.583210182189941406e+01 -1.030247211456298828e+00 1.172502613067626953e+01 3.208433628082275391e+00 -3.224263340234756470e-02
3.624000000000000000e+03 6.997777557373046875e+01 2.607990455627441406e+01 -7.716356515884399414e-01 1.176610755920410156e+01 3.298341512680053711e+00 -4.577376544475555420e-01
3.625000000000000000e+03 6.380532836914062500e+01 2.331138229370117188e+01 -2.104423493146896362e-01 4.889287471771240234e+00 1.403653502464294434e+00 2.556061983108520508e+00
3.626000000000000000e+03 6.441796112060546875e+01 2.395585060119628906e+01 -3.199500739574432373e-01 5.570223331451416016e+00 1.575081944465637207e+00 2.788351774215698242e+00
3.627000000000000000e+03 4.495790481567382812e+01 2.181974601745605469e+01 -3.662965893745422363e-01 2.026743292808532715e-01 -4.908667877316474915e-02 -6.216585636138916016e-01
3.628000000000000000e+03 5.515837478637695312e+01 2.274747467041015625e+01 -1.600608378648757935e-01 7.239941954612731934e-01 1.691800206899642944e-01 2.352934330701828003e-01
3.629000000000000000e+03 4.223175811767578125e+01 2.285407066345214844e+01 -4.655698835849761963e-01 1.153669059276580811e-01 -1.050608903169631958e-01 -6.672403812408447266e-01
3.630000000000000000e+03 4.584632110595703125e+01 2.149564361572265625e+01 -3.195776641368865967e-01 2.407465875148773193e-01 -2.364932000637054443e-02 -5.875216126441955566e-01
3.631000000000000000e+03 5.382965087890625000e+01 2.205608940124511719e+01 -1.314648687839508057e-01 6.668323278427124023e-01 1.606102287769317627e-01 7.406407594680786133e-02
3.632000000000000000e+03 3.382109069824218750e+01 2.130041122436523438e+01 -1.996251940727233887e-01 -1.366363465785980225e-01 -1.008784621953964233e-01 -6.305605173110961914e-01
3.633000000000000000e+03 3.741423797607421875e+01 2.332427787780761719e+01 -3.828607201576232910e-01 1.026561670005321503e-02 -1.117785349488258362e-01 -6.483566761016845703e-01
3.634000000000000000e+03 7.088560485839843750e+01 2.456018638610839844e+01 -9.430128931999206543e-01 1.047817516326904297e+01 2.860548496246337891e+00 -5.309429764747619629e-01
3.635000000000000000e+03 5.094670104980468750e+01 2.204214096069335938e+01 -2.756839990615844727e-01 4.149648249149322510e-01 4.178425297141075134e-02 -2.792354822158813477e-01
3.636000000000000000e+03 6.370785903930664062e+01 2.261380958557128906e+01 -2.309744060039520264e-01 4.891283035278320312e+00 1.398092508316040039e+00 2.387647628784179688e+00
3.637000000000000000e+03 6.178258514404296875e+01 2.212949752807617188e+01 6.278198957443237305e-02 3.370345115661621094e+00 1.029938101768493652e+00 1.902795433998107910e+00
3.638000000000000000e+03 4.872355651855468750e+01 2.213664817810058594e+01 -3.566552996635437012e-01 3.065156340599060059e-01 -1.504189986735582352e-02 -4.526329636573791504e-01
3.639000000000000000e+03 4.859733200073242188e+01 2.137607383728027344e+01 -2.536116838455200195e-01 3.515229523181915283e-01 2.937338501214981079e-02 -4.397000670433044434e-01
3.640000000000000000e+03 5.599463272094726562e+01 2.301603507995605469e+01 -1.372649669647216797e-01 8.182418346405029297e-01 2.042930573225021362e-01 3.826753497123718262e-01
3.641000000000000000e+03 5.753459548950195312e+01 2.177202415466308594e+01 1.189193800091743469e-01 1.444103956222534180e+00 4.689070284366607666e-01 7.972508668899536133e-01
3.642000000000000000e+03 4.719298171997070312e+01 2.135863113403320312e+01 -2.912528216838836670e-01 2.872052788734436035e-01 -1.214264892041683197e-03 -5.284454822540283203e-01
3.643000000000000000e+03 4.944385910034179688e+01 2.203172302246093750e+01 -3.292726576328277588e-01 3.494119942188262939e-01 6.041808985173702240e-03 -4.033360183238983154e-01
3.644000000000000000e+03 5.025172042846679688e+01 2.267869758605957031e+01 -4.144242107868194580e-01 3.349542021751403809e-01 -2.384100854396820068e-02 -3.588668107986450195e-01
3.645000000000000000e+03 3.779045486450195312e+01 2.400387001037597656e+01 -4.412715435028076172e-01 2.734204754233360291e-02 -1.241788491606712341e-01 -6.280232071876525879e-01
3.646000000000000000e+03 6.850665283203125000e+01 1.726062965393066406e+01 -7.027720212936401367e-01 7.272675514221191406e+00 1.970970988273620605e+00 7.914204001426696777e-01
3.647000000000000000e+03 6.785589599609375000e+01 1.656825828552246094e+01 -6.008615493774414062e-01 6.913934230804443359e+00 1.893921732902526855e+00 8.689749836921691895e-01
3.648000000000000000e+03 6.295032882690429688e+01 2.201887893676757812e+01 -1.086710467934608459e-01 4.281571388244628906e+00 1.251870036125183105e+00 2.147131443023681641e+00
3.649000000000000000e+03 6.739460754394531250e+01 3.750455856323242188e+01 -1.236913204193115234e+00 9.561872482299804688e+00 2.497487783432006836e+00 -1.242459177970886230e+00
3.650000000000000000e+03 5.846935272216796875e+01 2.118877601623535156e+01 1.902998834848403931e-01 1.849591970443725586e+00 6.119675636291503906e-01 1.025897860527038574e+00
3.651000000000000000e+03 3.551257705688476562e+01 1.315081787109375000e+01 7.345218956470489502e-02 -1.515806913375854492e-01 -2.343854866921901703e-02 -6.576632857322692871e-01
3.652000000000000000e+03 3.682985687255859375e+01 1.496901130676269531e+01 3.914972767233848572e-02 -6.422654539346694946e-02 -7.523044012486934662e-03 -6.828085184097290039e-01
3.653000000000000000e+03 5.975148010253906250e+01 2.177490997314453125e+01 1.793152689933776855e-01 2.309065818786621094e+00 7.465143203735351562e-01 1.387005805969238281e+00
3.654000000000000000e+03 5.888218307495117188e+01 2.208849525451660156e+01 1.534705907106399536e-01 1.808883309364318848e+00 5.887061357498168945e-01 1.116204261779785156e+00
3.655000000000000000e+03 6.116999053955078125e+01 2.114013099670410156e+01 1.123552918434143066e-01 3.188154697418212891e+00 9.901529550552368164e-01 1.679476737976074219e+00
3.656000000000000000e+03 6.050243377685546875e+01 2.116903686523437500e+01 1.520148664712905884e-01 2.785977363586425781e+00 8.813976645469665527e-01 1.538061261177062988e+00
3.657000000000000000e+03 6.996616363525390625e+01 2.234400558471679688e+01 -1.241978287696838379e+00 9.408110618591308594e+00 2.449839591979980469e+00 3.447258174419403076e-01
3.658000000000000000e+03 6.809052276611328125e+01 2.086623573303222656e+01 -1.077505826950073242e+00 8.090659141540527344e+00 2.103945970535278320e+00 1.143247365951538086e+00
3.659000000000000000e+03 6.711200714111328125e+01 2.563209533691406250e+01 -1.230872154235839844e+00 1.018904590606689453e+01 2.687452077865600586e+00 2.551383256912231445e+00
3.660000000000000000e+03 6.688787841796875000e+01 2.055305480957031250e+01 -9.117901921272277832e-01 7.363955974578857422e+00 1.935649752616882324e+00 1.498678207397460938e+00
3.661000000000000000e+03 6.668014526367187500e+01 1.929796028137207031e+01 -7.674866318702697754e-01 6.893386840820312500e+00 1.837770104408264160e+00 1.402242541313171387e+00
3.662000000000000000e+03 4.082553100585937500e+01 2.343717765808105469e+01 -4.918338358402252197e-01 8.557408303022384644e-02 -1.218779236078262329e-01 -6.597316861152648926e-01
3.663000000000000000e+03 3.900149536132812500e+01 2.433308219909667969e+01 -4.999960064888000488e-01 5.199155211448669434e-02 -1.344013363122940063e-01 -6.261112689971923828e-01
3.664000000000000000e+03 4.055893325805664062e+01 2.393942451477050781e+01 -5.265925526618957520e-01 7.754831016063690186e-02 -1.347132772207260132e-01 -6.422194838523864746e-01
3.665000000000000000e+03 4.163830184936523438e+01 2.323294639587402344e+01 -4.869877994060516357e-01 1.053320020437240601e-01 -1.144967377185821533e-01 -6.643911600112915039e-01
3.666000000000000000e+03 3.364978027343750000e+01 2.497615432739257812e+01 -3.337944149971008301e-01 -5.777296423912048340e-02 -1.174702122807502747e-01 -5.228876471519470215e-01
3.667000000000000000e+03 3.518025588989257812e+01 2.148934936523437500e+01 -2.359692007303237915e-01 -8.268482238054275513e-02 -9.559620916843414307e-02 -6.541321277618408203e-01
3.668000000000000000e+03 3.405983352661132812e+01 1.992633628845214844e+01 -1.487564891576766968e-01 -1.551987528800964355e-01 -9.118657559156417847e-02 -6.597475409507751465e-01
3.669000000000000000e+03 6.856382751464843750e+01 1.339966392517089844e+01 -3.419798612594604492e-01 6.695892810821533203e+00 1.906173944473266602e+00 6.558873057365417480e-01
3.670000000000000000e+03 6.684736633300781250e+01 1.358872890472412109e+01 -2.900413870811462402e-01 6.185688495635986328e+00 1.768694162368774414e+00 8.362680673599243164e-01
3.671000000000000000e+03 6.703881835937500000e+01 7.670948982238769531e+00 4.587428993545472622e-04 5.889526844024658203e+00 1.766995668411254883e+00 5.835878252983093262e-01
3.672000000000000000e+03 6.961675262451171875e+01 -1.362110424041748047e+01 6.874798983335494995e-02 6.170613765716552734e+00 1.871808528900146484e+00 1.754163950681686401e-01
3.673000000000000000e+03 6.825875091552734375e+01 1.564966869354248047e+01 -5.419556498527526855e-01 6.916932106018066406e+00 1.912492871284484863e+00 7.675783038139343262e-01
3.674000000000000000e+03 4.022369384765625000e+01 2.338293266296386719e+01 -4.727894663810729980e-01 7.437361776828765869e-02 -1.195247545838356018e-01 -6.614730358123779297e-01
3.675000000000000000e+03 3.848277282714843750e+01 2.370696830749511719e+01 -4.474596977233886719e-01 3.718020394444465637e-02 -1.230838447809219360e-01 -6.404387354850769043e-01
3.676000000000000000e+03 3.556765365600585938e+01 1.087575817108154297e+01 1.188883557915687561e-01 -1.513569355010986328e-01 -9.740575216710567474e-03 -6.204950213432312012e-01
3.677000000000000000e+03 3.666651153564453125e+01 1.307650089263916016e+01 9.270347654819488525e-02 -7.016131281852722168e-02 6.762649863958358765e-03 -6.570955514907836914e-01
3.678000000000000000e+03 3.572944259643554688e+01 1.516277503967285156e+01 2.040154673159122467e-02 -1.304247379302978516e-01 -3.300695866346359253e-02 -6.827959418296813965e-01
3.679000000000000000e+03 6.516072845458984375e+01 7.630799412727355957e-01 1.616431921720504761e-01 5.281313419342041016e+00 1.632887005805969238e+00 4.312616288661956787e-01
3.680000000000000000e+03 6.634406280517578125e+01 3.743994832038879395e-01 1.369753181934356689e-01 5.582221031188964844e+00 1.715758919715881348e+00 4.134164750576019287e-01
3.681000000000000000e+03 6.737894439697265625e+01 -3.319401264190673828e+00 1.288662850856781006e-01 5.808558940887451172e+00 1.781227588653564453e+00 3.457412123680114746e-01
3.682000000000000000e+03 6.566934204101562500e+01 4.659502983093261719e+00 1.087687611579895020e-01 5.460732460021972656e+00 1.670850396156311035e+00 5.320439934730529785e-01
3.683000000000000000e+03 3.463283920288085938e+01 2.071672058105468750e+01 -1.890171915292739868e-01 -1.188575401902198792e-01 -9.236241877079010010e-02 -6.580689549446105957e-01
3.684000000000000000e+03 6.483302307128906250e+01 1.031534290313720703e+01 -1.387131214141845703e-02 5.310125350952148438e+00 1.588876247406005859e+00 7.737243771553039551e-01
3.685000000000000000e+03 6.810072326660156250e+01 -1.680420875549316406e+01 6.863389164209365845e-02 5.874988079071044922e+00 1.783086538314819336e+00 1.445029228925704956e-01
3.686000000000000000e+03 3.509167480468750000e+01 1.469799399375915527e+00 1.724054962396621704e-01 -1.565614342689514160e-01 4.753216635435819626e-03 -4.180928766727447510e-01
3.687000000000000000e+03 3.404357910156250000e+01 -4.198375940322875977e-01 1.507156938314437866e-01 -2.731657922267913818e-01 -3.673502802848815918e-02 -3.817759454250335693e-01
3.688000000000000000e+03 3.761086654663085938e+01 2.386024951934814453e+00 2.276275604963302612e-01 1.547846496105194092e-01 1.147236600518226624e-01 -4.158051908016204834e-01
3.689000000000000000e+03 3.187085533142089844e+01 -1.041278266906738281e+01 8.520416170358657837e-02 -5.850210189819335938e-01 -1.499450653791427612e-01 -2.191807180643081665e-01
3.690000000000000000e+03 6.817606353759765625e+01 -1.311501502990722656e+01 8.841277658939361572e-02 5.900159358978271484e+00 1.796571612358093262e+00 1.900472491979598999e-01
3.691000000000000000e+03 6.513931274414062500e+01 -1.271205520629882812e+01 1.279799193143844604e-01 5.298666477203369141e+00 1.627993941307067871e+00 2.075991928577423096e-01
3.692000000000000000e+03 6.515854644775390625e+01 -8.759803771972656250e+00 1.401519626379013062e-01 5.285541534423828125e+00 1.627707958221435547e+00 2.587686777114868164e-01
3.693000000000000000e+03 3.502683258056640625e+01 -4.910873413085937500e+00 1.575589179992675781e-01 -1.219124644994735718e-01 1.069393754005432129e-02 -2.993141710758209229e-01
3.694000000000000000e+03 3.340870666503906250e+01 -3.758063554763793945e+00 1.342789828777313232e-01 -3.669332265853881836e-01 -6.979627907276153564e-02 -3.245428800582885742e-01
3.695000000000000000e+03 6.404953765869140625e+01 2.982852220535278320e+00 1.815312653779983521e-01 5.033328056335449219e+00 1.564457774162292480e+00 4.925125241279602051e-01
3.696000000000000000e+03 3.577238845825195312e+01 -1.507588291168212891e+01 1.161774620413780212e-01 8.049991726875305176e-02 5.900321528315544128e-02 -1.558339744806289673e-01
3.697000000000000000e+03 3.561482620239257812e+01 -1.047657012939453125e+01 1.333515942096710205e-01 -9.712557308375835419e-03 3.709170967340469360e-02 -2.159264385700225830e-01
3.698000000000000000e+03 3.190863609313964844e+01 -1.165731334686279297e+01 7.927042990922927856e-02 -5.671859979629516602e-01 -1.463746577501296997e-01 -2.023287564516067505e-01
3.699000000000000000e+03 3.600158691406250000e+01 5.244552612304687500e+00 1.858315765857696533e-01 -8.156796544790267944e-02 3.127908334136009216e-02 -4.959242045879364014e-01
3.700000000000000000e+03 3.601131439208984375e+01 8.412715911865234375e+00 1.632572859525680542e-01 -9.906838089227676392e-02 1.925667002797126770e-02 -5.695239901542663574e-01
3.701000000000000000e+03 6.585123443603515625e+01 -5.204114437103271484e+00 1.467861980199813843e-01 5.439353466033935547e+00 1.675841927528381348e+00 3.135809600353240967e-01
3.702000000000000000e+03 6.645249176025390625e+01 -6.270995140075683594e+00 1.362289339303970337e-01 5.569027900695800781e+00 1.711577057838439941e+00 3.001478314399719238e-01
3.703000000000000000e+03 6.666344451904296875e+01 2.616965103149414062e+01 -1.013141155242919922e+00 9.830410003662109375e+00 2.645180702209472656e+00 3.163015127182006836e+00
3.704000000000000000e+03 6.599703216552734375e+01 2.472805786132812500e+01 -8.389641046524047852e-01 7.876637935638427734e+00 2.111302137374877930e+00 2.924318552017211914e+00
3.705000000000000000e+03 4.247595977783203125e+01 2.171359252929687500e+01 -3.470177948474884033e-01 1.376406848430633545e-01 -6.281313300132751465e-02 -6.751884818077087402e-01
3.706000000000000000e+03 4.376952362060546875e+01 2.111881446838378906e+01 -2.894704043865203857e-01 1.852672249078750610e-01 -3.126095235347747803e-02 -6.529294252395629883e-01
3.707000000000000000e+03 4.547647094726562500e+01 2.063829612731933594e+01 -2.182163000106811523e-01 2.683027088642120361e-01 1.502592302858829498e-02 -5.900745391845703125e-01
3.708000000000000000e+03 6.495561218261718750e+01 2.434788703918457031e+01 -4.625830352306365967e-01 6.310366630554199219e+00 1.754335165023803711e+00 2.967398643493652344e+00
3.709000000000000000e+03 6.767146301269531250e+01 2.512786674499511719e+01 -1.349960803985595703e+00 1.029609775543212891e+01 2.683841228485107422e+00 1.897273182868957520e+00
3.710000000000000000e+03 6.574390411376953125e+01 2.429916000366210938e+01 -7.694033980369567871e-01 7.323368549346923828e+00 1.966189503669738770e+00 2.808645486831665039e+00
3.711000000000000000e+03 6.973793029785156250e+01 2.538899803161621094e+01 -1.099075317382812500e+00 1.130000209808349609e+01 3.060278177261352539e+00 -3.165274858474731445e-02
3.712000000000000000e+03 6.818574523925781250e+01 2.269183540344238281e+01 -1.302773118019104004e+00 9.076603889465332031e+00 2.332149267196655273e+00 1.244911432266235352e+00
3.713000000000000000e+03 6.973110961914062500e+01 2.482203674316406250e+01 -1.202290058135986328e+00 1.092699813842773438e+01 2.917412281036376953e+00 1.030265986919403076e-01
3.714000000000000000e+03 6.928363037109375000e+01 2.547819709777832031e+01 -1.225561976432800293e+00 1.149095535278320312e+01 3.079617977142333984e+00 3.186276555061340332e-01
3.715000000000000000e+03 4.368762969970703125e+01 2.017934799194335938e+01 -1.938028037548065186e-01 2.076941728591918945e-01 4.167408682405948639e-03 -6.500344276428222656e-01
3.716000000000000000e+03 7.179828643798828125e+01 2.782676887512207031e+01 1.219080924987792969e+00 1.074399471282958984e+01 3.588922739028930664e+00 -1.539722204208374023e+00
3.717000000000000000e+03 7.039080047607421875e+01 2.717493629455566406e+01 2.157118767499923706e-01 1.215055847167968750e+01 3.709881067276000977e+00 -1.184917449951171875e+00
3.718000000000000000e+03 5.318813323974609375e+01 2.128033828735351562e+01 -4.903528839349746704e-02 7.067711949348449707e-01 1.973207741975784302e-01 2.206050232052803040e-02
3.719000000000000000e+03 4.616205215454101562e+01 2.035017395019531250e+01 -1.838881820440292358e-01 2.950577735900878906e-01 3.335088118910789490e-02 -5.561489462852478027e-01
3.720000000000000000e+03 5.168423843383789062e+01 2.213825416564941406e+01 -2.589395344257354736e-01 4.648898839950561523e-01 6.178510189056396484e-02 -2.028261572122573853e-01
3.721000000000000000e+03 6.359697723388671875e+01 2.187899017333984375e+01 -2.521399855613708496e-01 4.873998165130615234e+00 1.386557459831237793e+00 2.198964595794677734e+00
3.722000000000000000e+03 5.706325912475585938e+01 2.060596275329589844e+01 2.041216343641281128e-01 1.562366604804992676e+00 5.299465060234069824e-01 7.399072051048278809e-01
3.723000000000000000e+03 5.812295532226562500e+01 2.010940742492675781e+01 2.405857890844345093e-01 1.998766064643859863e+00 6.718055605888366699e-01 9.551492929458618164e-01
3.724000000000000000e+03 3.614550399780273438e+01 2.306658172607421875e+01 -3.360221385955810547e-01 -2.687780186533927917e-02 -1.088699847459793091e-01 -6.358759999275207520e-01
3.725000000000000000e+03 4.747236251831054688e+01 2.055184745788574219e+01 -1.601069867610931396e-01 3.594774007797241211e-01 5.981112644076347351e-02 -4.943427443504333496e-01
3.726000000000000000e+03 4.997552108764648438e+01 2.113407707214355469e+01 -1.672649234533309937e-01 4.469378888607025146e-01 8.390188217163085938e-02 -3.263160288333892822e-01
3.727000000000000000e+03 5.542279815673828125e+01 2.188997840881347656e+01 -1.379594486206769943e-02 9.081531763076782227e-01 2.683071792125701904e-01 3.345779776573181152e-01
3.728000000000000000e+03 4.287630844116210938e+01 2.105327987670898438e+01 -2.866104543209075928e-01 1.596490889787673950e-01 -3.808841109275817871e-02 -6.697680950164794922e-01
3.729000000000000000e+03 5.019600677490234375e+01 2.193283271789550781e+01 -2.892603278160095215e-01 3.920823931694030762e-01 3.084661811590194702e-02 -3.427747488021850586e-01
3.730000000000000000e+03 6.445417022705078125e+01 2.327760887145996094e+01 -3.868825733661651611e-01 5.656303405761718750e+00 1.580826282501220703e+00 2.614168882369995117e+00
3.731000000000000000e+03 3.480265808105468750e+01 2.272007369995117188e+01 -2.793213129043579102e-01 -7.451719790697097778e-02 -1.061515584588050842e-01 -6.216195225715637207e-01
3.732000000000000000e+03 3.528108978271484375e+01 2.359320831298828125e+01 -3.373222649097442627e-01 -4.226098582148551941e-02 -1.138749718666076660e-01 -6.033068895339965820e-01
3.733000000000000000e+03 6.712384796142578125e+01 1.856348609924316406e+01 -7.559041380882263184e-01 6.993901729583740234e+00 1.871399402618408203e+00 1.210605621337890625e+00
3.734000000000000000e+03 6.972410583496093750e+01 2.412543296813964844e+01 -1.278593897819519043e+00 1.041288852691650391e+01 2.740288257598876953e+00 2.374809980392456055e-01
3.735000000000000000e+03 6.877499389648437500e+01 2.245118713378906250e+01 -1.290438413619995117e+00 9.128625869750976562e+00 2.351456165313720703e+00 9.339720010757446289e-01
3.736000000000000000e+03 6.741612243652343750e+01 2.125474166870117188e+01 -1.047130465507507324e+00 7.876262664794921875e+00 2.048739671707153320e+00 1.423526763916015625e+00
3.737000000000000000e+03 6.981981658935546875e+01 2.324865722656250000e+01 -1.287663102149963379e+00 9.863054275512695312e+00 2.572617530822753906e+00 3.182251155376434326e-01
3.738000000000000000e+03 6.733132171630859375e+01 1.976686668395996094e+01 -8.925887942314147949e-01 7.381771564483642578e+00 1.946754932403564453e+00 1.278935790061950684e+00
3.739000000000000000e+03 6.279336929321289062e+01 2.129794692993164062e+01 -1.142219752073287964e-01 4.287985324859619141e+00 1.252129077911376953e+00 1.979264974594116211e+00
3.740000000000000000e+03 5.879745101928710938e+01 2.043754577636718750e+01 2.261197715997695923e-01 2.170079946517944336e+00 7.188599109649658203e-01 1.112882494926452637e+00
3.741000000000000000e+03 6.046985244750976562e+01 2.042192840576171875e+01 1.562739610671997070e-01 2.989846944808959961e+00 9.438362717628479004e-01 1.493924140930175781e+00
3.742000000000000000e+03 3.550758743286132812e+01 1.814307212829589844e+01 -8.852196484804153442e-02 -1.190821379423141479e-01 -6.228123232722282410e-02 -6.934443116188049316e-01
3.743000000000000000e+03 3.700391387939453125e+01 2.259514236450195312e+01 -3.318904936313629150e-01 -1.009812578558921814e-02 -1.025965884327888489e-01 -6.580733060836791992e-01
3.744000000000000000e+03 5.989923858642578125e+01 2.111093902587890625e+01 1.743393689393997192e-01 2.528746366500854492e+00 8.109257221221923828e-01 1.402707576751708984e+00
3.745000000000000000e+03 4.167476654052734375e+01 2.218407249450683594e+01 -3.928041756153106689e-01 1.092011183500289917e-01 -8.508091419935226440e-02 -6.803441047668457031e-01
3.746000000000000000e+03 3.822272872924804688e+01 2.299060058593750000e+01 -3.800870180130004883e-01 2.712921239435672760e-02 -1.058873385190963745e-01 -6.648259162902832031e-01
3.747000000000000000e+03 3.642998504638671875e+01 2.993621110916137695e+00 1.999933719635009766e-01 -1.795546524226665497e-02 5.461136996746063232e-02 -4.430615603923797607e-01
3.748000000000000000e+03 3.714415740966796875e+01 4.193611621856689453e+00 2.123791128396987915e-01 5.062912404537200928e-02 7.890247553586959839e-02 -4.638920128345489502e-01
3.749000000000000000e+03 3.647848510742187500e+01 1.779513168334960938e+01 -7.405564934015274048e-02 -7.647842913866043091e-02 -4.516022652387619019e-02 -7.022888660430908203e-01
3.750000000000000000e+03 6.774227905273437500e+01 1.397265052795410156e+01 -3.649949431419372559e-01 6.536001205444335938e+00 1.851301908493041992e+00 7.647398710250854492e-01
3.751000000000000000e+03 3.439514923095703125e+01 2.192502212524414062e+01 -2.407867312431335449e-01 -9.762713313102722168e-02 -1.015241593122482300e-01 -6.334682106971740723e-01
3.752000000000000000e+03 6.485447692871093750e+01 3.840746879577636719e+00 1.445539593696594238e-01 5.238607883453369141e+00 1.614948511123657227e+00 5.139259099960327148e-01
3.753000000000000000e+03 6.811277770996093750e+01 1.848291778564453125e+01 -8.129266500473022461e-01 7.382084369659423828e+00 1.970747232437133789e+00 9.512858390808105469e-01
3.754000000000000000e+03 6.346596145629882812e+01 2.110756492614746094e+01 -2.379472702741622925e-01 4.824532985687255859e+00 1.375975728034973145e+00 2.029594659805297852e+00
3.755000000000000000e+03 5.302380752563476562e+01 2.261249923706054688e+01 -2.867186963558197021e-01 4.909318387508392334e-01 6.126394495368003845e-02 -8.423406630754470825e-02
3.756000000000000000e+03 6.740906524658203125e+01 1.470833206176757812e+01 -4.143098294734954834e-01 6.497503280639648438e+00 1.824958086013793945e+00 8.436331748962402344e-01
3.757000000000000000e+03 3.549895477294921875e+01 1.136939749121665955e-01 1.764087527990341187e-01 -1.123354211449623108e-01 1.922200247645378113e-02 -3.876547217369079590e-01
3.758000000000000000e+03 6.572621154785156250e+01 9.625490188598632812e+00 -2.779957279562950134e-02 5.599952697753906250e+00 1.671645998954772949e+00 6.938204169273376465e-01
3.759000000000000000e+03 6.609879302978515625e+01 8.277503967285156250e+00 6.449643056839704514e-03 5.654739856719970703e+00 1.698356866836547852e+00 6.319292187690734863e-01
3.760000000000000000e+03 3.618497085571289062e+01 1.695623588562011719e+01 -3.975516185164451599e-02 -9.554335474967956543e-02 -4.058955609798431396e-02 -6.980736851692199707e-01
3.761000000000000000e+03 4.603564453125000000e+01 1.946183776855468750e+01 -8.766996860504150391e-02 3.381973505020141602e-01 7.515821605920791626e-02 -5.438711047172546387e-01
3.762000000000000000e+03 6.581408691406250000e+01 1.335841560363769531e+01 -2.058887481689453125e-01 5.752463817596435547e+00 1.663972496986389160e+00 8.898505568504333496e-01
3.763000000000000000e+03 6.559873199462890625e+01 1.097622299194335938e+01 -7.281542569398880005e-02 5.575468540191650391e+00 1.650795936584472656e+00 7.726220488548278809e-01
3.764000000000000000e+03 5.244289779663085938e+01 2.181265449523925781e+01 -1.749250739812850952e-01 5.538107752799987793e-01 1.136657074093818665e-01 -1.097536087036132812e-01
3.765000000000000000e+03 3.900524520874023438e+01 2.312056350708007812e+01 -4.118703305721282959e-01 4.640654474496841431e-02 -1.096391379833221436e-01 -6.639749407768249512e-01
3.766000000000000000e+03 3.947821044921875000e+01 2.236616706848144531e+01 -3.700174987316131592e-01 5.411783233284950256e-02 -9.476990252733230591e-02 -6.830009818077087402e-01
3.767000000000000000e+03 3.570489883422851562e+01 9.653026580810546875e+00 1.421823352575302124e-01 -1.334860920906066895e-01 2.608872950077056885e-03 -5.947309136390686035e-01
3.768000000000000000e+03 3.898995590209960938e+01 1.310249233245849609e+01 1.325493901968002319e-01 9.808140993118286133e-02 6.918924301862716675e-02 -6.358240842819213867e-01
3.769000000000000000e+03 6.412255859375000000e+01 1.361950516700744629e+00 1.797520220279693604e-01 5.043172359466552734e+00 1.566877365112304688e+00 4.496984779834747314e-01
3.770000000000000000e+03 6.487774658203125000e+01 5.311173915863037109e+00 1.243967711925506592e-01 5.252393245697021484e+00 1.613036990165710449e+00 5.575329661369323730e-01
3.771000000000000000e+03 3.668894958496093750e+01 1.204938697814941406e+01 1.176878660917282104e-01 -6.473907083272933960e-02 1.588463969528675079e-02 -6.393270492553710938e-01
3.772000000000000000e+03 3.782916641235351562e+01 1.306687545776367188e+01 1.119871214032173157e-01 1.415169239044189453e-02 3.784164413809776306e-02 -6.492665410041809082e-01
3.773000000000000000e+03 3.499583816528320312e+01 -3.406926155090332031e+00 1.624784916639328003e-01 -1.423798054456710815e-01 6.029603071510791779e-03 -3.186586499214172363e-01
3.774000000000000000e+03 6.425629425048828125e+01 -9.686180114746093750e+00 1.575108021497726440e-01 5.111817359924316406e+00 1.580798506736755371e+00 2.413559556007385254e-01
3.775000000000000000e+03 3.728020858764648438e+01 6.134414672851562500e+00 2.097706347703933716e-01 5.390441045165061951e-02 7.910251617431640625e-02 -5.049695372581481934e-01
3.776000000000000000e+03 3.794263458251953125e+01 1.483560848236083984e+01 5.741293728351593018e-02 8.370874449610710144e-03 1.973514258861541748e-02 -6.767781972885131836e-01
3.777000000000000000e+03 3.680934143066406250e+01 1.860164070129394531e+01 -1.110965013504028320e-01 -5.518304929137229919e-02 -4.988386482000350952e-02 -7.039914131164550781e-01
3.778000000000000000e+03 3.508428192138671875e+01 -6.322389602661132812e+00 1.512971520423889160e-01 -1.089284569025039673e-01 1.271060947328805923e-02 -2.752182185649871826e-01
3.779000000000000000e+03 6.421680450439453125e+01 -1.172107315063476562e+01 1.372525990009307861e-01 5.115064144134521484e+00 1.575695037841796875e+00 2.206383347511291504e-01
3.780000000000000000e+03 6.548023223876953125e+01 7.515365123748779297e+00 5.118415877223014832e-02 5.452558040618896484e+00 1.651122570037841797e+00 6.276034712791442871e-01
3.781000000000000000e+03 6.637646484375000000e+01 6.886565208435058594e+00 4.113973304629325867e-02 5.692197322845458984e+00 1.720001220703125000e+00 5.819001197814941406e-01
3.782000000000000000e+03 6.478670501708984375e+01 -5.929717540740966797e+00 1.623713523149490356e-01 5.210133075714111328e+00 1.611751317977905273e+00 2.949593365192413330e-01
3.783000000000000000e+03 6.462483978271484375e+01 -3.649142980575561523e-01 1.787717640399932861e-01 5.153519153594970703e+00 1.599687337875366211e+00 4.121290147304534912e-01
3.784000000000000000e+03 6.759252929687500000e+01 -6.208050251007080078e+00 1.146789342164993286e-01 5.823080062866210938e+00 1.781327724456787109e+00 2.918649911880493164e-01
3.785000000000000000e+03 6.444096374511718750e+01 -7.774620532989501953e+00 1.594764739274978638e-01 5.140531063079833984e+00 1.590002179145812988e+00 2.770065069198608398e-01
3.786000000000000000e+03 3.647262954711914062e+01 -1.365026569366455078e+01 1.326609849929809570e-01 1.716290265321731567e-01 9.128700196743011475e-02 -1.588974297046661377e-01
3.787000000000000000e+03 3.358757781982421875e+01 -9.156949043273925781e+00 1.126967221498489380e-01 -3.212728798389434814e-01 -6.257284432649612427e-02 -2.377140820026397705e-01
3.788000000000000000e+03 6.546965026855468750e+01 -1.969413518905639648e+00 1.601414680480957031e-01 5.353653430938720703e+00 1.654138445854187012e+00 3.775475323200225830e-01
3.789000000000000000e+03 6.508598327636718750e+01 -4.169137477874755859e+00 1.654539406299591064e-01 5.249183654785156250e+00 1.624391317367553711e+00 3.343240320682525635e-01
3.790000000000000000e+03 6.498426818847656250e+01 -3.089692592620849609e+00 1.680090278387069702e-01 5.226001739501953125e+00 1.618203282356262207e+00 3.488019704818725586e-01
3.791000000000000000e+03 6.310021972656250000e+01 -3.724418878555297852e+00 2.058640718460083008e-01 4.841006278991699219e+00 1.514061093330383301e+00 3.370237946510314941e-01
3.792000000000000000e+03 6.608029937744140625e+01 -7.919879436492919922e+00 1.335354000329971313e-01 5.498400688171386719e+00 1.689580798149108887e+00 2.733336389064788818e-01
3.793000000000000000e+03 6.156990051269531250e+01 -1.642622566223144531e+01 1.370780616998672485e-01 4.577995300292968750e+00 1.414521932601928711e+00 1.487932056188583374e-01
3.794000000000000000e+03 6.613529205322265625e+01 -1.362835025787353516e+01 1.088751479983329773e-01 5.505269050598144531e+00 1.684243321418762207e+00 1.980250775814056396e-01
3.795000000000000000e+03 3.081947708129882812e+01 -2.747658729553222656e+01 3.050041943788528442e-02 -6.970549821853637695e-01 -1.999663561582565308e-01 -7.051678746938705444e-02
3.796000000000000000e+03 3.364573669433593750e+01 -2.448004722595214844e+01 6.883855164051055908e-02 -2.534061670303344727e-01 -5.537028238177299500e-02 -8.621561527252197266e-02
3.797000000000000000e+03 6.485693359375000000e+01 -2.218199920654296875e+01 8.591589331626892090e-02 5.206779956817626953e+00 1.587808728218078613e+00 1.090631112456321716e-01
3.798000000000000000e+03 6.706081390380859375e+01 -1.663626480102539062e+01 8.501885086297988892e-02 5.637998580932617188e+00 1.716905236244201660e+00 1.693409979343414307e-01
3.799000000000000000e+03 6.612633514404296875e+01 -2.929568290710449219e+01 2.398696728050708771e-02 5.473376750946044922e+00 1.649209141731262207e+00 4.353648796677589417e-02
3.800000000000000000e+03 2.989043235778808594e+01 -3.219374084472656250e+01 2.152377367019653320e-02 -8.330894708633422852e-01 -2.434697151184082031e-01 -2.502320893108844757e-02
3.801000000000000000e+03 2.969680213928222656e+01 -3.006547546386718750e+01 8.670755662024021149e-03 -8.559678196907043457e-01 -2.541891038417816162e-01 -6.270752102136611938e-02
3.802000000000000000e+03 6.693292236328125000e+01 2.406122970581054688e+01 -1.180163621902465820e+00 8.762190818786621094e+00 2.274608135223388672e+00 2.236467838287353516e+00
3.803000000000000000e+03 6.615216064453125000e+01 2.530968093872070312e+01 -8.748131990432739258e-01 8.410384178161621094e+00 2.260671377182006836e+00 3.114810228347778320e+00
3.804000000000000000e+03 6.675928497314453125e+01 2.505465698242187500e+01 -1.123727560043334961e+00 9.196621894836425781e+00 2.421868324279785156e+00 2.670506000518798828e+00
3.805000000000000000e+03 6.855535125732421875e+01 2.523976135253906250e+01 -1.386303424835205078e+00 1.110167503356933594e+01 2.914611577987670898e+00 1.021327257156372070e+00
3.806000000000000000e+03 4.818395614624023438e+01 2.083052062988281250e+01 -1.890085488557815552e-01 3.627014756202697754e-01 5.210787430405616760e-02 -4.534960389137268066e-01
3.807000000000000000e+03 4.650732040405273438e+01 2.101478004455566406e+01 -2.545898556709289551e-01 2.794838845729827881e-01 7.468205876648426056e-03 -5.541649460792541504e-01
3.808000000000000000e+03 6.646715545654296875e+01 2.447063636779785156e+01 -1.019043207168579102e+00 8.368007659912109375e+00 2.204689264297485352e+00 2.625011205673217773e+00
3.809000000000000000e+03 4.202403259277343750e+01 2.100273895263671875e+01 -2.772973179817199707e-01 1.333659440279006958e-01 -4.317941144108772278e-02 -6.837787032127380371e-01
3.810000000000000000e+03 6.508890533447265625e+01 2.318880462646484375e+01 -5.904844999313354492e-01 6.394855499267578125e+00 1.741311311721801758e+00 2.540201902389526367e+00
3.811000000000000000e+03 4.111755371093750000e+01 2.136994552612304688e+01 -3.048585355281829834e-01 1.021632030606269836e-01 -6.080860272049903870e-02 -6.914536952972412109e-01
3.812000000000000000e+03 5.190537261962890625e+01 2.098048019409179688e+01 -7.046771794557571411e-02 6.196143627166748047e-01 1.647440046072006226e-01 -1.280343085527420044e-01
3.813000000000000000e+03 6.828351593017578125e+01 2.460116958618164062e+01 -1.398515105247497559e+00 1.033724403381347656e+01 2.681618690490722656e+00 1.313166737556457520e+00
3.814000000000000000e+03 5.078850936889648438e+01 1.940382385253906250e+01 6.941433995962142944e-02 6.809043288230895996e-01 2.250955998897552490e-01 -1.828582882881164551e-01
3.815000000000000000e+03 5.670144271850585938e+01 2.144413948059082031e+01 1.156057938933372498e-01 1.275305271148681641e+00 4.172733128070831299e-01 6.290535926818847656e-01
3.816000000000000000e+03 5.456821823120117188e+01 2.137343215942382812e+01 6.119326222687959671e-03 8.639031052589416504e-01 2.610067129135131836e-01 2.224317789077758789e-01
3.817000000000000000e+03 6.783710479736328125e+01 2.202003669738769531e+01 -1.198189020156860352e+00 8.502017974853515625e+00 2.191148757934570312e+00 1.356589198112487793e+00
3.818000000000000000e+03 6.534701538085937500e+01 2.384634780883789062e+01 -6.560505032539367676e-01 6.784058094024658203e+00 1.838402271270751953e+00 2.701063156127929688e+00
3.819000000000000000e+03 4.927868652343750000e+01 2.125858688354492188e+01 -2.254658788442611694e-01 3.869113326072692871e-01 4.843363910913467407e-02 -4.007155597209930420e-01
3.820000000000000000e+03 3.566938018798828125e+01 2.228721809387207031e+01 -2.858288288116455078e-01 -5.229017883539199829e-02 -1.014357060194015503e-01 -6.461539864540100098e-01
3.821000000000000000e+03 4.108241271972656250e+01 2.278979873657226562e+01 -4.372439384460449219e-01 9.501983225345611572e-02 -1.026672348380088806e-01 -6.744433045387268066e-01
3.822000000000000000e+03 6.435963439941406250e+01 2.251904296875000000e+01 -4.151878654956817627e-01 5.572299957275390625e+00 1.547133684158325195e+00 2.387598991394042969e+00
3.823000000000000000e+03 6.501290893554687500e+01 2.242663574218750000e+01 -5.746054649353027344e-01 6.143915176391601562e+00 1.670792937278747559e+00 2.317950010299682617e+00
3.824000000000000000e+03 3.792356109619140625e+01 2.217946243286132812e+01 -3.270185589790344238e-01 1.211628224700689316e-02 -9.447068721055984497e-02 -6.759815216064453125e-01
3.825000000000000000e+03 6.839196777343750000e+01 2.168217277526855469e+01 -1.202429771423339844e+00 8.597024917602539062e+00 2.218378305435180664e+00 1.076940178871154785e+00
3.826000000000000000e+03 6.895054626464843750e+01 2.333399200439453125e+01 -1.359855651855468750e+00 9.721516609191894531e+00 2.508498430252075195e+00 8.539313673973083496e-01
3.827000000000000000e+03 6.485882568359375000e+01 1.919258117675781250e+01 -4.586181342601776123e-01 5.756530284881591797e+00 1.589373707771301270e+00 1.624029040336608887e+00
3.828000000000000000e+03 4.121586608886718750e+01 1.985102272033691406e+01 -1.907979100942611694e-01 1.210029497742652893e-01 -2.093848586082458496e-02 -6.952674388885498047e-01
3.829000000000000000e+03 4.522607040405273438e+01 1.975483131408691406e+01 -1.347004324197769165e-01 2.882717251777648926e-01 4.607139155268669128e-02 -5.869792103767395020e-01
3.830000000000000000e+03 6.764702606201171875e+01 1.899199485778808594e+01 -8.353521823883056641e-01 7.304055213928222656e+00 1.940610885620117188e+00 1.116448044776916504e+00
3.831000000000000000e+03 6.588044738769531250e+01 2.057311630249023438e+01 -7.231563329696655273e-01 6.637103080749511719e+00 1.774183988571166992e+00 1.737624287605285645e+00
3.832000000000000000e+03 6.652547454833984375e+01 1.459913253784179688e+01 -3.567405641078948975e-01 6.152009487152099609e+00 1.738580703735351562e+00 9.441897273063659668e-01
3.833000000000000000e+03 3.550307846069335938e+01 2.023158264160156250e+01 -1.793404668569564819e-01 -9.267280995845794678e-02 -8.160398900508880615e-02 -6.795397400856018066e-01
3.834000000000000000e+03 5.937187957763671875e+01 2.083615875244140625e+01 2.032857686281204224e-01 2.346742153167724609e+00 7.650083899497985840e-01 1.259391069412231445e+00
3.835000000000000000e+03 3.654480361938476562e+01 7.219814300537109375e+00 1.820904165506362915e-01 -3.869834914803504944e-02 4.301762208342552185e-02 -5.397673845291137695e-01
3.836000000000000000e+03 3.679822921752929688e+01 1.097756958007812500e+01 1.413462460041046143e-01 -4.574236273765563965e-02 2.868116460740566254e-02 -6.173574924468994141e-01
3.837000000000000000e+03 5.589203262329101562e+01 2.104743957519531250e+01 1.208733841776847839e-01 1.170384407043457031e+00 3.873773515224456787e-01 4.764483571052551270e-01
3.838000000000000000e+03 3.687520599365234375e+01 2.058682441711425781e+01 -2.149911224842071533e-01 -3.544491529464721680e-02 -7.513081282377243042e-02 -6.927296519279479980e-01
3.839000000000000000e+03 3.591111755371093750e+01 1.897738456726074219e+01 -1.239032447338104248e-01 -9.233581274747848511e-02 -6.487172096967697144e-02 -6.951188445091247559e-01
3.840000000000000000e+03 4.020658111572265625e+01 2.182106971740722656e+01 -3.357937335968017578e-01 7.358122617006301880e-02 -7.866375148296356201e-02 -6.931606531143188477e-01
3.841000000000000000e+03 4.029104614257812500e+01 2.261849784851074219e+01 -4.071517884731292725e-01 7.637540996074676514e-02 -9.923291206359863281e-02 -6.784638166427612305e-01
3.842000000000000000e+03 6.517535400390625000e+01 1.197655487060546875e+01 -1.028330996632575989e-01 5.477498054504394531e+00 1.612399458885192871e+00 8.473044633865356445e-01
3.843000000000000000e+03 3.900175857543945312e+01 1.393798923492431641e+01 1.075854599475860596e-01 8.750535547733306885e-02 5.852724239230155945e-02 -6.512660980224609375e-01
3.844000000000000000e+03 3.785606002807617188e+01 1.396649837493896484e+01 8.584479987621307373e-02 6.959967315196990967e-03 2.784142829477787018e-02 -6.648992896080017090e-01
3.845000000000000000e+03 6.425937652587890625e+01 9.496729850769042969e+00 5.124732479453086853e-02 5.102300643920898438e+00 1.546064496040344238e+00 7.319990992546081543e-01
3.846000000000000000e+03 6.516842651367187500e+01 8.889493942260742188e+00 2.079330570995807648e-02 5.390169620513916016e+00 1.623288750648498535e+00 6.933792233467102051e-01
3.847000000000000000e+03 6.246065902709960938e+01 -7.027215957641601562e-01 2.238535732030868530e-01 4.669819831848144531e+00 1.468101978302001953e+00 3.870258629322052002e-01
3.848000000000000000e+03 6.484718322753906250e+01 2.321270465850830078e+00 1.652682125568389893e-01 5.223949432373046875e+00 1.616765379905700684e+00 4.688771069049835205e-01
3.849000000000000000e+03 3.700661468505859375e+01 9.891614913940429688e+00 1.671269685029983521e-01 -1.969206519424915314e-02 4.423047229647636414e-02 -5.930138826370239258e-01
3.850000000000000000e+03 3.800664520263671875e+01 1.115252876281738281e+01 1.649676412343978882e-01 5.073700472712516785e-02 6.471139192581176758e-02 -6.080960035324096680e-01
3.851000000000000000e+03 6.709447479248046875e+01 1.612091636657714844e+01 -5.082792639732360840e-01 6.513260364532470703e+00 1.801494240760803223e+00 9.791568517684936523e-01
3.852000000000000000e+03 3.824315261840820312e+01 5.203110694885253906e+00 2.344745993614196777e-01 1.694955080747604370e-01 1.211910322308540344e-01 -4.708120226860046387e-01
3.853000000000000000e+03 6.394042205810546875e+01 -2.687980651855468750e+00 1.888272613286972046e-01 5.022466182708740234e+00 1.563387989997863770e+00 3.562624454498291016e-01
3.854000000000000000e+03 3.617595672607421875e+01 -1.193366050720214844e+00 1.887911707162857056e-01 3.984412644058465958e-03 5.783267319202423096e-02 -3.549645245075225830e-01
3.855000000000000000e+03 6.143475723266601562e+01 -9.287912368774414062e+00 1.985490471124649048e-01 4.518956184387207031e+00 1.415251612663269043e+00 2.285490781068801880e-01
3.856000000000000000e+03 6.543112182617187500e+01 -6.970362663269042969e+00 1.557402461767196655e-01 5.348021030426025391e+00 1.651128411293029785e+00 2.848708629608154297e-01
3.857000000000000000e+03 6.407897949218750000e+01 4.500699996948242188e+00 1.581909060478210449e-01 5.037326335906982422e+00 1.558655261993408203e+00 5.337198376655578613e-01
3.858000000000000000e+03 6.564871215820312500e+01 6.101704597473144531e+00 8.245262503623962402e-02 5.473455905914306641e+00 1.666772603988647461e+00 5.745817422866821289e-01
3.859000000000000000e+03 6.429579925537109375e+01 -1.556384205818176270e+00 1.870487630367279053e-01 5.096942424774169922e+00 1.585197329521179199e+00 3.863783478736877441e-01
3.860000000000000000e+03 6.410700225830078125e+01 -1.394252300262451172e+01 1.315296441316604614e-01 5.103783607482910156e+00 1.570593953132629395e+00 1.926793903112411499e-01
3.861000000000000000e+03 3.647430419921875000e+01 -4.857959747314453125e+00 1.747431755065917969e-01 6.313022971153259277e-02 7.136202603578567505e-02 -2.836593389511108398e-01
3.862000000000000000e+03 3.665831375122070312e+01 -3.481383800506591797e+00 1.886299550533294678e-01 8.871935307979583740e-02 8.320479094982147217e-02 -3.110545277595520020e-01
3.863000000000000000e+03 3.359438705444335938e+01 -6.485965251922607422e+00 1.264197975397109985e-01 -3.171841800212860107e-01 -5.722931399941444397e-02 -2.788403034210205078e-01
3.864000000000000000e+03 3.732642364501953125e+01 -3.769916594028472900e-01 2.154068201780319214e-01 1.461521387100219727e-01 1.084676906466484070e-01 -3.599388599395751953e-01
3.865000000000000000e+03 6.628588867187500000e+01 -1.813969230651855469e+01 9.289864450693130493e-02 5.517957210540771484e+00 1.683256745338439941e+00 1.536262631416320801e-01
3.866000000000000000e+03 3.531460189819335938e+01 -9.083120346069335938e+00 1.454553902149200439e-01 -5.609711632132530212e-02 2.680748328566551208e-02 -2.324825972318649292e-01
3.867000000000000000e+03 3.694106292724609375e+01 -8.876705169677734375e+00 1.720426231622695923e-01 2.014984488487243652e-01 1.120623201131820679e-01 -2.188572287559509277e-01
3.868000000000000000e+03 3.904792022705078125e+01 1.476080894470214844e+01 7.768211513757705688e-02 7.823383808135986328e-02 4.677478596568107605e-02 -6.667636036872863770e-01
3.869000000000000000e+03 3.808289718627929688e+01 1.568464088439941406e+01 2.843592129647731781e-02 1.040685828775167465e-02 1.165283378213644028e-02 -6.866419911384582520e-01
3.870000000000000000e+03 6.123058700561523438e+01 -2.597953796386718750e+01 8.516173809766769409e-02 4.582712650299072266e+00 1.400362253189086914e+00 9.817150235176086426e-02
3.871000000000000000e+03 6.090457916259765625e+01 -2.314052391052246094e+01 1.015258133411407471e-01 4.519754409790039062e+00 1.386384129524230957e+00 1.151358261704444885e-01
3.872000000000000000e+03 6.273598098754882812e+01 -7.503022193908691406e+00 1.852532476186752319e-01 4.760730743408203125e+00 1.483795166015625000e+00 2.666982710361480713e-01
3.873000000000000000e+03 3.493353652954101562e+01 -1.891025924682617188e+01 8.351258933544158936e-02 -7.176104187965393066e-02 3.525463631376624107e-03 -1.231149211525917053e-01
3.874000000000000000e+03 6.288985824584960938e+01 -2.143426132202148438e+01 1.003545597195625305e-01 4.872849941253662109e+00 1.491961359977722168e+00 1.171738281846046448e-01
3.875000000000000000e+03 6.548267364501953125e+01 -1.991441535949707031e+01 8.493480831384658813e-02 5.332024574279785156e+00 1.625087738037109375e+00 1.342721283435821533e-01
3.876000000000000000e+03 3.899448394775390625e+01 8.318686485290527344e+00 2.298226803541183472e-01 1.868315786123275757e-01 1.249962821602821350e-01 -5.279032588005065918e-01
3.877000000000000000e+03 3.858966827392578125e+01 9.227605819702148438e+00 2.131817638874053955e-01 1.387969702482223511e-01 1.055936217308044434e-01 -5.569300651550292969e-01
3.878000000000000000e+03 6.405512237548828125e+01 -1.920463943481445312e+01 1.108477190136909485e-01 5.124436855316162109e+00 1.570585370063781738e+00 1.380727887153625488e-01
3.879000000000000000e+03 6.564634704589843750e+01 2.305013275146484375e+01 -7.632887959480285645e-01 6.996852397918701172e+00 1.870069026947021484e+00 2.388391733169555664e+00
3.880000000000000000e+03 5.914022827148437500e+01 1.964058113098144531e+01 2.392245531082153320e-01 2.496430873870849609e+00 8.206966519355773926e-01 1.174050450325012207e+00
3.881000000000000000e+03 6.187319564819335938e+01 2.089172363281250000e+01 2.124258689582347870e-02 3.700671911239624023e+00 1.116574287414550781e+00 1.778516411781311035e+00
3.882000000000000000e+03 6.899301147460937500e+01 2.422603034973144531e+01 -1.367633342742919922e+00 1.036157131195068359e+01 2.698181390762329102e+00 7.552936673164367676e-01
3.883000000000000000e+03 6.913488006591796875e+01 2.493629837036132812e+01 -1.323110222816467285e+00 1.099482345581054688e+01 2.901513814926147461e+00 5.636312961578369141e-01
3.884000000000000000e+03 6.731388092041015625e+01 2.459068679809570312e+01 -1.296094417572021484e+00 9.611606597900390625e+00 2.494653463363647461e+00 2.090435981750488281e+00
3.885000000000000000e+03 4.360376739501953125e+01 1.933530998229980469e+01 -1.290360987186431885e-01 2.271966338157653809e-01 2.944816276431083679e-02 -6.416805982589721680e-01
3.886000000000000000e+03 4.679162216186523438e+01 2.032433891296386719e+01 -1.638678610324859619e-01 3.257952332496643066e-01 4.857821017503738403e-02 -5.237881541252136230e-01
3.887000000000000000e+03 5.976253890991210938e+01 1.980068206787109375e+01 2.073962986469268799e-01 2.735273599624633789e+00 8.828009366989135742e-01 1.312719106674194336e+00
3.888000000000000000e+03 4.287786483764648438e+01 2.017291641235351562e+01 -2.039329409599304199e-01 1.729779988527297974e-01 -9.286482818424701691e-03 -6.640706658363342285e-01
3.889000000000000000e+03 5.203333663940429688e+01 1.971010971069335938e+01 8.592192828655242920e-02 7.828404307365417480e-01 2.606287002563476562e-01 -5.829694494605064392e-02
3.890000000000000000e+03 4.773902893066406250e+01 1.976610755920410156e+01 -7.522062957286834717e-02 4.199699163436889648e-01 1.034247875213623047e-01 -4.521519839763641357e-01
3.891000000000000000e+03 6.425359344482421875e+01 2.176956939697265625e+01 -4.000410139560699463e-01 5.446322441101074219e+00 1.513884425163269043e+00 2.200775146484375000e+00
3.892000000000000000e+03 5.003867340087890625e+01 1.992220306396484375e+01 -1.642239466309547424e-02 5.564405918121337891e-01 1.620054543018341064e-01 -2.812467217445373535e-01
3.893000000000000000e+03 5.064499282836914062e+01 2.071392440795898438e+01 -9.384112805128097534e-02 5.243294239044189453e-01 1.291465014219284058e-01 -2.530796229839324951e-01
3.894000000000000000e+03 4.201162338256835938e+01 2.012829589843750000e+01 -2.137231081724166870e-01 1.455468982458114624e-01 -2.045286633074283600e-02 -6.802603602409362793e-01
3.895000000000000000e+03 3.769734573364257812e+01 2.013192939758300781e+01 -1.981900781393051147e-01 -8.711609989404678345e-03 -6.207050383090972900e-02 -7.040928006172180176e-01
3.896000000000000000e+03 5.675774765014648438e+01 1.941477966308593750e+01 2.700127661228179932e-01 1.707186460494995117e+00 5.931597352027893066e-01 7.072870731353759766e-01
3.897000000000000000e+03 5.743748474121093750e+01 1.977868652343750000e+01 2.577052116394042969e-01 1.842605233192443848e+00 6.300931572914123535e-01 8.191789984703063965e-01
3.898000000000000000e+03 4.423898315429687500e+01 1.922152519226074219e+01 -1.034866049885749817e-01 2.714800834655761719e-01 5.039804428815841675e-02 -6.147670745849609375e-01
3.899000000000000000e+03 4.689740753173828125e+01 1.946659088134765625e+01 -6.887708604335784912e-02 3.853215873241424561e-01 9.493335336446762085e-02 -4.951193928718566895e-01
3.900000000000000000e+03 6.403370666503906250e+01 1.182086372375488281e+01 -1.967840082943439484e-02 5.079433917999267578e+00 1.517926692962646484e+00 8.709394335746765137e-01
3.901000000000000000e+03 6.628073883056640625e+01 2.000203132629394531e+01 -7.576299309730529785e-01 6.798943519592285156e+00 1.812394022941589355e+00 1.584973216056823730e+00
3.902000000000000000e+03 6.491876983642578125e+01 2.167670822143554688e+01 -5.569095611572265625e-01 6.024430751800537109e+00 1.640256285667419434e+00 2.159680604934692383e+00
3.903000000000000000e+03 5.387167739868164062e+01 2.069335746765136719e+01 5.349911376833915710e-02 8.724297881126403809e-01 2.777786850929260254e-01 1.475271284580230713e-01
3.904000000000000000e+03 6.562527465820312500e+01 2.155822563171386719e+01 -7.261713147163391113e-01 6.642795085906982422e+00 1.774987101554870605e+00 2.014511585235595703e+00
3.905000000000000000e+03 6.570364379882812500e+01 2.234907913208007812e+01 -7.766501307487487793e-01 6.869196891784667969e+00 1.827764034271240234e+00 2.193888187408447266e+00
3.906000000000000000e+03 6.680513763427734375e+01 2.186774444580078125e+01 -9.970520734786987305e-01 7.657662868499755859e+00 1.998183250427246094e+00 1.781853556632995605e+00
3.907000000000000000e+03 6.162366104125976562e+01 2.008562278747558594e+01 3.778362646698951721e-02 3.660175800323486328e+00 1.109387874603271484e+00 1.631874918937683105e+00
3.908000000000000000e+03 6.331042861938476562e+01 2.027436637878417969e+01 -2.097643315792083740e-01 4.758459568023681641e+00 1.364608526229858398e+00 1.844559073448181152e+00
3.909000000000000000e+03 6.458196258544921875e+01 8.132651329040527344e+00 7.454196363687515259e-02 5.193792343139648438e+00 1.580500245094299316e+00 6.641731858253479004e-01
3.910000000000000000e+03 6.406568145751953125e+01 5.959552288055419922e+00 1.387162506580352783e-01 5.034225940704345703e+00 1.551882743835449219e+00 5.836201310157775879e-01
3.911000000000000000e+03 3.913536834716796875e+01 1.557329559326171875e+01 4.425875097513198853e-02 7.782548666000366211e-02 3.662526980042457581e-02 -6.775033473968505859e-01
3.912000000000000000e+03 3.950200653076171875e+01 1.723731803894042969e+01 -2.729905210435390472e-02 7.787191867828369141e-02 1.517186034470796585e-02 -6.933017373085021973e-01
3.913000000000000000e+03 5.514416122436523438e+01 2.058169174194335938e+01 1.364144533872604370e-01 1.104977011680603027e+00 3.724174201488494873e-01 3.660160601139068604e-01
3.914000000000000000e+03 5.259217834472656250e+01 2.050107002258300781e+01 1.716278120875358582e-02 7.383459210395812988e-01 2.266526073217391968e-01 -2.151731029152870178e-02
3.915000000000000000e+03 3.779577255249023438e+01 7.814174175262451172e+00 2.065925896167755127e-01 8.292711526155471802e-02 8.685591071844100952e-02 -5.374764204025268555e-01
3.916000000000000000e+03 6.526465606689453125e+01 1.828093528747558594e+01 -4.688712060451507568e-01 5.901008129119873047e+00 1.629641056060791016e+00 1.457793831825256348e+00
3.917000000000000000e+03 5.633986282348632812e+01 2.022510337829589844e+01 2.108864039182662964e-01 1.446272969245910645e+00 4.971477985382080078e-01 6.033807396888732910e-01
3.918000000000000000e+03 3.826059722900390625e+01 1.652101898193359375e+01 -5.595243070274591446e-03 1.592353172600269318e-02 3.098486224189400673e-03 -6.960560679435729980e-01
3.919000000000000000e+03 3.845471572875976562e+01 3.405581951141357422e+00 2.521285712718963623e-01 2.369920015335083008e-01 1.467361748218536377e-01 -4.254569113254547119e-01
3.920000000000000000e+03 6.387054824829101562e+01 1.086348628997802734e+01 2.258888818323612213e-02 5.009746074676513672e+00 1.509700536727905273e+00 8.118443489074707031e-01
3.921000000000000000e+03 6.394947814941406250e+01 7.372123241424560547e+00 1.152698174118995667e-01 5.007292747497558594e+00 1.536768794059753418e+00 6.389061212539672852e-01
3.922000000000000000e+03 4.052363586425781250e+01 1.082043075561523438e+01 2.268595844507217407e-01 2.764617502689361572e-01 1.509964019060134888e-01 -5.511543750762939453e-01
3.923000000000000000e+03 6.322321701049804688e+01 2.100154876708984375e+00 2.075789868831634521e-01 4.824179172515869141e+00 1.509527325630187988e+00 4.611691832542419434e-01
3.924000000000000000e+03 6.480205535888671875e+01 6.743377208709716797e+00 9.970901906490325928e-02 5.244456291198730469e+00 1.603249549865722656e+00 6.067945361137390137e-01
3.925000000000000000e+03 6.127404022216796875e+01 -4.560088634490966797e+00 2.417463809251785278e-01 4.452399253845214844e+00 1.408243775367736816e+00 3.088964521884918213e-01
3.926000000000000000e+03 3.805391693115234375e+01 -3.979449510574340820e+00 2.167745232582092285e-01 2.930094301700592041e-01 1.529351770877838135e-01 -2.845766544342041016e-01
3.927000000000000000e+03 3.682962417602539062e+01 6.172316670417785645e-01 2.075189948081970215e-01 6.705343723297119141e-02 8.237172663211822510e-02 -3.896899521350860596e-01
3.928000000000000000e+03 3.871459197998046875e+01 1.588868141174316406e+00 2.539170086383819580e-01 2.949318885803222656e-01 1.646546721458435059e-01 -3.807325363159179688e-01
3.929000000000000000e+03 3.825070571899414062e+01 1.017905902862548828e+01 1.875219941139221191e-01 9.036342054605484009e-02 8.336561918258666992e-02 -5.829808115959167480e-01
3.930000000000000000e+03 6.312565612792968750e+01 -5.634220123291015625e+00 1.890453994274139404e-01 4.842580795288085938e+00 1.509487867355346680e+00 3.033649921417236328e-01
3.931000000000000000e+03 4.055099487304687500e+01 2.048494148254394531e+01 -2.344466149806976318e-01 9.426312148571014404e-02 -4.205504804849624634e-02 -6.995895504951477051e-01
3.932000000000000000e+03 4.286796569824218750e+01 1.926406669616699219e+01 -1.324118822813034058e-01 1.853791028261184692e-01 1.589016243815422058e-02 -6.558158993721008301e-01
3.933000000000000000e+03 6.715823364257812500e+01 1.731943321228027344e+01 -6.323752999305725098e-01 6.773625850677490234e+00 1.842375159263610840e+00 1.069341659545898438e+00
3.934000000000000000e+03 6.229160690307617188e+01 1.234316349029541016e+00 2.258500456809997559e-01 4.563961982727050781e+00 1.436943650245666504e+00 4.323382973670959473e-01
3.935000000000000000e+03 6.337199020385742188e+01 3.096562325954437256e-01 2.018199563026428223e-01 4.869544029235839844e+00 1.521409153938293457e+00 4.175346791744232178e-01
3.936000000000000000e+03 3.602469253540039062e+01 2.103515052795410156e+01 -2.278710305690765381e-01 -6.069055572152137756e-02 -8.656847476959228516e-02 -6.762521266937255859e-01
3.937000000000000000e+03 6.591638183593750000e+01 1.605661010742187500e+01 -3.971405327320098877e-01 6.027730464935302734e+00 1.689177036285400391e+00 1.102428555488586426e+00
3.938000000000000000e+03 6.548665618896484375e+01 1.444081211090087891e+01 -2.494380325078964233e-01 5.720753669738769531e+00 1.641394615173339844e+00 1.005777120590209961e+00
3.939000000000000000e+03 6.378740310668945312e+01 -6.708682060241699219e+00 1.717257201671600342e-01 5.006811141967773438e+00 1.553561091423034668e+00 2.819562256336212158e-01
3.940000000000000000e+03 6.406774139404296875e+01 -4.790488719940185547e+00 1.821870505809783936e-01 5.064816474914550781e+00 1.574101090431213379e+00 3.083527684211730957e-01
3.941000000000000000e+03 4.212270355224609375e+01 1.926635360717773438e+01 -1.262689381837844849e-01 1.749913096427917480e-01 1.461671013385057449e-02 -6.730086207389831543e-01
3.942000000000000000e+03 6.291822814941406250e+01 -1.520381069183349609e+01 1.312282383441925049e-01 4.873464107513427734e+00 1.501407742500305176e+00 1.643230915069580078e-01
3.943000000000000000e+03 3.637015533447265625e+01 1.979198646545410156e+01 -1.673142015933990479e-01 -6.365918368101119995e-02 -6.929201632738113403e-02 -6.956657171249389648e-01
3.944000000000000000e+03 3.844733810424804688e+01 1.961913299560546875e+01 -1.707847565412521362e-01 1.996663957834243774e-02 -4.524543508887290955e-02 -7.081718444824218750e-01
3.945000000000000000e+03 6.128984069824218750e+01 -6.991994857788085938e+00 2.133186459541320801e-01 4.471747398376464844e+00 1.405519723892211914e+00 2.618138790130615234e-01
3.946000000000000000e+03 3.809154510498046875e+01 -1.693882179260253906e+01 1.334611177444458008e-01 4.562247991561889648e-01 1.769057810306549072e-01 -1.067168265581130981e-01
3.947000000000000000e+03 3.650545120239257812e+01 -6.182765960693359375e+00 1.722805798053741455e-01 8.846247941255569458e-02 7.822291553020477295e-02 -2.702001035213470459e-01
3.948000000000000000e+03 3.784941482543945312e+01 -6.076786041259765625e+00 1.892060488462448120e-01 2.655178606510162354e-01 1.364171802997589111e-01 -2.498376816511154175e-01
3.949000000000000000e+03 3.527878952026367188e+01 -1.290922355651855469e+01 1.217823699116706848e-01 -2.006943896412849426e-02 3.051387891173362732e-02 -1.779704988002777100e-01
3.950000000000000000e+03 6.268830871582031250e+01 -1.803143692016601562e+01 1.237191334366798401e-01 4.827462196350097656e+00 1.485354423522949219e+00 1.314903199672698975e-01
3.951000000000000000e+03 3.346704483032226562e+01 -2.040904808044433594e+01 7.021711021661758423e-02 -3.107903003692626953e-01 -7.217196375131607056e-02 -1.119792312383651733e-01
3.952000000000000000e+03 3.733371734619140625e+01 -1.826375389099121094e+01 1.182722970843315125e-01 3.452323675155639648e-01 1.390514075756072998e-01 -1.091146469116210938e-01
3.953000000000000000e+03 4.012734603881835938e+01 1.475255298614501953e+01 9.627620130777359009e-02 1.530895978212356567e-01 7.480973750352859497e-02 -6.500974893569946289e-01
3.954000000000000000e+03 3.923354721069335938e+01 6.073453426361083984e+00 2.537176907062530518e-01 2.649811208248138428e-01 1.556096524000167847e-01 -4.677750766277313232e-01
3.955000000000000000e+03 3.840708541870117188e+01 6.884205341339111328e+00 2.292607426643371582e-01 1.563527137041091919e-01 1.156840398907661438e-01 -5.062332749366760254e-01
3.956000000000000000e+03 6.240634918212890625e+01 -1.163616847991943359e+01 1.613226085901260376e-01 4.723210334777832031e+00 1.465359926223754883e+00 2.067165523767471313e-01
3.957000000000000000e+03 3.698132324218750000e+01 -1.591565895080566406e+01 1.262388676404953003e-01 2.836584746837615967e-01 1.229692026972770691e-01 -1.285239458084106445e-01
3.958000000000000000e+03 3.888605499267578125e+01 -3.050434827804565430e+00 2.264233976602554321e-01 3.899822533130645752e-01 1.849216967821121216e-01 -2.877433598041534424e-01
3.959000000000000000e+03 3.835719299316406250e+01 -1.188972711563110352e+00 2.296264171600341797e-01 2.677363157272338867e-01 1.492088139057159424e-01 -3.332861959934234619e-01
3.960000000000000000e+03 6.428383636474609375e+01 -3.042082214355468750e+01 3.684656322002410889e-02 5.067340850830078125e+00 1.531256198883056641e+00 6.413407623767852783e-02
3.961000000000000000e+03 6.353625869750976562e+01 -2.823950386047363281e+01 4.692082852125167847e-02 4.923975467681884766e+00 1.491268873214721680e+00 9.341728687286376953e-02
3.962000000000000000e+03 3.788379669189453125e+01 -1.454215049743652344e+01 1.413293331861495972e-01 3.954943716526031494e-01 1.610471159219741821e-01 -1.341581046581268311e-01
3.963000000000000000e+03 3.724075317382812500e+01 -1.210208988189697266e+01 1.506386399269104004e-01 2.763311266899108887e-01 1.280909329652786255e-01 -1.686877012252807617e-01
3.964000000000000000e+03 5.325922012329101562e+01 1.998902320861816406e+01 1.064907759428024292e-01 8.948696851730346680e-01 3.004081547260284424e-01 9.196944534778594971e-02
3.965000000000000000e+03 6.636614990234375000e+01 2.254964447021484375e+01 -9.374905824661254883e-01 7.512835979461669922e+00 1.972603678703308105e+00 2.061777830123901367e+00
3.966000000000000000e+03 6.579599761962890625e+01 2.355389404296875000e+01 -8.041151762008666992e-01 7.220071315765380859e+00 1.924786806106567383e+00 2.507937669754028320e+00
3.967000000000000000e+03 6.404733276367187500e+01 2.012608528137207031e+01 -3.532712459564208984e-01 5.299942970275878906e+00 1.484001636505126953e+00 1.849867224693298340e+00
3.968000000000000000e+03 3.653334808349609375e+01 2.182804679870605469e+01 -2.805014848709106445e-01 -3.219840303063392639e-02 -9.380996972322463989e-02 -6.690714359283447266e-01
3.969000000000000000e+03 5.848952102661132812e+01 1.928072738647460938e+01 2.602779567241668701e-01 2.313442468643188477e+00 7.721161246299743652e-01 1.034940958023071289e+00
3.970000000000000000e+03 4.014966201782226562e+01 1.553203392028808594e+01 5.713084340095520020e-02 1.345767229795455933e-01 5.751227214932441711e-02 -6.602213978767395020e-01
3.971000000000000000e+03 3.967330551147460938e+01 2.104804039001464844e+01 -2.722603380680084229e-01 6.051940843462944031e-02 -6.352227181196212769e-02 -7.032690048217773438e-01
3.972000000000000000e+03 3.825325393676757812e+01 2.086639976501464844e+01 -2.477613240480422974e-01 1.215495076030492783e-02 -7.068191468715667725e-02 -6.992533206939697266e-01
3.973000000000000000e+03 4.859709930419921875e+01 2.011015892028808594e+01 -8.407036960124969482e-02 4.400394558906555176e-01 1.067907288670539856e-01 -4.033091664314270020e-01
3.974000000000000000e+03 5.027178192138671875e+01 1.861259460449218750e+01 1.190747767686843872e-01 6.988965868949890137e-01 2.453913986682891846e-01 -2.078830450773239136e-01
3.975000000000000000e+03 6.111985015869140625e+01 1.967613410949707031e+01 9.118624031543731689e-02 3.470196008682250977e+00 1.068414688110351562e+00 1.524061083793640137e+00
3.976000000000000000e+03 6.258152008056640625e+01 2.052987480163574219e+01 -8.207391947507858276e-02 4.233219146728515625e+00 1.245343446731567383e+00 1.841668248176574707e+00
3.977000000000000000e+03 6.824719238281250000e+01 2.337052536010742188e+01 -1.364634633064270020e+00 9.485611915588378906e+00 2.436293363571166992e+00 1.300048708915710449e+00
3.978000000000000000e+03 5.964033889770507812e+01 1.911025047302246094e+01 2.080921083688735962e-01 2.814947366714477539e+00 9.069118499755859375e-01 1.234815359115600586e+00
3.979000000000000000e+03 6.610997009277343750e+01 2.317419242858886719e+01 -8.885805606842041016e-01 7.446401119232177734e+00 1.967346191406250000e+00 2.324887514114379883e+00
3.980000000000000000e+03 6.732892608642578125e+01 2.248182487487792969e+01 -1.154207706451416016e+00 8.359183311462402344e+00 2.161492824554443359e+00 1.679511904716491699e+00
3.981000000000000000e+03 5.133428192138671875e+01 2.019771766662597656e+01 8.917570812627673149e-04 6.522480249404907227e-01 1.959419399499893188e-01 -1.543917953968048096e-01
3.982000000000000000e+03 4.881978225708007812e+01 1.927595138549804688e+01 7.197982631623744965e-03 5.091903209686279297e-01 1.549164950847625732e-01 -3.632515072822570801e-01
3.983000000000000000e+03 6.601256561279296875e+01 1.879796218872070312e+01 -6.240419745445251465e-01 6.424430847167968750e+00 1.740116596221923828e+00 1.446632385253906250e+00
3.984000000000000000e+03 5.714281082153320312e+01 1.860837554931640625e+01 2.964899837970733643e-01 1.937080144882202148e+00 6.700710058212280273e-01 7.584944367408752441e-01
3.985000000000000000e+03 3.770647430419921875e+01 1.830080032348632812e+01 -9.721957892179489136e-02 -1.709116809070110321e-02 -3.429322317242622375e-02 -7.077561616897583008e-01
3.986000000000000000e+03 3.745803070068359375e+01 1.751946258544921875e+01 -5.820327252149581909e-02 -2.864969335496425629e-02 -2.605588920414447784e-02 -7.053099870681762695e-01
3.987000000000000000e+03 6.475219726562500000e+01 2.011362838745117188e+01 -4.827572703361511230e-01 5.758008003234863281e+00 1.582575201988220215e+00 1.806702136993408203e+00
3.988000000000000000e+03 5.564783096313476562e+01 1.979769325256347656e+01 2.176420986652374268e-01 1.354431986808776855e+00 4.716222286224365234e-01 4.809839129447937012e-01
3.989000000000000000e+03 6.479352569580078125e+01 2.092076301574707031e+01 -5.155021548271179199e-01 5.887284278869628906e+00 1.611534595489501953e+00 1.985806345939636230e+00
3.990000000000000000e+03 5.151378631591796875e+01 1.889857673645019531e+01 1.387195885181427002e-01 8.150886893272399902e-01 2.861424684524536133e-01 -8.352931588888168335e-02
3.991000000000000000e+03 6.481864166259765625e+01 1.305096530914306641e+01 -1.294344216585159302e-01 5.394915580749511719e+00 1.579644322395324707e+00 9.490323662757873535e-01
3.992000000000000000e+03 6.335670089721679688e+01 1.004268360137939453e+01 7.889528572559356689e-02 4.837382316589355469e+00 1.474883317947387695e+00 7.615352272987365723e-01
3.993000000000000000e+03 6.337913513183593750e+01 1.720483016967773438e+01 -1.627356112003326416e-01 4.866990089416503906e+00 1.411276340484619141e+00 1.375010371208190918e+00
3.994000000000000000e+03 6.659287261962890625e+01 1.551203536987304688e+01 -4.182767271995544434e-01 6.240711688995361328e+00 1.746730566024780273e+00 9.975724816322326660e-01
3.995000000000000000e+03 5.779419326782226562e+01 1.897280883789062500e+01 2.723202109336853027e-01 2.121559143066406250e+00 7.181637883186340332e-01 8.728437423706054688e-01
3.996000000000000000e+03 4.008477020263671875e+01 1.233076000213623047e+01 1.795919984579086304e-01 2.030474692583084106e-01 1.147918403148651123e-01 -5.961968898773193359e-01
3.997000000000000000e+03 3.720438766479492188e+01 1.938642311096191406e+01 -1.490537375211715698e-01 -3.302324190735816956e-02 -5.462309345602989197e-02 -7.045422792434692383e-01
3.998000000000000000e+03 4.117905807495117188e+01 1.770042991638183594e+01 -3.778330609202384949e-02 1.546530276536941528e-01 3.506091982126235962e-02 -6.749177575111389160e-01
3.999000000000000000e+03 3.873755264282226562e+01 1.893041229248046875e+01 -1.315472871065139771e-01 3.207363560795783997e-02 -2.984209731221199036e-02 -7.083200216293334961e-01
4.000000000000000000e+03 6.146539688110351562e+01 -1.572216749191284180e+00 2.387454062700271606e-01 4.424909591674804688e+00 1.399096608161926270e+00 3.618986308574676514e-01
4.001000000000000000e+03 6.097270584106445312e+01 -3.421384096145629883e+00 2.447105348110198975e-01 4.362133979797363281e+00 1.382053375244140625e+00 3.252388834953308105e-01
4.002000000000000000e+03 3.914670181274414062e+01 1.136462402343750000e+01 1.861770898103713989e-01 1.490618288516998291e-01 1.005716770887374878e-01 -5.937165617942810059e-01
4.003000000000000000e+03 3.942013168334960938e+01 1.048511791229248047e+01 2.079418152570724487e-01 1.874059289693832397e-01 1.186043247580528259e-01 -5.689933896064758301e-01
4.004000000000000000e+03 6.441135406494140625e+01 1.555136108398437500e+01 -2.040890604257583618e-01 5.325790405273437500e+00 1.536510467529296875e+00 1.154431462287902832e+00
4.005000000000000000e+03 6.445473480224609375e+01 1.405453395843505859e+01 -1.497715413570404053e-01 5.283457756042480469e+00 1.540105819702148438e+00 1.042256951332092285e+00
4.006000000000000000e+03 4.721429443359375000e+01 1.859674644470214844e+01 2.138136699795722961e-02 4.543697237968444824e-01 1.427253335714340210e-01 -4.549041688442230225e-01
4.007000000000000000e+03 3.908359909057617188e+01 2.025778579711914062e+01 -2.123340517282485962e-01 3.769620135426521301e-02 -5.239135399460792542e-02 -7.040998935699462891e-01
4.008000000000000000e+03 3.927390670776367188e+01 1.639261817932128906e+01 1.251650601625442505e-02 7.685367017984390259e-02 2.681105397641658783e-02 -6.842353343963623047e-01
4.009000000000000000e+03 3.882397460937500000e+01 2.165523147583007812e+01 -3.110549151897430420e-01 3.335710242390632629e-02 -8.330934494733810425e-02 -6.909286975860595703e-01
4.010000000000000000e+03 3.740287399291992188e+01 2.137021827697753906e+01 -2.683747410774230957e-01 -9.577976539731025696e-03 -8.338581770658493042e-02 -6.874093413352966309e-01
4.011000000000000000e+03 3.998216247558593750e+01 -4.120765686035156250e+00 2.495882213115692139e-01 5.613954067230224609e-01 2.432950884103775024e-01 -2.483754903078079224e-01
4.012000000000000000e+03 6.327601623535156250e+01 3.676942110061645508e+00 1.903712004423141479e-01 4.825804233551025391e+00 1.504852533340454102e+00 5.040120482444763184e-01
4.013000000000000000e+03 6.248122024536132812e+01 4.334571838378906250e+00 2.115043848752975464e-01 4.601766109466552734e+00 1.443981170654296875e+00 5.184428691864013672e-01
4.014000000000000000e+03 6.140479660034179688e+01 2.641447186470031738e-01 2.519481778144836426e-01 4.397850036621093750e+00 1.394939541816711426e+00 3.941733241081237793e-01
4.015000000000000000e+03 6.325375366210937500e+01 6.602497577667236328e+00 1.621189266443252563e-01 4.805289268493652344e+00 1.490222454071044922e+00 6.070343255996704102e-01
4.016000000000000000e+03 6.249971389770507812e+01 2.869152069091796875e+00 2.266908735036849976e-01 4.654222011566162109e+00 1.464273810386657715e+00 4.738261401653289795e-01
4.017000000000000000e+03 6.231917572021484375e+01 -4.720790386199951172e+00 2.181229591369628906e-01 4.650815010070800781e+00 1.460681438446044922e+00 3.189189136028289795e-01
4.018000000000000000e+03 4.079322052001953125e+01 1.833455324172973633e+00 2.978688478469848633e-01 5.575929880142211914e-01 2.566385567188262939e-01 -3.361223936080932617e-01
4.019000000000000000e+03 6.220374298095703125e+01 -6.387411117553710938e+00 2.049416303634643555e-01 4.619690418243408203e+00 1.447389602661132812e+00 2.814747691154479980e-01
4.020000000000000000e+03 3.879925537109375000e+01 -1.841085815429687500e+01 1.252010464668273926e-01 5.690804123878479004e-01 2.082844376564025879e-01 -9.040961414575576782e-02
4.021000000000000000e+03 6.161820602416992188e+01 -1.053378582000732422e+01 1.796808987855911255e-01 4.548980236053466797e+00 1.418598413467407227e+00 2.155281156301498413e-01
4.022000000000000000e+03 6.320969772338867188e+01 -1.280032730102539062e+01 1.510840952396392822e-01 4.919250965118408203e+00 1.521100521087646484e+00 1.970286667346954346e-01
4.023000000000000000e+03 6.014400100708007812e+01 -9.078938484191894531e+00 2.134276181459426880e-01 4.253396511077880859e+00 1.340047240257263184e+00 2.273939549922943115e-01
4.024000000000000000e+03 5.948948287963867188e+01 -1.071868705749511719e+01 2.088634967803955078e-01 4.169357776641845703e+00 1.313466429710388184e+00 2.045180052518844604e-01
4.025000000000000000e+03 3.799637222290039062e+01 -7.274059772491455078e+00 1.987076550722122192e-01 3.238489031791687012e-01 1.567669659852981567e-01 -2.248840481042861938e-01
4.026000000000000000e+03 6.251513671875000000e+01 -9.679990768432617188e+00 1.817886829376220703e-01 4.749860286712646484e+00 1.479494690895080566e+00 2.360214740037918091e-01
4.027000000000000000e+03 5.972661590576171875e+01 -7.065203189849853516e+00 2.368037551641464233e-01 4.144838333129882812e+00 1.314492702484130859e+00 2.442855685949325562e-01
4.028000000000000000e+03 3.666183471679687500e+01 -7.506166934967041016e+00 1.699472516775131226e-01 1.261902749538421631e-01 8.884125947952270508e-02 -2.450917065143585205e-01
4.029000000000000000e+03 3.193712234497070312e+01 -9.179814338684082031e+00 8.948065340518951416e-02 -5.827346444129943848e-01 -1.479761898517608643e-01 -2.352196872234344482e-01
4.030000000000000000e+03 3.322221755981445312e+01 -1.141621875762939453e+01 8.967143297195434570e-02 -3.896027207374572754e-01 -8.997938781976699829e-02 -2.113683223724365234e-01
4.031000000000000000e+03 3.990512466430664062e+01 8.715302348136901855e-01 2.722010016441345215e-01 4.748959839344024658e-01 2.241290956735610962e-01 -3.393436074256896973e-01
4.032000000000000000e+03 3.802937316894531250e+01 5.172692537307739258e-01 2.297890633344650269e-01 2.201220840215682983e-01 1.349733471870422363e-01 -3.643687963485717773e-01
4.033000000000000000e+03 3.970103454589843750e+01 -1.972783088684082031e+00 2.529400587081909180e-01 4.880878925323486328e-01 2.223083823919296265e-01 -2.938302755355834961e-01
4.034000000000000000e+03 6.774472808837890625e+01 -3.498899078369140625e+01 3.016695752739906311e-02 5.730388164520263672e+00 1.728166460990905762e+00 4.251323640346527100e-02
4.035000000000000000e+03 7.061828613281250000e+01 -3.588979721069335938e+01 3.529484150931239128e-03 6.242382526397705078e+00 1.873773574829101562e+00 1.548745483160018921e-02
4.036000000000000000e+03 3.163705062866210938e+01 -2.936643791198730469e+01 2.616655081510543823e-02 -5.607059597969055176e-01 -1.603618115186691284e-01 -4.709633067250251770e-02
4.037000000000000000e+03 6.209365463256835938e+01 -3.104215240478515625e+01 6.551759690046310425e-02 4.718257904052734375e+00 1.435132622718811035e+00 4.293233156204223633e-02
4.038000000000000000e+03 6.543628692626953125e+01 -3.296768951416015625e+01 4.209110513329505920e-02 5.334977626800537109e+00 1.613120555877685547e+00 3.646998479962348938e-02
4.039000000000000000e+03 6.775879669189453125e+01 2.303203010559082031e+01 -1.278765201568603516e+00 8.950473785400390625e+00 2.301512718200683594e+00 1.573432207107543945e+00
4.040000000000000000e+03 6.737567138671875000e+01 2.355382728576660156e+01 -1.261078476905822754e+00 8.896549224853515625e+00 2.290641307830810547e+00 1.848815560340881348e+00
4.041000000000000000e+03 4.114281463623046875e+01 1.481488895416259766e+01 1.089441552758216858e-01 2.077294439077377319e-01 9.500207751989364624e-02 -6.246374845504760742e-01
4.042000000000000000e+03 4.375969696044921875e+01 1.858107948303222656e+01 -5.622811615467071533e-02 2.639591693878173828e-01 6.231931596994400024e-02 -6.200508475303649902e-01
4.043000000000000000e+03 6.043365859985351562e+01 1.969047927856445312e+01 1.573982089757919312e-01 3.096569538116455078e+00 9.761903285980224609e-01 1.412089467048645020e+00
4.044000000000000000e+03 6.373945236206054688e+01 1.603391265869140625e+01 -1.573789864778518677e-01 5.015451431274414062e+00 1.457421779632568359e+00 1.228893399238586426e+00
4.045000000000000000e+03 4.835254287719726562e+01 1.747663879394531250e+01 1.524073928594589233e-01 6.209580302238464355e-01 2.320096194744110107e-01 -3.288183212280273438e-01
4.046000000000000000e+03 6.036862182617187500e+01 1.892616081237792969e+01 1.529792398214340210e-01 3.164108037948608398e+00 9.951261878013610840e-01 1.336886882781982422e+00
4.047000000000000000e+03 6.690643310546875000e+01 2.303533935546875000e+01 -1.104627370834350586e+00 8.215940475463867188e+00 2.133393764495849609e+00 1.977368831634521484e+00
4.048000000000000000e+03 4.956815338134765625e+01 1.915209770202636719e+01 4.444162920117378235e-02 5.935122966766357422e-01 1.913861781358718872e-01 -2.938320934772491455e-01
4.049000000000000000e+03 6.229510498046875000e+01 1.966570091247558594e+01 -4.640679433941841125e-02 4.111824035644531250e+00 1.219625115394592285e+00 1.682229638099670410e+00
4.050000000000000000e+03 6.529768371582031250e+01 1.684321212768554688e+01 -3.828713893890380859e-01 5.812788486480712891e+00 1.628975152969360352e+00 1.263845682144165039e+00
4.051000000000000000e+03 6.539753723144531250e+01 2.085587692260742188e+01 -6.388374567031860352e-01 6.322097301483154297e+00 1.704977989196777344e+00 1.880892634391784668e+00
4.052000000000000000e+03 6.476248931884765625e+01 1.622940444946289062e+01 -3.036431074142456055e-01 5.553184986114501953e+00 1.574862599372863770e+00 1.255091428756713867e+00
4.053000000000000000e+03 3.797027587890625000e+01 1.903098869323730469e+01 -1.341958642005920410e-01 -4.287921823561191559e-03 -4.154513776302337646e-02 -7.086853384971618652e-01
4.054000000000000000e+03 4.076977157592773438e+01 1.917495346069335938e+01 -1.367603987455368042e-01 1.103110983967781067e-01 -7.934789173305034637e-03 -6.969621181488037109e-01
4.055000000000000000e+03 5.447473144531250000e+01 2.004739570617675781e+01 1.548599302768707275e-01 1.061762690544128418e+00 3.649868071079254150e-01 2.778567969799041748e-01
4.056000000000000000e+03 5.499949264526367188e+01 1.934863662719726562e+01 2.303777337074279785e-01 1.279208898544311523e+00 4.528760015964508057e-01 3.875508606433868408e-01
4.057000000000000000e+03 6.201326370239257812e+01 1.870490646362304688e+01 -1.043390482664108276e-02 4.041480064392089844e+00 1.209313869476318359e+00 1.520092606544494629e+00
4.058000000000000000e+03 6.589930725097656250e+01 1.748023414611816406e+01 -5.022349357604980469e-01 6.180994033813476562e+00 1.703627705574035645e+00 1.259015440940856934e+00
4.059000000000000000e+03 5.272061157226562500e+01 1.923662757873535156e+01 1.566928476095199585e-01 9.219179749488830566e-01 3.235832452774047852e-01 4.875636845827102661e-02
4.060000000000000000e+03 4.189643096923828125e+01 1.846224403381347656e+01 -7.479137927293777466e-02 1.765727102756500244e-01 3.053439594805240631e-02 -6.693537831306457520e-01
4.061000000000000000e+03 4.490252685546875000e+01 1.888054275512695312e+01 -6.795160472393035889e-02 3.020351231098175049e-01 7.022505998611450195e-02 -5.845679044723510742e-01
4.062000000000000000e+03 4.286841583251953125e+01 1.826513481140136719e+01 -4.831203818321228027e-02 2.245976477861404419e-01 5.288568139076232910e-02 -6.432798504829406738e-01
4.063000000000000000e+03 6.413951110839843750e+01 2.098707199096679688e+01 -3.743546307086944580e-01 5.353384971618652344e+00 1.493709087371826172e+00 2.024501562118530273e+00
4.064000000000000000e+03 3.995171737670898438e+01 1.967567062377929688e+01 -1.710484325885772705e-01 7.321937382221221924e-02 -2.934871800243854523e-02 -7.046002149581909180e-01
4.065000000000000000e+03 6.295092391967773438e+01 1.118295574188232422e+01 7.390748709440231323e-02 4.690798759460449219e+00 1.429411768913269043e+00 8.416597843170166016e-01
4.066000000000000000e+03 6.281153869628906250e+01 9.306125640869140625e+00 1.252405494451522827e-01 4.672263622283935547e+00 1.439251184463500977e+00 7.240993976593017578e-01
4.067000000000000000e+03 6.305550384521484375e+01 1.185257530212402344e+01 4.774515703320503235e-02 4.706711769104003906e+00 1.426337003707885742e+00 8.826234340667724609e-01
4.068000000000000000e+03 6.519596862792968750e+01 1.547904586791992188e+01 -3.026269376277923584e-01 5.686417579650878906e+00 1.615137219429016113e+00 1.123567819595336914e+00
4.069000000000000000e+03 5.813975524902343750e+01 -9.972810745239257812e+00 2.247159928083419800e-01 3.882312297821044922e+00 1.232108473777770996e+00 1.911448687314987183e-01
4.070000000000000000e+03 5.855270004272460938e+01 1.774402809143066406e+01 2.799627780914306641e-01 2.618631362915039062e+00 8.695783019065856934e-01 1.000988960266113281e+00
4.071000000000000000e+03 6.369581985473632812e+01 8.731260299682617188e+00 9.622537344694137573e-02 4.936780929565429688e+00 1.509901881217956543e+00 6.980836987495422363e-01
4.072000000000000000e+03 6.245602416992187500e+01 7.238455772399902344e+00 1.796077340841293335e-01 4.577418327331542969e+00 1.427107810974121094e+00 6.308745741844177246e-01
4.073000000000000000e+03 6.216759490966796875e+01 -2.667479991912841797e+00 2.259999662637710571e-01 4.603532314300537109e+00 1.448859572410583496e+00 3.552857637405395508e-01
4.074000000000000000e+03 4.083628463745117188e+01 9.967817306518554688e+00 2.539316713809967041e-01 3.259010314941406250e-01 1.739498078823089600e-01 -5.234214067459106445e-01
4.075000000000000000e+03 4.473534011840820312e+01 1.686305809020996094e+01 8.742331713438034058e-02 3.931459486484527588e-01 1.441707760095596313e-01 -5.411386489868164062e-01
4.076000000000000000e+03 4.198038864135742188e+01 1.189894199371337891e+01 2.330361306667327881e-01 3.867038488388061523e-01 1.859219968318939209e-01 -5.356211662292480469e-01
4.077000000000000000e+03 4.022079467773437500e+01 8.680315017700195312e+00 2.605414688587188721e-01 3.155720233917236328e-01 1.728340536355972290e-01 -5.038988590240478516e-01
4.078000000000000000e+03 3.977211380004882812e+01 9.600542068481445312e+00 2.325129657983779907e-01 2.358933985233306885e-01 1.405219137668609619e-01 -5.403771400451660156e-01
4.079000000000000000e+03 6.459913635253906250e+01 1.758793640136718750e+01 -3.482655584812164307e-01 5.525916576385498047e+00 1.553295254707336426e+00 1.413695096969604492e+00
4.080000000000000000e+03 6.376312255859375000e+01 1.811815261840820312e+01 -2.534322142601013184e-01 5.094439506530761719e+00 1.452302098274230957e+00 1.503550887107849121e+00
4.081000000000000000e+03 5.741268539428710938e+01 1.802451848983764648e+00 3.396335244178771973e-01 3.449875354766845703e+00 1.136852622032165527e+00 3.389700949192047119e-01
4.082000000000000000e+03 6.071940994262695312e+01 -6.992701888084411621e-01 2.560588717460632324e-01 4.268638134002685547e+00 1.357409119606018066e+00 3.679944872856140137e-01
4.083000000000000000e+03 5.100471115112304688e+01 1.806593322753906250e+01 1.869680136442184448e-01 8.485052585601806641e-01 3.106419742107391357e-01 -1.131516322493553162e-01
4.084000000000000000e+03 6.249661254882812500e+01 5.818617820739746094e+00 1.993748545646667480e-01 4.599391937255859375e+00 1.439630031585693359e+00 5.743100047111511230e-01
4.085000000000000000e+03 6.033607482910156250e+01 2.031984567642211914e+00 2.777449488639831543e-01 4.124488353729248047e+00 1.320670008659362793e+00 4.244126975536346436e-01
4.086000000000000000e+03 3.938063049316406250e+01 4.397101402282714844e+00 2.584985494613647461e-01 3.197617530822753906e-01 1.734780967235565186e-01 -4.271786808967590332e-01
4.087000000000000000e+03 4.571214294433593750e+01 1.849957466125488281e+01 -1.238937303423881531e-02 3.684397339820861816e-01 1.068151146173477173e-01 -5.336715579032897949e-01
4.088000000000000000e+03 4.649901962280273438e+01 1.794410896301269531e+01 5.170571431517601013e-02 4.459890127182006836e-01 1.493084132671356201e-01 -4.778158664703369141e-01
4.089000000000000000e+03 3.845489120483398438e+01 1.733536720275878906e+01 -4.388830065727233887e-02 2.055521868169307709e-02 -6.999924778938293457e-03 -7.021240592002868652e-01
4.090000000000000000e+03 3.916875076293945312e+01 -7.081361293792724609e+00 2.107094675302505493e-01 4.960926175117492676e-01 2.120406329631805420e-01 -2.113686054944992065e-01
4.091000000000000000e+03 6.064559173583984375e+01 -1.145115184783935547e+01 1.858414113521575928e-01 4.372055053710937500e+00 1.367368936538696289e+00 1.951383650302886963e-01
4.092000000000000000e+03 6.204031372070312500e+01 -1.382221412658691406e+01 1.596818715333938599e-01 4.675221920013427734e+00 1.450471162796020508e+00 1.776052415370941162e-01
4.093000000000000000e+03 3.468946838378906250e+01 -1.198883724212646484e+01 1.144785508513450623e-01 -1.463538408279418945e-01 -9.562586434185504913e-03 -1.957851946353912354e-01
4.094000000000000000e+03 3.580222320556640625e+01 -1.178471469879150391e+01 1.345148682594299316e-01 5.414248257875442505e-02 5.659720301628112793e-02 -1.927235722541809082e-01
4.095000000000000000e+03 6.008848190307617188e+01 -5.167127609252929688e+00 2.555209100246429443e-01 4.198433399200439453e+00 1.336186289787292480e+00 2.874356508255004883e-01
4.096000000000000000e+03 6.172919082641601562e+01 6.489082336425781250e+00 2.243051826953887939e-01 4.383019447326660156e+00 1.382197380065917969e+00 5.903588533401489258e-01
4.097000000000000000e+03 3.833778762817382812e+01 -8.557928085327148438e+00 1.859784871339797974e-01 3.956194818019866943e-01 1.744793951511383057e-01 -2.017082273960113525e-01
4.098000000000000000e+03 3.662696838378906250e+01 -2.030081367492675781e+01 1.011758521199226379e-01 2.257138490676879883e-01 9.806691110134124756e-02 -9.433583915233612061e-02
4.099000000000000000e+03 6.629839324951171875e+01 2.119283103942871094e+01 -8.562209606170654297e-01 7.104245662689208984e+00 1.874407410621643066e+00 1.792486667633056641e+00
4.100000000000000000e+03 4.437903213500976562e+01 1.804118919372558594e+01 -3.470586612820625305e-03 3.135551512241363525e-01 9.302536398172378540e-02 -5.890330076217651367e-01
4.101000000000000000e+03 6.116609573364257812e+01 1.885028076171875000e+01 7.835293561220169067e-02 3.591743469238281250e+00 1.101028919219970703e+00 1.450912952423095703e+00
4.102000000000000000e+03 5.751001739501953125e+01 1.776166725158691406e+01 3.083546459674835205e-01 2.239480972290039062e+00 7.643507122993469238e-01 8.088504076004028320e-01
4.103000000000000000e+03 5.810766601562500000e+01 1.823444557189941406e+01 2.913634181022644043e-01 2.349893808364868164e+00 7.923771739006042480e-01 9.339674711227416992e-01
4.104000000000000000e+03 6.314273452758789062e+01 1.444850254058837891e+01 -4.348770156502723694e-02 4.764121055603027344e+00 1.416189908981323242e+00 1.077773928642272949e+00
4.105000000000000000e+03 5.870563125610351562e+01 1.846177482604980469e+01 2.647364139556884766e-01 2.548202276229858398e+00 8.438816070556640625e-01 1.057041883468627930e+00
4.106000000000000000e+03 6.099189376831054688e+01 1.791293907165527344e+01 1.043218970298767090e-01 3.624233722686767578e+00 1.118566751480102539e+00 1.331475973129272461e+00
4.107000000000000000e+03 6.538446044921875000e+01 2.022852706909179688e+01 -6.058708429336547852e-01 6.208643436431884766e+00 1.680831789970397949e+00 1.750293135643005371e+00
4.108000000000000000e+03 5.387949752807617188e+01 1.946074867248535156e+01 1.812422275543212891e-01 1.064409732818603516e+00 3.736956119537353516e-01 2.041208148002624512e-01
4.109000000000000000e+03 6.156428527832031250e+01 1.681696701049804688e+01 5.733126029372215271e-02 3.988303899765014648e+00 1.213690519332885742e+00 1.266860365867614746e+00
4.110000000000000000e+03 5.045769119262695312e+01 1.723518753051757812e+01 2.277382761240005493e-01 8.652998805046081543e-01 3.279114365577697754e-01 -1.415323764085769653e-01
4.111000000000000000e+03 4.837151336669921875e+01 1.821232986450195312e+01 9.319681674242019653e-02 5.696893334388732910e-01 1.988658457994461060e-01 -3.517533838748931885e-01
4.112000000000000000e+03 4.969340133666992188e+01 1.784876632690429688e+01 1.589792966842651367e-01 7.142096161842346191e-01 2.619566917419433594e-01 -2.411863356828689575e-01
4.113000000000000000e+03 5.224161911010742188e+01 1.842877388000488281e+01 2.034682929515838623e-01 9.634137749671936035e-01 3.500646054744720459e-01 1.763603463768959045e-02
4.114000000000000000e+03 5.608965682983398438e+01 1.901407241821289062e+01 2.741640806198120117e-01 1.623725891113281250e+00 5.693669915199279785e-01 5.921043157577514648e-01
4.115000000000000000e+03 6.178797149658203125e+01 1.773201942443847656e+01 2.267213352024555206e-02 4.014688014984130859e+00 1.211208105087280273e+00 1.384051918983459473e+00
4.116000000000000000e+03 6.311780548095703125e+01 1.936672019958496094e+01 -1.733652800321578979e-01 4.662851810455322266e+00 1.346845984458923340e+00 1.681353330612182617e+00
4.117000000000000000e+03 4.043667602539062500e+01 7.727089405059814453e+00 2.720212936401367188e-01 3.588796257972717285e-01 1.892702877521514893e-01 -4.782970249652862549e-01
4.118000000000000000e+03 6.380548477172851562e+01 1.280174922943115234e+01 -3.935155645012855530e-02 5.018479347229003906e+00 1.493738293647766113e+00 9.493531584739685059e-01
4.119000000000000000e+03 4.519271469116210938e+01 1.762419319152832031e+01 5.196972936391830444e-02 3.887225389480590820e-01 1.322076767683029175e-01 -5.380673408508300781e-01
4.120000000000000000e+03 6.235112380981445312e+01 1.164900684356689453e+01 9.702578932046890259e-02 4.478842735290527344e+00 1.372760534286499023e+00 8.564056158065795898e-01
4.121000000000000000e+03 6.227531051635742188e+01 8.584048271179199219e+00 1.641568094491958618e-01 4.516788005828857422e+00 1.404283404350280762e+00 6.940010786056518555e-01
4.122000000000000000e+03 6.248873519897460938e+01 1.055640697479248047e+01 1.156455650925636292e-01 4.555229187011718750e+00 1.401262402534484863e+00 8.006782531738281250e-01
4.123000000000000000e+03 4.719162368774414062e+01 1.728977584838867188e+01 1.265581846237182617e-01 5.392227172851562500e-01 1.997342854738235474e-01 -4.181334078311920166e-01
4.124000000000000000e+03 6.411385345458984375e+01 1.677352714538574219e+01 -2.391510754823684692e-01 5.227480888366699219e+00 1.496498942375183105e+00 1.306819558143615723e+00
4.125000000000000000e+03 6.233306121826171875e+01 1.663884353637695312e+01 -2.404671534895896912e-02 4.352109432220458984e+00 1.298418760299682617e+00 1.289426207542419434e+00
4.126000000000000000e+03 6.393761062622070312e+01 1.486892986297607422e+01 -1.373312622308731079e-01 5.104454517364501953e+00 1.490136981010437012e+00 1.121628165245056152e+00
4.127000000000000000e+03 4.127443313598632812e+01 1.409178924560546875e+01 1.544295847415924072e-01 2.556968927383422852e-01 1.230379417538642883e-01 -6.028762459754943848e-01
4.128000000000000000e+03 4.017566299438476562e+01 1.314085578918457031e+01 1.590894460678100586e-01 1.863156706094741821e-01 1.036215350031852722e-01 -6.112754940986633301e-01
4.129000000000000000e+03 5.542068481445312500e+01 1.855679512023925781e+01 2.869111001491546631e-01 1.519185304641723633e+00 5.418289303779602051e-01 4.687147736549377441e-01
4.130000000000000000e+03 3.861501693725585938e+01 1.812759399414062500e+01 -8.175785094499588013e-02 2.798795700073242188e-02 -1.613096892833709717e-02 -7.081094980239868164e-01
4.131000000000000000e+03 4.013916778564453125e+01 1.158890724182128906e+01 2.007363289594650269e-01 2.237770408391952515e-01 1.273540109395980835e-01 -5.779230594635009766e-01
4.132000000000000000e+03 4.860942077636718750e+01 1.635266494750976562e+01 2.262169420719146729e-01 7.331769466400146484e-01 2.878181636333465576e-01 -2.813980281352996826e-01
4.133000000000000000e+03 4.772691345214843750e+01 1.789414405822753906e+01 9.370035678148269653e-02 5.386683940887451172e-01 1.897106170654296875e-01 -3.960950076580047607e-01
4.134000000000000000e+03 5.795762252807617188e+01 3.647352695465087891e+00 3.459763228893280029e-01 3.503338575363159180e+00 1.154794454574584961e+00 3.920397162437438965e-01
4.135000000000000000e+03 5.177774429321289062e+01 1.755995559692382812e+01 2.499505728483200073e-01 1.003619313240051270e+00 3.760709464550018311e-01 -4.465127363801002502e-03
4.136000000000000000e+03 6.092785644531250000e+01 5.728089332580566406e+00 2.564509809017181396e-01 4.185064315795898438e+00 1.332454562187194824e+00 5.429797172546386719e-01
4.137000000000000000e+03 6.168165206909179688e+01 4.994185924530029297e+00 2.404236346483230591e-01 4.394977092742919922e+00 1.390620112419128418e+00 5.360398292541503906e-01
4.138000000000000000e+03 6.080678558349609375e+01 4.054747104644775391e+00 2.675623893737792969e-01 4.183955192565917969e+00 1.335455298423767090e+00 4.956764280796051025e-01
4.139000000000000000e+03 6.067099761962890625e+01 -1.464301586151123047e+01 1.631074398756027222e-01 4.388061523437500000e+00 1.365350723266601562e+00 1.740627139806747437e-01
4.140000000000000000e+03 6.008162689208984375e+01 -1.717705535888671875e+01 1.474460512399673462e-01 4.337372303009033203e+00 1.345445394515991211e+00 1.477551311254501343e-01
4.141000000000000000e+03 6.017972564697265625e+01 8.135846853256225586e-01 2.837860286235809326e-01 4.103652000427246094e+00 1.316231489181518555e+00 3.935177624225616455e-01
4.142000000000000000e+03 5.933891677856445312e+01 -2.835727930068969727e+00 2.679234743118286133e-01 3.986700534820556641e+00 1.276387214660644531e+00 2.846822738647460938e-01
4.143000000000000000e+03 3.958939743041992188e+01 1.885740661621093750e+01 -1.327706128358840942e-01 6.120073422789573669e-02 -2.147096395492553711e-02 -7.026258111000061035e-01
4.144000000000000000e+03 4.145233154296875000e+01 1.910734367370605469e+01 -1.257245540618896484e-01 1.481163501739501953e-01 6.717541255056858063e-03 -6.878738403320312500e-01
4.145000000000000000e+03 4.035788345336914062e+01 1.839848709106445312e+01 -9.469534456729888916e-02 1.020765304565429688e-01 2.214353764429688454e-03 -6.942200660705566406e-01
4.146000000000000000e+03 4.104006576538085938e+01 6.331261634826660156e+00 2.881383895874023438e-01 4.542279243469238281e-01 2.227098941802978516e-01 -4.328418076038360596e-01
4.147000000000000000e+03 5.767961502075195312e+01 -7.333018779754638672e+00 2.587622404098510742e-01 3.741981506347656250e+00 1.200223088264465332e+00 2.099870741367340088e-01
4.148000000000000000e+03 4.139529800415039062e+01 1.132112789154052734e+01 2.350455969572067261e-01 3.565276861190795898e-01 1.774719804525375366e-01 -5.382087230682373047e-01
4.149000000000000000e+03 6.162404632568359375e+01 -7.975283145904541016e+00 1.990135908126831055e-01 4.537195205688476562e+00 1.420862555503845215e+00 2.469262927770614624e-01
4.150000000000000000e+03 6.160741806030273438e+01 -5.496362686157226562e+00 2.187872529029846191e-01 4.520125389099121094e+00 1.421673774719238281e+00 2.871798574924468994e-01
4.151000000000000000e+03 6.099290847778320312e+01 7.190065860748291016e+00 2.396488189697265625e-01 4.165827751159667969e+00 1.321642994880676270e+00 5.903060436248779297e-01
4.152000000000000000e+03 3.947886276245117188e+01 -8.074225425720214844e+00 2.075334638357162476e-01 5.593634247779846191e-01 2.300690561532974243e-01 -2.001141160726547241e-01
4.153000000000000000e+03 4.150223922729492188e+01 -1.295794248580932617e+00 2.909301519393920898e-01 7.185133099555969238e-01 3.028330504894256592e-01 -2.584166228771209717e-01
4.154000000000000000e+03 4.289591598510742188e+01 1.737759947776794434e+00 3.261637091636657715e-01 8.388711214065551758e-01 3.495104312896728516e-01 -2.782911360263824463e-01
4.155000000000000000e+03 4.176081085205078125e+01 2.778557062149047852e+00 3.188242614269256592e-01 6.515178084373474121e-01 2.911026179790496826e-01 -3.304853141307830811e-01
4.156000000000000000e+03 4.056943511962890625e+01 3.620799541473388672e+00 2.954671680927276611e-01 4.804400503635406494e-01 2.327721714973449707e-01 -3.794965744018554688e-01
4.157000000000000000e+03 6.021099090576171875e+01 -1.293500518798828125e+01 1.817023009061813354e-01 4.295034408569335938e+00 1.343021035194396973e+00 1.868990361690521240e-01
4.158000000000000000e+03 3.732369232177734375e+01 -1.042870712280273438e+01 1.608343273401260376e-01 2.831811606884002686e-01 1.332046538591384888e-01 -1.859111934900283813e-01
4.159000000000000000e+03 3.893406295776367188e+01 -1.005146026611328125e+01 1.882514357566833496e-01 5.000710487365722656e-01 2.064967453479766846e-01 -1.780675202608108521e-01
4.160000000000000000e+03 6.044335556030273438e+01 -2.289618015289306641e+00 2.517529428005218506e-01 4.222513675689697266e+00 1.342279911041259766e+00 3.295879662036895752e-01
4.161000000000000000e+03 5.895131683349609375e+01 -1.716450929641723633e+00 2.845737040042877197e-01 3.888722419738769531e+00 1.251988768577575684e+00 3.037684261798858643e-01
4.162000000000000000e+03 3.883408737182617188e+01 -1.300946044921875000e+01 1.613718569278717041e-01 5.155152082443237305e-01 2.030661255121231079e-01 -1.393703967332839966e-01
4.163000000000000000e+03 3.918873214721679688e+01 -5.966032028198242188e+00 2.228697240352630615e-01 4.865304231643676758e-01 2.128200531005859375e-01 -2.300567030906677246e-01
4.164000000000000000e+03 4.134138870239257812e+01 -3.757405281066894531e+00 2.672425210475921631e-01 7.673482298851013184e-01 3.103772401809692383e-01 -2.301298528909683228e-01
4.165000000000000000e+03 4.250433731079101562e+01 -1.926946401596069336e+00 2.927559316158294678e-01 8.989343643188476562e-01 3.575070798397064209e-01 -2.377169281244277954e-01
4.166000000000000000e+03 5.402890396118164062e+01 1.840591812133789062e+01 2.631418406963348389e-01 1.248313188552856445e+00 4.534365236759185791e-01 2.572194635868072510e-01
4.167000000000000000e+03 5.338764572143554688e+01 1.878993988037109375e+01 2.184115201234817505e-01 1.082875013351440430e+00 3.903859555721282959e-01 1.560910940170288086e-01
4.168000000000000000e+03 6.149402999877929688e+01 1.324875926971435547e+01 1.276083141565322876e-01 4.132729053497314453e+00 1.278101325035095215e+00 9.365130066871643066e-01
4.169000000000000000e+03 6.285958480834960938e+01 1.510119915008544922e+01 -3.918351605534553528e-02 4.645776748657226562e+00 1.381978034973144531e+00 1.136369943618774414e+00
4.170000000000000000e+03 6.286950302124023438e+01 1.842619705200195312e+01 -1.263231635093688965e-01 4.558481693267822266e+00 1.329647541046142578e+00 1.551288604736328125e+00
4.171000000000000000e+03 6.020405960083007812e+01 1.809563636779785156e+01 1.764363497495651245e-01 3.226372957229614258e+00 1.020842790603637695e+00 1.255140662193298340e+00
4.172000000000000000e+03 5.942478179931640625e+01 1.833780479431152344e+01 2.279469817876815796e-01 2.841428995132446289e+00 9.208127856254577637e-01 1.155215620994567871e+00
4.173000000000000000e+03 6.130648803710937500e+01 1.503748416900634766e+01 1.096356362104415894e-01 3.992641925811767578e+00 1.230683326721191406e+00 1.080384731292724609e+00
4.174000000000000000e+03 6.258892822265625000e+01 1.750658607482910156e+01 -6.883934140205383301e-02 4.445735454559326172e+00 1.313068866729736328e+00 1.407430171966552734e+00
4.175000000000000000e+03 6.399040603637695312e+01 1.913641166687011719e+01 -3.184585869312286377e-01 5.239600658416748047e+00 1.476342678070068359e+00 1.656639575958251953e+00
4.176000000000000000e+03 5.594070434570312500e+01 1.779084396362304688e+01 3.323430418968200684e-01 1.771309375762939453e+00 6.310957074165344238e-01 5.624915957450866699e-01
4.177000000000000000e+03 5.809574127197265625e+01 1.705370140075683594e+01 3.092703521251678467e-01 2.544502496719360352e+00 8.561318516731262207e-01 8.961309790611267090e-01
4.178000000000000000e+03 5.650175476074218750e+01 1.827404785156250000e+01 3.137042522430419922e-01 1.829879283905029297e+00 6.430750489234924316e-01 6.752004623413085938e-01
4.179000000000000000e+03 4.018164825439453125e+01 1.627898979187011719e+01 2.900706976652145386e-02 1.221220791339874268e-01 4.533874243497848511e-02 -6.707787513732910156e-01
4.180000000000000000e+03 4.045150375366210938e+01 1.698583984375000000e+01 -4.662116989493370056e-03 1.292787045240402222e-01 3.738497942686080933e-02 -6.790993213653564453e-01
4.181000000000000000e+03 6.227461624145507812e+01 1.424105167388916016e+01 3.758610412478446960e-02 4.416000366210937500e+00 1.336075901985168457e+00 1.040261268615722656e+00
4.182000000000000000e+03 6.348611450195312500e+01 1.367956161499023438e+01 -4.707174748182296753e-02 4.886377334594726562e+00 1.451791644096374512e+00 1.017587065696716309e+00
4.183000000000000000e+03 4.984300994873046875e+01 1.644842147827148438e+01 2.585732638835906982e-01 8.742104768753051758e-01 3.398351371288299561e-01 -1.759009659290313721e-01
4.184000000000000000e+03 4.790036773681640625e+01 1.677341270446777344e+01 1.846689581871032715e-01 6.478787064552307129e-01 2.497642934322357178e-01 -3.445448577404022217e-01
4.185000000000000000e+03 4.908215332031250000e+01 1.851322937011718750e+01 9.052959084510803223e-02 6.091268062591552734e-01 2.098969072103500366e-01 -3.124804794788360596e-01
4.186000000000000000e+03 6.283985137939453125e+01 1.571096706390380859e+01 -5.625561997294425964e-02 4.608546257019042969e+00 1.365687131881713867e+00 1.201382637023925781e+00
4.187000000000000000e+03 6.338333511352539062e+01 1.542261981964111328e+01 -1.050205230712890625e-01 4.859980583190917969e+00 1.426488041877746582e+00 1.185232996940612793e+00
4.188000000000000000e+03 6.039231491088867188e+01 1.317047691345214844e+01 2.006244957447052002e-01 3.745828390121459961e+00 1.183935880661010742e+00 8.935030102729797363e-01
4.189000000000000000e+03 6.109476089477539062e+01 1.063018417358398438e+01 1.985807567834854126e-01 4.080060482025146484e+00 1.283592343330383301e+00 7.658553719520568848e-01
4.190000000000000000e+03 6.251300430297851562e+01 1.344438552856445312e+01 3.975444287061691284e-02 4.532201766967773438e+00 1.371586799621582031e+00 9.833470582962036133e-01
4.191000000000000000e+03 5.922302246093750000e+01 1.745929908752441406e+01 2.453975826501846313e-01 2.892489910125732422e+00 9.413662552833557129e-01 1.065842628479003906e+00
4.192000000000000000e+03 6.097257232666015625e+01 8.503366470336914062e+00 2.325289845466613770e-01 4.116991043090820312e+00 1.304855942726135254e+00 6.400904059410095215e-01
4.193000000000000000e+03 4.326911163330078125e+01 1.593861007690429688e+01 1.099886894226074219e-01 3.338660597801208496e-01 1.331564188003540039e-01 -5.814340710639953613e-01
4.194000000000000000e+03 4.219709014892578125e+01 1.569299697875976562e+01 1.000939011573791504e-01 2.770191729068756104e-01 1.131339222192764282e-01 -6.111032366752624512e-01
4.195000000000000000e+03 5.298382186889648438e+01 1.801823616027832031e+01 2.551211118698120117e-01 1.120345115661621094e+00 4.126398861408233643e-01 1.271056681871414185e-01
4.196000000000000000e+03 5.376414108276367188e+01 1.768686866760253906e+01 2.941244840621948242e-01 1.289106845855712891e+00 4.749694168567657471e-01 2.374828010797500610e-01
4.197000000000000000e+03 5.967625427246093750e+01 -4.021951198577880859e+00 2.628085315227508545e-01 4.098656177520751953e+00 1.308439373970031738e+00 2.815535068511962891e-01
4.198000000000000000e+03 4.399736404418945312e+01 1.717233276367187500e+01 4.543936252593994141e-02 3.252915143966674805e-01 1.112192645668983459e-01 -5.842717885971069336e-01
4.199000000000000000e+03 5.975043487548828125e+01 3.207786560058593750e+00 2.992255687713623047e-01 3.968035221099853516e+00 1.280178308486938477e+00 4.425723552703857422e-01
4.200000000000000000e+03 4.274225616455078125e+01 9.456376075744628906e+00 3.135175108909606934e-01 5.501524806022644043e-01 2.591010034084320068e-01 -4.430104196071624756e-01
4.201000000000000000e+03 4.004268646240234375e+01 6.865121364593505859e+00 2.693268954753875732e-01 3.394618034362792969e-01 1.826366037130355835e-01 -4.665139913558959961e-01
4.202000000000000000e+03 4.144863510131835938e+01 4.632913589477539062e+00 3.070662617683410645e-01 5.524426698684692383e-01 2.578526735305786133e-01 -3.804382979869842529e-01
4.203000000000000000e+03 4.207354354858398438e+01 1.466688060760498047e+01 1.393975764513015747e-01 2.984829843044281006e-01 1.313641667366027832e-01 -5.925443768501281738e-01
4.204000000000000000e+03 4.140496063232421875e+01 1.328246498107910156e+01 1.815719157457351685e-01 2.873438596725463867e-01 1.406747251749038696e-01 -5.852239131927490234e-01
4.205000000000000000e+03 4.187967300415039062e+01 1.678882980346679688e+01 2.811220102012157440e-02 2.152793854475021362e-01 7.301747053861618042e-02 -6.451287269592285156e-01
4.206000000000000000e+03 4.114376831054687500e+01 1.559885787963867188e+01 7.509102672338485718e-02 1.902146339416503906e-01 7.959169894456863403e-02 -6.402487158775329590e-01
4.207000000000000000e+03 5.595162582397460938e+01 -1.084258747100830078e+01 2.365167140960693359e-01 3.464795589447021484e+00 1.110393643379211426e+00 1.418779939413070679e-01
4.208000000000000000e+03 4.179298019409179688e+01 9.229618906974792480e-01 3.099110424518585205e-01 7.167776823043823242e-01 3.080066144466400146e-01 -3.015967309474945068e-01
4.209000000000000000e+03 4.092772293090820312e+01 1.867028623819351196e-01 2.799070179462432861e-01 5.933567881584167480e-01 2.619791328907012939e-01 -3.034828901290893555e-01
4.210000000000000000e+03 5.806050109863281250e+01 -1.448600673675537109e+01 1.890943795442581177e-01 3.929879426956176758e+00 1.235692143440246582e+00 1.492351442575454712e-01
4.211000000000000000e+03 5.882387924194335938e+01 -1.257877159118652344e+01 1.924564987421035767e-01 4.052334308624267578e+00 1.273437261581420898e+00 1.740783751010894775e-01
4.212000000000000000e+03 4.057975387573242188e+01 -6.204862594604492188e+00 2.368896454572677612e-01 7.088151574134826660e-01 2.837114334106445312e-01 -2.098097503185272217e-01
4.213000000000000000e+03 4.458893203735351562e+01 -5.075305461883544922e+00 2.955662012100219727e-01 1.296373367309570312e+00 4.775818586349487305e-01 -1.300458759069442749e-01
4.214000000000000000e+03 3.518272399902343750e+01 -7.697604656219482422e+00 1.457313299179077148e-01 -8.431030809879302979e-02 1.842630654573440552e-02 -2.561167478561401367e-01
4.215000000000000000e+03 5.796972656250000000e+01 -2.241208791732788086e+00 2.973473370075225830e-01 3.683141708374023438e+00 1.194146752357482910e+00 2.846460938453674316e-01
4.216000000000000000e+03 5.674962234497070312e+01 -1.706371158361434937e-01 3.449709713459014893e-01 3.377356052398681641e+00 1.116698145866394043e+00 2.782109379768371582e-01
4.217000000000000000e+03 5.856404495239257812e+01 -5.749498009681701660e-01 3.134323060512542725e-01 3.777599573135375977e+00 1.227309584617614746e+00 3.303407430648803711e-01
4.218000000000000000e+03 4.019861602783203125e+01 -7.318674564361572266e+00 2.188347578048706055e-01 6.733471751213073730e-01 2.676545977592468262e-01 -2.036842554807662964e-01
4.219000000000000000e+03 4.106372451782226562e+01 -5.020169734954833984e+00 2.532329857349395752e-01 7.613839507102966309e-01 3.043850660324096680e-01 -2.182127982378005981e-01
4.220000000000000000e+03 6.004329299926757812e+01 4.961569309234619141e+00 2.855120301246643066e-01 3.975111722946166992e+00 1.278187036514282227e+00 4.985275268554687500e-01
4.221000000000000000e+03 6.170539093017578125e+01 3.425081729888916016e+00 2.410562783479690552e-01 4.396676540374755859e+00 1.391319870948791504e+00 4.789306819438934326e-01
4.222000000000000000e+03 4.027449035644531250e+01 -1.438442897796630859e+01 1.726030260324478149e-01 7.725749015808105469e-01 2.835533916950225830e-01 -1.171431690454483032e-01
4.223000000000000000e+03 4.254250717163085938e+01 -1.162288951873779297e+01 2.082872837781906128e-01 1.099528908729553223e+00 3.923448622226715088e-01 -1.141801476478576660e-01
4.224000000000000000e+03 5.794295501708984375e+01 -2.134984207153320312e+01 1.390063762664794922e-01 3.985999822616577148e+00 1.237501859664916992e+00 1.010055541992187500e-01
4.225000000000000000e+03 5.471376037597656250e+01 1.827334785461425781e+01 2.910016477108001709e-01 1.407066583633422852e+00 5.094205141067504883e-01 3.791538178920745850e-01
4.226000000000000000e+03 5.998511886596679688e+01 1.720746421813964844e+01 1.952030211687088013e-01 3.243783473968505859e+00 1.031695961952209473e+00 1.158322572708129883e+00
4.227000000000000000e+03 5.673032379150390625e+01 1.747460746765136719e+01 3.309628069400787354e-01 2.040977954864501953e+00 7.115822434425354004e-01 6.918089389801025391e-01
4.228000000000000000e+03 6.077532958984375000e+01 1.699550437927246094e+01 1.316006183624267578e-01 3.612921714782714844e+00 1.123356699943542480e+00 1.221291899681091309e+00
4.229000000000000000e+03 6.216028213500976562e+01 1.581777763366699219e+01 1.016990188509225845e-02 4.317620277404785156e+00 1.298337101936340332e+00 1.195490121841430664e+00
4.230000000000000000e+03 4.913503265380859375e+01 1.576792526245117188e+01 2.709279060363769531e-01 8.527058959007263184e-01 3.370901346206665039e-01 -2.218446433544158936e-01
4.231000000000000000e+03 4.911417388916015625e+01 1.707299232482910156e+01 1.928685456514358521e-01 7.264555096626281738e-01 2.757972180843353271e-01 -2.689419686794281006e-01
4.232000000000000000e+03 5.582582473754882812e+01 1.644017219543457031e+01 3.667720258235931396e-01 1.917096972465515137e+00 6.851606965065002441e-01 5.664004087448120117e-01
4.233000000000000000e+03 5.127060699462890625e+01 1.662482833862304688e+01 2.938736677169799805e-01 1.038511157035827637e+00 3.997154533863067627e-01 -3.568969666957855225e-02
4.234000000000000000e+03 6.306547927856445312e+01 1.640081787109375000e+01 -9.872366487979888916e-02 4.700880050659179688e+00 1.380646824836730957e+00 1.279973626136779785e+00
4.235000000000000000e+03 6.187160491943359375e+01 1.237629508972167969e+01 1.144358143210411072e-01 4.288038253784179688e+00 1.320742249488830566e+00 8.913850784301757812e-01
4.236000000000000000e+03 6.281209564208984375e+01 1.262904930114746094e+01 4.584753140807151794e-02 4.632554054260253906e+00 1.403520464897155762e+00 9.293165802955627441e-01
4.237000000000000000e+03 4.593687057495117188e+01 1.711437225341796875e+01 1.032277196645736694e-01 4.539409279823303223e-01 1.671505868434906006e-01 -4.901684820652008057e-01
4.238000000000000000e+03 4.667295455932617188e+01 1.655649185180664062e+01 1.608187407255172729e-01 5.401191115379333496e-01 2.102813571691513062e-01 -4.282669126987457275e-01
4.239000000000000000e+03 6.177357482910156250e+01 1.117261695861816406e+01 1.391317844390869141e-01 4.314796924591064453e+00 1.336178541183471680e+00 8.283159732818603516e-01
4.240000000000000000e+03 5.260291671752929688e+01 1.715015983581542969e+01 2.957428395748138428e-01 1.168022871017456055e+00 4.391297399997711182e-01 9.801875054836273193e-02
4.241000000000000000e+03 4.614791488647460938e+01 1.576681995391845703e+01 1.910483241081237793e-01 5.449366569519042969e-01 2.207954972982406616e-01 -4.381878077983856201e-01
4.242000000000000000e+03 6.118392562866210938e+01 1.189610576629638672e+01 1.606290936470031738e-01 4.065927982330322266e+00 1.267967104911804199e+00 8.470938801765441895e-01
4.243000000000000000e+03 6.141917037963867188e+01 9.157271385192871094e+00 1.977680474519729614e-01 4.227254867553710938e+00 1.327506899833679199e+00 7.063655257225036621e-01
4.244000000000000000e+03 4.297826385498046875e+01 1.712566375732421875e+01 2.687524072825908661e-02 2.657959759235382080e-01 8.780136704444885254e-02 -6.207293868064880371e-01
4.245000000000000000e+03 6.029822540283203125e+01 7.935384750366210938e+00 2.628275156021118164e-01 3.971228361129760742e+00 1.270216703414916992e+00 6.087273359298706055e-01
4.246000000000000000e+03 5.805229568481445312e+01 6.060168147087097168e-01 3.262886106967926025e-01 3.630311727523803711e+00 1.186980128288269043e+00 3.410772979259490967e-01
4.247000000000000000e+03 5.737269210815429688e+01 -1.309776902198791504e+00 3.249165415763854980e-01 3.527714729309082031e+00 1.155789375305175781e+00 2.881185412406921387e-01
4.248000000000000000e+03 4.098189926147460938e+01 1.638910865783691406e+01 3.687825426459312439e-02 1.692669987678527832e-01 6.184357777237892151e-02 -6.588331460952758789e-01
4.249000000000000000e+03 5.346976852416992188e+01 1.684353828430175781e+01 3.345510959625244141e-01 1.360542774200439453e+00 5.085281729698181152e-01 2.230998128652572632e-01
4.250000000000000000e+03 5.460609817504882812e+01 1.747357559204101562e+01 3.292859494686126709e-01 1.502691149711608887e+00 5.495931506156921387e-01 3.792875707149505615e-01
4.251000000000000000e+03 5.683668518066406250e+01 3.041222333908081055e+00 3.647177517414093018e-01 3.271860361099243164e+00 1.090973377227783203e+00 3.380919992923736572e-01
4.252000000000000000e+03 5.975973892211914062e+01 -2.963056564331054688e-01 2.881616652011871338e-01 4.020431041717529297e+00 1.292577743530273438e+00 3.587146103382110596e-01
4.253000000000000000e+03 4.178484344482421875e+01 9.913942337036132812e+00 2.803586721420288086e-01 4.321365654468536377e-01 2.137485742568969727e-01 -4.945704340934753418e-01
4.254000000000000000e+03 4.160948181152343750e+01 7.402819156646728516e+00 2.974222004413604736e-01 4.839422404766082764e-01 2.344093322753906250e-01 -4.395156800746917725e-01
4.255000000000000000e+03 4.271049118041992188e+01 3.827960252761840820e+00 3.392573893070220947e-01 7.384362816810607910e-01 3.233081102371215820e-01 -3.197033405303955078e-01
4.256000000000000000e+03 4.351439666748046875e+01 4.988734722137451172e+00 3.528665006160736084e-01 8.012141585350036621e-01 3.462241888046264648e-01 -3.161461949348449707e-01
4.257000000000000000e+03 4.224357986450195312e+01 8.479888916015625000e+00 3.059862554073333740e-01 5.182821750640869141e-01 2.472805231809616089e-01 -4.422467648983001709e-01
4.258000000000000000e+03 4.151837921142578125e+01 1.247343444824218750e+01 2.116194814443588257e-01 3.261106312274932861e-01 1.613190323114395142e-01 -5.624518990516662598e-01
4.259000000000000000e+03 4.193815994262695312e+01 -6.926729202270507812e+00 2.535470724105834961e-01 9.361589550971984863e-01 3.569118082523345947e-01 -1.762803196907043457e-01
4.260000000000000000e+03 4.253323745727539062e+01 1.321718883514404297e+01 2.135789394378662109e-01 3.838568031787872314e-01 1.792307198047637939e-01 -5.402237772941589355e-01
4.261000000000000000e+03 5.629336547851562500e+01 -6.348609447479248047e+00 2.814823687076568604e-01 3.444077014923095703e+00 1.117667794227600098e+00 1.903630644083023071e-01
4.262000000000000000e+03 5.904747009277343750e+01 4.260836124420166016e+00 3.155403733253479004e-01 3.737611770629882812e+00 1.215945601463317871e+00 4.505711793899536133e-01
4.263000000000000000e+03 4.402793502807617188e+01 2.884651184082031250e+00 3.562183976173400879e-01 9.684037566184997559e-01 3.973866403102874756e-01 -2.541166245937347412e-01
4.264000000000000000e+03 4.404296493530273438e+01 6.508993506431579590e-01 3.413060605525970459e-01 1.023921251296997070e+00 4.095681905746459961e-01 -2.264989763498306274e-01
4.265000000000000000e+03 5.678520202636718750e+01 -9.070991516113281250e+00 2.462130784988403320e-01 3.585113525390625000e+00 1.149397969245910645e+00 1.730951666831970215e-01
4.266000000000000000e+03 4.126463699340820312e+01 9.146907806396484375e+00 2.747272849082946777e-01 3.976691961288452148e-01 2.017189413309097290e-01 -4.880891740322113037e-01
4.267000000000000000e+03 6.310681915283203125e+01 7.984378337860107422e+00 1.408073008060455322e-01 4.760250568389892578e+00 1.470317363739013672e+00 6.639152765274047852e-01
4.268000000000000000e+03 4.029777526855468750e+01 -1.737245178222656250e+01 1.381283402442932129e-01 8.000614047050476074e-01 2.814569175243377686e-01 -8.894259482622146606e-02
4.269000000000000000e+03 4.630098724365234375e+01 -1.267522907257080078e+01 2.289794385433197021e-01 1.741324424743652344e+00 5.910911560058593750e-01 -3.541554138064384460e-02
4.270000000000000000e+03 6.022219848632812500e+01 6.515170097351074219e+00 2.720458507537841797e-01 3.984355449676513672e+00 1.276920437812805176e+00 5.543571114540100098e-01
4.271000000000000000e+03 5.938310623168945312e+01 5.863423347473144531e+00 3.081159293651580811e-01 3.772023200988769531e+00 1.224041700363159180e+00 5.092027783393859863e-01
4.272000000000000000e+03 5.569116210937500000e+01 -1.551522731781005859e+01 1.903877705335617065e-01 3.505626440048217773e+00 1.108804345130920410e+00 1.119539365172386169e-01
4.273000000000000000e+03 5.647720336914062500e+01 -1.846540260314941406e+01 1.564626246690750122e-01 3.690288066864013672e+00 1.154025197029113770e+00 1.019359305500984192e-01
4.274000000000000000e+03 5.832932281494140625e+01 -4.596383094787597656e+00 2.777785956859588623e-01 3.812922239303588867e+00 1.227210283279418945e+00 2.496375888586044312e-01
4.275000000000000000e+03 5.482881164550781250e+01 -5.535019874572753906e+00 3.022240996360778809e-01 3.125573635101318359e+00 1.028339266777038574e+00 1.590275019407272339e-01
4.276000000000000000e+03 3.999947357177734375e+01 -1.159660816192626953e+01 1.875407695770263672e-01 6.841027140617370605e-01 2.614930570125579834e-01 -1.499420106410980225e-01
4.277000000000000000e+03 3.940110778808593750e+01 7.488617420196533203e+00 2.479607760906219482e-01 2.423848956823348999e-01 1.471036970615386963e-01 -5.001183152198791504e-01
4.278000000000000000e+03 3.916138458251953125e+01 -1.578306770324707031e+01 1.486233472824096680e-01 5.853350162506103516e-01 2.201875001192092896e-01 -1.023301258683204651e-01
4.279000000000000000e+03 4.252452087402343750e+01 -5.652439117431640625e+00 2.648433148860931396e-01 9.786083102226257324e-01 3.730354905128479004e-01 -1.793091893196105957e-01
4.280000000000000000e+03 5.737775039672851562e+01 -1.175576019287109375e+01 2.189989537000656128e-01 3.752795934677124023e+00 1.191538453102111816e+00 1.611224263906478882e-01
4.281000000000000000e+03 3.475453186035156250e+01 -3.058416938781738281e+01 6.096302345395088196e-02 -5.543187633156776428e-02 1.659344066865742207e-03 -1.642114110291004181e-02
4.282000000000000000e+03 4.474790573120117188e+01 1.560167694091796875e+01 1.615935266017913818e-01 4.476169943809509277e-01 1.827631592750549316e-01 -5.089191794395446777e-01
4.283000000000000000e+03 4.392230987548828125e+01 1.491840076446533203e+01 1.705891042947769165e-01 4.130187332630157471e-01 1.750823408365249634e-01 -5.325134992599487305e-01
4.284000000000000000e+03 5.319597625732421875e+01 1.590814304351806641e+01 3.694076240062713623e-01 1.445195078849792480e+00 5.443808436393737793e-01 2.034222334623336792e-01
4.285000000000000000e+03 6.040591049194335938e+01 1.513409042358398438e+01 1.776827126741409302e-01 3.619318485260009766e+00 1.139100432395935059e+00 1.024594306945800781e+00
4.286000000000000000e+03 6.138915252685546875e+01 1.592573261260986328e+01 8.240263164043426514e-02 3.971466779708862305e+00 1.216160774230957031e+00 1.162683248519897461e+00
4.287000000000000000e+03 6.042333602905273438e+01 1.225047683715820312e+01 2.107141613960266113e-01 3.793920278549194336e+00 1.201390266418457031e+00 8.333001732826232910e-01
4.288000000000000000e+03 6.133897781372070312e+01 1.415136814117431641e+01 1.219039186835289001e-01 4.038998603820800781e+00 1.248270750045776367e+00 1.004301667213439941e+00
4.289000000000000000e+03 5.671738433837890625e+01 1.650192451477050781e+01 3.550614714622497559e-01 2.176650524139404297e+00 7.595136165618896484e-01 6.777126193046569824e-01
4.290000000000000000e+03 4.539316940307617188e+01 1.632612800598144531e+01 1.372521370649337769e-01 4.599390327930450439e-01 1.791573613882064819e-01 -4.949065446853637695e-01
4.291000000000000000e+03 6.056732177734375000e+01 1.607440567016601562e+01 1.597535461187362671e-01 3.604051828384399414e+00 1.129141569137573242e+00 1.118925452232360840e+00
4.292000000000000000e+03 6.213812255859375000e+01 1.502455806732177734e+01 3.488723561167716980e-02 4.335376739501953125e+00 1.311079144477844238e+00 1.108177900314331055e+00
4.293000000000000000e+03 5.057165145874023438e+01 1.575384521484375000e+01 3.148124217987060547e-01 1.033659338951110840e+00 4.045415222644805908e-01 -7.989675551652908325e-02
4.294000000000000000e+03 5.542888259887695312e+01 1.713908767700195312e+01 3.381986320018768311e-01 1.734042286872863770e+00 6.216722726821899414e-01 4.953558146953582764e-01
4.295000000000000000e+03 5.431697845458984375e+01 1.661352348327636719e+01 3.552545905113220215e-01 1.576329350471496582e+00 5.794752240180969238e-01 3.467265963554382324e-01
4.296000000000000000e+03 5.839073562622070312e+01 9.823002815246582031e+00 3.231618106365203857e-01 3.296320199966430664e+00 1.085844635963439941e+00 5.895455479621887207e-01
4.297000000000000000e+03 4.415813446044921875e+01 1.633312606811523438e+01 1.062229350209236145e-01 3.708352148532867432e-01 1.431174427270889282e-01 -5.547001957893371582e-01
4.298000000000000000e+03 5.893707656860351562e+01 8.092201232910156250e+00 3.174041211605072021e-01 3.569098234176635742e+00 1.165950655937194824e+00 5.605103373527526855e-01
4.299000000000000000e+03 6.016872787475585938e+01 1.021314048767089844e+01 2.452275902032852173e-01 3.818421363830566406e+00 1.219094634056091309e+00 7.022975683212280273e-01
4.300000000000000000e+03 6.050587844848632812e+01 9.254451751708984375e+00 2.483666241168975830e-01 3.950255393981933594e+00 1.259586691856384277e+00 6.760303974151611328e-01
4.301000000000000000e+03 5.550360488891601562e+01 -3.794951915740966797e+00 3.211630284786224365e-01 3.202518939971923828e+00 1.057104587554931641e+00 1.863846331834793091e-01
4.302000000000000000e+03 5.947587203979492188e+01 1.533399868011474609e+01 2.461462318897247314e-01 3.240063905715942383e+00 1.045863032341003418e+00 9.635721445083618164e-01
4.303000000000000000e+03 4.219696044921875000e+01 1.073624324798583984e+01 2.697133719921112061e-01 4.394796788692474365e-01 2.127579152584075928e-01 -5.040543079376220703e-01
4.304000000000000000e+03 4.338697814941406250e+01 1.271863746643066406e+01 2.452444434165954590e-01 4.748879373073577881e-01 2.160397171974182129e-01 -4.943084716796875000e-01
4.305000000000000000e+03 5.409513092041015625e+01 1.567760848999023438e+01 3.781997859477996826e-01 1.641358733177185059e+00 6.058675646781921387e-01 3.156694471836090088e-01
4.306000000000000000e+03 5.508790206909179688e+01 1.642267227172851562e+01 3.564469218254089355e-01 1.750203251838684082e+00 6.319950222969055176e-01 4.304279386997222900e-01
4.307000000000000000e+03 4.333675765991210938e+01 7.827469825744628906e+00 3.384024202823638916e-01 6.684815883636474609e-01 3.020651936531066895e-01 -3.829470276832580566e-01
4.308000000000000000e+03 5.630259323120117188e+01 -2.317834615707397461e+00 3.241436481475830078e-01 3.331181049346923828e+00 1.096597433090209961e+00 2.307841181755065918e-01
4.309000000000000000e+03 5.618574142456054688e+01 1.123278141021728516e+00 3.591983020305633545e-01 3.207884788513183594e+00 1.070124864578247070e+00 2.761998176574707031e-01
4.310000000000000000e+03 5.737940597534179688e+01 4.852828979492187500e+00 3.635991811752319336e-01 3.298632383346557617e+00 1.098669409751892090e+00 3.977366089820861816e-01
4.311000000000000000e+03 5.845604705810546875e+01 5.288134574890136719e+00 3.346803188323974609e-01 3.567906856536865234e+00 1.170776128768920898e+00 4.614705145359039307e-01
4.312000000000000000e+03 5.857818603515625000e+01 2.510591983795166016e+00 3.268032073974609375e-01 3.675622940063476562e+00 1.200727820396423340e+00 3.871811032295227051e-01
4.313000000000000000e+03 4.367129135131835938e+01 -2.847023010253906250e+00 3.153788447380065918e-01 1.085975527763366699e+00 4.204063117504119873e-01 -1.821596473455429077e-01
4.314000000000000000e+03 4.528342056274414062e+01 -2.738558650016784668e-01 3.545721769332885742e-01 1.279206514358520508e+00 4.901336133480072021e-01 -1.609822064638137817e-01
4.315000000000000000e+03 4.631616592407226562e+01 2.101355314254760742e+00 3.745101988315582275e-01 1.305895686149597168e+00 5.041217803955078125e-01 -1.634803414344787598e-01
4.316000000000000000e+03 4.505754089355468750e+01 1.770688652992248535e+00 3.613202869892120361e-01 1.148938417434692383e+00 4.530776143074035645e-01 -2.016172707080841064e-01
4.317000000000000000e+03 4.472157287597656250e+01 1.090301990509033203e+01 3.340105116367340088e-01 6.916552186012268066e-01 3.076997101306915283e-01 -3.875885605812072754e-01
4.318000000000000000e+03 6.188010406494140625e+01 9.892914772033691406e+00 1.670175492763519287e-01 4.361486434936523438e+00 1.358551144599914551e+00 7.504910230636596680e-01
4.319000000000000000e+03 4.621185684204101562e+01 -5.888274669647216797e+00 3.037335276603698730e-01 1.585496187210083008e+00 5.667689442634582520e-01 -8.398084342479705811e-02
4.320000000000000000e+03 5.541016387939453125e+01 -8.135962486267089844e+00 2.703582644462585449e-01 3.309221267700195312e+00 1.073873877525329590e+00 1.508013457059860229e-01
4.321000000000000000e+03 5.453452301025390625e+01 -9.874189376831054688e+00 2.534438371658325195e-01 3.179038286209106445e+00 1.029744625091552734e+00 1.206681355834007263e-01
4.322000000000000000e+03 5.656474685668945312e+01 -1.360203647613525391e+01 2.023146748542785645e-01 3.629864692687988281e+00 1.149653792381286621e+00 1.379644721746444702e-01
4.323000000000000000e+03 5.998786544799804688e+01 -1.908085823059082031e+01 1.234190836548805237e-01 4.325292587280273438e+00 1.334613561630249023e+00 1.325992047786712646e-01
4.324000000000000000e+03 4.220547103881835938e+01 5.688164710998535156e+00 3.211343884468078613e-01 6.041670441627502441e-01 2.775904238224029541e-01 -3.810440599918365479e-01
4.325000000000000000e+03 6.148322296142578125e+01 -1.979701042175292969e+01 1.196534559130668640e-01 4.577830314636230469e+00 1.409245014190673828e+00 1.376959383487701416e-01
4.326000000000000000e+03 5.509263610839843750e+01 -1.264093589782714844e+01 2.212326675653457642e-01 3.339975357055664062e+00 1.068362474441528320e+00 1.170372739434242249e-01
4.327000000000000000e+03 4.291817474365234375e+01 -1.720459556579589844e+01 1.648619025945663452e-01 1.241050720214843750e+00 4.217737913131713867e-01 -6.285807490348815918e-02
4.328000000000000000e+03 5.401281356811523438e+01 -7.213916301727294922e+00 2.923265695571899414e-01 3.021932601928710938e+00 9.942777752876281738e-01 1.270615756511688232e-01
4.329000000000000000e+03 5.689699935913085938e+01 -4.555857181549072266e+00 2.976702749729156494e-01 3.536671400070190430e+00 1.150302529335021973e+00 2.225467413663864136e-01
4.330000000000000000e+03 4.122713851928710938e+01 -8.110170364379882812e+00 2.321310341358184814e-01 8.374879956245422363e-01 3.208857178688049316e-01 -1.663002371788024902e-01
4.331000000000000000e+03 4.325020217895507812e+01 -7.840759277343750000e+00 2.612419426441192627e-01 1.145479202270507812e+00 4.220163524150848389e-01 -1.341134309768676758e-01
4.332000000000000000e+03 5.973168563842773438e+01 1.629190444946289062e+01 2.271507978439331055e-01 3.245305776596069336e+00 1.041736960411071777e+00 1.057127475738525391e+00
4.333000000000000000e+03 6.032944107055664062e+01 1.416644096374511719e+01 1.985691636800765991e-01 3.674509525299072266e+00 1.161923646926879883e+00 9.536471366882324219e-01
4.334000000000000000e+03 5.221410369873046875e+01 1.618052673339843750e+01 3.415965437889099121e-01 1.219319105148315430e+00 4.682746827602386475e-01 7.690678536891937256e-02
4.335000000000000000e+03 5.390205383300781250e+01 1.461724376678466797e+01 4.082231819629669189e-01 1.731005787849426270e+00 6.417686939239501953e-01 2.962573766708374023e-01
4.336000000000000000e+03 5.890746307373046875e+01 1.660343933105468750e+01 2.703314125537872314e-01 2.912435770034790039e+00 9.548301696777343750e-01 9.807667136192321777e-01
4.337000000000000000e+03 5.917837142944335938e+01 1.007021045684814453e+01 2.871969640254974365e-01 3.531498193740844727e+00 1.145608544349670410e+00 6.462455391883850098e-01
4.338000000000000000e+03 5.733275222778320312e+01 1.526110267639160156e+01 3.531506061553955078e-01 2.508839130401611328e+00 8.585969209671020508e-01 7.131762504577636719e-01
4.339000000000000000e+03 5.590200805664062500e+01 1.389288902282714844e+01 3.996241092681884766e-01 2.290154457092285156e+00 8.069335818290710449e-01 5.471583008766174316e-01
4.340000000000000000e+03 4.797305297851562500e+01 1.480502986907958984e+01 2.814570963382720947e-01 8.015174865722656250e-01 3.248923718929290771e-01 -2.874192595481872559e-01
4.341000000000000000e+03 4.745299148559570312e+01 1.604353713989257812e+01 2.136473655700683594e-01 6.540380716323852539e-01 2.603056132793426514e-01 -3.631635606288909912e-01
4.342000000000000000e+03 5.294564437866210938e+01 1.493772125244140625e+01 3.864567875862121582e-01 1.487386107444763184e+00 5.621528625488281250e-01 1.842812746763229370e-01
4.343000000000000000e+03 4.969775390625000000e+01 1.499781036376953125e+01 3.236065506935119629e-01 9.858329892158508301e-01 3.928318619728088379e-01 -1.522003859281539917e-01
4.344000000000000000e+03 4.307777023315429688e+01 1.409960269927978516e+01 1.866854131221771240e-01 3.866488933563232422e-01 1.720002889633178711e-01 -5.478581190109252930e-01
4.345000000000000000e+03 4.700353240966796875e+01 1.525624275207519531e+01 2.362709343433380127e-01 6.533111929893493652e-01 2.668746411800384521e-01 -3.716581463813781738e-01
4.346000000000000000e+03 4.830453491210937500e+01 1.563638496398925781e+01 2.599138319492340088e-01 7.782683372497558594e-01 3.114546537399291992e-01 -2.829477190971374512e-01
4.347000000000000000e+03 4.412647628784179688e+01 1.325565719604492188e+01 2.563472390174865723e-01 5.214462876319885254e-01 2.333380579948425293e-01 -4.725385606288909912e-01
4.348000000000000000e+03 5.450107955932617188e+01 1.938001394271850586e+00 3.911010622978210449e-01 2.805106163024902344e+00 9.588621854782104492e-01 2.175049632787704468e-01
4.349000000000000000e+03 5.625876235961914062e+01 4.330133438110351562e+00 3.837603330612182617e-01 3.080706596374511719e+00 1.039340019226074219e+00 3.320195972919464111e-01
4.350000000000000000e+03 5.884259414672851562e+01 1.093297386169433594e+01 3.091337978839874268e-01 3.397272348403930664e+00 1.111921787261962891e+00 6.747133135795593262e-01
4.351000000000000000e+03 5.923900222778320312e+01 1.316272735595703125e+01 2.729876935482025146e-01 3.335393667221069336e+00 1.082514405250549316e+00 8.141669631004333496e-01
4.352000000000000000e+03 5.495895767211914062e+01 1.555744361877441406e+01 3.872205317020416260e-01 1.825513005256652832e+00 6.638200879096984863e-01 4.214709699153900146e-01
4.353000000000000000e+03 5.877255249023437500e+01 6.744197368621826172e+00 3.172066509723663330e-01 3.586223125457763672e+00 1.171028971672058105e+00 5.066151618957519531e-01
4.354000000000000000e+03 5.580624389648437500e+01 1.556480026245117188e+01 3.832969367504119873e-01 2.075746059417724609e+00 7.377129197120666504e-01 5.586813688278198242e-01
4.355000000000000000e+03 5.490620803833007812e+01 5.167152881622314453e-01 3.735089600086212158e-01 2.949372053146362305e+00 9.968642592430114746e-01 2.186783701181411743e-01
4.356000000000000000e+03 4.416166687011718750e+01 8.460127830505371094e+00 3.518006205558776855e-01 7.540196180343627930e-01 3.317460715770721436e-01 -3.648988902568817139e-01
4.357000000000000000e+03 4.280641555786132812e+01 6.780559062957763672e+00 3.272099196910858154e-01 6.412134170532226562e-01 2.905269861221313477e-01 -3.826849758625030518e-01
4.358000000000000000e+03 4.602581024169921875e+01 8.621188402175903320e-01 3.685721158981323242e-01 1.326059818267822266e+00 5.083895921707153320e-01 -1.558977067470550537e-01
4.359000000000000000e+03 4.315900421142578125e+01 1.027278137207031250e+01 3.153082430362701416e-01 5.577680468559265137e-01 2.619228959083557129e-01 -4.403946697711944580e-01
4.360000000000000000e+03 4.270409774780273438e+01 1.146923923492431641e+01 2.558423578739166260e-01 4.540346562862396240e-01 2.129631042480468750e-01 -4.968935549259185791e-01
4.361000000000000000e+03 4.450321197509765625e+01 -1.524503707885742188e+00 3.375131487846374512e-01 1.186020851135253906e+00 4.570601880550384521e-01 -1.721549332141876221e-01
4.362000000000000000e+03 4.409095001220703125e+01 6.216909408569335938e+00 3.605615794658660889e-01 8.281722068786621094e-01 3.566201329231262207e-01 -3.200669586658477783e-01
4.363000000000000000e+03 5.841249465942382812e+01 8.753133773803710938e+00 3.395027220249176025e-01 3.416820764541625977e+00 1.126897096633911133e+00 5.576360821723937988e-01
4.364000000000000000e+03 5.312034225463867188e+01 -8.863288879394531250e+00 2.755803465843200684e-01 2.888140201568603516e+00 9.491161704063415527e-01 9.615326672792434692e-02
4.365000000000000000e+03 5.728126144409179688e+01 -3.100069522857666016e+00 3.026120662689208984e-01 3.563220977783203125e+00 1.159749984741210938e+00 2.535592615604400635e-01
4.366000000000000000e+03 4.237354278564453125e+01 -9.133622169494628906e+00 2.355116307735443115e-01 1.039035916328430176e+00 3.823642730712890625e-01 -1.398099958896636963e-01
4.367000000000000000e+03 4.397962570190429688e+01 -6.479885578155517578e+00 2.807303965091705322e-01 1.233548521995544434e+00 4.542836844921112061e-01 -1.303065866231918335e-01
4.368000000000000000e+03 5.363432693481445312e+01 -1.159938335418701172e+01 2.406201213598251343e-01 3.043513298034667969e+00 9.852399826049804688e-01 9.179268777370452881e-02
4.369000000000000000e+03 4.438521575927734375e+01 7.404169559478759766e+00 3.612002730369567871e-01 8.284314870834350586e-01 3.568895161151885986e-01 -3.341723680496215820e-01
4.370000000000000000e+03 4.386700057983398438e+01 -1.288150310516357422e+01 2.123853266239166260e-01 1.337985396385192871e+00 4.651112258434295654e-01 -7.979016005992889404e-02
4.371000000000000000e+03 4.834869003295898438e+01 -9.672976493835449219e+00 2.721737921237945557e-01 2.033993244171142578e+00 6.918501257896423340e-01 -1.056822482496500015e-02
4.372000000000000000e+03 6.002815246582031250e+01 -2.099645996093750000e+01 1.246455311775207520e-01 4.355596065521240234e+00 1.344072461128234863e+00 1.270437687635421753e-01
4.373000000000000000e+03 5.861845016479492188e+01 -1.705038452148437500e+01 1.589303016662597656e-01 4.019258975982666016e+00 1.253456830978393555e+00 1.365095824003219604e-01
4.374000000000000000e+03 4.301242828369140625e+01 -4.255028247833251953e+00 2.827493548393249512e-01 1.021527886390686035e+00 3.912831544876098633e-01 -1.840689033269882202e-01
4.375000000000000000e+03 5.822424316406250000e+01 -1.898673057556152344e+01 1.391817927360534668e-01 3.974296808242797852e+00 1.234043598175048828e+00 1.272757351398468018e-01
4.376000000000000000e+03 4.520520782470703125e+01 -1.415127086639404297e+01 2.067673802375793457e-01 1.590379476547241211e+00 5.391440391540527344e-01 -5.246207863092422485e-02
4.377000000000000000e+03 4.274603652954101562e+01 -1.432338714599609375e+01 1.908456981182098389e-01 1.178757548332214355e+00 4.108809828758239746e-01 -8.507236838340759277e-02
4.378000000000000000e+03 5.545864105224609375e+01 -1.020673155784606934e+00 3.512876331806182861e-01 3.119944810867309570e+00 1.041369676589965820e+00 2.236640155315399170e-01
4.379000000000000000e+03 5.294697570800781250e+01 -2.421511411666870117e+00 3.536863327026367188e-01 2.648549795150756836e+00 9.006708264350891113e-01 1.211587786674499512e-01
4.380000000000000000e+03 5.201556015014648438e+01 1.521902370452880859e+01 3.637508153915405273e-01 1.291881561279296875e+00 4.966897368431091309e-01 7.602407783269882202e-02
4.381000000000000000e+03 4.743880462646484375e+01 1.398563098907470703e+01 3.008586764335632324e-01 8.044098615646362305e-01 3.315805494785308838e-01 -3.069161772727966309e-01
4.382000000000000000e+03 5.257293701171875000e+01 1.401202392578125000e+01 4.085883200168609619e-01 1.515588521957397461e+00 5.772530436515808105e-01 1.508963853120803833e-01
4.383000000000000000e+03 4.556378173828125000e+01 1.493927955627441406e+01 2.163281142711639404e-01 5.452629923820495605e-01 2.284773439168930054e-01 -4.472143650054931641e-01
4.384000000000000000e+03 5.347834014892578125e+01 1.354097557067871094e+01 4.203900992870330811e-01 1.756895780563354492e+00 6.531857252120971680e-01 2.608431875705718994e-01
4.385000000000000000e+03 5.175938796997070312e+01 1.441472339630126953e+01 3.862599134445190430e-01 1.354188323020935059e+00 5.221344828605651855e-01 6.324277073144912720e-02
4.386000000000000000e+03 4.598194885253906250e+01 1.224660778045654297e+01 3.230754733085632324e-01 7.446180582046508789e-01 3.203080594539642334e-01 -3.561823666095733643e-01
4.387000000000000000e+03 5.715114593505859375e+01 5.998257160186767578e+00 3.692013323307037354e-01 3.175521373748779297e+00 1.063416838645935059e+00 4.073776900768280029e-01
4.388000000000000000e+03 5.800650405883789062e+01 6.228508949279785156e+00 3.397919833660125732e-01 3.421275377273559570e+00 1.128320217132568359e+00 4.673984348773956299e-01
4.389000000000000000e+03 5.946926879882812500e+01 1.213249397277832031e+01 2.644476890563964844e-01 3.492223501205444336e+00 1.127001404762268066e+00 7.797917127609252930e-01
4.390000000000000000e+03 4.528479003906250000e+01 8.747858047485351562e+00 3.708198070526123047e-01 8.628053665161132812e-01 3.700875341892242432e-01 -3.123663663864135742e-01
4.391000000000000000e+03 4.375381088256835938e+01 9.497208595275878906e+00 3.313283920288085938e-01 6.544443368911743164e-01 2.957318127155303955e-01 -4.006678462028503418e-01
4.392000000000000000e+03 5.923619842529296875e+01 1.427640819549560547e+01 2.664777040481567383e-01 3.256725072860717773e+00 1.056960821151733398e+00 8.711330890655517578e-01
4.393000000000000000e+03 4.890055847167968750e+01 -5.482154846191406250e+00 3.273200094699859619e-01 2.021392107009887695e+00 7.046136260032653809e-01 -9.745592251420021057e-03
4.394000000000000000e+03 5.488307189941406250e+01 1.455355072021484375e+01 4.080165922641754150e-01 1.961328148841857910e+00 7.108034491539001465e-01 4.126845896244049072e-01
4.395000000000000000e+03 5.815856552124023438e+01 1.284442138671875000e+01 3.265004754066467285e-01 3.018398046493530273e+00 1.003469586372375488e+00 7.202601432800292969e-01
4.396000000000000000e+03 5.849639129638671875e+01 1.184733772277832031e+01 3.131940662860870361e-01 3.234612464904785156e+00 1.064341902732849121e+00 6.953373551368713379e-01
4.397000000000000000e+03 5.676198959350585938e+01 1.398227787017822266e+01 3.802415132522583008e-01 2.491402149200439453e+00 8.614930510520935059e-01 6.313268542289733887e-01
4.398000000000000000e+03 5.661396789550781250e+01 1.557786083221435547e+01 3.696887195110321045e-01 2.283513784408569336e+00 7.959607839584350586e-01 6.628720760345458984e-01
4.399000000000000000e+03 4.804779815673828125e+01 6.479632377624511719e+00 4.255955815315246582e-01 1.359943747520446777e+00 5.356618165969848633e-01 -1.275905966758728027e-01
4.400000000000000000e+03 4.779693603515625000e+01 1.644230008125305176e+00 3.953629136085510254e-01 1.570685505867004395e+00 5.898145437240600586e-01 -8.624864369630813599e-02
4.401000000000000000e+03 4.496073913574218750e+01 4.235510349273681641e+00 3.804668188095092773e-01 1.044915080070495605e+00 4.276145696640014648e-01 -2.392719089984893799e-01
4.402000000000000000e+03 5.781784439086914062e+01 9.217120170593261719e+00 3.539565503597259521e-01 3.216724157333374023e+00 1.071204185485839844e+00 5.472087860107421875e-01
4.403000000000000000e+03 5.767390441894531250e+01 8.415504455566406250e+00 3.619606196880340576e-01 3.218622207641601562e+00 1.074174880981445312e+00 5.254142284393310547e-01
4.404000000000000000e+03 5.317942428588867188e+01 -1.635705184936523438e+01 1.967684030532836914e-01 3.037105798721313477e+00 9.701622128486633301e-01 6.421174108982086182e-02
4.405000000000000000e+03 5.479201126098632812e+01 -1.753603172302246094e+01 1.750939935445785522e-01 3.365481853485107422e+00 1.062172770500183105e+00 7.966997474431991577e-02
4.406000000000000000e+03 4.569717788696289062e+01 7.364106655120849609e+00 3.883751034736633301e-01 9.998645186424255371e-01 4.164718985557556152e-01 -2.602733075618743896e-01
4.407000000000000000e+03 4.166767120361328125e+01 -1.885925865173339844e+01 1.373312473297119141e-01 1.031102061271667480e+00 3.505299985408782959e-01 -6.512390077114105225e-02
4.408000000000000000e+03 5.353782653808593750e+01 5.508492887020111084e-02 3.837495744228363037e-01 2.691376686096191406e+00 9.225378632545471191e-01 1.623594313859939575e-01
4.409000000000000000e+03 4.578216552734375000e+01 -2.373189210891723633e+00 3.368763625621795654e-01 1.421223878860473633e+00 5.274300575256347656e-01 -1.274825036525726318e-01
4.410000000000000000e+03 4.514036560058593750e+01 -3.691113233566284180e+00 3.175868988037109375e-01 1.349683165550231934e+00 5.001810193061828613e-01 -1.382396519184112549e-01
4.411000000000000000e+03 4.459342575073242188e+01 -8.869833946228027344e+00 2.586104869842529297e-01 1.388481974601745605e+00 4.941277503967285156e-01 -9.731157869100570679e-02
4.412000000000000000e+03 4.362794876098632812e+01 -1.025499248504638672e+01 2.387728989124298096e-01 1.252736806869506836e+00 4.474529027938842773e-01 -1.048648357391357422e-01
4.413000000000000000e+03 5.198547744750976562e+01 1.549438834190368652e+00 4.102362096309661865e-01 2.328993558883666992e+00 8.217688798904418945e-01 1.041896715760231018e-01
4.414000000000000000e+03 5.569031524658203125e+01 2.440299510955810547e+00 3.778907358646392822e-01 3.041183471679687500e+00 1.025722265243530273e+00 2.797123789787292480e-01
4.415000000000000000e+03 4.558095169067382812e+01 5.786976337432861328e+00 3.946041762828826904e-01 1.064741969108581543e+00 4.378038346767425537e-01 -2.403439879417419434e-01
4.416000000000000000e+03 5.417431640625000000e+01 -1.447992038726806641e+01 2.071144729852676392e-01 3.200955867767333984e+00 1.022421121597290039e+00 8.718842267990112305e-02
4.417000000000000000e+03 4.436803054809570312e+01 -1.854272079467773438e+01 1.619430631399154663e-01 1.484310030937194824e+00 4.938759207725524902e-01 -3.882123902440071106e-02
4.418000000000000000e+03 5.278357696533203125e+01 1.266618537902832031e+01 4.386495053768157959e-01 1.724926948547363281e+00 6.490729451179504395e-01 1.901390850543975830e-01
4.419000000000000000e+03 5.434316635131835938e+01 1.280441665649414062e+01 4.324315488338470459e-01 2.012166738510131836e+00 7.333794832229614258e-01 3.477650880813598633e-01
4.420000000000000000e+03 5.693909072875976562e+01 9.665436744689941406e+00 3.804934322834014893e-01 2.924413442611694336e+00 9.914720654487609863e-01 5.050754547119140625e-01
4.421000000000000000e+03 5.116916275024414062e+01 1.499930667877197266e+01 3.613083958625793457e-01 1.175701737403869629e+00 4.611030220985412598e-01 -6.597990170121192932e-03
4.422000000000000000e+03 4.891238021850585938e+01 1.420595645904541016e+01 3.275016546249389648e-01 9.538823962211608887e-01 3.844152092933654785e-01 -1.969097256660461426e-01
4.423000000000000000e+03 5.407058334350585938e+01 -1.586990475654602051e+00 3.564080595970153809e-01 2.858114480972290039e+00 9.643567800521850586e-01 1.646418124437332153e-01
4.424000000000000000e+03 4.566743087768554688e+01 1.035748386383056641e+01 3.595281839370727539e-01 8.280810713768005371e-01 3.562827706336975098e-01 -3.225322663784027100e-01
4.425000000000000000e+03 4.375529479980468750e+01 1.198432731628417969e+01 2.729775011539459229e-01 5.321674942970275879e-01 2.415434867143630981e-01 -4.619026482105255127e-01
4.426000000000000000e+03 4.300722122192382812e+01 1.214932060241699219e+01 2.477119565010070801e-01 4.548837840557098389e-01 2.107787281274795532e-01 -4.987856745719909668e-01
4.427000000000000000e+03 4.713428115844726562e+01 5.153614044189453125e+00 4.157617986202239990e-01 1.299825787544250488e+00 5.146762728691101074e-01 -1.568700522184371948e-01
4.428000000000000000e+03 4.703562545776367188e+01 7.805279731750488281e+00 4.089172780513763428e-01 1.149533748626708984e+00 4.675353169441223145e-01 -1.986655890941619873e-01
4.429000000000000000e+03 4.650000762939453125e+01 1.441344547271728516e+01 2.631812691688537598e-01 6.585831046104431152e-01 2.765293121337890625e-01 -3.819927871227264404e-01
4.430000000000000000e+03 5.202290344238281250e+01 1.318709182739257812e+01 4.161359965801239014e-01 1.525327324867248535e+00 5.824390053749084473e-01 1.041622087359428406e-01
4.431000000000000000e+03 4.960256195068359375e+01 5.700570344924926758e-02 3.858412504196166992e-01 1.935772538185119629e+00 6.964841485023498535e-01 -5.759410094469785690e-03
4.432000000000000000e+03 4.654335403442382812e+01 -1.116180777549743652e+00 3.593623638153076172e-01 1.486753702163696289e+00 5.538347959518432617e-01 -1.130410879850387573e-01
4.433000000000000000e+03 5.816363143920898438e+01 1.465524959564208984e+01 3.244426548480987549e-01 2.856916189193725586e+00 9.544076919555664062e-01 7.966648936271667480e-01
4.434000000000000000e+03 5.669290924072265625e+01 1.479490566253662109e+01 3.752015531063079834e-01 2.402070283889770508e+00 8.331815600395202637e-01 6.509401798248291016e-01
4.435000000000000000e+03 5.662697982788085938e+01 8.448516845703125000e+00 3.896179795265197754e-01 2.933063745498657227e+00 9.968044757843017578e-01 4.542866945266723633e-01
4.436000000000000000e+03 5.811803817749023438e+01 7.573795795440673828e+00 3.417849540710449219e-01 3.346141576766967773e+00 1.106377959251403809e+00 5.095604658126831055e-01
4.437000000000000000e+03 5.856477737426757812e+01 1.568867874145507812e+01 2.982089221477508545e-01 2.903493165969848633e+00 9.605106115341186523e-01 9.015390276908874512e-01
4.438000000000000000e+03 5.551127243041992188e+01 5.502650260925292969e+00 3.983154892921447754e-01 2.869792461395263672e+00 9.804323911666870117e-01 3.207497298717498779e-01
4.439000000000000000e+03 5.462078475952148438e+01 4.782942295074462891e+00 4.143916070461273193e-01 2.698458909988403320e+00 9.338551759719848633e-01 2.650778591632843018e-01
4.440000000000000000e+03 5.582410430908203125e+01 1.307783031463623047e+01 4.057154953479766846e-01 2.371472358703613281e+00 8.331563472747802734e-01 5.055562853813171387e-01
4.441000000000000000e+03 4.491965866088867188e+01 1.403518009185791016e+01 2.436064779758453369e-01 5.401222705841064453e-01 2.351186275482177734e-01 -4.564552009105682373e-01
4.442000000000000000e+03 5.520345306396484375e+01 3.688507556915283203e+00 3.952429294586181641e-01 2.876269817352294922e+00 9.814538359642028809e-01 2.751856744289398193e-01
4.443000000000000000e+03 5.064944076538085938e+01 1.587880373001098633e+00 4.129460752010345459e-01 2.093747615814208984e+00 7.520080804824829102e-01 3.481266275048255920e-02
4.444000000000000000e+03 4.652125167846679688e+01 3.596131801605224609e+00 3.987177908420562744e-01 1.292728424072265625e+00 5.074338912963867188e-01 -1.677259206771850586e-01
4.445000000000000000e+03 5.262157058715820312e+01 -6.267120361328125000e+00 3.089149594306945801e-01 2.724021434783935547e+00 9.098809361457824707e-01 9.632055461406707764e-02
4.446000000000000000e+03 5.345150375366210938e+01 -4.721476078033447266e+00 3.249668776988983154e-01 2.846744060516357422e+00 9.515132904052734375e-01 1.295225471258163452e-01
4.447000000000000000e+03 5.656716156005859375e+01 7.311409950256347656e+00 3.866631090641021729e-01 3.010595321655273438e+00 1.019177556037902832e+00 4.300066232681274414e-01
4.448000000000000000e+03 5.467966842651367188e+01 6.506018161773681641e+00 4.237747788429260254e-01 2.592058658599853516e+00 9.047500491142272949e-01 2.927691936492919922e-01
4.449000000000000000e+03 4.701755142211914062e+01 1.321304130554199219e+01 3.237581849098205566e-01 8.119703531265258789e-01 3.407185673713684082e-01 -3.143684566020965576e-01
4.450000000000000000e+03 5.218881607055664062e+01 -1.049774837493896484e+01 2.593260407447814941e-01 2.752149343490600586e+00 9.034426212310791016e-01 6.693514436483383179e-02
4.451000000000000000e+03 5.268019866943359375e+01 -1.333442497253417969e+01 2.264464944601058960e-01 2.897815942764282227e+00 9.372787475585937500e-01 6.651204079389572144e-02
4.452000000000000000e+03 5.375984954833984375e+01 -1.966609001159667969e+01 1.680426150560379028e-01 3.173836946487426758e+00 1.002563834190368652e+00 5.886225402355194092e-02
4.453000000000000000e+03 4.659393310546875000e+01 -4.386161327362060547e+00 3.276075124740600586e-01 1.615168094635009766e+00 5.828326940536499023e-01 -8.196038752794265747e-02
4.454000000000000000e+03 5.126899337768554688e+01 -5.267409324645996094e+00 3.275247216224670410e-01 2.440826654434204102e+00 8.305054306983947754e-01 5.549007654190063477e-02
4.455000000000000000e+03 5.446590042114257812e+01 -2.344946861267089844e+01 1.328034102916717529e-01 3.350835084915161133e+00 1.045091509819030762e+00 6.054475903511047363e-02
4.456000000000000000e+03 4.924560928344726562e+01 -1.840753173828125000e+01 1.776003539562225342e-01 2.341634273529052734e+00 7.557703852653503418e-01 9.274129755795001984e-03
4.457000000000000000e+03 4.092276382446289062e+01 -2.267633819580078125e+01 1.216339021921157837e-01 9.777281880378723145e-01 3.298086225986480713e-01 -3.411071375012397766e-02
4.458000000000000000e+03 5.676912689208984375e+01 1.312700462341308594e+01 3.726162612438201904e-01 2.618550062179565430e+00 8.973498940467834473e-01 5.938673615455627441e-01
4.459000000000000000e+03 5.120240783691406250e+01 1.365765762329101562e+01 4.029889702796936035e-01 1.325731277465820312e+00 5.186160802841186523e-01 2.453626692295074463e-02
4.460000000000000000e+03 4.635892105102539062e+01 9.190829277038574219e+00 3.859989345073699951e-01 9.656022191047668457e-01 4.054803550243377686e-01 -2.655758559703826904e-01
4.461000000000000000e+03 4.895867538452148438e+01 1.271105861663818359e+01 3.932125568389892578e-01 1.103684663772583008e+00 4.490691721439361572e-01 -1.521176695823669434e-01
4.462000000000000000e+03 5.388198852539062500e+01 5.657473564147949219e+00 4.262261390686035156e-01 2.475836992263793945e+00 8.706189393997192383e-01 2.299416363239288330e-01
4.463000000000000000e+03 5.019160461425781250e+01 6.609324455261230469e+00 4.439358413219451904e-01 1.722331404685974121e+00 6.498801708221435547e-01 4.653195850551128387e-03
4.464000000000000000e+03 5.745205688476562500e+01 1.143003368377685547e+01 3.715862333774566650e-01 2.931617259979248047e+00 9.909610748291015625e-01 6.005762219429016113e-01
4.465000000000000000e+03 5.267576980590820312e+01 9.427264213562011719e+00 4.570768773555755615e-01 1.967497944831848145e+00 7.273724675178527832e-01 1.822034269571304321e-01
4.466000000000000000e+03 4.602746582031250000e+01 1.345306205749511719e+01 2.879180908203125000e-01 6.750994920730590820e-01 2.889052629470825195e-01 -3.840645253658294678e-01
4.467000000000000000e+03 4.476128005981445312e+01 1.210184383392333984e+01 2.941853404045104980e-01 6.315931081771850586e-01 2.777335345745086670e-01 -4.160599112510681152e-01
4.468000000000000000e+03 4.656660461425781250e+01 1.098363876342773438e+01 3.660906851291656494e-01 8.870493173599243164e-01 3.759419918060302734e-01 -2.950559556484222412e-01
4.469000000000000000e+03 5.214894104003906250e+01 -3.843266010284423828e+00 3.458683490753173828e-01 2.549301385879516602e+00 8.685509562492370605e-01 9.165696054697036743e-02
4.470000000000000000e+03 4.775584030151367188e+01 -2.033072471618652344e+00 3.599812090396881104e-01 1.689630508422851562e+00 6.148835420608520508e-01 -6.763340532779693604e-02
4.471000000000000000e+03 5.327076339721679688e+01 1.626369118690490723e+00 3.987454473972320557e-01 2.562874317169189453e+00 8.884859681129455566e-01 1.617712080478668213e-01
4.472000000000000000e+03 5.415373229980468750e+01 3.196442604064941406e+00 4.075088202953338623e-01 2.675423622131347656e+00 9.248797297477722168e-01 2.203388959169387817e-01
4.473000000000000000e+03 5.713196563720703125e+01 1.231769561767578125e+01 3.712739944458007812e-01 2.731575489044189453e+00 9.308548569679260254e-01 5.959528684616088867e-01
4.474000000000000000e+03 5.209903717041015625e+01 -6.807884783484041691e-04 3.895377218723297119e-01 2.422923326492309570e+00 8.437382578849792480e-01 9.726183116436004639e-02
4.475000000000000000e+03 5.559238052368164062e+01 7.189052104949951172e+00 4.137374162673950195e-01 2.752677202224731445e+00 9.499244093894958496e-01 3.489792346954345703e-01
4.476000000000000000e+03 5.622745513916015625e+01 6.347746372222900391e+00 3.894378542900085449e-01 2.978917121887207031e+00 1.010506510734558105e+00 3.679908215999603271e-01
4.477000000000000000e+03 5.305878067016601562e+01 2.950377941131591797e+00 4.200995862483978271e-01 2.462565422058105469e+00 8.647994995117187500e-01 1.622704416513442993e-01
4.478000000000000000e+03 5.414986419677734375e+01 -3.160345077514648438e+00 3.411712944507598877e-01 2.944060087203979492e+00 9.855694174766540527e-01 1.649083942174911499e-01
4.479000000000000000e+03 5.173452758789062500e+01 -1.543916344642639160e+00 3.655306100845336914e-01 2.411948680877685547e+00 8.332437872886657715e-01 8.583949506282806396e-02
4.480000000000000000e+03 5.781988143920898438e+01 1.052337741851806641e+01 3.532077670097351074e-01 3.088596343994140625e+00 1.032541275024414062e+00 5.886734724044799805e-01
4.481000000000000000e+03 4.600527954101562500e+01 -1.977606582641601562e+01 1.727351397275924683e-01 1.800855994224548340e+00 5.920773148536682129e-01 -1.660565100610256195e-02
4.482000000000000000e+03 4.972380065917968750e+01 1.337800502777099609e+01 3.880256414413452148e-01 1.134142160415649414e+00 4.566503465175628662e-01 -9.994657337665557861e-02
4.483000000000000000e+03 4.853054046630859375e+01 4.254978656768798828e+00 4.264880418777465820e-01 1.591712474822998047e+00 6.054601669311523438e-01 -7.311905175447463989e-02
4.484000000000000000e+03 4.874847412109375000e+01 -1.245390224456787109e+01 2.404760271310806274e-01 2.160074234008789062e+00 7.201650738716125488e-01 2.900668652728199959e-03
4.485000000000000000e+03 3.904706954956054688e+01 -2.334211730957031250e+01 1.047798767685890198e-01 6.573173999786376953e-01 2.286291867494583130e-01 -6.431313604116439819e-02
4.486000000000000000e+03 4.792387390136718750e+01 -1.685625267028808594e+01 1.951219439506530762e-01 2.065844535827636719e+00 6.782899498939514160e-01 -4.173251800239086151e-03
4.487000000000000000e+03 4.907886505126953125e+01 -1.535140705108642578e+01 2.095118612051010132e-01 2.263812303543090820e+00 7.419972419738769531e-01 8.794600144028663635e-03
4.488000000000000000e+03 4.859879302978515625e+01 -8.280050754547119141e-01 3.737600445747375488e-01 1.804893612861633301e+00 6.535961031913757324e-01 -4.061676934361457825e-02
4.489000000000000000e+03 4.783172988891601562e+01 -6.911799907684326172e+00 3.037831783294677734e-01 1.877498149871826172e+00 6.543844342231750488e-01 -3.425111621618270874e-02
4.490000000000000000e+03 5.201299285888671875e+01 1.009384155273437500e+01 4.490756988525390625e-01 1.785598993301391602e+00 6.704024076461791992e-01 1.225876212120056152e-01
4.491000000000000000e+03 4.819098663330078125e+01 8.684078216552734375e+00 4.248174130916595459e-01 1.265179634094238281e+00 5.069991350173950195e-01 -1.441575139760971069e-01
4.492000000000000000e+03 4.920891189575195312e+01 3.046147584915161133e+00 4.234583675861358643e-01 1.749106049537658691e+00 6.517693400382995605e-01 -3.145467862486839294e-02
4.493000000000000000e+03 5.196090316772460938e+01 4.239104747772216797e+00 4.284932911396026611e-01 2.198579072952270508e+00 7.881217598915100098e-01 1.093566641211509705e-01
4.494000000000000000e+03 5.533017349243164062e+01 1.206895446777343750e+01 4.227733910083770752e-01 2.341128349304199219e+00 8.291705250740051270e-01 4.306057691574096680e-01
4.495000000000000000e+03 5.641162109375000000e+01 1.150430870056152344e+01 3.991703093051910400e-01 2.667460680007934570e+00 9.199892878532409668e-01 5.062391757965087891e-01
4.496000000000000000e+03 5.207596969604492188e+01 1.200590801239013672e+01 4.470991194248199463e-01 1.663505554199218750e+00 6.331813931465148926e-01 1.298216134309768677e-01
4.497000000000000000e+03 5.504436874389648438e+01 9.249887466430664062e+00 4.282626211643218994e-01 2.501308679580688477e+00 8.788713812828063965e-01 3.542064428329467773e-01
4.498000000000000000e+03 5.376958465576171875e+01 7.307392597198486328e+00 4.312725961208343506e-01 2.349961757659912109e+00 8.343702554702758789e-01 2.389229238033294678e-01
4.499000000000000000e+03 4.925963592529296875e+01 1.490951061248779297e+00 4.027224779129028320e-01 1.832760930061340332e+00 6.706450581550598145e-01 -2.030511945486068726e-02
4.500000000000000000e+03 5.323774337768554688e+01 4.891652584075927734e+00 4.290867447853088379e-01 2.400434732437133789e+00 8.488564491271972656e-01 1.864949762821197510e-01
4.501000000000000000e+03 4.755398178100585938e+01 1.151704311370849609e+01 3.673650026321411133e-01 9.649486541748046875e-01 3.996941149234771729e-01 -2.443747818470001221e-01
4.502000000000000000e+03 4.827552413940429688e+01 1.216009140014648438e+01 3.750562071800231934e-01 1.028761386871337891e+00 4.211452901363372803e-01 -2.105161249637603760e-01
4.503000000000000000e+03 5.299777221679687500e+01 6.341984748840332031e+00 4.372274577617645264e-01 2.257186174392700195e+00 8.083240985870361328e-01 1.785178929567337036e-01
4.504000000000000000e+03 5.284288406372070312e+01 1.071813392639160156e+01 4.532452225685119629e-01 1.873270511627197266e+00 6.979547142982482910e-01 1.913109272718429565e-01
4.505000000000000000e+03 5.000720596313476562e+01 -4.208446025848388672e+00 3.430201709270477295e-01 2.189708232879638672e+00 7.598185539245605469e-01 2.382380887866020203e-02
4.506000000000000000e+03 5.077317810058593750e+01 2.266675829887390137e-01 3.910555243492126465e-01 2.148720979690551758e+00 7.619329690933227539e-01 4.464044421911239624e-02
4.507000000000000000e+03 4.911317443847656250e+01 7.567881584167480469e+00 4.388827979564666748e-01 1.475026607513427734e+00 5.741728544235229492e-01 -6.896139681339263916e-02
4.508000000000000000e+03 4.738266372680664062e+01 9.838835716247558594e+00 4.027881324291229248e-01 1.076725482940673828e+00 4.438540935516357422e-01 -2.176660895347595215e-01
4.509000000000000000e+03 5.187438583374023438e+01 8.599363327026367188e+00 4.548975527286529541e-01 1.883110642433166504e+00 7.014024853706359863e-01 1.176498532295227051e-01
4.510000000000000000e+03 4.770012664794921875e+01 1.280943584442138672e+01 3.623318374156951904e-01 9.199385046958923340e-01 3.846811056137084961e-01 -2.535367906093597412e-01
4.511000000000000000e+03 4.702189636230468750e+01 1.240113449096679688e+01 3.502858281135559082e-01 8.624470233917236328e-01 3.638198375701904297e-01 -2.880420684814453125e-01
4.512000000000000000e+03 5.147457885742187500e+01 1.243105030059814453e+01 4.264426529407501221e-01 1.509806632995605469e+00 5.808747410774230957e-01 6.465809047222137451e-02
4.513000000000000000e+03 5.202318191528320312e+01 6.964937686920166016e+00 4.460528194904327393e-01 2.029392242431640625e+00 7.426334619522094727e-01 1.213407889008522034e-01
4.514000000000000000e+03 5.029736328125000000e+01 -6.691215515136718750e+00 3.078617453575134277e-01 2.309704542160034180e+00 7.852698564529418945e-01 2.783635444939136505e-02
4.515000000000000000e+03 3.231041336059570312e+01 -2.626894760131835938e+01 4.425039142370223999e-02 -4.760223329067230225e-01 -1.295315772294998169e-01 -6.352997571229934692e-02
4.516000000000000000e+03 3.527417373657226562e+01 -2.653926086425781250e+01 7.702277600765228271e-02 1.857525296509265900e-02 2.867940813302993774e-02 -4.986208304762840271e-02
4.517000000000000000e+03 5.186885070800781250e+01 2.958081960678100586e+00 4.211729764938354492e-01 2.246764183044433594e+00 8.003811836242675781e-01 1.066377013921737671e-01
4.518000000000000000e+03 4.545203781127929688e+01 -7.415173530578613281e+00 2.838412821292877197e-01 1.500814080238342285e+00 5.353965759277343750e-01 -8.930522948503494263e-02
4.519000000000000000e+03 4.691739273071289062e+01 -8.479687690734863281e+00 2.795619666576385498e-01 1.758842468261718750e+00 6.115213036537170410e-01 -5.234553292393684387e-02
4.520000000000000000e+03 4.787948989868164062e+01 -4.177920818328857422e+00 3.314156830310821533e-01 1.803412795066833496e+00 6.404485702514648438e-01 -5.121518671512603760e-02
4.521000000000000000e+03 5.164964675903320312e+01 -1.507090854644775391e+01 2.100205570459365845e-01 2.733866691589355469e+00 8.831661343574523926e-01 4.573528096079826355e-02
4.522000000000000000e+03 4.676603698730468750e+01 -1.819499969482421875e+01 1.760988086462020874e-01 1.901183962821960449e+00 6.231848001480102539e-01 1.047005061991512775e-03
4.523000000000000000e+03 4.772629928588867188e+01 -1.976170539855957031e+01 1.649005562067031860e-01 2.080358028411865234e+00 6.735775470733642578e-01 9.032327798195183277e-04
4.524000000000000000e+03 5.051788330078125000e+01 -1.678379821777343750e+01 1.935543715953826904e-01 2.549774646759033203e+00 8.229987025260925293e-01 2.499904111027717590e-02
4.525000000000000000e+03 5.048968124389648438e+01 -9.029226303100585938e-01 3.736832141876220703e-01 2.141472101211547852e+00 7.545465826988220215e-01 3.331441804766654968e-02
4.526000000000000000e+03 4.973736572265625000e+01 -1.959736227989196777e+00 3.677683770656585693e-01 2.074666500091552734e+00 7.327304482460021973e-01 1.134060323238372803e-02
4.527000000000000000e+03 4.332535934448242188e+01 -2.017343711853027344e+01 1.487514227628707886e-01 1.346565127372741699e+00 4.485949575901031494e-01 -3.275192528963088989e-02
4.528000000000000000e+03 5.543711853027343750e+01 8.314526557922363281e+00 4.130370616912841797e-01 2.646379470825195312e+00 9.178249835968017578e-01 3.613594770431518555e-01
4.529000000000000000e+03 5.059779357910156250e+01 1.275057220458984375e+01 4.114732742309570312e-01 1.306540369987487793e+00 5.154041051864624023e-01 -2.395061217248439789e-02
4.530000000000000000e+03 4.841049957275390625e+01 1.064029884338378906e+01 4.114978611469268799e-01 1.168327093124389648e+00 4.739474952220916748e-01 -1.538582444190979004e-01
4.531000000000000000e+03 5.417549514770507812e+01 9.799429893493652344e+00 4.407857358455657959e-01 2.273889780044555664e+00 8.144026994705200195e-01 2.942564785480499268e-01
4.532000000000000000e+03 5.585654067993164062e+01 1.028590965270996094e+01 4.069105088710784912e-01 2.609246492385864258e+00 9.048470854759216309e-01 4.446393549442291260e-01
4.533000000000000000e+03 5.247809982299804688e+01 1.138143825531005859e+01 4.441881775856018066e-01 1.777897119522094727e+00 6.666255593299865723e-01 1.544212400913238525e-01
4.534000000000000000e+03 4.910021591186523438e+01 1.169134521484375000e+01 4.062915742397308350e-01 1.187736272811889648e+00 4.782083332538604736e-01 -1.217141672968864441e-01
4.535000000000000000e+03 5.153734588623046875e+01 1.085316562652587891e+01 4.430647194385528564e-01 1.637063622474670410e+00 6.240385174751281738e-01 8.358940482139587402e-02
4.536000000000000000e+03 4.937988281250000000e+01 5.379602909088134766e+00 4.340884685516357422e-01 1.657402992248535156e+00 6.274474263191223145e-01 -3.443365916609764099e-02
4.537000000000000000e+03 5.103651046752929688e+01 7.677385807037353516e+00 4.495321810245513916e-01 1.793907403945922852e+00 6.730318665504455566e-01 5.656449869275093079e-02
4.538000000000000000e+03 5.052751159667968750e+01 3.117892980575561523e+00 4.208527803421020508e-01 1.980877399444580078e+00 7.205190658569335938e-01 2.556832507252693176e-02
4.539000000000000000e+03 5.131272506713867188e+01 5.881919384002685547e+00 4.407634437084197998e-01 1.963206410408020020e+00 7.211909294128417969e-01 7.464908063411712646e-02
4.540000000000000000e+03 5.296869659423828125e+01 4.043314933776855469e+00 4.231898188591003418e-01 2.395382642745971680e+00 8.455717563629150391e-01 1.676310598850250244e-01
4.541000000000000000e+03 4.887517166137695312e+01 -3.101228237152099609e+00 3.473989665508270264e-01 1.960397124290466309e+00 6.923388242721557617e-01 -1.814143359661102295e-02
4.542000000000000000e+03 5.371343612670898438e+01 1.107712364196777344e+01 4.431174099445343018e-01 2.060391902923583984e+00 7.510527968406677246e-01 2.769963145256042480e-01
4.543000000000000000e+03 5.438708877563476562e+01 8.328955650329589844e+00 4.304610192775726318e-01 2.404836654663085938e+00 8.505892753601074219e-01 2.805403470993041992e-01
4.544000000000000000e+03 4.928713226318359375e+01 9.632274627685546875e+00 4.322984218597412109e-01 1.367850065231323242e+00 5.400445461273193359e-01 -8.098587393760681152e-02
4.545000000000000000e+03 5.010910034179687500e+01 8.560791969299316406e+00 4.491166472434997559e-01 1.581858277320861816e+00 6.092925071716308594e-01 -1.095767412334680557e-02
4.546000000000000000e+03 5.236067962646484375e+01 5.354544162750244141e+00 4.324349761009216309e-01 2.200035095214843750e+00 7.897409796714782715e-01 1.356688737869262695e-01
4.547000000000000000e+03 5.277156829833984375e+01 7.929267406463623047e+00 4.422959685325622559e-01 2.096815109252929688e+00 7.617333531379699707e-01 1.767413318157196045e-01
4.548000000000000000e+03 4.734981918334960938e+01 -1.118585968017578125e+01 2.500761449337005615e-01 1.891122698783874512e+00 6.423596739768981934e-01 -3.029237128794193268e-02
4.549000000000000000e+03 4.931719970703125000e+01 -8.156168937683105469e+00 2.934961915016174316e-01 2.179451227188110352e+00 7.418842315673828125e-01 6.138552911579608917e-03
4.550000000000000000e+03 5.075366973876953125e+01 -9.350955963134765625e+00 2.770490348339080811e-01 2.460667848587036133e+00 8.213150501251220703e-01 3.910554200410842896e-02
4.551000000000000000e+03 4.977229690551757812e+01 -1.090382575988769531e+01 2.582921385765075684e-01 2.318617820739746094e+00 7.730729579925537109e-01 1.673277467489242554e-02
4.552000000000000000e+03 4.767418289184570312e+01 -1.397389125823974609e+01 2.240867167711257935e-01 1.992666244506835938e+00 6.650258898735046387e-01 -1.429061219096183777e-02
4.553000000000000000e+03 5.128692245483398438e+01 1.165275478363037109e+01 4.425132870674133301e-01 1.547765612602233887e+00 5.970836877822875977e-01 6.088028475642204285e-02
4.554000000000000000e+03 5.022693634033203125e+01 1.157835197448730469e+01 4.259619712829589844e-01 1.360942006111145020e+00 5.360711812973022461e-01 -3.728370368480682373e-02
4.555000000000000000e+03 5.348691177368164062e+01 8.857851982116699219e+00 4.438497126102447510e-01 2.192799568176269531e+00 7.909948229789733887e-01 2.318791002035140991e-01
4.556000000000000000e+03 5.072583770751953125e+01 4.612781524658203125e+00 4.336564838886260986e-01 1.932466030120849609e+00 7.098367810249328613e-01 3.783483058214187622e-02
4.557000000000000000e+03 5.474599075317382812e+01 1.088388729095458984e+01 4.296977519989013672e-01 2.277403831481933594e+00 8.121304512023925781e-01 3.621779978275299072e-01
4.558000000000000000e+03 4.596504974365234375e+01 -9.987595558166503906e+00 2.571946382522583008e-01 1.634253621101379395e+00 5.674344897270202637e-01 -6.140707805752754211e-02
4.559000000000000000e+03 4.494810485839843750e+01 -1.144530677795410156e+01 2.292421758174896240e-01 1.495516777038574219e+00 5.174276828765869141e-01 -7.391618937253952026e-02
4.560000000000000000e+03 5.121236419677734375e+01 -1.213369560241699219e+01 2.430861741304397583e-01 2.601643800735473633e+00 8.534190058708190918e-01 4.422702267765998840e-02
4.561000000000000000e+03 5.108323287963867188e+01 9.395711898803710938e+00 4.509463310241699219e-01 1.671697735786437988e+00 6.367931962013244629e-01 5.365087091922760010e-02
4.562000000000000000e+03 8.046973228454589844e+00 -4.144207000732421875e+01 -2.975904010236263275e-02 7.078957278281450272e-03 -6.804025266319513321e-03 1.138857938349246979e-02
4.563000000000000000e+03 2.787311363220214844e+01 -3.206747055053710938e+01 -3.271430730819702148e-02 -1.159839749336242676e+00 -3.577662110328674316e-01 -3.963606432080268860e-02
4.564000000000000000e+03 4.435027313232421875e+01 -2.908891677856445312e+01 9.820134937763214111e-02 1.542611598968505859e+00 4.922438859939575195e-01 1.967871095985174179e-03
4.565000000000000000e+03 5.241032409667968750e+01 -2.182485580444335938e+01 1.486570388078689575e-01 2.951040983200073242e+00 9.299093484878540039e-01 4.465230181813240051e-02
4.566000000000000000e+03 4.944308471679687500e+01 3.884830093383789062e+01 2.486031949520111084e-01 -2.319982796907424927e-01 4.981473553925752640e-03 2.479933351278305054e-01
4.567000000000000000e+03 6.696552276611328125e+01 -3.789143753051757812e+01 3.813033550977706909e-02 5.614047050476074219e+00 1.695653200149536133e+00 1.973880268633365631e-02
4.568000000000000000e+03 1.801551818847656250e+01 -4.134956359863281250e+01 1.069353148341178894e-01 -1.050774574279785156e+00 -2.831517755985260010e-01 -2.003881931304931641e-01
4.569000000000000000e+03 7.612429809570312500e+01 -3.667149353027343750e+01 -2.034275420010089874e-02 7.284678459167480469e+00 2.179300785064697266e+00 1.917351596057415009e-02
4.570000000000000000e+03 4.006287002563476562e+01 -2.897171592712402344e+01 1.004524603486061096e-01 9.141016006469726562e-01 3.043662309646606445e-01 -3.544879704713821411e-02
4.571000000000000000e+03 5.204630661010742188e+01 -1.824918746948242188e+01 1.789539903402328491e-01 2.852580070495605469e+00 9.094601869583129883e-01 5.013210698962211609e-02
4.572000000000000000e+03 2.649324989318847656e+01 -3.121980285644531250e+01 -4.866990447044372559e-02 -1.404871463775634766e+00 -4.360623955726623535e-01 -8.390658348798751831e-02
4.573000000000000000e+03 4.511926651000976562e+01 -2.165755844116210938e+01 1.589284390211105347e-01 1.654307484626770020e+00 5.439707636833190918e-01 -8.950470946729183197e-03
4.574000000000000000e+03 3.523375701904296875e+01 -2.245648574829101562e+01 9.255422651767730713e-02 5.924569908529520035e-03 2.954363822937011719e-02 -8.701752871274948120e-02
4.575000000000000000e+03 3.850453567504882812e+01 -2.705448913574218750e+01 9.732256829738616943e-02 6.161690950393676758e-01 2.140474915504455566e-01 -6.466160714626312256e-02
4.576000000000000000e+03 4.022954177856445312e+01 -2.565048789978027344e+01 9.888627380132675171e-02 8.988592624664306641e-01 2.993236482143402100e-01 -3.602275252342224121e-02
4.577000000000000000e+03 3.279550933837890625e+01 -3.450925827026367188e+01 6.968437135219573975e-02 -3.816206753253936768e-01 -9.358088672161102295e-02 4.451108630746603012e-03
4.578000000000000000e+03 6.150397109985351562e+01 -2.870548057556152344e+01 6.800714135169982910e-02 4.591575145721435547e+00 1.397874712944030762e+00 7.301211357116699219e-02
4.579000000000000000e+03 5.642808914184570312e+01 -2.514006042480468750e+01 1.167595461010932922e-01 3.716637134552001953e+00 1.150019049644470215e+00 6.313271820545196533e-02
4.580000000000000000e+03 5.851044845581054688e+01 -2.624334526062011719e+01 9.878497570753097534e-02 4.096239566802978516e+00 1.258507370948791504e+00 7.153369486331939697e-02
4.581000000000000000e+03 5.815420532226562500e+01 -3.702708816528320312e+01 6.758046150207519531e-02 4.023131847381591797e+00 1.227213740348815918e+00 1.341327279806137085e-02
4.582000000000000000e+03 4.190898513793945312e+01 -3.639987945556640625e+01 1.058357879519462585e-01 1.177585721015930176e+00 3.850264549255371094e-01 -8.652546443045139313e-03
4.583000000000000000e+03 3.728234481811523438e+01 -3.696784591674804688e+01 9.795401245355606079e-02 4.020978510379791260e-01 1.500155478715896606e-01 1.079317182302474976e-02
4.584000000000000000e+03 7.172505187988281250e+01 -4.106305694580078125e+01 1.640742458403110504e-02 6.477299213409423828e+00 1.948112010955810547e+00 5.490150069817900658e-04
4.585000000000000000e+03 7.868333816528320312e+00 4.126016998291015625e+01 2.726304046518635005e-06 -2.719560143304988742e-06 2.023198275580284644e-09 -2.156329173885751516e-06
4.586000000000000000e+03 5.891118621826171875e+01 -3.357543563842773438e+01 6.261853873729705811e-02 4.139145374298095703e+00 1.260529160499572754e+00 3.216456621885299683e-02
4.587000000000000000e+03 4.698471450805664062e+01 -2.358950805664062500e+01 1.431829929351806641e-01 1.990054726600646973e+00 6.399713158607482910e-01 -3.819110104814171791e-03
4.588000000000000000e+03 5.066959762573242188e+01 -2.010225868225097656e+01 1.717057824134826660e-01 2.625352859497070312e+00 8.391175866127014160e-01 2.776030823588371277e-02
4.589000000000000000e+03 4.877042770385742188e+01 -2.594066429138183594e+01 1.270847022533416748e-01 2.317020893096923828e+00 7.332316637039184570e-01 1.493186317384243011e-02
4.590000000000000000e+03 2.837666893005371094e+01 -3.755486297607421875e+01 1.068930178880691528e-01 -1.143683910369873047e+00 -3.110372722148895264e-01 6.662234663963317871e-02
4.591000000000000000e+03 4.200020980834960938e+01 -2.456091499328613281e+01 1.079379916191101074e-01 1.154058575630187988e+00 3.785989582538604736e-01 -1.047338265925645828e-02
4.592000000000000000e+03 4.515155410766601562e+01 -2.532184219360351562e+01 1.228239089250564575e-01 1.660644412040710449e+00 5.350404977798461914e-01 -1.434830832295119762e-03
4.593000000000000000e+03 5.070119476318359375e+01 -2.392167091369628906e+01 1.396906375885009766e-01 2.659675121307373047e+00 8.398097753524780273e-01 1.225498877465724945e-02
4.594000000000000000e+03 5.484899902343750000e+01 -2.772880172729492188e+01 1.024160012602806091e-01 3.423000812530517578e+00 1.057625055313110352e+00 5.712498351931571960e-02
4.595000000000000000e+03 4.144656372070312500e+01 -2.759932899475097656e+01 1.062390431761741638e-01 1.098326206207275391e+00 3.613695800304412842e-01 -1.503874780610203743e-03
4.596000000000000000e+03 5.268441772460937500e+01 -2.590428543090820312e+01 1.145886704325675964e-01 3.053678035736083984e+00 9.504800438880920410e-01 3.552071750164031982e-02
4.597000000000000000e+03 3.678487777709960938e+01 -2.887837409973144531e+01 7.333789020776748657e-02 2.653936445713043213e-01 1.016194596886634827e-01 -4.474458098411560059e-02
4.598000000000000000e+03 6.244887161254882812e+01 -3.396574401855468750e+01 5.029485747218132019e-02 4.837891578674316406e+00 1.466455936431884766e+00 3.498676046729087830e-02
4.599000000000000000e+03 4.325492858886718750e+01 -2.663367462158203125e+01 1.133434325456619263e-01 1.375977158546447754e+00 4.467961788177490234e-01 3.768629627302289009e-03
4.600000000000000000e+03 5.291971969604492188e+01 -3.057287788391113281e+01 1.120332702994346619e-01 3.144072771072387695e+00 9.768317937850952148e-01 3.114632889628410339e-02
4.601000000000000000e+03 4.665608215332031250e+01 -2.775024604797363281e+01 1.089520901441574097e-01 1.956457734107971191e+00 6.196229457855224609e-01 6.103021092712879181e-03
4.602000000000000000e+03 4.531454849243164062e+01 -3.209347152709960938e+01 1.006931662559509277e-01 1.773814797401428223e+00 5.623523592948913574e-01 7.762739900499582291e-03
4.603000000000000000e+03 5.039331817626953125e+01 -3.362598800659179688e+01 1.055080294609069824e-01 2.652554273605346680e+00 8.274186849594116211e-01 1.463985443115234375e-02
4.604000000000000000e+03 4.661355972290039062e+01 -3.575832366943359375e+01 1.053258031606674194e-01 2.043159723281860352e+00 6.445456147193908691e-01 1.633054204285144806e-02
4.605000000000000000e+03 6.418851470947265625e+01 3.264091110229492188e+01 1.003124713897705078e+00 1.499186396598815918e+00 7.506933212280273438e-01 -1.870715379714965820e+00
4.606000000000000000e+03 6.501976776123046875e+01 3.259675979614257812e+01 1.888359308242797852e+00 3.101943016052246094e+00 1.497090697288513184e+00 -3.473141908645629883e+00
4.607000000000000000e+03 6.495365905761718750e+01 3.297053527832031250e+01 1.772776126861572266e+00 3.678318977355957031e+00 1.635328531265258789e+00 -3.643246173858642578e+00
4.608000000000000000e+03 6.561201477050781250e+01 3.279624557495117188e+01 2.103590250015258789e+00 6.192070960998535156e+00 2.488698244094848633e+00 -5.080675601959228516e+00
4.609000000000000000e+03 6.598674011230468750e+01 3.249362564086914062e+01 2.500025510787963867e+00 8.248509407043457031e+00 3.224560499191284180e+00 -6.282638072967529297e+00
4.610000000000000000e+03 6.634700775146484375e+01 3.282598114013671875e+01 1.162140846252441406e+00 1.176244544982910156e+01 3.877375841140747070e+00 -5.920971870422363281e+00
4.611000000000000000e+03 6.672390747070312500e+01 3.320866012573242188e+01 3.104913234710693359e-02 1.366292476654052734e+01 4.108191967010498047e+00 -4.473934173583984375e+00
4.612000000000000000e+03 6.715703582763671875e+01 3.285341644287109375e+01 -7.496055960655212402e-02 1.697431755065917969e+01 5.069807052612304688e+00 -3.377230167388916016e+00
4.613000000000000000e+03 6.781770324707031250e+01 3.266557693481445312e+01 8.429151773452758789e-01 1.850638008117675781e+01 5.804788589477539062e+00 -1.471976637840270996e-01
4.614000000000000000e+03 6.840007781982421875e+01 3.162550544738769531e+01 7.116556644439697266e+00 1.767963981628417969e+01 7.438858985900878906e+00 2.550163745880126953e+00
4.615000000000000000e+03 6.829835510253906250e+01 2.953186416625976562e+01 3.660995721817016602e+00 1.823842620849609375e+01 6.569826602935791016e+00 -1.954936265945434570e+00
4.616000000000000000e+03 6.812824249267578125e+01 2.940165519714355469e+01 2.653548955917358398e+00 1.876482582092285156e+01 6.425512313842773438e+00 -1.455061316490173340e+00
4.617000000000000000e+03 6.760604095458984375e+01 2.937823295593261719e+01 1.160729289054870605e+00 2.050006294250488281e+01 6.498237609863281250e+00 4.789337217807769775e-01
4.618000000000000000e+03 6.779865264892578125e+01 2.913401985168457031e+01 8.579903841018676758e-01 1.901660537719726562e+01 5.962378501892089844e+00 1.951739192008972168e-01
4.619000000000000000e+03 6.785451507568359375e+01 2.876209640502929688e+01 1.022635400295257568e-02 1.746618843078613281e+01 5.242924213409423828e+00 7.395595908164978027e-01
4.620000000000000000e+03 6.614625549316406250e+01 2.889051055908203125e+01 1.088491559028625488e+00 1.003790092468261719e+01 3.337917804718017578e+00 6.224460601806640625e+00
4.621000000000000000e+03 6.634608459472656250e+01 2.885792350769042969e+01 6.392432451248168945e-01 1.157009983062744141e+01 3.662802934646606445e+00 6.103385925292968750e+00
4.622000000000000000e+03 6.577369689941406250e+01 2.886424636840820312e+01 1.381535649299621582e+00 7.205814361572265625e+00 2.576205015182495117e+00 5.722908973693847656e+00
4.623000000000000000e+03 6.512570190429687500e+01 2.921027374267578125e+01 1.448497056961059570e+00 3.078352451324462891e+00 1.358054876327514648e+00 4.019988536834716797e+00
4.624000000000000000e+03 6.431502532958984375e+01 2.878410148620605469e+01 6.130002737045288086e-01 2.068636417388916016e+00 8.044909834861755371e-01 2.876655101776123047e+00
4.625000000000000000e+03 6.385423660278320312e+01 2.918935966491699219e+01 -3.527177572250366211e-01 8.016669750213623047e-01 1.346847563982009888e-01 1.759588956832885742e+00
4.626000000000000000e+03 4.233863449096679688e+01 3.533398437500000000e+01 -6.940586119890213013e-02 -3.960182145237922668e-02 -3.270230442285537720e-02 7.375486195087432861e-02
4.627000000000000000e+03 3.871443557739257812e+01 3.637833023071289062e+01 -9.526973590254783630e-03 -2.546215988695621490e-02 -1.049674022942781448e-02 2.639480680227279663e-02
4.628000000000000000e+03 3.633744049072265625e+01 3.678684616088867188e+01 -3.487126436084508896e-03 -7.720737718045711517e-03 -3.362359246239066124e-03 8.553302846848964691e-03
4.629000000000000000e+03 3.316899871826171875e+01 3.700405883789062500e+01 2.893181750550866127e-03 3.391598584130406380e-04 9.697024361230432987e-04 -9.907683124765753746e-05
4.630000000000000000e+03 3.206578826904296875e+01 3.710050964355468750e+01 2.415971597656607628e-03 -4.630961921066045761e-04 5.858626100234687328e-04 -1.411099568940699100e-03
4.631000000000000000e+03 6.743983030319213867e-01 3.013013839721679688e+00 2.477157067914959043e-06 -3.987357217738463078e-07 6.235264322640432511e-07 2.834362476278329268e-06
4.632000000000000000e+03 2.060606575012207031e+01 3.400356292724609375e+01 -5.017707007937133312e-04 1.430279668420553207e-02 4.140307661145925522e-03 1.496294953540200368e-05
4.633000000000000000e+03 2.205404853820800781e+01 -3.519583511352539062e+01 -2.537851631641387939e-01 -2.122298240661621094e+00 -7.128250598907470703e-01 -1.599316000938415527e-01
4.634000000000000000e+03 1.293805694580078125e+01 2.359544515609741211e+00 -6.017050679929525359e-08 -1.116880639528972097e-06 -3.531153538460785057e-07 -3.229458513942518039e-07
4.635000000000000000e+03 2.436134338378906250e+00 2.671550989151000977e+00 2.071264134428929538e-06 1.021372327159042470e-06 9.277909498450753745e-07 1.529936071165138856e-07
4.636000000000000000e+03 1.047780036926269531e+01 -3.645444488525390625e+01 5.948584526777267456e-02 -2.794465236365795135e-02 9.462358430027961731e-03 -1.375977648422122002e-03
4.637000000000000000e+03 4.844641113281250000e+01 3.534740447998046875e+01 -1.649499535560607910e-01 -1.277478486299514771e-01 -8.780933916568756104e-02 2.655398845672607422e-01
4.638000000000000000e+03 3.724961853027343750e+01 3.915907669067382812e+01 4.217023379169404507e-04 -2.740726806223392487e-02 -8.095669560134410858e-03 2.270619198679924011e-02
4.639000000000000000e+03 4.471878051757812500e+01 3.696093368530273438e+01 3.832297399640083313e-03 -1.312068253755569458e-01 -3.821235895156860352e-02 1.188469007611274719e-01
4.640000000000000000e+03 1.939070129394531250e+01 3.843321609497070312e+01 -4.894744051853194833e-05 1.256391624337993562e-05 -1.091505691874772310e-05 -2.591107113403268158e-05
4.641000000000000000e+03 1.895822334289550781e+01 3.814590835571289062e+01 1.468594928155653179e-05 -2.172907261410728097e-05 -2.112937409037840553e-06 -3.049835140700452030e-05
4.642000000000000000e+03 6.536403656005859375e+01 2.829985427856445312e+01 9.536092877388000488e-01 6.042179584503173828e+00 2.098736763000488281e+00 4.916127204895019531e+00
4.643000000000000000e+03 6.558068847656250000e+01 2.864599800109863281e+01 1.215216636657714844e+00 6.538392066955566406e+00 2.326082706451416016e+00 5.395607948303222656e+00
4.644000000000000000e+03 1.396213912963867188e+01 3.510545730590820312e+01 5.872257133887615055e-06 -1.189240720123052597e-05 -1.806044906516035553e-06 -1.685629058556514792e-06
4.645000000000000000e+03 4.989797210693359375e+01 3.661741638183593750e+01 9.545093402266502380e-03 -1.768371760845184326e-01 -5.018762126564979553e-02 3.166036605834960938e-01
4.646000000000000000e+03 6.476825714111328125e+01 2.885471916198730469e+01 1.219906568527221680e+00 2.764160156250000000e+00 1.195219993591308594e+00 3.677541971206665039e+00
4.647000000000000000e+03 6.610771942138671875e+01 2.858786773681640625e+01 5.854592919349670410e-01 9.789733886718750000e+00 3.112557888031005859e+00 5.753917217254638672e+00
4.648000000000000000e+03 6.652502441406250000e+01 2.847775077819824219e+01 -6.308013945817947388e-02 1.228451442718505859e+01 3.666430234909057617e+00 5.283463478088378906e+00
4.649000000000000000e+03 6.698094177246093750e+01 2.836594772338867188e+01 -6.154961585998535156e-01 1.425262832641601562e+01 4.091139316558837891e+00 3.931682825088500977e+00
4.650000000000000000e+03 6.771344757080078125e+01 2.860090827941894531e+01 -3.026904463768005371e-01 1.687372398376464844e+01 4.971310138702392578e+00 1.309504866600036621e+00
4.651000000000000000e+03 6.843874359130859375e+01 2.933481788635253906e+01 2.860088586807250977e+00 1.738756752014160156e+01 6.074296951293945312e+00 -1.770790815353393555e+00
4.652000000000000000e+03 6.872062683105468750e+01 2.978023719787597656e+01 5.325979709625244141e+00 1.633484268188476562e+01 6.498246669769287109e+00 -2.340701818466186523e+00
4.653000000000000000e+03 6.915686798095703125e+01 3.021116828918457031e+01 6.667388439178466797e+00 1.443168258666992188e+01 6.329720973968505859e+00 -1.477443099021911621e+00
4.654000000000000000e+03 6.897428894042968750e+01 2.979681587219238281e+01 5.258844852447509766e+00 1.524028015136718750e+01 6.149737358093261719e+00 -2.109791040420532227e+00
4.655000000000000000e+03 6.837995910644531250e+01 3.251358795166015625e+01 2.475133419036865234e+00 1.745170021057128906e+01 5.978050231933593750e+00 1.649130702018737793e+00
4.656000000000000000e+03 6.835968780517578125e+01 3.224163818359375000e+01 3.599129676818847656e+00 1.772834777832031250e+01 6.398243427276611328e+00 2.079246520996093750e+00
4.657000000000000000e+03 6.807550048828125000e+01 3.293954467773437500e+01 5.862100124359130859e-01 1.724914932250976562e+01 5.350607872009277344e+00 2.123993784189224243e-01
4.658000000000000000e+03 6.533821868896484375e+01 3.384224319458007812e+01 9.964700937271118164e-01 6.567533969879150391e+00 2.269201278686523438e+00 -4.187100887298583984e+00
4.659000000000000000e+03 6.504663848876953125e+01 3.353416061401367188e+01 1.369170784950256348e+00 4.984886169433593750e+00 1.906217098236083984e+00 -3.899581193923950195e+00
4.660000000000000000e+03 6.388298034667968750e+01 3.424625778198242188e+01 9.605553150177001953e-01 2.940890789031982422e+00 1.170433759689331055e+00 -2.437919139862060547e+00
4.661000000000000000e+03 6.437544250488281250e+01 3.393675994873046875e+01 1.112728834152221680e+00 3.696218490600585938e+00 1.442684173583984375e+00 -2.930286169052124023e+00
4.662000000000000000e+03 1.254368400573730469e+01 -3.322566270828247070e+00 -1.642083661863580346e-04 1.716521655907854438e-04 2.233139866802957840e-06 -6.844621384516358376e-05
4.663000000000000000e+03 6.447390747070312500e+01 2.847477912902832031e+01 8.055837154388427734e-01 2.885613441467285156e+00 1.107359170913696289e+00 3.492225885391235352e+00
4.664000000000000000e+03 6.454250335693359375e+01 2.883838081359863281e+01 9.748784899711608887e-01 2.464379310607910156e+00 1.031777262687683105e+00 3.337048292160034180e+00
4.665000000000000000e+03 6.762893676757812500e+01 3.315873336791992188e+01 -1.938686817884445190e-01 1.684635734558105469e+01 4.995746612548828125e+00 -1.372134327888488770e+00
4.666000000000000000e+03 6.862362670898437500e+01 3.277939605712890625e+01 2.054949760437011719e+00 1.628373336791992188e+01 5.501604557037353516e+00 1.639595389366149902e+00
4.667000000000000000e+03 6.836824035644531250e+01 3.296583938598632812e+01 1.009122610092163086e+00 1.647578048706054688e+01 5.245470523834228516e+00 8.388831615447998047e-01
4.668000000000000000e+03 7.815509796142578125e+01 -3.590211868286132812e+01 -2.189397066831588745e-02 7.551268577575683594e+00 2.258812427520751953e+00 3.694129362702369690e-02
4.669000000000000000e+03 2.372568321228027344e+01 -3.438199615478515625e+01 -1.998971104621887207e-01 -1.900101184844970703e+00 -6.299994587898254395e-01 -3.502659127116203308e-02
4.670000000000000000e+03 1.144668769836425781e+01 3.328777313232421875e+01 -2.848425538104493171e-05 9.541667168377898633e-06 -5.682776190951699391e-06 7.529711183451581746e-07
4.671000000000000000e+03 1.895925712585449219e+01 4.004634475708007812e+01 1.895969944598618895e-05 1.605477300472557545e-04 5.385222902987152338e-05 3.224331885576248169e-05
4.672000000000000000e+03 5.281896209716796875e+01 3.628432464599609375e+01 -3.315048292279243469e-02 -2.035485208034515381e-01 -7.100970298051834106e-02 4.195898175239562988e-01
4.673000000000000000e+03 5.133028030395507812e+01 3.603705215454101562e+01 -7.694143056869506836e-02 -1.860492974519729614e-01 -7.889722287654876709e-02 3.856797218322753906e-01
4.674000000000000000e+03 7.272494506835937500e+01 -3.620330810546875000e+01 1.286023575812578201e-02 6.613765716552734375e+00 1.987987756729125977e+00 1.850049942731857300e-02
4.675000000000000000e+03 6.523561096191406250e+01 2.786044311523437500e+01 6.610189676284790039e-01 5.941556453704833984e+00 1.980772614479064941e+00 4.599500179290771484e+00
4.676000000000000000e+03 6.948532867431640625e+01 2.946710395812988281e+01 3.965463399887084961e+00 1.400693702697753906e+01 5.391719818115234375e+00 -1.907575368881225586e+00
4.677000000000000000e+03 6.969228363037109375e+01 2.995593261718750000e+01 5.159012317657470703e+00 1.316502094268798828e+01 5.497210025787353516e+00 -1.467724084854125977e+00
4.678000000000000000e+03 6.720391082763671875e+01 3.332540893554687500e+01 -4.172272980213165283e-01 1.522067642211914062e+01 4.441034793853759766e+00 -3.010605573654174805e+00
4.679000000000000000e+03 6.605580902099609375e+01 3.344102859497070312e+01 6.871514916419982910e-01 9.670263290405273438e+00 3.107224464416503906e+00 -4.907150745391845703e+00
4.680000000000000000e+03 6.565944671630859375e+01 3.406399917602539062e+01 5.949401855468750000e-01 7.702175140380859375e+00 2.489134550094604492e+00 -4.129253387451171875e+00
4.681000000000000000e+03 1.044636726379394531e+01 3.469881439208984375e+01 -2.845024391717743129e-05 4.649959464586572722e-06 -7.140085472201462835e-06 -1.284063819184666499e-05
4.682000000000000000e+03 1.131957817077636719e+01 3.226176452636718750e+01 1.981583591259550303e-05 -4.047472884849412367e-06 4.730508862849092111e-06 5.535821401281282306e-06
4.683000000000000000e+03 5.272700786590576172e+00 -3.234462976455688477e+00 1.280297001358121634e-04 -4.201643241685815156e-05 2.580397813289891928e-05 8.890711615094915032e-05
4.684000000000000000e+03 1.103965759277343750e+01 -4.311702251434326172e+00 1.318509021075442433e-04 8.876020729076117277e-05 6.618333281949162483e-05 -1.074376632459461689e-04
4.685000000000000000e+03 6.664522552490234375e+01 3.386807632446289062e+01 -2.518056333065032959e-01 1.193150806427001953e+01 3.503910779953002930e+00 -3.973206043243408203e+00
4.686000000000000000e+03 4.524397659301757812e+01 3.618361282348632812e+01 -3.369503095746040344e-02 -1.271766126155853271e-01 -4.826149344444274902e-02 1.707590520381927490e-01
4.687000000000000000e+03 6.365362167358398438e+01 2.840771675109863281e+01 1.274148374795913696e-01 1.492936372756958008e+00 4.861053824424743652e-01 2.317416667938232422e+00
4.688000000000000000e+03 6.447571563720703125e+01 2.768094444274902344e+01 6.484059095382690430e-01 3.894720315933227539e+00 1.362937927246093750e+00 3.788787126541137695e+00
4.689000000000000000e+03 6.566881561279296875e+01 2.741357231140136719e+01 4.659648612141609192e-02 8.013434410095214844e+00 2.418009281158447266e+00 4.558543205261230469e+00
4.690000000000000000e+03 6.810224151611328125e+01 2.866856575012207031e+01 2.723610103130340576e-01 1.683552551269531250e+01 5.132366180419921875e+00 8.209002763032913208e-02
4.691000000000000000e+03 6.861090087890625000e+01 2.922503089904785156e+01 2.632750034332275391e+00 1.670407485961914062e+01 5.801047325134277344e+00 -1.755302548408508301e+00
4.692000000000000000e+03 7.017377471923828125e+01 2.970504760742187500e+01 4.218202114105224609e+00 1.245245742797851562e+01 5.001197814941406250e+00 -1.512072920799255371e+00
4.693000000000000000e+03 6.974951171875000000e+01 3.080080986022949219e+01 6.253633975982666016e+00 1.277195453643798828e+01 5.707676410675048828e+00 -6.185620650649070740e-02
4.694000000000000000e+03 6.944016265869140625e+01 3.114424324035644531e+01 6.810167312622070312e+00 1.353167057037353516e+01 6.102551460266113281e+00 7.094225287437438965e-01
4.695000000000000000e+03 6.955367279052734375e+01 3.189940643310546875e+01 5.018099308013916016e+00 1.363567161560058594e+01 5.596131324768066406e+00 1.850458502769470215e+00
4.696000000000000000e+03 6.298242950439453125e+01 3.418542098999023438e+01 7.060009241104125977e-01 1.627339363098144531e+00 7.000020742416381836e-01 -1.498002409934997559e+00
4.697000000000000000e+03 6.588293457031250000e+01 3.375889205932617188e+01 6.107667684555053711e-01 8.856846809387207031e+00 2.840284109115600586e+00 -4.506332397460937500e+00
4.698000000000000000e+03 6.874026489257812500e+01 2.959416770935058594e+01 4.692523479461669922e+00 1.620029067993164062e+01 6.267844200134277344e+00 -2.222644090652465820e+00
4.699000000000000000e+03 9.592097282409667969e+00 2.555866241455078125e+01 8.625407645013183355e-06 1.095004222406714689e-06 2.916123548857285641e-06 2.842065782715508249e-07
4.700000000000000000e+03 6.786204528808593750e+01 2.833810234069824219e+01 -4.436230659484863281e-01 1.614750099182128906e+01 4.711163520812988281e+00 1.098285913467407227e+00
4.701000000000000000e+03 6.469584655761718750e+01 2.718464088439941406e+01 4.132598340511322021e-01 5.105496406555175781e+00 1.655626893043518066e+00 3.998226642608642578e+00
4.702000000000000000e+03 6.579534912109375000e+01 2.765359115600585938e+01 1.545858085155487061e-01 8.604009628295898438e+00 2.627578496932983398e+00 4.985361576080322266e+00
4.703000000000000000e+03 6.001621723175048828e+00 -3.060535812377929688e+01 5.137598142027854919e-03 -1.402268768288195133e-03 1.120598753914237022e-03 1.765683060511946678e-03
4.704000000000000000e+03 6.984208679199218750e+01 3.288858795166015625e+01 2.571528673171997070e+00 1.348789215087890625e+01 4.817826271057128906e+00 2.038731575012207031e+00
4.705000000000000000e+03 9.807517051696777344e+00 3.118316841125488281e+01 1.002923363557783887e-05 3.265609620939358138e-06 3.988453045167261735e-06 -9.881929145194590092e-06
4.706000000000000000e+03 6.836425781250000000e+01 2.867980384826660156e+01 7.256740331649780273e-01 1.642169952392578125e+01 5.144212245941162109e+00 -5.519107580184936523e-01
4.707000000000000000e+03 6.358039093017578125e+01 2.712268066406250000e+01 3.387884795665740967e-01 2.877348423004150391e+00 9.648410677909851074e-01 2.931689500808715820e+00
4.708000000000000000e+03 6.733572387695312500e+01 2.733649826049804688e+01 -1.082111358642578125e+00 1.280374526977539062e+01 3.516490221023559570e+00 2.753950119018554688e+00
4.709000000000000000e+03 6.783409118652343750e+01 2.758940887451171875e+01 -9.944688677787780762e-01 1.413345050811767578e+01 3.941694498062133789e+00 1.567146301269531250e+00
4.710000000000000000e+03 5.981608963012695312e+01 -3.047316169738769531e+01 8.822901546955108643e-02 4.357970714569091797e+00 1.333859920501708984e+00 4.899302870035171509e-02
4.711000000000000000e+03 6.851953125000000000e+01 3.333924484252929688e+01 4.793427586555480957e-01 1.576053619384765625e+01 4.871963500976562500e+00 6.858025193214416504e-01
4.712000000000000000e+03 7.062482452392578125e+01 3.105362892150878906e+01 4.716231822967529297e+00 1.150308990478515625e+01 4.865796566009521484e+00 3.372012674808502197e-01
4.713000000000000000e+03 6.805498504638671875e+01 2.698547363281250000e+01 -1.170443534851074219e+00 1.313235282897949219e+01 3.588572740554809570e+00 1.441094756126403809e+00
4.714000000000000000e+03 6.825222778320312500e+01 2.801227760314941406e+01 -4.413861632347106934e-01 1.506966400146484375e+01 4.388483047485351562e+00 5.220288038253784180e-01
4.715000000000000000e+03 7.782312870025634766e+00 1.619326782226562500e+01 5.932085514359641820e-06 1.112472602926573018e-07 1.812999812500493135e-06 1.586865550962102134e-06
4.716000000000000000e+03 8.955409049987792969e+00 1.505073165893554688e+01 6.050955562386661768e-06 -4.931764010507322382e-07 1.667333776822488289e-06 1.417202156517305411e-06
4.717000000000000000e+03 9.214243888854980469e+00 3.033209991455078125e+01 -4.054183136759093031e-06 -1.319911802966089454e-06 -1.612228516023606062e-06 1.380026242259191349e-05
4.718000000000000000e+03 8.662571907043457031e+00 -2.845781898498535156e+01 2.384487306699156761e-03 -1.589291379787027836e-03 2.385587577009573579e-04 1.620851398911327124e-04
4.719000000000000000e+03 7.574888610839843750e+01 3.293073272705078125e+01 7.773033976554870605e-01 7.869130611419677734e+00 2.593930244445800781e+00 7.551167011260986328e-01
4.720000000000000000e+03 6.599626922607421875e+01 2.740720748901367188e+01 -2.190069854259490967e-01 9.027194023132324219e+00 2.642456293106079102e+00 4.538186550140380859e+00
4.721000000000000000e+03 8.730607986450195312e+00 3.122603607177734375e+01 -1.745304871292319149e-05 -1.671913082645914983e-06 -5.737488663726253435e-06 -5.377566594688687474e-06
4.722000000000000000e+03 6.823438262939453125e+01 3.354215240478515625e+01 9.972888510674238205e-04 1.562065410614013672e+01 4.686495304107666016e+00 1.072817593812942505e-01
4.723000000000000000e+03 6.518325042724609375e+01 3.502952575683593750e+01 4.027670621871948242e-01 6.770596504211425781e+00 2.152009010314941406e+00 -3.576730012893676758e+00
4.724000000000000000e+03 3.353203201293945312e+01 -2.817793655395507812e+01 4.553142562508583069e-02 -2.651460468769073486e-01 -6.588438898324966431e-02 -4.550991952419281006e-02
4.725000000000000000e+03 7.023540496826171875e+01 2.906759262084960938e+01 2.999228715896606445e+00 1.252676486968994141e+01 4.657798290252685547e+00 -1.714417576789855957e+00
4.726000000000000000e+03 6.969638061523437500e+01 2.885798263549804688e+01 2.518313169479370117e+00 1.373067855834960938e+01 4.874697685241699219e+00 -1.818750500679016113e+00
4.727000000000000000e+03 6.520754241943359375e+01 3.457567977905273438e+01 6.087225675582885742e-01 6.482952594757080078e+00 2.127502441406250000e+00 -3.696987390518188477e+00
4.728000000000000000e+03 6.974522590637207031e+00 2.442799949645996094e+01 -9.201583452522754669e-06 1.144215744375287613e-07 -2.726148522924631834e-06 -2.610034016470308416e-06
4.729000000000000000e+03 5.658641338348388672e+00 7.014133453369140625e+00 9.500865871814312413e-07 1.821955351033466286e-07 3.396846466330316616e-07 9.981345101550687104e-07
4.730000000000000000e+03 7.074569702148437500e+01 3.271393585205078125e+01 2.749570131301879883e+00 1.188668727874755859e+01 4.390877246856689453e+00 1.728153824806213379e+00
4.731000000000000000e+03 1.119193744659423828e+01 -1.260396003723144531e+01 3.502885228954255581e-04 2.149994834326207638e-04 1.695864048087969422e-04 -1.838577154558151960e-04
4.732000000000000000e+03 8.175041198730468750e+00 -1.543483066558837891e+01 1.278880081372335553e-04 4.776382993441075087e-04 1.816578878788277507e-04 -6.971189286559820175e-04
4.733000000000000000e+03 7.084704589843750000e+01 3.321543884277343750e+01 1.956024408340454102e+00 1.182804965972900391e+01 4.135221958160400391e+00 1.796783447265625000e+00
4.734000000000000000e+03 6.582530975341796875e+01 3.487562942504882812e+01 -5.534748733043670654e-02 8.367659568786621094e+00 2.493693590164184570e+00 -3.506943941116333008e+00
4.735000000000000000e+03 7.805954933166503906e+00 6.591699600219726562e+00 3.621669065978494473e-06 -1.787039707323856419e-07 1.032889599628106225e-06 1.482207608205499128e-06
4.736000000000000000e+03 7.369319438934326172e+00 2.966149520874023438e+01 -1.724952380754984915e-05 1.298560050599917304e-06 -4.785289092978928238e-06 -8.202678714042122010e-07
4.737000000000000000e+03 7.103726959228515625e+01 2.951428604125976562e+01 3.508059978485107422e+00 1.126324081420898438e+01 4.431390285491943359e+00 -1.299406886100769043e+00
4.738000000000000000e+03 7.171405029296875000e+01 3.055301284790039062e+01 3.484717130661010742e+00 1.033458328247070312e+01 4.145790100097656250e+00 -2.486745417118072510e-01
4.739000000000000000e+03 6.365879821777343750e+01 -2.606710243225097656e+01 7.916725426912307739e-02 4.997230052947998047e+00 1.522919178009033203e+00 9.068588167428970337e-02
4.740000000000000000e+03 8.427618980407714844e+00 6.872174263000488281e+00 -4.332790467742597684e-06 1.399879351993149612e-06 -8.798733688308857381e-07 -1.098505890695378184e-06
4.741000000000000000e+03 5.586296081542968750e+01 2.684550285339355469e+01 -1.406973838806152344e+00 1.491543650627136230e-01 -3.773458302021026611e-01 5.633964319713413715e-04
4.742000000000000000e+03 7.980072498321533203e+00 -7.581626892089843750e+00 6.031733573763631284e-05 1.136568462243303657e-04 5.219225567998364568e-05 -1.698139822110533714e-04
4.743000000000000000e+03 7.157607269287109375e+01 2.937117385864257812e+01 2.877122163772583008e+00 1.067666339874267578e+01 4.066135406494140625e+00 -1.208183407783508301e+00
4.744000000000000000e+03 7.167727661132812500e+01 3.105753707885742188e+01 3.599588871002197266e+00 1.038444328308105469e+01 4.195209503173828125e+00 2.422670274972915649e-01
4.745000000000000000e+03 5.579849243164062500e+01 2.530134010314941406e+01 -7.901757955551147461e-01 3.365005552768707275e-01 -1.361025720834732056e-01 1.051378250122070312e-01
4.746000000000000000e+03 4.073941802978515625e+01 -2.074077987670898438e+01 1.260363608598709106e-01 9.295048713684082031e-01 3.166623711585998535e-01 -6.341557204723358154e-02
4.747000000000000000e+03 6.911311626434326172e+00 9.112770080566406250e+00 5.769953759227064438e-08 -3.110145144091802649e-06 -9.157337217402528040e-07 -9.952201480700750835e-07
4.748000000000000000e+03 7.130303192138671875e+01 2.725982475280761719e+01 6.679192185401916504e-01 1.126566314697265625e+01 3.580074787139892578e+00 -1.488451600074768066e+00
4.749000000000000000e+03 7.207474517822265625e+01 2.857887649536132812e+01 1.901894688606262207e+00 1.042211437225341797e+01 3.697202920913696289e+00 -1.399330139160156250e+00
4.750000000000000000e+03 6.549217987060546875e+01 2.472376823425292969e+01 -6.358249187469482422e-01 7.135618209838867188e+00 1.949937939643859863e+00 3.065165519714355469e+00
4.751000000000000000e+03 6.693150329589843750e+01 -2.016457557678222656e+01 6.757596135139465332e-02 5.603636264801025391e+00 1.701363682746887207e+00 1.166571602225303650e-01
4.752000000000000000e+03 3.442574310302734375e+01 -1.505356693267822266e+01 1.076391264796257019e-01 -1.562613397836685181e-01 -1.458666473627090454e-02 -1.599245965480804443e-01
4.753000000000000000e+03 4.160958099365234375e+01 2.740922927856445312e+01 -9.015797972679138184e-01 9.420987963676452637e-02 -2.422109842300415039e-01 -4.722684621810913086e-01
4.754000000000000000e+03 6.920796966552734375e+01 -1.775067901611328125e+01 6.021445244550704956e-02 6.098915576934814453e+00 1.847738981246948242e+00 1.295706629753112793e-01
4.755000000000000000e+03 3.106674003601074219e+01 -4.150196075439453125e+00 9.192151576280593872e-02 -7.080876827239990234e-01 -1.848498433828353882e-01 -3.073553144931793213e-01
4.756000000000000000e+03 7.228137969970703125e+01 2.648567962646484375e+01 2.161918580532073975e-01 1.033236026763916016e+01 3.164565563201904297e+00 -1.419155120849609375e+00
4.757000000000000000e+03 6.138605499267578125e+01 -1.249389171600341797e+01 1.754361391067504883e-01 4.559057712554931641e+00 1.420348167419433594e+00 1.870526522397994995e-01
4.758000000000000000e+03 7.176691436767578125e+01 1.359115314483642578e+01 -3.619146645069122314e-01 7.543427467346191406e+00 2.154453754425048828e+00 3.049776554107666016e-01
4.759000000000000000e+03 3.360556411743164062e+01 -7.825531482696533203e+00 1.267062723636627197e-01 -3.148811757564544678e-01 -5.645247548818588257e-02 -2.584316432476043701e-01
4.760000000000000000e+03 7.286724090576171875e+01 2.550312995910644531e+01 -1.922219246625900269e-01 9.888979911804199219e+00 2.909027338027954102e+00 -1.332001447677612305e+00
4.761000000000000000e+03 5.613290786743164062e+01 2.397604179382324219e+01 -3.583407700061798096e-01 6.597561240196228027e-01 9.042460471391677856e-02 2.985034286975860596e-01
4.762000000000000000e+03 4.139583587646484375e+01 -1.298875236511230469e+01 1.880710422992706299e-01 9.341694116592407227e-01 3.366721272468566895e-01 -1.158211231231689453e-01
4.763000000000000000e+03 5.952736282348632812e+01 2.249429321289062500e+01 1.439164727926254272e-01 1.960817456245422363e+00 6.314201951026916504e-01 1.296464800834655762e+00
4.764000000000000000e+03 3.356296920776367188e+01 2.210804367065429688e+01 -2.241782546043395996e-01 -1.280041784048080444e-01 -1.056547313928604126e-01 -6.096753478050231934e-01
4.765000000000000000e+03 6.976547241210937500e+01 2.124358367919921875e+01 -1.151322126388549805e+00 8.841437339782714844e+00 2.307034730911254883e+00 4.514225721359252930e-01
4.766000000000000000e+03 3.169949340820312500e+01 2.915107154846191406e+01 -3.318189978599548340e-01 -1.352894306182861328e-02 -1.036043837666511536e-01 -2.885034084320068359e-01
4.767000000000000000e+03 7.059980773925781250e+01 2.021364122629165649e-01 6.287127733230590820e-02 6.594931125640869141e+00 1.997340679168701172e+00 3.483855724334716797e-01
4.768000000000000000e+03 6.335740661621093750e+01 -1.067892074584960938e+01 1.550690680742263794e-01 4.933996677398681641e+00 1.526719689369201660e+00 2.254131734371185303e-01
4.769000000000000000e+03 5.689691925048828125e+01 2.389739227294921875e+01 -2.479880452156066895e-01 7.358136773109436035e-01 1.463476866483688354e-01 4.939908385276794434e-01
4.770000000000000000e+03 5.910429000854492188e+01 2.147921752929687500e+01 1.857928186655044556e-01 2.035309553146362305e+00 6.663306951522827148e-01 1.183790206909179688e+00
4.771000000000000000e+03 6.933197021484375000e+01 -1.524679088592529297e+01 5.959920957684516907e-02 6.100186824798583984e+00 1.847935795783996582e+00 1.539156585931777954e-01
4.772000000000000000e+03 6.510857391357421875e+01 -1.065977573394775391e+01 1.370282024145126343e-01 5.286128044128417969e+00 1.626946926116943359e+00 2.307386994361877441e-01
4.773000000000000000e+03 6.214641571044921875e+01 2.157720375061035156e+01 1.284994359593838453e-04 3.731252908706665039e+00 1.119414448738098145e+00 1.923488020896911621e+00
4.774000000000000000e+03 6.857707214355468750e+01 1.014484882354736328e+01 -1.416579931974411011e-01 6.430079936981201172e+00 1.886526584625244141e+00 5.812084078788757324e-01
4.775000000000000000e+03 6.883154296875000000e+01 1.996354866027832031e+01 -1.031180858612060547e+00 8.134999275207519531e+00 2.131145477294921875e+00 8.311490416526794434e-01
4.776000000000000000e+03 6.910875701904296875e+01 2.362106889486312866e-01 8.208409696817398071e-02 6.244421958923339844e+00 1.897951722145080566e+00 3.889496028423309326e-01
4.777000000000000000e+03 3.737332153320312500e+01 -2.232825756072998047e+00 2.087447643280029297e-01 1.565523594617843628e-01 1.095891296863555908e-01 -3.243238627910614014e-01
4.778000000000000000e+03 3.777431106567382812e+01 -4.958876609802246094e+00 1.956303864717483521e-01 2.564665973186492920e-01 1.356290876865386963e-01 -2.717873156070709229e-01
4.779000000000000000e+03 6.632459259033203125e+01 2.605463981628417969e+00 1.188270673155784607e-01 5.600670337677001953e+00 1.715849161148071289e+00 4.736693501472473145e-01
4.780000000000000000e+03 3.651975631713867188e+01 1.767961502075195312e+00 1.990579366683959961e-01 8.576957508921623230e-03 6.229046732187271118e-02 -4.122939109802246094e-01
4.781000000000000000e+03 5.088993072509765625e+01 2.281020736694335938e+01 -4.234907925128936768e-01 3.460647463798522949e-01 -2.322780899703502655e-02 -3.158862292766571045e-01
4.782000000000000000e+03 5.441724395751953125e+01 1.892800331115722656e+01 2.432847470045089722e-01 1.237109541893005371e+00 4.441182911396026611e-01 3.118096888065338135e-01
4.783000000000000000e+03 6.756449890136718750e+01 1.059758949279785156e+01 -1.457076817750930786e-01 6.180245399475097656e+00 1.810361266136169434e+00 6.508651971817016602e-01
4.784000000000000000e+03 6.653172302246093750e+01 1.804808998107910156e+01 -6.370561122894287109e-01 6.578403472900390625e+00 1.782404184341430664e+00 1.260902523994445801e+00
4.785000000000000000e+03 4.030783462524414062e+01 -8.348166942596435547e-01 2.730782330036163330e-01 5.608670115470886230e-01 2.501835823059082031e-01 -3.019413053989410400e-01
4.786000000000000000e+03 3.914179992675781250e+01 -1.654921770095825195e-01 2.478542625904083252e-01 3.823684453964233398e-01 1.890668123960494995e-01 -3.414553105831146240e-01
4.787000000000000000e+03 6.685363769531250000e+01 1.179820823669433594e+01 -1.788060367107391357e-01 6.035222053527832031e+00 1.756924748420715332e+00 7.412824630737304688e-01
4.788000000000000000e+03 6.328606796264648438e+01 5.161046504974365234e+00 1.806754171848297119e-01 4.816924095153808594e+00 1.499279856681823730e+00 5.530181527137756348e-01
4.789000000000000000e+03 6.882816314697265625e+01 -1.157943248748779297e+00 9.475361555814743042e-02 6.141700267791748047e+00 1.870936155319213867e+00 3.574967086315155029e-01
4.790000000000000000e+03 3.863857650756835938e+01 2.585340118408203125e+01 -6.013602018356323242e-01 6.079150363802909851e-02 -1.621706038713455200e-01 -5.593266487121582031e-01
4.791000000000000000e+03 4.010722351074218750e+01 2.441112899780273438e+01 -5.529685616493225098e-01 7.239017635583877563e-02 -1.441735178232192993e-01 -6.258594989776611328e-01
4.792000000000000000e+03 3.503987121582031250e+01 2.674943351745605469e+01 -4.637319743633270264e-01 9.032734669744968414e-03 -1.364097744226455688e-01 -4.691454768180847168e-01
4.793000000000000000e+03 5.984458160400390625e+01 2.048393630981445312e+01 1.969693303108215332e-01 2.641547441482543945e+00 8.515550494194030762e-01 1.353232502937316895e+00
4.794000000000000000e+03 3.429764175415039062e+01 2.663890647888183594e+01 -4.217868149280548096e-01 -7.636839058250188828e-03 -1.288270950317382812e-01 -4.624749124050140381e-01
4.795000000000000000e+03 6.819814300537109375e+01 1.470095825195312500e+01 -4.379301071166992188e-01 6.794529914855957031e+00 1.906979918479919434e+00 7.201495170593261719e-01
4.796000000000000000e+03 6.695973968505859375e+01 2.068330049514770508e+00 1.087771058082580566e-01 5.738595008850097656e+00 1.754211664199829102e+00 4.549944102764129639e-01
4.797000000000000000e+03 6.062591552734375000e+01 -7.780234813690185547e+00 2.163578569889068604e-01 4.339262008666992188e+00 1.366685986518859863e+00 2.417978346347808838e-01
4.798000000000000000e+03 6.615998077392578125e+01 1.240109157562255859e+01 -1.745485663414001465e-01 5.840219020843505859e+00 1.699701189994812012e+00 8.180271983146667480e-01
4.799000000000000000e+03 3.733419036865234375e+01 8.825064659118652344e+00 1.871130466461181641e-01 2.191828750073909760e-02 6.270939856767654419e-02 -5.651061534881591797e-01
4.800000000000000000e+03 6.705549621582031250e+01 -7.202691555023193359e+00 1.307618021965026855e-01 5.721923351287841797e+00 1.755805492401123047e+00 2.737518250942230225e-01
4.801000000000000000e+03 6.771372222900390625e+01 1.788974952697753906e+01 -7.324090003967285156e-01 7.081004619598388672e+00 1.904578804969787598e+00 1.011950492858886719e+00
4.802000000000000000e+03 6.066083526611328125e+01 -6.150434970855712891e+00 2.261445522308349609e-01 4.340690612792968750e+00 1.370050549507141113e+00 2.710980176925659180e-01
4.803000000000000000e+03 3.751816558837890625e+01 2.530224418640136719e+01 -5.156066417694091797e-01 3.710157424211502075e-02 -1.435515135526657104e-01 -5.733613371849060059e-01
4.804000000000000000e+03 3.818814086914062500e+01 2.549501800537109375e+01 -5.564429759979248047e-01 4.985902458429336548e-02 -1.519751846790313721e-01 -5.704312324523925781e-01
4.805000000000000000e+03 4.201111602783203125e+01 -1.807807832956314087e-01 3.082611858844757080e-01 7.622349262237548828e-01 3.211488127708435059e-01 -2.735961079597473145e-01
4.806000000000000000e+03 6.168595504760742188e+01 7.874586105346679688e+00 2.104588299989700317e-01 4.333384990692138672e+00 1.363153219223022461e+00 6.461622714996337891e-01
4.807000000000000000e+03 6.736425018310546875e+01 1.547016620635986328e+01 -4.691217839717864990e-01 6.532528400421142578e+00 1.819021940231323242e+00 8.902951478958129883e-01
4.808000000000000000e+03 6.589366912841796875e+01 -3.528549909591674805e+00 1.525300592184066772e-01 5.453312397003173828e+00 1.681752800941467285e+00 3.411339819431304932e-01
4.809000000000000000e+03 6.652658843994140625e+01 1.674847221374511719e+01 -5.108733177185058594e-01 6.409952163696289062e+00 1.769723653793334961e+00 1.101302385330200195e+00
4.810000000000000000e+03 6.319175720214843750e+01 -1.787504673004150391e+00 2.099093943834304810e-01 4.845095157623291016e+00 1.516501426696777344e+00 3.758706450462341309e-01
4.811000000000000000e+03 5.994449996948242188e+01 -1.295750021934509277e+00 2.691721916198730469e-01 4.072402954101562500e+00 1.302472472190856934e+00 3.317805528640747070e-01
4.812000000000000000e+03 4.413136291503906250e+01 2.497122764587402344e+01 -7.601179480552673340e-01 1.223419308662414551e-01 -1.913328021764755249e-01 -5.918125510215759277e-01
4.813000000000000000e+03 4.324155807495117188e+01 -6.528168916702270508e-01 3.195267617702484131e-01 9.693028926849365234e-01 3.866488933563232422e-01 -2.348490506410598755e-01
4.814000000000000000e+03 3.956252288818359375e+01 1.805813789367675781e+01 -6.916863471269607544e-02 7.271323353052139282e-02 1.063379808329045773e-03 -7.024655342102050781e-01
4.815000000000000000e+03 4.802481460571289062e+01 1.898118972778320312e+01 6.201948504894971848e-03 4.756341278553009033e-01 1.445508152246475220e-01 -4.105165600776672363e-01
4.816000000000000000e+03 5.580973815917968750e+01 1.469867038726806641e+01 3.942886888980865479e-01 2.200811624526977539e+00 7.785300612449645996e-01 5.447106957435607910e-01
4.817000000000000000e+03 5.380407714843750000e+01 4.219007968902587891e+00 4.200632572174072266e-01 2.555025100708007812e+00 8.925265073776245117e-01 2.144843339920043945e-01
4.818000000000000000e+03 5.955440521240234375e+01 7.322108745574951172e+00 2.923399806022644043e-01 3.756895780563354492e+00 1.214770674705505371e+00 5.617950558662414551e-01
4.819000000000000000e+03 5.967638015747070312e+01 8.725860595703125000e+00 2.905050218105316162e-01 3.731891393661499023e+00 1.206718921661376953e+00 6.205782890319824219e-01
4.820000000000000000e+03 4.084006500244140625e+01 1.201124572753906250e+01 2.047169655561447144e-01 2.684541642665863037e-01 1.419513374567031860e-01 -5.693453550338745117e-01
4.821000000000000000e+03 5.743785095214843750e+01 6.930918693542480469e+00 3.631187975406646729e-01 3.193540334701538086e+00 1.066997766494750977e+00 4.556961655616760254e-01
4.822000000000000000e+03 5.767573165893554688e+01 1.618232345581054688e+01 3.341304361820220947e-01 2.527831792831420898e+00 8.585886359214782715e-01 7.984665632247924805e-01
4.823000000000000000e+03 5.901351165771484375e+01 9.327387809753417969e+00 3.086412250995635986e-01 3.540183782577514648e+00 1.154647469520568848e+00 6.134221553802490234e-01
4.824000000000000000e+03 5.977138137817382812e+01 1.119218158721923828e+01 2.543663382530212402e-01 3.653940200805664062e+00 1.172491908073425293e+00 7.432044744491577148e-01
4.825000000000000000e+03 5.511819839477539062e+01 1.360893154144287109e+01 4.152400493621826172e-01 2.125177145004272461e+00 7.621251940727233887e-01 4.241747856140136719e-01
4.826000000000000000e+03 4.478520584106445312e+01 9.865261077880859375e+00 3.438384532928466797e-01 7.572457194328308105e-01 3.303252458572387695e-01 -3.615618348121643066e-01
4.827000000000000000e+03 5.343558120727539062e+01 1.196572589874267578e+01 4.446466565132141113e-01 1.924090147018432617e+00 7.106209993362426758e-01 2.567990720272064209e-01
4.828000000000000000e+03 4.230366897583007812e+01 1.248373126983642578e+01 2.225395143032073975e-01 3.888542354106903076e-01 1.834181249141693115e-01 -5.309362411499023438e-01
4.829000000000000000e+03 5.759486007690429688e+01 1.370436286926269531e+01 3.450071215629577637e-01 2.786665678024291992e+00 9.395018815994262695e-01 7.008891105651855469e-01
4.830000000000000000e+03 4.826622390747070312e+01 1.344996261596679688e+01 3.492393493652343750e-01 9.451653957366943359e-01 3.883214294910430908e-01 -2.318919748067855835e-01
4.831000000000000000e+03 5.337612533569335938e+01 1.021179199218750000e+01 4.496352970600128174e-01 2.070427656173706055e+00 7.560189366340637207e-01 2.427193522453308105e-01
4.832000000000000000e+03 4.362940597534179688e+01 1.108615589141845703e+01 2.964304387569427490e-01 5.504572391510009766e-01 2.540662884712219238e-01 -4.450094401836395264e-01
4.833000000000000000e+03 1.426702117919921875e+01 1.252673983573913574e+00 -1.041772065946133807e-06 1.046694819706317503e-08 -3.093915381668921327e-07 -6.449114380302489735e-07
4.834000000000000000e+03 1.462149238586425781e+01 1.164639949798583984e+00 1.838636990214581601e-06 -1.398373825622911681e-07 5.096398467685503419e-07 -3.627820319707097951e-07
4.835000000000000000e+03 1.332876110076904297e+01 1.093653082847595215e+00 -3.999231239504297264e-07 -5.670886480402259622e-07 -2.901035429658804787e-07 -3.410307556350744562e-07
4.836000000000000000e+03 1.406522464752197266e+01 3.572364747524261475e-01 -2.539772765430825530e-07 -3.639295584889623569e-07 -1.853720590361263021e-07 -5.489721743856534886e-08
4.837000000000000000e+03 1.336003494262695312e+01 3.511472940444946289e-01 1.417027704064821592e-07 5.665303888235939667e-07 2.124699420846809517e-07 1.414568231439261581e-07
4.838000000000000000e+03 1.476313018798828125e+01 5.016638040542602539e-01 1.236405466897849692e-07 2.013512130361050367e-07 9.749752649668153026e-08 9.631209252347616712e-08
4.839000000000000000e+03 1.414069938659667969e+01 9.322270154953002930e-01 1.161128921012277715e-06 -3.358372850925661623e-07 2.475875078289391240e-07 3.640479349087399896e-07
4.840000000000000000e+03 1.384797477722167969e+01 1.187353014945983887e+00 4.227472913953533862e-07 4.356391514193092007e-07 2.575159214757150039e-07 3.735371194579784060e-07
4.841000000000000000e+03 1.112969017028808594e+01 3.708996772766113281e-01 -1.786209082865752862e-07 -5.353905407901038416e-07 -2.142034389862601529e-07 8.243025462206787779e-08
4.842000000000000000e+03 1.113907623291015625e+01 1.110847473144531250e+00 5.601423254120163620e-07 3.414655509459407767e-07 2.704823600652161986e-07 -2.395437945779121947e-07
4.843000000000000000e+03 1.263169097900390625e+01 3.451149165630340576e-01 -1.414276056266317028e-07 -6.876662155264057219e-07 -2.487281278718000976e-07 -3.773584111854688672e-08
4.844000000000000000e+03 1.037880802154541016e+01 3.837110698223114014e-01 2.005382953029766213e-07 3.782135422625287902e-07 1.736255512696516234e-07 -7.265111889864783734e-08
4.845000000000000000e+03 1.188065242767333984e+01 3.580341637134552002e-01 1.445539083988478524e-07 6.670233574368467089e-07 2.434731811717938399e-07 -4.000541053983397433e-08
4.846000000000000000e+03 1.264514160156250000e+01 1.084993243217468262e+00 2.954575677449611248e-07 5.594532694885856472e-07 2.564732426435512025e-07 6.607582747619744623e-08
4.847000000000000000e+03 1.038616180419921875e+01 1.123693704605102539e+00 -6.296759238466620445e-07 -2.492304247425636277e-07 -2.636719216297933599e-07 1.805725702297422686e-07
4.848000000000000000e+03 1.189207077026367188e+01 1.097947120666503906e+00 -3.920517031019699061e-07 -4.861823867940984201e-07 -2.634702411796752131e-07 1.783969310054089874e-07
4.849000000000000000e+03 9.625078201293945312e+00 3.871397972106933594e-01 -2.150422631075343816e-07 -2.762937185707414756e-07 -1.474007973456537002e-07 2.392796716321754502e-08
4.850000000000000000e+03 8.868724822998046875e+00 3.828192353248596191e-01 2.078369760738496552e-07 2.544744290844391799e-07 1.386934229685721220e-07 1.571771512942632398e-08
4.851000000000000000e+03 9.644926071166992188e+00 1.127139806747436523e+00 6.731987127750471700e-07 2.129148128915403504e-07 2.658340463312924840e-07 -6.839727006990869995e-08
4.852000000000000000e+03 8.112174034118652344e+00 3.804100155830383301e-01 -1.970787764093984151e-07 -2.634146483160293428e-07 -1.381480245754573843e-07 -2.592211778562614199e-08
4.853000000000000000e+03 7.356014251708984375e+00 3.793691694736480713e-01 1.846518529191598645e-07 2.475286748904181877e-07 1.296541540796170011e-07 5.049750839702937810e-09
4.854000000000000000e+03 5.843623161315917969e+00 3.767499327659606934e-01 1.568757426184674841e-07 -5.732113672607397348e-10 4.689076149588800035e-08 -1.127917315102422435e-07
4.855000000000000000e+03 5.088051319122314453e+00 3.757717311382293701e-01 -1.051352143122130656e-07 2.337115319051008555e-07 3.857289598840907274e-08 2.081704479905965854e-07
4.856000000000000000e+03 3.576755046844482422e+00 3.680583238601684570e-01 -1.770595474681613268e-07 6.327760502244927920e-07 1.367149593534122687e-07 2.563128589372354327e-07
4.857000000000000000e+03 2.822042465209960938e+00 3.613462746143341064e-01 2.885744834202341735e-07 -5.952306878498347942e-07 -9.199686701322207227e-08 -1.556866209284635261e-07
4.858000000000000000e+03 2.068703651428222656e+00 3.577998280525207520e-01 -2.258103961594315479e-07 4.245500804245239124e-07 5.962191096386959543e-08 8.557344699511304498e-08
4.859000000000000000e+03 2.358754634857177734e+00 1.097799897193908691e+00 8.241631235250679310e-07 -2.945357380212954013e-07 1.588882128089608159e-07 1.665645044113261974e-07
4.860000000000000000e+03 1.327708005905151367e+00 3.658417165279388428e-01 2.198763127125857864e-08 -3.620945392412977526e-07 -1.020320752331826952e-07 -2.247365529228773084e-07
4.861000000000000000e+03 1.644779324531555176e+00 1.105841755867004395e+00 -4.687185537477489561e-07 -7.251646394479394075e-08 -1.623704974917927757e-07 -1.669484390731668100e-07
4.862000000000000000e+03 6.509408354759216309e-01 3.937322795391082764e-01 9.233859827872947790e-07 8.245182812061102595e-07 5.243712735136796255e-07 9.531918294669594616e-07
4.863000000000000000e+03 3.482567369937896729e-01 9.569563269615173340e-01 -1.263149783881090116e-06 -8.114737397590943146e-07 -6.223870627763972152e-07 -3.786453817156143486e-07
4.864000000000000000e+03 3.085073232650756836e+00 1.101346254348754883e+00 -9.137537517744931392e-07 4.223823282245575683e-07 -1.474114270649806713e-07 2.324429893008073122e-08
4.865000000000000000e+03 3.812765598297119141e+00 1.108058333396911621e+00 7.420417205139528960e-07 -3.458247306298289914e-07 1.188650955441516999e-07 -2.693253691177233122e-07
4.866000000000000000e+03 4.332499980926513672e+00 3.732680678367614746e-01 1.510930900394669152e-07 -4.829279305340605788e-07 -9.955045499054904212e-08 -2.702323058656475041e-07
4.867000000000000000e+03 5.998572826385498047e+00 1.116749882698059082e+00 -4.194615712549421005e-07 -7.856189654376066756e-08 -1.494070431817817735e-07 2.558164453603239963e-07
4.868000000000000000e+03 6.600036144256591797e+00 3.784387111663818359e-01 -1.637012729815978673e-07 -1.622384502297791187e-07 -9.778191412124215276e-08 4.574620504627091577e-08
4.869000000000000000e+03 8.186062812805175781e+00 1.120409965515136719e+00 5.537567062674497720e-07 2.088364396968245273e-07 2.287779352627694607e-07 2.335464266423059598e-08
4.870000000000000000e+03 8.915593147277832031e+00 1.122819185256958008e+00 -6.133522560958226677e-07 -2.037489252870727796e-07 -2.451303657835524064e-07 -1.338213984070080187e-08
4.871000000000000000e+03 7.456923484802246094e+00 1.119369149208068848e+00 -4.934196908834564965e-07 -2.005960908491033479e-07 -2.082047245721696527e-07 3.907195988972489431e-08
4.872000000000000000e+03 6.727965354919433594e+00 1.118438720703125000e+00 4.562636490845761728e-07 1.645296663355111377e-07 1.862379974681971362e-07 -1.346410130054209731e-07
4.873000000000000000e+03 5.270021438598632812e+00 1.115771770477294922e+00 4.156526927090453682e-07 -3.334540465971258527e-08 1.146921846384429955e-07 -3.380488351467647590e-07
4.874000000000000000e+03 4.541490077972412109e+00 1.113268017768859863e+00 -5.019355171498318668e-07 1.756037733002813184e-07 -9.789952315486516454e-08 3.778415589295036625e-07
4.875000000000000000e+03 9.950323700904846191e-01 1.133732318878173828e+00 -3.665587087198218796e-07 8.934725883591454476e-07 1.580741724183098995e-07 -1.658473678389782435e-07
4.876000000000000000e+03 7.951600551605224609e+00 -3.791473805904388428e-01 -2.341904837521724403e-05 -8.114330557873472571e-05 -3.136870509479194880e-05 2.529790435801260173e-05
4.877000000000000000e+03 8.812386512756347656e+00 -1.121279358863830566e+00 -6.030610893503762782e-05 -4.129342050873674452e-05 -3.047985774173866957e-05 3.084313357248902321e-05
4.878000000000000000e+03 9.587816238403320312e+00 -3.863115906715393066e-01 -1.764013541105668992e-05 -4.822884511668235064e-05 -1.976069324882701039e-05 1.052203424478648230e-05
4.879000000000000000e+03 7.132064342498779297e+00 -3.779651820659637451e-01 3.498033038340508938e-05 1.095551342586986721e-04 4.336064012022688985e-05 -3.837411350104957819e-05
4.880000000000000000e+03 6.306247234344482422e+00 -3.772793114185333252e-01 -2.945468986581545323e-05 -1.451870339224115014e-04 -5.239251913735643029e-05 5.012027395423501730e-05
4.881000000000000000e+03 5.442752361297607422e+00 -3.835102021694183350e-01 -1.350727234239457175e-05 1.568571024108678102e-04 4.300495129427872598e-05 -1.939731919264886528e-05
4.882000000000000000e+03 4.552286148071289062e+00 -3.399353623390197754e-01 -1.555482594994828105e-05 -1.604589633643627167e-04 -5.280413824948482215e-05 -1.362918374070432037e-05
4.883000000000000000e+03 4.371328830718994141e+00 -8.708365559577941895e-01 2.258833555970340967e-04 1.409988908562809229e-04 1.100646695704199374e-04 1.514738396508619189e-04
4.884000000000000000e+03 2.785328388214111328e+00 -7.796061038970947266e-01 3.964621646446175873e-05 -9.533371485304087400e-05 -1.670624988037161529e-05 2.359592326683923602e-04
4.885000000000000000e+03 1.180722951889038086e+00 -3.608860373497009277e-01 -1.856890448834747076e-04 1.000521442620083690e-04 -2.569106800365261734e-05 -2.260340079374145716e-05
4.886000000000000000e+03 4.099212884902954102e-01 -5.526853203773498535e-01 -2.125024184351786971e-05 -9.088648948818445206e-05 -3.364101939951069653e-05 -5.238786616246215999e-05
4.887000000000000000e+03 7.477942705154418945e-01 -1.100885987281799316e+00 5.689766840077936649e-04 1.162032858701422811e-04 2.055539953289553523e-04 1.416174927726387978e-04
4.888000000000000000e+03 9.597747802734375000e+00 -1.126311540603637695e+00 5.835344927618280053e-05 4.092888775630854070e-05 2.978470183734316379e-05 -2.701771154534071684e-05
4.889000000000000000e+03 8.026608467102050781e+00 -1.119147419929504395e+00 7.051578722894191742e-05 3.648914935183711350e-05 3.210148133803158998e-05 -3.793812356889247894e-05
4.890000000000000000e+03 7.239610195159912109e+00 -1.117965221405029297e+00 -7.418881432386115193e-05 -2.396168019913602620e-05 -2.944514744740445167e-05 4.230998456478118896e-05
4.891000000000000000e+03 6.446331024169921875e+00 -1.117279291152954102e+00 5.749921547248959541e-05 -7.707450095040258020e-06 1.493753006798215210e-05 -3.028175160579849035e-05
4.892000000000000000e+03 5.615375041961669922e+00 -1.123510241508483887e+00 2.975751704070717096e-05 2.862529618141707033e-05 1.751484342094045132e-05 6.858898814243730158e-06
4.893000000000000000e+03 4.879715442657470703e+00 -1.221276640892028809e+00 -1.605654979357495904e-04 -1.749693765304982662e-04 -1.006604652502574027e-04 -1.090973819373175502e-04
4.894000000000000000e+03 4.223337173461914062e+00 -1.290901184082031250e+00 -7.711961370659992099e-05 1.576567592564970255e-04 2.416114512016065419e-05 -4.975579486199421808e-06
4.895000000000000000e+03 3.489140987396240234e+00 -1.263193726539611816e+00 5.778687045676633716e-05 -4.657898534787818789e-05 3.362366214787471108e-06 1.573981571709737182e-04
4.896000000000000000e+03 2.723763942718505859e+00 -1.258556365966796875e+00 6.875191320432350039e-05 -1.134707054006867111e-04 -1.341563893220154569e-05 -2.417597715975716710e-04
4.897000000000000000e+03 1.357383847236633301e+00 -1.202877521514892578e+00 -5.944330478087067604e-04 -2.747760736383497715e-04 -2.607627247925847769e-04 -7.723926682956516743e-05
4.898000000000000000e+03 8.769917488098144531e+00 -3.812793791294097900e-01 2.421314820821862668e-05 6.138913158793002367e-05 2.568068339314777404e-05 -1.683276786934584379e-05
4.899000000000000000e+03 3.581377506256103516e+00 -7.854385375976562500e-01 -7.485310197807848454e-05 -6.216329347807914019e-05 -4.110491863684728742e-05 -1.578078226884827018e-04
4.900000000000000000e+03 3.695749998092651367e+00 -2.822447717189788818e-01 6.936470072105294093e-06 1.569493324495851994e-04 4.916573743685148656e-05 4.955430267727933824e-05
4.901000000000000000e+03 2.864297151565551758e+00 -2.810497581958770752e-01 -6.504348857561126351e-05 -1.172068368759937584e-04 -5.467509618028998375e-05 -6.175570888444781303e-05
4.902000000000000000e+03 1.994235515594482422e+00 -3.319245874881744385e-01 -1.350249203824205324e-05 2.824769762810319662e-05 4.423561676958343014e-06 9.622688958188518882e-05
4.903000000000000000e+03 1.981270551681518555e+00 -1.274680376052856445e+00 5.424851678981212899e-06 3.071590617764741182e-04 9.377517562825232744e-05 2.086949098156765103e-04
4.904000000000000000e+03 1.973554253578186035e+00 -8.466050028800964355e-01 3.127981326542794704e-04 1.504091778770089149e-04 1.389622048009186983e-04 -3.193768498022109270e-04
4.905000000000000000e+03 1.332448291778564453e+01 -3.621845245361328125e-01 -2.744910432284086710e-07 7.002367055974900723e-05 2.092475369863677770e-05 1.352293293166439980e-05
4.906000000000000000e+03 1.426397991180419922e+01 -1.317608714103698730e+00 -1.099042856367304921e-05 -3.654097599792294204e-05 -1.425942082278197631e-05 3.757057493203319609e-05
4.907000000000000000e+03 1.327361392974853516e+01 -1.248556852340698242e+00 -1.841391203925013542e-04 -2.953027978946920484e-05 -6.410082278307527304e-05 4.479114431887865067e-05
4.908000000000000000e+03 1.480296707153320312e+01 -1.047354817390441895e+00 -2.539301385695580393e-05 -1.492288811277830973e-05 -1.209477068186970428e-05 -3.291025859653018415e-05
4.909000000000000000e+03 1.356446647644042969e+01 -7.579438090324401855e-01 1.613551721675321460e-04 3.018515053554438055e-05 5.746209717472083867e-05 -3.113693310297094285e-05
4.910000000000000000e+03 1.393659019470214844e+01 -3.302382230758666992e-01 -3.449575888225808740e-05 -6.849537021480500698e-05 -3.089733945671468973e-05 5.493081516760867089e-06
4.911000000000000000e+03 1.449034786224365234e+01 -4.399540424346923828e-01 6.843332812422886491e-05 4.117151547688990831e-05 3.288145308033563197e-05 3.327333251945674419e-05
4.912000000000000000e+03 1.380024147033691406e+01 -1.352263331413269043e+00 1.453444128856062889e-04 4.403764251037500799e-05 5.681461698259226978e-05 -4.068389171152375638e-05
4.913000000000000000e+03 1.402595424652099609e+01 -9.610455632209777832e-01 -1.626127486815676093e-04 -3.334070424898527563e-05 -5.878603769815526903e-05 1.013851488096406683e-05
4.914000000000000000e+03 1.185737037658691406e+01 -1.162281751632690430e+00 -4.158369847573339939e-05 -5.808101559523493052e-05 -2.989941458508837968e-05 8.595216058893129230e-06
4.915000000000000000e+03 1.112013435363769531e+01 -4.102526009082794189e-01 -1.505833097326103598e-05 -3.932864274247549474e-05 -1.631609120522625744e-05 4.702714250015560538e-06
4.916000000000000000e+03 1.261753940582275391e+01 -4.348734915256500244e-01 -3.143650246784090996e-05 -4.113294562557712197e-05 -2.177083479182329029e-05 -6.211740583239588886e-06
4.917000000000000000e+03 1.037124824523925781e+01 -3.971002995967864990e-01 1.924829120980575681e-05 4.363955667940899730e-05 1.886635436676442623e-05 -7.334541805903427303e-06
4.918000000000000000e+03 1.036389350891113281e+01 -1.137082934379577637e+00 -5.774700184701941907e-05 -4.145915954723022878e-05 -2.976184805447701365e-05 1.914341919473372400e-05
4.919000000000000000e+03 1.260408973693847656e+01 -1.174751639366149902e+00 7.750249642413109541e-05 5.180615698918700218e-05 3.879259747918695211e-05 -1.038485243043396622e-05
4.920000000000000000e+03 1.111074829101562500e+01 -1.150200366973876953e+00 5.035311187384650111e-05 4.457001341506838799e-05 2.847693758667446673e-05 -1.192302261188160628e-05
4.921000000000000000e+03 1.186878871917724609e+01 -4.223687946796417236e-01 1.337907906417967752e-05 3.505161294015124440e-05 1.452920696465298533e-05 -7.371452738880179822e-06
4.922000000000000000e+03 6.677335357666015625e+01 3.084882164001464844e+01 3.043627357482910156e+01 5.888091564178466797e+00 1.089731025695800781e+01 1.145670986175537109e+01
4.923000000000000000e+03 6.677700042724609375e+01 3.082969856262207031e+01 2.802337265014648438e+01 1.763091850280761719e+01 1.369628715515136719e+01 2.249867248535156250e+01
4.924000000000000000e+03 6.678430175781250000e+01 3.081165313720703125e+01 2.582657814025878906e+01 2.925351715087890625e+01 1.652402877807617188e+01 2.640703773498535156e+01
4.925000000000000000e+03 6.679498291015625000e+01 3.079537200927734375e+01 2.217392730712890625e+01 4.129160690307617188e+01 1.903965950012207031e+01 2.761941146850585938e+01
4.926000000000000000e+03 6.680862426757812500e+01 3.078148269653320312e+01 1.893249130249023438e+01 5.246975708007812500e+01 2.142067527770996094e+01 2.587709999084472656e+01
4.927000000000000000e+03 6.682470703125000000e+01 3.077051353454589844e+01 1.575432586669921875e+01 6.196015548706054688e+01 2.331434440612792969e+01 2.176012420654296875e+01
4.928000000000000000e+03 6.684261322021484375e+01 3.076288604736328125e+01 1.422819328308105469e+01 6.906088256835937500e+01 2.498672103881835938e+01 1.576975154876708984e+01
4.929000000000000000e+03 6.686167144775390625e+01 3.075889015197753906e+01 1.418425559997558594e+01 7.308401489257812500e+01 2.618048095703125000e+01 8.712330818176269531e+00
4.930000000000000000e+03 6.688113403320312500e+01 3.075868225097656250e+01 1.624489212036132812e+01 7.399100494384765625e+01 2.707076835632324219e+01 1.702986121177673340e+00
4.931000000000000000e+03 6.690026855468750000e+01 3.076226615905761719e+01 2.002085876464843750e+01 7.204083251953125000e+01 2.761850738525390625e+01 -4.395329952239990234e+00
4.932000000000000000e+03 6.691834259033203125e+01 3.076950836181640625e+01 2.502054214477539062e+01 6.800548553466796875e+01 2.790781021118164062e+01 -8.754484176635742188e+00
4.933000000000000000e+03 6.693466186523437500e+01 3.078013038635253906e+01 3.055054092407226562e+01 6.277264785766601562e+01 2.799695587158203125e+01 -1.102665805816650391e+01
4.934000000000000000e+03 6.694859313964843750e+01 3.079372406005859375e+01 3.581314468383789062e+01 5.737007522583007812e+01 2.795496559143066406e+01 -1.116266918182373047e+01
4.935000000000000000e+03 6.695961761474609375e+01 3.080977249145507812e+01 4.023973846435546875e+01 5.257594680786132812e+01 2.784470558166503906e+01 -9.452918052673339844e+00
4.936000000000000000e+03 6.696730804443359375e+01 3.082765769958496094e+01 4.342111587524414062e+01 4.908432769775390625e+01 2.775163269042968750e+01 -6.360095977783203125e+00
4.937000000000000000e+03 6.697136688232421875e+01 3.084669876098632812e+01 4.507973480224609375e+01 4.712493896484375000e+01 2.766140174865722656e+01 -2.435538768768310547e+00
4.938000000000000000e+03 6.697163391113281250e+01 3.086616516113281250e+01 4.520964431762695312e+01 4.706293487548828125e+01 2.768177413940429688e+01 1.767845034599304199e+00
4.939000000000000000e+03 6.696811676025390625e+01 3.088531112670898438e+01 4.372897338867187500e+01 4.872140502929687500e+01 2.773511314392089844e+01 5.764737129211425781e+00
4.940000000000000000e+03 6.696093750000000000e+01 3.090340805053710938e+01 4.080004882812500000e+01 5.207391738891601562e+01 2.786219024658203125e+01 8.961795806884765625e+00
4.941000000000000000e+03 6.695037078857421875e+01 3.091975784301757812e+01 3.656275558471679688e+01 5.668628311157226562e+01 2.797471237182617188e+01 1.086622810363769531e+01
4.942000000000000000e+03 6.693682098388671875e+01 3.093373870849609375e+01 3.147442054748535156e+01 6.209714889526367188e+01 2.807147216796875000e+01 1.096745395660400391e+01
4.943000000000000000e+03 6.692080688476562500e+01 3.094481468200683594e+01 2.604683876037597656e+01 6.743147277832031250e+01 2.804349327087402344e+01 8.973825454711914062e+00
4.944000000000000000e+03 6.690294647216796875e+01 3.095256042480468750e+01 2.098211860656738281e+01 7.168891143798828125e+01 2.780130767822265625e+01 4.879542350769042969e+00
4.945000000000000000e+03 6.688391876220703125e+01 3.095668220520019531e+01 1.722137451171875000e+01 7.406211090087890625e+01 2.738504409790039062e+01 -1.045096755027770996e+00
4.946000000000000000e+03 6.686445617675781250e+01 3.095702171325683594e+01 1.496085071563720703e+01 7.358093261718750000e+01 2.656253433227539062e+01 -8.019221305847167969e+00
4.947000000000000000e+03 6.684529876708984375e+01 3.095356369018554688e+01 1.492509365081787109e+01 7.003878021240234375e+01 2.548916244506835938e+01 -1.516634941101074219e+01
4.948000000000000000e+03 6.682717895507812500e+01 3.094644355773925781e+01 1.643134880065917969e+01 6.333513259887695312e+01 2.392994499206542969e+01 -2.137195014953613281e+01
4.949000000000000000e+03 6.681079101562500000e+01 3.093593025207519531e+01 1.971167945861816406e+01 5.404960250854492188e+01 2.212838554382324219e+01 -2.582185173034667969e+01
4.950000000000000000e+03 6.679676818847656250e+01 3.092243003845214844e+01 2.315341186523437500e+01 4.298746871948242188e+01 1.984226417541503906e+01 -2.787774276733398438e+01
4.951000000000000000e+03 6.678563690185546875e+01 3.090645599365234375e+01 2.719552612304687500e+01 3.078860282897949219e+01 1.739523887634277344e+01 -2.694906234741210938e+01
4.952000000000000000e+03 6.677783203125000000e+01 3.088862228393554688e+01 2.978966712951660156e+01 1.892914772033691406e+01 1.461564445495605469e+01 -2.325508499145507812e+01
4.953000000000000000e+03 6.677364349365234375e+01 3.086960792541503906e+01 3.287814712524414062e+01 6.481204509735107422e+00 1.180780601501464844e+01 -1.236302661895751953e+01
