# el_label, x, y, sXX, sYY, sZZ, sXY
1.000000000000000000e+00 3.095312500000000000e+01 3.553976440429687500e+01 -4.826592445373535156e+00 -1.499152183532714844e+00 -1.897723436355590820e+00 -1.819521188735961914e+00
2.000000000000000000e+00 3.075447273254394531e+01 3.555221557617187500e+01 -4.633316099643707275e-01 6.033458709716796875e-01 4.200427979230880737e-02 8.626477718353271484e-01
3.000000000000000000e+00 3.055582237243652344e+01 3.556466674804687500e+01 -1.700017094612121582e+00 -3.688259422779083252e-01 -6.206529140472412109e-01 1.706569045782089233e-01
4.000000000000000000e+00 3.035717010498046875e+01 3.557711791992187500e+01 -1.792339444160461426e+00 9.088826179504394531e-02 -5.104353427886962891e-01 4.295655488967895508e-01
5.000000000000000000e+00 3.095518875122070312e+01 3.548139572143554688e+01 8.807882308959960938e+00 -2.308630466461181641e+00 1.949775457382202148e+00 -1.247646361589431763e-01
6.000000000000000000e+00 3.075791549682617188e+01 3.545493698120117188e+01 2.887997627258300781e+00 2.827507816255092621e-02 8.748818039894104004e-01 6.965783238410949707e-01
7.000000000000000000e+00 3.056064033508300781e+01 3.542847442626953125e+01 2.949288845062255859e+00 2.343083173036575317e-01 9.550791382789611816e-01 1.339099526405334473e+00
8.000000000000000000e+00 3.036336517333984375e+01 3.540201568603515625e+01 1.734276294708251953e+00 -1.236754357814788818e-01 4.831802546977996826e-01 7.476996183395385742e-01
9.000000000000000000e+00 3.096857833862304688e+01 3.542454528808593750e+01 1.489519977569580078e+01 4.817479476332664490e-02 4.483012199401855469e+00 5.448607921600341797e+00
1.000000000000000000e+01 3.078022956848144531e+01 3.536018753051757812e+01 8.671622276306152344e+00 1.121770441532135010e-01 2.635139942169189453e+00 3.117295742034912109e+00
1.100000000000000000e+01 3.059188079833984375e+01 3.529582595825195312e+01 5.853826522827148438e+00 7.954564690589904785e-01 1.994784832000732422e+00 2.695677757263183594e+00
1.200000000000000000e+01 3.040353202819824219e+01 3.523146820068359375e+01 5.036491394042968750e+00 7.107622623443603516e-01 1.724176168441772461e+00 2.609123229980468750e+00
1.300000000000000000e+01 3.099277877807617188e+01 3.537139129638671875e+01 1.765267753601074219e+01 4.289803504943847656e+00 6.582744121551513672e+00 1.044232368469238281e+01
1.400000000000000000e+01 3.082056236267089844e+01 3.527159500122070312e+01 1.120848178863525391e+01 2.635249853134155273e+00 4.153119564056396484e+00 6.711123943328857422e+00
1.500000000000000000e+01 3.064834785461425781e+01 3.517179870605468750e+01 8.688931465148925781e+00 2.221708774566650391e+00 3.273191928863525391e+00 5.304146766662597656e+00
1.600000000000000000e+01 3.047613334655761719e+01 3.507200241088867188e+01 6.963346004486083984e+00 2.120765209197998047e+00 2.725233316421508789e+00 4.541277408599853516e+00
1.700000000000000000e+01 3.102686309814453125e+01 3.532396697998046875e+01 1.713822937011718750e+01 1.046097373962402344e+01 8.279761314392089844e+00 1.439502906799316406e+01
1.800000000000000000e+01 3.087737274169921875e+01 3.519255065917968750e+01 1.207335948944091797e+01 6.584889888763427734e+00 5.597475051879882812e+00 9.886221885681152344e+00
1.900000000000000000e+01 3.072788047790527344e+01 3.506113815307617188e+01 9.415906906127929688e+00 5.258517265319824219e+00 4.402327060699462891e+00 7.826333045959472656e+00
2.000000000000000000e+01 3.057839012145996094e+01 3.492972183227539062e+01 7.978936672210693359e+00 4.505067348480224609e+00 3.745201349258422852e+00 6.802875995635986328e+00
2.100000000000000000e+01 3.106953048706054688e+01 3.528408050537109375e+01 1.507494640350341797e+01 1.744157791137695312e+01 9.754957199096679688e+00 1.644712638854980469e+01
2.200000000000000000e+01 3.094848251342773438e+01 3.512607955932617188e+01 1.109639644622802734e+01 1.169271278381347656e+01 6.836732387542724609e+00 1.186912345886230469e+01
2.300000000000000000e+01 3.082743644714355469e+01 3.496807479858398438e+01 9.045615196228027344e+00 9.284405708312988281e+00 5.499006271362304688e+00 9.771319389343261719e+00
2.400000000000000000e+01 3.070638847351074219e+01 3.481007385253906250e+01 7.551646232604980469e+00 7.952035903930664062e+00 4.651104450225830078e+00 8.347099304199218750e+00
2.500000000000000000e+01 3.111914443969726562e+01 3.525326538085937500e+01 1.219147396087646484e+01 2.444780731201171875e+01 1.099178504943847656e+01 1.631992721557617188e+01
2.600000000000000000e+01 3.103117370605468750e+01 3.507472229003906250e+01 9.428943634033203125e+00 1.713188743591308594e+01 7.968249320983886719e+00 1.246743774414062500e+01
2.700000000000000000e+01 3.094320297241210938e+01 3.489617538452148438e+01 7.685351848602294922e+00 1.379344749450683594e+01 6.443639755249023438e+00 1.038834476470947266e+01
2.800000000000000000e+01 3.085523223876953125e+01 3.471763229370117188e+01 6.557709217071533203e+00 1.196340370178222656e+01 5.556334018707275391e+00 9.212651252746582031e+00
2.900000000000000000e+01 3.117380905151367188e+01 3.523270034790039062e+01 9.712257385253906250e+00 3.052926826477050781e+01 1.207245731353759766e+01 1.425362682342529297e+01
3.000000000000000000e+01 3.112228012084960938e+01 3.504044723510742188e+01 7.624064445495605469e+00 2.214005279541015625e+01 8.929235458374023438e+00 1.156131553649902344e+01
3.100000000000000000e+01 3.107075309753417969e+01 3.484819030761718750e+01 6.094324111938476562e+00 1.837243080139160156e+01 7.340026378631591797e+00 9.871026992797851562e+00
3.200000000000000000e+01 3.101922416687011719e+01 3.465593719482421875e+01 5.309880256652832031e+00 1.571842384338378906e+01 6.308491230010986328e+00 8.630005836486816406e+00
3.300000000000000000e+01 3.123143005371093750e+01 3.522317504882812500e+01 8.414255142211914062e+00 3.496704483032226562e+01 1.301438999176025391e+01 1.083395862579345703e+01
3.400000000000000000e+01 3.121831703186035156e+01 3.502456283569335938e+01 6.250767707824707031e+00 2.626350975036621094e+01 9.754282951354980469e+00 9.452616691589355469e+00
3.500000000000000000e+01 3.120520401000976562e+01 3.482595443725585938e+01 4.986319541931152344e+00 2.204655456542968750e+01 8.109862327575683594e+00 8.306041717529296875e+00
3.600000000000000000e+01 3.119208908081054688e+01 3.462734985351562500e+01 3.920234918594360352e+00 1.962714576721191406e+01 7.064214229583740234e+00 7.191813468933105469e+00
3.700000000000000000e+01 3.128980445861816406e+01 3.522504425048828125e+01 8.400697708129882812e+00 3.744404602050781250e+01 1.375342369079589844e+01 6.742566585540771484e+00
3.800000000000000000e+01 3.131560897827148438e+01 3.502768325805664062e+01 6.063083648681640625e+00 2.894457817077636719e+01 1.050229835510253906e+01 6.694668769836425781e+00
3.900000000000000000e+01 3.134141159057617188e+01 3.483032226562500000e+01 4.385879039764404297e+00 2.469485282897949219e+01 8.724219322204589844e+00 5.985310554504394531e+00
4.000000000000000000e+01 3.136721420288085938e+01 3.463295745849609375e+01 3.544052124023437500e+00 2.229521369934082031e+01 7.751779556274414062e+00 5.591709613800048828e+00
4.100000000000000000e+01 3.134669876098632812e+01 3.523824310302734375e+01 9.821515083312988281e+00 3.806340789794921875e+01 1.436547756195068359e+01 3.158552885055541992e+00
4.200000000000000000e+01 3.141043090820312500e+01 3.504968261718750000e+01 6.879980087280273438e+00 3.022363281250000000e+01 1.113108444213867188e+01 3.485779762268066406e+00
4.300000000000000000e+01 3.147416114807128906e+01 3.486111831665039062e+01 5.057770252227783203e+00 2.588223266601562500e+01 9.282000541687011719e+00 3.664958953857421875e+00
4.400000000000000000e+01 3.153789520263671875e+01 3.467255783081054688e+01 3.891900539398193359e+00 2.311071014404296875e+01 8.100783348083496094e+00 3.530171394348144531e+00
4.500000000000000000e+01 3.139993476867675781e+01 3.526226425170898438e+01 1.287576103210449219e+01 3.715835952758789062e+01 1.501023578643798828e+01 1.740106940269470215e-01
4.600000000000000000e+01 3.149915695190429688e+01 3.508971786499023438e+01 8.189798355102539062e+00 3.011694526672363281e+01 1.149202346801757812e+01 9.638393521308898926e-01
4.700000000000000000e+01 3.159837722778320312e+01 3.491717147827148438e+01 7.018564701080322266e+00 2.590100669860839844e+01 9.875871658325195312e+00 1.163598418235778809e+00
4.800000000000000000e+01 3.169759941101074219e+01 3.474462890625000000e+01 5.232111454010009766e+00 2.274987983703613281e+01 8.394597053527832031e+00 1.509586930274963379e+00
4.900000000000000000e+01 3.144747352600097656e+01 3.529619216918945312e+01 1.541330528259277344e+01 3.527371215820312500e+01 1.520610427856445312e+01 -1.616143703460693359e+00
5.000000000000000000e+01 3.157839012145996094e+01 3.514626312255859375e+01 1.126039886474609375e+01 2.897329139709472656e+01 1.207010746002197266e+01 -7.199177742004394531e-01
5.100000000000000000e+01 3.170930290222167969e+01 3.499633789062500000e+01 8.395638465881347656e+00 2.493746185302734375e+01 9.999930381774902344e+00 -5.734256505966186523e-01
5.200000000000000000e+01 3.184021949768066406e+01 3.484640884399414062e+01 8.000612258911132812e+00 2.264481353759765625e+01 9.193627357482910156e+00 -4.756038784980773926e-01
5.300000000000000000e+01 3.148749923706054688e+01 3.533872604370117188e+01 1.889397621154785156e+01 3.321043014526367188e+01 1.563132190704345703e+01 -1.923081278800964355e+00
5.400000000000000000e+01 3.164509773254394531e+01 3.521715545654296875e+01 1.352883148193359375e+01 2.716358375549316406e+01 1.220772457122802734e+01 -1.564274549484252930e+00
5.500000000000000000e+01 3.180269622802734375e+01 3.509558105468750000e+01 1.118672180175781250e+01 2.358006858825683594e+01 1.043003749847412109e+01 -1.160434007644653320e+00
5.600000000000000000e+01 3.196029472351074219e+01 3.497400665283203125e+01 8.917978286743164062e+00 2.159905624389648438e+01 9.155110359191894531e+00 -9.349655508995056152e-01
5.700000000000000000e+01 3.151847839355468750e+01 3.538823699951171875e+01 2.120759582519531250e+01 3.136781692504882812e+01 1.577262401580810547e+01 -1.299087643623352051e+00
5.800000000000000000e+01 3.169672966003417969e+01 3.529967498779296875e+01 1.621059036254882812e+01 2.519591903686523438e+01 1.242195320129394531e+01 -1.126061081886291504e+00
5.900000000000000000e+01 3.187498092651367188e+01 3.521110916137695312e+01 1.299235725402832031e+01 2.232375526428222656e+01 1.059483337402343750e+01 -8.621061444282531738e-01
6.000000000000000000e+01 3.205323028564453125e+01 3.512253952026367188e+01 1.121946811676025391e+01 1.928912544250488281e+01 9.152578353881835938e+00 -2.992235422134399414e-01
6.100000000000000000e+01 3.153922462463378906e+01 3.544283294677734375e+01 2.317425537109375000e+01 2.964014816284179688e+01 1.584432125091552734e+01 4.768786132335662842e-01
6.200000000000000000e+01 3.173130798339843750e+01 3.539066696166992188e+01 1.749334144592285156e+01 2.419792747497558594e+01 1.250738048553466797e+01 2.864203602075576782e-02
6.300000000000000000e+01 3.192338943481445312e+01 3.533849716186523438e+01 1.477458953857421875e+01 2.061602592468261719e+01 1.061718463897705078e+01 4.319175183773040771e-01
6.400000000000000000e+01 3.211547470092773438e+01 3.528632736206054688e+01 1.288755035400390625e+01 1.866704368591308594e+01 9.466378211975097656e+00 9.047020971775054932e-02
6.500000000000000000e+01 3.154894638061523438e+01 3.550042343139648438e+01 2.357371902465820312e+01 2.892326545715332031e+01 1.574909591674804688e+01 2.172132730484008789e+00
6.600000000000000000e+01 3.174751091003417969e+01 3.548664855957031250e+01 1.824979209899902344e+01 2.360706138610839844e+01 1.255705642700195312e+01 2.395778417587280273e+00
6.700000000000000000e+01 3.194607353210449219e+01 3.547287368774414062e+01 1.491509342193603516e+01 2.024754905700683594e+01 1.054879283905029297e+01 1.486316919326782227e+00
6.800000000000000000e+01 3.214463806152343750e+01 3.545909500122070312e+01 1.336482334136962891e+01 1.831748008728027344e+01 9.504691123962402344e+00 1.548443317413330078e+00
6.900000000000000000e+01 3.154726982116699219e+01 3.555880355834960938e+01 2.300954437255859375e+01 2.955731391906738281e+01 1.577005767822265625e+01 4.771519660949707031e+00
7.000000000000000000e+01 3.174471664428710938e+01 3.558395004272460938e+01 1.755030632019042969e+01 2.345700263977050781e+01 1.230219268798828125e+01 4.007378578186035156e+00
7.100000000000000000e+01 3.194216156005859375e+01 3.560909271240234375e+01 1.420514488220214844e+01 2.123501777648925781e+01 1.063204860687255859e+01 3.730225086212158203e+00
7.200000000000000000e+01 3.213961029052734375e+01 3.563423919677734375e+01 1.174593067169189453e+01 1.850621223449707031e+01 9.075643539428710938e+00 2.482610702514648438e+00
7.300000000000000000e+01 3.153425979614257812e+01 3.561574172973632812e+01 2.114909553527832031e+01 3.032404327392578125e+01 1.544194221496582031e+01 6.615586757659912109e+00
7.400000000000000000e+01 3.172303390502929688e+01 3.567884445190429688e+01 1.548577022552490234e+01 2.510535430908203125e+01 1.217733764648437500e+01 5.748556613922119141e+00
7.500000000000000000e+01 3.191180610656738281e+01 3.574194717407226562e+01 1.270344638824462891e+01 2.170051765441894531e+01 1.032118892669677734e+01 4.934593677520751953e+00
7.600000000000000000e+01 3.210057830810546875e+01 3.580504989624023438e+01 1.016233348846435547e+01 2.057781982421875000e+01 9.222045898437500000e+00 4.670888900756835938e+00
7.700000000000000000e+01 3.151041603088378906e+01 3.566905593872070312e+01 1.793394660949707031e+01 3.232275009155273438e+01 1.507700824737548828e+01 8.006994247436523438e+00
7.800000000000000000e+01 3.168329238891601562e+01 3.576770401000976562e+01 1.283650684356689453e+01 2.682133102416992188e+01 1.189735126495361328e+01 6.390108108520507812e+00
7.900000000000000000e+01 3.185616874694824219e+01 3.586634826660156250e+01 9.866185188293457031e+00 2.330295562744140625e+01 9.950742721557617188e+00 5.608254432678222656e+00
8.000000000000000000e+01 3.202904510498046875e+01 3.596499633789062500e+01 9.271570205688476562e+00 2.123073005676269531e+01 9.150690078735351562e+00 5.111495018005371094e+00
8.100000000000000000e+01 3.147664642333984375e+01 3.571670913696289062e+01 1.435999393463134766e+01 3.484474945068359375e+01 1.476142311096191406e+01 7.988313674926757812e+00
8.200000000000000000e+01 3.162701034545898438e+01 3.584712219238281250e+01 9.104662895202636719e+00 2.867156982421875000e+01 1.133286952972412109e+01 6.200635910034179688e+00
8.300000000000000000e+01 3.177737426757812500e+01 3.597753906250000000e+01 7.472981452941894531e+00 2.498729705810546875e+01 9.738083839416503906e+00 5.021997451782226562e+00
8.400000000000000000e+01 3.192773818969726562e+01 3.610795211791992188e+01 5.536643981933593750e+00 2.220390701293945312e+01 8.322165489196777344e+00 4.076542854309082031e+00
8.500000000000000000e+01 3.143424606323242188e+01 3.575687408447265625e+01 9.751611709594726562e+00 3.714945602416992188e+01 1.407032012939453125e+01 6.758795738220214844e+00
8.600000000000000000e+01 3.155634307861328125e+01 3.591406631469726562e+01 6.165036201477050781e+00 3.023132896423339844e+01 1.091891002655029297e+01 4.603923797607421875e+00
8.700000000000000000e+01 3.167844200134277344e+01 3.607125854492187500e+01 4.135127544403076172e+00 2.619672584533691406e+01 9.099555969238281250e+00 3.502413988113403320e+00
8.800000000000000000e+01 3.180053901672363281e+01 3.622845458984375000e+01 2.848939895629882812e+00 2.369071578979492188e+01 7.961896419525146484e+00 2.971689701080322266e+00
8.900000000000000000e+01 3.138483810424804688e+01 3.578801727294921875e+01 6.043863296508789062e+00 3.869552612304687500e+01 1.342181777954101562e+01 4.016109943389892578e+00
9.000000000000000000e+01 3.147399711608886719e+01 3.596597290039062500e+01 3.226385831832885742e+00 3.082641029357910156e+01 1.021583938598632812e+01 1.958559989929199219e+00
9.100000000000000000e+01 3.156315612792968750e+01 3.614392852783203125e+01 1.830964922904968262e+00 2.663437271118164062e+01 8.539601325988769531e+00 1.403635144233703613e+00
9.200000000000000000e+01 3.165231513977050781e+01 3.632188415527343750e+01 1.032145261764526367e+00 2.399094963073730469e+01 7.506928443908691406e+00 1.158738851547241211e+00
9.300000000000000000e+01 3.133031272888183594e+01 3.580894851684570312e+01 3.162476301193237305e+00 3.882507324218750000e+01 1.259626483917236328e+01 -1.777074299752712250e-02
9.400000000000000000e+01 3.138311958312988281e+01 3.600085830688476562e+01 1.373123526573181152e+00 3.008508110046386719e+01 9.437460899353027344e+00 -1.156131982803344727e+00
9.500000000000000000e+01 3.143592834472656250e+01 3.619276428222656250e+01 5.044137835502624512e-01 2.567866134643554688e+01 7.854922294616699219e+00 -1.286963105201721191e+00
9.600000000000000000e+01 3.148873710632324219e+01 3.638467407226562500e+01 4.945091158151626587e-02 2.298347282409667969e+01 6.909877300262451172e+00 -1.065748095512390137e+00
9.700000000000000000e+01 3.127275466918945312e+01 3.581886291503906250e+01 1.718686103820800781e+00 3.693323516845703125e+01 1.159557723999023438e+01 -4.541462898254394531e+00
9.800000000000000000e+01 3.128719139099121094e+01 3.601737976074218750e+01 8.157690167427062988e-01 2.769632339477539062e+01 8.553627967834472656e+00 -4.424911022186279297e+00
9.900000000000000000e+01 3.130162811279296875e+01 3.621589660644531250e+01 7.608673721551895142e-02 2.335005378723144531e+01 7.027842521667480469e+00 -3.903021335601806641e+00
1.000000000000000000e+02 3.131606483459472656e+01 3.641441345214843750e+01 5.049481615424156189e-02 2.057804107666015625e+01 6.188560962677001953e+00 -3.420849561691284180e+00
1.010000000000000000e+02 3.121437072753906250e+01 3.581737899780273438e+01 2.014391660690307617e+00 3.284226989746093750e+01 1.045699882507324219e+01 -8.711948394775390625e+00
1.020000000000000000e+02 3.118988227844238281e+01 3.601490783691406250e+01 1.265972375869750977e+00 2.381879425048828125e+01 7.525430202484130859e+00 -7.198098659515380859e+00
1.030000000000000000e+02 3.116539573669433594e+01 3.621243667602539062e+01 7.138408422470092773e-01 1.958059692382812500e+01 6.088331222534179688e+00 -5.999607563018798828e+00
1.040000000000000000e+02 3.114090728759765625e+01 3.640996551513671875e+01 4.571723043918609619e-01 1.711088371276855469e+01 5.270416736602783203e+00 -5.259007453918457031e+00
1.050000000000000000e+02 3.115739059448242188e+01 3.580456161499023438e+01 3.717007637023925781e+00 2.679375648498535156e+01 9.153229713439941406e+00 -1.176096820831298828e+01
1.060000000000000000e+02 3.109491539001464844e+01 3.599354171752929688e+01 2.454789161682128906e+00 1.866752243041992188e+01 6.336693763732910156e+00 -8.776901245117187500e+00
1.070000000000000000e+02 3.103244209289550781e+01 3.618252563476562500e+01 1.860837221145629883e+00 1.504730129241943359e+01 5.072441577911376953e+00 -7.237356662750244141e+00
1.080000000000000000e+02 3.096996688842773438e+01 3.637150573730468750e+01 1.337696790695190430e+00 1.267689132690429688e+01 4.204376697540283203e+00 -6.139555454254150391e+00
1.090000000000000000e+02 3.110399627685546875e+01 3.578089141845703125e+01 5.883024215698242188e+00 1.945756149291992188e+01 7.602175235748291016e+00 -1.274521923065185547e+01
1.100000000000000000e+02 3.100592613220214844e+01 3.595409774780273438e+01 3.939846754074096680e+00 1.288711166381835938e+01 5.048087596893310547e+00 -8.994913101196289062e+00
1.110000000000000000e+02 3.090785598754882812e+01 3.612730026245117188e+01 2.850663900375366211e+00 1.014103031158447266e+01 3.897508144378662109e+00 -7.014789104461669922e+00
1.120000000000000000e+02 3.080978393554687500e+01 3.630050277709960938e+01 2.188990592956542969e+00 8.602622032165527344e+00 3.237483978271484375e+00 -6.154785633087158203e+00
1.130000000000000000e+02 3.105623054504394531e+01 3.574728012084960938e+01 7.935464382171630859e+00 1.159515476226806641e+01 5.859185695648193359e+00 -1.153576755523681641e+01
1.140000000000000000e+02 3.092631721496582031e+01 3.589807891845703125e+01 4.473277091979980469e+00 7.284804821014404297e+00 3.527424573898315430e+00 -7.365466594696044922e+00
1.150000000000000000e+02 3.079640388488769531e+01 3.604887771606445312e+01 3.323422670364379883e+00 5.771473884582519531e+00 2.728468894958496094e+00 -5.729330062866210938e+00
1.160000000000000000e+02 3.066649055480957031e+01 3.619967269897460938e+01 2.241110324859619141e+00 5.100341796875000000e+00 2.202435731887817383e+00 -4.750513553619384766e+00
1.170000000000000000e+02 3.101592254638671875e+01 3.570501708984375000e+01 7.718814373016357422e+00 4.546198844909667969e+00 3.679503917694091797e+00 -7.989806175231933594e+00
1.180000000000000000e+02 3.085913848876953125e+01 3.582763671875000000e+01 3.984408617019653320e+00 2.573414802551269531e+00 1.967347025871276855e+00 -4.470788955688476562e+00
1.190000000000000000e+02 3.070235252380371094e+01 3.595025634765625000e+01 1.936123013496398926e+00 2.680061817169189453e+00 1.384855389595031738e+00 -3.229916334152221680e+00
1.200000000000000000e+02 3.054556655883789062e+01 3.607287597656250000e+01 1.461440920829772949e+00 2.620013475418090820e+00 1.224436283111572266e+00 -3.023327350616455078e+00
1.210000000000000000e+02 3.098461532592773438e+01 3.565571212768554688e+01 5.129073143005371094e+00 -1.512532353401184082e+00 1.084962248802185059e+00 -2.455002307891845703e+00
1.220000000000000000e+02 3.080695724487304688e+01 3.574546432495117188e+01 -8.926298469305038452e-03 4.920103549957275391e-01 1.449252218008041382e-01 -8.170693516731262207e-01
1.230000000000000000e+02 3.062929916381835938e+01 3.583521270751953125e+01 -1.044719368219375610e-01 1.147922158241271973e+00 3.130350410938262939e-01 -1.416947126388549805e+00
1.240000000000000000e+02 3.045164299011230469e+01 3.592496490478515625e+01 -7.821714282035827637e-01 4.771393239498138428e-01 -9.150964021682739258e-02 -7.460466623306274414e-01
1.250000000000000000e+02 3.096350479125976562e+01 3.560125732421875000e+01 -6.353247165679931641e+00 -3.086169242858886719e+00 -2.831825017929077148e+00 3.209184169769287109e+00
1.260000000000000000e+02 3.077177238464355469e+01 3.565470504760742188e+01 -3.287274360656738281e+00 8.158172965049743652e-01 -7.414370775222778320e-01 1.851948052644729614e-01
1.270000000000000000e+02 3.058004188537597656e+01 3.570814895629882812e+01 -3.871556758880615234e+00 -4.560779631137847900e-01 -1.298290491104125977e+00 7.307705879211425781e-01
1.280000000000000000e+02 3.038831138610839844e+01 3.576159667968750000e+01 -3.937286615371704102e+00 4.289524629712104797e-02 -1.168317437171936035e+00 6.815873980522155762e-01
1.290000000000000000e+02 2.438877487182617188e+01 3.547797393798828125e+01 -5.688251852989196777e-01 5.413652583956718445e-02 -1.544066071510314941e-01 -2.449273765087127686e-01
1.300000000000000000e+02 2.371021270751953125e+01 3.529597091674804688e+01 -3.898906111717224121e-01 2.027679421007633209e-02 -1.108841449022293091e-01 -3.009557127952575684e-01
1.310000000000000000e+02 2.285914039611816406e+01 3.527443695068359375e+01 -2.640546262264251709e-01 -3.216317668557167053e-02 -8.886533975601196289e-02 -2.890929579734802246e-01
1.320000000000000000e+02 2.487147140502929688e+01 3.516514968872070312e+01 -4.759000539779663086e-01 9.885095804929733276e-02 -1.131147295236587524e-01 -2.651253044605255127e-01
1.330000000000000000e+02 2.423422813415527344e+01 3.609167480468750000e+01 -9.163218140602111816e-01 2.266906388103961945e-02 -2.680958211421966553e-01 -1.095423772931098938e-01
1.340000000000000000e+02 2.494290542602539062e+01 3.614050674438476562e+01 -1.112432718276977539e+00 2.045151963829994202e-02 -3.275943398475646973e-01 -4.651189967989921570e-02
1.350000000000000000e+02 2.274761772155761719e+01 3.601382827758789062e+01 -4.153489768505096436e-01 4.786950070410966873e-03 -1.231686025857925415e-01 -1.311540305614471436e-01
1.360000000000000000e+02 2.496118927001953125e+01 3.564938354492187500e+01 -8.573248386383056641e-01 6.865574419498443604e-02 -2.366007268428802490e-01 -1.486208587884902954e-01
1.370000000000000000e+02 2.351238059997558594e+01 3.603488159179687500e+01 -6.664837002754211426e-01 -4.611408803611993790e-03 -2.013285309076309204e-01 -1.267119348049163818e-01
1.380000000000000000e+02 2.781467437744140625e+01 3.544303131103515625e+01 -1.061743259429931641e+00 -4.673429206013679504e-02 -3.325432538986206055e-01 1.987322121858596802e-01
1.390000000000000000e+02 2.563045883178710938e+01 3.559612655639648438e+01 -1.006993174552917480e+00 9.702821820974349976e-02 -2.729894816875457764e-01 -1.423088610172271729e-01
1.400000000000000000e+02 2.634462356567382812e+01 3.543028640747070312e+01 -8.936156630516052246e-01 7.257407158613204956e-02 -2.463124841451644897e-01 -1.511452794075012207e-01
1.410000000000000000e+02 2.559039497375488281e+01 3.511370849609375000e+01 -4.452318549156188965e-01 1.172849312424659729e-01 -9.838408231735229492e-02 -2.252833545207977295e-01
1.420000000000000000e+02 2.807063293457031250e+01 3.549068450927734375e+01 -1.422142386436462402e+00 6.065350770950317383e-02 -4.084466695785522461e-01 2.023387402296066284e-01
1.430000000000000000e+02 2.780250358581542969e+01 3.472190856933593750e+01 6.362249255180358887e-01 2.427701354026794434e-01 2.636985182762145996e-01 4.309817850589752197e-01
1.440000000000000000e+02 2.794679450988769531e+01 3.493702697753906250e+01 1.564015746116638184e-01 4.564728215336799622e-02 6.061465293169021606e-02 3.152472972869873047e-01
1.450000000000000000e+02 2.771018791198730469e+01 3.574799728393554688e+01 -1.839454650878906250e+00 -8.168200403451919556e-02 -5.763409733772277832e-01 1.721758842468261719e-01
1.460000000000000000e+02 2.643990516662597656e+01 3.593740844726562500e+01 -1.639520525932312012e+00 -2.477766945958137512e-02 -4.992894828319549561e-01 1.051548346877098083e-01
1.470000000000000000e+02 2.567454147338867188e+01 3.609230804443359375e+01 -1.333557128906250000e+00 4.007606953382492065e-02 -3.880443274974822998e-01 5.767372250556945801e-02
1.480000000000000000e+02 2.801253128051757812e+01 3.511831665039062500e+01 -2.798146903514862061e-01 5.578816309571266174e-02 -6.720796227455139160e-02 1.820086240768432617e-01
1.490000000000000000e+02 2.799657249450683594e+01 3.592621612548828125e+01 -2.269471406936645508e+00 1.066000480204820633e-02 -6.776434779167175293e-01 2.636866867542266846e-01
1.500000000000000000e+02 2.806618881225585938e+01 3.569486236572265625e+01 -1.685728907585144043e+00 1.251514852046966553e-01 -4.681732356548309326e-01 8.234174549579620361e-02
1.510000000000000000e+02 2.773830604553222656e+01 3.520298767089843750e+01 -5.314340591430664062e-01 -5.804885923862457275e-02 -1.768448650836944580e-01 1.194040849804878235e-01
1.520000000000000000e+02 2.805359077453613281e+01 3.530763244628906250e+01 -5.408558845520019531e-01 3.720309212803840637e-02 -1.510958373546600342e-01 1.147393509745597839e-01
1.530000000000000000e+02 2.718185043334960938e+01 3.581782150268554688e+01 -1.847839355468750000e+00 3.895194828510284424e-02 -5.426662564277648926e-01 1.482391357421875000e-01
1.540000000000000000e+02 2.685045623779296875e+01 3.500350570678710938e+01 -2.499041706323623657e-01 1.314418613910675049e-01 -3.553869202733039856e-02 4.505654796957969666e-02
1.550000000000000000e+02 2.735443878173828125e+01 3.514390563964843750e+01 -3.414537906646728516e-01 1.072443351149559021e-01 -7.026284188032150269e-02 3.258905559778213501e-02
1.560000000000000000e+02 2.626625823974609375e+01 3.500534057617187500e+01 -2.420772314071655273e-01 1.813518851995468140e-01 -1.821760088205337524e-02 -4.631573334336280823e-02
1.570000000000000000e+02 2.837421417236328125e+01 3.587593078613281250e+01 -2.406606435775756836e+00 -1.284227073192596436e-01 -7.605087757110595703e-01 3.254480659961700439e-01
1.580000000000000000e+02 2.917525482177734375e+01 3.507752609252929688e+01 1.140643835067749023e+00 1.234801560640335083e-01 3.792372047901153564e-01 8.034830093383789062e-01
1.590000000000000000e+02 3.100571250915527344e+01 3.446340560913085938e+01 4.490553855895996094e+00 1.458233261108398438e+01 5.721865653991699219e+00 7.588212013244628906e+00
1.600000000000000000e+02 3.241497802734375000e+01 3.545368957519531250e+01 1.115524578094482422e+01 1.735425949096679688e+01 8.552851676940917969e+00 1.847984433174133301e+00
1.610000000000000000e+02 3.231935882568359375e+01 3.561619567871093750e+01 1.128698825836181641e+01 1.727832794189453125e+01 8.569594383239746094e+00 2.694545984268188477e+00
1.620000000000000000e+02 3.222584152221679688e+01 3.642232894897460938e+01 4.185141086578369141e+00 1.908289527893066406e+01 6.980411052703857422e+00 3.429031848907470703e+00
1.630000000000000000e+02 3.200887680053710938e+01 3.626921463012695312e+01 3.793195724487304688e+00 2.107191085815429688e+01 7.459531784057617188e+00 3.384510278701782227e+00
1.640000000000000000e+02 3.171957588195800781e+01 3.643724822998046875e+01 7.582947015762329102e-01 2.291171264648437500e+01 7.101001739501953125e+00 1.301669836044311523e+00
1.650000000000000000e+02 2.853275871276855469e+01 3.695931625366210938e+01 -1.383433699607849121e+00 4.125280678272247314e-01 -2.912716865539550781e-01 1.638278514146804810e-01
1.660000000000000000e+02 3.120019912719726562e+01 3.694452667236328125e+01 -3.930135667324066162e-01 1.470784187316894531e+01 4.294448375701904297e+00 -3.747557163238525391e+00
1.670000000000000000e+02 3.138784217834472656e+01 3.446779632568359375e+01 3.122735023498535156e+00 2.054844093322753906e+01 7.101352691650390625e+00 5.149409770965576172e+00
1.680000000000000000e+02 2.818258094787597656e+01 3.462926101684570312e+01 1.220161676406860352e+00 4.231832027435302734e-01 4.930034577846527100e-01 7.644769549369812012e-01
1.690000000000000000e+02 2.840514183044433594e+01 3.484001922607421875e+01 8.697578907012939453e-01 3.209645152091979980e-01 3.572167158126831055e-01 6.427556276321411133e-01
1.700000000000000000e+02 2.957423210144042969e+01 3.440630722045898438e+01 3.940476179122924805e+00 1.769075036048889160e+00 1.712865471839904785e+00 3.094912052154541016e+00
1.710000000000000000e+02 3.081606292724609375e+01 3.442282104492187500e+01 5.151378631591796875e+00 1.177753734588623047e+01 5.078674793243408203e+00 8.061730384826660156e+00
1.720000000000000000e+02 3.055384445190429688e+01 3.423248672485351562e+01 5.125590801239013672e+00 8.413938522338867188e+00 4.061858654022216797e+00 7.052456378936767578e+00
1.730000000000000000e+02 3.044964408874511719e+01 3.449975967407226562e+01 5.946585655212402344e+00 6.351032257080078125e+00 3.689285278320312500e+00 6.766732692718505859e+00
1.740000000000000000e+02 2.975724220275878906e+01 3.435647964477539062e+01 4.524265289306640625e+00 2.402568578720092773e+00 2.078050136566162109e+00 3.863217830657958984e+00
1.750000000000000000e+02 3.016643905639648438e+01 3.537165832519531250e+01 1.367788314819335938e+00 5.634621903300285339e-02 4.272403419017791748e-01 9.639781117439270020e-01
1.760000000000000000e+02 2.996093940734863281e+01 3.533201980590820312e+01 1.164226770401000977e+00 -4.394729062914848328e-02 3.360838592052459717e-01 8.022814989089965820e-01
1.770000000000000000e+02 2.860158920288085938e+01 3.738002395629882812e+01 -6.702333092689514160e-01 1.134012937545776367e+00 1.391338855028152466e-01 -2.220641672611236572e-01
1.780000000000000000e+02 2.856879234313964844e+01 3.716789245605468750e+01 -9.287949204444885254e-01 4.767419993877410889e-01 -1.356158852577209473e-01 -2.645054459571838379e-01
1.790000000000000000e+02 2.919794654846191406e+01 3.602441406250000000e+01 -4.396228790283203125e+00 -4.003072530031204224e-02 -1.330877780914306641e+00 7.749995589256286621e-01
1.800000000000000000e+02 2.936707115173339844e+01 3.692313003540039062e+01 -2.775508165359497070e-01 1.077338576316833496e+00 2.399363219738006592e-01 -1.215308904647827148e+00
1.810000000000000000e+02 2.957963180541992188e+01 3.690574645996093750e+01 9.228144586086273193e-02 1.581772208213806152e+00 5.022161006927490234e-01 -1.459149360656738281e+00
1.820000000000000000e+02 2.840953063964843750e+01 3.612861251831054688e+01 -4.604090213775634766e+00 -9.317921847105026245e-02 -1.409180760383605957e+00 7.284823060035705566e-01
1.830000000000000000e+02 2.843819618225097656e+01 3.633908081054687500e+01 -3.522363185882568359e+00 -3.597297072410583496e-01 -1.164627790451049805e+00 5.404583215713500977e-01
1.840000000000000000e+02 2.880130577087402344e+01 3.734049224853515625e+01 -4.576800167560577393e-01 1.155769586563110352e+00 2.094268649816513062e-01 -9.072811603546142578e-01
1.850000000000000000e+02 2.846582031250000000e+01 3.654722595214843750e+01 -2.572410821914672852e+00 -4.054405167698860168e-02 -7.838864922523498535e-01 5.798703432083129883e-01
1.860000000000000000e+02 2.939646720886230469e+01 3.598861694335937500e+01 -4.351882457733154297e+00 -1.994463205337524414e-01 -1.365398645401000977e+00 7.339675426483154297e-01
1.870000000000000000e+02 2.939888954162597656e+01 3.721466445922851562e+01 3.528115153312683105e-01 1.818739295005798340e+00 6.514652371406555176e-01 -1.606607317924499512e+00
1.880000000000000000e+02 3.027086448669433594e+01 3.600812149047851562e+01 -1.184925556182861328e+00 5.297489762306213379e-01 -1.965529769659042358e-01 -6.296526789665222168e-01
1.890000000000000000e+02 3.019700813293457031e+01 3.581212997436523438e+01 -4.032901763916015625e+00 -2.132044583559036255e-01 -1.273831844329833984e+00 6.911528706550598145e-01
1.900000000000000000e+02 3.052903366088867188e+01 3.636788177490234375e+01 1.737073779106140137e+00 4.642990589141845703e+00 1.914019227027893066e+00 -4.228906631469726562e+00
1.910000000000000000e+02 3.015801048278808594e+01 3.558718872070312500e+01 -1.976003527641296387e+00 -9.626877307891845703e-02 -6.216816902160644531e-01 3.141943812370300293e-01
1.920000000000000000e+02 2.974358367919921875e+01 3.562538528442382812e+01 -2.177272319793701172e+00 -1.384850889444351196e-01 -6.947271823883056641e-01 4.657180607318878174e-01
1.930000000000000000e+02 3.029460334777832031e+01 3.496789932250976562e+01 6.053693771362304688e+00 1.916333079338073730e+00 2.391008138656616211e+00 4.085285663604736328e+00
1.940000000000000000e+02 3.057873916625976562e+01 3.466298675537109375e+01 6.761388301849365234e+00 7.100300788879394531e+00 4.158506870269775391e+00 7.559963703155517578e+00
1.950000000000000000e+02 3.073474884033203125e+01 3.456811904907226562e+01 5.974738597869873047e+00 1.030107688903808594e+01 4.882744789123535156e+00 8.184836387634277344e+00
1.960000000000000000e+02 3.118409538269042969e+01 3.446509933471679688e+01 3.756631612777709961e+00 1.853062629699707031e+01 6.686177730560302734e+00 6.772638797760009766e+00
1.970000000000000000e+02 3.158730506896972656e+01 3.452234268188476562e+01 3.356159448623657227e+00 2.186730957031250000e+01 7.567040920257568359e+00 3.355391025543212891e+00
1.980000000000000000e+02 3.202246093750000000e+01 3.464958953857421875e+01 5.713257789611816406e+00 1.977793884277343750e+01 7.647359371185302734e+00 -3.297525048255920410e-01
1.990000000000000000e+02 2.938450622558593750e+01 3.445443725585937500e+01 3.543282747268676758e+00 1.260745406150817871e+00 1.441208481788635254e+00 2.582301378250122070e+00
2.000000000000000000e+02 2.854114723205566406e+01 3.560607910156250000e+01 -1.605104923248291016e+00 1.515863277018070221e-02 -4.769838750362396240e-01 2.037366181612014771e-01
2.010000000000000000e+02 2.857337570190429688e+01 3.583629989624023438e+01 -2.482952356338500977e+00 2.374420687556266785e-02 -7.377624511718750000e-01 3.430204689502716064e-01
2.020000000000000000e+02 2.834221267700195312e+01 3.566077041625976562e+01 -1.758343696594238281e+00 -6.225257366895675659e-02 -5.461788773536682129e-01 1.968959569931030273e-01
2.030000000000000000e+02 3.021432685852050781e+01 3.516585922241210938e+01 4.118479728698730469e+00 3.706302046775817871e-01 1.346732974052429199e+00 2.085250616073608398e+00
2.040000000000000000e+02 3.011937141418457031e+01 3.469492340087890625e+01 5.637652873992919922e+00 2.466056585311889648e+00 2.431112766265869141e+00 4.440768241882324219e+00
2.050000000000000000e+02 2.948396110534667969e+01 3.545196151733398438e+01 -8.707897067070007324e-01 -1.591132581233978271e-02 -2.660103142261505127e-01 3.245608806610107422e-01
2.060000000000000000e+02 3.220687484741210938e+01 3.485007858276367188e+01 7.943512439727783203e+00 1.857026481628417969e+01 7.954133033752441406e+00 -7.087797522544860840e-01
2.070000000000000000e+02 3.191457939147949219e+01 3.436288452148437500e+01 4.105864524841308594e+00 1.895738029479980469e+01 6.918973445892333984e+00 6.933489441871643066e-01
2.080000000000000000e+02 3.062667465209960938e+01 3.442416000366210938e+01 5.434698104858398438e+00 8.770371437072753906e+00 4.261520862579345703e+00 7.456471920013427734e+00
2.090000000000000000e+02 3.139862060546875000e+01 3.416879272460937500e+01 2.450408935546875000e+00 1.757954406738281250e+01 6.008985519409179688e+00 5.176860332489013672e+00
2.100000000000000000e+02 3.113041305541992188e+01 3.433913421630859375e+01 3.405088424682617188e+00 1.620719146728515625e+01 5.883684158325195312e+00 6.556555271148681641e+00
2.110000000000000000e+02 3.222816848754882812e+01 3.508012390136718750e+01 1.028377723693847656e+01 1.821538543701171875e+01 8.549749374389648438e+00 -7.274549007415771484e-01
2.120000000000000000e+02 3.140244483947753906e+01 3.433011627197265625e+01 2.937656402587890625e+00 1.958750152587890625e+01 6.757547378540039062e+00 5.101649284362792969e+00
2.130000000000000000e+02 3.167160606384277344e+01 3.442592620849609375e+01 3.720568895339965820e+00 2.045959281921386719e+01 7.254048347473144531e+00 2.781950473785400391e+00
2.140000000000000000e+02 3.237455749511718750e+01 3.584064483642578125e+01 8.828948020935058594e+00 1.747557258605957031e+01 7.891356468200683594e+00 3.378815650939941406e+00
2.150000000000000000e+02 3.225110626220703125e+01 3.610114669799804688e+01 6.618349075317382812e+00 1.909807586669921875e+01 7.714927196502685547e+00 4.295755386352539062e+00
2.160000000000000000e+02 3.142913627624511719e+01 3.692183685302734375e+01 2.972772717475891113e-01 1.639280509948730469e+01 5.007024765014648438e+00 -2.353355884552001953e+00
2.170000000000000000e+02 2.999807929992675781e+01 3.714163970947265625e+01 6.615918278694152832e-01 4.044813156127929688e+00 1.411921381950378418e+00 -2.982959985733032227e+00
2.180000000000000000e+02 3.088779640197753906e+01 3.679071426391601562e+01 5.811892151832580566e-01 1.119042587280273438e+01 3.531484365463256836e+00 -4.978623867034912109e+00
2.190000000000000000e+02 3.147761344909667969e+01 3.661281585693359375e+01 2.996345236897468567e-02 2.015552902221679688e+01 6.055647850036621094e+00 -1.480830192565917969e+00
2.200000000000000000e+02 3.077989959716796875e+01 3.702883148193359375e+01 4.812670946121215820e-01 9.684647560119628906e+00 3.049774408340454102e+00 -4.662203311920166016e+00
2.210000000000000000e+02 3.037362289428710938e+01 3.619856262207031250e+01 7.499766945838928223e-01 1.920412302017211914e+00 8.011167049407958984e-01 -2.354641199111938477e+00
2.220000000000000000e+02 3.180392074584960938e+01 3.678110885620117188e+01 5.955455452203750610e-02 1.997512817382812500e+01 6.010405063629150391e+00 2.428872287273406982e-01
2.230000000000000000e+02 3.076454162597656250e+01 3.420387649536132812e+01 4.228351116180419922e+00 1.141945934295654297e+01 4.694343090057373047e+00 7.342347145080566406e+00
2.240000000000000000e+02 3.099091339111328125e+01 3.416731262207031250e+01 3.662787914276123047e+00 1.344312858581542969e+01 5.131774902343750000e+00 6.468945503234863281e+00
2.250000000000000000e+02 2.918609237670898438e+01 3.449681472778320312e+01 2.968589544296264648e+00 9.249529242515563965e-01 1.168062686920166016e+00 2.064224958419799805e+00
2.260000000000000000e+02 2.976342964172363281e+01 3.525231170654296875e+01 1.216853857040405273e+00 5.239427089691162109e-02 3.807744383811950684e-01 8.420186638832092285e-01
2.270000000000000000e+02 3.035236740112304688e+01 3.428107833862304688e+01 5.240163326263427734e+00 6.396891117095947266e+00 3.491116285324096680e+00 6.350691318511962891e+00
2.280000000000000000e+02 2.839958381652832031e+01 3.503773498535156250e+01 2.766973674297332764e-01 2.320263385772705078e-01 1.526171118021011353e-01 4.918648898601531982e-01
2.290000000000000000e+02 2.898541069030761719e+01 3.453806686401367188e+01 2.499645233154296875e+00 7.488958835601806641e-01 9.745623469352722168e-01 1.626158237457275391e+00
2.300000000000000000e+02 2.896331787109375000e+01 3.576719284057617188e+01 -2.570619344711303711e+00 -2.235496230423450470e-02 -7.778922915458679199e-01 3.809209764003753662e-01
2.310000000000000000e+02 2.930423164367675781e+01 3.548396682739257812e+01 -1.007185697555541992e+00 3.732836991548538208e-02 -2.909571826457977295e-01 3.990640640258789062e-01
2.320000000000000000e+02 2.935164642333984375e+01 3.571080017089843750e+01 -2.565500974655151367e+00 -1.344059314578771591e-02 -7.736824750900268555e-01 4.323063194751739502e-01
2.330000000000000000e+02 2.880383872985839844e+01 3.607213592529296875e+01 -4.451220512390136719e+00 -4.496786743402481079e-02 -1.348856568336486816e+00 8.003576993942260742e-01
2.340000000000000000e+02 2.900162887573242188e+01 3.605063247680664062e+01 -4.431232929229736328e+00 -2.206358909606933594e-01 -1.395560622215270996e+00 7.643882036209106445e-01
2.350000000000000000e+02 2.943238449096679688e+01 3.626108932495117188e+01 -2.516059637069702148e+00 1.845419108867645264e-01 -6.994553208351135254e-01 2.059810459613800049e-01
2.360000000000000000e+02 2.986786842346191406e+01 3.615137481689453125e+01 -1.822843670845031738e+00 3.056714832782745361e-01 -4.551516473293304443e-01 -1.872064322233200073e-01
2.370000000000000000e+02 2.980256652832031250e+01 3.590642547607421875e+01 -4.240790367126464844e+00 -1.357524544000625610e-01 -1.312962770462036133e+00 7.035573720932006836e-01
2.380000000000000000e+02 3.058508872985839844e+01 3.706256103515625000e+01 7.110363841056823730e-01 7.605699062347412109e+00 2.495020627975463867e+00 -4.267157554626464844e+00
2.390000000000000000e+02 3.019547080993652344e+01 3.711801147460937500e+01 8.602834939956665039e-01 4.955570220947265625e+00 1.744756102561950684e+00 -3.522003412246704102e+00
2.400000000000000000e+02 2.979843330383300781e+01 3.716341018676757812e+01 6.055992841720581055e-01 2.980482339859008789e+00 1.075824499130249023e+00 -2.289478302001953125e+00
2.410000000000000000e+02 3.017864418029785156e+01 3.691534805297851562e+01 7.857979536056518555e-01 4.304655551910400391e+00 1.527136087417602539e+00 -3.405783891677856445e+00
2.420000000000000000e+02 3.098143577575683594e+01 3.698082733154296875e+01 2.057318985462188721e-01 1.163683605194091797e+01 3.552770614624023438e+00 -4.541927337646484375e+00
2.430000000000000000e+02 2.823185729980468750e+01 3.504896926879882812e+01 9.860915690660476685e-02 1.794086247682571411e-01 8.340533077716827393e-02 2.327533364295959473e-01
2.440000000000000000e+02 2.830364227294921875e+01 3.545149612426757812e+01 -1.079686045646667480e+00 9.523710608482360840e-02 -2.953346967697143555e-01 8.213113993406295776e-02
2.450000000000000000e+02 2.872070693969726562e+01 3.690988922119140625e+01 -1.321453332901000977e+00 3.301073014736175537e-01 -2.974038124084472656e-01 -1.879165619611740112e-01
2.460000000000000000e+02 2.860585594177246094e+01 3.609811782836914062e+01 -4.480370044708251953e+00 -2.416313737630844116e-01 -1.416600346565246582e+00 7.699567079544067383e-01
2.470000000000000000e+02 2.995175552368164062e+01 3.559254455566406250e+01 -2.048944711685180664e+00 -1.098312214016914368e-01 -6.476327776908874512e-01 3.921677172183990479e-01
2.480000000000000000e+02 2.858351707458496094e+01 3.459210968017578125e+01 1.830093860626220703e+00 4.787999093532562256e-01 6.926681399345397949e-01 1.069640398025512695e+00
2.490000000000000000e+02 2.996820259094238281e+01 3.450033187866210938e+01 5.196434974670410156e+00 2.866154909133911133e+00 2.418776988983154297e+00 4.454053878784179688e+00
2.500000000000000000e+02 3.028658103942871094e+01 3.462760543823242188e+01 5.934031963348388672e+00 4.067914009094238281e+00 3.000583648681640625e+00 5.558046340942382812e+00
2.510000000000000000e+02 2.878481674194335938e+01 3.457203292846679688e+01 2.105559587478637695e+00 6.048995256423950195e-01 8.131377100944519043e-01 1.327288031578063965e+00
2.520000000000000000e+02 2.876971817016601562e+01 3.579935073852539062e+01 -2.538603544235229492e+00 -8.869818598031997681e-02 -7.881904840469360352e-01 3.680587708950042725e-01
2.530000000000000000e+02 2.922620773315429688e+01 3.631720352172851562e+01 -2.699849605560302734e+00 -5.017862468957901001e-02 -8.250085115432739258e-01 2.804692983627319336e-01
2.540000000000000000e+02 2.916433906555175781e+01 3.699042129516601562e+01 -4.487169682979583740e-01 9.804909825325012207e-01 1.595322042703628540e-01 -8.104902505874633789e-01
2.550000000000000000e+02 2.896495246887207031e+01 3.705996322631835938e+01 -7.056228518486022949e-01 7.831193804740905762e-01 2.324896492063999176e-02 -7.104275822639465332e-01
2.560000000000000000e+02 2.959917640686035156e+01 3.594958877563476562e+01 -4.296514511108398438e+00 -7.566766440868377686e-02 -1.311654686927795410e+00 7.569462656974792480e-01
2.570000000000000000e+02 2.906482887268066406e+01 3.484008026123046875e+01 1.769883155822753906e+00 3.783337473869323730e-01 6.444650888442993164e-01 1.126539468765258789e+00
2.580000000000000000e+02 2.849702644348144531e+01 3.675326919555664062e+01 -1.962661981582641602e+00 -6.303261220455169678e-02 -6.077083945274353027e-01 2.934227287769317627e-01
2.590000000000000000e+02 2.967848777770996094e+01 3.463773727416992188e+01 4.019307136535644531e+00 1.272188544273376465e+00 1.587448716163635254e+00 2.782453536987304688e+00
2.600000000000000000e+02 3.073860168457031250e+01 3.648892593383789062e+01 1.672224283218383789e+00 8.241007804870605469e+00 2.973969697952270508e+00 -5.483849048614501953e+00
2.610000000000000000e+02 2.999453735351562500e+01 3.670991897583007812e+01 6.375369429588317871e-01 2.395919561386108398e+00 9.100369215011596680e-01 -2.511294126510620117e+00
2.620000000000000000e+02 2.979305458068847656e+01 3.501509094238281250e+01 3.151629447937011719e+00 4.398171305656433105e-01 1.077433943748474121e+00 1.784333825111389160e+00
2.630000000000000000e+02 3.001511764526367188e+01 3.509775543212890625e+01 3.708118677139282227e+00 5.578056573867797852e-01 1.279777288436889648e+00 2.033491134643554688e+00
2.640000000000000000e+02 2.948892402648925781e+01 3.471933364868164062e+01 3.249029159545898438e+00 8.266161084175109863e-01 1.222693562507629395e+00 2.062485933303833008e+00
2.650000000000000000e+02 2.909191513061523438e+01 3.524869537353515625e+01 2.279371023178100586e-01 1.134415939450263977e-01 1.024136021733283997e-01 5.179459452629089355e-01
2.660000000000000000e+02 2.861401939392089844e+01 3.487398529052734375e+01 8.976909518241882324e-01 2.636711597442626953e-01 3.484086096286773682e-01 6.950597167015075684e-01
2.670000000000000000e+02 2.864420890808105469e+01 3.651848220825195312e+01 -2.624473571777343750e+00 -1.833874285221099854e-01 -8.423582911491394043e-01 4.046778678894042969e-01
2.680000000000000000e+02 2.980832481384277344e+01 3.669667053222656250e+01 9.984864294528961182e-02 1.689077973365783691e+00 5.366779565811157227e-01 -1.704101800918579102e+00
2.690000000000000000e+02 2.929394912719726562e+01 3.661982345581054688e+01 -1.212138891220092773e+00 5.172536373138427734e-01 -2.084655910730361938e-01 -3.473566770553588867e-01
2.700000000000000000e+02 2.883873939514160156e+01 3.666182708740234375e+01 -1.794679284095764160e+00 1.413129717111587524e-01 -4.960099160671234131e-01 -2.155167423188686371e-02
2.710000000000000000e+02 2.884031677246093750e+01 3.489377212524414062e+01 1.259985685348510742e+00 2.871592044830322266e-01 4.641434550285339355e-01 8.376491665840148926e-01
2.720000000000000000e+02 2.882087898254394531e+01 3.630255126953125000e+01 -3.365926980972290039e+00 -1.755471378564834595e-01 -1.062442183494567871e+00 5.476849675178527832e-01
2.730000000000000000e+02 2.888518142700195312e+01 3.522333908081054688e+01 5.204453691840171814e-02 8.878684043884277344e-02 4.224941506981849670e-02 4.284791350364685059e-01
2.740000000000000000e+02 2.956471252441406250e+01 3.497652053833007812e+01 2.489931106567382812e+00 4.301673769950866699e-01 8.760295510292053223e-01 1.488069534301757812e+00
2.750000000000000000e+02 2.984384536743164062e+01 3.648761367797851562e+01 -4.400707483291625977e-01 1.018145084381103516e+00 1.734223216772079468e-01 -1.215535163879394531e+00
2.760000000000000000e+02 2.966977691650390625e+01 3.645194244384765625e+01 -9.843761324882507324e-01 6.714731454849243164e-01 -9.387090057134628296e-02 -6.515400409698486328e-01
2.770000000000000000e+02 3.000743293762207031e+01 3.651521301269531250e+01 3.448764681816101074e-01 1.722549319267272949e+00 6.202276945114135742e-01 -1.919008612632751465e+00
2.780000000000000000e+02 3.018084716796875000e+01 3.670959472656250000e+01 9.758093953132629395e-01 3.676083326339721680e+00 1.395567774772644043e+00 -3.197653770446777344e+00
2.790000000000000000e+02 2.900111198425292969e+01 3.729832458496093750e+01 -9.108081459999084473e-02 1.318550825119018555e+00 3.682410120964050293e-01 -1.018218636512756348e+00
2.800000000000000000e+02 2.876615715026855469e+01 3.711922073364257812e+01 -8.279070854187011719e-01 8.365533947944641113e-01 2.593893790617585182e-03 -2.790309786796569824e-01
2.810000000000000000e+02 2.920065879821777344e+01 3.725477600097656250e+01 8.880974352359771729e-02 1.400976538658142090e+00 4.469358921051025391e-01 -1.434659123420715332e+00
2.820000000000000000e+02 2.890805816650390625e+01 3.683975601196289062e+01 -1.258236050605773926e+00 5.376487374305725098e-01 -2.161761969327926636e-01 -1.548415422439575195e-01
2.830000000000000000e+02 2.959785461425781250e+01 3.718506622314453125e+01 4.602898955345153809e-01 2.131483554840087891e+00 7.775320410728454590e-01 -2.075943946838378906e+00
2.840000000000000000e+02 2.998700141906738281e+01 3.692237854003906250e+01 7.129374146461486816e-01 3.234191656112670898e+00 1.184138655662536621e+00 -2.729978799819946289e+00
2.850000000000000000e+02 3.036495399475097656e+01 3.690398788452148438e+01 1.174374222755432129e+00 5.316429138183593750e+00 1.947240948677062988e+00 -4.022466659545898438e+00
2.860000000000000000e+02 3.039089393615722656e+01 3.709195327758789062e+01 6.791034936904907227e-01 6.323382854461669922e+00 2.100745916366577148e+00 -4.227309703826904297e+00
2.870000000000000000e+02 3.051638984680175781e+01 3.669385910034179688e+01 1.531533002853393555e+00 6.020622730255126953e+00 2.265646696090698242e+00 -4.757811069488525391e+00
2.880000000000000000e+02 3.072507286071777344e+01 3.685638427734375000e+01 7.092432379722595215e-01 8.754115104675292969e+00 2.839007377624511719e+00 -4.660689830780029297e+00
2.890000000000000000e+02 3.111086082458496094e+01 3.656826019287109375e+01 5.979229807853698730e-01 1.550949382781982422e+01 4.832224845886230469e+00 -5.063625335693359375e+00
2.900000000000000000e+02 2.867412567138671875e+01 3.671322250366210938e+01 -1.817151427268981934e+00 1.937163770198822021e-01 -4.870305061340332031e-01 2.772225439548492432e-01
2.910000000000000000e+02 2.862815284729003906e+01 3.631369018554687500e+01 -3.567962884902954102e+00 -2.552385628223419189e-02 -1.078045964241027832e+00 6.028410196304321289e-01
2.920000000000000000e+02 2.896971511840820312e+01 3.654740142822265625e+01 -2.010555744171142578e+00 7.436273992061614990e-02 -5.808579325675964355e-01 1.976774930953979492e-01
2.930000000000000000e+02 2.964708709716796875e+01 3.621212005615234375e+01 -2.180131196975708008e+00 1.605928391218185425e-01 -6.058614850044250488e-01 -7.743627578020095825e-02
2.940000000000000000e+02 3.000269317626953125e+01 3.585937881469726562e+01 -4.136752605438232422e+00 -8.461651951074600220e-02 -1.266410708427429199e+00 6.914085745811462402e-01
2.950000000000000000e+02 3.007749176025390625e+01 3.607793045043945312e+01 -1.572310924530029297e+00 2.918306887149810791e-01 -3.841440677642822266e-01 -3.854083120822906494e-01
2.960000000000000000e+02 3.020097923278808594e+01 3.649809265136718750e+01 9.239935874938964844e-01 2.663241147994995117e+00 1.076170444488525391e+00 -2.797510623931884766e+00
2.970000000000000000e+02 2.826263236999511719e+01 3.524910736083984375e+01 -5.710305571556091309e-01 7.815400511026382446e-02 -1.478629708290100098e-01 2.252411097288131714e-01
2.980000000000000000e+02 2.849120330810546875e+01 3.538658142089843750e+01 -8.636563420295715332e-01 3.663388267159461975e-02 -2.481067329645156860e-01 2.259452193975448608e-01
2.990000000000000000e+02 2.873575401306152344e+01 3.555192184448242188e+01 -1.441436767578125000e+00 4.046861454844474792e-02 -4.202904403209686279e-01 2.226117998361587524e-01
3.000000000000000000e+02 2.856181907653808594e+01 3.509667587280273438e+01 3.015409111976623535e-01 1.888159513473510742e-01 1.471070647239685059e-01 4.341960847377777100e-01
3.010000000000000000e+02 2.821001815795898438e+01 3.484313201904296875e+01 5.959182381629943848e-01 3.982257246971130371e-01 2.982431948184967041e-01 6.090064644813537598e-01
3.020000000000000000e+02 2.838174057006835938e+01 3.460781097412109375e+01 1.363928437232971191e+00 4.243191778659820557e-01 5.364742875099182129e-01 8.601408004760742188e-01
3.030000000000000000e+02 2.867808341979980469e+01 3.529095077514648438e+01 -3.591346740722656250e-01 9.591110795736312866e-02 -7.896707206964492798e-02 3.308807909488677979e-01
3.040000000000000000e+02 2.915721702575683594e+01 3.573930740356445312e+01 -2.595075845718383789e+00 -7.600033283233642578e-02 -8.013228178024291992e-01 3.878666162490844727e-01
3.050000000000000000e+02 2.892617034912109375e+01 3.551360702514648438e+01 -1.325972914695739746e+00 -3.090576641261577606e-02 -4.070636034011840820e-01 2.607277929782867432e-01
3.060000000000000000e+02 2.911664390563964844e+01 3.549871063232421875e+01 -1.213254690170288086e+00 3.062275797128677368e-02 -3.547895848751068115e-01 3.119874000549316406e-01
3.070000000000000000e+02 2.954517745971679688e+01 3.567611694335937500e+01 -2.393493890762329102e+00 -3.544814884662628174e-02 -7.286825776100158691e-01 5.095560550689697266e-01
3.080000000000000000e+02 2.927461433410644531e+01 3.476882553100585938e+01 2.528990745544433594e+00 5.221355557441711426e-01 9.153378605842590332e-01 1.532086730003356934e+00
3.090000000000000000e+02 2.994401359558105469e+01 3.432165527343750000e+01 4.739151000976562500e+00 3.449922323226928711e+00 2.456722021102905273e+00 4.597094058990478516e+00
3.100000000000000000e+02 3.014558219909667969e+01 3.431002044677734375e+01 5.049206256866455078e+00 4.700818061828613281e+00 2.925007104873657227e+00 5.429158687591552734e+00
3.110000000000000000e+02 3.042091178894042969e+01 3.479455947875976562e+01 6.792238712310791016e+00 4.081209659576416016e+00 3.262034416198730469e+00 5.888909339904785156e+00
3.120000000000000000e+02 3.176419639587402344e+01 3.458061981201171875e+01 4.341152667999267578e+00 2.065086746215820312e+01 7.497605800628662109e+00 1.697515130043029785e+00
3.130000000000000000e+02 3.008460807800292969e+01 3.488669967651367188e+01 4.993004798889160156e+00 1.425972938537597656e+00 1.925693273544311523e+00 3.339714765548706055e+00
3.140000000000000000e+02 3.093740844726562500e+01 3.654013824462890625e+01 9.840242862701416016e-01 1.206788539886474609e+01 3.915572881698608398e+00 -5.553132534027099609e+00
3.150000000000000000e+02 3.040584182739257812e+01 3.654440307617187500e+01 1.340249776840209961e+00 4.346138477325439453e+00 1.705916404724121094e+00 -3.803709506988525391e+00
3.160000000000000000e+02 3.070573616027832031e+01 3.668175888061523438e+01 1.322898268699645996e+00 8.709685325622558594e+00 3.009775161743164062e+00 -5.170771598815917969e+00
3.170000000000000000e+02 3.249579620361328125e+01 3.503858566284179688e+01 8.853268623352050781e+00 1.667778968811035156e+01 7.659317493438720703e+00 -5.140483975410461426e-01
3.180000000000000000e+02 3.258554840087890625e+01 3.556745910644531250e+01 9.586949348449707031e+00 1.577979278564453125e+01 7.610022544860839844e+00 2.314795732498168945e+00
3.190000000000000000e+02 3.237177276611328125e+01 3.520189285278320312e+01 1.061847209930419922e+01 1.783398437500000000e+01 8.535737037658691406e+00 -4.571470245718955994e-02
3.200000000000000000e+02 3.226607131958007812e+01 3.525261306762695312e+01 1.196552658081054688e+01 1.795099449157714844e+01 8.974956512451171875e+00 3.513875305652618408e-01
3.210000000000000000e+02 3.229814910888671875e+01 3.544128417968750000e+01 1.216941833496093750e+01 1.761075210571289062e+01 8.934050559997558594e+00 1.277573585510253906e+00
3.220000000000000000e+02 3.185975265502929688e+01 3.635680389404296875e+01 2.188345670700073242e+00 2.264575195312500000e+01 7.450229167938232422e+00 2.441616296768188477e+00
3.230000000000000000e+02 3.193269920349121094e+01 3.648545455932617188e+01 1.953520536422729492e+00 2.140646171569824219e+01 7.007994651794433594e+00 2.097758531570434570e+00
3.240000000000000000e+02 3.179391670227050781e+01 3.647533416748046875e+01 1.045936346054077148e+00 2.245911979675292969e+01 7.051516532897949219e+00 1.595153212547302246e+00
3.250000000000000000e+02 3.156706237792968750e+01 3.651370239257812500e+01 7.764937728643417358e-02 2.178696250915527344e+01 6.559383392333984375e+00 -6.586077809333801270e-01
3.260000000000000000e+02 3.164635086059570312e+01 3.658665084838867188e+01 1.732261329889297485e-01 2.138555145263671875e+01 6.467633247375488281e+00 2.217327803373336792e-01
3.270000000000000000e+02 3.129517364501953125e+01 3.659425354003906250e+01 8.241704106330871582e-02 1.817953300476074219e+01 5.478585243225097656e+00 -3.330586433410644531e+00
3.280000000000000000e+02 3.171386909484863281e+01 3.667503356933593750e+01 2.646307349205017090e-01 2.126638603210449219e+01 6.459304809570312500e+00 2.466389983892440796e-01
3.290000000000000000e+02 3.123250579833984375e+01 3.675668334960937500e+01 1.848399043083190918e-01 1.538111114501953125e+01 4.669785499572753906e+00 -3.673712730407714844e+00
3.300000000000000000e+02 2.909294319152832031e+01 3.672799682617187500e+01 -1.361623525619506836e+00 4.268967807292938232e-01 -2.804180085659027100e-01 -3.846459984779357910e-01
3.310000000000000000e+02 2.965795516967773438e+01 3.539966964721679688e+01 -1.738996654748916626e-01 -3.841796889901161194e-02 -6.369528919458389282e-02 3.764027059078216553e-01
3.320000000000000000e+02 2.985673713684082031e+01 3.480606460571289062e+01 4.172324657440185547e+00 1.224883317947387695e+00 1.619162440299987793e+00 2.778166294097900391e+00
3.330000000000000000e+02 3.014158439636230469e+01 3.451679611206054688e+01 5.486845016479492188e+00 3.939100503921508789e+00 2.827783584594726562e+00 5.145291328430175781e+00
3.340000000000000000e+02 2.926208496093750000e+01 3.526680374145507812e+01 3.017453849315643311e-01 2.486278675496578217e-02 9.798245131969451904e-02 4.749124348163604736e-01
3.350000000000000000e+02 2.959019851684570312e+01 3.520507049560546875e+01 1.297068595886230469e+00 1.402910053730010986e-01 4.312078952789306641e-01 9.109285473823547363e-01
3.360000000000000000e+02 2.962101745605468750e+01 3.666202926635742188e+01 -4.084763526916503906e-01 1.073295593261718750e+00 1.994457840919494629e-01 -1.221172213554382324e+00
3.370000000000000000e+02 2.978889274597167969e+01 3.692185974121093750e+01 5.040316581726074219e-01 2.231208562850952148e+00 8.205720782279968262e-01 -2.168852567672729492e+00
3.380000000000000000e+02 3.054679298400878906e+01 3.688201522827148438e+01 9.236682653427124023e-01 7.443227767944335938e+00 2.510068655014038086e+00 -4.682069778442382812e+00
3.390000000000000000e+02 3.035508346557617188e+01 3.671850204467773438e+01 1.045719385147094727e+00 4.654816150665283203e+00 1.710160613059997559e+00 -3.709221601486206055e+00
3.400000000000000000e+02 3.102731895446777344e+01 3.668161010742187500e+01 6.741493940353393555e-01 1.336396980285644531e+01 4.211435794830322266e+00 -5.156879425048828125e+00
3.410000000000000000e+02 3.146181678771972656e+01 3.675442886352539062e+01 -1.923529356718063354e-01 1.851429939270019531e+01 5.496583938598632812e+00 -1.646963715553283691e+00
3.420000000000000000e+02 2.994212150573730469e+01 3.465025711059570312e+01 4.995765686035156250e+00 1.998523354530334473e+00 2.098286628723144531e+00 3.673289299011230469e+00
3.430000000000000000e+02 2.982283210754394531e+01 3.453778839111328125e+01 4.603546142578125000e+00 2.049820184707641602e+00 1.996009945869445801e+00 3.594393730163574219e+00
3.440000000000000000e+02 2.842571640014648438e+01 3.520216369628906250e+01 -3.364600837230682373e-01 1.443669497966766357e-01 -5.762794613838195801e-02 1.690660566091537476e-01
3.450000000000000000e+02 2.881315612792968750e+01 3.650088119506835938e+01 -2.573124170303344727e+00 7.078661024570465088e-02 -7.507012486457824707e-01 3.902622461318969727e-01
3.460000000000000000e+02 2.902029228210449219e+01 3.632261657714843750e+01 -2.981434345245361328e+00 1.092733368277549744e-01 -8.616483211517333984e-01 4.173075556755065918e-01
3.470000000000000000e+02 2.948837661743164062e+01 3.651755142211914062e+01 -1.209291219711303711e+00 4.678801596164703369e-01 -2.224233299493789673e-01 -5.304605364799499512e-01
3.480000000000000000e+02 2.942388534545898438e+01 3.523207855224609375e+01 8.406649827957153320e-01 6.990417093038558960e-02 2.731707394123077393e-01 6.502450108528137207e-01
3.490000000000000000e+02 3.016743278503417969e+01 3.628658676147460938e+01 1.296062618494033813e-01 1.504647135734558105e+00 4.902760386466979980e-01 -1.787762045860290527e+00
3.500000000000000000e+02 2.995849418640136719e+01 3.634727859497070312e+01 -6.052787899971008301e-01 9.824603796005249023e-01 1.131544858217239380e-01 -1.151292800903320312e+00
3.510000000000000000e+02 2.935902595520019531e+01 3.500960540771484375e+01 1.785264968872070312e+00 3.426958024501800537e-01 6.383882164955139160e-01 1.181558728218078613e+00
3.520000000000000000e+02 2.803211212158203125e+01 3.620683288574218750e+01 -4.251527309417724609e+00 -1.120088696479797363e-01 -1.309060811996459961e+00 7.048195004463195801e-01
3.530000000000000000e+02 2.801668930053710938e+01 3.657720184326171875e+01 -2.938936233520507812e+00 2.240926474332809448e-01 -8.144530653953552246e-01 4.427436292171478271e-01
3.540000000000000000e+02 2.647931098937988281e+01 3.703936004638671875e+01 -2.143716335296630859e+00 -5.693851783871650696e-02 -6.601964235305786133e-01 5.670322775840759277e-01
3.550000000000000000e+02 2.769037628173828125e+01 3.689068984985351562e+01 -2.233393430709838867e+00 1.185477748513221741e-01 -6.344536542892456055e-01 4.484011232852935791e-01
3.560000000000000000e+02 2.827435684204101562e+01 3.677325820922851562e+01 -2.136996269226074219e+00 -7.427066564559936523e-03 -6.433270573616027832e-01 4.642811715602874756e-01
3.570000000000000000e+02 2.654107856750488281e+01 3.752622985839843750e+01 -1.220795154571533203e+00 -3.531493842601776123e-01 -4.721833467483520508e-01 5.726135969161987305e-01
3.580000000000000000e+02 2.803145408630371094e+01 3.682052230834960938e+01 -2.176561832427978516e+00 -1.065607964992523193e-01 -6.849367618560791016e-01 1.850649267435073853e-01
3.590000000000000000e+02 2.781505012512207031e+01 3.726982498168945312e+01 -1.154502630233764648e+00 8.363182097673416138e-02 -3.212612271308898926e-01 2.199561707675457001e-02
3.600000000000000000e+02 2.578236579895019531e+01 3.762376022338867188e+01 -1.238831162452697754e+00 -2.781452238559722900e-02 -3.799937069416046143e-01 4.973773658275604248e-01
3.610000000000000000e+02 2.715012168884277344e+01 3.695433807373046875e+01 -2.189808368682861328e+00 -2.076394706964492798e-01 -7.192342877388000488e-01 6.499513983726501465e-01
3.620000000000000000e+02 2.726739120483398438e+01 3.742632293701171875e+01 -1.269924044609069824e+00 3.167369365692138672e-01 -2.859561443328857422e-01 4.136828184127807617e-01
3.630000000000000000e+02 2.574317359924316406e+01 3.713203811645507812e+01 -1.924900889396667480e+00 -2.602430582046508789e-01 -6.555432081222534180e-01 5.590616464614868164e-01
3.640000000000000000e+02 2.570874595642089844e+01 3.663655090332031250e+01 -2.831740856170654297e+00 -7.209671288728713989e-02 -8.711512684822082520e-01 4.439970254898071289e-01
3.650000000000000000e+02 2.825223731994628906e+01 3.658410644531250000e+01 -2.549535274505615234e+00 -1.557146012783050537e-01 -8.115749359130859375e-01 5.149107575416564941e-01
3.660000000000000000e+02 2.819321632385253906e+01 3.640663909912109375e+01 -3.289021492004394531e+00 7.675605267286300659e-02 -9.636796116828918457e-01 6.528140306472778320e-01
3.670000000000000000e+02 2.825545120239257812e+01 3.696357727050781250e+01 -1.606401801109313965e+00 -1.467827111482620239e-01 -5.259553194046020508e-01 1.561372131109237671e-01
3.680000000000000000e+02 2.769658470153808594e+01 3.648136138916015625e+01 -3.496800422668457031e+00 -3.052266538143157959e-01 -1.140608072280883789e+00 7.236238718032836914e-01
3.690000000000000000e+02 2.714996528625488281e+01 3.645270156860351562e+01 -3.497195482254028320e+00 -9.929031133651733398e-03 -1.052137374877929688e+00 5.759027600288391113e-01
3.700000000000000000e+02 2.644581985473632812e+01 3.653960800170898438e+01 -3.134283304214477539e+00 -1.500545442104339600e-01 -9.853013753890991211e-01 5.688719153404235840e-01
3.710000000000000000e+02 2.819585037231445312e+01 3.742564773559570312e+01 -6.878739595413208008e-01 1.151873320341110229e-01 -1.718059778213500977e-01 -1.106480062007904053e-01
3.720000000000000000e+02 2.824119377136230469e+01 3.717738342285156250e+01 -1.180851221084594727e+00 8.855911344289779663e-02 -3.276876211166381836e-01 1.014618724584579468e-01
3.730000000000000000e+02 2.263841056823730469e+01 3.716664123535156250e+01 -7.460709810256958008e-01 -3.523664548993110657e-02 -2.343922853469848633e-01 3.424777388572692871e-01
3.740000000000000000e+02 2.267459869384765625e+01 3.667178344726562500e+01 -9.743889570236206055e-01 4.180623218417167664e-03 -2.910625040531158447e-01 7.049687951803207397e-02
3.750000000000000000e+02 2.419787025451660156e+01 3.717717742919921875e+01 -1.383443474769592285e+00 -7.756303250789642334e-02 -4.383019506931304932e-01 4.538268744945526123e-01
3.760000000000000000e+02 2.420092391967773438e+01 3.766744232177734375e+01 -9.706545472145080566e-01 -1.291103661060333252e-01 -3.299294710159301758e-01 5.088472366333007812e-01
3.770000000000000000e+02 2.495620536804199219e+01 3.668465042114257812e+01 -2.353970289230346680e+00 -1.150136515498161316e-01 -7.406951785087585449e-01 2.485576868057250977e-01
3.780000000000000000e+02 2.500008392333984375e+01 3.767085266113281250e+01 -1.112359285354614258e+00 -2.178975194692611694e-01 -3.990770280361175537e-01 7.217329144477844238e-01
3.790000000000000000e+02 2.260301780700683594e+01 3.765880966186523438e+01 -5.997634530067443848e-01 -1.555095911026000977e-01 -2.265819162130355835e-01 3.422377407550811768e-01
3.800000000000000000e+02 2.341763687133789062e+01 3.717400360107421875e+01 -1.077504634857177734e+00 -1.656118035316467285e-02 -3.282197415828704834e-01 2.987454533576965332e-01
3.810000000000000000e+02 2.340179061889648438e+01 3.766431045532226562e+01 -7.283112406730651855e-01 -1.743724755942821503e-02 -2.237245589494705200e-01 5.838564038276672363e-01
3.820000000000000000e+02 2.497801971435546875e+01 3.717850875854492188e+01 -1.664124846458435059e+00 -1.078544855117797852e-01 -5.315937995910644531e-01 5.063434243202209473e-01
3.830000000000000000e+02 2.343474197387695312e+01 3.667799377441406250e+01 -1.309719920158386230e+00 -4.309692233800888062e-02 -4.058450460433959961e-01 1.366441845893859863e-01
3.840000000000000000e+02 2.419552993774414062e+01 3.668238067626953125e+01 -1.744097828865051270e+00 4.195243492722511292e-02 -5.106436014175415039e-01 1.365052908658981323e-01
3.850000000000000000e+02 2.060360717773437500e+01 3.724676895141601562e+01 -3.726890385150909424e-01 -1.312509528361260891e-03 -1.122004687786102295e-01 1.700150668621063232e-01
3.860000000000000000e+02 2.081866455078125000e+01 3.653364562988281250e+01 -1.647645235061645508e-01 -4.211230948567390442e-02 -6.206304952502250671e-02 6.782077252864837646e-02
3.870000000000000000e+02 2.121720504760742188e+01 3.741237640380859375e+01 -3.228541016578674316e-01 -4.985062032938003540e-02 -1.118114143610000610e-01 2.645682692527770996e-01
3.880000000000000000e+02 2.141997337341308594e+01 3.682466125488281250e+01 -4.509738385677337646e-01 7.347125560045242310e-02 -1.132507771253585815e-01 9.037841856479644775e-02
3.890000000000000000e+02 2.186710739135742188e+01 3.758106994628906250e+01 -5.651764273643493652e-01 4.165289923548698425e-02 -1.570570468902587891e-01 3.504935503005981445e-01
3.900000000000000000e+02 2.010578727722167969e+01 3.695741271972656250e+01 -1.898494064807891846e-01 -7.830174267292022705e-02 -8.044534176588058472e-02 1.374780088663101196e-01
3.910000000000000000e+02 2.191666793823242188e+01 3.660264205932617188e+01 -5.463041067123413086e-01 7.968345307745039463e-04 -1.636521816253662109e-01 5.965716764330863953e-02
3.920000000000000000e+02 2.195135498046875000e+01 3.709726715087890625e+01 -5.795813202857971191e-01 -4.964677989482879639e-02 -1.887684315443038940e-01 2.008110433816909790e-01
3.930000000000000000e+02 2.102560424804687500e+01 3.579481887817382812e+01 -3.542479127645492554e-02 -2.494810521602630615e-02 -1.811186969280242920e-02 -6.148966029286384583e-02
3.940000000000000000e+02 2.197462081909179688e+01 3.519912338256835938e+01 -1.369306743144989014e-01 -7.926277816295623779e-02 -6.485803425312042236e-02 -2.438328713178634644e-01
3.950000000000000000e+02 2.189435958862304688e+01 3.593660354614257812e+01 -1.985709518194198608e-01 -4.023260250687599182e-02 -7.164106518030166626e-02 -1.058806777000427246e-01
3.960000000000000000e+02 2.057264900207519531e+01 3.514139175415039062e+01 -8.455419912934303284e-03 -1.115380972623825073e-01 -3.599805384874343872e-02 -1.116730552166700363e-02
3.970000000000000000e+02 2.112965202331542969e+01 3.506163787841796875e+01 -6.053479388356208801e-02 -1.737272888422012329e-01 -7.027862221002578735e-02 -1.457132846117019653e-01
3.980000000000000000e+02 2.112945556640625000e+01 3.338842391967773438e+01 -9.905945509672164917e-03 -4.895398318767547607e-01 -1.498337239027023315e-01 -1.667365729808807373e-01
3.990000000000000000e+02 2.202503204345703125e+01 3.432589721679687500e+01 -3.283837437629699707e-02 -1.715487539768218994e-01 -6.131613999605178833e-02 -2.975359559059143066e-01
4.000000000000000000e+02 2.544269561767578125e+01 3.370837402343750000e+01 5.568139553070068359e-01 3.810007274150848389e-01 2.813443839550018311e-01 3.126406669616699219e-02
4.010000000000000000e+02 2.694468307495117188e+01 3.439291381835937500e+01 6.316487193107604980e-01 2.426038682460784912e-01 2.622757852077484131e-01 1.913430094718933105e-01
4.020000000000000000e+02 2.202272605895996094e+01 3.333889770507812500e+01 5.913909152150154114e-02 -2.643222510814666748e-01 -6.155494600534439087e-02 -2.827634811401367188e-01
4.030000000000000000e+02 2.100176048278808594e+01 2.540480232238769531e+01 4.128920845687389374e-03 6.050228476524353027e-01 1.827455312013626099e-01 2.316773682832717896e-01
4.040000000000000000e+02 2.588353729248046875e+01 1.858205986022949219e+01 -2.586682438850402832e-01 4.810797691345214844e+00 1.365638852119445801e+00 1.181104660034179688e+00
4.050000000000000000e+02 3.396007537841796875e+01 1.237676429748535156e+01 -5.677750110626220703e-01 7.004044055938720703e+00 1.930880665779113770e+00 7.863658070564270020e-01
4.060000000000000000e+02 4.854515075683593750e+01 -2.866378784179687500e+00 -3.225631415843963623e-01 7.442563533782958984e+00 2.136000156402587891e+00 -6.210136041045188904e-02
4.070000000000000000e+02 5.790934371948242188e+01 -1.028518009185791016e+01 -1.707232296466827393e-01 7.649936199188232422e+00 2.243763923645019531e+00 -1.761460006237030029e-01
4.080000000000000000e+02 6.692054748535156250e+01 -1.624212074279785156e+01 -6.267485767602920532e-02 7.961752891540527344e+00 2.369723320007324219e+00 -1.386815756559371948e-01
4.090000000000000000e+02 7.007975006103515625e+01 -2.309753608703613281e+01 -3.026043437421321869e-02 8.137792587280273438e+00 2.432259559631347656e+00 -7.799115031957626343e-02
4.100000000000000000e+02 7.779016113281250000e+01 -3.053385353088378906e+01 -3.119007684290409088e-03 8.580297470092773438e+00 2.573153495788574219e+00 -1.451914664357900620e-02
4.110000000000000000e+02 7.931773376464843750e+01 -2.642745208740234375e+01 -4.634393462765729055e-06 8.641059875488281250e+00 2.592316389083862305e+00 -7.938145659863948822e-03
4.120000000000000000e+02 7.801372528076171875e+01 -2.354469490051269531e+01 -1.436487655155360699e-03 8.542484283447265625e+00 2.562314271926879883e+00 -2.081983722746372223e-02
4.130000000000000000e+02 7.934035491943359375e+01 -2.225031280517578125e+01 -5.813806783407926559e-04 8.604615211486816406e+00 2.581210136413574219e+00 -9.576085954904556274e-03
4.140000000000000000e+02 7.240275573730468750e+01 -1.198256683349609375e+01 -3.204426541924476624e-02 8.145989418029785156e+00 2.434183597564697266e+00 -1.280095428228378296e-01
4.150000000000000000e+02 6.671566009521484375e+01 -3.786185979843139648e+00 -1.121273860335350037e-01 7.891916751861572266e+00 2.333936691284179688e+00 -2.695001661777496338e-01
4.160000000000000000e+02 5.827464675903320312e+01 1.516257047653198242e+00 -2.638718187808990479e-01 7.786544799804687500e+00 2.256801843643188477e+00 -3.260370492935180664e-01
4.170000000000000000e+02 4.670734024047851562e+01 1.233571243286132812e+01 -5.472767949104309082e-01 8.046425819396972656e+00 2.249744653701782227e+00 -1.663331687450408936e-01
4.180000000000000000e+02 4.012593078613281250e+01 1.668885612487792969e+01 -7.319319248199462891e-01 8.190324783325195312e+00 2.237518072128295898e+00 2.507017254829406738e-01
4.190000000000000000e+02 3.626062011718750000e+01 2.819831848144531250e+01 -6.904428452253341675e-02 1.006462192535400391e+01 2.998673200607299805e+00 6.913930177688598633e-02
4.200000000000000000e+02 3.067870521545410156e+01 3.385520935058593750e+01 3.507730007171630859e+00 9.980550765991210938e+00 4.046484470367431641e+00 6.313473224639892578e+00
4.210000000000000000e+02 2.389238357543945312e+01 -3.466207885742187500e+01 2.786607444286346436e-01 5.539968967437744141e+00 1.745588898658752441e+00 3.327837213873863220e-02
4.220000000000000000e+02 1.662430953979492188e+01 -3.861698150634765625e+01 -4.130409061908721924e-01 -5.871805548667907715e-02 -1.415276825428009033e-01 2.228547334671020508e-01
4.230000000000000000e+02 1.883774185180664062e+01 -3.916073608398437500e+01 -4.638242125511169434e-01 3.380974531173706055e+00 8.751451373100280762e-01 1.036777138710021973e+00
4.240000000000000000e+02 1.454927444458007812e+01 -3.648169708251953125e+01 -1.187014728784561157e-01 -9.226693958044052124e-02 -6.329052150249481201e-02 7.052572816610336304e-02
4.250000000000000000e+02 1.537790966033935547e+01 -3.760174560546875000e+01 -3.381628394126892090e-01 -8.556008338928222656e-02 -1.271168738603591919e-01 1.174548342823982239e-01
4.260000000000000000e+02 1.291929912567138672e+01 -3.142084884643554688e+01 -8.598046377301216125e-03 -8.155202493071556091e-03 -5.025974940508604050e-03 6.098566111177206039e-03
4.270000000000000000e+02 6.665090322494506836e-01 -2.476000213623046875e+01 -5.030846223235130310e-03 1.385927782393991947e-03 -1.093475497327744961e-03 -6.110131507739424706e-04
4.280000000000000000e+02 6.829434037208557129e-01 -3.040249824523925781e+01 -7.691759616136550903e-03 -1.079755835235118866e-03 -2.631454495713114738e-03 -2.065054606646299362e-03
4.290000000000000000e+02 6.996395587921142578e-01 -3.180643653869628906e+01 7.788533810526132584e-03 -3.613559762015938759e-03 1.252492074854671955e-03 -4.293913079891353846e-04
4.300000000000000000e+02 8.427181839942932129e-01 -3.736362457275390625e+01 1.365327369421720505e-02 -2.586035057902336121e-02 -3.662122879177331924e-03 -1.365393254673108459e-04
4.310000000000000000e+02 8.967654228210449219e+00 -3.946024322509765625e+01 4.743997007608413696e-02 3.121328726410865784e-02 2.359597757458686829e-02 -5.776151642203330994e-02
4.320000000000000000e+02 1.213479804992675781e+01 -4.146154403686523438e+01 2.057210355997085571e-01 6.943559646606445312e-02 8.254698663949966431e-02 -2.601568400859832764e-02
4.330000000000000000e+02 2.140145683288574219e+01 -3.360966491699218750e+01 2.648853957653045654e-01 5.818779468536376953e+00 1.825099349021911621e+00 3.501724004745483398e-01
4.340000000000000000e+02 1.970083618164062500e+01 -2.800627136230468750e+01 2.207964472472667694e-02 5.630297660827636719e+00 1.695713162422180176e+00 4.817157238721847534e-02
4.350000000000000000e+02 2.121320533752441406e+01 -3.085158348083496094e+01 1.256916671991348267e-02 5.834557533264160156e+00 1.754137992858886719e+00 1.646979451179504395e-01
4.360000000000000000e+02 1.973089790344238281e+01 -3.504729080200195312e+01 2.296031564474105835e-01 6.457709789276123047e+00 2.006193876266479492e+00 5.964292883872985840e-01
4.370000000000000000e+02 1.954002761840820312e+01 -3.645227813720703125e+01 7.663423418998718262e-01 5.888466358184814453e+00 1.996442556381225586e+00 1.033269047737121582e+00
4.380000000000000000e+02 1.974161148071289062e+01 -2.377271461486816406e+01 -6.392893195152282715e-02 5.327541351318359375e+00 1.579083681106567383e+00 1.263456046581268311e-01
4.390000000000000000e+02 1.979680824279785156e+01 -2.095293426513671875e+01 1.820995844900608063e-02 5.457727432250976562e+00 1.642781257629394531e+00 1.517518013715744019e-01
4.400000000000000000e+02 2.143228340148925781e+01 -2.379088211059570312e+01 -4.596040397882461548e-02 5.627805233001708984e+00 1.674553513526916504e+00 1.453992724418640137e-01
4.410000000000000000e+02 2.065046691894531250e+01 -1.304709672927856445e+00 3.875575959682464600e-02 5.735114574432373047e+00 1.732161045074462891e+00 2.668234705924987793e-01
4.420000000000000000e+02 2.036365318298339844e+01 -6.909523963928222656e+00 -3.057095967233181000e-02 5.517175197601318359e+00 1.645981311798095703e+00 1.303166300058364868e-01
4.430000000000000000e+02 2.163003540039062500e+01 -1.109859371185302734e+01 2.587971277534961700e-02 5.936051845550537109e+00 1.788579463958740234e+00 2.037419229745864868e-01
4.440000000000000000e+02 2.756858825683593750e+01 -2.296155166625976562e+01 -5.526520684361457825e-02 6.009507656097412109e+00 1.786272764205932617e+00 1.556857973337173462e-01
4.450000000000000000e+02 4.670710754394531250e+01 -3.766725921630859375e+01 -1.193975880742073059e-01 6.999630928039550781e+00 2.064069986343383789e+00 -1.647562719881534576e-02
4.460000000000000000e+02 5.211635971069335938e+01 -4.085125350952148438e+01 -1.011948511004447937e-01 7.271824836730957031e+00 2.151188850402832031e+00 -6.105528678745031357e-03
4.470000000000000000e+02 4.724275970458984375e+01 -4.090756988525390625e+01 -1.244741231203079224e-01 7.023469924926757812e+00 2.069698810577392578e+00 -9.275071322917938232e-03
4.480000000000000000e+02 6.200375747680664062e+01 -4.039797973632812500e+01 -5.235308781266212463e-02 7.776967525482177734e+00 2.317384243011474609e+00 -9.413992054760456085e-03
4.490000000000000000e+02 5.701012802124023438e+01 -4.066703414916992188e+01 -7.662258297204971313e-02 7.526262760162353516e+00 2.234892129898071289e+00 -9.901777841150760651e-03
4.500000000000000000e+02 5.650200653076171875e+01 -2.847089385986328125e+01 -8.618701994419097900e-02 7.516057491302490234e+00 2.228960990905761719e+00 -6.141151860356330872e-02
4.510000000000000000e+02 5.744369506835937500e+01 -2.327265548706054688e+01 -1.020054742693901062e-01 7.563186645507812500e+00 2.238354444503784180e+00 -8.669980615377426147e-02
4.520000000000000000e+02 5.822311782836914062e+01 -1.508548450469970703e+01 -1.352195441722869873e-01 7.627315521240234375e+00 2.247628927230834961e+00 -1.384019702672958374e-01
4.530000000000000000e+02 5.788214492797851562e+01 -7.773167133331298828e+00 -1.955868303775787354e-01 7.668806076049804688e+00 2.241965770721435547e+00 -1.973371505737304688e-01
4.540000000000000000e+02 5.118564605712890625e+01 -8.929398536682128906e+00 -2.359732687473297119e-01 7.423950672149658203e+00 2.156393289566040039e+00 -9.721273928880691528e-02
4.550000000000000000e+02 5.477984237670898438e+01 -4.205465316772460938e+00 -2.589471340179443359e-01 7.630591869354248047e+00 2.211493492126464844e+00 -1.958589553833007812e-01
4.560000000000000000e+02 4.289610671997070312e+01 -1.483855962753295898e+00 -3.373150825500488281e-01 7.207416057586669922e+00 2.061030387878417969e+00 1.060141846537590027e-01
4.570000000000000000e+02 3.461351776123046875e+01 -3.734959125518798828e+00 -1.950108408927917480e-01 6.603346347808837891e+00 1.922500610351562500e+00 2.729991376399993896e-01
4.580000000000000000e+02 2.728753471374511719e+01 -2.589549064636230469e+00 -8.010969310998916626e-02 6.084311962127685547e+00 1.801260709762573242e+00 3.240025639533996582e-01
4.590000000000000000e+02 2.057977676391601562e+01 -2.711074113845825195e+00 8.144172281026840210e-02 5.793851375579833984e+00 1.762587904930114746e+00 3.592820763587951660e-01
4.600000000000000000e+02 2.032913589477539062e+01 -9.719298362731933594e+00 5.747902765870094299e-02 5.972733497619628906e+00 1.809063673019409180e+00 1.720493882894515991e-01
4.610000000000000000e+02 1.995421409606933594e+01 -1.674730300903320312e+01 -1.396995387040078640e-03 5.436958789825439453e+00 1.630668520927429199e+00 4.231916069984436035e-01
4.620000000000000000e+02 2.139438247680664062e+01 -1.673536872863769531e+01 -5.558092519640922546e-02 5.719192504882812500e+00 1.699083447456359863e+00 2.224908322095870972e-01
4.630000000000000000e+02 3.078639793395996094e+01 -3.064334297180175781e+01 -9.994297288358211517e-03 6.083670616149902344e+00 1.822102904319763184e+00 3.734938800334930420e-02
4.640000000000000000e+02 3.743559265136718750e+01 -4.104732131958007812e+01 -1.682292222976684570e-01 6.518066406250000000e+00 1.904951095581054688e+00 -1.608632318675518036e-02
4.650000000000000000e+02 4.234054183959960938e+01 -4.094569396972656250e+01 -1.416426450014114380e-01 6.768885612487792969e+00 1.988172888755798340e+00 -9.138901950791478157e-04
4.660000000000000000e+02 1.330107212066650391e+01 -3.580863571166992188e+01 -8.316033333539962769e-02 -7.010507863014936447e-03 -2.705125138163566589e-02 5.081168562173843384e-02
4.670000000000000000e+02 1.389706611633300781e+01 -3.442323303222656250e+01 -4.387713968753814697e-03 -3.608391433954238892e-02 -1.214148849248886108e-02 2.031867392361164093e-02
4.680000000000000000e+02 1.416548442840576172e+01 -3.306895446777343750e+01 -1.066068559885025024e-02 -7.605026010423898697e-03 -5.479713436216115952e-03 6.443912629038095474e-03
4.690000000000000000e+02 1.324656295776367188e+01 -2.619744300842285156e+01 -6.790474522858858109e-03 -1.009752231766469777e-04 -2.067434834316372871e-03 -1.420978340320289135e-03
4.700000000000000000e+02 1.889931559562683105e+00 -1.757705879211425781e+01 -3.378428285941481590e-03 1.895246386993676424e-04 -9.566710796207189560e-04 -3.837581898551434278e-04
4.710000000000000000e+02 6.679965257644653320e-01 -2.334391975402832031e+01 4.382437095046043396e-03 1.261097495444118977e-03 1.693060388788580894e-03 7.939751958474516869e-04
4.720000000000000000e+02 1.442774200439453125e+01 -3.034096908569335938e+01 -7.956189103424549103e-03 1.566196558997035027e-03 -1.916997833177447319e-03 1.413326826877892017e-03
4.730000000000000000e+02 1.316816997528076172e+01 -2.881693458557128906e+01 -7.108734920620918274e-03 -1.370266312733292580e-03 -2.543700393289327621e-03 3.389356716070324183e-04
4.740000000000000000e+02 1.423248100280761719e+01 -2.200357818603515625e+01 -7.106537465006113052e-03 1.002836157567799091e-03 -1.831110450439155102e-03 -1.624577125767245889e-04
4.750000000000000000e+02 1.452292633056640625e+01 -1.347876453399658203e+01 -3.894254798069596291e-03 -9.782287816051393747e-05 -1.197623321786522865e-03 5.078274989500641823e-04
4.760000000000000000e+02 1.462402629852294922e+01 -6.554030895233154297e+00 2.445473335683345795e-03 8.565877215005457401e-05 7.593396585434675217e-04 1.938266541401389986e-05
4.770000000000000000e+02 1.460888671875000000e+01 -3.864133119583129883e+00 1.763457315973937511e-03 3.205958637408912182e-04 6.252159364521503448e-04 3.911186649929732084e-04
4.780000000000000000e+02 1.442944049835205078e+01 -2.841448545455932617e+00 -1.774147851392626762e-03 -4.344383778516203165e-04 -6.625758833251893520e-04 -8.380454964935779572e-04
4.790000000000000000e+02 1.031848335266113281e+01 -2.650434255599975586e+00 -5.272096022963523865e-04 -4.365328932181000710e-04 -2.891227486543357372e-04 4.807026125490665436e-04
4.800000000000000000e+02 1.348762226104736328e+01 -1.060557556152343750e+01 2.905984641984105110e-03 2.461225958541035652e-04 9.456321713514626026e-04 -4.475359746720641851e-04
4.810000000000000000e+02 1.283237361907958984e+01 -1.871159553527832031e+01 3.489073598757386208e-03 1.071807695552706718e-03 1.368264434859156609e-03 -1.692658872343599796e-03
4.820000000000000000e+02 1.322526931762695312e+01 -2.491364288330078125e+01 6.944985128939151764e-03 1.516358694061636925e-03 2.538403030484914780e-03 1.047975849360227585e-03
4.830000000000000000e+02 1.448952960968017578e+01 -2.620938873291015625e+01 8.300895802676677704e-03 2.509404206648468971e-03 3.243090119212865829e-03 2.092595823341980577e-04
4.840000000000000000e+02 1.109029960632324219e+01 -1.891049027442932129e+00 -6.568204844370484352e-04 -1.478175108786672354e-04 -2.413913898635655642e-04 4.634818760678172112e-04
4.850000000000000000e+02 4.270832538604736328e+00 -1.889067173004150391e+00 2.595619298517704010e-04 2.877881051972508430e-04 1.642050046939402819e-04 1.493334857514128089e-04
4.860000000000000000e+02 1.772101402282714844e+00 -1.058318519592285156e+01 1.867879997007548809e-03 1.696134131634607911e-04 6.112480186857283115e-04 1.790082023944705725e-04
4.870000000000000000e+02 6.328840255737304688e-01 -1.769936180114746094e+01 3.073638537898659706e-03 2.835537598002701998e-04 1.007157727144658566e-03 3.815373347606509924e-04
4.880000000000000000e+02 2.772325754165649414e+00 -3.805669784545898438e+01 1.287032105028629303e-02 -2.215453982353210449e-02 -2.785265678539872169e-03 -7.484606932848691940e-03
4.890000000000000000e+02 2.160881805419921875e+01 -3.663186264038085938e+01 3.721096813678741455e-01 5.160677909851074219e+00 1.659836292266845703e+00 -3.248346596956253052e-02
4.900000000000000000e+02 2.437139511108398438e+01 -3.655235290527343750e+01 4.142881929874420166e-02 5.527791023254394531e+00 1.670765876770019531e+00 -1.174687594175338745e-01
4.910000000000000000e+02 2.811130332946777344e+01 -3.624346923828125000e+01 -5.291443690657615662e-02 5.827430248260498047e+00 1.732354760169982910e+00 -1.009884327650070190e-01
4.920000000000000000e+02 2.605577468872070312e+01 -3.155905532836914062e+01 1.257248222827911377e-01 5.799104213714599609e+00 1.777448654174804688e+00 1.048868969082832336e-01
4.930000000000000000e+02 1.968040084838867188e+01 -3.080902290344238281e+01 5.203900486230850220e-02 5.835533618927001953e+00 1.766271829605102539e+00 7.458697259426116943e-02
4.940000000000000000e+02 6.317735290527343750e+01 -2.852712440490722656e+01 -5.896433815360069275e-02 7.825283050537109375e+00 2.329895734786987305e+00 -7.203551381826400757e-02
4.950000000000000000e+02 6.752120208740234375e+01 -2.503391075134277344e+01 -4.238121584057807922e-02 8.024684906005859375e+00 2.394691228866577148e+00 -7.878302037715911865e-02
4.960000000000000000e+02 6.636910247802734375e+01 -1.814573287963867188e+01 -5.902245640754699707e-02 7.950828075408935547e+00 2.367541551589965820e+00 -1.273347884416580200e-01
4.970000000000000000e+02 6.706279754638671875e+01 -4.057680892944335938e+01 -3.355040028691291809e-02 8.016934394836425781e+00 2.395015239715576172e+00 -7.734199054539203644e-03
4.980000000000000000e+02 7.101522064208984375e+01 -3.808228302001953125e+01 -1.997170038521289825e-02 8.232836723327636719e+00 2.463859558105468750e+00 -1.917909830808639526e-02
4.990000000000000000e+02 7.096186828613281250e+01 -2.436330032348632812e+01 -2.374156564474105835e-02 8.184265136718750000e+00 2.448157072067260742e+00 -6.582779437303543091e-02
5.000000000000000000e+02 7.795225524902343750e+01 -4.163725662231445312e+01 1.957539469003677368e-02 8.624829292297363281e+00 2.593321323394775391e+00 5.489727482199668884e-03
5.010000000000000000e+02 7.790414428710937500e+01 -3.691963577270507812e+01 -2.151688560843467712e-03 8.609385490417480469e+00 2.582170009613037109e+00 5.257996730506420135e-03
5.020000000000000000e+02 7.929489898681640625e+01 -3.338568878173828125e+01 3.890143998432904482e-04 8.681422233581542969e+00 2.604543209075927734e+00 -4.608656745404005051e-03
5.030000000000000000e+02 7.800685119628906250e+01 -1.663489532470703125e+01 -1.837940420955419540e-03 8.467239379882812500e+00 2.539620637893676758e+00 -3.168135881423950195e-02
5.040000000000000000e+02 7.933415222167968750e+01 -1.250844478607177734e+01 -4.707719199359416962e-05 8.471221923828125000e+00 2.541352510452270508e+00 -1.663792878389358521e-02
5.050000000000000000e+02 7.316694641113281250e+01 -5.197306156158447266e+00 -3.342738002538681030e-02 8.071776390075683594e+00 2.411504507064819336e+00 -1.706656515598297119e-01
5.060000000000000000e+02 5.969586944580078125e+01 1.061048126220703125e+01 -2.340932339429855347e-01 7.875738620758056641e+00 2.292493581771850586e+00 -5.171697139739990234e-01
5.070000000000000000e+02 4.912498855590820312e+01 1.609716796875000000e+01 -4.086688756942749023e-01 8.233007431030273438e+00 2.347301483154296875e+00 -4.197476804256439209e-01
5.080000000000000000e+02 4.284462738037109375e+01 2.490082168579101562e+01 -1.012692749500274658e-01 9.012258529663085938e+00 2.673296689987182617e+00 -4.737572968006134033e-01
5.090000000000000000e+02 3.334367370605468750e+01 3.566606903076171875e+01 7.008924007415771484e+00 1.356749153137207031e+01 6.172924518585205078e+00 1.831631660461425781e+00
5.100000000000000000e+02 3.426285934448242188e+01 3.421689987182617188e+01 4.537293910980224609e+00 1.238928890228271484e+01 5.077974796295166016e+00 -3.217083513736724854e-01
5.110000000000000000e+02 3.525053787231445312e+01 3.483530426025390625e+01 4.363657951354980469e+00 1.132608318328857422e+01 4.706922531127929688e+00 3.465823233127593994e-01
5.120000000000000000e+02 3.315530395507812500e+01 3.476070404052734375e+01 6.587855815887451172e+00 1.410246849060058594e+01 6.207097530364990234e+00 -3.143097460269927979e-01
5.130000000000000000e+02 3.128021621704101562e+01 3.353402328491210938e+01 1.864652752876281738e+00 1.339055061340332031e+01 4.576560974121093750e+00 4.712499141693115234e+00
5.140000000000000000e+02 7.801570892333984375e+01 -9.642480850219726562e+00 -3.638622583821415901e-03 8.349130630493164062e+00 2.503647565841674805e+00 -4.750445485115051270e-02
5.150000000000000000e+02 7.935124969482421875e+01 -5.537658214569091797e+00 -1.119827968068420887e-03 8.311708450317382812e+00 2.493176460266113281e+00 -2.352617681026458740e-02
5.160000000000000000e+02 7.273020935058593750e+01 1.144477486610412598e+00 -4.477637633681297302e-02 7.927643775939941406e+00 2.364860296249389648e+00 -2.423910945653915405e-01
5.170000000000000000e+02 6.547813415527343750e+01 9.773857116699218750e+00 -1.347729414701461792e-01 7.783329963684082031e+00 2.294567108154296875e+00 -4.896443486213684082e-01
5.180000000000000000e+02 5.778478622436523438e+01 1.744148254394531250e+01 -1.504535824060440063e-01 7.964146137237548828e+00 2.344107866287231445e+00 -6.324926614761352539e-01
5.190000000000000000e+02 4.730160903930664062e+01 2.430936241149902344e+01 5.113485455513000488e-02 8.627038002014160156e+00 2.603451967239379883e+00 -6.606662869453430176e-01
5.200000000000000000e+02 4.100975418090820312e+01 2.853246879577636719e+01 4.560194611549377441e-01 9.405196189880371094e+00 2.958364725112915039e+00 -5.726359486579895020e-01
5.210000000000000000e+02 3.455642318725585938e+01 3.687056350708007812e+01 3.372779130935668945e+00 1.275247383117675781e+01 4.837575912475585938e+00 2.297741413116455078e+00
5.220000000000000000e+02 3.143019676208496094e+01 3.743173980712890625e+01 -9.591053724288940430e-01 1.408322334289550781e+01 3.937235593795776367e+00 -2.867789030075073242e+00
5.230000000000000000e+02 3.302936553955078125e+01 3.659431076049804688e+01 3.873937606811523438e+00 1.543394184112548828e+01 5.792363643646240234e+00 3.139758348464965820e+00
5.240000000000000000e+02 7.806630706787109375e+01 -2.694054365158081055e+00 -3.283044323325157166e-03 8.173592567443847656e+00 2.451092720031738281e+00 -6.776072829961776733e-02
5.250000000000000000e+02 7.933975219726562500e+01 2.825410604476928711e+00 -1.157925929874181747e-03 8.014557838439941406e+00 2.404020071029663086e+00 -3.456954658031463623e-02
5.260000000000000000e+02 7.228498077392578125e+01 7.821857452392578125e+00 -4.828125238418579102e-02 7.749006748199462891e+00 2.310217618942260742e+00 -3.268838524818420410e-01
5.270000000000000000e+02 6.733232879638671875e+01 1.789720916748046875e+01 -3.245311975479125977e-02 7.598490715026855469e+00 2.269811153411865234e+00 -5.551940202713012695e-01
5.280000000000000000e+02 5.756478500366210938e+01 2.030179023742675781e+01 -4.497797787189483643e-02 7.991946220397949219e+00 2.384090423583984375e+00 -6.817095875740051270e-01
5.290000000000000000e+02 4.835076904296875000e+01 2.825101661682128906e+01 4.930940270423889160e-01 8.581132888793945312e+00 2.722267866134643555e+00 -7.137772440910339355e-01
5.300000000000000000e+02 4.282526016235351562e+01 3.410606384277343750e+01 1.573817849159240723e+00 9.376317977905273438e+00 3.285040855407714844e+00 -2.770375907421112061e-01
5.310000000000000000e+02 3.651443099975585938e+01 3.682042312622070312e+01 2.685345172882080078e+00 1.103112888336181641e+01 4.114942073822021484e+00 1.180133938789367676e+00
5.320000000000000000e+02 7.800392913818359375e+01 4.298974990844726562e+00 -4.830304067581892014e-03 7.917488098144531250e+00 2.373797416687011719e+00 -9.523484110832214355e-02
5.330000000000000000e+02 7.933789825439453125e+01 8.415901184082031250e+00 -1.282550627365708351e-03 7.742762565612792969e+00 2.322443962097167969e+00 -4.204779490828514099e-02
5.340000000000000000e+02 7.330722808837890625e+01 1.873449897766113281e+01 -1.131589524447917938e-02 7.334366321563720703e+00 2.196915149688720703e+00 -3.685664832592010498e-01
5.350000000000000000e+02 6.415584564208984375e+01 2.318921470642089844e+01 6.929553300142288208e-02 7.626850605010986328e+00 2.308843851089477539e+00 -6.190129518508911133e-01
5.360000000000000000e+02 5.451992034912109375e+01 3.089712715148925781e+01 6.190011501312255859e-01 8.108464241027832031e+00 2.618239641189575195e+00 -6.173602342605590820e-01
5.370000000000000000e+02 4.838058090209960938e+01 3.713199615478515625e+01 1.298519134521484375e+00 8.693934440612792969e+00 2.997735977172851562e+00 -2.782954871654510498e-01
5.380000000000000000e+02 4.219945526123046875e+01 3.811692810058593750e+01 1.551338791847229004e+00 9.781462669372558594e+00 3.399840593338012695e+00 1.387542784214019775e-01
5.390000000000000000e+02 7.802222442626953125e+01 1.132906723022460938e+01 -2.913995180279016495e-03 7.578625202178955078e+00 2.272713422775268555e+00 -1.204688847064971924e-01
5.400000000000000000e+02 7.933658599853515625e+01 1.678111267089843750e+01 -9.703762480057775974e-04 7.227523326873779297e+00 2.167965888977050781e+00 -5.037388578057289124e-02
5.410000000000000000e+02 6.239033889770507812e+01 3.316770935058593750e+01 4.155345559120178223e-01 7.561330318450927734e+00 2.393059492111206055e+00 -4.378570914268493652e-01
5.420000000000000000e+02 5.283257675170898438e+01 3.681588363647460938e+01 9.869457483291625977e-01 8.202238082885742188e+00 2.756755113601684570e+00 -3.389488160610198975e-01
5.430000000000000000e+02 5.263035583496093750e+01 4.066848373413085938e+01 1.097727417945861816e+00 8.196797370910644531e+00 2.788357496261596680e+00 -1.183994039893150330e-01
5.440000000000000000e+02 7.800323486328125000e+01 1.970024681091308594e+01 1.021239557303488255e-03 7.085665225982666016e+00 2.126005887985229492e+00 -1.389786750078201294e-01
5.450000000000000000e+02 7.930297088623046875e+01 2.377461051940917969e+01 2.318610902875661850e-03 6.747959613800048828e+00 2.025083541870117188e+00 -5.039743334054946899e-02
5.460000000000000000e+02 7.115050506591796875e+01 3.088659477233886719e+01 1.234754770994186401e-01 7.050924301147460938e+00 2.152319908142089844e+00 -3.425799906253814697e-01
5.470000000000000000e+02 6.235847473144531250e+01 4.074734497070312500e+01 5.510513186454772949e-01 7.503395080566406250e+00 2.416333913803100586e+00 -9.576579183340072632e-02
5.480000000000000000e+02 5.750278854370117188e+01 4.064379501342773438e+01 8.147768378257751465e-01 7.829834938049316406e+00 2.593383550643920898e+00 -9.638009965419769287e-02
5.490000000000000000e+02 7.664999389648437500e+01 2.261965179443359375e+01 3.606854472309350967e-03 6.983624458312988281e+00 2.096169471740722656e+00 -2.132985889911651611e-01
5.500000000000000000e+02 7.929838562011718750e+01 2.937190818786621094e+01 2.672933274880051613e-03 6.392805099487304688e+00 1.918643355369567871e+00 -4.588511958718299866e-02
5.510000000000000000e+02 6.653845214843750000e+01 3.739271926879882812e+01 3.167219758033752441e-01 7.246591567993164062e+00 2.268994092941284180e+00 -2.226271182298660278e-01
5.520000000000000000e+02 7.933127593994140625e+01 3.217813110351562500e+01 4.392093978822231293e-03 6.244521617889404297e+00 1.874674081802368164e+00 -3.664125874638557434e-02
5.530000000000000000e+02 7.908644104003906250e+01 3.740706253051757812e+01 8.168593980371952057e-03 6.143332481384277344e+00 1.845450282096862793e+00 7.781710475683212280e-03
5.540000000000000000e+02 7.055451202392578125e+01 3.735149002075195312e+01 1.699013113975524902e-01 6.934748172760009766e+00 2.131394863128662109e+00 -1.754196733236312866e-01
5.550000000000000000e+02 7.710713958740234375e+01 3.897062683105468750e+01 2.535627409815788269e-02 6.245459556579589844e+00 1.881244778633117676e+00 -1.891713961958885193e-02
5.560000000000000000e+02 2.963243865966796875e+01 3.764107131958007812e+01 6.220556497573852539e-01 3.022467613220214844e+00 1.093356966972351074e+00 -2.301639795303344727e+00
5.570000000000000000e+02 2.875889015197753906e+01 3.778690338134765625e+01 2.102482467889785767e-01 1.676356792449951172e+00 5.659815073013305664e-01 -1.162742733955383301e+00
5.580000000000000000e+02 2.347628021240234375e+01 3.837470626831054688e+01 -2.983489036560058594e-01 -3.330553770065307617e-01 -1.894212812185287476e-01 5.292671918869018555e-01
5.590000000000000000e+02 2.597953224182128906e+01 3.846345138549804688e+01 -2.922162413597106934e-01 -1.875203251838684082e-01 -1.439209729433059692e-01 5.429252982139587402e-01
5.600000000000000000e+02 2.311274719238281250e+01 3.977621459960937500e+01 2.175455093383789062e-01 -4.569745957851409912e-01 -7.182872295379638672e-02 4.309878945350646973e-01
5.610000000000000000e+02 2.176812744140625000e+01 3.837467193603515625e+01 -2.236727327108383179e-01 -1.500796824693679810e-01 -1.121257245540618896e-01 3.968714177608489990e-01
5.620000000000000000e+02 2.014568138122558594e+01 3.869207382202148438e+01 -2.118109762668609619e-01 -1.480807214975357056e-01 -1.079675108194351196e-01 1.964665651321411133e-01
5.630000000000000000e+02 1.946118474006652832e+00 2.604422187805175781e+01 3.346634795889258385e-03 4.896823083981871605e-04 1.150895142927765846e-03 -1.003620796836912632e-03
5.640000000000000000e+02 1.889470458030700684e+00 3.017325973510742188e+01 -4.439393989741802216e-03 1.631785882636904716e-03 -8.422824321314692497e-04 -1.213426701724529266e-03
5.650000000000000000e+02 4.264074325561523438e+00 3.752658462524414062e+01 -2.265323186293244362e-03 6.313274148851633072e-03 1.214385265484452248e-03 -7.467248942703008652e-04
5.660000000000000000e+02 1.998396754264831543e+00 4.161726760864257812e+01 3.131579142063856125e-03 6.539126858115196228e-03 2.901211846619844437e-03 9.662462980486452579e-04
5.670000000000000000e+02 1.452939891815185547e+01 3.726576995849609375e+01 -8.695534430444240570e-03 -4.736976989079266787e-04 -2.750769723206758499e-03 1.786363660357892513e-03
5.680000000000000000e+02 1.226610183715820312e+01 3.771293258666992188e+01 7.317954674363136292e-03 -1.191510166972875595e-02 -1.379144028760492802e-03 -7.057105656713247299e-03
5.690000000000000000e+02 1.462280845642089844e+01 2.289153289794921875e+01 -5.941102281212806702e-03 -2.460955001879483461e-04 -1.856159302406013012e-03 -3.156365419272333384e-04
5.700000000000000000e+02 1.449143409729003906e+01 1.738689422607421875e+01 -4.507440142333507538e-03 -1.231638016179203987e-04 -1.389181241393089294e-03 7.862804341129958630e-05
5.710000000000000000e+02 1.447802829742431641e+01 1.043927383422851562e+01 3.074337495490908623e-03 -9.162673086393624544e-05 8.948132744990289211e-04 -2.338082231290172786e-05
5.720000000000000000e+02 1.475999164581298828e+01 1.958333253860473633e+00 5.834663170389831066e-04 1.789275702321901917e-04 2.287181705469265580e-04 2.167156162613537163e-05
5.730000000000000000e+02 1.185910797119140625e+01 1.925422191619873047e+00 3.365426964592188597e-04 2.632984542287886143e-04 1.799523452064022422e-04 3.748729650396853685e-04
5.740000000000000000e+02 6.600425839424133301e-01 3.461843872070312500e+01 -3.637301269918680191e-03 4.946230910718441010e-03 3.926789213437587023e-04 1.093087339540943503e-04
5.750000000000000000e+02 6.377345919609069824e-01 2.757896995544433594e+01 4.096596967428922653e-03 4.905603127554059029e-04 1.376147149130702019e-03 -7.165780989453196526e-04
5.760000000000000000e+02 6.549594402313232422e-01 2.051551437377929688e+01 -2.260084729641675949e-03 -1.577550283400341868e-04 -7.253519142977893353e-04 2.458803937770426273e-04
5.770000000000000000e+02 1.890412807464599609e+00 1.612782669067382812e+01 -2.173636807128787041e-03 -7.827606896171346307e-05 -6.755738286301493645e-04 1.913885498652234674e-04
5.780000000000000000e+02 1.168593978881835938e+01 1.145323467254638672e+01 -1.342328730970621109e-03 1.512167800683528185e-04 -3.573335707187652588e-04 -8.731030393391847610e-04
5.790000000000000000e+02 1.319712162017822266e+01 1.610057640075683594e+01 -3.867195220664143562e-03 -8.078269456746056676e-05 -1.184393418952822685e-03 1.772582763805985451e-04
5.800000000000000000e+02 1.203449249267578125e+01 1.886018180847167969e+01 3.785259788855910301e-03 2.634790434967726469e-04 1.214621588587760925e-03 -1.686818432062864304e-04
5.810000000000000000e+02 1.345095157623291016e+01 2.420451354980468750e+01 -5.519998259842395782e-03 -3.542896301951259375e-04 -1.762286294251680374e-03 -6.033873069100081921e-04
5.820000000000000000e+02 1.352911663055419922e+01 2.555907821655273438e+01 6.289484445005655289e-03 6.818592082709074020e-04 2.091403119266033173e-03 1.380749279633164406e-03
5.830000000000000000e+02 1.233776378631591797e+01 2.814314079284667969e+01 -3.628269303590059280e-03 -6.274583865888416767e-04 -1.276718336157500744e-03 1.096652777050621808e-04
5.840000000000000000e+02 6.202864050865173340e-01 1.485903930664062500e+01 -1.823577098548412323e-03 -7.219619874376803637e-05 -5.687319790013134480e-04 1.900542556541040540e-04
5.850000000000000000e+02 1.749951601028442383e+00 9.045961380004882812e+00 1.517915166914463043e-03 1.901185532915405929e-05 4.610781033989042044e-04 -2.431032771710306406e-04
5.860000000000000000e+02 8.055509567260742188e+00 2.526096343994140625e+00 5.034420173615217209e-04 4.368798981886357069e-04 2.820965892169624567e-04 -3.748666495084762573e-05
5.870000000000000000e+02 8.885040283203125000e+00 1.852710008621215820e+00 3.170955460518598557e-04 4.542309034150093794e-04 2.313979348400607705e-04 3.856150578940287232e-05
5.880000000000000000e+02 1.250545144081115723e+00 3.382356643676757812e+00 5.812804447486996651e-04 1.270678912987932563e-04 2.125044993590563536e-04 -3.062676114495843649e-04
5.890000000000000000e+02 5.241834521293640137e-01 6.370693206787109375e+00 -9.961409959942102432e-04 -4.836910738958977163e-05 -3.133530553895980120e-04 1.605166180524975061e-04
5.900000000000000000e+02 3.828284740447998047e+00 3.560316562652587891e+00 -9.086063946597278118e-04 -6.055471021682024002e-04 -4.542460374068468809e-04 -2.360073267482221127e-05
5.910000000000000000e+02 1.324608612060546875e+01 1.040979003906250000e+01 -2.768752397969365120e-03 1.442452485207468271e-04 -7.873521535657346249e-04 -5.023340345360338688e-04
5.920000000000000000e+02 1.451070880889892578e+01 2.013880538940429688e+01 -5.146860145032405853e-03 -2.120362041750922799e-04 -1.607668935321271420e-03 -6.220527575351297855e-05
5.930000000000000000e+02 1.532633399963378906e+01 3.132149314880371094e+01 -8.347123861312866211e-03 6.113967392593622208e-03 -6.699468940496444702e-04 4.810250364243984222e-03
5.940000000000000000e+02 1.518596935272216797e+01 2.982581901550292969e+01 1.122811995446681976e-02 2.486581914126873016e-03 4.114410374313592911e-03 1.822740072384476662e-03
5.950000000000000000e+02 1.806118965148925781e+01 3.805309677124023438e+01 -8.356951177120208740e-02 8.360517024993896484e-02 1.069680274667916819e-05 5.649036169052124023e-02
5.960000000000000000e+02 1.815408706665039062e+01 3.943493270874023438e+01 2.215681970119476318e-02 -2.170494049787521362e-01 -5.846777558326721191e-02 9.422782808542251587e-02
5.970000000000000000e+02 1.168345928192138672e+01 4.106772994995117188e+01 -1.424650894477963448e-03 -2.529940567910671234e-02 -8.017216809093952179e-03 8.739426732063293457e-03
5.980000000000000000e+02 1.978633689880371094e+01 3.790020751953125000e+01 -2.689303159713745117e-01 -1.054846867918968201e-01 -1.123244985938072205e-01 1.961115300655364990e-01
5.990000000000000000e+02 2.775735473632812500e+01 2.259833526611328125e+01 -3.765417337417602539e-01 5.360177516937255859e+00 1.495090723037719727e+00 1.680733084678649902e+00
6.000000000000000000e+02 2.645506477355957031e+01 2.598707580566406250e+01 6.983857601881027222e-02 4.129986763000488281e+00 1.259947657585144043e+00 1.818423271179199219e+00
6.010000000000000000e+02 3.713436126708984375e+01 2.283552932739257812e+01 -7.363076806068420410e-01 8.827633857727050781e+00 2.427397727966308594e+00 4.090761840343475342e-01
6.020000000000000000e+02 4.101927947998046875e+01 2.666493606567382812e+01 6.342791765928268433e-02 9.284556388854980469e+00 2.804395198822021484e+00 -4.530876874923706055e-01
6.030000000000000000e+02 5.681944656372070312e+01 2.232102584838867188e+01 3.458664938807487488e-02 8.009085655212402344e+00 2.413101673126220703e+00 -6.954758167266845703e-01
6.040000000000000000e+02 6.424079895019531250e+01 2.611012077331542969e+01 1.356595307588577271e-01 7.565360546112060547e+00 2.310305833816528320e+00 -5.829907059669494629e-01
6.050000000000000000e+02 7.264746856689453125e+01 2.613255882263183594e+01 4.923901706933975220e-02 7.092661380767822266e+00 2.142570018768310547e+00 -3.801463842391967773e-01
6.060000000000000000e+02 6.928848266601562500e+01 2.904899597167968750e+01 1.611047983169555664e-01 7.213150978088378906e+00 2.212276697158813477e+00 -4.251681268215179443e-01
6.070000000000000000e+02 5.752628707885742188e+01 3.664897537231445312e+01 7.445517182350158691e-01 7.844077587127685547e+00 2.576588630676269531e+00 -3.315077424049377441e-01
6.080000000000000000e+02 5.200158691406250000e+01 3.324182128906250000e+01 8.750478029251098633e-01 8.279420852661132812e+00 2.746340751647949219e+00 -5.435323715209960938e-01
6.090000000000000000e+02 4.115604782104492188e+01 3.063344383239746094e+01 1.051710605621337891e+00 9.481405258178710938e+00 3.159934759140014648e+00 -5.732007026672363281e-01
6.100000000000000000e+02 3.359085845947265625e+01 1.650296401977539062e+01 -7.162546515464782715e-01 7.235395431518554688e+00 1.955742239952087402e+00 9.702529311180114746e-01
6.110000000000000000e+02 3.335648345947265625e+01 1.785026550292968750e+01 -7.479376792907714844e-01 7.315431118011474609e+00 1.970247983932495117e+00 1.039108157157897949e+00
6.120000000000000000e+02 4.044107437133789062e+01 1.802168464660644531e+01 -7.192193269729614258e-01 8.334667205810546875e+00 2.284634351730346680e+00 1.743005961179733276e-01
6.130000000000000000e+02 4.687984848022460938e+01 1.954211425781250000e+01 -3.601360917091369629e-01 8.450160026550292969e+00 2.427006959915161133e+00 -4.441742300987243652e-01
6.140000000000000000e+02 5.921017837524414062e+01 1.586451053619384766e+01 -1.648390293121337891e-01 7.911867141723632812e+00 2.324108362197875977e+00 -6.178424954414367676e-01
6.150000000000000000e+02 6.361832427978515625e+01 1.863319396972656250e+01 -4.626250639557838440e-02 7.730299949645996094e+00 2.305211067199707031e+00 -6.244871020317077637e-01
6.160000000000000000e+02 2.717857933044433594e+01 1.724193000793457031e+01 -3.415161669254302979e-01 5.396092414855957031e+00 1.516372919082641602e+00 1.189654827117919922e+00
6.170000000000000000e+02 2.741242027282714844e+01 1.301543617248535156e+01 -2.516861855983734131e-01 5.690876960754394531e+00 1.631757259368896484e+00 9.180507063865661621e-01
6.180000000000000000e+02 2.615880012512207031e+01 4.329036235809326172e+00 7.967329584062099457e-03 5.875491142272949219e+00 1.765037536621093750e+00 4.665808677673339844e-01
6.190000000000000000e+02 2.611782455444335938e+01 2.902479410171508789e+00 2.805317053571343422e-03 5.912596225738525391e+00 1.774620532989501953e+00 4.104879498481750488e-01
6.200000000000000000e+02 3.461109161376953125e+01 -2.423766613006591797e+00 -2.056848555803298950e-01 6.617262363433837891e+00 1.923473238945007324e+00 3.013741075992584229e-01
6.210000000000000000e+02 3.473876190185546875e+01 5.434666156768798828e+00 -3.519330918788909912e-01 6.786612510681152344e+00 1.930403828620910645e+00 5.095509290695190430e-01
6.220000000000000000e+02 3.434150695800781250e+01 1.102169609069824219e+01 -5.255155563354492188e-01 6.969000816345214844e+00 1.933045506477355957e+00 7.170794606208801270e-01
6.230000000000000000e+02 2.880884170532226562e+01 1.018941211700439453e+01 -2.388602942228317261e-01 6.041670322418212891e+00 1.740843057632446289e+00 8.057535290718078613e-01
6.240000000000000000e+02 4.108438491821289062e+01 1.004994106292724609e+01 -6.021320819854736328e-01 7.648600101470947266e+00 2.113940477371215820e+00 2.456587851047515869e-01
6.250000000000000000e+02 4.066695785522460938e+01 1.100158500671386719e+01 -6.172364950180053711e-01 7.679386138916015625e+00 2.118644952774047852e+00 2.747439742088317871e-01
6.260000000000000000e+02 4.586319732666015625e+01 1.396243095397949219e+01 -5.637219548225402832e-01 8.134577751159667969e+00 2.271256685256958008e+00 -1.568001061677932739e-01
6.270000000000000000e+02 5.936129379272460938e+01 8.888263702392578125e+00 -2.499515414237976074e-01 7.869834899902343750e+00 2.285964965820312500e+00 -4.809432029724121094e-01
6.280000000000000000e+02 6.449858856201171875e+01 7.960928440093994141e+00 -1.617574542760848999e-01 7.812080860137939453e+00 2.295097112655639648e+00 -4.662838578224182129e-01
6.290000000000000000e+02 7.276597595214843750e+01 1.187834739685058594e+01 -3.586367517709732056e-02 7.614040374755859375e+00 2.273452997207641602e+00 -3.581278324127197266e-01
6.300000000000000000e+02 2.104822921752929688e+01 1.838928604125976562e+01 -9.047227911651134491e-03 3.208848237991333008e+00 9.599403142929077148e-01 1.800476163625717163e-01
6.310000000000000000e+02 2.105666351318359375e+01 1.698446464538574219e+01 -6.004596129059791565e-03 3.606404542922973633e+00 1.080119967460632324e+00 1.634098291397094727e-01
6.320000000000000000e+02 2.107604789733886719e+01 9.949402809143066406e+00 -4.228544421494007111e-03 5.076527118682861328e+00 1.521689534187316895e+00 1.043705046176910400e-01
6.330000000000000000e+02 2.102019309997558594e+01 4.302356719970703125e+00 1.036264672875404358e-01 6.102199077606201172e+00 1.861747622489929199e+00 3.218044638633728027e-01
6.340000000000000000e+02 2.106163215637207031e+01 5.717186927795410156e+00 5.055684596300125122e-02 5.893740653991699219e+00 1.783289194107055664e+00 1.639514118432998657e-01
6.350000000000000000e+02 5.223543548583984375e+01 2.209248304367065430e+00 -3.601771593093872070e-01 7.702606201171875000e+00 2.202728748321533203e+00 -2.129584550857543945e-01
6.360000000000000000e+02 4.741675567626953125e+01 2.016117334365844727e+00 -4.072189331054687500e-01 7.566273212432861328e+00 2.147716283798217773e+00 -5.493504554033279419e-02
6.370000000000000000e+02 5.728130722045898438e+01 3.841841697692871094e+00 -2.964221537113189697e-01 7.811033248901367188e+00 2.254383325576782227e+00 -3.502122163772583008e-01
6.380000000000000000e+02 6.491003417968750000e+01 3.682594776153564453e+00 -1.521925330162048340e-01 7.829401016235351562e+00 2.303162574768066406e+00 -3.888130784034729004e-01
6.390000000000000000e+02 7.220212554931640625e+01 3.995206594467163086e+00 -5.295344442129135132e-02 7.851332187652587891e+00 2.339513540267944336e+00 -2.873400449752807617e-01
6.400000000000000000e+02 2.107183265686035156e+01 1.276539611816406250e+01 -6.625520996749401093e-03 4.570017814636230469e+00 1.369017720222473145e+00 1.206729859113693237e-01
6.410000000000000000e+02 4.182275009155273438e+01 5.061809062957763672e+00 -4.782715141773223877e-01 7.408084869384765625e+00 2.078943967819213867e+00 1.920046061277389526e-01
6.420000000000000000e+02 5.819993972778320312e+01 -1.705780744552612305e+00 -2.420802414417266846e-01 7.743843078613281250e+00 2.250528812408447266e+00 -2.752233445644378662e-01
6.430000000000000000e+02 5.943494415283203125e+01 -5.819202899932861328e+00 -1.887559145689010620e-01 7.736320495605468750e+00 2.264269351959228516e+00 -2.377111315727233887e-01
6.440000000000000000e+02 6.727592468261718750e+01 -5.161497592926025391e+00 -9.805066883563995361e-02 7.913613319396972656e+00 2.344668865203857422e+00 -2.466506212949752808e-01
6.450000000000000000e+02 7.026304626464843750e+01 -5.046400070190429688e+00 -6.120853126049041748e-02 7.988447189331054688e+00 2.378171443939208984e+00 -2.178940922021865845e-01
6.460000000000000000e+02 2.866807746887207031e+01 -3.856818914413452148e+00 -9.695926308631896973e-02 6.179112911224365234e+00 1.824646115303039551e+00 3.137007355690002441e-01
6.470000000000000000e+02 2.741201591491699219e+01 -1.090028667449951172e+01 -1.814025454223155975e-02 6.065053462982177734e+00 1.814074039459228516e+00 2.312398701906204224e-01
6.480000000000000000e+02 3.359223937988281250e+01 -1.341004848480224609e+01 -9.745228290557861328e-02 6.420642375946044922e+00 1.896957039833068848e+00 1.440208256244659424e-01
6.490000000000000000e+02 4.462754058837890625e+01 -2.356981277465820312e+01 -1.172128468751907349e-01 6.933441638946533203e+00 2.044868707656860352e+00 -1.653511635959148407e-02
6.500000000000000000e+02 4.626163101196289062e+01 -3.431460952758789062e+01 -1.151105016469955444e-01 6.993811607360839844e+00 2.063610315322875977e+00 -2.405076287686824799e-02
6.510000000000000000e+02 3.615353012084960938e+01 -1.210972547531127930e+00 -2.548128366470336914e-01 6.763149261474609375e+00 1.952500820159912109e+00 2.985910475254058838e-01
6.520000000000000000e+02 4.461526489257812500e+01 -1.500694274902343750e+01 -1.735027581453323364e-01 7.019067764282226562e+00 2.053669452667236328e+00 1.303052413277328014e-03
6.530000000000000000e+02 5.706662750244140625e+01 -2.578419494628906250e+01 -9.598500281572341919e-02 7.538026809692382812e+00 2.232612609863281250e+00 -7.228624075651168823e-02
6.540000000000000000e+02 4.280356597900390625e+01 8.943387866020202637e-02 -3.716533780097961426e-01 7.258424282073974609e+00 2.066031217575073242e+00 1.110623031854629517e-01
6.550000000000000000e+02 4.595619964599609375e+01 -7.519182682037353516e+00 -2.544010281562805176e-01 7.219238758087158203e+00 2.089451313018798828e+00 -2.209429163485765457e-03
6.560000000000000000e+02 4.981301879882812500e+01 -1.316889286041259766e+01 -1.887469440698623657e-01 7.294433116912841797e+00 2.131705760955810547e+00 -6.409199535846710205e-02
6.570000000000000000e+02 5.974886322021484375e+01 -1.679078865051269531e+01 -1.142313852906227112e-01 7.682286739349365234e+00 2.270416498184204102e+00 -1.327312737703323364e-01
6.580000000000000000e+02 6.512720489501953125e+01 -1.384133338928222656e+01 -8.661754429340362549e-02 7.884850025177001953e+00 2.339469909667968750e+00 -1.642081737518310547e-01
6.590000000000000000e+02 6.170472717285156250e+01 -1.191089725494384766e+01 -1.284756213426589966e-01 7.767389774322509766e+00 2.291674137115478516e+00 -1.793876290321350098e-01
6.600000000000000000e+02 7.132623291015625000e+01 -1.012203502655029297e+01 -4.153937101364135742e-02 8.085617065429687500e+00 2.413223266601562500e+00 -1.546221375465393066e-01
6.610000000000000000e+02 2.888121795654296875e+01 -9.257163047790527344e+00 -5.730006471276283264e-02 6.163830757141113281e+00 1.831959247589111328e+00 2.468921393156051636e-01
6.620000000000000000e+02 2.755831527709960938e+01 -1.591350650787353516e+01 -3.702238574624061584e-02 6.047880172729492188e+00 1.803257346153259277e+00 1.551475077867507935e-01
6.630000000000000000e+02 3.559098434448242188e+01 -2.485326576232910156e+01 -8.105751127004623413e-02 6.425002574920654297e+00 1.903183460235595703e+00 4.199555143713951111e-02
6.640000000000000000e+02 4.576773071289062500e+01 -3.103726577758789062e+01 -1.156444475054740906e-01 6.975717067718505859e+00 2.058021783828735352e+00 -3.382260352373123169e-02
6.650000000000000000e+02 3.780027770996093750e+01 -6.633710384368896484e+00 -2.072533816099166870e-01 6.763586044311523438e+00 1.966899752616882324e+00 1.776130646467208862e-01
6.660000000000000000e+02 4.599149322509765625e+01 -9.325991630554199219e+00 -2.322751730680465698e-01 7.179789543151855469e+00 2.084254264831542969e+00 -6.626797374337911606e-03
6.670000000000000000e+02 5.250987243652343750e+01 -1.031255817413330078e+01 -2.117876261472702026e-01 7.452385902404785156e+00 2.172179460525512695e+00 -1.125363558530807495e-01
6.680000000000000000e+02 7.293759918212890625e+01 -1.979586219787597656e+01 -1.802588999271392822e-02 8.253963470458984375e+00 2.470781087875366211e+00 -7.467303425073623657e-02
6.690000000000000000e+02 7.093689727783203125e+01 -1.751144027709960938e+01 -3.114833682775497437e-02 8.142772674560546875e+00 2.433487176895141602e+00 -1.042412891983985901e-01
6.700000000000000000e+02 2.008044433593750000e+01 -1.534828853607177734e+01 6.340718269348144531e-02 5.839865684509277344e+00 1.770981907844543457e+00 4.614973366260528564e-01
6.710000000000000000e+02 2.958320426940917969e+01 -1.666154479980468750e+01 -6.206117570400238037e-02 6.157194137573242188e+00 1.828539848327636719e+00 1.432945430278778076e-01
6.720000000000000000e+02 3.626988601684570312e+01 -1.757583427429199219e+01 -1.037298589944839478e-01 6.540825366973876953e+00 1.931128621101379395e+00 8.359993249177932739e-02
6.730000000000000000e+02 4.512331008911132812e+01 -1.659186744689941406e+01 -1.625383347272872925e-01 7.030908107757568359e+00 2.060510873794555664e+00 -3.790162038058042526e-03
6.740000000000000000e+02 5.353374862670898438e+01 -1.800391387939453125e+01 -1.444409191608428955e-01 7.412323474884033203e+00 2.180364608764648438e+00 -9.226474910974502563e-02
6.750000000000000000e+02 2.828561019897460938e+01 -2.638554382324218750e+01 -3.298120945692062378e-02 6.018516063690185547e+00 1.795660376548767090e+00 1.341587752103805542e-01
6.760000000000000000e+02 3.823468780517578125e+01 -2.308009529113769531e+01 -1.044680923223495483e-01 6.595113277435302734e+00 1.947193622589111328e+00 2.654311060905456543e-02
6.770000000000000000e+02 4.326373672485351562e+01 -2.530392456054687500e+01 -1.178398430347442627e-01 6.853520870208740234e+00 2.020704269409179688e+00 -1.068214699625968933e-02
6.780000000000000000e+02 4.854420471191406250e+01 -2.251509094238281250e+01 -1.280160546302795410e-01 7.133075237274169922e+00 2.101517677307128906e+00 -4.242321476340293884e-02
6.790000000000000000e+02 6.602440643310546875e+01 -2.919318008422851562e+01 -4.192351922392845154e-02 7.972788333892822266e+00 2.379259586334228516e+00 -6.111433357000350952e-02
6.800000000000000000e+02 3.721336364746093750e+01 -3.804270935058593750e+01 -1.507059037685394287e-01 6.479595184326171875e+00 1.898666739463806152e+00 -2.842086926102638245e-02
6.810000000000000000e+02 5.921421432495117188e+01 -3.232103347778320312e+01 -7.534475624561309814e-02 7.627922058105468750e+00 2.265773296356201172e+00 -4.732382670044898987e-02
6.820000000000000000e+02 7.199855041503906250e+01 -3.335019683837890625e+01 -1.358474884182214737e-02 8.268141746520996094e+00 2.476366996765136719e+00 -2.899156138300895691e-02
6.830000000000000000e+02 1.130382347106933594e+01 -3.225397491455078125e+01 -1.970955170691013336e-02 -3.257601521909236908e-03 -6.890146061778068542e-03 1.681900396943092346e-02
6.840000000000000000e+02 1.440399169921875000e+01 -1.764806556701660156e+01 4.885017871856689453e-03 5.749072297476232052e-04 1.637977431528270245e-03 -1.079236390069127083e-03
6.850000000000000000e+02 1.168587684631347656e+01 -1.700077629089355469e+01 2.883508335798978806e-03 1.052776118740439415e-03 1.180885359644889832e-03 -9.569293470121920109e-04
6.860000000000000000e+02 1.457047748565673828e+01 -1.069828796386718750e+01 -3.375285072252154350e-03 -9.527208021609112620e-05 -1.041167182847857475e-03 3.168563416693359613e-04
6.870000000000000000e+02 1.239738845825195312e+01 -1.049882888793945312e+01 -2.570092212408781052e-03 -3.003345918841660023e-04 -8.611280936747789383e-04 4.644788568839430809e-04
6.880000000000000000e+02 5.899023413658142090e-01 -1.065854549407958984e+01 -1.636693836189806461e-03 -3.646878030849620700e-05 -5.019487580284476280e-04 -9.130388207267969847e-05
6.890000000000000000e+02 1.338116836547851562e+01 9.079042434692382812e+00 2.507610712200403214e-03 -8.863672519510146230e-06 7.496241014450788498e-04 4.658063699025660753e-04
6.900000000000000000e+02 2.623841857910156250e+01 3.443975448608398438e+01 2.143936008214950562e-01 2.880926430225372314e-01 1.507458686828613281e-01 -2.114361338317394257e-02
6.910000000000000000e+02 2.470707893371582031e+01 3.448377990722656250e+01 -4.052010178565979004e-02 1.436855494976043701e-01 3.094963170588016510e-02 -2.716343104839324951e-01
6.920000000000000000e+02 2.098831558227539062e+01 2.962426376342773438e+01 2.608496509492397308e-02 -7.179569602012634277e-01 -2.075615972280502319e-01 9.854250401258468628e-02
6.930000000000000000e+02 2.100196838378906250e+01 2.822304153442382812e+01 2.323710732161998749e-02 -3.967832028865814209e-01 -1.120638325810432434e-01 1.608604788780212402e-01
6.940000000000000000e+02 2.213894462585449219e+01 2.400821113586425781e+01 -1.076842471957206726e-02 1.836278319358825684e+00 5.476529598236083984e-01 6.523742675781250000e-01
6.950000000000000000e+02 2.100473785400390625e+01 2.399918556213378906e+01 -4.793865140527486801e-03 1.183548808097839355e+00 3.536264896392822266e-01 2.316532582044601440e-01
6.960000000000000000e+02 2.102602005004882812e+01 2.119530296325683594e+01 -8.886075578629970551e-03 2.280452728271484375e+00 6.814699769020080566e-01 2.120323181152343750e-01
6.970000000000000000e+02 2.231622886657714844e+01 1.563325119018554688e+01 -3.345905616879463196e-02 4.201443195343017578e+00 1.250395298004150391e+00 4.271616935729980469e-01
6.980000000000000000e+02 2.106281280517578125e+01 1.557838630676269531e+01 -8.529866114258766174e-03 3.962706327438354492e+00 1.186252951622009277e+00 1.472281664609909058e-01
6.990000000000000000e+02 2.106779289245605469e+01 1.417201995849609375e+01 -4.593178629875183105e-03 4.282193183898925781e+00 1.283280014991760254e+00 1.329840719699859619e-01
7.000000000000000000e+02 2.235346794128417969e+01 1.140864562988281250e+01 -2.147516421973705292e-02 4.966462612152099609e+00 1.483496189117431641e+00 3.251317739486694336e-01
7.010000000000000000e+02 2.107512283325195312e+01 8.540091514587402344e+00 4.201760515570640564e-03 5.312768459320068359e+00 1.595091104507446289e+00 1.047620102763175964e-01
7.020000000000000000e+02 2.107035255432128906e+01 7.129983425140380859e+00 -1.864519552327692509e-03 5.550672531127929688e+00 1.664642453193664551e+00 1.072723269462585449e-01
7.030000000000000000e+02 2.227334594726562500e+01 4.306969642639160156e+00 1.622663587331771851e-01 5.753734111785888672e+00 1.774800181388854980e+00 3.287692070007324219e-01
7.040000000000000000e+02 2.092425346374511719e+01 2.892935991287231445e+00 8.290251344442367554e-02 5.911419391632080078e+00 1.798296570777893066e+00 4.589702486991882324e-01
7.050000000000000000e+02 2.079987716674804688e+01 1.493657946586608887e+00 -3.151841927319765091e-03 5.535242080688476562e+00 1.659627199172973633e+00 4.404251575469970703e-01
7.060000000000000000e+02 2.070200920104980469e+01 9.784133732318878174e-02 -6.280517578125000000e-02 5.417495250701904297e+00 1.606407046318054199e+00 3.072834014892578125e-01
7.070000000000000000e+02 2.047568893432617188e+01 -4.112643718719482422e+00 -2.452841028571128845e-02 5.460906982421875000e+00 1.630913615226745605e+00 3.516897857189178467e-01
7.080000000000000000e+02 2.190696144104003906e+01 -2.712251901626586914e+00 5.304528027772903442e-02 5.648780822753906250e+00 1.710547804832458496e+00 2.602926790714263916e-01
7.090000000000000000e+02 2.034910583496093750e+01 -8.312477111816406250e+00 6.618603598326444626e-03 5.765947818756103516e+00 1.731769919395446777e+00 1.061208769679069519e-01
7.100000000000000000e+02 2.023610877990722656e+01 -1.253064155578613281e+01 4.484930075705051422e-03 5.963232994079589844e+00 1.790315389633178711e+00 2.053347080945968628e-01
7.110000000000000000e+02 2.027892684936523438e+01 -1.112472629547119141e+01 -6.676057237200438976e-04 5.865889549255371094e+00 1.759566664695739746e+00 2.135218083858489990e-01
7.120000000000000000e+02 2.158479499816894531e+01 -1.250577163696289062e+01 7.471449673175811768e-02 5.938512325286865234e+00 1.803967952728271484e+00 3.109498918056488037e-01
7.130000000000000000e+02 1.979887771606445312e+01 -1.954547119140625000e+01 -5.711297690868377686e-02 5.227818965911865234e+00 1.551211714744567871e+00 1.911185234785079956e-01
7.140000000000000000e+02 2.133743858337402344e+01 -1.812548446655273438e+01 -1.108304858207702637e-01 5.624497413635253906e+00 1.654100060462951660e+00 2.338583469390869141e-01
7.150000000000000000e+02 1.978079414367675781e+01 -2.236476135253906250e+01 1.874499395489692688e-02 5.451503276824951172e+00 1.641074419021606445e+00 1.751580387353897095e-01
7.160000000000000000e+02 1.971580886840820312e+01 -2.659464836120605469e+01 -2.466820552945137024e-02 5.537485599517822266e+00 1.653845191001892090e+00 5.254371836781501770e-02
7.170000000000000000e+02 1.972577667236328125e+01 -2.518114089965820312e+01 2.786922967061400414e-03 5.431828498840332031e+00 1.630384683609008789e+00 7.059073448181152344e-02
7.180000000000000000e+02 1.968591308593750000e+01 -2.941070365905761719e+01 -2.230180799961090088e-02 5.721722126007080078e+00 1.709825992584228516e+00 5.033431947231292725e-02
7.190000000000000000e+02 1.969386100769042969e+01 -3.221313476562500000e+01 -3.355206549167633057e-02 5.991125583648681641e+00 1.787271976470947266e+00 9.416404366493225098e-02
7.200000000000000000e+02 2.123618698120117188e+01 -3.221749496459960938e+01 1.659225374460220337e-01 5.951729297637939453e+00 1.835295557975769043e+00 3.031320273876190186e-01
7.210000000000000000e+02 1.435413169860839844e+01 -3.171150779724121094e+01 7.660761941224336624e-03 6.773160421289503574e-04 2.501423470675945282e-03 -8.167716441676020622e-05
7.220000000000000000e+02 1.448481845855712891e+01 -2.758507347106933594e+01 -7.963334210216999054e-03 2.341278130188584328e-03 -1.686616800725460052e-03 -1.852375862654298544e-04
7.230000000000000000e+02 1.322376537322998047e+01 -2.750263977050781250e+01 6.322115659713745117e-03 1.294772722758352757e-03 2.285066526383161545e-03 4.713816451840102673e-04
7.240000000000000000e+02 1.309935188293457031e+01 -2.363997840881347656e+01 -7.281152997165918350e-03 1.474947839597007260e-05 -2.179920906201004982e-03 -2.736413385719060898e-03
7.250000000000000000e+02 1.440596485137939453e+01 -2.344910049438476562e+01 8.199408650398254395e-03 1.013066270388662815e-03 2.763742348179221153e-03 2.735053421929478645e-04
7.260000000000000000e+02 1.419426918029785156e+01 -2.050934028625488281e+01 6.273090839385986328e-03 2.920246915891766548e-04 1.969534670934081078e-03 -9.503324981778860092e-04
7.270000000000000000e+02 1.302049160003662109e+01 -1.735471916198730469e+01 -3.653886262327432632e-03 -6.342634442262351513e-04 -1.286444952711462975e-03 1.050968072377145290e-03
7.280000000000000000e+02 1.445455551147460938e+01 -1.625482940673828125e+01 -4.443657118827104568e-03 -9.571295231580734253e-05 -1.361810951493680477e-03 7.872307905927300453e-04
7.290000000000000000e+02 1.459152507781982422e+01 -9.312707901000976562e+00 3.101278329268097878e-03 8.979869744507595897e-05 9.573230636306107044e-04 -2.159154391847550869e-04
7.300000000000000000e+02 1.254480171203613281e+01 -1.921641349792480469e+00 -4.368977679405361414e-04 -4.579714368446730077e-05 -1.448084658477455378e-04 1.523448590887710452e-04
7.310000000000000000e+02 1.301233482360839844e+01 -2.821783542633056641e+00 5.709471952286548913e-05 -2.302117791259661317e-04 -5.193511606194078922e-05 2.286275121150538325e-04
7.320000000000000000e+02 1.428634738922119141e+01 -2.022394180297851562e+00 8.694940479472279549e-04 1.268814048671629280e-05 2.646546636242419481e-04 7.031252607703208923e-04
7.330000000000000000e+02 1.373780727386474609e+01 -2.030897855758666992e+00 -1.127412775531411171e-03 4.557374995783902705e-05 -3.245517145842313766e-04 2.357047633267939091e-04
7.340000000000000000e+02 1.317835998535156250e+01 -1.977371692657470703e+00 2.377704367972910404e-04 3.117926244158297777e-04 1.648689212743192911e-04 -3.500649472698569298e-04
7.350000000000000000e+02 1.182409477233886719e+01 -1.900322437286376953e+00 7.196624064818024635e-04 -2.277062048960942775e-05 2.090675261570140719e-04 -3.004945756401866674e-04
7.360000000000000000e+02 9.592504501342773438e+00 -1.876942515373229980e+00 -4.235171945765614510e-04 -3.891057858709245920e-04 -2.437868970446288586e-04 2.690576948225498199e-04
7.370000000000000000e+02 1.034774494171142578e+01 -1.882963895797729492e+00 4.838177119381725788e-04 3.263257094658911228e-04 2.430430322419852018e-04 -4.137857758905738592e-04
7.380000000000000000e+02 8.827355384826660156e+00 -1.874287009239196777e+00 4.274458042345941067e-04 4.140491655562072992e-04 2.524484880268573761e-04 -1.511924056103453040e-04
7.390000000000000000e+02 7.300516128540039062e+00 -1.868763804435729980e+00 4.982246318832039833e-04 4.019722109660506248e-04 2.700590703170746565e-04 1.175396482722135261e-05
7.400000000000000000e+02 5.782738685607910156e+00 -1.863568305969238281e+00 4.056076286360621452e-04 4.239343979861587286e-04 2.488626050762832165e-04 1.109653676394373178e-04
7.410000000000000000e+02 3.515722513198852539e+00 -1.931223869323730469e+00 -2.869422023650258780e-04 -1.611662883078679442e-04 -1.344325428362935781e-04 -1.784646592568606138e-04
7.420000000000000000e+02 5.026699066162109375e+00 -1.869046926498413086e+00 -2.827288699336349964e-04 -4.302500747144222260e-04 -2.138936833944171667e-04 -1.396909938193857670e-04
7.430000000000000000e+02 4.378987312316894531e+00 -2.657565593719482422e+00 -3.903080360032618046e-04 -3.776204830501228571e-04 -2.303785586263984442e-04 -3.067327779717743397e-04
7.440000000000000000e+02 2.755335569381713867e+00 -2.002917528152465820e+00 2.375560143264010549e-04 2.077785611618310213e-04 1.336003770120441914e-04 1.745617773849517107e-04
7.450000000000000000e+02 1.988007187843322754e+00 -2.099065542221069336e+00 -4.333882825449109077e-04 -1.863433571998029947e-04 -1.859195035649463534e-04 -2.222210168838500977e-04
7.460000000000000000e+02 1.207337379455566406e+00 -2.174998044967651367e+00 9.000871796160936356e-04 3.351561099407263100e-05 2.800808288156986237e-04 1.048879930749535561e-04
7.470000000000000000e+02 2.050957441329956055e+00 -4.164688491821289062e+01 -3.367322497069835663e-03 -3.642948344349861145e-02 -1.193904131650924683e-02 1.102065201848745346e-03
7.480000000000000000e+02 5.200973033905029297e+00 -3.765441513061523438e+01 1.043421775102615356e-02 -1.460783462971448898e-02 -1.252085086889564991e-03 -2.065473794937133789e-02
7.490000000000000000e+02 1.018580794334411621e+00 -3.871632766723632812e+01 -1.490125525742769241e-02 -3.330935537815093994e-02 -1.446318347007036209e-02 -7.412199862301349640e-03
7.500000000000000000e+02 7.487423419952392578e-01 -3.460104370117187500e+01 9.518839418888092041e-03 -1.298042200505733490e-02 -1.038474845699965954e-03 -1.193632138893008232e-03
7.510000000000000000e+02 7.221854329109191895e-01 -3.320486068725585938e+01 -9.324190206825733185e-03 -8.247515186667442322e-03 -5.271511618047952652e-03 -3.940146416425704956e-03
7.520000000000000000e+02 6.709120273590087891e-01 -2.899432373046875000e+01 6.596300285309553146e-03 7.983562536537647247e-04 2.218397101387381554e-03 3.884876496158540249e-04
7.530000000000000000e+02 6.633064150810241699e-01 -2.758510017395019531e+01 -6.365469191223382950e-03 1.393435872159898281e-03 -1.491610077209770679e-03 -9.603453800082206726e-04
7.540000000000000000e+02 6.626130342483520508e-01 -2.617416572570800781e+01 5.603786092251539230e-03 1.632461906410753727e-03 2.170874504372477531e-03 7.988219149410724640e-04
7.550000000000000000e+02 6.629488468170166016e-01 -2.193039131164550781e+01 -3.873443929478526115e-03 7.693722145631909370e-04 -9.312214679084718227e-04 -3.927402722183614969e-04
7.560000000000000000e+02 6.526136994361877441e-01 -2.051904678344726562e+01 3.541163168847560883e-03 6.919635343365371227e-04 1.269938074983656406e-03 5.079209804534912109e-04
7.570000000000000000e+02 1.955924034118652344e+00 -2.038098907470703125e+01 -3.891825675964355469e-03 1.539812510600313544e-04 -1.121353358030319214e-03 -2.752421423792839050e-04
7.580000000000000000e+02 6.278608441352844238e-01 -1.629256439208984375e+01 -2.772231586277484894e-03 1.282184821320697665e-04 -7.932039443403482437e-04 -2.766521647572517395e-04
7.590000000000000000e+02 6.231430768966674805e-01 -1.488551998138427734e+01 2.447754610329866409e-03 1.290276704821735620e-04 7.730346405878663063e-04 3.034233232028782368e-04
7.600000000000000000e+02 6.169091463088989258e-01 -1.347692203521728516e+01 -2.108384389430284500e-03 -4.242578143021091819e-06 -6.337880622595548630e-04 -2.102324651787057519e-04
7.610000000000000000e+02 1.850747108459472656e+00 -1.339165973663330078e+01 2.333207987248897552e-03 1.949552388396114111e-04 7.584489649161696434e-04 4.508709535002708435e-04
7.620000000000000000e+02 5.677801966667175293e-01 -9.252849578857421875e+00 1.503063016571104527e-03 2.852950456144753844e-05 4.594777419697493315e-04 4.525964322965592146e-05
7.630000000000000000e+02 5.416253209114074707e-01 -7.850530147552490234e+00 -1.382562099024653435e-03 -1.133144360210280865e-05 -4.181680560577660799e-04 -1.819621866161469370e-05
7.640000000000000000e+02 5.188866257667541504e-01 -6.446037292480468750e+00 1.234134193509817123e-03 -4.633466232917271554e-06 3.688502474687993526e-04 1.600966606929432601e-05
7.650000000000000000e+02 7.491851806640625000e+01 -4.030758666992187500e+01 3.558113006874918938e-03 8.460567474365234375e+00 2.539237737655639648e+00 -1.846473477780818939e-02
7.660000000000000000e+02 3.254191207885742188e+01 -4.118594741821289062e+01 -2.109243422746658325e-01 6.204375267028808594e+00 1.798035383224487305e+00 -7.466831710189580917e-03
7.670000000000000000e+02 1.161463069915771484e+01 -3.949468994140625000e+01 3.542898595333099365e-02 4.892696440219879150e-02 2.530678547918796539e-02 -1.082331761717796326e-01
7.680000000000000000e+02 7.879802703857421875e+01 4.013237762451171875e+01 4.177150130271911621e-02 6.151284217834472656e+00 1.857916712760925293e+00 1.689795777201652527e-02
7.690000000000000000e+02 7.897076416015625000e+01 3.878751373291015625e+01 -2.473213896155357361e-02 6.139847278594970703e+00 1.834534525871276855e+00 -9.961850009858608246e-03
7.700000000000000000e+02 7.949001312255859375e+01 3.479576492309570312e+01 3.175999969244003296e-03 6.140681266784667969e+00 1.843157172203063965e+00 -7.555205840617418289e-03
7.710000000000000000e+02 7.764724731445312500e+01 3.437405014038085938e+01 3.442363813519477844e-02 6.348164081573486328e+00 1.914776325225830078e+00 -8.487583696842193604e-02
7.720000000000000000e+02 7.945560455322265625e+01 3.349370956420898438e+01 7.728630211204290390e-03 6.178906917572021484e+00 1.855990767478942871e+00 -2.296641096472740173e-02
7.730000000000000000e+02 7.926708221435546875e+01 3.079688835144042969e+01 1.580094336532056332e-03 6.314403533935546875e+00 1.894795179367065430e+00 -4.156909510493278503e-02
7.740000000000000000e+02 7.802734375000000000e+01 2.813345146179199219e+01 8.356228470802307129e-03 6.590546607971191406e+00 1.979670882225036621e+00 -1.192863509058952332e-01
7.750000000000000000e+02 7.931816864013671875e+01 2.656764411926269531e+01 3.999579697847366333e-03 6.568192005157470703e+00 1.971657514572143555e+00 -4.752484336495399475e-02
7.760000000000000000e+02 7.646912384033203125e+01 2.560590362548828125e+01 9.336116723716259003e-03 6.838169097900390625e+00 2.054251670837402344e+00 -2.149092853069305420e-01
7.770000000000000000e+02 7.930301666259765625e+01 2.517614173889160156e+01 -1.537258387543261051e-03 6.657600402832031250e+00 1.996819019317626953e+00 -4.913135245442390442e-02
7.780000000000000000e+02 7.932344055175781250e+01 2.096787261962890625e+01 7.275334792211651802e-05 6.939154148101806641e+00 2.081768035888671875e+00 -5.219908431172370911e-02
7.790000000000000000e+02 7.933082580566406250e+01 1.957189750671386719e+01 -6.456602131947875023e-04 7.036139488220214844e+00 2.110648155212402344e+00 -5.143470689654350281e-02
7.800000000000000000e+02 7.933467102050781250e+01 1.817722129821777344e+01 3.843815647996962070e-04 7.132381439208984375e+00 2.139829635620117188e+00 -5.121191591024398804e-02
7.810000000000000000e+02 7.933983612060546875e+01 1.399103164672851562e+01 -1.077065360732376575e-03 7.411319732666015625e+00 2.223072767257690430e+00 -4.814989119768142700e-02
7.820000000000000000e+02 7.934117889404296875e+01 1.259946155548095703e+01 -1.904458913486450911e-04 7.499236583709716797e+00 2.249713897705078125e+00 -4.682726040482521057e-02
7.830000000000000000e+02 7.934149169921875000e+01 1.120726490020751953e+01 -1.224155654199421406e-03 7.583949565887451172e+00 2.274817466735839844e+00 -4.515063390135765076e-02
7.840000000000000000e+02 7.933644866943359375e+01 7.017850875854492188e+00 -4.475690366234630346e-04 7.816470623016357422e+00 2.344806909561157227e+00 -4.023515060544013977e-02
7.850000000000000000e+02 7.933565521240234375e+01 5.620422840118408203e+00 -1.114016515202820301e-03 7.886274337768554688e+00 2.365548133850097656e+00 -3.848407417535781860e-02
7.860000000000000000e+02 7.933686828613281250e+01 4.223236083984375000e+00 -6.728097214363515377e-04 7.952325344085693359e+00 2.385495901107788086e+00 -3.658324852585792542e-02
7.870000000000000000e+02 7.934807586669921875e+01 3.517851233482360840e-02 -1.142077380791306496e-03 8.127832412719726562e+00 2.438007116317749023e+00 -3.054152987897396088e-02
7.880000000000000000e+02 7.935112762451171875e+01 -1.359350919723510742e+00 -5.092862411402165890e-04 8.179023742675781250e+00 2.453554391860961914e+00 -2.875973656773567200e-02
7.890000000000000000e+02 7.806563568115234375e+01 -4.080201148986816406e+00 -4.072091542184352875e-03 8.214603424072265625e+00 2.463159561157226562e+00 -6.306477636098861694e-02
7.900000000000000000e+02 7.935320281982421875e+01 -4.145051479339599609e+00 -3.729713207576423883e-04 8.270921707153320312e+00 2.481164693832397461e+00 -2.520294301211833954e-02
7.910000000000000000e+02 7.934291076660156250e+01 -8.322344779968261719e+00 -1.126323710195720196e-03 8.383942604064941406e+00 2.514844894409179688e+00 -2.062285877764225006e-02
7.920000000000000000e+02 7.800382995605468750e+01 -1.104449462890625000e+01 -2.569245407357811928e-03 8.376678466796875000e+00 2.512232780456542969e+00 -4.393777623772621155e-02
7.930000000000000000e+02 7.933589172363281250e+01 -1.111215400695800781e+01 -1.154647325165569782e-03 8.444699287414550781e+00 2.533063411712646484e+00 -1.787519641220569611e-02
7.940000000000000000e+02 7.933639526367187500e+01 -1.529493045806884766e+01 -1.115581981139257550e-04 8.517916679382324219e+00 2.555341720581054688e+00 -1.430561579763889313e-02
7.950000000000000000e+02 7.801827239990234375e+01 -1.802296066284179688e+01 -2.461676020175218582e-03 8.485280036926269531e+00 2.544845581054687500e+00 -2.896356768906116486e-02
7.960000000000000000e+02 7.933943939208984375e+01 -1.808028411865234375e+01 -1.201125196530483663e-04 8.557447433471679688e+00 2.567198038101196289e+00 -1.240892987698316574e-02
7.970000000000000000e+02 7.933562469482421875e+01 -2.364060592651367188e+01 -8.636669372208416462e-05 8.617634773254394531e+00 2.585264444351196289e+00 -8.874339051544666290e-03
7.980000000000000000e+02 7.799163055419921875e+01 -2.493019104003906250e+01 -9.399852133356034756e-04 8.553140640258789062e+00 2.565660238265991211e+00 -1.954597793519496918e-02
7.990000000000000000e+02 7.932855987548828125e+01 -2.503277206420898438e+01 -4.010327102150768042e-04 8.629651069641113281e+00 2.588774919509887695e+00 -8.359937928617000580e-03
8.000000000000000000e+02 7.928739166259765625e+01 -2.922147178649902344e+01 -1.093600894819246605e-05 8.661489486694335938e+00 2.598443508148193359e+00 -6.897419691085815430e-03
8.010000000000000000e+02 7.777013397216796875e+01 -3.193406867980957031e+01 -2.415596740320324898e-03 8.589486122131347656e+00 2.576121091842651367e+00 -1.218538451939821243e-02
8.020000000000000000e+02 7.927544403076171875e+01 -3.200528335571289062e+01 -1.262391597265377641e-04 8.675782203674316406e+00 2.602696895599365234e+00 -4.290387965738773346e-03
8.030000000000000000e+02 7.934555053710937500e+01 -3.610213851928710938e+01 2.684111706912517548e-03 8.679588317871093750e+00 2.604681730270385742e+00 8.025681017898023129e-04
8.040000000000000000e+02 7.924913024902343750e+01 -3.741997909545898438e+01 -6.815928965806961060e-03 8.667642593383789062e+00 2.598248004913330078e+00 7.429607678204774857e-03
8.050000000000000000e+02 7.901230621337890625e+01 -3.871915054321289062e+01 1.197356265038251877e-03 8.651422500610351562e+00 2.595786094665527344e+00 9.701223112642765045e-03
8.060000000000000000e+02 7.863545989990234375e+01 -4.007203674316406250e+01 -7.652432192116975784e-03 8.632819175720214844e+00 2.587550163269042969e+00 1.635826006531715393e-02
8.070000000000000000e+02 4.775942325592041016e+00 4.033765029907226562e+01 -4.593664780259132385e-03 8.370235562324523926e-03 1.132971141487360001e-03 8.980977581813931465e-04
8.080000000000000000e+02 2.751665878295898438e+01 3.806963729858398438e+01 -7.720157504081726074e-02 2.231746464967727661e-01 4.379191994667053223e-02 -1.577775627374649048e-01
8.090000000000000000e+02 4.766952896118164062e+01 4.068776702880859375e+01 1.367159724235534668e+00 8.845803260803222656e+00 3.063889026641845703e+00 -7.581448554992675781e-02
8.100000000000000000e+02 6.714390563964843750e+01 4.083367919921875000e+01 3.174761533737182617e-01 7.173234939575195312e+00 2.247213363647460938e+00 -6.527389585971832275e-02
8.110000000000000000e+02 3.674577772617340088e-01 2.182015895843505859e+00 8.149533532559871674e-04 1.316279958700761199e-04 2.839743974618613720e-04 1.233867351402295753e-05
8.120000000000000000e+02 2.568304061889648438e+00 2.766785383224487305e+00 7.329202489927411079e-04 1.306862977799028158e-04 2.590819785837084055e-04 -2.998346462845802307e-04
8.130000000000000000e+02 4.545405387878417969e+00 2.665184736251831055e+00 -6.142884376458823681e-04 -5.300928023643791676e-04 -3.433143720030784607e-04 3.506611101329326630e-04
8.140000000000000000e+02 1.568433284759521484e+00 6.202014446258544922e+00 1.239291043020784855e-03 9.330909961136057973e-05 3.997800522483885288e-04 -3.006117476616054773e-04
8.150000000000000000e+02 5.858650207519531250e-01 9.201377868652343750e+00 -1.308721257373690605e-03 -2.569869866420049220e-05 -4.003260110039263964e-04 1.880264608189463615e-04
8.160000000000000000e+02 6.118124127388000488e-01 1.203258323669433594e+01 -1.599786919541656971e-03 -4.484147575567476451e-05 -4.933885065838694572e-04 1.874726440291851759e-04
8.170000000000000000e+02 1.834007263183593750e+00 1.189493942260742188e+01 1.823794562369585037e-03 -1.743862230796366930e-05 5.419068038463592529e-04 -1.959875080501660705e-04
8.180000000000000000e+02 6.304508447647094727e-01 1.627193832397460938e+01 1.906884019263088703e-03 -5.133264858159236610e-05 5.566654144786298275e-04 -1.695641112746670842e-04
8.190000000000000000e+02 1.920199632644653320e+00 1.754331588745117188e+01 2.311758231371641159e-03 -1.983058064070064574e-05 6.875783437862992287e-04 -1.435741723980754614e-04
8.200000000000000000e+02 6.403409838676452637e-01 1.768533515930175781e+01 -1.989612821489572525e-03 -1.315890840487554669e-04 -6.363605498336255550e-04 2.021204272750765085e-04
8.210000000000000000e+02 6.589943766593933105e-01 2.192623519897460938e+01 2.483778866007924080e-03 -1.696352956059854478e-05 7.400445756502449512e-04 -3.272972535341978073e-04
8.220000000000000000e+02 6.581005454063415527e-01 2.333591270446777344e+01 -2.758760470896959305e-03 -1.350997190456837416e-04 -8.681580657139420509e-04 3.767335147131234407e-04
8.230000000000000000e+02 1.967711925506591797e+00 2.319087600708007812e+01 3.042796161025762558e-03 1.092804013751447201e-04 9.456229745410382748e-04 -4.461344506125897169e-04
8.240000000000000000e+02 6.557312607765197754e-01 2.475183105468750000e+01 3.129831980913877487e-03 1.242620928678661585e-04 9.762282134033739567e-04 -5.366084515117108822e-04
8.250000000000000000e+02 6.254768967628479004e-01 2.898198699951171875e+01 -4.112459253519773483e-03 1.104092341847717762e-03 -9.025100735016167164e-04 1.175644356408156455e-04
8.260000000000000000e+02 6.303676962852478027e-01 3.038300323486328125e+01 4.015889484435319901e-03 1.843419624492526054e-03 1.757792779244482517e-03 -7.097449852153658867e-04
8.270000000000000000e+02 1.971351265907287598e+00 3.155366134643554688e+01 4.206595476716756821e-03 1.956420019268989563e-03 1.848904648795723915e-03 -1.192159717902541161e-03
8.280000000000000000e+02 6.510323882102966309e-01 3.178844070434570312e+01 -3.548485692590475082e-03 2.861347282305359840e-03 -2.061414998024702072e-04 -2.301899512531235814e-04
8.290000000000000000e+02 6.578680276870727539e-01 3.601101303100585938e+01 4.361982457339763641e-03 6.900229491293430328e-03 3.378663677722215652e-03 -1.717296312563121319e-03
8.300000000000000000e+02 1.963025450706481934e+00 3.703654098510742188e+01 3.382135881111025810e-03 6.888315081596374512e-03 3.081135218963027000e-03 -3.217049175873398781e-03
8.310000000000000000e+02 8.683929443359375000e-01 3.870154953002929688e+01 5.907948128879070282e-03 8.298296481370925903e-03 4.261873662471771240e-03 -2.022439148277044296e-03
8.320000000000000000e+02 1.250745773315429688e+00 4.004411315917968750e+01 -5.958302877843379974e-03 7.634142879396677017e-03 5.027519655413925648e-04 1.495083328336477280e-03
8.330000000000000000e+02 1.034041881561279297e+01 1.887400269508361816e+00 2.039324317593127489e-04 3.997642488684505224e-04 1.811090041883289814e-04 2.337617770535871387e-04
8.340000000000000000e+02 8.171236038208007812e+00 1.842897772789001465e+00 -3.761085681617259979e-04 -4.827816737815737724e-04 -2.576670667622238398e-04 4.602034823619760573e-05
8.350000000000000000e+02 7.355263710021972656e+00 2.514251947402954102e+00 -5.401130183599889278e-04 -4.655600932892411947e-04 -3.017019189428538084e-04 7.795367127982899547e-05
8.360000000000000000e+02 6.745028495788574219e+00 1.841780185699462891e+00 -3.985813527833670378e-04 -5.593963433057069778e-04 -2.873933117371052504e-04 1.659919798839837313e-04
8.370000000000000000e+02 4.611140727996826172e+00 1.878198981285095215e+00 4.391860275063663721e-04 6.294698687270283699e-04 3.205967659596353769e-04 -3.314627683721482754e-04
8.380000000000000000e+02 3.912627935409545898e+00 1.889095425605773926e+00 -5.068563041277229786e-04 -5.793454474769532681e-04 -3.258605138398706913e-04 2.979928103741258383e-04
8.390000000000000000e+02 3.214150905609130859e+00 1.903629660606384277e+00 4.644176224246621132e-04 4.950367729179561138e-04 2.878363302443176508e-04 -2.214840642409399152e-04
8.400000000000000000e+02 1.810270071029663086e+00 2.015440464019775391e+00 -7.468929106835275888e-05 5.475707002915441990e-04 1.418644242221489549e-04 -2.311775606358423829e-04
8.410000000000000000e+02 1.097437500953674316e+00 2.114376544952392578e+00 -1.622808049432933331e-04 -4.406207881402224302e-04 -1.808704837458208203e-04 1.910032005980610847e-04
8.420000000000000000e+02 9.603319168090820312e+00 1.868861913681030273e+00 -2.485191798768937588e-04 -4.353315162006765604e-04 -2.051552146440371871e-04 -1.337544381385669112e-04
8.430000000000000000e+02 1.109600353240966797e+01 1.906186103820800781e+00 -2.280964690726250410e-04 -3.525873180478811264e-04 -1.742051390465348959e-04 -3.288255247753113508e-04
8.440000000000000000e+02 1.342303943634033203e+01 2.873233795166015625e+00 -1.275370130315423012e-03 -4.852475831285119057e-05 -3.971684491261839867e-04 -1.915695029310882092e-04
8.450000000000000000e+02 1.257706737518310547e+01 2.893491983413696289e+00 7.679405971430242062e-04 2.576788829173892736e-04 3.076858411077409983e-04 4.594480851665139198e-04
8.460000000000000000e+02 1.407747745513916016e+01 1.864407658576965332e+00 -4.316839331295341253e-04 -1.622854033485054970e-04 -1.781907922122627497e-04 4.132023896090686321e-04
8.470000000000000000e+02 1.345214843750000000e+01 3.893365621566772461e+00 1.327943289652466774e-03 1.252750225830823183e-04 4.359654849395155907e-04 2.521180722396820784e-04
8.480000000000000000e+02 1.453548049926757812e+01 3.666156768798828125e+00 -1.317269285209476948e-03 -1.478786871302872896e-04 -4.395444120746105909e-04 2.844051923602819443e-04
8.490000000000000000e+02 1.452783298492431641e+01 6.316805362701416016e+00 -1.851603155955672264e-03 -9.285038686357438564e-05 -5.833360482938587666e-04 4.719712705991696566e-06
8.500000000000000000e+02 1.453728485107421875e+01 7.685102462768554688e+00 2.297825179994106293e-03 8.238581358455121517e-06 6.918191211298108101e-04 7.984204421518370509e-05
8.510000000000000000e+02 1.452354431152343750e+01 9.058941841125488281e+00 -2.758562099188566208e-03 1.781703758751973510e-05 -8.222234901040792465e-04 -7.459075277438387275e-05
8.520000000000000000e+02 1.441707134246826172e+01 1.182935714721679688e+01 -3.200536593794822693e-03 -8.002057825251540635e-07 -9.604010265320539474e-04 1.196025696117430925e-04
8.530000000000000000e+02 1.439989757537841797e+01 1.322508144378662109e+01 3.341699251905083656e-03 5.710464756703004241e-05 1.019641174934804440e-03 -7.516375626437366009e-05
8.540000000000000000e+02 1.443452072143554688e+01 1.461932086944580078e+01 -3.699650987982749939e-03 -1.090341447707032785e-05 -1.113166334107518196e-03 2.425239654257893562e-05
8.550000000000000000e+02 1.447019100189208984e+01 1.600653266906738281e+01 4.135791677981615067e-03 -6.963097985135391355e-05 1.219848170876502991e-03 -1.011338536045514047e-04
8.560000000000000000e+02 1.329306507110595703e+01 2.014535140991210938e+01 4.497960209846496582e-03 1.816380681702867150e-04 1.403879374265670776e-03 3.598377952584996819e-05
8.570000000000000000e+02 1.455176544189453125e+01 2.151521492004394531e+01 5.505162756890058517e-03 -4.206235098536126316e-05 1.638930174522101879e-03 1.696928084129467607e-04
8.580000000000000000e+02 1.481014823913574219e+01 2.563985443115234375e+01 -7.191458251327276230e-03 4.072689262102358043e-05 -2.145219361409544945e-03 -5.238170269876718521e-04
8.590000000000000000e+02 1.338025188446044922e+01 2.285294532775878906e+01 5.217873025685548782e-03 3.998239990323781967e-04 1.685309107415378094e-03 5.845093401148915291e-04
8.600000000000000000e+02 1.490811443328857422e+01 2.702318763732910156e+01 8.220145478844642639e-03 6.951830582693219185e-04 2.674598479643464088e-03 1.053970889188349247e-03
8.610000000000000000e+02 1.504467391967773438e+01 2.841288757324218750e+01 -8.777911774814128876e-03 1.313520362600684166e-03 -2.239317400380969048e-03 -5.391080048866569996e-05
8.620000000000000000e+02 1.576160526275634766e+01 3.277901077270507812e+01 1.623360626399517059e-02 8.797536604106426239e-03 7.509342860430479050e-03 2.001072745770215988e-03
8.630000000000000000e+02 1.639556694030761719e+01 3.407522201538085938e+01 -1.267251092940568924e-02 1.242193765938282013e-02 -7.517208723584190011e-05 1.371745765209197998e-02
8.640000000000000000e+02 1.576539611816406250e+01 3.571421051025390625e+01 4.216883797198534012e-03 -9.999873582273721695e-04 9.650689898990094662e-04 1.679376699030399323e-02
8.650000000000000000e+02 1.723200225830078125e+01 3.649327468872070312e+01 -2.668413566425442696e-03 4.583469405770301819e-02 1.294988393783569336e-02 3.301645815372467041e-02
8.660000000000000000e+02 2.261704635620117188e+01 3.852774429321289062e+01 -2.957201898097991943e-01 -1.210196018218994141e-01 -1.250219345092773438e-01 4.873663485050201416e-01
8.670000000000000000e+02 2.107100105285644531e+01 3.811942672729492188e+01 -3.627766072750091553e-01 -4.635689035058021545e-02 -1.227400526404380798e-01 2.753153145313262939e-01
8.680000000000000000e+02 2.421871948242187500e+01 3.837429046630859375e+01 -3.862431049346923828e-01 -7.180873304605484009e-03 -1.180271953344345093e-01 8.232557773590087891e-01
8.690000000000000000e+02 2.508402824401855469e+01 3.850719451904296875e+01 -3.838455677032470703e-01 -4.100187495350837708e-02 -1.274542361497879028e-01 5.005158782005310059e-01
8.700000000000000000e+02 2.642350769042968750e+01 3.972686004638671875e+01 4.992284178733825684e-01 1.097475171089172363e+00 4.790110588073730469e-01 -1.305278539657592773e-01
8.710000000000000000e+02 2.827334976196289062e+01 3.793515014648437500e+01 1.026448309421539307e-01 1.095418810844421387e+00 3.594190776348114014e-01 -4.105145931243896484e-01
8.720000000000000000e+02 2.910456275939941406e+01 3.753479003906250000e+01 3.257831335067749023e-01 1.742265105247497559e+00 6.204144954681396484e-01 -1.503770709037780762e+00
8.730000000000000000e+02 2.926169586181640625e+01 3.746379089355468750e+01 4.923469126224517822e-01 1.781364798545837402e+00 6.821135282516479492e-01 -1.625289559364318848e+00
8.740000000000000000e+02 2.942671012878417969e+01 3.743182754516601562e+01 4.896769821643829346e-01 2.108795642852783203e+00 7.795417904853820801e-01 -1.965565204620361328e+00
8.750000000000000000e+02 2.961941719055175781e+01 3.742391967773437500e+01 6.189756989479064941e-01 2.824254989624023438e+00 1.032969236373901367e+00 -2.126381397247314453e+00
8.760000000000000000e+02 3.044528007507324219e+01 3.739907836914062500e+01 3.528519570827484131e-01 7.030565738677978516e+00 2.215025424957275391e+00 -3.952947854995727539e+00
8.770000000000000000e+02 3.089767646789550781e+01 3.730161666870117188e+01 -1.328615546226501465e-01 1.050002288818359375e+01 3.110148429870605469e+00 -3.912759304046630859e+00
8.780000000000000000e+02 3.067047691345214844e+01 3.733173751831054688e+01 1.518833339214324951e-01 8.422587394714355469e+00 2.572341203689575195e+00 -4.125884056091308594e+00
8.790000000000000000e+02 3.088967514038085938e+01 3.763366699218750000e+01 -4.446725845336914062e-01 1.003699970245361328e+01 2.877698183059692383e+00 -3.654168367385864258e+00
8.800000000000000000e+02 3.127548217773437500e+01 3.717987823486328125e+01 -7.374041676521301270e-01 1.427034568786621094e+01 4.059882640838623047e+00 -3.447200059890747070e+00
8.810000000000000000e+02 3.110193443298339844e+01 3.725566101074218750e+01 -4.808648526668548584e-01 1.262482166290283203e+01 3.643187046051025391e+00 -3.460892200469970703e+00
8.820000000000000000e+02 3.159117507934570312e+01 3.298390197753906250e+01 9.320570826530456543e-01 1.409050559997558594e+01 4.506768703460693359e+00 3.757778882980346680e+00
8.830000000000000000e+02 2.888820457458496094e+01 3.421907806396484375e+01 2.862481355667114258e+00 1.192517399787902832e+00 1.216499567031860352e+00 2.091012239456176758e+00
8.840000000000000000e+02 2.908953857421875000e+01 3.418067550659179688e+01 3.261963129043579102e+00 1.474456548690795898e+00 1.420925855636596680e+00 2.493700027465820312e+00
8.850000000000000000e+02 2.837289810180664062e+01 3.403576660156250000e+01 2.237285375595092773e+00 1.041456103324890137e+00 9.836224317550659180e-01 1.530902981758117676e+00
8.860000000000000000e+02 2.808780288696289062e+01 3.434185409545898438e+01 1.622583270072937012e+00 4.642997682094573975e-01 6.260648965835571289e-01 9.071543812751770020e-01
8.870000000000000000e+02 2.381314086914062500e+01 3.444916534423828125e+01 -7.398466020822525024e-02 6.093680858612060547e-02 -3.914356231689453125e-03 -3.349726796150207520e-01
8.880000000000000000e+02 2.117884826660156250e+01 3.422113037109375000e+01 1.653051935136318207e-02 -2.806581258773803711e-01 -7.923828810453414917e-02 -1.879370659589767456e-01
8.890000000000000000e+02 2.762651062011718750e+01 3.433642959594726562e+01 1.224995732307434082e+00 4.722094833850860596e-01 5.091615319252014160e-01 6.304554939270019531e-01
8.900000000000000000e+02 3.179649353027343750e+01 3.372119903564453125e+01 1.936498522758483887e+00 1.590713596343994141e+01 5.353090286254882812e+00 2.906938076019287109e+00
8.910000000000000000e+02 2.874714469909667969e+01 3.387889862060546875e+01 2.962821960449218750e+00 1.612553000450134277e+00 1.372612476348876953e+00 2.332635164260864258e+00
8.920000000000000000e+02 3.045657920837402344e+01 3.387376785278320312e+01 3.847724914550781250e+00 8.346293449401855469e+00 3.658205509185791016e+00 6.344806194305419922e+00
8.930000000000000000e+02 3.006428527832031250e+01 3.403630065917968750e+01 4.444909095764160156e+00 5.304307460784912109e+00 2.924765110015869141e+00 5.423920154571533203e+00
8.940000000000000000e+02 2.987439727783203125e+01 3.406464385986328125e+01 4.400644302368164062e+00 3.886062622070312500e+00 2.486011981964111328e+00 4.695181369781494141e+00
8.950000000000000000e+02 2.813563919067382812e+01 3.410212326049804688e+01 1.852359056472778320e+00 6.544253826141357422e-01 7.520353198051452637e-01 1.203726410865783691e+00
8.960000000000000000e+02 2.830643463134765625e+01 3.435303115844726562e+01 1.955740928649902344e+00 5.826185941696166992e-01 7.615078091621398926e-01 1.063145756721496582e+00
8.970000000000000000e+02 2.869360733032226562e+01 3.426647567749023438e+01 2.460957050323486328e+00 1.005922436714172363e+00 1.040063858032226562e+00 1.688753724098205566e+00
8.980000000000000000e+02 2.950216293334960938e+01 3.414974594116210938e+01 3.879975557327270508e+00 2.188488721847534180e+00 1.820539236068725586e+00 3.421818971633911133e+00
8.990000000000000000e+02 3.024541473388671875e+01 3.395704269409179688e+01 4.204520702362060547e+00 6.502846240997314453e+00 3.212210178375244141e+00 5.844283103942871094e+00
9.000000000000000000e+02 2.893882369995117188e+01 3.762901306152343750e+01 4.511875510215759277e-01 1.582047224044799805e+00 6.099704504013061523e-01 -1.220229387283325195e+00
9.010000000000000000e+02 3.223738098144531250e+01 3.716215133666992188e+01 3.248629868030548096e-01 1.699996948242187500e+01 5.197449684143066406e+00 1.212780952453613281e+00
9.020000000000000000e+02 2.981265068054199219e+01 3.739042663574218750e+01 6.181261539459228516e-01 3.213067293167114258e+00 1.149358034133911133e+00 -2.522010326385498047e+00
9.030000000000000000e+02 3.019544029235839844e+01 3.740941619873046875e+01 3.573217988014221191e-01 5.981905460357666016e+00 1.901768207550048828e+00 -3.597017288208007812e+00
9.040000000000000000e+02 2.940657615661621094e+01 3.757540130615234375e+01 5.155969858169555664e-01 2.319869518280029297e+00 8.506399393081665039e-01 -1.907236218452453613e+00
9.050000000000000000e+02 3.053904342651367188e+01 3.784276580810546875e+01 -2.257156074047088623e-01 8.349345207214355469e+00 2.437088966369628906e+00 -3.511017560958862305e+00
9.060000000000000000e+02 3.140842819213867188e+01 3.793108749389648438e+01 -1.172494292259216309e+00 1.286395645141601562e+01 3.507438421249389648e+00 -2.498685121536254883e+00
9.070000000000000000e+02 1.896206092834472656e+01 3.802357482910156250e+01 -2.319332808256149292e-01 -1.457426548004150391e-01 -1.133027821779251099e-01 1.463116705417633057e-01
9.080000000000000000e+02 2.039989280700683594e+01 3.797303390502929688e+01 -2.338008284568786621e-01 -9.243940562009811401e-02 -9.787207096815109253e-02 2.538141906261444092e-01
9.090000000000000000e+02 5.317366123199462891e+00 1.864536523818969727e+00 -3.835960815194994211e-04 -6.242836825549602509e-04 -3.023639437742531300e-04 3.006773767992854118e-04
9.100000000000000000e+02 6.030813217163085938e+00 1.850934028625488281e+00 3.710050077643245459e-04 6.046783528290688992e-04 2.927049936261028051e-04 -2.432661567581817508e-04
9.110000000000000000e+02 8.760292053222656250e+00 2.554675579071044922e+00 -4.107520508114248514e-04 -4.396926960907876492e-04 -2.551334328018128872e-04 -2.046806912403553724e-05
9.120000000000000000e+02 7.458560943603515625e+00 1.839215278625488281e+00 4.090780857950448990e-04 5.119267152622342110e-04 2.763014344964176416e-04 -1.141329921665601432e-04
9.130000000000000000e+02 6.652918338775634766e+00 2.521739244461059570e+00 5.379228387027978897e-04 4.892181605100631714e-04 3.081423055846244097e-04 -1.235256495419889688e-04
9.140000000000000000e+02 7.919809818267822266e+00 3.206847667694091797e+00 -6.742904079146683216e-04 -3.527231456246227026e-04 -3.081040631514042616e-04 3.831600770354270935e-05
9.150000000000000000e+02 5.886768341064453125e+00 3.897771596908569336e+00 -6.665596738457679749e-04 -5.021595279686152935e-04 -3.506157663650810719e-04 3.645895048975944519e-04
9.160000000000000000e+02 1.661524057388305664e+00 7.622800350189208984e+00 -1.396512845531105995e-03 -1.935046202561352402e-05 -4.247589968144893646e-04 2.781046205200254917e-04
9.170000000000000000e+02 2.512452602386474609e+00 1.936378002166748047e+00 -2.947874600067734718e-04 -4.403238417580723763e-04 -2.205333876190707088e-04 1.006048187264241278e-04
9.180000000000000000e+02 1.965606808662414551e+00 3.028998136520385742e+00 2.973920491058379412e-04 -1.117071878979913890e-04 5.570545545197091997e-05 1.128858930314891040e-04
9.190000000000000000e+02 8.605669975280761719e+00 3.248818397521972656e+00 5.432688049040734768e-04 3.622780786827206612e-04 2.716640592552721500e-04 -1.487108147557592019e-05
9.200000000000000000e+02 2.551590538024902344e+01 3.447978210449218750e+01 8.932396769523620605e-02 2.205941826105117798e-01 9.297544509172439575e-02 -1.347358673810958862e-01
9.210000000000000000e+02 2.685839271545410156e+01 3.380588150024414062e+01 1.188896775245666504e+00 5.742951631546020508e-01 5.289576053619384766e-01 5.601814389228820801e-01
9.220000000000000000e+02 2.748137092590332031e+01 3.380132675170898438e+01 1.594670534133911133e+00 7.595025897026062012e-01 7.062519192695617676e-01 9.515146613121032715e-01
9.230000000000000000e+02 2.293991661071777344e+01 3.233588027954101562e+01 2.954757809638977051e-01 5.311677232384681702e-02 1.045777723193168640e-01 -1.053030565381050110e-01
9.240000000000000000e+02 1.177565288543701172e+01 -2.661573171615600586e+00 -1.225063810124993324e-03 3.048047256015706807e-05 -3.583749930839985609e-04 5.297147436067461967e-04
9.250000000000000000e+02 1.027339649200439453e+01 -3.445613145828247070e+00 4.772607935592532158e-04 5.855083581991493702e-04 3.188307455275207758e-04 -4.864475922659039497e-04
9.260000000000000000e+02 1.105792427062988281e+01 -2.659756660461425781e+00 7.934916066005825996e-04 2.944364969152957201e-04 3.263784456066787243e-04 -6.395339732989668846e-04
9.270000000000000000e+02 1.262821102142333984e+01 1.936602830886840820e+00 -5.817324272356927395e-04 -1.111214442062191665e-04 -2.078561519738286734e-04 -3.371472121216356754e-04
9.280000000000000000e+02 1.175967788696289062e+01 2.832143545150756836e+00 -4.078620986547321081e-04 -4.030469572171568871e-04 -2.432727196719497442e-04 -4.401079495437443256e-04
9.290000000000000000e+02 9.477749824523925781e+00 2.601544380187988281e+00 3.130237164441496134e-04 4.421445191837847233e-04 2.265504735987633467e-04 1.140888998634181917e-04
9.300000000000000000e+02 1.337855529785156250e+01 1.923570156097412109e+00 8.046558941714465618e-04 -5.685344876837916672e-05 2.243407216155901551e-04 3.211248258594423532e-05
9.310000000000000000e+02 8.063113212585449219e+00 -1.871662735939025879e+00 -4.739480500575155020e-04 -4.082874802406877279e-04 -2.646706707309931517e-04 4.997264113626442850e-05
9.320000000000000000e+02 9.563214302062988281e+00 -2.637961387634277344e+00 4.722144512925297022e-04 4.594589991029351950e-04 2.795020409394055605e-04 -2.758011978585273027e-04
9.330000000000000000e+02 7.295166015625000000e+00 -2.614662408828735352e+00 -6.656555342487990856e-04 -3.631117288023233414e-04 -3.086301730945706367e-04 -4.957008059136569500e-05
9.340000000000000000e+02 8.045537948608398438e+00 -2.621322154998779297e+00 6.003839080221951008e-04 4.057925543747842312e-04 3.018529387190937996e-04 -1.231452824868028983e-05
9.350000000000000000e+02 8.801305770874023438e+00 -2.628756761550903320e+00 -5.198337603360414505e-04 -4.395411233417689800e-04 -2.878124651033431292e-04 1.159018866019323468e-04
9.360000000000000000e+02 6.540051937103271484e+00 -1.865274667739868164e+00 -4.867585084866732359e-04 -4.032678843941539526e-04 -2.670079120434820652e-04 -5.832468741573393345e-05
9.370000000000000000e+02 6.551587581634521484e+00 -2.605449438095092773e+00 6.736011127941310406e-04 3.466494672466069460e-04 3.060751769226044416e-04 6.251203740248456597e-05
9.380000000000000000e+02 5.096079826354980469e+00 -2.607846975326538086e+00 4.555441264528781176e-04 3.994983562733978033e-04 2.565127506386488676e-04 1.632295170566067100e-04
9.390000000000000000e+02 1.621006965637207031e+00 -7.813941001892089844e+00 1.650824677199125290e-03 3.918514630640856922e-05 5.070029292255640030e-04 1.432399949408136308e-05
9.400000000000000000e+02 3.870369195938110352e+00 -3.536580324172973633e+00 -7.251315983012318611e-04 -2.354830066906288266e-04 -2.881843829527497292e-04 -7.712558144703507423e-04
9.410000000000000000e+02 4.597341418266296387e-01 -3.613295555114746094e+00 1.005828497000038624e-03 -9.507903087069280446e-06 2.988961641676723957e-04 -3.870275031658820808e-05
9.420000000000000000e+02 4.055586457252502441e-01 -2.202944993972778320e+00 -9.220014326274394989e-04 1.014140434563159943e-05 -2.735580201260745525e-04 2.847487849066965282e-05
9.430000000000000000e+02 5.009393095970153809e-01 -5.031415462493896484e+00 -1.087805954739451408e-03 -4.707794505520723760e-05 -3.404651652090251446e-04 1.269838685402646661e-05
9.440000000000000000e+02 3.255344772338867188e+01 3.404933547973632812e+01 3.579048871994018555e+00 1.624730491638183594e+01 5.947906494140625000e+00 -1.638325303792953491e-01
9.450000000000000000e+02 3.436614990234375000e+01 3.805928039550781250e+01 1.399569988250732422e+00 1.313705635070800781e+01 4.360988140106201172e+00 2.101419210433959961e+00
9.460000000000000000e+02 3.357460021972656250e+01 3.345745849609375000e+01 3.244140863418579102e+00 1.340101146697998047e+01 4.993545532226562500e+00 -3.887073397636413574e-01
9.470000000000000000e+02 3.259775543212890625e+01 3.807976913452148438e+01 -1.864230632781982422e-01 1.448530673980712891e+01 4.289665222167968750e+00 5.633144974708557129e-01
9.480000000000000000e+02 3.226413345336914062e+01 3.295148468017578125e+01 1.237923979759216309e+00 1.430524444580078125e+01 4.662950515747070312e+00 1.442496895790100098e+00
9.490000000000000000e+02 2.677247619628906250e+01 3.826594161987304688e+01 -3.957223296165466309e-01 4.575306475162506104e-01 1.854249462485313416e-02 2.996394932270050049e-01
9.500000000000000000e+02 2.728813743591308594e+01 3.921291351318359375e+01 8.348464369773864746e-01 5.043382048606872559e-01 4.017553925514221191e-01 -6.825949549674987793e-01
9.510000000000000000e+02 2.788996696472167969e+01 3.881924057006835938e+01 7.762624025344848633e-01 9.725381731986999512e-01 5.246401429176330566e-01 -1.952380537986755371e-01
9.520000000000000000e+02 2.853254699707031250e+01 3.867062759399414062e+01 5.620678663253784180e-01 2.152248620986938477e+00 8.142949342727661133e-01 -1.099259018898010254e+00
9.530000000000000000e+02 2.109208488464355469e+01 3.897945022583007812e+01 -1.226219013333320618e-01 -2.014047950506210327e-01 -9.720800817012786865e-02 3.055055737495422363e-01
9.540000000000000000e+02 2.396798706054687500e+01 3.917192077636718750e+01 1.571429669857025146e-01 -3.826335966587066650e-01 -6.764718890190124512e-02 7.722851037979125977e-01
9.550000000000000000e+02 2.513602066040039062e+01 3.975836563110351562e+01 4.759213030338287354e-01 3.688868284225463867e-01 2.534424364566802979e-01 6.190708279609680176e-01
9.560000000000000000e+02 2.291492271423339844e+01 3.440834808349609375e+01 -6.743121147155761719e-02 -5.069977045059204102e-02 -3.543929383158683777e-02 -3.603852391242980957e-01
9.570000000000000000e+02 2.290856170654296875e+01 3.340415954589843750e+01 1.463427394628524780e-01 -2.885465696454048157e-02 3.524642437696456909e-02 -2.854014635086059570e-01
9.580000000000000000e+02 2.617320442199707031e+01 3.377119064331054688e+01 8.599975705146789551e-01 4.382356405258178711e-01 3.894699513912200928e-01 2.379707694053649902e-01
9.590000000000000000e+02 2.547785949707031250e+01 3.297119522094726562e+01 9.532079696655273438e-01 6.257396936416625977e-01 4.736843109130859375e-01 3.362482190132141113e-01
9.600000000000000000e+02 2.096819877624511719e+01 3.233982849121093750e+01 2.727783471345901489e-02 -7.434804439544677734e-01 -2.148607969284057617e-01 -8.193731307983398438e-02
9.610000000000000000e+02 2.283005905151367188e+01 -4.130014419555664062e+01 -6.961537599563598633e-01 5.277233600616455078e+00 1.374323964118957520e+00 -1.122115030884742737e-01
9.620000000000000000e+02 1.906972694396972656e+01 -3.773987960815429688e+01 5.838267803192138672e-01 4.600103855133056641e+00 1.555179238319396973e+00 1.270658373832702637e+00
9.630000000000000000e+02 1.310477161407470703e+01 -3.725006484985351562e+01 -1.382944732904434204e-01 3.975301608443260193e-02 -2.956243418157100677e-02 3.813173994421958923e-02
9.640000000000000000e+02 1.223672676086425781e+01 2.547483634948730469e+01 -4.498422611504793167e-03 -5.450717289932072163e-04 -1.513048307970166206e-03 -5.632995744235813618e-04
9.650000000000000000e+02 1.302350902557373047e+01 3.286221694946289062e+01 4.627911839634180069e-03 2.523463219404220581e-03 2.145412610843777657e-03 -3.170271404087543488e-03
9.660000000000000000e+02 1.356319427490234375e+01 3.128255844116210938e+01 9.924049489200115204e-03 -2.141109202057123184e-03 2.334882039576768875e-03 5.836585070937871933e-03
9.670000000000000000e+02 1.360884666442871094e+01 2.692953872680664062e+01 -6.075348239392042160e-03 1.386092044413089752e-04 -1.781021710485219955e-03 -5.738641484640538692e-04
9.680000000000000000e+02 1.685520744323730469e+01 3.531951141357421875e+01 2.886374853551387787e-02 2.750576660037040710e-02 1.691085472702980042e-02 8.986303582787513733e-03
9.690000000000000000e+02 1.692841911315917969e+01 3.787507629394531250e+01 -2.701677195727825165e-02 -2.086334116756916046e-02 -1.436403393745422363e-02 3.853615000844001770e-02
9.700000000000000000e+02 1.531832504272460938e+01 3.470117950439453125e+01 2.089217491447925568e-02 9.102062322199344635e-03 8.998271077871322632e-03 5.020731594413518906e-03
9.710000000000000000e+02 1.450273036956787109e+01 1.876338577270507812e+01 4.847329109907150269e-03 -5.639899609377607703e-05 1.437279046513140202e-03 -4.572214311338029802e-05
9.720000000000000000e+02 1.327812957763671875e+01 1.880016136169433594e+01 -4.278528038412332535e-03 -2.261743211420252919e-04 -1.351410639472305775e-03 4.174156492808833718e-05
9.730000000000000000e+02 1.471657180786132812e+01 2.426456260681152344e+01 6.638511549681425095e-03 1.236732496181502938e-04 2.028655493631958961e-03 5.700024194084107876e-04
9.740000000000000000e+02 1.367199802398681641e+01 2.831578445434570312e+01 7.735246326774358749e-03 1.476652454584836960e-03 2.763569587841629982e-03 2.939797006547451019e-03
9.750000000000000000e+02 1.325365352630615234e+01 1.745412635803222656e+01 4.046652000397443771e-03 6.588261749129742384e-05 1.233760383911430836e-03 -1.634120562812313437e-04
9.760000000000000000e+02 1.299374103546142578e+01 1.181474113464355469e+01 3.056952496990561485e-03 -2.339402999496087432e-04 8.469036547467112541e-04 2.592048840597271919e-04
9.770000000000000000e+02 1.309261131286621094e+01 1.472566890716552734e+01 3.689844394102692604e-03 -7.472602737834677100e-05 1.084535499103367329e-03 -2.508217876311391592e-04
9.780000000000000000e+02 1.453245449066162109e+01 4.964824199676513672e+00 1.546658109873533249e-03 1.059329224517568946e-04 4.957773489877581596e-04 -1.546384155517444015e-04
9.790000000000000000e+02 1.097402381896972656e+01 2.748044013977050781e+00 2.691366535145789385e-04 4.561388632282614708e-04 2.175826521124690771e-04 3.203926316928118467e-04
9.800000000000000000e+02 1.054209613800048828e+01 4.376822948455810547e+00 3.954239946324378252e-04 3.018690331373363733e-04 2.091879141516983509e-04 4.363542248029261827e-04
9.810000000000000000e+02 1.340513896942138672e+01 7.765296936035156250e+00 -2.258033957332372665e-03 -5.147119736648164690e-05 -6.928514922037720680e-04 -4.027336835861206055e-04
9.820000000000000000e+02 1.293261337280273438e+01 1.328760528564453125e+01 -3.420183900743722916e-03 -6.815456436015665531e-05 -1.046501565724611282e-03 6.485470657935366035e-05
9.830000000000000000e+02 7.930346679687500000e+01 -2.782430839538574219e+01 -5.035719950683414936e-04 8.651649475097656250e+00 2.595343828201293945e+00 -7.409575395286083221e-03
9.840000000000000000e+02 7.728497314453125000e+01 -3.790019989013671875e+01 -9.758679196238517761e-03 8.583402633666992188e+00 2.572093009948730469e+00 9.334285743534564972e-03
9.850000000000000000e+02 7.933034515380859375e+01 -3.475314712524414062e+01 -4.460921511054039001e-03 8.683095932006835938e+00 2.603590726852416992e+00 1.302558575844159350e-05
9.860000000000000000e+02 7.840612030029296875e+01 3.370271682739257812e+01 1.927344873547554016e-02 6.291054248809814453e+00 1.893098354339599609e+00 -6.229417026042938232e-02
9.870000000000000000e+02 7.938459777832031250e+01 3.610015487670898438e+01 6.613885052502155304e-04 6.133008003234863281e+00 1.840100765228271484e+00 -2.765523502603173256e-03
9.880000000000000000e+02 7.934303283691406250e+01 -2.086096382141113281e+01 -1.194374126498587430e-04 8.590467453002929688e+00 2.577104330062866211e+00 -1.033452246338129044e-02
9.890000000000000000e+02 7.791134643554687500e+01 -2.772293472290039062e+01 -1.045261626131832600e-03 8.568547248840332031e+00 2.570250511169433594e+00 -1.737338863313198090e-02
9.900000000000000000e+02 7.795978546142578125e+01 -2.632214164733886719e+01 -1.328949700109660625e-03 8.561599731445312500e+00 2.568081140518188477e+00 -1.840482093393802643e-02
9.910000000000000000e+02 7.927488708496093750e+01 -3.061606597900390625e+01 -1.275560236535966396e-03 8.669680595397949219e+00 2.600521564483642578e+00 -5.603936035186052322e-03
9.920000000000000000e+02 7.781762695312500000e+01 -3.331469345092773438e+01 -4.645275883376598358e-03 8.596128463745117188e+00 2.577445030212402344e+00 -5.320624914020299911e-03
9.930000000000000000e+02 7.498702239990234375e+01 -3.759246444702148438e+01 -1.216635759919881821e-02 8.465475082397460938e+00 2.535992622375488281e+00 -3.155051171779632568e-02
9.940000000000000000e+02 7.639511108398437500e+01 -3.902142715454101562e+01 -6.323889363557100296e-03 8.574615478515625000e+00 2.570487499237060547e+00 -2.725110622122883797e-03
9.950000000000000000e+02 7.802184295654296875e+01 1.410597133636474609e+01 -2.126353327184915543e-03 7.422961711883544922e+00 2.226250648498535156e+00 -1.286245286464691162e-01
9.960000000000000000e+02 7.933817291259765625e+01 1.538492012023925781e+01 4.129105218453332782e-05 7.320590972900390625e+00 2.196189641952514648e+00 -4.942931234836578369e-02
9.970000000000000000e+02 7.798618316650390625e+01 2.109664344787597656e+01 -4.604845598805695772e-04 7.000792980194091797e+00 2.100099802017211914e+00 -1.389474123716354370e-01
9.980000000000000000e+02 7.931290435791015625e+01 2.236956596374511719e+01 -1.046357065206393600e-04 6.842280387878417969e+00 2.052652835845947266e+00 -5.225208774209022522e-02
9.990000000000000000e+02 7.790390014648437500e+01 3.257570266723632812e+01 1.954679377377033234e-02 6.406125545501708984e+00 1.927701711654663086e+00 -9.687305241823196411e-02
1.000000000000000000e+03 7.932678222656250000e+01 2.796117401123046875e+01 -2.550499280914664268e-03 6.479639530181884766e+00 1.943126678466796875e+00 -4.514035210013389587e-02
1.001000000000000000e+03 7.790059661865234375e+01 2.538008499145507812e+01 6.094370037317276001e-03 6.744893074035644531e+00 2.025296211242675781e+00 -1.324921846389770508e-01
1.002000000000000000e+03 7.791802978515625000e+01 2.394054031372070312e+01 3.402925096452236176e-03 6.830388069152832031e+00 2.050137281417846680e+00 -1.398863047361373901e-01
1.003000000000000000e+03 7.801264190673828125e+01 1.830501937866210938e+01 -2.012914279475808144e-03 7.172033786773681641e+00 2.151006221771240234e+00 -1.369880139827728271e-01
1.004000000000000000e+03 7.801963806152343750e+01 1.550064182281494141e+01 -2.858021296560764313e-03 7.341255187988281250e+00 2.201519250869750977e+00 -1.320810317993164062e-01
1.005000000000000000e+03 7.801687622070312500e+01 1.690267181396484375e+01 -8.605925249867141247e-04 7.256957054138183594e+00 2.176829099655151367e+00 -1.347958445549011230e-01
1.006000000000000000e+03 7.802335357666015625e+01 1.271813774108886719e+01 -3.736261278390884399e-03 7.501942157745361328e+00 2.249461650848388672e+00 -1.245188638567924500e-01
1.007000000000000000e+03 7.669790649414062500e+01 1.145772552490234375e+01 -9.453390724956989288e-03 7.579327583312988281e+00 2.270962238311767578e+00 -1.889502853155136108e-01
1.008000000000000000e+03 7.800713348388671875e+01 8.524964332580566406e+00 -3.326276782900094986e-03 7.724024772644042969e+00 2.316209554672241211e+00 -1.110102459788322449e-01
1.009000000000000000e+03 7.933988189697265625e+01 9.812803268432617188e+00 -1.519042270956560969e-04 7.665198802947998047e+00 2.299514055252075195e+00 -4.373208433389663696e-02
1.010000000000000000e+03 7.934225463867187500e+01 -1.947114944458007812e+01 -8.484828867949545383e-04 8.574781417846679688e+00 2.572180032730102539e+00 -1.135413441807031631e-02
1.011000000000000000e+03 7.933486938476562500e+01 -1.390236568450927734e+01 -1.015868969261646271e-03 8.495538711547851562e+00 2.548357009887695312e+00 -1.547862589359283447e-02
1.012000000000000000e+03 7.934754180908203125e+01 -6.929880142211914062e+00 -2.080187114188447595e-04 8.349363327026367188e+00 2.504746675491333008e+00 -2.211577445268630981e-02
1.013000000000000000e+03 7.804787445068359375e+01 9.169521927833557129e-02 -3.577003255486488342e-03 8.081217765808105469e+00 2.423292398452758789e+00 -7.809431105852127075e-02
1.014000000000000000e+03 7.934403991699218750e+01 1.429408907890319824e+00 -6.995035801082849503e-04 8.073050498962402344e+00 2.421705245971679688e+00 -3.257735446095466614e-02
1.015000000000000000e+03 7.662814331054687500e+01 7.201847076416015625e+00 -9.930684231221675873e-03 7.774868488311767578e+00 2.329481363296508789e+00 -1.675886809825897217e-01
1.016000000000000000e+03 7.794329833984375000e+01 2.953239440917968750e+01 1.902508549392223358e-03 6.533406257629394531e+00 1.960592627525329590e+00 -1.131372600793838501e-01
1.017000000000000000e+03 7.384069061279296875e+01 3.724293136596679688e+01 9.713132679462432861e-02 6.697254180908203125e+00 2.038315773010253906e+00 -1.426544487476348877e-01
1.018000000000000000e+03 7.801636505126953125e+01 9.931809425354003906e+00 -4.444767720997333527e-03 7.652973175048828125e+00 2.294558525085449219e+00 -1.156971901655197144e-01
1.019000000000000000e+03 7.675546264648437500e+01 1.137673854827880859e-01 -1.053441595286130905e-02 8.041942596435546875e+00 2.409422397613525391e+00 -1.213593408465385437e-01
1.020000000000000000e+03 7.801685333251953125e+01 2.890643119812011719e+00 -3.903693286702036858e-03 7.975475788116455078e+00 2.391471624374389648e+00 -8.938515186309814453e-02
1.021000000000000000e+03 7.805926513671875000e+01 -1.303131103515625000e+00 -4.297508392482995987e-03 8.129066467285156250e+00 2.437430620193481445e+00 -7.264190912246704102e-02
1.022000000000000000e+03 7.935321807861328125e+01 -2.752824544906616211e+00 -1.176313962787389755e-03 8.226700782775878906e+00 2.467657327651977539e+00 -2.687246166169643402e-02
1.023000000000000000e+03 7.803049468994140625e+01 -8.245862960815429688e+00 -2.722454955801367760e-03 8.319435119628906250e+00 2.495013952255249023e+00 -5.125267803668975830e-02
1.024000000000000000e+03 7.805940246582031250e+01 -5.468001842498779297e+00 -2.976593328639864922e-03 8.252584457397460938e+00 2.474882364273071289e+00 -5.888077989220619202e-02
1.025000000000000000e+03 7.933885192871093750e+01 -9.716639518737792969e+00 -1.411804405506700277e-04 8.415691375732421875e+00 2.524665117263793945e+00 -1.930440030992031097e-02
1.026000000000000000e+03 7.799427032470703125e+01 -1.244947910308837891e+01 -3.203741507604718208e-03 8.402147293090820312e+00 2.519683122634887695e+00 -4.053277149796485901e-02
1.027000000000000000e+03 7.933737182617187500e+01 -1.668828582763671875e+01 -7.717902190051972866e-04 8.538433074951171875e+00 2.561298370361328125e+00 -1.334881875663995743e-02
1.028000000000000000e+03 7.803613281250000000e+01 -2.078608894348144531e+01 -2.376301679760217667e-03 8.517552375793457031e+00 2.554552793502807617e+00 -2.434055693447589874e-02
1.029000000000000000e+03 7.803089904785156250e+01 -1.940666007995605469e+01 -1.604274730198085308e-03 8.502138137817382812e+00 2.550160169601440430e+00 -2.653595060110092163e-02
1.030000000000000000e+03 1.307493305206298828e+01 -3.012825775146484375e+01 4.895016085356473923e-03 -7.201245171017944813e-04 1.252467511221766472e-03 1.298884861171245575e-03
1.031000000000000000e+03 2.211919975280761719e+01 1.485589265823364258e+00 -4.558052867650985718e-02 5.795243263244628906e+00 1.724898815155029297e+00 2.917849719524383545e-01
1.032000000000000000e+03 2.342894363403320312e+01 1.485815048217773438e+00 -9.627202525734901428e-04 5.838281631469726562e+00 1.751195669174194336e+00 3.226594626903533936e-01
1.033000000000000000e+03 2.018876457214355469e+01 -1.394114398956298828e+01 1.350559443235397339e-01 6.184892177581787109e+00 1.895984411239624023e+00 3.349030911922454834e-01
1.034000000000000000e+03 1.383826732635498047e+01 -3.875876998901367188e+01 -1.954752355813980103e-01 5.806789919734001160e-02 -4.122220352292060852e-02 -1.126724556088447571e-01
1.035000000000000000e+03 1.985405349731445312e+01 -1.814430046081542969e+01 -4.684521630406379700e-02 5.232813358306884766e+00 1.555790543556213379e+00 3.135467469692230225e-01
1.036000000000000000e+03 2.039779281616210938e+01 -5.510426521301269531e+00 -5.818998441100120544e-02 5.346922874450683594e+00 1.586619853973388672e+00 2.278560549020767212e-01
1.037000000000000000e+03 2.204093551635742188e+01 9.314149618148803711e-02 -7.271210104227066040e-02 5.798066616058349609e+00 1.717606306076049805e+00 3.808110952377319336e-01
1.038000000000000000e+03 2.170388793945312500e+01 -8.292430877685546875e+00 1.754771918058395386e-02 5.783267974853515625e+00 1.740244746208190918e+00 2.668973803520202637e-01
1.039000000000000000e+03 2.131909942626953125e+01 -1.951622772216796875e+01 -9.923821687698364258e-02 5.601497650146484375e+00 1.650677800178527832e+00 2.613115310668945312e-01
1.040000000000000000e+03 2.177924728393554688e+01 -5.505974769592285156e+00 -1.109418570995330811e-01 5.729906558990478516e+00 1.685689449310302734e+00 2.693496048450469971e-01
1.041000000000000000e+03 1.973843574523925781e+01 -3.363016128540039062e+01 2.347682416439056396e-01 6.343110561370849609e+00 1.973363518714904785e+00 2.662161290645599365e-01
1.042000000000000000e+03 2.298852348327636719e+01 -3.332158660888671875e+01 3.057855367660522461e-01 5.659004211425781250e+00 1.789436936378479004e+00 2.559657692909240723e-01
1.043000000000000000e+03 2.146689224243164062e+01 -1.533486270904541016e+01 8.177655190229415894e-02 5.797104835510253906e+00 1.763664364814758301e+00 1.922314316034317017e-01
1.044000000000000000e+03 2.153372764587402344e+01 -1.392095565795898438e+01 1.413072943687438965e-01 5.787351608276367188e+00 1.778597712516784668e+00 2.690423130989074707e-01
1.045000000000000000e+03 2.183790016174316406e+01 -4.113495349884033203e+00 -5.381505563855171204e-02 5.734191894531250000e+00 1.704113125801086426e+00 2.208852469921112061e-01
1.046000000000000000e+03 2.234438896179199219e+01 7.159714698791503906e+00 3.005530312657356262e-02 5.589520931243896484e+00 1.685872793197631836e+00 3.191656768321990967e-01
1.047000000000000000e+03 2.478883361816406250e+01 -2.183171081542968750e+01 -7.568068057298660278e-02 5.834778785705566406e+00 1.727729439735412598e+00 1.559940129518508911e-01
1.048000000000000000e+03 1.194584083557128906e+01 -2.736792182922363281e+01 -6.078677251935005188e-03 -2.056563273072242737e-03 -2.440572250634431839e-03 -3.973267157562077045e-04
1.049000000000000000e+03 2.220227432250976562e+01 2.887685060501098633e+00 9.271563589572906494e-02 5.779733657836914062e+00 1.761734724044799805e+00 2.840268015861511230e-01
1.050000000000000000e+03 1.447174263000488281e+01 -2.483530235290527344e+01 -8.573615923523902893e-03 1.534066628664731979e-03 -2.111864974722266197e-03 -9.346866281703114510e-04
1.051000000000000000e+03 1.203179740905761719e+01 -2.495851516723632812e+01 -5.199089646339416504e-03 -1.456421334296464920e-03 -1.996653387323021889e-03 -1.949532190337777138e-03
1.052000000000000000e+03 2.133618927001953125e+01 -2.666054534912109375e+01 8.161001838743686676e-03 5.647058010101318359e+00 1.696565747261047363e+00 1.359292715787887573e-01
1.053000000000000000e+03 2.100342178344726562e+01 2.681324195861816406e+01 1.424873992800712585e-02 5.791198834776878357e-02 2.164821885526180267e-02 2.078965902328491211e-01
1.054000000000000000e+03 2.107459259033203125e+01 1.135783958435058594e+01 -2.177035436034202576e-03 4.832515239715576172e+00 1.449101448059082031e+00 1.113143563270568848e-01
1.055000000000000000e+03 2.096740722656250000e+01 3.100638580322265625e+01 4.203784838318824768e-02 -8.530254364013671875e-01 -2.432962805032730103e-01 1.014952547848224640e-02
1.056000000000000000e+03 1.483044624328613281e+01 -2.151015043258666992e+00 -6.403921288438141346e-04 -9.828332258621230721e-05 -2.216026477981358767e-04 -1.351565442746505141e-04
1.057000000000000000e+03 2.167129516601562500e+01 -9.694294929504394531e+00 6.144038960337638855e-02 5.795443534851074219e+00 1.757065176963806152e+00 2.148559242486953735e-01
1.058000000000000000e+03 2.173653984069824219e+01 -6.896800994873046875e+00 -6.694021821022033691e-02 5.725012302398681641e+00 1.697421669960021973e+00 2.733976840972900391e-01
1.059000000000000000e+03 2.235803985595703125e+01 9.995622634887695312e+00 -8.433333598077297211e-03 5.182383537292480469e+00 1.552185058593750000e+00 3.077515065670013428e-01
1.060000000000000000e+03 2.352767944335937500e+01 1.708939361572265625e+01 -9.163990616798400879e-02 4.226927757263183594e+00 1.240586400032043457e+00 7.279876470565795898e-01
1.061000000000000000e+03 2.101343154907226562e+01 2.259603118896484375e+01 -1.825538813136518002e-03 1.748823523521423340e+00 5.240994095802307129e-01 2.244684249162673950e-01
1.062000000000000000e+03 2.213120841979980469e+01 2.540613937377929688e+01 9.209892712533473969e-03 1.363399386405944824e+00 4.117827713489532471e-01 6.471567749977111816e-01
1.063000000000000000e+03 2.103811454772949219e+01 1.979314231872558594e+01 -5.166530143469572067e-03 2.767104387283325195e+00 8.285813331604003906e-01 1.962099224328994751e-01
1.064000000000000000e+03 2.224129104614257812e+01 1.983954048156738281e+01 -4.012809321284294128e-02 3.169646501541137695e+00 9.388555288314819336e-01 5.621454715728759766e-01
1.065000000000000000e+03 2.343298721313476562e+01 1.988129997253417969e+01 -9.404105693101882935e-02 3.622208833694458008e+00 1.058450341224670410e+00 8.606991171836853027e-01
1.066000000000000000e+03 2.229636955261230469e+01 1.703817558288574219e+01 -3.960827365517616272e-02 3.891698837280273438e+00 1.155627131462097168e+00 4.706518650054931641e-01
1.067000000000000000e+03 2.227222251892089844e+01 1.844137954711914062e+01 -3.847280144691467285e-02 3.549101829528808594e+00 1.053188800811767578e+00 5.163646936416625977e-01
1.068000000000000000e+03 2.215211296081542969e+01 2.824951934814453125e+01 1.067593842744827271e-01 4.650616347789764404e-01 1.715462952852249146e-01 4.818272888660430908e-01
1.069000000000000000e+03 2.325519943237304688e+01 2.398818016052246094e+01 -3.449842333793640137e-02 2.496450424194335938e+00 7.385855913162231445e-01 9.916549324989318848e-01
1.070000000000000000e+03 2.233250999450683594e+01 1.422728347778320312e+01 -3.229150921106338501e-02 4.480923652648925781e+00 1.334589719772338867e+00 3.874711990356445312e-01
1.071000000000000000e+03 1.325167942047119141e+01 -1.465532493591308594e+01 -3.439375665038824081e-03 -3.705971757881343365e-04 -1.142991823144257069e-03 6.382011924870312214e-04
1.072000000000000000e+03 1.359866237640380859e+01 -7.934989929199218750e+00 2.362449653446674347e-03 2.343543455936014652e-04 7.790412055328488350e-04 -2.996685216203331947e-04
1.073000000000000000e+03 1.461024570465087891e+01 -7.930449962615966797e+00 -2.779972739517688751e-03 -9.355419751955196261e-05 -8.620580774731934071e-04 9.860858699539676309e-05
1.074000000000000000e+03 1.177328205108642578e+01 -3.471562147140502930e+00 1.557146548293530941e-03 2.437590883346274495e-04 5.402716924436390400e-04 -7.951463339850306511e-04
1.075000000000000000e+03 1.342034149169921875e+01 -1.195606708526611328e+01 -3.094303654506802559e-03 -2.302549692103639245e-04 -9.973676642403006554e-04 4.761771997436881065e-04
1.076000000000000000e+03 1.454883956909179688e+01 -1.208875560760498047e+01 3.634494263678789139e-03 1.331555686192587018e-04 1.130294869653880596e-03 -4.256000393070280552e-04
1.077000000000000000e+03 1.365394020080566406e+01 -5.323032855987548828e+00 1.912384992465376854e-03 2.122360310750082135e-04 6.373862852342426777e-04 -1.735780824674293399e-04
1.078000000000000000e+03 1.462723922729492188e+01 -5.189124584197998047e+00 -2.076980192214250565e-03 -1.411892008036375046e-04 -6.654508179053664207e-04 -1.545057457406073809e-04
1.079000000000000000e+03 1.449173355102539062e+01 -1.486642456054687500e+01 4.155754111707210541e-03 2.936280798166990280e-04 1.334814704023301601e-03 -6.778987008146941662e-04
1.080000000000000000e+03 1.432728767395019531e+01 -1.905399131774902344e+01 -5.547263193875551224e-03 9.519043669570237398e-05 -1.635621767491102219e-03 1.133084762841463089e-03
1.081000000000000000e+03 2.211642456054687500e+01 2.966150093078613281e+01 1.464972943067550659e-01 1.095296815037727356e-01 7.680809497833251953e-02 2.901898920536041260e-01
1.082000000000000000e+03 2.328763198852539062e+01 2.975059127807617188e+01 3.670397102832794189e-01 8.308553695678710938e-01 3.593685328960418701e-01 5.693130493164062500e-01
1.083000000000000000e+03 1.376955151557922363e+00 -4.008827590942382812e+01 1.423153374344110489e-02 -3.705706819891929626e-02 -6.847660522907972336e-03 -9.532162221148610115e-04
1.084000000000000000e+03 6.961608529090881348e-01 3.737532806396484375e+01 -5.490849260240793228e-03 6.768325343728065491e-03 3.832428483292460442e-04 1.317761372774839401e-03
1.085000000000000000e+03 6.629507541656494141e-01 3.320536041259765625e+01 3.395189763978123665e-03 4.154337570071220398e-03 2.264858223497867584e-03 -9.331540786661207676e-04
1.086000000000000000e+03 2.313228130340576172e+00 3.804175567626953125e+01 -4.163424950093030930e-03 4.553559701889753342e-03 1.170403702417388558e-04 1.050465740263462067e-03
1.087000000000000000e+03 6.493637561798095703e-01 2.617039299011230469e+01 -3.577383002266287804e-03 1.263164012925699353e-04 -1.035319990478456020e-03 4.640490515157580376e-04
1.088000000000000000e+03 1.859966516494750977e+00 2.882539939880371094e+01 4.745680373162031174e-03 2.318607002962380648e-04 1.493262359872460365e-03 -9.797493694350123405e-04
1.089000000000000000e+03 7.815099358558654785e-01 -3.598821640014648438e+01 -1.184153649955987930e-02 -2.094988338649272919e-02 -9.837426245212554932e-03 -6.654018536210060120e-03
1.090000000000000000e+03 2.170072317123413086e+00 -3.299013519287109375e+01 7.382465060800313950e-03 -6.208625622093677521e-03 3.521518956404179335e-04 -4.585319664329290390e-03
1.091000000000000000e+03 3.197331905364990234e+00 2.739308357238769531e+01 3.353111678734421730e-03 1.842228230088949203e-04 1.061200397089123726e-03 -1.575886621139943600e-03
1.092000000000000000e+03 3.219099521636962891e+00 2.449878692626953125e+01 3.491176525130867958e-03 2.706967934500426054e-04 1.128562027588486671e-03 -2.329555281903594732e-04
1.093000000000000000e+03 2.001784801483154297e+00 3.300158309936523438e+01 -3.519091755151748657e-03 2.759938128292560577e-03 -2.277460589539259672e-04 -1.661749323830008507e-03
1.094000000000000000e+03 3.218882083892822266e+00 3.902347183227539062e+01 1.285849022679030895e-03 5.170569755136966705e-03 1.936925575137138367e-03 -2.804388292133808136e-03
1.095000000000000000e+03 2.044786453247070312e+00 -3.024871826171875000e+01 6.294014398008584976e-03 -1.341135008260607719e-03 1.485863933339715004e-03 -1.446812413632869720e-03
1.096000000000000000e+03 1.981626152992248535e+00 -2.746307563781738281e+01 6.006518378853797913e-03 1.971211459022015333e-04 1.861091819591820240e-03 4.760452429763972759e-04
1.097000000000000000e+03 2.400046110153198242e+00 -3.696759033203125000e+01 -1.042287983000278473e-02 -2.117284201085567474e-02 -9.478716179728507996e-03 -1.636035181581974030e-02
1.098000000000000000e+03 1.995524168014526367e+00 -2.179490089416503906e+01 4.294259473681449890e-03 7.086003897711634636e-04 1.500857877545058727e-03 1.045123208314180374e-03
1.099000000000000000e+03 6.478272080421447754e-01 1.910107040405273438e+01 2.102309605106711388e-03 -7.560914673376828432e-05 6.080101011320948601e-04 -2.112486545229330659e-04
1.100000000000000000e+03 6.146228313446044922e-01 1.344608783721923828e+01 1.720642787404358387e-03 -1.183610402222257107e-05 5.126419709995388985e-04 -1.772074756445363164e-04
1.101000000000000000e+03 5.575510859489440918e-01 7.785298347473144531e+00 1.146213267929852009e-03 2.812493949022609740e-05 3.523014602251350880e-04 -1.836848387029021978e-04
1.102000000000000000e+03 3.669191598892211914e+00 -3.914601898193359375e+01 -2.191375242546200752e-03 -2.398512698709964752e-02 -7.852950133383274078e-03 -1.728565990924835205e-02
1.103000000000000000e+03 5.470128059387207031e+00 -3.504707717895507812e+01 2.548875985667109489e-03 3.389953169971704483e-03 1.781648723408579826e-03 -1.501794718205928802e-02
1.104000000000000000e+03 2.253664493560791016e+00 -3.435487747192382812e+01 -1.111605949699878693e-02 -1.095004659146070480e-02 -6.619832012802362442e-03 -1.070853322744369507e-02
1.105000000000000000e+03 2.100451707839965820e+00 -3.162589645385742188e+01 -9.876903146505355835e-03 -3.992386162281036377e-03 -4.160786978900432587e-03 -6.183833815157413483e-03
1.106000000000000000e+03 3.275429964065551758e+00 -2.738646125793457031e+01 -8.043944835662841797e-03 -2.493522060831310228e-06 -2.413931535556912422e-03 -1.691995421424508095e-03
1.107000000000000000e+03 2.010976076126098633e+00 -2.321722602844238281e+01 -4.673555027693510056e-03 3.676870837807655334e-04 -1.291760359890758991e-03 -5.883999983780086040e-04
1.108000000000000000e+03 1.982027888298034668e+00 -2.606327056884765625e+01 -6.154421251267194748e-03 6.308025331236422062e-04 -1.657085609622299671e-03 -9.547131485305726528e-04
1.109000000000000000e+03 3.246120214462280273e+00 -2.023021316528320312e+01 4.597601015120744705e-03 2.349480782868340611e-04 1.449764706194400787e-03 9.391616913489997387e-04
1.110000000000000000e+03 6.409332156181335449e-01 -1.910806465148925781e+01 -3.278239397332072258e-03 3.814450465142726898e-04 -8.690383401699364185e-04 -2.622283645905554295e-04
1.111000000000000000e+03 1.915664076805114746e+00 -1.897379112243652344e+01 3.755082143470644951e-03 2.642018953338265419e-04 1.205785199999809265e-03 6.696955533698201180e-04
1.112000000000000000e+03 1.875384211540222168e+00 -1.618664360046386719e+01 3.069593338295817375e-03 1.612297492101788521e-04 9.692469029687345028e-04 6.457543931901454926e-04
1.113000000000000000e+03 6.059911847114562988e-01 -1.206736660003662109e+01 1.838702941313385963e-03 6.672406016150489450e-05 5.716281011700630188e-04 1.661995920585468411e-04
1.114000000000000000e+03 1.820744514465332031e+00 -1.198586559295654297e+01 -2.042599488049745560e-03 -1.467202091589570045e-04 -6.567959208041429520e-04 -2.734588633757084608e-04
1.115000000000000000e+03 4.631915569305419922e+00 -4.111528873443603516e+00 -7.531969458796083927e-05 -8.066432783380150795e-04 -2.645888889674097300e-04 -6.827585166320204735e-04
1.116000000000000000e+03 3.671024799346923828e+00 -2.763673305511474609e+00 5.253019626252353191e-04 1.756874989951029420e-04 2.102968428516760468e-04 3.474322729744017124e-04
1.117000000000000000e+03 2.729014396667480469e+00 -4.156313419342041016e+00 8.159707067534327507e-04 9.182106441585347056e-05 2.723375509958714247e-04 -6.390100461430847645e-04
1.118000000000000000e+03 1.384946227073669434e+00 -3.563407421112060547e+00 -1.133214565925300121e-03 4.938584970659576356e-05 -3.251486341468989849e-04 -1.116283456212840974e-04
1.119000000000000000e+03 4.792817234992980957e-01 4.957698822021484375e+00 8.950140327215194702e-04 6.695211777696385980e-05 2.885898284148424864e-04 -1.015236048260703683e-04
1.120000000000000000e+03 3.187552690505981445e+00 3.535058498382568359e+00 1.029485938488505781e-04 8.028636802919209003e-04 2.717436873354017735e-04 -8.152461377903819084e-04
1.121000000000000000e+03 1.810103178024291992e+00 1.047119045257568359e+01 -1.656537991948425770e-03 -2.958038930955808610e-05 -5.058355163782835007e-04 2.471059269737452269e-04
1.122000000000000000e+03 6.038926839828491211e-01 1.061755466461181641e+01 1.459657330997288227e-03 9.791478987608570606e-06 4.408346430864185095e-04 -1.790918322512879968e-04
1.123000000000000000e+03 1.838395595550537109e+00 1.330830669403076172e+01 -1.969839446246623993e-03 -1.316949146712431684e-05 -5.949026672169566154e-04 1.749394868966192007e-04
1.124000000000000000e+03 1.963080525398254395e+00 2.038201141357421875e+01 2.623117063194513321e-03 1.226901658810675144e-04 8.237421279773116112e-04 -3.050346276722848415e-04
1.125000000000000000e+03 1.938833475112915039e+00 1.896521759033203125e+01 -2.399780321866273880e-03 -1.145296046161092818e-04 -7.542929379269480705e-04 1.853650610428303480e-04
1.126000000000000000e+03 1.954592227935791016e+00 2.461240768432617188e+01 -2.874093130230903625e-03 -1.122040048358030617e-04 -8.958891849033534527e-04 3.093232808168977499e-04
1.127000000000000000e+03 2.988490867614746094e+01 3.379082870483398438e+01 3.881581544876098633e+00 4.831061363220214844e+00 2.613792896270751953e+00 4.910653591156005859e+00
1.128000000000000000e+03 3.111803817749023438e+01 3.317418289184570312e+01 1.832181334495544434e+00 1.127668190002441406e+01 3.932658910751342773e+00 4.439717292785644531e+00
1.129000000000000000e+03 2.849683380126953125e+01 3.430963897705078125e+01 2.075566291809082031e+00 7.581592202186584473e-01 8.501176238059997559e-01 1.309322476387023926e+00
1.130000000000000000e+03 2.968385696411132812e+01 3.410218048095703125e+01 4.129208087921142578e+00 3.067552328109741211e+00 2.159028291702270508e+00 4.085463047027587891e+00
1.131000000000000000e+03 2.929863548278808594e+01 3.415702056884765625e+01 3.535758972167968750e+00 1.802757501602172852e+00 1.601554870605468750e+00 2.945739984512329102e+00
1.132000000000000000e+03 3.004011917114257812e+01 3.358102798461914062e+01 3.610219717025756836e+00 6.192995548248291016e+00 2.940964460372924805e+00 5.294796466827392578e+00
1.133000000000000000e+03 3.010342979431152344e+01 3.779441833496093750e+01 3.359098732471466064e-01 6.068578720092773438e+00 1.921346545219421387e+00 -2.776104211807250977e+00
1.134000000000000000e+03 3.087177848815917969e+01 3.837267684936523438e+01 -4.740643501281738281e-01 1.013886451721191406e+01 2.899440050125122070e+00 -2.541617631912231445e+00
1.135000000000000000e+03 1.244029521942138672e+01 -2.656979560852050781e+00 1.087864162400364876e-03 -1.540042721899226308e-04 2.801579830702394247e-04 4.530484147835522890e-05
1.136000000000000000e+03 1.430585956573486328e+01 2.670231342315673828e+00 1.048036385327577591e-03 1.147758302977308631e-04 3.488436632324010134e-04 -5.849138251505792141e-04
1.137000000000000000e+03 3.211528301239013672e+00 2.720559120178222656e+00 -5.571856745518743992e-04 -5.081881536170840263e-04 -3.196121542714536190e-04 3.995423612650483847e-04
1.138000000000000000e+03 5.238829612731933594e+00 2.606080055236816406e+00 4.118150973226875067e-04 5.839556106366217136e-04 2.987312036566436291e-04 -2.963311562780290842e-04
1.139000000000000000e+03 5.211488246917724609e+00 3.354059219360351562e+00 -4.446898528840392828e-04 -5.138802225701510906e-04 -2.875710197258740664e-04 1.552675385028123856e-04
1.140000000000000000e+03 5.899720191955566406e+00 3.241334676742553711e+00 6.585647352039813995e-04 4.463250515982508659e-04 3.314669302199035883e-04 -1.528101274743676186e-04
1.141000000000000000e+03 5.947415351867675781e+00 2.552723407745361328e+00 -4.625194706022739410e-04 -5.475189536809921265e-04 -3.030115331057459116e-04 1.607245067134499550e-04
1.142000000000000000e+03 7.246903419494628906e+00 3.184781312942504883e+00 7.240119157359004021e-04 3.862525336444377899e-04 3.330793406348675489e-04 -2.630476592457853258e-05
1.143000000000000000e+03 6.574984550476074219e+00 3.190614700317382812e+00 -6.698952056467533112e-04 -4.585068381857126951e-04 -3.385206218808889389e-04 7.704147719778120518e-05
1.144000000000000000e+03 4.500973224639892578e+00 3.544030666351318359e+00 5.819945945404469967e-04 5.846279091201722622e-04 3.499867452774196863e-04 -4.713754169642925262e-04
1.145000000000000000e+03 3.876298666000366211e+00 2.694131851196289062e+00 6.504715420305728912e-04 5.567804328165948391e-04 3.621756040956825018e-04 -2.365085820201784372e-04
1.146000000000000000e+03 1.021556854248046875e+01 2.668128490447998047e+00 -2.587354101706296206e-04 -4.419577890075743198e-04 -2.102079597534611821e-04 -2.089859190164133906e-04
1.147000000000000000e+03 1.004044151306152344e+01 3.430473327636718750e+00 3.030941006727516651e-04 4.250953206792473793e-04 2.184568293159827590e-04 2.067282330244779587e-04
1.148000000000000000e+03 2.618776893615722656e+01 3.312627029418945312e+01 1.188657164573669434e+00 7.308374643325805664e-01 5.758484005928039551e-01 5.817245244979858398e-01
1.149000000000000000e+03 2.464439201354980469e+01 3.361869430541992188e+01 3.980767726898193359e-01 2.838579714298248291e-01 2.045804262161254883e-01 -1.222899854183197021e-01
1.150000000000000000e+03 2.469073486328125000e+01 3.276467895507812500e+01 6.890143156051635742e-01 5.043665170669555664e-01 3.580142557621002197e-01 1.386033296585083008e-01
1.151000000000000000e+03 2.199246215820312500e+01 3.226032257080078125e+01 1.468608081340789795e-01 -2.498966455459594727e-01 -3.091075085103511810e-02 -1.554607450962066650e-01
1.152000000000000000e+03 2.735028648376464844e+01 3.268243408203125000e+01 1.929667234420776367e+00 1.727227449417114258e+00 1.097068428993225098e+00 1.648390769958496094e+00
1.153000000000000000e+03 9.512499809265136719e+00 -3.411882162094116211e+00 -4.903678200207650661e-04 -5.233648698776960373e-04 -3.041198069695383310e-04 2.110129717038944364e-04
1.154000000000000000e+03 1.363208770751953125e+01 -4.077197074890136719e+00 -1.691468176431953907e-03 -3.280724049545824528e-04 -6.058621802367269993e-04 2.448027080390602350e-04
1.155000000000000000e+03 9.428847312927246094e+00 -4.186140060424804688e+00 5.725906812585890293e-04 5.013571353629231453e-04 3.221843508072197437e-04 -1.356936700176447630e-04
1.156000000000000000e+03 1.365524578094482422e+01 -2.982277870178222656e+00 1.585591933690011501e-03 1.740378793329000473e-04 5.278889439068734646e-04 -3.707963041961193085e-04
1.157000000000000000e+03 1.160089302062988281e+01 3.730792760848999023e+00 3.733776684384793043e-04 4.778167640324681997e-04 2.553583180997520685e-04 3.779399849008768797e-04
1.158000000000000000e+03 9.311036109924316406e+00 3.319419622421264648e+00 -3.869699139613658190e-04 -4.087076231371611357e-04 -2.387032582191750407e-04 -7.092105079209432006e-05
1.159000000000000000e+03 6.539475440979003906e+00 -3.371841669082641602e+00 -8.829680155031383038e-04 -2.809480356518179178e-04 -3.491748066153377295e-04 -1.116913772420957685e-04
1.160000000000000000e+03 2.697781562805175781e+00 -7.745133399963378906e+00 -1.760774990543723106e-03 -1.170869581983424723e-04 -5.633585969917476177e-04 -3.321191979921422899e-05
1.161000000000000000e+03 7.896004199981689453e+00 -4.974731445312500000e+00 -1.046559656970202923e-03 -5.090539343655109406e-04 -4.666840832214802504e-04 -2.249268582090735435e-04
1.162000000000000000e+03 5.835965156555175781e+00 -3.351530313491821289e+00 8.252960979007184505e-04 3.041572927031666040e-04 3.388360200915485620e-04 2.807896635204087943e-05
1.163000000000000000e+03 5.819564342498779297e+00 -2.598095178604125977e+00 -5.828303983435034752e-04 -3.790533228311687708e-04 -2.885651192627847195e-04 -8.145927131408825517e-05
1.164000000000000000e+03 2.223038196563720703e+00 -3.297911167144775391e+00 4.316345439292490482e-04 6.031173325027339160e-05 1.475838798796758056e-04 2.890522009693086147e-04
1.165000000000000000e+03 4.312724590301513672e+00 -5.150428771972656250e+00 -1.044844277203083038e-03 -3.088509547524154186e-04 -4.061085637658834457e-04 -1.140054897405207157e-03
1.166000000000000000e+03 1.509220719337463379e+00 -5.012104988098144531e+00 1.336703659035265446e-03 3.043650576728396118e-05 4.101420345250517130e-04 3.041747731913346797e-05
1.167000000000000000e+03 8.751585006713867188e+00 -3.394142389297485352e+00 6.144635262899100780e-04 4.598477389663457870e-04 3.222933737561106682e-04 -5.075752778793685138e-05
1.168000000000000000e+03 2.944377517700195312e+01 4.133883666992187500e+01 4.899924993515014648e-01 5.072640895843505859e+00 1.668789982795715332e+00 1.235468909144401550e-01
1.169000000000000000e+03 2.852573585510253906e+01 3.931192016601562500e+01 7.794219255447387695e-01 2.817489147186279297e+00 1.079073309898376465e+00 -8.649882078170776367e-01
1.170000000000000000e+03 2.939131927490234375e+01 3.875608062744140625e+01 5.336635708808898926e-01 4.017769813537597656e+00 1.365430116653442383e+00 -1.799503445625305176e+00
1.171000000000000000e+03 2.206734466552734375e+01 4.173500442504882812e+01 6.139004230499267578e-01 -4.772024750709533691e-01 4.100937768816947937e-02 1.655067354440689087e-01
1.172000000000000000e+03 2.378506851196289062e+01 3.350759124755859375e+01 2.549929320812225342e-01 1.267345696687698364e-01 1.145182549953460693e-01 -2.440771162509918213e-01
1.173000000000000000e+03 1.929046630859375000e+01 3.908826446533203125e+01 4.851267207413911819e-03 -1.226945966482162476e-01 -3.535300120711326599e-02 2.881660163402557373e-01
1.174000000000000000e+03 3.471379852294921875e+01 3.578054046630859375e+01 4.700329303741455078e+00 1.202234554290771484e+01 5.016802310943603516e+00 1.421721577644348145e+00
1.175000000000000000e+03 3.520182418823242188e+01 3.219461822509765625e+01 1.773600816726684570e+00 1.129364490509033203e+01 3.920173645019531250e+00 -3.456777036190032959e-01
1.176000000000000000e+03 3.455426406860351562e+01 3.288172149658203125e+01 2.574599981307983398e+00 1.194712352752685547e+01 4.356516838073730469e+00 -4.242357313632965088e-01
1.177000000000000000e+03 3.622130966186523438e+01 3.553762435913085938e+01 3.479121685028076172e+00 1.083749771118164062e+01 4.294985771179199219e+00 7.999283075332641602e-01
1.178000000000000000e+03 3.857410812377929688e+01 3.877245330810546875e+01 1.519455075263977051e+00 1.101015949249267578e+01 3.758884429931640625e+00 9.567080736160278320e-01
1.179000000000000000e+03 1.193663501739501953e+01 1.626107406616210938e+01 3.409148892387747765e-03 2.511913189664483070e-04 1.098102075047791004e-03 -3.949634556192904711e-04
1.180000000000000000e+03 1.211299800872802734e+01 1.023090267181396484e+01 1.952602993696928024e-03 5.192769822315312922e-05 6.013591773808002472e-04 8.628910873085260391e-04
1.181000000000000000e+03 1.230678939819335938e+01 2.681218910217285156e+01 6.103017367422580719e-03 9.453569655306637287e-04 2.114512259140610695e-03 2.093440853059291840e-03
1.182000000000000000e+03 2.299606704711914062e+01 -1.105223083496093750e+01 6.911467015743255615e-02 5.871010303497314453e+00 1.782037496566772461e+00 2.739651799201965332e-01
1.183000000000000000e+03 2.336099624633789062e+01 9.255351126194000244e-02 -2.270296774804592133e-02 5.816020488739013672e+00 1.737995266914367676e+00 3.344785869121551514e-01
1.184000000000000000e+03 4.143490791320800781e-01 3.557737112045288086e+00 -8.549370104447007179e-04 -2.547276380937546492e-06 -2.572452940512448549e-04 6.734504131600260735e-05
1.185000000000000000e+03 2.448424148559570312e+01 -6.835995197296142578e+00 -5.018887296319007874e-02 5.923535823822021484e+00 1.762004137039184570e+00 2.861676216125488281e-01
1.186000000000000000e+03 2.310445976257324219e+01 -6.877185821533203125e+00 -6.327888369560241699e-02 5.857445716857910156e+00 1.738250017166137695e+00 2.966888546943664551e-01
1.187000000000000000e+03 2.283601760864257812e+01 -1.803777885437011719e+01 -9.062273800373077393e-02 5.788040161132812500e+00 1.709225177764892578e+00 1.903987079858779907e-01
1.188000000000000000e+03 2.197378730773925781e+01 -1.305721640586853027e+00 2.897525765001773834e-02 5.668150901794433594e+00 1.709137916564941406e+00 3.910742998123168945e-01
1.189000000000000000e+03 2.329714584350585938e+01 -1.302367210388183594e+00 -2.818798646330833435e-02 5.815308570861816406e+00 1.736136198043823242e+00 3.217948973178863525e-01
1.190000000000000000e+03 1.144641017913818359e+01 3.224741744995117188e+01 5.913672037422657013e-03 -8.659201674163341522e-03 -8.236590074375271797e-04 6.009697914123535156e-03
1.191000000000000000e+03 1.440705776214599609e+01 3.371840667724609375e+01 1.600970630533993244e-03 -6.794417276978492737e-03 -1.558033982291817665e-03 1.090422645211219788e-02
1.192000000000000000e+03 1.332502937316894531e+01 2.149710655212402344e+01 -4.755967296659946442e-03 -3.913567634299397469e-04 -1.544197206385433674e-03 -2.491329214535653591e-04
1.193000000000000000e+03 1.201197433471679688e+01 1.755866622924804688e+01 -3.612303407862782478e-03 -2.217038418166339397e-04 -1.150202238932251930e-03 1.816414442146196961e-04
1.194000000000000000e+03 2.285526657104492188e+01 -1.666111564636230469e+01 -2.051258273422718048e-02 5.802253723144531250e+00 1.734522342681884766e+00 1.539849191904067993e-01
1.195000000000000000e+03 1.177890777587890625e+01 1.495871162414550781e+01 -3.124538576230406761e-03 -3.046854399144649506e-04 -1.028767204843461514e-03 6.468525971285998821e-04
1.196000000000000000e+03 1.332914257049560547e+01 6.434031009674072266e+00 1.843682839535176754e-03 1.931471051648259163e-04 6.110489484854042530e-04 3.170400159433484077e-04
1.197000000000000000e+03 1.335346412658691406e+01 5.102891445159912109e+00 -1.421740278601646423e-03 -1.568860752740874887e-04 -4.735878901556134224e-04 -2.239521127194166183e-04
1.198000000000000000e+03 9.110804557800292969e+00 4.009084224700927734e+00 5.086981691420078278e-04 2.993826637975871563e-04 2.424242411507293582e-04 3.248353459639474750e-05
1.199000000000000000e+03 1.095093154907226562e+01 5.456280708312988281e+00 1.048288308084011078e-03 -2.512348582968115807e-04 2.391160378465428948e-04 6.793075590394437313e-04
1.200000000000000000e+03 1.148903846740722656e+01 1.362886333465576172e+01 2.572583500295877457e-03 4.507625708356499672e-04 9.070038213394582272e-04 -9.221334476023912430e-04
1.201000000000000000e+03 7.699889183044433594e+00 -3.469188308715820312e+01 -2.188238315284252167e-02 2.545199915766716003e-02 1.070884522050619125e-03 -1.104802265763282776e-02
1.202000000000000000e+03 7.485575866699218750e+01 -3.528077697753906250e+01 -1.628534123301506042e-02 8.425552368164062500e+00 2.522779941558837891e+00 -2.605725638568401337e-02
1.203000000000000000e+03 7.700576782226562500e+01 -3.605393218994140625e+01 -1.251440122723579407e-02 8.553250312805175781e+00 2.562220811843872070e+00 -1.827863161452114582e-03
1.204000000000000000e+03 7.549594116210937500e+01 -2.204506492614746094e+01 -6.184660363942384720e-03 8.394290924072265625e+00 2.516431808471679688e+00 -4.497263580560684204e-02
1.205000000000000000e+03 7.784828186035156250e+01 -2.912847518920898438e+01 -1.512281130999326706e-03 8.573988914489746094e+00 2.571743011474609375e+00 -1.633217185735702515e-02
1.206000000000000000e+03 7.358448028564453125e+01 -3.817889022827148438e+01 -1.789387315511703491e-02 8.355370521545410156e+00 2.501243114471435547e+00 -1.568262837827205658e-02
1.207000000000000000e+03 7.543511199951171875e+01 1.574150276184082031e+01 -1.132524106651544571e-02 7.393485069274902344e+00 2.214648008346557617e+00 -2.696924209594726562e-01
1.208000000000000000e+03 7.671618652343750000e+01 1.561958026885986328e+01 -5.105687770992517471e-03 7.366406917572021484e+00 2.208390235900878906e+00 -2.057190388441085815e-01
1.209000000000000000e+03 7.830176544189453125e+01 3.574209594726562500e+01 1.148593425750732422e-02 6.215446472167968750e+00 1.868079781532287598e+00 -1.695008389651775360e-02
1.210000000000000000e+03 7.802909088134765625e+01 -2.216366386413574219e+01 -1.266183797270059586e-03 8.530889511108398438e+00 2.558887004852294922e+00 -2.204181998968124390e-02
1.211000000000000000e+03 7.671447753906250000e+01 -2.345451736450195312e+01 -2.926263026893138885e-03 8.471554756164550781e+00 2.540588617324829102e+00 -3.133230656385421753e-02
1.212000000000000000e+03 7.623819732666015625e+01 -3.041769790649414062e+01 -3.564715851098299026e-03 8.487527847290039062e+00 2.545188903808593750e+00 -2.436099201440811157e-02
1.213000000000000000e+03 7.639538574218750000e+01 -2.899038696289062500e+01 -3.250566078349947929e-03 8.488354682922363281e+00 2.545531034469604492e+00 -2.370960824191570282e-02
1.214000000000000000e+03 7.794877624511718750e+01 -3.465288162231445312e+01 -1.958012115210294724e-03 8.607811927795410156e+00 2.581756114959716797e+00 -6.472758017480373383e-03
1.215000000000000000e+03 7.544748687744140625e+01 -2.337469291687011719e+01 -7.150819990783929825e-03 8.402973175048828125e+00 2.518746614456176758e+00 -4.292899370193481445e-02
1.216000000000000000e+03 7.653837585449218750e+01 -2.758608818054199219e+01 -3.173016943037509918e-03 8.489368438720703125e+00 2.545858621597290039e+00 -2.562945149838924408e-02
1.217000000000000000e+03 7.667687225341796875e+01 -2.482424736022949219e+01 -2.723209327086806297e-03 8.479182243347167969e+00 2.542937755584716797e+00 -2.969888225197792053e-02
1.218000000000000000e+03 7.647026824951171875e+01 -3.479195022583007812e+01 -1.389379426836967468e-02 8.530235290527343750e+00 2.554902315139770508e+00 -7.273580878973007202e-03
1.219000000000000000e+03 7.301815032958984375e+01 -2.973232460021972656e+01 -1.055147685110569000e-02 8.310739517211914062e+00 2.490056276321411133e+00 -3.530479967594146729e-02
1.220000000000000000e+03 7.613130950927734375e+01 -3.188286018371582031e+01 -8.077215403318405151e-03 8.490509033203125000e+00 2.544729709625244141e+00 -2.146662771701812744e-02
1.221000000000000000e+03 7.795681762695312500e+01 2.250933837890625000e+01 2.996907569468021393e-03 6.916815757751464844e+00 2.075943708419799805e+00 -1.394218951463699341e-01
1.222000000000000000e+03 7.670369720458984375e+01 1.983392524719238281e+01 -2.790965372696518898e-03 7.138000488281250000e+00 2.140562772750854492e+00 -2.143772393465042114e-01
1.223000000000000000e+03 7.540129852294921875e+01 2.268236160278320312e+01 1.241712365299463272e-02 7.056551456451416016e+00 2.120690584182739258e+00 -2.813982367515563965e-01
1.224000000000000000e+03 7.668938446044921875e+01 2.121652030944824219e+01 4.936417564749717712e-03 7.060991287231445312e+00 2.119778394699096680e+00 -2.158003151416778564e-01
1.225000000000000000e+03 7.670633697509765625e+01 1.284199905395507812e+01 -6.850366014987230301e-03 7.510292530059814453e+00 2.251032590866088867e+00 -1.951374411582946777e-01
1.226000000000000000e+03 7.528350067138671875e+01 8.756349563598632812e+00 -1.909761317074298859e-02 7.706415176391601562e+00 2.306195259094238281e+00 -2.353371828794479370e-01
1.227000000000000000e+03 7.671166992187500000e+01 1.422476673126220703e+01 -7.662884425371885300e-03 7.439623832702636719e+00 2.229588270187377930e+00 -2.003640681505203247e-01
1.228000000000000000e+03 7.657410430908203125e+01 2.406492042541503906e+01 9.137745015323162079e-03 6.915956020355224609e+00 2.077527999877929688e+00 -2.128129452466964722e-01
1.229000000000000000e+03 7.795689392089843750e+01 2.677642631530761719e+01 3.673736064229160547e-04 6.668087005615234375e+00 2.000536203384399414e+00 -1.263328790664672852e-01
1.230000000000000000e+03 7.674157714843750000e+01 -2.209071159362792969e+01 -4.600975196808576584e-03 8.460689544677734375e+00 2.536826610565185547e+00 -3.489166870713233948e-02
1.231000000000000000e+03 7.772341156005859375e+01 3.109267997741699219e+01 1.048922911286354065e-02 6.479547023773193359e+00 1.947010755538940430e+00 -1.158375144004821777e-01
1.232000000000000000e+03 7.686190795898437500e+01 2.832491874694824219e+01 7.350501604378223419e-03 6.681941032409667969e+00 2.006787538528442383e+00 -1.691406369209289551e-01
1.233000000000000000e+03 7.382051086425781250e+01 -1.678487014770507812e+01 -1.870805211365222931e-02 8.262712478637695312e+00 2.473201513290405273e+00 -8.165899664163589478e-02
1.234000000000000000e+03 7.674852752685546875e+01 -2.073414230346679688e+01 -3.626905148848891258e-03 8.447607994079589844e+00 2.533194303512573242e+00 -3.727243095636367798e-02
1.235000000000000000e+03 7.544583129882812500e+01 -8.064453125000000000e+00 -1.371147390455007553e-02 8.205307006835937500e+00 2.457478523254394531e+00 -1.059085503220558167e-01
1.236000000000000000e+03 7.799862670898437500e+01 -1.524197578430175781e+01 -2.639378188177943230e-03 8.447093009948730469e+00 2.533336162567138672e+00 -3.459949791431427002e-02
1.237000000000000000e+03 7.552124023437500000e+01 -1.289753198623657227e+00 -1.798254437744617462e-02 8.049727439880371094e+00 2.409523487091064453e+00 -1.490091383457183838e-01
1.238000000000000000e+03 7.676105499267578125e+01 -6.779752254486083984e+00 -7.572012953460216522e-03 8.231055259704589844e+00 2.467044830322265625e+00 -8.530861139297485352e-02
1.239000000000000000e+03 7.799585723876953125e+01 5.705976486206054688e+00 -3.815463045611977577e-03 7.856565475463867188e+00 2.355824947357177734e+00 -1.008663401007652283e-01
1.240000000000000000e+03 7.667861175537109375e+01 2.922803640365600586e+00 -1.158108562231063843e-02 7.943500518798828125e+00 2.379575729370117188e+00 -1.403365433216094971e-01
1.241000000000000000e+03 7.624443054199218750e+01 3.713811492919921875e+01 3.664193302392959595e-02 6.389279842376708984e+00 1.927776455879211426e+00 -9.347846359014511108e-02
1.242000000000000000e+03 7.772318267822265625e+01 3.663946914672851562e+01 2.254188619554042816e-02 6.228808403015136719e+00 1.875405073165893555e+00 -3.431788459420204163e-02
1.243000000000000000e+03 7.799802398681640625e+01 7.114166736602783203e+00 -4.715867806226015091e-03 7.792192459106445312e+00 2.336242914199829102e+00 -1.063124909996986389e-01
1.244000000000000000e+03 7.662094879150390625e+01 5.774756908416748047e+00 -1.177173480391502380e-02 7.833601474761962891e+00 2.346548795700073242e+00 -1.595979779958724976e-01
1.245000000000000000e+03 7.679610443115234375e+01 -2.656605243682861328e+00 -9.743601083755493164e-03 8.127127647399902344e+00 2.435214996337890625e+00 -1.050996258854866028e-01
1.246000000000000000e+03 7.669738769531250000e+01 -9.563278198242187500e+00 -7.399459369480609894e-03 8.287160873413085938e+00 2.483928442001342773e+00 -7.442698627710342407e-02
1.247000000000000000e+03 7.665084075927734375e+01 -1.661689376831054688e+01 -5.722149275243282318e-03 8.397402763366699219e+00 2.517504215240478516e+00 -4.944192618131637573e-02
1.248000000000000000e+03 7.665388488769531250e+01 3.362659454345703125e+01 3.443115204572677612e-02 6.487534523010253906e+00 1.956589698791503906e+00 -1.298855990171432495e-01
1.249000000000000000e+03 7.403972625732421875e+01 3.471644973754882812e+01 7.371491938829421997e-02 6.707039356231689453e+00 2.034226417541503906e+00 -1.808768361806869507e-01
1.250000000000000000e+03 7.671716308593750000e+01 1.844091606140136719e+01 -9.823589352890849113e-04 7.211888790130615234e+00 2.163271903991699219e+00 -2.119606733322143555e-01
1.251000000000000000e+03 7.668210601806640625e+01 1.005662155151367188e+01 -9.147206321358680725e-03 7.646751403808593750e+00 2.291281223297119141e+00 -1.825364083051681519e-01
1.252000000000000000e+03 7.799262237548828125e+01 -1.384858417510986328e+01 -2.070302376523613930e-03 8.425461769104003906e+00 2.527017593383789062e+00 -3.721101209521293640e-02
1.253000000000000000e+03 7.662642669677734375e+01 -1.521738719940185547e+01 -5.459490697830915451e-03 8.378435134887695312e+00 2.511892795562744141e+00 -5.370522290468215942e-02
1.254000000000000000e+03 7.804693603515625000e+01 -6.856007099151611328e+00 -3.731752280145883560e-03 8.287396430969238281e+00 2.485099315643310547e+00 -5.483854562044143677e-02
1.255000000000000000e+03 7.672850036621093750e+01 -8.164222717285156250e+00 -8.288414217531681061e-03 8.259871482849121094e+00 2.475474834442138672e+00 -7.981585711240768433e-02
1.256000000000000000e+03 7.803296661376953125e+01 1.487547636032104492e+00 -4.591626580804586411e-03 8.029938697814941406e+00 2.407604217529296875e+00 -8.353742212057113647e-02
1.257000000000000000e+03 7.678079986572265625e+01 -1.275834202766418457e+00 -8.917713537812232971e-03 8.086118698120117188e+00 2.423160314559936523e+00 -1.130171418190002441e-01
1.258000000000000000e+03 7.851974487304687500e+01 3.470224761962890625e+01 1.800747774541378021e-02 6.216879367828369141e+00 1.870465993881225586e+00 -3.328368067741394043e-02
1.259000000000000000e+03 7.664065551757812500e+01 4.347825050354003906e+00 -1.048563234508037567e-02 7.889962196350097656e+00 2.363842964172363281e+00 -1.500449180603027344e-01
1.260000000000000000e+03 7.679744720458984375e+01 -4.029464244842529297e+00 -8.326112292706966400e-03 8.164777755737304688e+00 2.446935653686523438e+00 -9.806908667087554932e-02
1.261000000000000000e+03 7.555207824707031250e+01 -2.646834850311279297e+00 -1.599756814539432526e-02 8.086908340454101562e+00 2.421273231506347656e+00 -1.387005001306533813e-01
1.262000000000000000e+03 7.661724090576171875e+01 -1.381253814697265625e+01 -6.723093334585428238e-03 8.357646942138671875e+00 2.505276918411254883e+00 -5.896268784999847412e-02
1.263000000000000000e+03 7.666469573974609375e+01 -1.097561550140380859e+01 -8.044457063078880310e-03 8.312563896179199219e+00 2.491355895996093750e+00 -6.886681169271469116e-02
1.264000000000000000e+03 7.538907623291015625e+01 -9.461354255676269531e+00 -1.439518574625253677e-02 8.228956222534179688e+00 2.464368343353271484e+00 -9.937546402215957642e-02
1.265000000000000000e+03 7.672799682617187500e+01 -1.937541198730468750e+01 -5.287297535687685013e-03 8.433294296264648438e+00 2.528402090072631836e+00 -4.061697050929069519e-02
1.266000000000000000e+03 1.933368873596191406e+01 4.023321533203125000e+01 1.741300672292709351e-01 -2.581414580345153809e-01 -2.520341798663139343e-02 1.866001486778259277e-01
1.267000000000000000e+03 2.231986999511718750e+01 5.735414028167724609e+00 1.060402244329452515e-01 5.706751346588134766e+00 1.743837475776672363e+00 3.568543195724487305e-01
1.268000000000000000e+03 2.363977432250976562e+01 1.003459644317626953e+01 -3.280321136116981506e-02 5.305458545684814453e+00 1.581796526908874512e+00 4.746043086051940918e-01
1.269000000000000000e+03 2.299781608581542969e+01 -2.676784324645996094e+01 -3.639842569828033447e-02 5.747839450836181641e+00 1.713432312011718750e+00 1.738113462924957275e-01
1.270000000000000000e+03 2.141933822631835938e+01 -2.236033821105957031e+01 -3.638050332665443420e-02 5.538393974304199219e+00 1.650604128837585449e+00 1.288820952177047729e-01
1.271000000000000000e+03 2.203616523742675781e+01 3.101639366149902344e+01 1.722512096166610718e-01 -1.382029205560684204e-01 1.021448709070682526e-02 6.388362497091293335e-02
1.272000000000000000e+03 2.487071609497070312e+01 3.198466682434082031e+01 9.070196747779846191e-01 8.275653719902038574e-01 5.203754901885986328e-01 4.798594713211059570e-01
1.273000000000000000e+03 2.361550521850585938e+01 1.286806201934814453e+01 -6.536609679460525513e-02 4.936239242553710938e+00 1.461261868476867676e+00 5.523313879966735840e-01
1.274000000000000000e+03 1.200127029418945312e+01 -2.613647270202636719e+01 4.813837818801403046e-03 1.007307553663849831e-03 1.746343681588768959e-03 7.779979496262967587e-04
1.275000000000000000e+03 2.561811256408691406e+01 3.230454254150390625e+01 1.139763832092285156e+00 9.500628113746643066e-01 6.269479990005493164e-01 6.742989420890808105e-01
1.276000000000000000e+03 2.214259719848632812e+01 2.682031059265136719e+01 6.427770853042602539e-02 9.025350213050842285e-01 2.900438010692596436e-01 6.017100214958190918e-01
1.277000000000000000e+03 2.333396530151367188e+01 2.825428390502929688e+01 2.573730349540710449e-01 1.279199123382568359e+00 4.609716236591339111e-01 8.256440758705139160e-01
1.278000000000000000e+03 1.363478660583496094e+01 -6.615682125091552734e+00 -2.139981603249907494e-03 -2.206189674325287342e-04 -7.081801886670291424e-04 2.187200589105486870e-04
1.279000000000000000e+03 2.442682075500488281e+01 2.261953544616699219e+01 -1.157126650214195251e-01 3.491081953048706055e+00 1.012610793113708496e+00 1.233559250831604004e+00
1.280000000000000000e+03 2.327282142639160156e+01 2.677810096740722656e+01 1.142938435077667236e-01 1.688710570335388184e+00 5.409013032913208008e-01 9.562726616859436035e-01
1.281000000000000000e+03 2.128773880004882812e+01 -2.808464622497558594e+01 -1.768318749964237213e-02 5.700649261474609375e+00 1.704889893531799316e+00 1.317751109600067139e-01
1.282000000000000000e+03 2.216545486450195312e+01 2.261754798889160156e+01 -2.952432259917259216e-02 2.307974576950073242e+00 6.835350990295410156e-01 6.321085095405578613e-01
1.283000000000000000e+03 2.330466842651367188e+01 2.262676620483398438e+01 -6.380007416009902954e-02 2.888952732086181641e+00 8.475458025932312012e-01 9.631174206733703613e-01
1.284000000000000000e+03 2.336955642700195312e+01 2.126009368896484375e+01 -8.568865060806274414e-02 3.270297527313232422e+00 9.553827047348022461e-01 9.202825427055358887e-01
1.285000000000000000e+03 2.220322608947753906e+01 2.123068237304687500e+01 -3.332588449120521545e-02 2.753471374511718750e+00 8.160436153411865234e-01 6.000140905380249023e-01
1.286000000000000000e+03 2.468914985656738281e+01 1.853651046752929688e+01 -1.708824634552001953e-01 4.364929199218750000e+00 1.258214116096496582e+00 1.016946315765380859e+00
1.287000000000000000e+03 1.315068531036376953e+01 -1.600373840332031250e+01 3.652698127552866936e-03 6.916106794960796833e-04 1.303292694501578808e-03 -9.952154941856861115e-04
1.288000000000000000e+03 1.145656585693359375e+01 -1.826710891723632812e+01 -2.489442238584160805e-03 -9.074756526388227940e-04 -1.019075396470725536e-03 5.791742005385458469e-04
1.289000000000000000e+03 1.185972309112548828e+01 -1.570759868621826172e+01 -2.853872021660208702e-03 -8.003257098607718945e-04 -1.096259336918592453e-03 5.641179159283638000e-04
1.290000000000000000e+03 1.249475383758544922e+01 -9.220201492309570312e+00 2.411479828879237175e-03 3.035742847714573145e-04 8.145162137225270271e-04 -4.764355544466525316e-04
1.291000000000000000e+03 1.354888153076171875e+01 -9.267292976379394531e+00 -2.651079325005412102e-03 -2.287218230776488781e-04 -8.639403968118131161e-04 3.702125686686486006e-04
1.292000000000000000e+03 1.228392314910888672e+01 -1.179627323150634766e+01 2.731181215494871140e-03 3.531969559844583273e-04 9.253134485334157944e-04 -5.259567988105118275e-04
1.293000000000000000e+03 2.359355926513671875e+01 1.427959823608398438e+01 -7.438340038061141968e-02 4.722991466522216797e+00 1.394582390785217285e+00 6.052517890930175781e-01
1.294000000000000000e+03 2.356357955932617188e+01 1.568560695648193359e+01 -8.688136190176010132e-02 4.487280368804931641e+00 1.320119619369506836e+00 6.635802388191223145e-01
1.295000000000000000e+03 2.234472084045410156e+01 1.281874656677246094e+01 -2.387451007962226868e-02 4.734863281250000000e+00 1.413296699523925781e+00 3.536033034324645996e-01
1.296000000000000000e+03 2.363132286071777344e+01 1.145392513275146484e+01 -4.770816117525100708e-02 5.131580352783203125e+00 1.525161623954772949e+00 5.102473497390747070e-01
1.297000000000000000e+03 1.112077331542968750e+01 -1.946529197692871094e+01 2.564775990322232246e-03 -3.931017708964645863e-04 6.515022832900285721e-04 -1.466728048399090767e-03
1.298000000000000000e+03 1.201149749755859375e+01 -2.388452339172363281e+01 5.127102136611938477e-03 2.024017507210373878e-03 2.145336009562015533e-03 2.034931210801005363e-03
1.299000000000000000e+03 2.235588264465332031e+01 8.578548431396484375e+00 -2.329189330339431763e-03 5.381065845489501953e+00 1.613620996475219727e+00 2.958086729049682617e-01
1.300000000000000000e+03 2.362455558776855469e+01 7.179309844970703125e+00 4.439462721347808838e-02 5.585117816925048828e+00 1.688853740692138672e+00 4.468525946140289307e-01
1.301000000000000000e+03 2.314112472534179688e+01 -5.489958286285400391e+00 -7.767261564731597900e-02 5.842456817626953125e+00 1.729435324668884277e+00 2.627926170825958252e-01
1.302000000000000000e+03 2.318649482727050781e+01 -4.098624706268310547e+00 -4.309503361582756042e-02 5.801395893096923828e+00 1.727490305900573730e+00 2.691076695919036865e-01
1.303000000000000000e+03 3.138250827789306641e+00 2.990227890014648438e+01 6.984209176152944565e-03 -4.391748734633438289e-05 2.082087565213441849e-03 -2.081963699311017990e-03
1.304000000000000000e+03 1.911480188369750977e+00 2.744853782653808594e+01 -3.699570195749402046e-03 8.022226975299417973e-04 -8.692042320035398006e-04 2.458822855260223150e-04
1.305000000000000000e+03 4.630640029907226562e+00 3.276535415649414062e+01 -2.841451438143849373e-03 4.953987081535160542e-04 -7.038158364593982697e-04 -5.836851894855499268e-03
1.306000000000000000e+03 3.280531883239746094e+00 3.576314163208007812e+01 1.328287879005074501e-03 5.268452689051628113e-03 1.979022054001688957e-03 -1.415999489836394787e-03
1.307000000000000000e+03 3.023457527160644531e+00 2.873054122924804688e+01 -4.114141687750816345e-03 2.047711052000522614e-03 -6.199292256496846676e-04 -9.242718078894540668e-05
1.308000000000000000e+03 1.965422153472900391e+00 3.580142974853515625e+01 -3.389243967831134796e-03 3.789792070165276527e-03 1.201644408865831792e-04 -6.715920753777027130e-04
1.309000000000000000e+03 5.888790130615234375e+00 3.813366699218750000e+01 -3.892989829182624817e-03 -2.904245338868349791e-04 -1.255024340935051441e-03 -8.612456731498241425e-03
1.310000000000000000e+03 1.991556286811828613e+00 3.443614196777343750e+01 3.372106235474348068e-03 4.429430700838565826e-03 2.340460894629359245e-03 -1.796355354599654675e-03
1.311000000000000000e+03 3.340870141983032227e+00 3.283744049072265625e+01 4.682878032326698303e-03 1.086566364392638206e-03 1.730833319015800953e-03 -1.230938592925667763e-03
1.312000000000000000e+03 3.346316337585449219e+00 3.125966453552246094e+01 -4.063432104885578156e-03 1.433454919606447220e-03 -7.889931439422070980e-04 -2.290616976097226143e-03
1.313000000000000000e+03 3.964763402938842773e+00 -3.551715469360351562e+01 -1.405330561101436615e-02 -9.612755849957466125e-03 -7.099818438291549683e-03 -1.640186831355094910e-02
1.314000000000000000e+03 3.813965559005737305e+00 -3.693852233886718750e+01 3.413045313209295273e-03 -1.349894516170024872e-02 -3.025769954547286034e-03 -2.091636694967746735e-02
1.315000000000000000e+03 3.738101243972778320e+00 -3.411833953857421875e+01 6.064750719815492630e-03 -5.412202794104814529e-03 1.957643544301390648e-04 -9.917528368532657623e-03
1.316000000000000000e+03 3.393775939941406250e+00 -3.011285209655761719e+01 -1.079072896391153336e-02 -1.333316904492676258e-03 -3.637213725596666336e-03 -4.837256856262683868e-03
1.317000000000000000e+03 2.004028558731079102e+00 -2.885893249511718750e+01 -7.908573374152183533e-03 -4.532267339527606964e-04 -2.508540172129869461e-03 -2.364541869610548019e-03
1.318000000000000000e+03 1.980062127113342285e+00 2.178826713562011719e+01 -2.838594140484929085e-03 -1.248073240276426077e-04 -8.890204480849206448e-04 3.495195414870977402e-04
1.319000000000000000e+03 3.267084360122680664e+00 2.308364295959472656e+01 -3.350744256749749184e-03 2.990411885548382998e-04 -9.155109291896224022e-04 2.380207006353884935e-04
1.320000000000000000e+03 3.161569356918334961e+00 -1.882684326171875000e+01 -4.198534879833459854e-03 1.570589229231700301e-04 -1.212442875839769840e-03 -5.894608329981565475e-04
1.321000000000000000e+03 3.042644500732421875e+00 -1.188735580444335938e+01 2.167318481951951981e-03 3.543193452060222626e-04 7.564913248643279076e-04 4.403652274049818516e-04
1.322000000000000000e+03 1.703220844268798828e+00 -9.191785812377929688e+00 -1.731464988552033901e-03 -1.058203997672535479e-04 -5.511856288649141788e-04 -6.259074871195480227e-05
1.323000000000000000e+03 3.202802896499633789e+00 1.741314506530761719e+01 -2.392671536654233932e-03 -1.378682500217109919e-04 -7.591619505546987057e-04 3.286007558926939964e-04
1.324000000000000000e+03 3.057658433914184570e+00 1.177676868438720703e+01 -2.022115746513009071e-03 3.032865970453713089e-05 -5.975360982120037079e-04 3.135257575195282698e-04
1.325000000000000000e+03 1.865897297859191895e+00 -1.479278087615966797e+01 -2.631314564496278763e-03 -4.306812479626387358e-05 -8.023147820495069027e-04 -4.440175544004887342e-04
1.326000000000000000e+03 3.084481239318847656e+00 -1.330074214935302734e+01 -2.396823605522513390e-03 -2.866547438316047192e-04 -8.050434989854693413e-04 -5.301045021042227745e-04
1.327000000000000000e+03 4.491615772247314453e+00 5.839251995086669922e+00 4.835583240492269397e-05 -8.317055180668830872e-04 -2.350049035158008337e-04 5.698464228771626949e-04
1.328000000000000000e+03 2.739540815353393555e+00 7.452016830444335938e+00 1.719491207040846348e-03 -6.378043326549232006e-05 4.967132117599248886e-04 -3.106739022769033909e-04
1.329000000000000000e+03 1.854746699333190918e+00 1.471711635589599609e+01 2.050598151981830597e-03 -5.956143013463588431e-06 6.133926217444241047e-04 -1.210584086948074400e-04
1.330000000000000000e+03 3.154375553131103516e+00 1.597546672821044922e+01 2.259351778775453568e-03 1.759473962010815740e-04 7.305897306650876999e-04 -4.311007432988844812e-05
1.331000000000000000e+03 2.908343553543090820e+00 8.873532295227050781e+00 -1.751297735609114170e-03 1.006257298286072910e-05 -5.223705666139721870e-04 2.487745659891515970e-04
1.332000000000000000e+03 5.793015956878662109e+00 -4.143795013427734375e+00 -1.170149887911975384e-03 -1.176260993815958500e-04 -3.863328020088374615e-04 -2.545299139455892146e-05
1.333000000000000000e+03 2.501785516738891602e+00 -5.135536193847656250e+00 -1.332261716015636921e-03 -1.502965606050565839e-04 -4.447674727998673916e-04 1.661806891206651926e-04
1.334000000000000000e+03 1.544242262840270996e+00 -6.437855720520019531e+00 -1.558882766403257847e-03 -2.912187710535363294e-06 -4.685384919866919518e-04 5.103326202515745535e-06
1.335000000000000000e+03 3.314643383026123047e+00 -2.875394630432128906e+01 5.283892620354890823e-03 -4.918435588479042053e-04 1.437614671885967255e-03 -7.932986482046544552e-04
1.336000000000000000e+03 3.344859838485717773e+00 -2.166582107543945312e+01 -4.454528447240591049e-03 -5.650994717143476009e-04 -1.505888416431844234e-03 -4.327380156610161066e-04
1.337000000000000000e+03 2.344232559204101562e+00 -3.569757843017578125e+01 8.654783479869365692e-03 -1.279148459434509277e-02 -1.241010497324168682e-03 -7.536249235272407532e-03
1.338000000000000000e+03 3.373565912246704102e+00 -2.312654113769531250e+01 4.907154012471437454e-03 1.671260542934760451e-04 1.522284001111984253e-03 1.445793546736240387e-03
1.339000000000000000e+03 3.105944633483886719e+00 -1.608264160156250000e+01 -3.224288113415241241e-03 -6.293586920946836472e-05 -9.861672297120094299e-04 -7.232648204080760479e-04
1.340000000000000000e+03 3.334232807159423828e+00 2.167475509643554688e+01 2.975051989778876305e-03 3.349067992530763149e-04 9.929876541718840599e-04 -4.417081072460860014e-04
1.341000000000000000e+03 2.964853763580322266e+00 -1.047809219360351562e+01 -1.952168880961835384e-03 -3.146335657220333815e-04 -6.800407427363097668e-04 -2.391211310168728232e-04
1.342000000000000000e+03 2.845104217529296875e+00 -9.094212532043457031e+00 1.862278906628489494e-03 2.407775318715721369e-04 6.309169111773371696e-04 1.357502478640526533e-04
1.343000000000000000e+03 3.610960483551025391e+00 -3.277774429321289062e+01 -1.362876500934362411e-02 -3.745219670236110687e-03 -5.212195217609405518e-03 -1.185117103159427643e-02
1.344000000000000000e+03 1.999448776245117188e+00 -2.464587593078613281e+01 5.110821686685085297e-03 5.642593023367226124e-04 1.702524255961179733e-03 1.225985819473862648e-03
1.345000000000000000e+03 4.628891944885253906e+00 -2.462304878234863281e+01 5.227498244494199753e-03 -8.456712239421904087e-04 1.314548077061772346e-03 6.858208798803389072e-04
1.346000000000000000e+03 3.281702280044555664e+00 -2.600959014892578125e+01 5.682481918483972549e-03 -4.240382404532283545e-04 1.577533083036541939e-03 8.669702801853418350e-04
1.347000000000000000e+03 3.100957632064819336e+00 -1.470124244689941406e+01 2.869009971618652344e-03 2.442192053422331810e-04 9.339687530882656574e-04 8.096478413790464401e-04
1.348000000000000000e+03 3.021692276000976562e+00 1.032335472106933594e+01 1.771355164237320423e-03 5.929999679210595787e-05 5.491965566761791706e-04 -2.386546548223122954e-04
1.349000000000000000e+03 3.044682741165161133e+00 1.319115924835205078e+01 2.380429534241557121e-03 -1.823842030717059970e-04 6.594136357307434082e-04 -1.657118991715833545e-04
1.350000000000000000e+03 3.215183019638061523e+00 1.884801292419433594e+01 2.915808232501149178e-03 -7.675585948163643479e-05 8.517157402820885181e-04 -2.588715287856757641e-04
1.351000000000000000e+03 2.349519157409667969e+01 2.890369415283203125e+00 6.425437331199645996e-02 5.787565708160400391e+00 1.755545973777770996e+00 3.172769546508789062e-01
1.352000000000000000e+03 2.303842163085937500e+01 -9.655792236328125000e+00 1.833940297365188599e-02 5.885366916656494141e+00 1.771111845970153809e+00 2.656328380107879639e-01
1.353000000000000000e+03 1.060807609558105469e+01 3.383321380615234375e+01 2.013392746448516846e-03 1.325740304309874773e-04 6.437900592572987080e-04 -7.524570915848016739e-03
1.354000000000000000e+03 1.201244831085205078e+01 3.085880279541015625e+01 1.224702922627329826e-03 6.399734411388635635e-05 3.866100742015987635e-04 -3.449578071013092995e-04
1.355000000000000000e+03 1.210247135162353516e+01 2.281641960144042969e+01 -4.140285775065422058e-03 -6.765055004507303238e-04 -1.445037429220974445e-03 -4.611278418451547623e-04
1.356000000000000000e+03 1.600774383544921875e+01 3.702690887451171875e+01 4.662425257265567780e-03 -9.332248941063880920e-03 -1.400946872308850288e-03 -8.370582014322280884e-03
1.357000000000000000e+03 1.472029781341552734e+01 3.571702575683593750e+01 9.857254102826118469e-03 -1.623327471315860748e-02 -1.912806532345712185e-03 -3.895823319908231497e-04
1.358000000000000000e+03 2.288512229919433594e+01 -1.526783180236816406e+01 4.630670696496963501e-02 5.798641681671142578e+00 1.753484487533569336e+00 1.904200166463851929e-01
1.359000000000000000e+03 2.295182037353515625e+01 -1.245371437072753906e+01 8.613240718841552734e-02 5.859665393829345703e+00 1.783739328384399414e+00 2.270898073911666870e-01
1.360000000000000000e+03 1.157076644897460938e+01 -3.527987670898437500e+01 -5.623487010598182678e-02 1.177766826003789902e-02 -1.333716046065092087e-02 1.003214903175830841e-02
1.361000000000000000e+03 2.359687995910644531e+01 5.745834350585937500e+00 9.606256335973739624e-02 5.674336910247802734e+00 1.731119751930236816e+00 4.124678373336791992e-01
1.362000000000000000e+03 1.309870719909667969e+01 3.653237152099609375e+01 2.228758530691266060e-03 -2.034509927034378052e-02 -5.434901919215917587e-03 -7.247803150676190853e-04
1.363000000000000000e+03 2.323913574218750000e+01 -2.701730251312255859e+00 -2.700709924101829529e-02 5.797357082366943359e+00 1.731104969978332520e+00 3.076384663581848145e-01
1.364000000000000000e+03 2.285779190063476562e+01 -1.940188026428222656e+01 -7.735146582126617432e-02 5.720279216766357422e+00 1.692878365516662598e+00 2.024560421705245972e-01
1.365000000000000000e+03 2.135949134826660156e+01 -2.092607307434082031e+01 -2.001155726611614227e-02 5.506606578826904297e+00 1.645978569984436035e+00 2.312078177928924561e-01
1.366000000000000000e+03 2.432094955444335938e+01 -3.119213294982910156e+01 1.417087167501449585e-01 5.690214633941650391e+00 1.749576926231384277e+00 1.736281216144561768e-01
1.367000000000000000e+03 2.290064048767089844e+01 -2.820523071289062500e+01 4.392518848180770874e-02 5.764072895050048828e+00 1.742399454116821289e+00 1.820882111787796021e-01
1.368000000000000000e+03 2.140485954284667969e+01 4.020103836059570312e+01 1.757475137710571289e-01 -2.473585307598114014e-01 -2.148330770432949066e-02 3.521927893161773682e-01
1.369000000000000000e+03 2.467684555053710938e+01 -2.694694709777832031e+01 1.274778787046670914e-02 5.833082675933837891e+00 1.753749132156372070e+00 1.756368577480316162e-01
1.370000000000000000e+03 2.139110374450683594e+01 -2.522182083129882812e+01 -6.619732081890106201e-02 5.609686374664306641e+00 1.663046717643737793e+00 1.541189104318618774e-01
1.371000000000000000e+03 2.124428176879882812e+01 -2.948307800292968750e+01 5.500664561986923218e-02 5.772857189178466797e+00 1.748359203338623047e+00 1.551980823278427124e-01
1.372000000000000000e+03 1.515726280212402344e+01 -4.038396453857421875e+01 2.716884613037109375e-01 1.774956285953521729e-01 1.347552239894866943e-01 -3.565164282917976379e-02
1.373000000000000000e+03 2.163625526428222656e+01 -3.506089401245117188e+01 5.191091895103454590e-01 5.504571914672851562e+00 1.807104349136352539e+00 3.157247900962829590e-01
1.374000000000000000e+03 5.112877368927001953e+00 -4.054466247558593750e+01 2.335059083998203278e-02 -3.908459097146987915e-02 -4.720199853181838989e-03 -1.033541001379489899e-02
1.375000000000000000e+03 8.062236785888671875e+00 -4.145144271850585938e+01 5.334827676415443420e-02 -1.571169868111610413e-02 1.129097398370504379e-02 -3.004255332052707672e-02
1.376000000000000000e+03 2.921791267395019531e+01 3.344018554687500000e+01 3.229979991912841797e+00 3.285290241241455078e+00 1.954581022262573242e+00 3.591266632080078125e+00
1.377000000000000000e+03 2.739383506774902344e+01 3.323655700683593750e+01 1.924980998039245605e+00 1.186709403991699219e+00 9.335071444511413574e-01 1.339359045028686523e+00
1.378000000000000000e+03 3.323738479614257812e+01 3.266130828857421875e+01 1.608583450317382812e+00 1.322302627563476562e+01 4.449482917785644531e+00 3.427605926990509033e-01
1.379000000000000000e+03 2.628711509704589844e+01 3.253201293945312500e+01 1.431918025016784668e+00 1.117114305496215820e+00 7.647096514701843262e-01 9.320504665374755859e-01
1.380000000000000000e+03 2.683073234558105469e+01 3.322257232666015625e+01 1.521680355072021484e+00 9.261875748634338379e-01 7.343603968620300293e-01 8.850540518760681152e-01
1.381000000000000000e+03 3.056393814086914062e+01 3.995514678955078125e+01 -5.530463457107543945e-01 8.621926307678222656e+00 2.420663833618164062e+00 -1.376451969146728516e+00
1.382000000000000000e+03 8.426849365234375000e+00 3.929307222366333008e+00 -7.133157341741025448e-04 -2.504920121282339096e-04 -2.891423355322331190e-04 4.971513044438324869e-05
1.383000000000000000e+03 7.761672496795654297e+00 3.889106273651123047e+00 8.969211485236883163e-04 2.080941339954733849e-04 3.315045905765146017e-04 -4.487527621677145362e-05
1.384000000000000000e+03 7.449947357177734375e+00 5.290104866027832031e+00 1.140625798143446445e-03 2.936391392722725868e-04 4.302794986870139837e-04 -5.547574255615472794e-05
1.385000000000000000e+03 2.470061540603637695e+00 4.639193058013916016e+00 1.377266366034746170e-03 2.765992348940926604e-06 4.140097007621079683e-04 -5.137537373229861259e-04
1.386000000000000000e+03 5.262999534606933594e+00 4.663493156433105469e+00 -1.546689774841070175e-03 -3.679437213577330112e-05 -4.750452353619039059e-04 1.182673498988151550e-03
1.387000000000000000e+03 1.450553297996520996e+00 4.764825820922851562e+00 -9.251491283066570759e-04 -1.400243781972676516e-04 -3.195520548615604639e-04 3.055167908314615488e-04
1.388000000000000000e+03 2.479079961776733398e+00 3.568379163742065430e+00 -1.763881882652640343e-03 -4.029285992146469653e-05 -5.412524333223700523e-04 6.987940869294106960e-04
1.389000000000000000e+03 1.079479694366455078e+01 3.571565151214599609e+00 -3.591080312617123127e-04 -4.209335311315953732e-04 -2.340124628972262144e-04 -2.823168179020285606e-04
1.390000000000000000e+03 1.018980789184570312e+01 5.177278518676757812e+00 1.161682394013041630e-05 -3.589662956073880196e-04 -1.042048388626426458e-04 -6.711252499371767044e-04
1.391000000000000000e+03 1.002111434936523438e+01 -5.060205936431884766e+00 5.259546451270580292e-04 2.544335438869893551e-04 2.341164508834481239e-04 -3.379292320460081100e-04
1.392000000000000000e+03 1.018887329101562500e+01 -4.262344837188720703e+00 -3.717514628078788519e-04 -6.313601043075323105e-04 -3.009334614034742117e-04 3.579187905415892601e-04
1.393000000000000000e+03 1.076773452758789062e+01 -5.338817119598388672e+00 -1.230868074344471097e-04 -5.233230767771601677e-04 -1.939229696290567517e-04 6.188549450598657131e-04
1.394000000000000000e+03 1.102413368225097656e+01 -3.479449987411499023e+00 -8.143755258060991764e-04 -4.996181232854723930e-04 -3.941980830859392881e-04 7.524575921706855297e-04
1.395000000000000000e+03 7.267203330993652344e+00 -3.382741689682006836e+00 8.136463584378361702e-04 3.499196318443864584e-04 3.490697999950498343e-04 1.129953234340064228e-04
1.396000000000000000e+03 1.248303127288818359e+01 3.877123594284057617e+00 -7.597536314278841019e-04 -3.791837370954453945e-04 -3.416812105569988489e-04 -5.514103104360401630e-04
1.397000000000000000e+03 8.897749900817871094e+00 4.650722503662109375e+00 -6.707086577080190182e-04 -1.663323928369209170e-04 -2.511123020667582750e-04 -5.700219116988591850e-05
1.398000000000000000e+03 4.504673004150390625e+00 -3.402883768081665039e+00 4.095211625099182129e-04 5.040274118073284626e-04 2.740645722951740026e-04 4.530066507868468761e-04
1.399000000000000000e+03 6.418302536010742188e+00 -5.020979404449462891e+00 -9.183723013848066330e-04 -5.360661889426410198e-04 -4.363315529190003872e-04 -4.844187933485955000e-04
1.400000000000000000e+03 4.054626941680908203e+00 -4.303940773010253906e+00 9.026303305290639400e-04 3.239634388592094183e-04 3.679781220853328705e-04 1.156715676188468933e-03
1.401000000000000000e+03 8.004364967346191406e+00 -3.386917114257812500e+00 -7.311918307095766068e-04 -4.081421066075563431e-04 -3.418001870159059763e-04 -5.256875738268718123e-05
1.402000000000000000e+03 3.779483318328857422e+00 -7.620019435882568359e+00 1.834524446167051792e-03 1.571198663441464305e-04 5.974932573735713959e-04 2.613168617244809866e-04
1.403000000000000000e+03 3.254187583923339844e+00 -3.720015048980712891e+00 1.084602670744061470e-03 -3.196141624357551336e-04 2.294965524924919009e-04 7.959597860462963581e-04
1.404000000000000000e+03 3.576159000396728516e+00 -6.379257202148437500e+00 -1.579515752382576466e-03 -1.417543535353615880e-04 -5.163810565136373043e-04 -3.200753999408334494e-04
1.405000000000000000e+03 2.558301925659179688e+00 -6.431552410125732422e+00 1.649506972171366215e-03 5.287564636091701686e-05 5.107147735543549061e-04 -3.776693120016716421e-05
1.406000000000000000e+03 1.267700576782226562e+01 -4.256303310394287109e+00 1.678432337939739227e-03 2.774798485916107893e-04 5.867736763320863247e-04 -1.887830876512452960e-04
1.407000000000000000e+03 2.383625030517578125e+01 3.252569961547851562e+01 4.758949577808380127e-01 3.131733834743499756e-01 2.367205023765563965e-01 -5.172437522560358047e-03
1.408000000000000000e+03 2.309006881713867188e+01 3.113284111022949219e+01 4.090974032878875732e-01 3.524786829948425293e-01 2.284728139638900757e-01 2.123395055532455444e-01
1.409000000000000000e+03 2.949978065490722656e+01 3.952500152587890625e+01 4.914448261260986328e-01 4.819517135620117188e+00 1.593288540840148926e+00 -1.751977086067199707e+00
1.410000000000000000e+03 2.737218284606933594e+01 4.179031372070312500e+01 9.860325455665588379e-01 2.233799219131469727e+00 9.659495353698730469e-01 -3.795115947723388672e-01
1.411000000000000000e+03 1.215142250061035156e+01 -1.310098743438720703e+01 -2.848497591912746429e-03 -3.807905595749616623e-04 -9.687864221632480621e-04 4.681688733398914337e-04
1.412000000000000000e+03 1.200902938842773438e+01 -1.440460109710693359e+01 2.980878110975027084e-03 6.276844651438295841e-04 1.082568778656423092e-03 -6.366635789163410664e-04
1.413000000000000000e+03 3.514876937866210938e+01 3.346195220947265625e+01 3.167687416076660156e+00 1.151660442352294922e+01 4.405287742614746094e+00 -4.107851684093475342e-01
1.414000000000000000e+03 1.261153507232666016e+01 -6.673501014709472656e+00 1.883425284177064896e-03 3.481933672446757555e-04 6.694855983369052410e-04 -3.498683799989521503e-04
1.415000000000000000e+03 1.256483078002929688e+01 -7.942291736602783203e+00 -2.119208453223109245e-03 -3.225298132747411728e-04 -7.325214683078229427e-04 4.304691683501005173e-04
1.416000000000000000e+03 1.230316162109375000e+01 7.898312091827392578e+00 1.921931398101150990e-03 2.641008177306503057e-04 6.558096501976251602e-04 4.467063990887254477e-04
1.417000000000000000e+03 1.177244758605957031e+01 -4.399434566497802734e+00 -1.387833734042942524e-03 -3.768094466067850590e-04 -5.293929134495556355e-04 7.196423248387873173e-04
1.418000000000000000e+03 2.468159675598144531e+01 9.693469107151031494e-02 -2.891146764159202576e-02 5.900773525238037109e+00 1.761558651924133301e+00 3.306319713592529297e-01
1.419000000000000000e+03 2.457426834106445312e+01 -2.679068326950073242e+00 -5.080814287066459656e-02 5.902375698089599609e+00 1.755470275878906250e+00 3.030073344707489014e-01
1.420000000000000000e+03 2.440188980102539062e+01 -1.787413978576660156e+01 -4.886123165488243103e-02 5.863821983337402344e+00 1.744488239288330078e+00 1.523395329713821411e-01
1.421000000000000000e+03 2.445897483825683594e+01 -1.919607734680175781e+01 -9.169761836528778076e-02 5.867709159851074219e+00 1.732803463935852051e+00 1.574630737304687500e-01
1.422000000000000000e+03 2.480029106140136719e+01 2.894171476364135742e+00 3.629585355520248413e-02 5.840137958526611328e+00 1.762930154800415039e+00 3.736898303031921387e-01
1.423000000000000000e+03 2.436650657653808594e+01 -1.652057075500488281e+01 -2.441359683871269226e-02 5.873871803283691406e+00 1.754837393760681152e+00 1.629190146923065186e-01
1.424000000000000000e+03 2.307256507873535156e+01 -8.264923095703125000e+00 -6.913533899933099747e-03 5.834801673889160156e+00 1.748366475105285645e+00 2.831018865108489990e-01
1.425000000000000000e+03 2.450312423706054688e+01 -5.454688072204589844e+00 -6.382497400045394897e-02 5.921800613403320312e+00 1.757392644882202148e+00 2.923679649829864502e-01
1.426000000000000000e+03 1.334076690673828125e+01 -1.330725955963134766e+01 3.308455925434827805e-03 3.552897542249411345e-04 1.099123735912144184e-03 -6.131335976533591747e-04
1.427000000000000000e+03 2.434477996826171875e+01 -1.236842632293701172e+01 5.774173513054847717e-02 5.906882286071777344e+00 1.789387226104736328e+00 2.374265491962432861e-01
1.428000000000000000e+03 1.094249439239501953e+01 2.541240501403808594e+01 5.068960599601268768e-03 6.283035618253052235e-04 1.709179254248738289e-03 1.277568866498768330e-03
1.429000000000000000e+03 6.005724906921386719e+00 9.209038734436035156e+00 -8.587028132751584053e-04 5.310083506628870964e-04 -9.830833005253225565e-05 -7.126912241801619530e-04
1.430000000000000000e+03 1.230584335327148438e+01 9.060205459594726562e+00 -2.107215579599142075e-03 -1.729150535538792610e-04 -6.840392015874385834e-04 -7.267622859217226505e-04
1.431000000000000000e+03 9.439146995544433594e+00 2.022297668457031250e+01 -2.672319067642092705e-03 -6.821080460213124752e-04 -1.006328151561319828e-03 3.588136751204729080e-04
1.432000000000000000e+03 7.541599273681640625e+01 1.434723663330078125e+01 -1.099340710788965225e-02 7.459987640380859375e+00 2.234698295593261719e+00 -2.654209733009338379e-01
1.433000000000000000e+03 7.547059631347656250e+01 8.583827316761016846e-02 -1.747411303222179413e-02 8.009671211242675781e+00 2.397659301757812500e+00 -1.602468937635421753e-01
1.434000000000000000e+03 7.433374023437500000e+01 -5.273953437805175781e+00 -2.482840046286582947e-02 8.109230041503906250e+00 2.425320386886596680e+00 -1.469766050577163696e-01
1.435000000000000000e+03 7.549929046630859375e+01 -6.691847324371337891e+00 -1.553468219935894012e-02 8.179713249206542969e+00 2.449253320693969727e+00 -1.131779924035072327e-01
1.436000000000000000e+03 7.436104583740234375e+01 -3.976625919342041016e+00 -2.433306537568569183e-02 8.082593917846679688e+00 2.417478322982788086e+00 -1.570528000593185425e-01
1.437000000000000000e+03 7.678667449951171875e+01 -5.403531074523925781e+00 -9.098527021706104279e-03 8.199427604675292969e+00 2.457098722457885742e+00 -9.128988534212112427e-02
1.438000000000000000e+03 7.418443298339843750e+01 -7.931133747100830078e+00 -2.329749800264835358e-02 8.155024528503417969e+00 2.439518213272094727e+00 -1.302077770233154297e-01
1.439000000000000000e+03 7.519477844238281250e+01 -1.522881507873535156e+01 -1.155283767729997635e-02 8.309941291809082031e+00 2.489516496658325195e+00 -7.352924346923828125e-02
1.440000000000000000e+03 7.672133636474609375e+01 1.510951757431030273e+00 -9.796386584639549255e-03 7.994753360748291016e+00 2.395487070083618164e+00 -1.305955350399017334e-01
1.441000000000000000e+03 7.540338134765625000e+01 1.480534911155700684e+00 -2.028685435652732849e-02 7.966279983520507812e+00 2.383797883987426758e+00 -1.729688197374343872e-01
1.442000000000000000e+03 7.519167327880859375e+01 7.287508010864257812e+00 -2.176448889076709747e-02 7.765219688415527344e+00 2.323036432266235352e+00 -2.255538702011108398e-01
1.443000000000000000e+03 7.531906890869140625e+01 -1.088333415985107422e+01 -1.384162064641714096e-02 8.251094818115234375e+00 2.471175909042358398e+00 -9.289906919002532959e-02
1.444000000000000000e+03 7.663195800781250000e+01 -1.239707469940185547e+01 -6.532464642077684402e-03 8.335622787475585938e+00 2.498727083206176758e+00 -6.360390782356262207e-02
1.445000000000000000e+03 7.523890686035156250e+01 -1.233131504058837891e+01 -1.389422640204429626e-02 8.271642684936523438e+00 2.477324485778808594e+00 -8.609549701213836670e-02
1.446000000000000000e+03 7.216573333740234375e+01 3.310423660278320312e+01 1.042982861399650574e-01 6.897887706756591797e+00 2.100655794143676758e+00 -2.578887045383453369e-01
1.447000000000000000e+03 7.733346557617187500e+01 3.548760986328125000e+01 4.445498436689376831e-02 6.310174942016601562e+00 1.906388998031616211e+00 -8.191713690757751465e-02
1.448000000000000000e+03 7.621285247802734375e+01 3.094326782226562500e+01 1.253361999988555908e-02 6.617925643920898438e+00 1.989137768745422363e+00 -1.723769754171371460e-01
1.449000000000000000e+03 7.534613037109375000e+01 -1.805242538452148438e+01 -9.957805275917053223e-03 8.349174499511718750e+00 2.501765012741088867e+00 -5.913095921277999878e-02
1.450000000000000000e+03 7.522455596923828125e+01 4.351343154907226562e+00 -2.213602140545845032e-02 7.868422985076904297e+00 2.353886127471923828e+00 -2.020145207643508911e-01
1.451000000000000000e+03 7.516512298583984375e+01 5.817258358001708984e+00 -2.027696743607521057e-02 7.816753387451171875e+00 2.338943004608154297e+00 -2.145764231681823730e-01
1.452000000000000000e+03 7.392319488525390625e+01 2.787969112396240234e+00 -3.415179997682571411e-02 7.902131080627441406e+00 2.360393762588500977e+00 -2.284572273492813110e-01
1.453000000000000000e+03 7.665578460693359375e+01 8.633727073669433594e+00 -1.114758476614952087e-02 7.713114738464355469e+00 2.310590267181396484e+00 -1.751526743173599243e-01
1.454000000000000000e+03 7.534560394287109375e+01 1.019468498229980469e+01 -1.819688826799392700e-02 7.645577907562255859e+00 2.288214445114135742e+00 -2.430362999439239502e-01
1.455000000000000000e+03 7.525550079345703125e+01 -1.665665245056152344e+01 -1.055251061916351318e-02 8.330851554870605469e+00 2.496089696884155273e+00 -6.604442745447158813e-02
1.456000000000000000e+03 7.543961334228515625e+01 -1.940535736083984375e+01 -7.915383204817771912e-03 8.367449760437011719e+00 2.507860422134399414e+00 -5.415178090333938599e-02
1.457000000000000000e+03 7.668873596191406250e+01 -1.800423049926757812e+01 -4.927423316985368729e-03 8.416372299194335938e+00 2.523433446884155273e+00 -4.505897685885429382e-02
1.458000000000000000e+03 7.537216949462890625e+01 1.159759426116943359e+01 -1.514414139091968536e-02 7.585007667541503906e+00 2.270959138870239258e+00 -2.506254911422729492e-01
1.459000000000000000e+03 7.402588653564453125e+01 1.035145568847656250e+01 -2.688306197524070740e-02 7.651600360870361328e+00 2.287415266036987305e+00 -2.960088849067687988e-01
1.460000000000000000e+03 7.495149230957031250e+01 -2.875156593322753906e+01 -4.848274402320384979e-03 8.408357620239257812e+00 2.521052598953247070e+00 -3.259365260601043701e-02
1.461000000000000000e+03 7.421953582763671875e+01 -2.328591918945312500e+01 -9.927762672305107117e-03 8.339436531066894531e+00 2.498852729797363281e+00 -5.036912485957145691e-02
1.462000000000000000e+03 7.672047424316406250e+01 1.702947998046875000e+01 -4.645591601729393005e-03 7.290274143218994141e+00 2.185688495635986328e+00 -2.101203799247741699e-01
1.463000000000000000e+03 7.546296691894531250e+01 1.858540725708007812e+01 -4.088199697434902191e-03 7.254666805267333984e+00 2.175173521041870117e+00 -2.803843915462493896e-01
1.464000000000000000e+03 7.543470001220703125e+01 2.133183860778808594e+01 9.705612319521605968e-04 7.123883724212646484e+00 2.137456417083740234e+00 -2.791868150234222412e-01
1.465000000000000000e+03 7.542736816406250000e+01 1.998333740234375000e+01 1.383419497869908810e-03 7.183150291442871094e+00 2.155359983444213867e+00 -2.791966795921325684e-01
1.466000000000000000e+03 7.425409698486328125e+01 1.731102752685546875e+01 -1.268384419381618500e-02 7.360650539398193359e+00 2.204390048980712891e+00 -3.304126858711242676e-01
1.467000000000000000e+03 7.538373565673828125e+01 -2.472147178649902344e+01 -5.089430138468742371e-03 8.411793708801269531e+00 2.522011280059814453e+00 -3.831806778907775879e-02
1.468000000000000000e+03 7.662841033935546875e+01 -2.619808769226074219e+01 -3.004520200192928314e-03 8.486268997192382812e+00 2.544979333877563477e+00 -2.768251299858093262e-02
1.469000000000000000e+03 7.406599426269531250e+01 -2.594938659667968750e+01 -9.862096980214118958e-03 8.346787452697753906e+00 2.501077651977539062e+00 -4.299588128924369812e-02
1.470000000000000000e+03 7.330377197265625000e+01 2.758865165710449219e+01 5.790514126420021057e-02 6.974475860595703125e+00 2.109714269638061523e+00 -3.347546756267547607e-01
1.471000000000000000e+03 7.395680999755859375e+01 2.406959533691406250e+01 2.067039161920547485e-02 7.083405971527099609e+00 2.131222963333129883e+00 -3.410093486309051514e-01
1.472000000000000000e+03 7.657331848144531250e+01 2.709287834167480469e+01 1.890181377530097961e-02 6.755990505218505859e+00 2.032467603683471680e+00 -1.959469914436340332e-01
1.473000000000000000e+03 7.676472473144531250e+01 2.948747253417968750e+01 1.956347189843654633e-02 6.629935741424560547e+00 1.994849801063537598e+00 -1.630697250366210938e-01
1.474000000000000000e+03 7.590401458740234375e+01 2.893391799926757812e+01 2.198348753154277802e-02 6.714722156524658203e+00 2.021011829376220703e+00 -2.094648927450180054e-01
1.475000000000000000e+03 7.525931549072265625e+01 2.783120536804199219e+01 2.781815826892852783e-02 6.830056190490722656e+00 2.057362318038940430e+00 -2.522402703762054443e-01
1.476000000000000000e+03 7.425680541992187500e+01 -3.355999755859375000e+01 -1.289425510913133621e-02 8.383636474609375000e+00 2.511222600936889648e+00 -2.613231167197227478e-02
1.477000000000000000e+03 7.362214660644531250e+01 -3.641352081298828125e+01 -1.262938883155584335e-02 8.366163253784179688e+00 2.506060123443603516e+00 -1.934944652020931244e-02
1.478000000000000000e+03 7.616963195800781250e+01 -3.336182022094726562e+01 -7.520816754549741745e-03 8.508629798889160156e+00 2.550332784652709961e+00 -1.983385160565376282e-02
1.479000000000000000e+03 7.463355255126953125e+01 -3.019022560119628906e+01 -6.691502407193183899e-03 8.396076202392578125e+00 2.516815423965454102e+00 -2.890774980187416077e-02
1.480000000000000000e+03 2.490829086303710938e+01 1.149542236328125000e+01 -9.386045485734939575e-02 5.319920063018798828e+00 1.567817926406860352e+00 6.562332510948181152e-01
1.481000000000000000e+03 1.271889209747314453e+01 -2.235738945007324219e+01 6.601886823773384094e-03 1.685804338194429874e-03 2.486307406798005104e-03 2.310374518856406212e-03
1.482000000000000000e+03 1.252419948577880859e+01 -2.008858680725097656e+01 -2.721604192629456520e-03 2.099865814670920372e-04 -7.534852484241127968e-04 1.500315964221954346e-03
1.483000000000000000e+03 2.291592597961425781e+01 -1.386108875274658203e+01 7.618013024330139160e-02 5.867341518402099609e+00 1.783056497573852539e+00 2.180982381105422974e-01
1.484000000000000000e+03 2.432376480102539062e+01 -1.375690269470214844e+01 5.304889008402824402e-02 5.880093574523925781e+00 1.779942750930786133e+00 1.939784884452819824e-01
1.485000000000000000e+03 2.429137039184570312e+01 2.995239830017089844e+01 6.328448057174682617e-01 1.291435122489929199e+00 5.772839784622192383e-01 8.486168980598449707e-01
1.486000000000000000e+03 2.621298980712890625e+01 8.661039352416992188e+00 -7.065620273351669312e-02 5.713086128234863281e+00 1.692728996276855469e+00 6.460765600204467773e-01
1.487000000000000000e+03 2.488327217102050781e+01 1.291479110717773438e+01 -1.152333021163940430e-01 5.168210506439208984e+00 1.515893101692199707e+00 7.147322297096252441e-01
1.488000000000000000e+03 5.897037029266357422e+00 -2.480131530761718750e+01 -4.962773993611335754e-03 -6.446582847274839878e-04 -1.682229572907090187e-03 1.136324644903652370e-04
1.489000000000000000e+03 1.173564147949218750e+01 -2.986384582519531250e+01 -8.201274089515209198e-03 -5.492827855050563812e-03 -4.108230583369731903e-03 2.974943723529577255e-03
1.490000000000000000e+03 2.553832244873046875e+01 2.260103988647460938e+01 -1.862948685884475708e-01 4.104978561401367188e+00 1.175605177879333496e+00 1.442711710929870605e+00
1.491000000000000000e+03 2.452080535888671875e+01 2.128048896789550781e+01 -1.513372063636779785e-01 3.812509775161743164e+00 1.098351836204528809e+00 1.172514319419860840e+00
1.492000000000000000e+03 2.484819412231445312e+01 1.432839584350585938e+01 -1.374662816524505615e-01 4.996815204620361328e+00 1.457804679870605469e+00 7.796894907951354980e-01
1.493000000000000000e+03 2.348602104187011719e+01 1.849048042297363281e+01 -9.773446619510650635e-02 3.938621282577514648e+00 1.152266025543212891e+00 7.956568002700805664e-01
1.494000000000000000e+03 2.461155700683593750e+01 1.991759109497070312e+01 -1.681989878416061401e-01 4.102254390716552734e+00 1.180216550827026367e+00 1.098384737968444824e+00
1.495000000000000000e+03 2.475115394592285156e+01 1.713956069946289062e+01 -1.661462932825088501e-01 4.597695827484130859e+00 1.329464912414550781e+00 9.332561492919921875e-01
1.496000000000000000e+03 9.129590034484863281e+00 -1.632591056823730469e+01 2.575953956693410873e-03 8.114259690046310425e-04 1.016213907860219479e-03 -2.185764969908632338e-05
1.497000000000000000e+03 1.016814804077148438e+01 -1.784728622436523438e+01 2.722568344324827194e-03 6.166113307699561119e-04 1.001753844320774078e-03 -5.064582801423966885e-04
1.498000000000000000e+03 2.516910362243652344e+01 3.136156845092773438e+01 9.490847587585449219e-01 1.200513958930969238e+00 6.448795795440673828e-01 7.877511978149414062e-01
1.499000000000000000e+03 2.363804626464843750e+01 8.608078956604003906e+00 -4.397321492433547974e-03 5.470990657806396484e+00 1.639978051185607910e+00 4.576239883899688721e-01
1.500000000000000000e+03 2.492343330383300781e+01 8.633662223815917969e+00 -2.634642831981182098e-02 5.568337917327880859e+00 1.662597417831420898e+00 5.689407587051391602e-01
1.501000000000000000e+03 2.324176979064941406e+01 2.536379051208496094e+01 2.693438902497291565e-02 2.094106197357177734e+00 6.363121867179870605e-01 9.938262104988098145e-01
1.502000000000000000e+03 8.710755348205566406e+00 -7.523863792419433594e+00 9.779899846762418747e-04 2.158491697628051043e-04 3.581517667043954134e-04 3.761336556635797024e-04
1.503000000000000000e+03 2.439646148681640625e+01 2.664243698120117188e+01 1.504557132720947266e-01 2.466377496719360352e+00 7.850499749183654785e-01 1.280595898628234863e+00
1.504000000000000000e+03 2.434977531433105469e+01 2.393743133544921875e+01 -6.275597959756851196e-02 3.145582199096679688e+00 9.248478412628173828e-01 1.268312215805053711e+00
1.505000000000000000e+03 2.491264915466308594e+01 7.196239948272705078e+00 1.654453575611114502e-02 5.662274837493896484e+00 1.703645706176757812e+00 5.241572856903076172e-01
1.506000000000000000e+03 3.119190454483032227e+00 -1.745120429992675781e+01 3.913216292858123779e-03 1.986245115404017270e-05 1.179923652671277523e-03 1.083517679944634438e-03
1.507000000000000000e+03 4.327050209045410156e+00 -1.462523365020751953e+01 -2.821203554049134254e-03 -3.808132605627179146e-04 -9.606050443835556507e-04 -8.091709460131824017e-04
1.508000000000000000e+03 4.827843189239501953e+00 2.160391235351562500e+01 -2.841179026290774345e-03 -4.727751947939395905e-04 -9.941862663254141808e-04 2.042598789557814598e-04
1.509000000000000000e+03 3.275044679641723633e+00 2.025810623168945312e+01 -2.947809174656867981e-03 -2.419988741166889668e-04 -9.569423855282366276e-04 9.558609599480405450e-05
1.510000000000000000e+03 4.557242870330810547e+00 2.311674880981445312e+01 3.627021098509430885e-03 -1.137606217525899410e-03 7.468244293704628944e-04 5.709643592126667500e-04
1.511000000000000000e+03 4.311845302581787109e+00 -1.733222007751464844e+01 -3.871093736961483955e-03 -1.742786262184381485e-04 -1.213611685670912266e-03 -1.217998447827994823e-03
1.512000000000000000e+03 4.315094947814941406e+00 -1.599522590637207031e+01 3.509767819195985794e-03 2.188190846936777234e-04 1.118576037697494030e-03 1.241103745996952057e-03
1.513000000000000000e+03 5.818923950195312500e+00 2.803145217895507812e+01 2.539478009566664696e-03 -2.299145329743623734e-03 7.209975592559203506e-05 3.470697556622326374e-04
1.514000000000000000e+03 6.678801536560058594e+00 2.669608306884765625e+01 1.295908354222774506e-03 2.442067256197333336e-03 1.121392589993774891e-03 -2.193958032876253128e-03
1.515000000000000000e+03 4.586599349975585938e+00 -2.868288230895996094e+01 -1.092106103897094727e-02 3.089320671278983355e-05 -3.267050487920641899e-03 -2.816112246364355087e-03
1.516000000000000000e+03 3.326896429061889648e+00 -2.458829689025878906e+01 -5.842099897563457489e-03 2.447522711008787155e-04 -1.679204287938773632e-03 -7.977468776516616344e-04
1.517000000000000000e+03 4.784242630004882812e+00 -2.309477233886718750e+01 -5.502144340425729752e-03 -1.110983139369636774e-04 -1.683972775936126709e-03 -3.474663826636970043e-04
1.518000000000000000e+03 4.500437736511230469e+00 1.731847000122070312e+01 2.435863250866532326e-03 4.678041732404381037e-04 8.711002301424741745e-04 -3.943564661312848330e-04
1.519000000000000000e+03 5.533200740814208984e+00 1.925988960266113281e+01 1.583495613886043429e-04 -2.948248875327408314e-04 -4.094260293641127646e-05 2.227186196250841022e-04
1.520000000000000000e+03 4.592720031738281250e+00 2.008282661437988281e+01 3.802110208198428154e-03 2.273929421789944172e-04 1.208850881084799767e-03 -3.200054634362459183e-04
1.521000000000000000e+03 4.447860240936279297e+00 1.577163887023925781e+01 -2.205531345680356026e-03 -4.795769345946609974e-04 -8.055325015448033810e-04 1.369758538203313947e-04
1.522000000000000000e+03 4.488987922668457031e+00 -2.004353523254394531e+01 -5.152051337063312531e-03 -1.734618854243308306e-04 -1.597653958015143871e-03 -1.181687810458242893e-03
1.523000000000000000e+03 4.354882240295410156e+00 -1.866468620300292969e+01 4.833339247852563858e-03 -9.073751425603404641e-05 1.422780565917491913e-03 1.832157257013022900e-03
1.524000000000000000e+03 3.251508235931396484e+00 2.595091056823730469e+01 -2.461244584992527962e-03 -4.218861868139356375e-04 -8.649392402730882168e-04 -1.952155580511316657e-04
1.525000000000000000e+03 4.612361431121826172e+00 2.585677337646484375e+01 3.638793714344501495e-03 1.218577614054083824e-03 1.457211445085704327e-03 -7.610081811435520649e-04
1.526000000000000000e+03 4.396512031555175781e+00 2.439703750610351562e+01 -3.025564597919583321e-03 -6.176495226100087166e-04 -1.092964201234281063e-03 -6.318389787338674068e-04
1.527000000000000000e+03 1.010317802429199219e+01 -2.337265968322753906e+01 6.060978630557656288e-04 3.970816032961010933e-04 3.009538340847939253e-04 -2.050695242360234261e-03
1.528000000000000000e+03 4.547979354858398438e+00 -2.602877807617187500e+01 -7.371224928647279739e-03 -1.468088976253056899e-05 -2.215771703049540520e-03 -9.723001858219504356e-04
1.529000000000000000e+03 3.071643590927124023e+00 1.457352066040039062e+01 -2.477109897881746292e-03 4.326833732193335891e-05 -7.301524747163057327e-04 4.567745418171398342e-05
1.530000000000000000e+03 4.305003166198730469e+00 1.172129821777343750e+01 2.365259220823645592e-03 -1.829936227295547724e-04 6.546796648763120174e-04 -1.295604597544297576e-04
1.531000000000000000e+03 5.196450233459472656e+00 1.365135383605957031e+01 -5.985185271129012108e-04 3.503001644276082516e-04 -7.446550444001331925e-05 3.220949729438871145e-04
1.532000000000000000e+03 4.262368202209472656e+00 1.439260292053222656e+01 2.717765746638178825e-03 -9.670028521213680506e-05 7.863196078687906265e-04 7.867538079153746367e-05
1.533000000000000000e+03 4.186333656311035156e+00 -1.033603668212890625e+01 1.982600660994648933e-03 5.251883412711322308e-04 7.523366948589682579e-04 3.547761007212102413e-04
1.534000000000000000e+03 4.008240222930908203e+00 -8.941880226135253906e+00 -1.932325889356434345e-03 -3.530095564201474190e-04 -6.856006802991032600e-04 -1.961914094863459468e-04
1.535000000000000000e+03 4.323808670043945312e+00 -1.321659183502197266e+01 2.569729229435324669e-03 4.444095538929104805e-04 9.042416349984705448e-04 7.494528545066714287e-04
1.536000000000000000e+03 4.039314270019531250e+00 2.903565406799316406e+01 1.386168645694851875e-03 -1.334853586740791798e-03 1.539451841381378472e-05 3.597715694922953844e-04
1.537000000000000000e+03 4.673930168151855469e+00 3.590921020507812500e+01 -2.329116454347968102e-03 -8.662688742333557457e-06 -7.013337453827261925e-04 -6.646839436143636703e-03
1.538000000000000000e+03 3.498803853988647461e+00 -3.145408630371093750e+01 4.154397640377283096e-03 -9.435995598323643208e-04 9.632394067011773586e-04 -4.354179836809635162e-03
1.539000000000000000e+03 4.717347621917724609e+00 -2.999052810668945312e+01 3.158177249133586884e-03 9.297484648413956165e-04 1.226377789862453938e-03 -2.330019837245345116e-03
1.540000000000000000e+03 5.426661491394042969e+00 1.028662014007568359e+01 1.891647931188344955e-03 -2.608160430099815130e-04 4.892495344392955303e-04 -1.866838283604010940e-05
1.541000000000000000e+03 4.282266139984130859e+00 -1.177838420867919922e+01 -2.140309894457459450e-03 -5.182304303161799908e-04 -7.975620683282613754e-04 -5.028888699598610401e-04
1.542000000000000000e+03 5.562498569488525391e+00 -6.008029460906982422e+00 -1.475401455536484718e-03 -2.727411338128149509e-04 -5.244427593424916267e-04 -8.154036477208137512e-04
1.543000000000000000e+03 4.258319377899169922e+00 1.017768287658691406e+01 -2.196171786636114120e-03 1.078115019481629133e-04 -6.265080883167684078e-04 4.109686997253447771e-04
1.544000000000000000e+03 6.427105426788330078e+00 3.025765419006347656e+01 3.784931264817714691e-03 -4.198376089334487915e-03 -1.240334822796285152e-04 9.503726032562553883e-04
1.545000000000000000e+03 3.340929746627807617e+00 3.434112167358398438e+01 -3.258211072534322739e-03 1.824216218665242195e-03 -4.301985027268528938e-04 -4.123012069612741470e-03
1.546000000000000000e+03 4.709480762481689453e+00 3.431505584716796875e+01 3.395951120182871819e-03 1.036287285387516022e-03 1.329671475104987621e-03 -6.872179801575839520e-04
1.547000000000000000e+03 6.398514270782470703e+00 -3.395191192626953125e+01 -1.194596476852893829e-02 5.324240308254957199e-03 -1.986517338082194328e-03 -1.770166680216789246e-02
1.548000000000000000e+03 5.047599315643310547e+00 -3.260156631469726562e+01 -2.280030166730284691e-04 2.766956109553575516e-03 7.616858929395675659e-04 -7.426395546644926071e-03
1.549000000000000000e+03 4.094315528869628906e+00 8.658150672912597656e+00 1.699244021438062191e-03 8.964817243395373225e-05 5.366676487028598785e-04 -5.420044763013720512e-04
1.550000000000000000e+03 3.439864158630371094e+00 -5.273303985595703125e+00 1.449558068998157978e-03 1.242014113813638687e-04 4.721278382930904627e-04 4.833260318264365196e-04
1.551000000000000000e+03 6.404634952545166016e+00 4.474279880523681641e+00 -7.902578217908740044e-04 -5.590262007899582386e-04 -4.047851834911853075e-04 -3.607409889809787273e-04
1.552000000000000000e+03 6.511403560638427734e+00 -3.610586166381835938e+01 -1.707404665648937225e-02 8.102962747216224670e-03 -2.691325265914201736e-03 -3.674098849296569824e-02
1.553000000000000000e+03 3.056664943695068359e+00 3.704790115356445312e+01 -1.027970109134912491e-03 2.942010527476668358e-03 5.742121138609945774e-04 -2.258077729493379593e-03
1.554000000000000000e+03 2.319720268249511719e+01 -2.226174545288085938e+01 -6.161651760339736938e-02 5.740832805633544922e+00 1.703764915466308594e+00 1.974125355482101440e-01
1.555000000000000000e+03 1.645072555541992188e+01 4.012614822387695312e+01 -3.269885107874870300e-02 -2.543206326663494110e-02 -1.743927411735057831e-02 2.239311859011650085e-02
1.556000000000000000e+03 1.052303218841552734e+01 3.837447738647460938e+01 -9.885277599096298218e-03 -2.186005935072898865e-03 -3.621384967118501663e-03 -6.490439642220735550e-03
1.557000000000000000e+03 2.433839416503906250e+01 -1.514541625976562500e+01 1.827852241694927216e-02 5.894985198974609375e+00 1.773979067802429199e+00 1.661081314086914062e-01
1.558000000000000000e+03 1.829808235168457031e+01 4.168105697631835938e+01 8.222985267639160156e-02 -1.904921084642410278e-01 -3.247867897152900696e-02 -1.080626528710126877e-02
1.559000000000000000e+03 2.355308341979980469e+01 4.311965942382812500e+00 1.091681793332099915e-01 5.734211444854736328e+00 1.753013968467712402e+00 3.670465946197509766e-01
1.560000000000000000e+03 2.474250602722167969e+01 1.487959504127502441e+00 6.183915305882692337e-03 5.867802619934082031e+00 1.762195944786071777e+00 3.421548604965209961e-01
1.561000000000000000e+03 2.488789176940917969e+01 5.755311965942382812e+00 5.158948153257369995e-02 5.726921081542968750e+00 1.733553171157836914e+00 4.758190214633941650e-01
1.562000000000000000e+03 2.439533996582031250e+01 -1.098583602905273438e+01 3.753609955310821533e-02 5.916191101074218750e+00 1.786118030548095703e+00 2.488611489534378052e-01
1.563000000000000000e+03 2.283024978637695312e+01 -2.960375595092773438e+01 3.614294528961181641e-02 5.764924049377441406e+00 1.740320086479187012e+00 1.914917379617691040e-01
1.564000000000000000e+03 2.453287696838378906e+01 -4.068631649017333984e+00 -6.305014342069625854e-02 5.911911964416503906e+00 1.754658460617065430e+00 2.944618165493011475e-01
1.565000000000000000e+03 3.576239776611328125e+01 3.128229331970214844e+01 1.261215686798095703e+00 1.094978046417236328e+01 3.663298845291137695e+00 -3.550503551959991455e-01
1.566000000000000000e+03 1.083132076263427734e+01 1.249467563629150391e+01 -1.153878867626190186e-03 -1.292029774049296975e-04 -3.849245549645274878e-04 1.404003705829381943e-03
1.567000000000000000e+03 1.100544357299804688e+01 2.671217727661132812e+01 -3.275035647675395012e-03 -1.117417938075959682e-03 -1.317736110650002956e-03 -8.913495548767969012e-05
1.568000000000000000e+03 7.511773681640625000e+01 4.006367874145507812e+01 3.833942487835884094e-02 6.487551212310791016e+00 1.957767128944396973e+00 -8.049575984477996826e-02
1.569000000000000000e+03 3.872672653198242188e+01 3.677757263183593750e+01 2.291261672973632812e+00 1.032422924041748047e+01 3.784647464752197266e+00 6.570631265640258789e-01
1.570000000000000000e+03 1.203963279724121094e+01 2.016877174377441406e+01 -3.847772255539894104e-03 -4.280034627299755812e-04 -1.282732700929045677e-03 1.164017612609313801e-05
1.571000000000000000e+03 1.226609897613525391e+01 2.948766136169433594e+01 6.782731972634792328e-03 -2.447514852974563837e-04 1.961394213140010834e-03 3.005775623023509979e-03
1.572000000000000000e+03 7.027898788452148438e+00 9.982337951660156250e+00 8.996921824291348457e-04 -4.894255544058978558e-04 1.230799971381202340e-04 3.575180890038609505e-04
1.573000000000000000e+03 2.455864524841308594e+01 4.103526306152343750e+01 8.806055784225463867e-01 -1.397169977426528931e-01 2.222665846347808838e-01 5.252873301506042480e-01
1.574000000000000000e+03 7.631736755371093750e+00 1.753432655334472656e+01 3.262680547777563334e-04 -7.425115909427404404e-04 -1.248730695806443691e-04 -3.466602647677063942e-04
1.575000000000000000e+03 2.089389419555664062e+01 -3.835637283325195312e+01 -1.400581002235412598e-01 4.799350261688232422e+00 1.397787690162658691e+00 -2.846651077270507812e-01
1.576000000000000000e+03 2.372373199462890625e+01 -3.888277816772460938e+01 -2.391639798879623413e-01 5.448675155639648438e+00 1.562853336334228516e+00 -1.853299289941787720e-01
1.577000000000000000e+03 2.295675086975097656e+01 -2.078845787048339844e+01 -9.493544697761535645e-02 5.728818893432617188e+00 1.690165042877197266e+00 1.800211519002914429e-01
1.578000000000000000e+03 1.007007312774658203e+01 -3.446586227416992188e+01 -3.947654739022254944e-02 2.488929778337478638e-02 -4.376174882054328918e-03 1.587787643074989319e-02
1.579000000000000000e+03 1.223073577880859375e+01 -3.395116043090820312e+01 -3.886695951223373413e-02 -1.893706619739532471e-03 -1.222820021212100983e-02 3.400331735610961914e-02
1.580000000000000000e+03 2.492552185058593750e+01 -2.549675178527832031e+01 -4.552833363413810730e-02 5.839506626129150391e+00 1.738193511962890625e+00 1.688401997089385986e-01
1.581000000000000000e+03 1.216372489929199219e+01 2.414309120178222656e+01 4.948721267282962799e-03 8.006208809092640877e-04 1.724802656099200249e-03 1.102974289096891880e-03
1.582000000000000000e+03 3.077367782592773438e+01 3.349141311645507812e+01 2.131786584854125977e+00 1.095156288146972656e+01 3.925004959106445312e+00 5.602519989013671875e+00
1.583000000000000000e+03 3.026007843017578125e+01 3.340155029296875000e+01 2.997093200683593750e+00 7.765271663665771484e+00 3.228709459304809570e+00 5.452489852905273438e+00
1.584000000000000000e+03 2.924032783508300781e+01 3.381757354736328125e+01 3.565656423568725586e+00 2.533037185668945312e+00 1.829608082771301270e+00 3.323417663574218750e+00
1.585000000000000000e+03 2.828287315368652344e+01 3.305051803588867188e+01 2.468296527862548828e+00 2.199889183044433594e+00 1.400455713272094727e+00 2.353243350982666016e+00
1.586000000000000000e+03 2.798442649841308594e+01 3.373035812377929688e+01 2.200360536575317383e+00 1.037126660346984863e+00 9.712461233139038086e-01 1.431217789649963379e+00
1.587000000000000000e+03 2.583652496337890625e+01 3.172877883911132812e+01 1.243767499923706055e+00 1.367314219474792480e+00 7.833244800567626953e-01 1.019493699073791504e+00
1.588000000000000000e+03 5.277292728424072266e+00 4.019170761108398438e+00 9.816293604671955109e-04 3.689539516926743090e-05 3.055574197787791491e-04 -4.173524794168770313e-04
1.589000000000000000e+03 5.886253356933593750e+00 4.520747661590576172e+00 1.143917033914476633e-04 8.573411614634096622e-04 2.915198565460741520e-04 -6.359292892739176750e-04
1.590000000000000000e+03 6.501811981201171875e+00 3.844453573226928711e+00 7.663482683710753918e-04 4.695357056334614754e-04 3.707651922013610601e-04 5.245234933681786060e-05
1.591000000000000000e+03 5.385067939758300781e+00 5.487277984619140625e+00 4.477594047784805298e-04 4.254941886756569147e-04 2.619760925881564617e-04 -8.870111778378486633e-04
1.592000000000000000e+03 1.134041023254394531e+01 4.619201183319091797e+00 -5.487073212862014771e-04 -1.487860863562673330e-04 -2.092480135615915060e-04 -3.144844667986035347e-04
1.593000000000000000e+03 9.633154869079589844e+00 5.822103500366210938e+00 -1.555913127958774567e-03 6.183733930811285973e-04 -2.812619204632937908e-04 5.137513508088886738e-04
1.594000000000000000e+03 2.404274559020996094e+01 3.151071548461914062e+01 6.337396502494812012e-01 6.263833642005920410e-01 3.780368864536285400e-01 3.411798179149627686e-01
1.595000000000000000e+03 7.122236251831054688e+00 3.858607530593872070e+00 -9.721415699459612370e-04 -2.830354496836662292e-04 -3.765531000681221485e-04 -7.469294359907507896e-05
1.596000000000000000e+03 8.248687744140625000e+00 4.591125011444091797e+00 9.072326356545090675e-04 1.518764911452308297e-04 3.177327453158795834e-04 -6.626977847190573812e-05
1.597000000000000000e+03 8.680060386657714844e+00 -4.161554336547851562e+00 -7.413082057610154152e-04 -4.735747061204165220e-04 -3.644648822955787182e-04 -6.252560524444561452e-06
1.598000000000000000e+03 4.697668552398681641e+00 4.359449386596679688e+00 5.980865098536014557e-04 -2.217174769612029195e-04 1.129107113229110837e-04 5.622426397167146206e-04
1.599000000000000000e+03 7.946380615234375000e+00 -4.169578075408935547e+00 8.716282318346202374e-04 4.603102279361337423e-04 3.995815350208431482e-04 1.048656122293323278e-04
1.600000000000000000e+03 1.143267345428466797e+01 -9.175698280334472656e+00 -2.194621600210666656e-03 -3.447352792136371136e-04 -7.618070812895894051e-04 4.023802757728844881e-04
1.601000000000000000e+03 1.108198642730712891e+01 7.141708374023437500e+00 1.673970022238790989e-03 2.931268827524036169e-04 5.901290569454431534e-04 4.206182784400880337e-04
1.602000000000000000e+03 1.226112174987792969e+01 4.947943210601806641e+00 4.267425101716071367e-04 3.695226623676717281e-04 2.388795546721667051e-04 4.825976793654263020e-04
1.603000000000000000e+03 3.015603637695312500e+01 3.863028717041015625e+01 1.378457993268966675e-01 6.385943412780761719e+00 1.957136869430541992e+00 -2.338657617568969727e+00
1.604000000000000000e+03 3.099160385131835938e+01 3.906869125366210938e+01 -6.118497848510742188e-01 9.846404075622558594e+00 2.770366430282592773e+00 -2.047074556350708008e+00
1.605000000000000000e+03 7.170868396759033203e+00 -5.007363796234130859e+00 1.028077094815671444e-03 5.181301385164260864e-04 4.638621758203953505e-04 8.517956302966922522e-05
1.606000000000000000e+03 5.177420139312744141e+00 -4.057610034942626953e+00 6.691972957924008369e-04 4.052374861203134060e-04 3.223304229322820902e-04 -1.336051500402390957e-04
1.607000000000000000e+03 3.404407024383544922e+00 -4.401191234588623047e+00 -1.802656217478215694e-03 1.996293140109628439e-04 -4.809080564882606268e-04 -8.543654694221913815e-04
1.608000000000000000e+03 7.218994140625000000e+00 -4.180418491363525391e+00 -9.167489479295909405e-04 -3.981442423537373543e-04 -3.944679629057645798e-04 -1.912344159791246057e-04
1.609000000000000000e+03 8.191887855529785156e+00 -6.717179298400878906e+00 -1.621870789676904678e-03 1.928791753016412258e-04 -4.286974726710468531e-04 -5.366366822272539139e-04
1.610000000000000000e+03 1.215490436553955078e+01 6.741870403289794922e+00 -1.619090442545711994e-03 -3.517956647556275129e-04 -5.912658525630831718e-04 -1.890114508569240570e-04
1.611000000000000000e+03 6.490894794464111328e+00 -4.179315090179443359e+00 1.054817344993352890e-03 2.431362954666838050e-04 3.893860848620533943e-04 2.504436415620148182e-04
1.612000000000000000e+03 7.133088111877441406e+00 -5.881436824798583984e+00 -7.906555547378957272e-04 -7.687692414037883282e-04 -4.678274272009730339e-04 2.364770771237090230e-04
1.613000000000000000e+03 5.617452144622802734e+00 -5.008713722229003906e+00 1.705882139503955841e-03 -1.144353445852175355e-04 4.774340486619621515e-04 4.196353256702423096e-04
1.614000000000000000e+03 1.265986919403076172e+01 -5.438829421997070312e+00 -1.737829181365668774e-03 -2.763336233329027891e-04 -6.042488384991884232e-04 2.409360313322395086e-04
1.615000000000000000e+03 2.705774116516113281e+01 3.226150131225585938e+01 1.803629755973815918e+00 1.790919184684753418e+00 1.078364610671997070e+00 1.623042225837707520e+00
1.616000000000000000e+03 2.686118125915527344e+01 3.269468307495117188e+01 1.660343647003173828e+00 1.245859146118164062e+00 8.718608617782592773e-01 1.208800315856933594e+00
1.617000000000000000e+03 3.227698135375976562e+01 3.218399810791015625e+01 6.704433560371398926e-01 1.264195442199707031e+01 3.993719339370727539e+00 1.872635960578918457e+00
1.618000000000000000e+03 9.536924362182617188e+00 4.837855339050292969e+00 1.733372628223150969e-04 2.424548438284546137e-04 1.247376349056139588e-04 2.189960650866851211e-04
1.619000000000000000e+03 2.462431716918945312e+01 -1.289986848831176758e+00 -3.894478082656860352e-02 5.893748283386230469e+00 1.756440997123718262e+00 3.252085447311401367e-01
1.620000000000000000e+03 2.601374626159667969e+01 1.079058796167373657e-01 -3.565951809287071228e-02 5.965856075286865234e+00 1.779059052467346191e+00 3.487725853919982910e-01
1.621000000000000000e+03 2.627611875534057617e+00 6.024826526641845703e+00 -1.606294419616460800e-03 -1.489108217356260866e-05 -4.863556532654911280e-04 3.894921101164072752e-04
1.622000000000000000e+03 2.607468223571777344e+01 -1.762672805786132812e+01 -5.556277185678482056e-02 5.964133262634277344e+00 1.772571206092834473e+00 1.471552997827529907e-01
1.623000000000000000e+03 2.594248390197753906e+01 -1.628907203674316406e+01 -2.132901549339294434e-02 5.963140487670898438e+00 1.782543420791625977e+00 1.493977159261703491e-01
1.624000000000000000e+03 2.588996887207031250e+01 -4.017669200897216797e+00 -7.015130668878555298e-02 6.000851631164550781e+00 1.779210090637207031e+00 3.044397532939910889e-01
1.625000000000000000e+03 2.446756362915039062e+01 -8.217679977416992188e+00 -3.164697065949440002e-02 5.938709259033203125e+00 1.772118687629699707e+00 2.901632487773895264e-01
1.626000000000000000e+03 2.587870025634765625e+01 -5.390780925750732422e+00 -6.607687473297119141e-02 6.002816677093505859e+00 1.781021952629089355e+00 2.968769073486328125e-01
1.627000000000000000e+03 1.058255672454833984e+01 -1.538996505737304688e+01 2.608594717457890511e-03 8.475649519823491573e-04 1.036847941577434540e-03 -3.986364754382520914e-04
1.628000000000000000e+03 1.113485240936279297e+01 9.919895172119140625e+00 -1.419352833181619644e-03 3.193322045262902975e-04 -3.300061798654496670e-04 -6.738222436979413033e-04
1.629000000000000000e+03 1.078013610839843750e+01 1.768054771423339844e+01 3.258178709074854851e-03 2.926686720456928015e-04 1.065254211425781250e-03 -2.219371672254055738e-04
1.630000000000000000e+03 1.021883106231689453e+01 1.416781616210937500e+01 -2.356314333155751228e-03 -4.488517879508435726e-04 -8.415498305112123489e-04 6.647891132161021233e-04
1.631000000000000000e+03 1.115318965911865234e+01 -1.162087535858154297e+01 -2.364695305004715919e-03 -3.554047143552452326e-04 -8.160300203599035740e-04 4.487589176278561354e-04
1.632000000000000000e+03 1.097028923034667969e+01 -1.287231445312500000e+01 2.595497062429785728e-03 3.838780685327947140e-04 8.938125101849436760e-04 -4.627472371794283390e-04
1.633000000000000000e+03 6.265167236328125000e+00 -3.112604713439941406e+01 -8.320856140926480293e-04 5.309350788593292236e-03 1.343179494142532349e-03 -2.527577336877584457e-03
1.634000000000000000e+03 7.524308013916015625e+01 3.270691299438476562e+01 5.020384863018989563e-02 6.664554119110107422e+00 2.014427423477172852e+00 -1.805191636085510254e-01
1.635000000000000000e+03 2.585035514831542969e+01 -1.091471958160400391e+01 1.722086593508720398e-02 5.974714279174804688e+00 1.797580599784851074e+00 2.545540332794189453e-01
1.636000000000000000e+03 2.444076919555664062e+01 -9.601778030395507812e+00 1.804786361753940582e-02 5.911926746368408203e+00 1.778992414474487305e+00 2.847461104393005371e-01
1.637000000000000000e+03 7.247979736328125000e+01 -3.137473869323730469e+01 -1.105480827391147614e-02 8.285313606262207031e+00 2.482277393341064453e+00 -2.971378900110721588e-02
1.638000000000000000e+03 7.521446990966796875e+01 -2.739042091369628906e+01 -5.572902504354715347e-03 8.413585662841796875e+00 2.522403955459594727e+00 -3.231525793671607971e-02
1.639000000000000000e+03 7.354122924804687500e+01 -2.832073783874511719e+01 -8.317349478602409363e-03 8.333695411682128906e+00 2.497613430023193359e+00 -3.693357482552528381e-02
1.640000000000000000e+03 2.588352203369140625e+01 -6.764357566833496094e+00 -5.881964415311813354e-02 6.011288166046142578e+00 1.785740613937377930e+00 2.933104932308197021e-01
1.641000000000000000e+03 7.423949432373046875e+01 2.267961692810058594e+01 8.110276423394680023e-03 7.114632129669189453e+00 2.136822700500488281e+00 -3.331383764743804932e-01
1.642000000000000000e+03 7.528050994873046875e+01 2.409463310241699219e+01 1.126396283507347107e-02 6.980440139770507812e+00 2.097511291503906250e+00 -2.798622846603393555e-01
1.643000000000000000e+03 7.549829101562500000e+01 -2.072972869873046875e+01 -8.105116896331310272e-03 8.383934020996093750e+00 2.512748479843139648e+00 -4.927159100770950317e-02
1.644000000000000000e+03 7.430248260498046875e+01 -2.201812553405761719e+01 -1.041476428508758545e-02 8.336052894592285156e+00 2.497691392898559570e+00 -5.507642030715942383e-02
1.645000000000000000e+03 7.539205932617187500e+01 1.297539329528808594e+01 -1.554216723889112473e-02 7.524462699890136719e+00 2.252676248550415039e+00 -2.584350109100341797e-01
1.646000000000000000e+03 7.417161560058593750e+01 1.586973667144775391e+01 -1.459889393299818039e-02 7.423451423645019531e+00 2.222655773162841797e+00 -3.286635577678680420e-01
1.647000000000000000e+03 7.546253204345703125e+01 1.716265487670898438e+01 -7.198340725153684616e-03 7.327256202697753906e+00 2.196017265319824219e+00 -2.745876908302307129e-01
1.648000000000000000e+03 7.391359710693359375e+01 8.928880691528320312e+00 -3.101110272109508514e-02 7.702517509460449219e+00 2.301451921463012695e+00 -2.870997190475463867e-01
1.649000000000000000e+03 7.393908691406250000e+01 2.554672813415527344e+01 3.496460989117622375e-02 7.028659343719482422e+00 2.119087219238281250e+00 -3.359188735485076904e-01
1.650000000000000000e+03 7.374256134033203125e+01 4.263261795043945312e+00 -3.422214835882186890e-02 7.856959819793701172e+00 2.346821308135986328e+00 -2.485883831977844238e-01
1.651000000000000000e+03 7.450995635986328125e+01 2.672143936157226562e+01 3.453813493251800537e-02 6.922962188720703125e+00 2.087250232696533203e+00 -2.932541966438293457e-01
1.652000000000000000e+03 7.518615722656250000e+01 -1.378554916381835938e+01 -1.156813371926546097e-02 8.290370941162109375e+00 2.483640670776367188e+00 -7.924839854240417480e-02
1.653000000000000000e+03 7.368598175048828125e+01 -1.528351974487304688e+01 -1.822029240429401398e-02 8.242353439331054688e+00 2.467239856719970703e+00 -9.055274724960327148e-02
1.654000000000000000e+03 7.418910217285156250e+01 -7.489219307899475098e-03 -2.969952486455440521e-02 7.983294010162353516e+00 2.386078357696533203e+00 -1.946007013320922852e-01
1.655000000000000000e+03 7.407446289062500000e+01 1.369160771369934082e+00 -2.972407825291156769e-02 7.944378852844238281e+00 2.374396324157714844e+00 -2.101036459207534790e-01
1.656000000000000000e+03 7.531381988525390625e+01 2.899702787399291992e+00 -1.973476074635982513e-02 7.919487476348876953e+00 2.369925737380981445e+00 -1.872096657752990723e-01
1.657000000000000000e+03 7.409530639648437500e+01 -9.315840721130371094e+00 -2.110859006643295288e-02 8.174885749816894531e+00 2.446133375167846680e+00 -1.216876953840255737e-01
1.658000000000000000e+03 7.405329132080078125e+01 1.174767208099365234e+01 -2.623118460178375244e-02 7.595927238464355469e+00 2.270908832550048828e+00 -3.076533377170562744e-01
1.659000000000000000e+03 7.554323577880859375e+01 -5.340394020080566406e+00 -1.495668850839138031e-02 8.151967048645019531e+00 2.441103219985961914e+00 -1.208249405026435852e-01
1.660000000000000000e+03 7.426541900634765625e+01 -6.582912921905517578e+00 -2.251119166612625122e-02 8.132834434509277344e+00 2.433096885681152344e+00 -1.385115981101989746e-01
1.661000000000000000e+03 7.556018066406250000e+01 -3.994443893432617188e+00 -1.672502979636192322e-02 8.120816230773925781e+00 2.431227207183837891e+00 -1.292674690485000610e-01
1.662000000000000000e+03 7.434091186523437500e+01 -2.673648595809936523e+00 -2.628227882087230682e-02 8.051767349243164062e+00 2.407645463943481445e+00 -1.682650893926620483e-01
1.663000000000000000e+03 7.397628784179687500e+01 -1.073702716827392578e+01 -2.179609052836894989e-02 8.191936492919921875e+00 2.451042175292968750e+00 -1.152491047978401184e-01
1.664000000000000000e+03 7.382119750976562500e+01 -1.221408748626708984e+01 -2.212283387780189514e-02 8.207695007324218750e+00 2.455671787261962891e+00 -1.082157120108604431e-01
1.665000000000000000e+03 7.399942779541015625e+01 -1.820283317565917969e+01 -1.467864681035280228e-02 8.287147521972656250e+00 2.481740713119506836e+00 -7.218995690345764160e-02
1.666000000000000000e+03 7.417668914794921875e+01 -1.952760887145996094e+01 -1.197826117277145386e-02 8.307240486145019531e+00 2.488578557968139648e+00 -6.515183299779891968e-02
1.667000000000000000e+03 7.429155731201171875e+01 1.871186065673828125e+01 -4.258451983332633972e-03 7.297855854034423828e+00 2.188079118728637695e+00 -3.328055143356323242e-01
1.668000000000000000e+03 7.405535125732421875e+01 -2.463835144042968750e+01 -1.034000609070062637e-02 8.338690757751464844e+00 2.498505353927612305e+00 -4.760942980647087097e-02
1.669000000000000000e+03 7.399384307861328125e+01 -2.711083030700683594e+01 -8.466700091958045959e-03 8.352511405944824219e+00 2.503213644027709961e+00 -4.057103022933006287e-02
1.670000000000000000e+03 7.533669281005859375e+01 -2.605759620666503906e+01 -6.204817909747362137e-03 8.415145874023437500e+00 2.522682428359985352e+00 -3.510673716664314270e-02
1.671000000000000000e+03 7.405377197265625000e+01 2.891602325439453125e+01 5.479242280125617981e-02 6.870184421539306641e+00 2.077492952346801758e+00 -2.803748846054077148e-01
1.672000000000000000e+03 7.515837097167968750e+01 2.555326080322265625e+01 2.354313805699348450e-02 6.929744720458984375e+00 2.085986375808715820e+00 -2.719262540340423584e-01
1.673000000000000000e+03 7.368712615966796875e+01 -1.374241638183593750e+01 -2.069872990250587463e-02 8.224561691284179688e+00 2.461158752441406250e+00 -1.000431999564170837e-01
1.674000000000000000e+03 7.365691375732421875e+01 7.410236835479736328e+00 -3.334746509790420532e-02 7.756158351898193359e+00 2.316843271255493164e+00 -2.824307680130004883e-01
1.675000000000000000e+03 6.963815307617187500e+01 3.403177261352539062e+01 1.825278103351593018e-01 7.069359302520751953e+00 2.175565958023071289e+00 -2.866077721118927002e-01
1.676000000000000000e+03 7.430233001708984375e+01 -2.078381156921386719e+01 -1.207257807254791260e-02 8.323266983032226562e+00 2.493358135223388672e+00 -5.986568331718444824e-02
1.677000000000000000e+03 7.435491180419921875e+01 -3.177057456970214844e+01 -8.295705541968345642e-03 8.384839057922363281e+00 2.512963056564331055e+00 -2.940870262682437897e-02
1.678000000000000000e+03 7.413643646240234375e+01 1.447415637969970703e+01 -1.997770369052886963e-02 7.486743927001953125e+00 2.240029811859130859e+00 -3.211418986320495605e-01
1.679000000000000000e+03 7.418732452392578125e+01 2.148985099792480469e+01 9.970351122319698334e-03 7.178973674774169922e+00 2.156683206558227539e+00 -3.390750885009765625e-01
1.680000000000000000e+03 7.411462402343750000e+01 2.016357040405273438e+01 -1.075256615877151489e-03 7.239742279052734375e+00 2.171600103378295898e+00 -3.434904813766479492e-01
1.681000000000000000e+03 2.496496200561523438e+01 3.036204910278320312e+01 8.932628631591796875e-01 1.607686877250671387e+00 7.502849102020263672e-01 1.071874976158142090e+00
1.682000000000000000e+03 2.450218200683593750e+01 2.806064224243164062e+01 3.719630837440490723e-01 2.091372966766357422e+00 7.390008568763732910e-01 1.222029328346252441e+00
1.683000000000000000e+03 2.432325744628906250e+01 2.526410675048828125e+01 2.242750488221645355e-02 2.807086706161499023e+00 8.488542437553405762e-01 1.287056684494018555e+00
1.684000000000000000e+03 2.545673370361328125e+01 2.631555366516113281e+01 1.504059731960296631e-01 3.257841825485229492e+00 1.022474408149719238e+00 1.590259075164794922e+00
1.685000000000000000e+03 7.498233795166015625e+01 3.010211181640625000e+01 3.608871623873710632e-02 6.771576881408691406e+00 2.042299747467041016e+00 -2.252876460552215576e-01
1.686000000000000000e+03 6.692051887512207031e+00 -1.596998214721679688e+01 3.259744495153427124e-03 4.941107472404837608e-04 1.126156537793576717e-03 8.879214874468743801e-04
1.687000000000000000e+03 6.532087802886962891e+00 -3.253845596313476562e+01 -2.281135134398937225e-02 5.467148497700691223e-03 -5.203260574489831924e-03 -1.007517427206039429e-02
1.688000000000000000e+03 5.988242149353027344e+00 -2.985115432739257812e+01 -1.596641913056373596e-02 5.676027503795921803e-04 -4.619644489139318466e-03 -4.044801462441682816e-03
1.689000000000000000e+03 1.180540275573730469e+01 -2.129488182067871094e+01 -1.867065788246691227e-03 -6.202677031978964806e-04 -7.462000357918441296e-04 -4.132763016968965530e-03
1.690000000000000000e+03 1.075327682495117188e+01 3.037670898437500000e+01 5.806678440421819687e-03 -4.226564429700374603e-03 4.740341682918369770e-04 4.951187293045222759e-04
1.691000000000000000e+03 2.618405723571777344e+01 1.153711318969726562e+01 -1.477154791355133057e-01 5.535241603851318359e+00 1.616257786750793457e+00 7.672603130340576172e-01
1.692000000000000000e+03 5.788670063018798828e+00 -2.613225173950195312e+01 3.919001668691635132e-03 -4.893940058536827564e-04 1.028882339596748352e-03 8.262234041467308998e-04
1.693000000000000000e+03 2.578256225585937500e+01 1.995638656616210938e+01 -2.551209926605224609e-01 4.607022762298583984e+00 1.305570602416992188e+00 1.276749134063720703e+00
1.694000000000000000e+03 2.566324234008789062e+01 2.129949569702148438e+01 -2.315557003021240234e-01 4.369731426239013672e+00 1.241452693939208984e+00 1.364836692810058594e+00
1.695000000000000000e+03 4.525887966156005859e+00 2.749692153930664062e+01 -2.147268969565629959e-03 7.478452171199023724e-04 -4.198271199129521847e-04 -9.192791767418384552e-04
1.696000000000000000e+03 5.135463237762451172e+00 2.961464691162109375e+01 -7.566016283817589283e-04 1.777873723767697811e-03 3.063816402573138475e-04 -4.044082481414079666e-03
1.697000000000000000e+03 2.492191886901855469e+01 1.006815814971923828e+01 -6.401874870061874390e-02 5.459702014923095703e+00 1.618704915046691895e+00 6.096377968788146973e-01
1.698000000000000000e+03 1.446572208404541016e+01 -2.896275138854980469e+01 7.504785899072885513e-03 3.111222060397267342e-03 3.184802364557981491e-03 -3.386692551430314779e-04
1.699000000000000000e+03 2.480368995666503906e+01 1.573619270324707031e+01 -1.519717872142791748e-01 4.807579040527343750e+00 1.396682262420654297e+00 8.538392782211303711e-01
1.700000000000000000e+03 2.449267959594726562e+01 3.082118988037109375e+01 6.557485461235046387e-01 1.093971610069274902e+00 5.249160528182983398e-01 6.568408012390136719e-01
1.701000000000000000e+03 5.446295261383056641e+00 2.389018058776855469e+01 1.484518754296004772e-03 2.719373442232608795e-03 1.261167693883180618e-03 -1.216632546856999397e-03
1.702000000000000000e+03 1.079317951202392578e+01 2.280215644836425781e+01 3.776681842282414436e-03 1.176272635348141193e-03 1.485886401496827602e-03 6.709248409606516361e-04
1.703000000000000000e+03 6.760080814361572266e+00 -1.013043212890625000e+01 1.936307176947593689e-03 6.813281797803938389e-04 7.852906128391623497e-04 2.284731017425656319e-04
1.704000000000000000e+03 5.468675136566162109e+00 -1.014950084686279297e+01 -2.112398156896233559e-03 -6.001413566991686821e-04 -8.137619006447494030e-04 -4.247910692356526852e-04
1.705000000000000000e+03 2.620754432678222656e+01 7.216643810272216797e+00 -3.129192069172859192e-02 5.774254798889160156e+00 1.722888946533203125e+00 5.887244939804077148e-01
1.706000000000000000e+03 2.583408546447753906e+01 2.714469718933105469e+01 2.801519930362701416e-01 3.291188716888427734e+00 1.071402192115783691e+00 1.687456727027893066e+00
1.707000000000000000e+03 2.596716308593750000e+01 1.718971252441406250e+01 -2.486367225646972656e-01 4.990517139434814453e+00 1.422564029693603516e+00 1.087397933006286621e+00
1.708000000000000000e+03 2.609823036193847656e+01 1.437888526916503906e+01 -2.074108272790908813e-01 5.293745040893554688e+00 1.525900244712829590e+00 9.122126102447509766e-01
1.709000000000000000e+03 6.137269496917724609e+00 -2.338294982910156250e+01 2.805511932820081711e-03 -1.397358952090144157e-03 4.224458825774490833e-04 -1.450710842618718743e-04
1.710000000000000000e+03 9.685489654541015625e+00 2.539602661132812500e+01 -3.373729763552546501e-03 -7.540622609667479992e-04 -1.238337601535022259e-03 -9.528628434054553509e-04
1.711000000000000000e+03 5.921495437622070312e+00 2.537280654907226562e+01 -8.836669730953872204e-04 -3.330412087962031364e-03 -1.264223712496459484e-03 1.097480766475200653e-03
1.712000000000000000e+03 5.472851276397705078e+00 -1.724082565307617188e+01 3.950615413486957550e-03 3.131994744762778282e-04 1.279144547879695892e-03 1.704848953522741795e-03
1.713000000000000000e+03 5.505982398986816406e+00 -1.594758605957031250e+01 -3.214627271518111229e-03 -5.288498941808938980e-04 -1.123043126426637173e-03 -1.067344448529183865e-03
1.714000000000000000e+03 5.552169799804687500e+00 -1.458885288238525391e+01 3.022654447704553604e-03 4.133089678362011909e-04 1.030788989737629890e-03 9.785912698134779930e-04
1.715000000000000000e+03 4.733319282531738281e+00 -2.152329826354980469e+01 5.616577807813882828e-03 4.260083369445055723e-04 1.812775852158665657e-03 1.253128983080387115e-03
1.716000000000000000e+03 1.070335769653320312e+01 1.646309089660644531e+01 -3.011205699294805527e-03 -4.284435999579727650e-04 -1.031894818879663944e-03 1.984792907023802400e-04
1.717000000000000000e+03 6.933804035186767578e+00 1.587550449371337891e+01 -1.080380403436720371e-03 -1.463041175156831741e-03 -7.630264735780656338e-04 -3.497393336147069931e-04
1.718000000000000000e+03 4.448094367980957031e+00 1.876896858215332031e+01 -3.197739366441965103e-03 4.522730014286935329e-04 -8.236399153247475624e-04 5.197582067921757698e-04
1.719000000000000000e+03 6.576283454895019531e+00 -1.837234497070312500e+01 3.543054917827248573e-03 8.174616377800703049e-04 1.308154896833002567e-03 1.809258712455630302e-03
1.720000000000000000e+03 5.751224994659423828e+00 -2.739676475524902344e+01 -9.474189020693302155e-03 1.599200331838801503e-04 -2.794280648231506348e-03 -2.252236474305391312e-03
1.721000000000000000e+03 4.532083511352539062e+00 -2.736506271362304688e+01 5.259359721094369888e-03 -7.789481314830482006e-04 1.344123505987226963e-03 2.811731537804007530e-04
1.722000000000000000e+03 7.033456802368164062e+00 -2.632568740844726562e+01 -6.099075078964233398e-03 -1.308174105361104012e-03 -2.222174778580665588e-03 -8.147778571583330631e-04
1.723000000000000000e+03 8.006704330444335938e+00 -1.140273284912109375e+01 1.083148759789764881e-03 1.688162796199321747e-03 8.313934667967259884e-04 6.919850711710751057e-04
1.724000000000000000e+03 5.897452831268310547e+00 3.148599243164062500e+01 -1.515541225671768188e-04 1.426931470632553101e-03 3.826132160611450672e-04 -5.929561331868171692e-03
1.725000000000000000e+03 5.839396476745605469e+00 3.271413040161132812e+01 5.563995800912380219e-03 -1.354749081656336784e-03 1.262773992493748665e-03 5.998288397677242756e-04
1.726000000000000000e+03 6.425250053405761719e+00 2.157165718078613281e+01 2.878403989598155022e-03 1.139611355029046535e-03 1.205404638312757015e-03 -3.969853860326111317e-04
1.727000000000000000e+03 6.069693565368652344e+00 -2.106635856628417969e+01 -3.700695931911468506e-03 -2.312131691724061966e-03 -1.803848310373723507e-03 -2.279392909258604050e-03
1.728000000000000000e+03 5.490320205688476562e+00 -1.849426651000976562e+01 -3.942539449781179428e-03 -8.416967466473579407e-04 -1.435270765796303749e-03 -2.064838074147701263e-03
1.729000000000000000e+03 6.155761241912841797e+00 3.420983505249023438e+01 -2.444040030241012573e-03 -1.746651716530323029e-03 -1.257207477465271950e-03 -6.071382667869329453e-03
1.730000000000000000e+03 5.681241512298583984e+00 1.712231254577636719e+01 -1.540546887554228306e-03 -1.430706935934722424e-03 -8.913761703297495842e-04 6.522596231661736965e-04
1.731000000000000000e+03 6.063868522644042969e+00 1.442549705505371094e+01 -1.343468029517680407e-04 -8.693210547789931297e-04 -3.011003427673131227e-04 -4.458299663383513689e-04
1.732000000000000000e+03 5.797954559326171875e+00 -2.862810325622558594e+01 4.267005715519189835e-03 -2.567299234215170145e-04 1.203082851134240627e-03 5.579286371357738972e-04
1.733000000000000000e+03 8.760481834411621094e+00 -3.353643798828125000e+01 -3.560946509242057800e-02 1.259551942348480225e-02 -6.904184352606534958e-03 -8.827555924654006958e-03
1.734000000000000000e+03 6.350411415100097656e+00 1.089186286926269531e+01 -1.616864610696211457e-04 2.496279485058039427e-04 2.638245132402516901e-05 -9.824889275478199124e-05
1.735000000000000000e+03 5.546819210052490234e+00 -1.168018341064453125e+01 2.345331246033310890e-03 6.166429957374930382e-04 8.885922725312411785e-04 4.969643196091055870e-04
1.736000000000000000e+03 2.644082260131835938e+01 2.495185661315917969e+01 -7.316280156373977661e-02 4.282085418701171875e+00 1.262676835060119629e+00 1.759019494056701660e+00
1.737000000000000000e+03 2.651759338378906250e+01 2.380081176757812500e+01 -1.886019259691238403e-01 4.505030632019042969e+00 1.294928669929504395e+00 1.680350661277770996e+00
1.738000000000000000e+03 4.839529991149902344e+00 -7.404665946960449219e+00 -1.786907203495502472e-03 -2.152152301277965307e-04 -6.006367621012032032e-04 -7.517738267779350281e-04
1.739000000000000000e+03 3.779898643493652344e+00 7.266512393951416016e+00 -1.570932101458311081e-03 -1.268566411454230547e-04 -5.093366489745676517e-04 3.884277539327740669e-04
1.740000000000000000e+03 5.204547882080078125e+00 8.173892021179199219e+00 -3.844372113235294819e-04 -5.876867217011749744e-04 -2.916371740866452456e-04 6.193559966050088406e-04
1.741000000000000000e+03 7.398457527160644531e+00 -2.386973762512207031e+01 -3.936986438930034637e-03 8.721613994566723704e-05 -1.154931145720183849e-03 2.426883584121242166e-04
1.742000000000000000e+03 1.089422702789306641e+01 -2.483733177185058594e+01 2.680466044694185257e-03 1.150956610217690468e-03 1.149426796473562717e-03 2.588950155768543482e-04
1.743000000000000000e+03 1.078094196319580078e+01 -2.597428512573242188e+01 -4.557809326797723770e-03 -2.470465376973152161e-03 -2.108482411131262779e-03 -4.947306588292121887e-04
1.744000000000000000e+03 1.052728557586669922e+01 1.528479099273681641e+01 2.514781663194298744e-03 7.341843447647988796e-04 9.746898431330919266e-04 -4.590948228724300861e-04
1.745000000000000000e+03 9.695905685424804688e+00 1.317118072509765625e+01 2.496014116331934929e-03 -5.224330234341323376e-04 5.920743569731712341e-04 -1.238370663486421108e-03
1.746000000000000000e+03 4.587624549865722656e+00 -6.195614814758300781e+00 1.438513747416436672e-03 3.029490762855857611e-04 5.224388442002236843e-04 8.618188439868390560e-04
1.747000000000000000e+03 2.575898361206054688e+01 -1.226767063140869141e+01 2.417323738336563110e-02 5.964041709899902344e+00 1.796464562416076660e+00 2.178828865289688110e-01
1.748000000000000000e+03 1.040031719207763672e+01 -2.958714103698730469e+01 -7.147063734009861946e-04 3.615997266024351120e-04 -1.059319984051398933e-04 5.881323479115962982e-03
1.749000000000000000e+03 1.185733795166015625e+01 -2.861910438537597656e+01 3.759017912670969963e-03 -4.258890112396329641e-04 9.999386966228485107e-04 2.115472452715039253e-03
1.750000000000000000e+03 2.484961128234863281e+01 4.317791938781738281e+00 5.970356985926628113e-02 5.785486221313476562e+00 1.753556847572326660e+00 4.135041534900665283e-01
1.751000000000000000e+03 2.589334297180175781e+01 -8.144917488098144531e+00 -2.996996045112609863e-02 5.997556686401367188e+00 1.790276050567626953e+00 2.850484549999237061e-01
1.752000000000000000e+03 1.205892944335937500e+01 2.148889923095703125e+01 4.096230026334524155e-03 6.750696338713169098e-04 1.431389944627881050e-03 2.750290441326797009e-04
1.753000000000000000e+03 1.075508308410644531e+01 2.020253753662109375e+01 3.374116728082299232e-03 6.424874300137162209e-04 1.204981235787272453e-03 -1.685547613305971026e-04
1.754000000000000000e+03 2.455032539367675781e+01 -2.050979042053222656e+01 -7.580983638763427734e-02 5.845263481140136719e+00 1.730836033821105957e+00 1.819298565387725830e-01
1.755000000000000000e+03 2.328628158569335938e+01 -2.379313850402832031e+01 -6.374613195657730103e-02 5.731457710266113281e+00 1.700313448905944824e+00 1.576811820268630981e-01
1.756000000000000000e+03 1.061562824249267578e+01 1.080543231964111328e+01 1.251648529432713985e-03 -7.586143328808248043e-04 1.479102502344176173e-04 3.398461267352104187e-04
1.757000000000000000e+03 9.610568046569824219e+00 3.018916320800781250e+01 -4.252621438354253769e-03 -9.755303472047671676e-05 -1.305052312090992928e-03 3.373821731656789780e-03
1.758000000000000000e+03 1.078070259094238281e+01 1.892914581298828125e+01 -3.328700549900531769e-03 -2.687309752218425274e-04 -1.079229521565139294e-03 2.042238484136760235e-04
1.759000000000000000e+03 8.943500518798828125e+00 -3.062666893005371094e+01 -5.706172436475753784e-03 8.084112778306007385e-03 7.133820326998829842e-04 5.644827615469694138e-03
1.760000000000000000e+03 2.592116737365722656e+01 -2.641626596450805664e+00 -6.385828554630279541e-02 5.990607261657714844e+00 1.778024673461914062e+00 3.177314996719360352e-01
1.761000000000000000e+03 2.618909835815429688e+01 5.770119190216064453e+00 -1.913010026328265667e-03 5.829362392425537109e+00 1.748234868049621582e+00 5.231322050094604492e-01
1.762000000000000000e+03 2.606790733337402344e+01 1.495339632034301758e+00 -2.044201828539371490e-02 5.951981544494628906e+00 1.779461860656738281e+00 3.747398257255554199e-01
1.763000000000000000e+03 2.572614097595214844e+01 -1.361285495758056641e+01 1.995369978249073029e-02 5.965523242950439453e+00 1.795643091201782227e+00 1.946023553609848022e-01
1.764000000000000000e+03 2.444639587402343750e+01 -2.979952812194824219e+01 1.072286665439605713e-01 5.795386314392089844e+00 1.770784378051757812e+00 1.929500997066497803e-01
1.765000000000000000e+03 9.840797424316406250e+00 2.898389053344726562e+01 9.507396258413791656e-03 -5.239907186478376389e-03 1.280246768146753311e-03 -5.972491344437003136e-04
1.766000000000000000e+03 7.619269371032714844e+00 2.581733894348144531e+01 -2.975054376292973757e-04 -3.282986115664243698e-03 -1.074147410690784454e-03 2.530107158236205578e-04
1.767000000000000000e+03 1.403054523468017578e+01 3.954715728759765625e+01 -1.839565299451351166e-02 -2.194939926266670227e-02 -1.210351567715406418e-02 1.732926070690155029e-02
1.768000000000000000e+03 7.173716735839843750e+01 4.080017089843750000e+01 1.344863027334213257e-01 6.816602230072021484e+00 2.085326433181762695e+00 -5.699821561574935913e-02
1.769000000000000000e+03 2.969729804992675781e+01 3.322717666625976562e+01 3.120088100433349609e+00 5.316152095794677734e+00 2.530872106552124023e+00 4.576425075531005859e+00
1.770000000000000000e+03 3.210024261474609375e+01 3.150554275512695312e+01 3.664810657501220703e-01 1.156516742706298828e+01 3.579494714736938477e+00 2.170228958129882812e+00
1.771000000000000000e+03 2.919710159301757812e+01 3.248399353027343750e+01 2.537797451019287109e+00 4.700490951538085938e+00 2.171486377716064453e+00 3.799251556396484375e+00
1.772000000000000000e+03 3.152973747253417969e+01 3.180327415466308594e+01 5.720828771591186523e-01 1.114528846740722656e+01 3.515211343765258789e+00 2.947204351425170898e+00
1.773000000000000000e+03 2.647200775146484375e+01 3.199800109863281250e+01 1.507174491882324219e+00 1.576213359832763672e+00 9.250164031982421875e-01 1.309408783912658691e+00
1.774000000000000000e+03 3.115257263183593750e+01 3.242479324340820312e+01 1.086880803108215332e+00 1.128298664093017578e+01 3.710960149765014648e+00 3.976286649703979492e+00
1.775000000000000000e+03 2.608400154113769531e+01 3.121413612365722656e+01 1.250296950340270996e+00 1.813169479370117188e+00 9.190399050712585449e-01 1.322937369346618652e+00
1.776000000000000000e+03 2.852913665771484375e+01 3.352187728881835938e+01 2.765185832977294922e+00 1.859606027603149414e+00 1.387437582015991211e+00 2.339025974273681641e+00
1.777000000000000000e+03 6.636584758758544922e+00 6.173455715179443359e+00 1.146460068412125111e-03 4.145139246247708797e-04 4.682922153733670712e-04 -9.836189565248787403e-05
1.778000000000000000e+03 6.707449436187744141e+00 5.318630695343017578e+00 -1.465681474655866623e-03 -1.659777917666360736e-04 -4.894977901130914688e-04 4.074408570886589587e-05
1.779000000000000000e+03 2.954909896850585938e+01 4.032819747924804688e+01 2.217245846986770630e-01 6.114584445953369141e+00 1.900892734527587891e+00 -7.917787432670593262e-01
1.780000000000000000e+03 6.956351280212402344e+00 4.554810047149658203e+00 1.273161964491009712e-03 1.161009349743835628e-04 4.167788720224052668e-04 1.785569183994084597e-04
1.781000000000000000e+03 6.101715564727783203e+00 5.069079399108886719e+00 5.943948053754866123e-04 -5.682879054802469909e-05 1.612697960808873177e-04 4.273089871276170015e-04
1.782000000000000000e+03 9.308679580688476562e+00 -4.925735950469970703e+00 -7.105969125404953957e-04 -4.524828109424561262e-04 -3.489239315968006849e-04 3.353605570737272501e-04
1.783000000000000000e+03 8.607272148132324219e+00 -4.914597511291503906e+00 7.790845120325684547e-04 6.441688165068626404e-04 4.269759810995310545e-04 3.272280446253716946e-05
1.784000000000000000e+03 7.590775966644287109e+00 4.580966472625732422e+00 -1.108806813135743141e-03 -1.070610233000479639e-04 -3.647603443823754787e-04 8.751867426326498389e-05
1.785000000000000000e+03 8.738148689270019531e+00 5.695536613464355469e+00 -1.852567889727652073e-03 4.761467280331999063e-04 -4.129263397771865129e-04 -1.189642716781236231e-04
1.786000000000000000e+03 1.015053462982177734e+01 8.427154541015625000e+00 1.491601462475955486e-03 6.876229308545589447e-04 6.537673179991543293e-04 -1.521942031104117632e-04
1.787000000000000000e+03 9.956273078918457031e+00 6.522044181823730469e+00 1.959054032340645790e-03 -1.770513772498816252e-04 5.346008110791444778e-04 1.934137981152161956e-04
1.788000000000000000e+03 6.712389469146728516e+00 -6.599452972412109375e+00 -5.609402433037757874e-04 -2.622678875923156738e-04 -2.469624450895935297e-04 -8.069393807090818882e-04
1.789000000000000000e+03 9.098930358886718750e+00 8.526539802551269531e+00 -1.620382536202669144e-03 -3.371633065398782492e-04 -5.872637266293168068e-04 -4.322326858527958393e-04
1.790000000000000000e+03 7.267395019531250000e+00 -7.348040103912353516e+00 1.234957482665777206e-03 -1.089706620405195281e-05 3.672181046567857265e-04 4.295614780858159065e-04
1.791000000000000000e+03 9.166134834289550781e+00 -5.586713790893554688e+00 3.486474452074617147e-04 9.142796043306589127e-04 3.788781177718192339e-04 -1.110097975470125675e-03
1.792000000000000000e+03 2.550921821594238281e+01 3.085067367553710938e+01 9.995674490928649902e-01 1.644056797027587891e+00 7.930872440338134766e-01 1.154013395309448242e+00
1.793000000000000000e+03 2.551066398620605469e+01 2.794654083251953125e+01 4.425134360790252686e-01 2.871537923812866211e+00 9.942154288291931152e-01 1.565924406051635742e+00
1.794000000000000000e+03 2.694032096862792969e+01 2.872762489318847656e+01 6.692715883255004883e-01 3.813730478286743164e+00 1.344900608062744141e+00 2.123510599136352539e+00
1.795000000000000000e+03 7.962980270385742188e+00 1.282033443450927734e+01 1.564594567753374577e-03 -1.732322125462815166e-04 4.174087080173194408e-04 -1.031127292662858963e-03
1.796000000000000000e+03 1.165515899658203125e+01 -5.507770061492919922e+00 1.486890017986297607e-03 3.047054924536496401e-04 5.374786560423672199e-04 -5.393496248871088028e-04
1.797000000000000000e+03 1.086480522155761719e+01 2.410595703125000000e+01 -3.644709708169102669e-03 -8.966450113803148270e-04 -1.362406415864825249e-03 -6.450493237935006618e-04
1.798000000000000000e+03 4.770590782165527344e+00 6.946820735931396484e+00 5.079694092273712158e-04 6.889732321724295616e-04 3.590827982407063246e-04 -5.334360757842659950e-04
1.799000000000000000e+03 3.231602478027343750e+01 3.040642929077148438e+01 2.171180769801139832e-02 1.061431121826171875e+01 3.190807104110717773e+00 1.907635331153869629e+00
1.800000000000000000e+03 3.428508377075195312e+01 3.217847442626953125e+01 1.617821097373962402e+00 1.210260486602783203e+01 4.116127967834472656e+00 -2.625486552715301514e-01
1.801000000000000000e+03 2.619464874267578125e+01 -1.893490791320800781e+01 -6.124257296323776245e-02 5.962647914886474609e+00 1.770421624183654785e+00 1.523636430501937866e-01
1.802000000000000000e+03 2.784334373474121094e+01 -1.725183105468750000e+01 -4.661515727639198303e-02 6.065783977508544922e+00 1.805750608444213867e+00 1.432542651891708374e-01
1.803000000000000000e+03 4.950390338897705078e+00 -4.717727184295654297e+00 -7.955110631883144379e-04 4.991402965970337391e-04 -8.891123434295877814e-05 5.746004753746092319e-04
1.804000000000000000e+03 7.910323143005371094e+00 7.218849182128906250e+00 -9.973188862204551697e-04 4.767604696098715067e-04 -1.561675017001107335e-04 -1.097892236430197954e-04
1.805000000000000000e+03 2.740946578979492188e+01 1.511230707168579102e+00 -4.815793782472610474e-02 6.039498805999755859e+00 1.797402262687683105e+00 4.009541571140289307e-01
1.806000000000000000e+03 2.744946670532226562e+01 2.917859315872192383e+00 -4.461700469255447388e-02 6.019860267639160156e+00 1.792572975158691406e+00 4.469635486602783203e-01
1.807000000000000000e+03 1.130430603027343750e+01 -1.038450241088867188e+01 2.302034059539437294e-03 3.847063926514238119e-04 8.060221443884074688e-04 -4.894947633147239685e-04
1.808000000000000000e+03 9.215165138244628906e+00 -9.041707038879394531e+00 -1.783630927093327045e-03 -3.916044079232960939e-04 -6.525705684907734394e-04 -1.340796588920056820e-04
1.809000000000000000e+03 9.589567184448242188e+00 1.778403663635253906e+01 -3.146854927763342857e-03 -2.184564982599113137e-05 -9.506101487204432487e-04 6.336662045214325190e-05
1.810000000000000000e+03 8.145950317382812500e+00 1.583714962005615234e+01 2.067613182589411736e-03 1.118534710258245468e-03 9.558443562127649784e-04 5.061490810476243496e-04
1.811000000000000000e+03 8.057114601135253906e+00 2.295098686218261719e+01 2.722917124629020691e-03 1.824599923565983772e-03 1.364255091175436974e-03 3.447124909143894911e-04
1.812000000000000000e+03 9.447742462158203125e+00 2.283427238464355469e+01 -2.471698680892586708e-03 -1.518866163678467274e-03 -1.197169418446719646e-03 -3.221703227609395981e-04
1.813000000000000000e+03 3.223531723022460938e+01 4.176296997070312500e+01 -8.008283376693725586e-01 1.061237049102783203e+01 2.943462610244750977e+00 -3.650510013103485107e-01
1.814000000000000000e+03 6.106504917144775391e+00 1.262505340576171875e+01 1.609611557796597481e-03 -5.293252179399132729e-04 3.240859077777713537e-04 -9.172491263598203659e-04
1.815000000000000000e+03 9.972069740295410156e+00 1.167171192169189453e+01 -1.798339217202737927e-04 6.122227059677243233e-04 1.297166309086605906e-04 -6.812257925048470497e-04
1.816000000000000000e+03 2.726972961425781250e+01 -5.296871662139892578e+00 -7.813224196434020996e-02 6.091604709625244141e+00 1.804041743278503418e+00 3.001714348793029785e-01
1.817000000000000000e+03 2.726606941223144531e+01 -3.944118499755859375e+00 -7.834350317716598511e-02 6.083973407745361328e+00 1.801688909530639648e+00 3.123137950897216797e-01
1.818000000000000000e+03 1.077194213867187500e+01 -1.412678432464599609e+01 -2.507782774046063423e-03 -6.422903970815241337e-04 -9.450219222344458103e-04 2.624596236273646355e-04
1.819000000000000000e+03 6.986764526367187500e+01 -2.540831375122070312e+01 -2.809711918234825134e-02 8.140109062194824219e+00 2.433603525161743164e+00 -6.617190688848495483e-02
1.820000000000000000e+03 7.061626434326171875e+01 -3.054918289184570312e+01 -1.896047592163085938e-02 8.195063591003417969e+00 2.452830791473388672e+00 -3.944963589310646057e-02
1.821000000000000000e+03 2.648029899597167969e+01 2.741171264648437500e+01 3.572908043861389160e-01 3.751539707183837891e+00 1.232649087905883789e+00 1.896733880043029785e+00
1.822000000000000000e+03 6.876414775848388672e+00 3.226672363281250000e+01 -2.229776699095964432e-03 -2.757314592599868774e-03 -1.496127457357943058e-03 4.156783688813447952e-04
1.823000000000000000e+03 8.884506225585937500e+00 2.850196647644042969e+01 8.031508186832070351e-04 2.774059306830167770e-03 1.073163002729415894e-03 -1.762601430527865887e-03
1.824000000000000000e+03 2.655006408691406250e+01 2.679026412963867188e+01 1.310067474842071533e-01 3.994762182235717773e+00 1.237730622291564941e+00 1.861709475517272949e+00
1.825000000000000000e+03 2.538206100463867188e+01 2.510927772521972656e+01 -7.769185584038496017e-03 3.503708839416503906e+00 1.048781871795654297e+00 1.544091820716857910e+00
1.826000000000000000e+03 7.302724456787109375e+01 -2.313139533996582031e+01 -1.437844615429639816e-02 8.282475471496582031e+00 2.480429172515869141e+00 -6.061901897192001343e-02
1.827000000000000000e+03 7.196138000488281250e+01 -2.344661140441894531e+01 -1.903116144239902496e-02 8.229077339172363281e+00 2.463013887405395508e+00 -6.601354479789733887e-02
1.828000000000000000e+03 7.191796875000000000e+01 2.474612426757812500e+01 3.884191438555717468e-02 7.189467906951904297e+00 2.168493032455444336e+00 -4.129658043384552002e-01
1.829000000000000000e+03 7.070171356201171875e+01 1.712452697753906250e+01 -2.380271814763545990e-02 7.492712497711181641e+00 2.240672826766967773e+00 -4.641524851322174072e-01
1.830000000000000000e+03 7.261170196533203125e+01 1.691059684753417969e+01 -1.788666099309921265e-02 7.430044651031494141e+00 2.223647356033325195e+00 -3.857666552066802979e-01
1.831000000000000000e+03 7.117472076416015625e+01 9.516045570373535156e+00 -6.079063937067985535e-02 7.708867549896240234e+00 2.294423103332519531e+00 -3.811325430870056152e-01
1.832000000000000000e+03 7.257480621337890625e+01 9.191463470458984375e+00 -4.271609708666801453e-02 7.705891132354736328e+00 2.298952579498291016e+00 -3.309464156627655029e-01
1.833000000000000000e+03 7.236824035644531250e+01 -1.704475975036621094e+01 -2.507707662880420685e-02 8.200250625610351562e+00 2.452552080154418945e+00 -9.449163824319839478e-02
1.834000000000000000e+03 7.265734863281250000e+01 -1.849778938293457031e+01 -2.066983655095100403e-02 8.227066993713378906e+00 2.461919307708740234e+00 -8.503016084432601929e-02
1.835000000000000000e+03 7.184909820556640625e+01 -6.226729393005371094e+00 -4.395066201686859131e-02 8.047216415405273438e+00 2.400979518890380859e+00 -1.841138154268264771e-01
1.836000000000000000e+03 7.282609558105468750e+01 -9.107944488525390625e+00 -3.169105201959609985e-02 8.124325752258300781e+00 2.427790403366088867e+00 -1.430809497833251953e-01
1.837000000000000000e+03 7.066734313964843750e+01 3.510038375854492188e+00 -6.899632513523101807e-02 7.852197170257568359e+00 2.334960222244262695e+00 -3.149046897888183594e-01
1.838000000000000000e+03 7.264983367919921875e+01 -1.050074672698974609e+01 -2.907872572541236877e-02 8.138031005859375000e+00 2.432685852050781250e+00 -1.349206119775772095e-01
1.839000000000000000e+03 7.316137695312500000e+01 -2.758630275726318359e+00 -3.403926640748977661e-02 8.022747039794921875e+00 2.396612405776977539e+00 -1.920992285013198853e-01
1.840000000000000000e+03 7.321739959716796875e+01 -3.986613035202026367e+00 -3.541379421949386597e-02 8.047601699829101562e+00 2.403656482696533203e+00 -1.812542825937271118e-01
1.841000000000000000e+03 7.428018951416015625e+01 -1.353161931037902832e+00 -2.585291862487792969e-02 8.019227027893066406e+00 2.398012399673461914e+00 -1.800400018692016602e-01
1.842000000000000000e+03 7.304852294921875000e+01 -1.494881749153137207e+00 -3.893748298287391663e-02 7.993935108184814453e+00 2.386499166488647461e+00 -2.070636749267578125e-01
1.843000000000000000e+03 7.356694793701171875e+01 5.817296981811523438e+00 -3.717629238963127136e-02 7.805714607238769531e+00 2.330561637878417969e+00 -2.703078687191009521e-01
1.844000000000000000e+03 8.170007705688476562e+00 3.595439910888671875e+01 -4.298328887671232224e-03 -1.602862030267715454e-03 -1.770357252098619938e-03 -5.694298073649406433e-03
1.845000000000000000e+03 7.406784820556640625e+01 1.312833404541015625e+01 -2.103021554648876190e-02 7.539158821105957031e+00 2.255438566207885742e+00 -3.156407773494720459e-01
1.846000000000000000e+03 7.135750579833984375e+01 2.694963455200195312e+01 7.406171411275863647e-02 7.152873039245605469e+00 2.168080568313598633e+00 -4.149144589900970459e-01
1.847000000000000000e+03 7.204567718505859375e+01 2.843002128601074219e+01 9.119352698326110840e-02 7.051686763763427734e+00 2.142864227294921875e+00 -3.674590289592742920e-01
1.848000000000000000e+03 7.301934814453125000e+01 -2.644193267822265625e+01 -1.117574144154787064e-02 8.297151565551757812e+00 2.485792875289916992e+00 -4.688172042369842529e-02
1.849000000000000000e+03 1.132030677795410156e+01 9.055381774902343750e+00 1.657451386563479900e-03 4.323707544244825840e-04 6.269466248340904713e-04 7.875604205764830112e-04
1.850000000000000000e+03 2.707159423828125000e+01 1.862884712219238281e+01 -3.519393205642700195e-01 5.265821933746337891e+00 1.474164724349975586e+00 1.293760895729064941e+00
1.851000000000000000e+03 8.722843170166015625e+00 -1.862613677978515625e+01 3.010798711329698563e-03 -6.625560490647330880e-05 8.833629544824361801e-04 -5.809805006720125675e-04
1.852000000000000000e+03 1.039189720153808594e+01 -1.664163017272949219e+01 -2.317631617188453674e-03 -1.105159404687583447e-03 -1.026837271638214588e-03 1.743049942888319492e-04
1.853000000000000000e+03 3.064626121520996094e+01 1.885103034973144531e+01 -6.347575187683105469e-01 6.606030464172363281e+00 1.791381955146789551e+00 1.319503307342529297e+00
1.854000000000000000e+03 9.490117073059082031e+00 -2.003585624694824219e+01 2.775835106149315834e-03 -1.893712556920945644e-03 2.646367938723415136e-04 -1.993332291021943092e-03
1.855000000000000000e+03 2.751206207275390625e+01 8.694203376770019531e+00 -1.285744160413742065e-01 5.877626895904541016e+00 1.724715709686279297e+00 7.012866139411926270e-01
1.856000000000000000e+03 2.746302795410156250e+01 1.158352565765380859e+01 -2.130998671054840088e-01 5.763667583465576172e+00 1.665170311927795410e+00 8.409588932991027832e-01
1.857000000000000000e+03 2.620565795898437500e+01 1.010230922698974609e+01 -1.114160791039466858e-01 5.629319190979003906e+00 1.655370950698852539e+00 7.053937315940856934e-01
1.858000000000000000e+03 2.614798545837402344e+01 1.296286582946777344e+01 -1.810120493173599243e-01 5.420546531677246094e+00 1.571860313415527344e+00 8.351418375968933105e-01
1.859000000000000000e+03 3.016596794128417969e+01 1.025623416900634766e+01 -3.098598122596740723e-01 6.272305965423583984e+00 1.788733839988708496e+00 8.151949048042297363e-01
1.860000000000000000e+03 1.075193977355957031e+01 2.149630546569824219e+01 -3.172538476064801216e-03 -9.320029639638960361e-04 -1.231362344697117805e-03 -4.467941107577644289e-05
1.861000000000000000e+03 6.315384387969970703e+00 -8.126840591430664062e+00 -9.046841296367347240e-04 -4.720412252936512232e-04 -4.130176093894988298e-04 -5.437205545604228973e-04
1.862000000000000000e+03 5.212901592254638672e+00 -8.694576263427734375e+00 2.078666817396879196e-03 3.912150859832763672e-04 7.409645477309823036e-04 5.138011765666306019e-04
1.863000000000000000e+03 2.603758811950683594e+01 1.578738117218017578e+01 -2.326125949621200562e-01 5.150063991546630859e+00 1.475235462188720703e+00 9.959994554519653320e-01
1.864000000000000000e+03 2.734675025939941406e+01 1.443407821655273438e+01 -2.879939377307891846e-01 5.603729724884033203e+00 1.594720721244812012e+00 1.001174926757812500e+00
1.865000000000000000e+03 3.604433822631835938e+01 3.282375335693359375e+01 2.364455223083496094e+00 1.091144180297851562e+01 3.982769012451171875e+00 -4.132173657417297363e-01
1.866000000000000000e+03 6.616498470306396484e+00 -1.721469879150390625e+01 -3.147083800286054611e-03 -9.313307236880064011e-04 -1.223524333909153938e-03 -1.169226830825209618e-03
1.867000000000000000e+03 7.639484405517578125e+00 -1.840978813171386719e+01 -2.521063899621367455e-03 -1.121004112064838409e-03 -1.092620426788926125e-03 -3.683334216475486755e-04
1.868000000000000000e+03 6.191041469573974609e+00 1.811647796630859375e+01 6.140329060144722462e-04 -1.245830844709416851e-05 1.804723724490031600e-04 -1.150088850408792496e-03
1.869000000000000000e+03 1.079396438598632812e+01 -2.228875350952148438e+01 3.296720562502741814e-03 -7.187633891589939594e-04 7.733871461823582649e-04 2.607041504234075546e-03
1.870000000000000000e+03 1.164631748199462891e+01 -2.301275634765625000e+01 -4.396900534629821777e-03 -1.016325550153851509e-03 -1.623967895284295082e-03 -2.555423649027943611e-03
1.871000000000000000e+03 6.705967903137207031e+00 1.994567489624023438e+01 -2.090762834995985031e-03 -3.739084058906883001e-05 -6.384461303241550922e-04 -4.354072734713554382e-04
1.872000000000000000e+03 5.475196361541748047e+00 1.152542114257812500e+01 -1.967120915651321411e-03 9.715803025756031275e-05 -5.609888467006385326e-04 4.322352469898760319e-04
1.873000000000000000e+03 5.716320514678955078e+00 1.572895812988281250e+01 1.233813469298183918e-03 1.268822234123945236e-03 7.507906993851065636e-04 8.864671690389513969e-05
1.874000000000000000e+03 7.197158813476562500e+00 1.864249992370605469e+01 1.100022112950682640e-03 5.388434510678052902e-04 4.916596808470785618e-04 8.392098243348300457e-04
1.875000000000000000e+03 5.641506671905517578e+00 -1.975814056396484375e+01 4.470735788345336914e-03 6.684268591925501823e-04 1.541748759336769581e-03 3.120394190773367882e-03
1.876000000000000000e+03 8.423373222351074219e+00 -1.968797492980957031e+01 -2.586842514574527740e-03 3.863949095830321312e-04 -6.601342465728521347e-04 1.976598054170608521e-03
1.877000000000000000e+03 1.108569431304931641e+01 -2.380577087402343750e+01 -6.835482199676334858e-04 -1.843892037868499756e-03 -7.582320831716060638e-04 -1.751853269524872303e-04
1.878000000000000000e+03 7.098683834075927734e+00 1.461917018890380859e+01 2.066519111394882202e-03 5.073519423604011536e-04 7.721612928435206413e-04 -1.050303908414207399e-04
1.879000000000000000e+03 6.782753944396972656e+00 -1.462531852722167969e+01 -2.792528597638010979e-03 -6.045689806342124939e-04 -1.019129296764731407e-03 -5.679695168510079384e-04
1.880000000000000000e+03 1.067968273162841797e+01 -2.716114616394042969e+01 3.035167930647730827e-03 1.800716272555291653e-04 9.645718964748084545e-04 1.387481461279094219e-03
1.881000000000000000e+03 8.155946731567382812e+00 8.237440109252929688e+00 6.641459767706692219e-04 2.652032126206904650e-04 2.788047713693231344e-04 5.082720308564603329e-04
1.882000000000000000e+03 5.726777553558349609e+00 6.494917392730712891e+00 -3.897888236679136753e-04 -7.083371165208518505e-04 -3.294377820566296577e-04 4.839067987632006407e-04
1.883000000000000000e+03 6.904444694519042969e+00 7.012904167175292969e+00 -8.027862058952450752e-04 -2.334966557100415230e-04 -3.108848468400537968e-04 9.455726103624328971e-05
1.884000000000000000e+03 2.680289459228515625e+01 2.132063102722167969e+01 -3.262789249420166016e-01 4.940435886383056641e+00 1.384247064590454102e+00 1.498355984687805176e+00
1.885000000000000000e+03 5.582690238952636719e+00 -1.316120147705078125e+01 -2.434148686006665230e-03 -6.380256963893771172e-04 -9.216523030772805214e-04 -6.653107120655477047e-04
1.886000000000000000e+03 6.889215946197509766e+00 -1.315885734558105469e+01 2.727212617173790932e-03 5.109712947160005569e-04 9.714551852084696293e-04 5.947183817625045776e-04
1.887000000000000000e+03 2.543300819396972656e+01 2.386864852905273438e+01 -1.085543856024742126e-01 3.814542531967163086e+00 1.111796498298645020e+00 1.504036545753479004e+00
1.888000000000000000e+03 8.685499191284179688e+00 9.592133522033691406e+00 1.244925078935921192e-03 -2.843507390934973955e-04 2.881723048631101847e-04 6.230256403796374798e-04
1.889000000000000000e+03 5.833024501800537109e+00 -7.067139625549316406e+00 1.315666479058563709e-03 3.655794716905802488e-04 5.043738055974245071e-04 9.159407345578074455e-04
1.890000000000000000e+03 2.665039634704589844e+01 2.258741569519042969e+01 -2.734799385070800781e-01 4.733284473419189453e+00 1.337941408157348633e+00 1.592660665512084961e+00
1.891000000000000000e+03 2.811566162109375000e+01 -1.859858322143554688e+01 -6.681311875581741333e-02 6.068453311920166016e+00 1.800492048263549805e+00 1.337931007146835327e-01
1.892000000000000000e+03 2.738418006896972656e+01 -9.441306114196777344e+00 -2.775167487561702728e-02 6.074159145355224609e+00 1.813922166824340820e+00 2.615593671798706055e-01
1.893000000000000000e+03 2.589159011840820312e+01 -9.533610343933105469e+00 -1.322812587022781372e-02 5.997231960296630859e+00 1.795201063156127930e+00 2.659291625022888184e-01
1.894000000000000000e+03 2.751441955566406250e+01 7.244987487792968750e+00 -8.953111618757247925e-02 5.921875953674316406e+00 1.749703526496887207e+00 6.312074065208435059e-01
1.895000000000000000e+03 2.581389808654785156e+01 -1.495232105255126953e+01 1.121299224905669689e-03 5.950619220733642578e+00 1.785522103309631348e+00 1.681608855724334717e-01
1.896000000000000000e+03 2.736502075195312500e+01 1.291759759187698364e-01 -6.375205516815185547e-02 6.063983440399169922e+00 1.800069451332092285e+00 3.673614561557769775e-01
1.897000000000000000e+03 2.748148536682128906e+01 4.348388671875000000e+00 -4.403324052691459656e-02 5.988660335540771484e+00 1.783388137817382812e+00 5.002211928367614746e-01
1.898000000000000000e+03 1.082558822631835938e+01 -3.337028503417968750e+01 -2.947335690259933472e-02 5.590865388512611389e-03 -7.164747454226016998e-03 6.754912901669740677e-03
1.899000000000000000e+03 1.104860305786132812e+01 2.796815490722656250e+01 6.619326304644346237e-03 9.744793061372547527e-08 1.985826995223760605e-03 1.751285861246287823e-03
1.900000000000000000e+03 2.625561523437500000e+01 -2.022293853759765625e+01 -8.510095626115798950e-02 5.962044715881347656e+00 1.763083100318908691e+00 1.436834186315536499e-01
1.901000000000000000e+03 2.525543022155761719e+01 -2.401354789733886719e+01 -4.554967954754829407e-02 5.868267536163330078e+00 1.746815323829650879e+00 1.792585253715515137e-01
1.902000000000000000e+03 6.760618591308593750e+01 2.793762397766113281e+01 1.592793017625808716e-01 7.354530334472656250e+00 2.254142999649047852e+00 -5.014228820800781250e-01
1.903000000000000000e+03 2.452917480468750000e+01 -2.837848472595214844e+01 1.458320952951908112e-02 5.804887771606445312e+00 1.745841264724731445e+00 1.791885644197463989e-01
1.904000000000000000e+03 2.631415557861328125e+01 -2.720215988159179688e+01 -1.118526142090559006e-02 5.891595363616943359e+00 1.764123082160949707e+00 1.607656031847000122e-01
1.905000000000000000e+03 1.181195068359375000e+01 3.604149627685546875e+01 -4.757313989102840424e-03 -8.458382217213511467e-04 -1.680945744737982750e-03 -4.705691710114479065e-03
1.906000000000000000e+03 1.155962467193603516e+01 -6.729401111602783203e+00 -1.879102666862308979e-03 -3.939998568966984749e-04 -6.819307454861700535e-04 5.099446862004697323e-04
1.907000000000000000e+03 9.516454696655273438e+00 -6.377044677734375000e+00 1.889873296022415161e-03 3.915362758561968803e-04 6.844228482805192471e-04 -1.490803784690797329e-03
1.908000000000000000e+03 9.682910919189453125e+00 2.669889640808105469e+01 6.250620819628238678e-03 -4.803188785444945097e-04 1.731090596877038479e-03 5.823181709274649620e-04
1.909000000000000000e+03 2.581546974182128906e+01 -2.268319320678710938e+01 -7.656722515821456909e-02 5.916357040405273438e+00 1.751936912536621094e+00 1.625867187976837158e-01
1.910000000000000000e+03 7.314385986328125000e+01 -2.197448348999023438e+01 -1.567416265606880188e-02 8.277726173400878906e+00 2.478615522384643555e+00 -6.360105425119400024e-02
1.911000000000000000e+03 7.205612182617187500e+01 -1.539227008819580078e+01 -2.988644875586032867e-02 8.168520927429199219e+00 2.441590309143066406e+00 -1.088527888059616089e-01
1.912000000000000000e+03 2.596354675292968750e+01 -1.267621517181396484e+00 -5.630313977599143982e-02 5.987809658050537109e+00 1.779451847076416016e+00 3.280997276306152344e-01
1.913000000000000000e+03 1.134960269927978516e+01 -3.775166702270507812e+01 -1.195103675127029419e-01 6.786141544580459595e-02 -1.549468468874692917e-02 -4.147585853934288025e-02
1.914000000000000000e+03 7.130233764648437500e+01 6.905241966247558594e+00 -6.017169356346130371e-02 7.774395465850830078e+00 2.314267158508300781e+00 -3.423151075839996338e-01
1.915000000000000000e+03 7.286981201171875000e+01 2.004436683654785156e+01 -1.277809846214950085e-03 7.303201675415039062e+00 2.190577268600463867e+00 -3.903450667858123779e-01
1.916000000000000000e+03 7.165400695800781250e+01 1.668464088439941406e+01 -2.348432689905166626e-02 7.475021362304687500e+00 2.235461235046386719e+00 -4.315487444400787354e-01
1.917000000000000000e+03 1.016651058197021484e+01 3.591711425781250000e+01 7.096787914633750916e-03 -1.029093004763126373e-02 -9.582427446730434895e-04 2.793970270431600511e-05
1.918000000000000000e+03 8.114991188049316406e+00 3.850321578979492188e+01 8.522900170646607876e-04 -7.249805610626935959e-03 -1.919254660606384277e-03 -5.414733896031975746e-04
1.919000000000000000e+03 7.284998321533203125e+01 1.465141868591308594e+01 -2.345090731978416443e-02 7.508330821990966797e+00 2.245463848114013672e+00 -3.762259483337402344e-01
1.920000000000000000e+03 1.004469203948974609e+01 -1.144001579284667969e+01 2.057550940662622452e-03 3.998579340986907482e-04 7.372226682491600513e-04 -6.461787852458655834e-04
1.921000000000000000e+03 9.525753974914550781e+00 -1.381456756591796875e+01 2.429812448099255562e-03 4.779031442012637854e-04 8.723146747797727585e-04 -8.904039714252576232e-05
1.922000000000000000e+03 7.603592872619628906e+00 -3.082091712951660156e+01 -1.977752335369586945e-02 4.473296576179563999e-05 -5.919837392866611481e-03 -6.055365316569805145e-03
1.923000000000000000e+03 2.610895729064941406e+01 -3.000107574462890625e+01 6.592577695846557617e-02 5.816020011901855469e+00 1.764583706855773926e+00 1.353189945220947266e-01
1.924000000000000000e+03 1.265201091766357422e+01 -3.269346618652343750e+01 -2.417693380266427994e-03 -1.437747292220592499e-02 -5.038550123572349548e-03 1.145777571946382523e-02
1.925000000000000000e+03 7.960107803344726562e+00 -3.704985046386718750e+01 -1.290014851838350296e-02 3.458820283412933350e-02 6.506416015326976776e-03 -3.608641400933265686e-02
1.926000000000000000e+03 2.870854377746582031e+01 3.291893005371093750e+01 2.654936075210571289e+00 3.016897201538085938e+00 1.701550006866455078e+00 2.985508203506469727e+00
1.927000000000000000e+03 2.922704505920410156e+01 3.299529647827148438e+01 2.917679309844970703e+00 4.221274375915527344e+00 2.141686201095581055e+00 3.799482583999633789e+00
1.928000000000000000e+03 2.987990570068359375e+01 3.179931449890136719e+01 1.616728901863098145e+00 6.923699378967285156e+00 2.562128543853759766e+00 3.928785800933837891e+00
1.929000000000000000e+03 3.162202644348144531e+01 3.239115524291992188e+01 7.969732284545898438e-01 1.244191265106201172e+01 3.971665859222412109e+00 3.055308818817138672e+00
1.930000000000000000e+03 3.025983047485351562e+01 3.274301147460937500e+01 2.161198139190673828e+00 7.923979759216308594e+00 3.025553464889526367e+00 4.674003601074218750e+00
1.931000000000000000e+03 2.733184242248535156e+01 3.176777839660644531e+01 1.749678134918212891e+00 2.364714860916137695e+00 1.234317898750305176e+00 1.955917716026306152e+00
1.932000000000000000e+03 2.669139289855957031e+01 3.148103713989257812e+01 1.480247616767883301e+00 2.044044971466064453e+00 1.057287812232971191e+00 1.612078905105590820e+00
1.933000000000000000e+03 8.269598007202148438e+00 6.413716316223144531e+00 -1.963802846148610115e-03 3.586426901165395975e-04 -4.815480788238346577e-04 -7.884672377258539200e-04
1.934000000000000000e+03 9.197221755981445312e+00 5.386228561401367188e+00 4.273899248801171780e-04 -2.512040955480188131e-04 5.285574661684222519e-05 -4.129332373850047588e-04
1.935000000000000000e+03 2.485259056091308594e+01 2.917127227783203125e+01 5.647453665733337402e-01 1.880895853042602539e+00 7.336923480033874512e-01 1.174548387527465820e+00
1.936000000000000000e+03 2.585743331909179688e+01 3.041537094116210938e+01 1.068806648254394531e+00 2.047947406768798828e+00 9.350262284278869629e-01 1.408665418624877930e+00
1.937000000000000000e+03 8.134412765502929688e+00 5.842695236206054688e+00 1.553006004542112350e-03 -5.620874071610160172e-05 4.490391875151544809e-04 3.846770850941538811e-04
1.938000000000000000e+03 7.438323497772216797e+00 5.998199462890625000e+00 -1.222521881572902203e-03 -3.017300914507359266e-04 -4.572756006382405758e-04 -2.599095168989151716e-04
1.939000000000000000e+03 1.085750961303710938e+01 6.261771678924560547e+00 -2.151611959561705589e-03 2.394897892372682691e-04 -5.736366729252040386e-04 -6.151875713840126991e-04
1.940000000000000000e+03 1.009205245971679688e+01 7.423702716827392578e+00 -1.906743505969643593e-03 -1.012723005260340869e-04 -6.024047615937888622e-04 -2.040376130025833845e-04
1.941000000000000000e+03 7.892884731292724609e+00 -5.857108116149902344e+00 1.311624306254088879e-03 5.267913802526891232e-04 5.515246884897351265e-04 3.042582829948514700e-04
1.942000000000000000e+03 6.409070491790771484e+00 -5.864690780639648438e+00 5.802433588542044163e-04 8.247282821685075760e-04 4.214914806652814150e-04 7.343491306528449059e-04
1.943000000000000000e+03 8.090204238891601562e+00 -9.057313919067382812e+00 1.948274439200758934e-03 4.629623144865036011e-04 7.233710493892431259e-04 9.714610059745609760e-04
1.944000000000000000e+03 1.122646522521972656e+01 8.112403869628906250e+00 -1.407479168847203255e-03 -6.258927169255912304e-04 -6.100115715526044369e-04 -4.129782610107213259e-04
1.945000000000000000e+03 1.048835849761962891e+01 -8.009241104125976562e+00 -2.103069797158241272e-03 -1.433726865798234940e-04 -6.739327800460159779e-04 1.654146471992135048e-04
1.946000000000000000e+03 8.598582267761230469e+00 -5.623045444488525391e+00 -6.642310763709247112e-04 -9.704687981866300106e-04 -4.904099623672664165e-04 -1.482148509239777923e-04
1.947000000000000000e+03 2.964244651794433594e+01 3.242305755615234375e+01 2.285373926162719727e+00 5.907835960388183594e+00 2.457962989807128906e+00 4.109438419342041016e+00
1.948000000000000000e+03 2.787685966491699219e+01 3.268404388427734375e+01 2.279331207275390625e+00 2.074695825576782227e+00 1.306208014488220215e+00 2.160815477371215820e+00
1.949000000000000000e+03 9.061103820800781250e+00 1.119218254089355469e+01 2.006536349654197693e-03 -5.403438117355108261e-04 4.398577439133077860e-04 4.791985847987234592e-04
1.950000000000000000e+03 6.874748229980468750e+00 1.356239414215087891e+01 -2.348766895011067390e-03 7.060691132210195065e-04 -4.928092821501195431e-04 8.400751976296305656e-04
1.951000000000000000e+03 9.137479782104492188e+00 1.458948802947998047e+01 1.751357456669211388e-03 8.954957011155784130e-04 7.940559298731386662e-04 -4.992152680642902851e-04
1.952000000000000000e+03 8.383694648742675781e+00 1.687858963012695312e+01 -3.230582457035779953e-03 -3.830265995929948986e-05 -9.806655580177903175e-04 -3.421728324610739946e-04
1.953000000000000000e+03 8.033852577209472656e+00 -1.479182720184326172e+01 2.496025990694761276e-03 6.133913411758840084e-04 9.328252053819596767e-04 1.190610346384346485e-04
1.954000000000000000e+03 9.002231597900390625e+00 -1.127148914337158203e+01 -1.059492700733244419e-03 -1.095132902264595032e-03 -6.463876925408840179e-04 5.171961965970695019e-04
1.955000000000000000e+03 1.042674160003662109e+01 9.351826667785644531e+00 -5.623824545182287693e-04 -6.644435343332588673e-04 -3.680477966554462910e-04 4.260565328877419233e-04
1.956000000000000000e+03 3.309214401245117188e+01 3.181073760986328125e+01 6.886941790580749512e-01 1.235340499877929688e+01 3.912629604339599609e+00 9.651860594749450684e-01
1.957000000000000000e+03 2.541887283325195312e+01 2.987886047363281250e+01 9.064076542854309082e-01 1.948659539222717285e+00 8.565201759338378906e-01 1.284730315208435059e+00
1.958000000000000000e+03 3.024148178100585938e+01 5.849165916442871094e+00 -1.881290078163146973e-01 6.271548748016357422e+00 1.825025916099548340e+00 6.018874049186706543e-01
1.959000000000000000e+03 7.273616790771484375e+01 1.052513885498046875e+01 -4.261666163802146912e-02 7.663573265075683594e+00 2.286287069320678711e+00 -3.423391282558441162e-01
1.960000000000000000e+03 7.297789764404296875e+01 1.583254337310791016e+01 -1.884664222598075867e-02 7.446375370025634766e+00 2.228258609771728516e+00 -3.731997013092041016e-01
1.961000000000000000e+03 6.126499176025390625e+00 7.517186164855957031e+00 3.317147202324122190e-04 4.705284663941711187e-04 2.406729472568258643e-04 -3.074459091294556856e-04
1.962000000000000000e+03 6.781327247619628906e+00 8.388350486755371094e+00 1.287773920921608806e-04 -1.852085551945492625e-04 -1.692934893071651459e-05 5.285952356643974781e-04
1.963000000000000000e+03 3.500458526611328125e+01 3.066617393493652344e+01 6.628504991531372070e-01 1.114893341064453125e+01 3.543535232543945312e+00 -1.274439878761768341e-02
1.964000000000000000e+03 7.184342193603515625e+01 5.530153274536132812e+00 -5.395815521478652954e-02 7.808749675750732422e+00 2.326437473297119141e+00 -3.151066601276397705e-01
1.965000000000000000e+03 1.152638435363769531e+01 -7.964330673217773438e+00 2.120979130268096924e-03 3.020178119186311960e-04 7.268990739248692989e-04 -4.412643902469426394e-04
1.966000000000000000e+03 1.020587062835693359e+01 -1.027017307281494141e+01 -1.756937941536307335e-03 -6.470030639320611954e-04 -7.211823249235749245e-04 3.698003711178898811e-04
1.967000000000000000e+03 6.726505279541015625e+00 1.710351371765136719e+01 2.606763337098527700e-05 1.633785548619925976e-03 4.979559453204274178e-04 7.716999389231204987e-04
1.968000000000000000e+03 9.533383369445800781e+00 1.897255897521972656e+01 3.084350610151886940e-03 2.800643851514905691e-04 1.009324449114501476e-03 -3.626947873272001743e-04
1.969000000000000000e+03 7.295697784423828125e+01 -7.752517223358154297e+00 -3.167830407619476318e-02 8.107617378234863281e+00 2.422781705856323242e+00 -1.517040878534317017e-01
1.970000000000000000e+03 7.158142089843750000e+01 -8.807548522949218750e+00 -4.005620628595352173e-02 8.077938079833984375e+00 2.411364555358886719e+00 -1.624041050672531128e-01
1.971000000000000000e+03 7.250225067138671875e+01 2.537626743316650391e+00 -4.654360562562942505e-02 7.891136646270751953e+00 2.353377819061279297e+00 -2.622937560081481934e-01
1.972000000000000000e+03 7.138312530517578125e+01 7.859396338462829590e-01 -5.816410854458808899e-02 7.915142536163330078e+00 2.357093572616577148e+00 -2.668593823909759521e-01
1.973000000000000000e+03 7.125757598876953125e+01 -4.434469699859619141e+00 -5.173853784799575806e-02 8.003981590270996094e+00 2.385673046112060547e+00 -2.103630006313323975e-01
1.974000000000000000e+03 7.319827270507812500e+01 -2.091796112060546875e+01 -1.452318578958511353e-02 8.273092269897460938e+00 2.477570772171020508e+00 -6.763909757137298584e-02
1.975000000000000000e+03 2.733729553222656250e+01 -8.034025192260742188e+00 -5.317768827080726624e-02 6.087221145629882812e+00 1.810212969779968262e+00 2.755546867847442627e-01
1.976000000000000000e+03 9.457499504089355469e+00 -7.990472793579101562e+00 1.907964469864964485e-03 -2.077615354210138321e-04 5.100608686916530132e-04 -4.275582614354789257e-04
1.977000000000000000e+03 8.465121269226074219e+00 2.651917076110839844e+01 -1.061493763700127602e-03 4.434141446836292744e-04 -1.854238944360986352e-04 -1.703232992440462112e-03
1.978000000000000000e+03 6.850740814208984375e+01 4.017642974853515625e+00 -1.004628017544746399e-01 7.833615303039550781e+00 2.319945812225341797e+00 -3.616514801979064941e-01
1.979000000000000000e+03 9.335839271545410156e+00 1.559259033203125000e+01 -2.235826803371310234e-03 -9.061363525688648224e-04 -9.425889584235846996e-04 -1.668816112214699388e-04
1.980000000000000000e+03 7.204549407958984375e+01 -5.060966014862060547e+00 -4.552920907735824585e-02 8.034866333007812500e+00 2.396800994873046875e+00 -1.913718581199645996e-01
1.981000000000000000e+03 3.189981842041015625e+01 -1.681047630310058594e+01 -7.367437332868576050e-02 6.276463508605957031e+00 1.860836744308471680e+00 1.248410865664482117e-01
1.982000000000000000e+03 6.846493244171142578e+00 -1.162502574920654297e+01 -2.254398772493004799e-03 -8.088264730758965015e-04 -9.189675911329686642e-04 -3.859234566334635019e-04
1.983000000000000000e+03 7.323223114013671875e+01 2.226164627075195312e+01 8.514559827744960785e-03 7.194666385650634766e+00 2.160954236984252930e+00 -3.748865127563476562e-01
1.984000000000000000e+03 7.202487945556640625e+01 -2.544881629943847656e+01 -1.805649697780609131e-02 8.247854232788085938e+00 2.468939304351806641e+00 -5.518035590648651123e-02
1.985000000000000000e+03 9.873859405517578125e+00 -1.897762870788574219e+01 -2.471370389685034752e-03 1.066563800122821704e-05 -7.382114417850971222e-04 6.618978804908692837e-04
1.986000000000000000e+03 8.979782104492187500e+00 -2.193970489501953125e+01 6.215972825884819031e-03 -5.875563365407288074e-04 1.688524964265525341e-03 -3.100938396528363228e-03
1.987000000000000000e+03 7.043897247314453125e+01 -1.589680862426757812e+01 -3.909600898623466492e-02 8.106825828552246094e+00 2.420319080352783203e+00 -1.184511631727218628e-01
1.988000000000000000e+03 7.267632293701171875e+01 1.333526992797851562e+01 -3.235155344009399414e-02 7.559751510620117188e+00 2.258219957351684570e+00 -3.727355897426605225e-01
1.989000000000000000e+03 7.149386596679687500e+01 1.076262664794921875e+01 -5.169767513871192932e-02 7.668723106384277344e+00 2.285107612609863281e+00 -3.857726156711578369e-01
1.990000000000000000e+03 2.749609756469726562e+01 1.014156818389892578e+01 -1.704070717096328735e-01 5.828468799591064453e+00 1.697418570518493652e+00 7.691645622253417969e-01
1.991000000000000000e+03 2.726894760131835938e+01 1.584223747253417969e+01 -3.172284364700317383e-01 5.506722927093505859e+00 1.556848406791687012e+00 1.092233896255493164e+00
1.992000000000000000e+03 7.182071685791015625e+01 -1.757495999336242676e+00 -5.059231445193290710e-02 7.973177909851074219e+00 2.376775741577148438e+00 -2.292255312204360962e-01
1.993000000000000000e+03 7.256854248046875000e+01 1.837301254272460938e+01 -1.271553244441747665e-02 7.382463455200195312e+00 2.210924386978149414e+00 -4.017378091812133789e-01
1.994000000000000000e+03 7.197639465332031250e+01 1.765143585205078125e+01 -1.337770931422710419e-02 7.414144039154052734e+00 2.220229864120483398e+00 -4.232642054557800293e-01
1.995000000000000000e+03 3.007502937316894531e+01 1.172296142578125000e+01 -3.599516153335571289e-01 6.266434669494628906e+00 1.771944999694824219e+00 8.926401138305664062e-01
1.996000000000000000e+03 7.102292060852050781e+00 2.466493797302246094e+01 2.734408713877201080e-03 2.571814460679888725e-03 1.591866952367126942e-03 -7.296066614799201488e-04
1.997000000000000000e+03 2.944962120056152344e+01 1.875238418579101562e+01 -5.466197133064270020e-01 6.170560836791992188e+00 1.687182307243347168e+00 1.358129858970642090e+00
1.998000000000000000e+03 2.849957847595214844e+01 1.590517616271972656e+01 -4.064652621746063232e-01 5.866324901580810547e+00 1.637957811355590820e+00 1.144248723983764648e+00
1.999000000000000000e+03 7.207660675048828125e+01 -1.363032341003417969e+01 -3.122933581471443176e-02 8.152005195617675781e+00 2.436232805252075195e+00 -1.195100322365760803e-01
2.000000000000000000e+03 7.162253379821777344e+00 -2.509256172180175781e+01 2.712352434173226357e-03 -5.676004802808165550e-04 6.434256210923194885e-04 6.134901777841150761e-04
2.001000000000000000e+03 8.124499320983886719e+00 -2.776245498657226562e+01 -7.455746643245220184e-03 -1.504683634266257286e-03 -2.688128966838121414e-03 -8.833695319481194019e-04
2.002000000000000000e+03 7.160986328125000000e+01 1.191066360473632812e+01 -4.733103886246681213e-02 7.630028724670410156e+00 2.274809122085571289e+00 -3.911465406417846680e-01
2.003000000000000000e+03 7.053112030029296875e+00 -2.029192733764648438e+01 2.018954604864120483e-03 6.003609742037951946e-04 7.857946911826729774e-04 2.328437985852360725e-03
2.004000000000000000e+03 7.895463943481445312e+00 -1.609371185302734375e+01 -2.498645335435867310e-03 -9.604849037714302540e-04 -1.037739100866019726e-03 -4.157372750341892242e-04
2.005000000000000000e+03 2.694647407531738281e+01 1.999493980407714844e+01 -3.491087853908538818e-01 5.114378452301025391e+00 1.429580926895141602e+00 1.395354390144348145e+00
2.006000000000000000e+03 7.100415802001953125e+01 -1.153429698944091797e+01 -4.060269892215728760e-02 8.091887474060058594e+00 2.415385484695434570e+00 -1.467762440443038940e-01
2.007000000000000000e+03 3.011429214477539062e+01 -2.470571517944335938e+00 -1.211801543831825256e-01 6.278031826019287109e+00 1.847055554389953613e+00 3.337216377258300781e-01
2.008000000000000000e+03 9.924604415893554688e+00 -2.153288650512695312e+01 -2.512268256396055222e-03 -1.626377110369503498e-03 -1.241593621671199799e-03 -2.623178064823150635e-03
2.009000000000000000e+03 2.758911514282226562e+01 2.376246452331542969e+01 -2.892633080482482910e-01 5.198410034179687500e+00 1.472743988037109375e+00 1.789031386375427246e+00
2.010000000000000000e+03 9.785513877868652344e+00 -2.455047607421875000e+01 -2.730424515902996063e-03 -2.187685575336217880e-03 -1.475433004088699818e-03 7.516134646721184254e-04
2.011000000000000000e+03 2.859816360473632812e+01 1.449976062774658203e+01 -3.705043196678161621e-01 5.922407150268554688e+00 1.665570855140686035e+00 1.050837755203247070e+00
2.012000000000000000e+03 8.945616722106933594e+00 -1.751558303833007812e+01 -2.449399791657924652e-03 -9.831945644691586494e-04 -1.029778271913528442e-03 -1.433448633179068565e-04
2.013000000000000000e+03 1.026893424987792969e+01 -6.108292579650878906e+00 -1.729629235342144966e-03 6.063524324417812750e-06 -5.170697113499045372e-04 -3.742457192856818438e-04
2.014000000000000000e+03 9.548608779907226562e+00 -7.114527702331542969e+00 -2.125935629010200500e-03 -1.747238566167652607e-04 -6.901978631503880024e-04 1.087635871954262257e-03
2.015000000000000000e+03 8.441598892211914062e+00 7.536601066589355469e+00 -9.443297749385237694e-04 -4.581678367685526609e-04 -4.207492747809737921e-04 -8.806127007119357586e-04
2.016000000000000000e+03 9.597799301147460938e+00 -2.571393585205078125e+01 2.660024678334593773e-03 2.225654461653903127e-04 8.647770155221223831e-04 4.811438266187906265e-04
2.017000000000000000e+03 2.868442916870117188e+01 1.307941150665283203e+01 -3.291868865489959717e-01 5.969286918640136719e+00 1.692029953002929688e+00 9.632273912429809570e-01
2.018000000000000000e+03 7.078821659088134766e+00 -8.903302192687988281e+00 -8.587077609263360500e-04 -5.412030805018730462e-05 -2.738484181463718414e-04 4.287334159016609192e-04
2.019000000000000000e+03 2.811043357849121094e+01 2.004034423828125000e+01 -4.481199085712432861e-01 5.627078533172607422e+00 1.553687572479248047e+00 1.463985204696655273e+00
2.020000000000000000e+03 7.186679840087890625e+01 1.937531852722167969e+01 -6.121922284364700317e-03 7.364449501037597656e+00 2.207498311996459961e+00 -4.303134679794311523e-01
2.021000000000000000e+03 8.259582519531250000e+00 -2.659395790100097656e+01 1.772247371263802052e-03 1.878393231891095638e-04 5.880260141566395760e-04 1.429801806807518005e-03
2.022000000000000000e+03 2.750397300720214844e+01 5.794767856597900391e+00 -6.133471801877021790e-02 5.956685066223144531e+00 1.768605113029479980e+00 5.667036771774291992e-01
2.023000000000000000e+03 2.884036445617675781e+01 8.735286712646484375e+00 -1.934691369533538818e-01 6.067905902862548828e+00 1.762331008911132812e+00 7.311229109764099121e-01
2.024000000000000000e+03 2.729603767395019531e+01 -6.656501293182373047e+00 -6.208213791251182556e-02 6.084568023681640625e+00 1.806745767593383789e+00 2.904549539089202881e-01
2.025000000000000000e+03 7.133515167236328125e+01 -1.896502685546875000e+01 -2.738605067133903503e-02 8.170751571655273438e+00 2.443009853363037109e+00 -9.279993921518325806e-02
2.026000000000000000e+03 7.753061294555664062e+00 3.122429656982421875e+01 1.950029516592621803e-03 1.857067574746906757e-03 1.142129069194197655e-03 -4.984242841601371765e-03
2.027000000000000000e+03 2.817989349365234375e+01 -1.287562274932861328e+01 -2.346502058207988739e-02 6.099455356597900391e+00 1.822797179222106934e+00 1.982839554548263550e-01
2.028000000000000000e+03 6.966854095458984375e+01 -3.240506744384765625e+01 -1.763087883591651917e-02 8.143200874328613281e+00 2.437670946121215820e+00 -3.430159017443656921e-02
2.029000000000000000e+03 2.884675598144531250e+01 5.825763225555419922e+00 -1.222833544015884399e-01 6.106675148010253906e+00 1.795317530632019043e+00 5.903599262237548828e-01
2.030000000000000000e+03 2.744122123718261719e+01 2.586786651611328125e+01 -3.282548114657402039e-02 4.864513874053955078e+00 1.449506402015686035e+00 1.985862851142883301e+00
2.031000000000000000e+03 8.030808448791503906e+00 1.072026062011718750e+01 -8.242686162702739239e-04 1.526131673017516732e-04 -2.014966303249821067e-04 -7.231841445900499821e-04
2.032000000000000000e+03 7.186036586761474609e+00 1.176904392242431641e+01 -7.710918434895575047e-04 2.209055382991209626e-04 -1.650558842811733484e-04 1.085963565856218338e-03
2.033000000000000000e+03 1.014350318908691406e+01 -3.185252571105957031e+01 -1.571501791477203369e-02 7.864636369049549103e-03 -2.355114324018359184e-03 7.586839608848094940e-03
2.034000000000000000e+03 7.204100036621093750e+01 2.159859848022460938e+01 9.534155949950218201e-03 7.283451557159423828e+00 2.187895774841308594e+00 -4.260722100734710693e-01
2.035000000000000000e+03 7.145616149902343750e+01 -2.896292304992675781e+01 -1.420163828879594803e-02 8.228230476379394531e+00 2.464208841323852539e+00 -4.163994640111923218e-02
2.036000000000000000e+03 2.868158531188964844e+01 -2.528251171112060547e+00 -9.410609304904937744e-02 6.172342300415039062e+00 1.823470950126647949e+00 3.334411084651947021e-01
2.037000000000000000e+03 2.732292747497558594e+01 -1.233845949172973633e+00 -6.961005926132202148e-02 6.070536613464355469e+00 1.800277948379516602e+00 3.443735837936401367e-01
2.038000000000000000e+03 8.372970581054687500e+00 2.982628822326660156e+01 5.378247704356908798e-03 -5.081710871309041977e-03 8.896103099687024951e-05 -4.572515899781137705e-05
2.039000000000000000e+03 2.793978118896484375e+01 2.135285186767578125e+01 -4.250122606754302979e-01 5.500700950622558594e+00 1.522706627845764160e+00 1.570516109466552734e+00
2.040000000000000000e+03 2.704548645019531250e+01 -1.342908573150634766e+01 -1.781695405952632427e-03 6.017847061157226562e+00 1.804819583892822266e+00 1.884456723928451538e-01
2.041000000000000000e+03 1.026723384857177734e+01 -3.077297782897949219e+01 -1.463421341031789780e-02 -3.668535267934203148e-03 -5.490824580192565918e-03 5.121609196066856384e-03
2.042000000000000000e+03 9.056869506835937500e+00 -2.932588577270507812e+01 -1.239707227796316147e-02 2.680964826140552759e-04 -3.638692665845155716e-03 6.170973647385835648e-04
2.043000000000000000e+03 7.290431213378906250e+01 -1.962859630584716797e-01 -4.040112346410751343e-02 7.962240695953369141e+00 2.376551866531372070e+00 -2.234672456979751587e-01
2.044000000000000000e+03 7.108422851562500000e+01 2.121204614639282227e+00 -6.358647346496582031e-02 7.883528232574462891e+00 2.345982551574707031e+00 -2.899747490882873535e-01
2.045000000000000000e+03 7.306170654296875000e+01 -6.439308166503906250e+00 -3.363363817334175110e-02 8.090631484985351562e+00 2.417099237442016602e+00 -1.612145006656646729e-01
2.046000000000000000e+03 6.949743652343750000e+01 8.159824371337890625e+00 -8.293321728706359863e-02 7.752345085144042969e+00 2.300823688507080078e+00 -4.038715064525604248e-01
2.047000000000000000e+03 7.101842498779296875e+01 8.149748802185058594e+00 -6.310940533876419067e-02 7.742758750915527344e+00 2.303894758224487305e+00 -3.691112101078033447e-01
2.048000000000000000e+03 2.874049949645996094e+01 1.576852202415466309e-01 -8.951622247695922852e-02 6.160984992980957031e+00 1.821440577507019043e+00 3.839080035686492920e-01
2.049000000000000000e+03 2.882531738281250000e+01 4.371526241302490234e+00 -1.027471870183944702e-01 6.122996807098388672e+00 1.806074857711791992e+00 5.271624326705932617e-01
2.050000000000000000e+03 1.098234653472900391e+01 2.918725967407226562e+01 -1.968541182577610016e-03 -3.682073729578405619e-04 -7.010245462879538536e-04 1.137740910053253174e-03
2.051000000000000000e+03 1.011224174499511719e+01 3.140283584594726562e+01 7.297785487025976181e-03 -4.203531602797738742e-07 2.189209451898932457e-03 -4.953756928443908691e-03
2.052000000000000000e+03 1.223737621307373047e+01 3.442690658569335938e+01 8.221755735576152802e-03 -1.349370274692773819e-02 -1.581584219820797443e-03 4.511180333793163300e-03
2.053000000000000000e+03 2.870864295959472656e+01 -1.192632913589477539e+00 -9.679277986288070679e-02 6.173356056213378906e+00 1.822968959808349609e+00 3.538935184478759766e-01
2.054000000000000000e+03 2.622895050048828125e+01 -2.148533439636230469e+01 -7.074548304080963135e-02 5.957845687866210938e+00 1.766130089759826660e+00 1.625843197107315063e-01
2.055000000000000000e+03 6.270009040832519531e+00 3.604209136962890625e+01 2.828968688845634460e-03 -1.619280665181577206e-03 3.629064012784510851e-04 -1.701505621895194054e-03
2.056000000000000000e+03 7.723780632019042969e+00 3.379281997680664062e+01 8.446391671895980835e-03 -3.557479474693536758e-03 1.466673682443797588e-03 -3.476048586890101433e-03
2.057000000000000000e+03 7.832330703735351562e+00 2.765749740600585938e+01 2.738203853368759155e-03 -3.472867188975214958e-03 -2.203989570261910558e-04 1.614546985365450382e-03
2.058000000000000000e+03 7.066503906250000000e+01 1.155035305023193359e+01 -5.836566910147666931e-02 7.662602901458740234e+00 2.281271219253540039e+00 -4.153126776218414307e-01
2.059000000000000000e+03 2.936046791076660156e+01 -2.909623336791992188e+01 2.054059132933616638e-02 6.028459072113037109e+00 1.814699888229370117e+00 1.061538979411125183e-01
2.060000000000000000e+03 7.942701816558837891e+00 -3.226863098144531250e+01 -8.994139730930328369e-03 1.567545346915721893e-02 2.004394074901938438e-03 2.638807520270347595e-03
2.061000000000000000e+03 7.003009796142578125e+01 -1.958561897277832031e+01 -3.277672082185745239e-02 8.114897727966308594e+00 2.424636363983154297e+00 -9.824547171592712402e-02
2.062000000000000000e+03 7.114500427246093750e+01 1.833930969238281250e+01 -1.342447753995656967e-02 7.430652618408203125e+00 2.225168466567993164e+00 -4.520774185657501221e-01
2.063000000000000000e+03 2.614465522766113281e+01 -2.857528877258300781e+01 5.180989205837249756e-02 5.877264976501464844e+00 1.778722524642944336e+00 1.622178107500076294e-01
2.064000000000000000e+03 2.275233650207519531e+01 -3.093887519836425781e+01 1.448523104190826416e-01 5.809658527374267578e+00 1.786353230476379395e+00 2.621740102767944336e-01
2.065000000000000000e+03 9.456224441528320312e+00 -2.689108657836914062e+01 -5.772521719336509705e-03 -2.612677635625004768e-03 -2.515559783205389977e-03 -2.115069219144061208e-05
2.066000000000000000e+03 7.178518772125244141e+00 -2.961564826965332031e+01 1.242303289473056793e-03 4.828003700822591782e-03 1.821092097088694572e-03 2.626227447763085365e-03
2.067000000000000000e+03 7.223097991943359375e+01 -2.760033226013183594e+01 -1.547076739370822906e-02 8.262611389160156250e+00 2.474142074584960938e+00 -4.437368363142013550e-02
2.068000000000000000e+03 8.659595489501953125e+00 1.376784515380859375e+01 -1.132911653257906437e-03 2.563043090049177408e-04 -2.629821829032152891e-04 1.788971596397459507e-03
2.069000000000000000e+03 7.075461864471435547e+00 2.892811775207519531e+01 -4.205412988085299730e-04 1.903748256154358387e-03 4.449620901141315699e-04 -2.077753189951181412e-03
2.070000000000000000e+03 9.802782058715820312e+00 -1.261329174041748047e+01 -2.368158195167779922e-03 -1.452943542972207069e-04 -7.540357764810323715e-04 3.902056196238845587e-04
2.071000000000000000e+03 9.307733535766601562e+00 -1.507280349731445312e+01 -2.122900215908885002e-03 -9.390552877448499203e-04 -9.185866801999509335e-04 -6.707282591378316283e-05
2.072000000000000000e+03 7.072415161132812500e+01 2.909773063659667969e+01 1.148532480001449585e-01 7.113406658172607422e+00 2.168478012084960938e+00 -3.788388669490814209e-01
2.073000000000000000e+03 7.013225555419921875e+01 2.777747917175292969e+01 1.229175627231597900e-01 7.203191280364990234e+00 2.197832822799682617e+00 -4.500147402286529541e-01
2.074000000000000000e+03 2.728686332702636719e+01 -1.462577056884765625e+01 -1.557915098965167999e-02 6.038201808929443359e+00 1.806786775588989258e+00 1.727297902107238770e-01
2.075000000000000000e+03 7.961147308349609375e+00 2.154914283752441406e+01 -1.918084919452667236e-03 -1.486194203607738018e-03 -1.021283795125782490e-03 3.477967111393809319e-04
2.076000000000000000e+03 9.512522697448730469e+00 1.666368293762207031e+01 2.902072621509432793e-03 4.996866337023675442e-04 1.020527794025838375e-03 1.817193842725828290e-04
2.077000000000000000e+03 9.570073127746582031e+00 2.412456321716308594e+01 3.851533401757478714e-03 1.295711728744208813e-03 1.544173574075102806e-03 1.202512765303254128e-03
2.078000000000000000e+03 2.668451881408691406e+01 -2.583766937255859375e+01 -1.205826550722122192e-02 5.932983875274658203e+00 1.776277661323547363e+00 1.642984747886657715e-01
2.079000000000000000e+03 9.073592185974121094e+00 -3.565036010742187500e+01 -4.912456870079040527e-02 3.202911838889122009e-02 -5.128634627908468246e-03 -2.244666777551174164e-02
2.080000000000000000e+03 9.583886146545410156e+00 -3.778173828125000000e+01 -3.632150590419769287e-02 5.550076439976692200e-02 5.753776989877223969e-03 -7.008715718984603882e-02
2.081000000000000000e+03 2.993000793457031250e+01 3.294631958007812500e+01 2.730273723602294922e+00 6.411644935607910156e+00 2.742575645446777344e+00 4.633706092834472656e+00
2.082000000000000000e+03 2.762712478637695312e+01 3.046910667419433594e+01 1.308215498924255371e+00 3.669318199157714844e+00 1.493260145187377930e+00 2.415518760681152344e+00
2.083000000000000000e+03 2.696810150146484375e+01 3.025492477416992188e+01 1.175724506378173828e+00 3.008957624435424805e+00 1.255404591560363770e+00 2.012280225753784180e+00
2.084000000000000000e+03 2.630305480957031250e+01 3.072433853149414062e+01 1.206575155258178711e+00 2.228318214416503906e+00 1.030467987060546875e+00 1.602285742759704590e+00
2.085000000000000000e+03 2.739529418945312500e+01 2.678407859802246094e+01 1.072452142834663391e-01 4.664375305175781250e+00 1.431486129760742188e+00 2.045682430267333984e+00
2.086000000000000000e+03 3.098382377624511719e+01 3.080858802795410156e+01 4.359030127525329590e-01 9.241477012634277344e+00 2.903213977813720703e+00 3.053292989730834961e+00
2.087000000000000000e+03 3.036892890930175781e+01 3.214892196655273438e+01 1.598114728927612305e+00 8.284139633178710938e+00 2.964676380157470703e+00 4.212697505950927734e+00
2.088000000000000000e+03 2.748128318786621094e+01 2.485460472106933594e+01 -1.702215075492858887e-01 5.042254924774169922e+00 1.461609959602355957e+00 1.885804057121276855e+00
2.089000000000000000e+03 7.862908840179443359e+00 -8.152137756347656250e+00 -1.542323036119341850e-03 1.422384666511788964e-04 -4.200253752060234547e-04 -9.357859380543231964e-04
2.090000000000000000e+03 8.871580123901367188e+00 -6.172194004058837891e+00 8.696735021658241749e-04 -7.911541033536195755e-04 2.355583092139568180e-05 8.702794439159333706e-04
2.091000000000000000e+03 9.136281967163085938e+00 6.806639671325683594e+00 -2.171362750232219696e-03 2.775248140096664429e-04 -5.681513575837016106e-04 -7.132213795557618141e-04
2.092000000000000000e+03 2.633186912536621094e+01 3.018410301208496094e+01 1.114631175994873047e+00 2.517062902450561523e+00 1.089508175849914551e+00 1.693687915802001953e+00
2.093000000000000000e+03 2.633213806152343750e+01 2.868888282775878906e+01 6.141424775123596191e-01 3.217465400695800781e+00 1.149482369422912598e+00 1.832372903823852539e+00
2.094000000000000000e+03 2.603597068786621094e+01 2.956031799316406250e+01 8.348542451858520508e-01 2.598034381866455078e+00 1.029866576194763184e+00 1.615546703338623047e+00
2.095000000000000000e+03 3.278432083129882812e+01 3.103832817077636719e+01 2.449416071176528931e-01 1.144286060333251953e+01 3.506340503692626953e+00 1.461123228073120117e+00
2.096000000000000000e+03 2.565390968322753906e+01 2.884107017517089844e+01 5.812842249870300293e-01 2.661434173583984375e+00 9.728155136108398438e-01 1.544311761856079102e+00
2.097000000000000000e+03 7.216795349121093750e+01 -4.047222137451171875e+00 -4.106924682855606079e-02 8.021255493164062500e+00 2.394055843353271484e+00 -1.985990256071090698e-01
2.098000000000000000e+03 3.405839920043945312e+01 3.129410552978515625e+01 7.261762619018554688e-01 1.176855278015136719e+01 3.748418569564819336e+00 2.521247267723083496e-01
2.099000000000000000e+03 7.070394134521484375e+01 -7.278169155120849609e+00 -5.147732049226760864e-02 8.030385017395019531e+00 2.393672227859497070e+00 -1.867189705371856689e-01
2.100000000000000000e+03 7.004395294189453125e+01 4.952191829681396484e+00 -8.212637901306152344e-02 7.820469379425048828e+00 2.321502923965454102e+00 -3.508055210113525391e-01
2.101000000000000000e+03 6.814425659179687500e+01 2.077810049057006836e+00 -1.044653728604316711e-01 7.857866764068603516e+00 2.326020479202270508e+00 -3.399783074855804443e-01
2.102000000000000000e+03 7.407855510711669922e+00 7.721720218658447266e+00 2.297047321917489171e-04 -1.108131255023181438e-04 3.566748273442499340e-05 -2.785791875794529915e-04
2.103000000000000000e+03 1.052232265472412109e+01 -6.918284416198730469e+00 2.023026579990983009e-03 3.473146061878651381e-04 7.111023296602070332e-04 -2.979740092996507883e-04
2.104000000000000000e+03 2.825989151000976562e+01 1.868254089355468750e+01 -4.520173966884613037e-01 5.726357460021972656e+00 1.582301974296569824e+00 1.349961638450622559e+00
2.105000000000000000e+03 1.035121536254882812e+01 -9.128768920898437500e+00 1.919006579555571079e-03 4.546190903056412935e-04 7.120876689441502094e-04 -1.235451054526492953e-04
2.106000000000000000e+03 9.198666572570800781e+00 7.578291416168212891e+00 1.852821442298591137e-03 1.321804738836362958e-04 5.955005763098597527e-04 6.575479637831449509e-04
2.107000000000000000e+03 7.598673820495605469e+00 6.657713413238525391e+00 1.392071717418730259e-03 -8.788624109001830220e-05 3.912556567229330540e-04 4.344432090874761343e-04
2.108000000000000000e+03 7.000183868408203125e+01 -2.789031028747558594e+01 -2.519192732870578766e-02 8.156515121459960938e+00 2.439396858215332031e+00 -5.178734660148620605e-02
2.109000000000000000e+03 7.000339508056640625e+01 -9.565762519836425781e+00 -5.228023603558540344e-02 8.034327507019042969e+00 2.394613981246948242e+00 -1.741718649864196777e-01
2.110000000000000000e+03 6.964855957031250000e+01 -1.088748741149902344e+01 -5.406511202454566956e-02 8.034070968627929688e+00 2.394001722335815430e+00 -1.677137613296508789e-01
2.111000000000000000e+03 6.821064758300781250e+01 -1.540878963470458984e+01 -5.670536682009696960e-02 8.011657714843750000e+00 2.386485815048217773e+00 -1.370616853237152100e-01
2.112000000000000000e+03 6.954255676269531250e+01 -1.816031646728515625e+01 -3.911854326725006104e-02 8.083517074584960938e+00 2.413319349288940430e+00 -1.091282442212104797e-01
2.113000000000000000e+03 7.007141113281250000e+01 3.124808967113494873e-01 -7.440967112779617310e-02 7.903327465057373047e+00 2.348675251007080078e+00 -2.866064310073852539e-01
2.114000000000000000e+03 6.964520263671875000e+01 1.113698005676269531e+01 -7.349733263254165649e-02 7.686563014984130859e+00 2.283919811248779297e+00 -4.399936199188232422e-01
2.115000000000000000e+03 6.863053131103515625e+01 1.781204986572265625e+01 -2.485863119363784790e-02 7.551164627075195312e+00 2.257891893386840820e+00 -5.291650891304016113e-01
2.116000000000000000e+03 7.177748107910156250e+01 -7.529933929443359375e+00 -4.475502669811248779e-02 8.066249847412109375e+00 2.406448602676391602e+00 -1.715348362922668457e-01
2.117000000000000000e+03 6.868723297119140625e+01 -8.842130661010742188e+00 -6.897030770778656006e-02 7.983777999877929688e+00 2.374442338943481445e+00 -1.952930241823196411e-01
2.118000000000000000e+03 6.952929687500000000e+01 -1.443426609039306641e+01 -4.860960319638252258e-02 8.059515953063964844e+00 2.403271913528442383e+00 -1.363763958215713501e-01
2.119000000000000000e+03 2.875691032409667969e+01 1.164094734191894531e+01 -2.839140295982360840e-01 6.010821342468261719e+00 1.718072175979614258e+00 8.825605511665344238e-01
2.120000000000000000e+03 3.082300186157226562e+01 1.747943687438964844e+01 -6.114282011985778809e-01 6.587147235870361328e+00 1.792715787887573242e+00 1.219451904296875000e+00
2.121000000000000000e+03 2.838752174377441406e+01 1.729948997497558594e+01 -4.337915480136871338e-01 5.800747871398925781e+00 1.610086917877197266e+00 1.243981003761291504e+00
2.122000000000000000e+03 2.867653274536132812e+01 -5.182396411895751953e+00 -8.654203265905380249e-02 6.172723293304443359e+00 1.825854301452636719e+00 3.006781935691833496e-01
2.123000000000000000e+03 3.012847137451171875e+01 -1.153616666793823242e+00 -1.209285184741020203e-01 6.275071620941162109e+00 1.846242904663085938e+00 3.607307970523834229e-01
2.124000000000000000e+03 3.141220664978027344e+01 1.185607528686523438e+01 -4.373062551021575928e-01 6.529218673706054688e+00 1.827573776245117188e+00 8.797469735145568848e-01
2.125000000000000000e+03 9.072809219360351562e+00 -2.099966430664062500e+01 -2.841611858457326889e-03 1.365494565106928349e-03 -4.428351530805230141e-04 2.928534988313913345e-03
2.126000000000000000e+03 9.093393325805664062e+00 -1.018537807464599609e+01 1.507327659055590630e-03 9.023084421642124653e-04 7.228908361867070198e-04 1.734441175358369946e-04
2.127000000000000000e+03 7.961018085479736328e+00 -1.018653583526611328e+01 -1.469972427003085613e-03 -1.073727267794311047e-03 -7.631098851561546326e-04 -8.790626889094710350e-04
2.128000000000000000e+03 7.013135528564453125e+01 1.288234329223632812e+01 -6.070450693368911743e-02 7.634994506835937500e+00 2.272286891937255859e+00 -4.516054987907409668e-01
2.129000000000000000e+03 8.315500259399414062e+00 1.891215324401855469e+01 -2.512556267902255058e-03 -7.209373143268749118e-05 -7.753950194455683231e-04 6.954370473977178335e-05
2.130000000000000000e+03 2.885439491271972656e+01 7.281699657440185547e+00 -1.553440093994140625e-01 6.087647914886474609e+00 1.779691219329833984e+00 6.615031957626342773e-01
2.131000000000000000e+03 8.928631782531738281e+00 -2.303434181213378906e+01 -3.954909741878509521e-03 -5.550358328036963940e-04 -1.352983759716153145e-03 1.955927815288305283e-03
2.132000000000000000e+03 2.985798454284667969e+01 1.459169006347656250e+01 -4.539164900779724121e-01 6.240029335021972656e+00 1.735833764076232910e+00 1.063284277915954590e+00
2.133000000000000000e+03 1.156896686553955078e+01 -3.107985115051269531e+01 -2.584176836535334587e-03 -2.536084270104765892e-03 -1.536078401841223240e-03 7.977061904966831207e-03
2.134000000000000000e+03 7.491853237152099609e+00 -1.941838264465332031e+01 1.667711767368018627e-03 7.083415985107421875e-04 7.128160214051604271e-04 -9.809797629714012146e-04
2.135000000000000000e+03 7.994007587432861328e+00 -2.075563621520996094e+01 3.152241930365562439e-03 -1.283413148485124111e-03 5.606486229225993156e-04 -3.183515509590506554e-03
2.136000000000000000e+03 2.955998611450195312e+01 2.393765640258789062e+01 -4.842797219753265381e-01 6.435299873352050781e+00 1.785306096076965332e+00 1.826671123504638672e+00
2.137000000000000000e+03 2.861007881164550781e+01 2.378580093383789062e+01 -3.902380168437957764e-01 5.840495586395263672e+00 1.635077238082885742e+00 1.821017503738403320e+00
2.138000000000000000e+03 8.228237152099609375e+00 -1.341063976287841797e+01 -1.921387156471610069e-03 -5.286043160594999790e-04 -7.349974475800991058e-04 2.046671852440340444e-06
2.139000000000000000e+03 2.871091270446777344e+01 -6.514853000640869141e+00 -8.286345750093460083e-02 6.175953388214111328e+00 1.827926874160766602e+00 2.839643061161041260e-01
2.140000000000000000e+03 3.155639076232910156e+01 -5.001088142395019531e+00 -1.258217394351959229e-01 6.361657142639160156e+00 1.870750546455383301e+00 2.889661788940429688e-01
2.141000000000000000e+03 8.406900405883789062e+00 -2.540820693969726562e+01 -4.558131098747253418e-03 -1.796641503460705280e-03 -1.906431745737791061e-03 -6.491279782494530082e-05
2.142000000000000000e+03 7.742291450500488281e+00 -2.279671287536621094e+01 4.083107225596904755e-03 -2.622574800625443459e-03 4.381597100291401148e-04 -2.167046070098876953e-03
2.143000000000000000e+03 8.630051612854003906e+00 -2.422623825073242188e+01 3.511903341859579086e-03 -1.172330346889793873e-03 7.018719334155321121e-04 -8.405729313381016254e-04
2.144000000000000000e+03 7.666547775268554688e+00 9.072176933288574219e+00 -7.570090820081532001e-04 2.342819934710860252e-04 -1.568181323818862438e-04 -5.187765345908701420e-04
2.145000000000000000e+03 9.075982093811035156e+00 3.265898895263671875e+01 1.039987197145819664e-03 -6.882074754685163498e-03 -1.752626267261803150e-03 2.179130446165800095e-03
2.146000000000000000e+03 2.825434112548828125e+01 -2.003383636474609375e+01 -6.469509750604629517e-02 6.066812992095947266e+00 1.800635337829589844e+00 1.465556174516677856e-01
2.147000000000000000e+03 3.184499549865722656e+01 -2.468203353881835938e+01 -5.116851255297660828e-02 6.216848850250244141e+00 1.849704146385192871e+00 9.274676442146301270e-02
2.148000000000000000e+03 3.082423782348632812e+01 -2.116773986816406250e+01 -7.129979133605957031e-02 6.208146095275878906e+00 1.841053962707519531e+00 1.150933876633644104e-01
2.149000000000000000e+03 7.161824035644531250e+01 -5.047744512557983398e-01 -5.528049916028976440e-02 7.944103717803955078e+00 2.366647005081176758e+00 -2.478373348712921143e-01
2.150000000000000000e+03 8.658466339111328125e+00 -1.224830722808837891e+01 1.510170288383960724e-03 -3.637337940745055676e-04 3.439309366513043642e-04 -1.009137835353612900e-03
2.151000000000000000e+03 6.870405578613281250e+01 -2.029033088684082031e+01 -4.096813872456550598e-02 8.060138702392578125e+00 2.405750989913940430e+00 -1.020553335547447205e-01
2.152000000000000000e+03 7.174776458740234375e+01 -2.027749252319335938e+01 -2.286290377378463745e-02 8.197827339172363281e+00 2.452489137649536133e+00 -8.399067074060440063e-02
2.153000000000000000e+03 8.144990921020507812e+00 1.466807842254638672e+01 -1.748464535921812057e-03 -7.935674511827528477e-04 -7.626095903106033802e-04 -7.823109044693410397e-04
2.154000000000000000e+03 2.868763542175292969e+01 -1.409183311462402344e+01 -3.356884419918060303e-02 6.113925457000732422e+00 1.824106931686401367e+00 1.755451411008834839e-01
2.155000000000000000e+03 2.717748641967773438e+01 -1.225167751312255859e+01 -7.446284289471805096e-04 6.041827201843261719e+00 1.812324762344360352e+00 2.153871655464172363e-01
2.156000000000000000e+03 3.025968742370605469e+01 7.320565223693847656e+00 -2.229281365871429443e-01 6.275599002838134766e+00 1.815801262855529785e+00 6.686317324638366699e-01
2.157000000000000000e+03 6.999739837646484375e+01 1.632387542724609375e+01 -3.322961553931236267e-02 7.542891025543212891e+00 2.252898454666137695e+00 -4.812859594821929932e-01
2.158000000000000000e+03 3.023299598693847656e+01 8.787658691406250000e+00 -2.663773894309997559e-01 6.275051116943359375e+00 1.802602171897888184e+00 7.415921688079833984e-01
2.159000000000000000e+03 8.300340652465820312e+00 2.426754379272460938e+01 -2.341425046324729919e-03 -1.909831538796424866e-03 -1.275376998819410801e-03 -6.177743198350071907e-04
2.160000000000000000e+03 2.791176986694335938e+01 -2.153867912292480469e+01 -8.092577755451202393e-02 6.047422409057617188e+00 1.789948940277099609e+00 1.415338069200515747e-01
2.161000000000000000e+03 2.725830268859863281e+01 -2.439849090576171875e+01 -6.260432302951812744e-02 5.985702037811279297e+00 1.776929259300231934e+00 1.439536511898040771e-01
2.162000000000000000e+03 7.082398986816406250e+01 2.059303474426269531e+01 2.854900667443871498e-03 7.378656387329101562e+00 2.214453458786010742e+00 -4.641511440277099609e-01
2.163000000000000000e+03 6.877151489257812500e+01 1.964936828613281250e+01 -5.530736409127712250e-03 7.498980522155761719e+00 2.248034954071044922e+00 -5.276511311531066895e-01
2.164000000000000000e+03 2.997070693969726562e+01 1.317100906372070312e+01 -4.088628292083740234e-01 6.256590366363525391e+00 1.754318237304687500e+00 9.769514799118041992e-01
2.165000000000000000e+03 2.880055046081542969e+01 2.935983896255493164e+00 -8.975518494844436646e-02 6.137406349182128906e+00 1.814295411109924316e+00 4.687470793724060059e-01
2.166000000000000000e+03 3.171027946472167969e+01 5.835457801818847656e+00 -2.508575618267059326e-01 6.456417560577392578e+00 1.861667990684509277e+00 5.914573669433593750e-01
2.167000000000000000e+03 7.126823425292968750e+01 -2.224024581909179688e+01 -2.372916042804718018e-02 8.189799308776855469e+00 2.449820995330810547e+00 -7.569924741983413696e-02
2.168000000000000000e+03 7.057066345214843750e+01 -2.094987869262695312e+01 -2.927573956549167633e-02 8.148430824279785156e+00 2.435746669769287109e+00 -8.712547272443771362e-02
2.169000000000000000e+03 7.058617401123046875e+01 2.545026779174804688e+01 5.814925208687782288e-02 7.239734649658203125e+00 2.189365148544311523e+00 -4.527767300605773926e-01
2.170000000000000000e+03 6.996892547607421875e+01 2.364534378051757812e+01 3.512914851307868958e-02 7.327838420867919922e+00 2.208890199661254883e+00 -4.770846366882324219e-01
2.171000000000000000e+03 1.171137714385986328e+01 5.849503993988037109e+00 9.157862514257431030e-04 -6.023363675922155380e-05 2.566657785791903734e-04 -4.488250706344842911e-04
2.172000000000000000e+03 9.075689315795898438e+00 1.221750068664550781e+01 -2.864361740648746490e-03 6.126264925114810467e-04 -6.755205686204135418e-04 6.107820663601160049e-04
2.173000000000000000e+03 2.911090469360351562e+01 -1.536033058166503906e+01 -4.607681185007095337e-02 6.138999938964843750e+00 1.827876925468444824e+00 1.601174771785736084e-01
2.174000000000000000e+03 2.947095870971679688e+01 -1.212351608276367188e+01 -4.211135581135749817e-02 6.168802738189697266e+00 1.838007330894470215e+00 1.950887888669967651e-01
2.175000000000000000e+03 6.891126251220703125e+01 -2.933392143249511719e+01 -2.376101724803447723e-02 8.105656623840332031e+00 2.424568653106689453e+00 -5.051374435424804688e-02
2.176000000000000000e+03 7.050408935546875000e+01 -1.308156776428222656e+01 -4.473776742815971375e-02 8.086453437805175781e+00 2.412514686584472656e+00 -1.388673633337020874e-01
2.177000000000000000e+03 6.836868286132812500e+01 -1.330495071411132812e+01 -6.194398552179336548e-02 8.002184867858886719e+00 2.382072210311889648e+00 -1.533490866422653198e-01
2.178000000000000000e+03 6.974900054931640625e+01 1.764128875732421875e+01 -2.581639774143695831e-02 7.518715858459472656e+00 2.247869968414306641e+00 -4.992715120315551758e-01
2.179000000000000000e+03 6.936711883544921875e+01 1.436995983123779297e+01 -5.518805608153343201e-02 7.620028495788574219e+00 2.269452095031738281e+00 -4.837910234928131104e-01
2.180000000000000000e+03 7.101515197753906250e+01 -2.660956001281738281e+01 -2.085213549435138702e-02 8.199133872985839844e+00 2.453484535217285156e+00 -5.469650402665138245e-02
2.181000000000000000e+03 6.868605804443359375e+01 -2.655856513977050781e+01 -3.384249657392501831e-02 8.086608886718750000e+00 2.415829896926879883e+00 -6.534308940172195435e-02
2.182000000000000000e+03 6.884493255615234375e+01 -2.402857208251953125e+01 -3.616144880652427673e-02 8.083478927612304688e+00 2.414195299148559570e+00 -7.952412217855453491e-02
2.183000000000000000e+03 3.016018676757812500e+01 1.547049760818481445e+00 -1.304005086421966553e-01 6.272735595703125000e+00 1.842700600624084473e+00 4.312508106231689453e-01
2.184000000000000000e+03 3.020696449279785156e+01 4.383970260620117188e+00 -1.584765017032623291e-01 6.271463871002197266e+00 1.833896279335021973e+00 5.369687080383300781e-01
2.185000000000000000e+03 2.784300422668457031e+01 -2.995936203002929688e+01 5.545597523450851440e-02 5.932912826538085938e+00 1.796510696411132812e+00 1.073048338294029236e-01
2.186000000000000000e+03 3.017968368530273438e+01 -7.663146018981933594e+00 -9.014288336038589478e-02 6.257665634155273438e+00 1.850256800651550293e+00 2.587001025676727295e-01
2.187000000000000000e+03 2.877518463134765625e+01 -7.868804931640625000e+00 -6.425631046295166016e-02 6.165941715240478516e+00 1.830505609512329102e+00 2.706351578235626221e-01
2.188000000000000000e+03 3.694681549072265625e+01 3.179065132141113281e+01 1.697422742843627930e+00 1.049961090087890625e+01 3.659110307693481445e+00 -4.893318414688110352e-01
2.189000000000000000e+03 2.927856636047363281e+01 2.011000442504882812e+01 -5.522035360336303711e-01 6.135784626007080078e+00 1.675074338912963867e+00 1.470693588256835938e+00
2.190000000000000000e+03 2.907728958129882812e+01 2.142251586914062500e+01 -5.274269580841064453e-01 6.066239833831787109e+00 1.661643862724304199e+00 1.595923781394958496e+00
2.191000000000000000e+03 3.010246467590332031e+01 -5.071964740753173828e+00 -1.099372655153274536e-01 6.270607471466064453e+00 1.848201155662536621e+00 2.941964566707611084e-01
2.192000000000000000e+03 9.101772308349609375e+00 -3.183288192749023438e+01 -2.552053146064281464e-02 9.374928195029497147e-04 -7.374911103397607803e-03 -8.140220888890326023e-04
2.193000000000000000e+03 7.137346649169921875e+01 -3.561112976074218750e+01 -2.327420376241207123e-02 8.233102798461914062e+00 2.462948560714721680e+00 -2.588584646582603455e-02
2.194000000000000000e+03 6.913374328613281250e+01 2.643201828002929688e+01 7.830403745174407959e-02 7.303439617156982422e+00 2.214523077011108398e+00 -4.766003489494323730e-01
2.195000000000000000e+03 7.149700927734375000e+01 2.327495574951171875e+01 2.603618428111076355e-02 7.268949985504150391e+00 2.188495874404907227e+00 -4.385662674903869629e-01
2.196000000000000000e+03 2.788092422485351562e+01 -2.750947761535644531e+01 9.633663110435009003e-03 5.964477062225341797e+00 1.792233228683471680e+00 1.407791972160339355e-01
2.197000000000000000e+03 2.918140029907226562e+01 -2.231415748596191406e+01 -6.049006059765815735e-02 6.086013793945312500e+00 1.807657122611999512e+00 1.334474831819534302e-01
2.198000000000000000e+03 9.394388198852539062e+00 2.152089881896972656e+01 2.871549455448985100e-03 1.313546788878738880e-03 1.255528884939849377e-03 -2.451214095344766974e-05
2.199000000000000000e+03 6.760873794555664062e+00 -3.870475387573242188e+01 1.518826000392436981e-02 -5.515850614756345749e-03 2.901722909882664680e-03 -5.179129913449287415e-02
2.200000000000000000e+03 3.753166198730468750e+01 3.428177261352539062e+01 2.839584350585937500e+00 1.020379638671875000e+01 3.913014411926269531e+00 1.538930111564695835e-03
2.201000000000000000e+03 3.612004852294921875e+01 3.380788421630859375e+01 3.182319641113281250e+00 1.087831783294677734e+01 4.218191146850585938e+00 -3.212191760540008545e-01
2.202000000000000000e+03 3.024278640747070312e+01 3.132927131652832031e+01 1.098676443099975586e+00 7.903034687042236328e+00 2.700513362884521484e+00 3.690208435058593750e+00
2.203000000000000000e+03 3.002375411987304688e+01 3.228670501708984375e+01 1.927875399589538574e+00 7.220462799072265625e+00 2.744501352310180664e+00 4.237953662872314453e+00
2.204000000000000000e+03 2.803951263427734375e+01 3.206201934814453125e+01 2.046410322189331055e+00 2.938061237335205078e+00 1.495341420173645020e+00 2.505074739456176758e+00
2.205000000000000000e+03 2.868387222290039062e+01 3.233345413208007812e+01 2.380216121673583984e+00 3.647049188613891602e+00 1.808179497718811035e+00 3.135356903076171875e+00
2.206000000000000000e+03 2.776824569702148438e+01 2.986348342895507812e+01 1.016818165779113770e+00 4.131465435028076172e+00 1.544485092163085938e+00 2.437606811523437500e+00
2.207000000000000000e+03 3.088085937500000000e+01 3.176343154907226562e+01 9.043697714805603027e-01 9.809232711791992188e+00 3.214080810546875000e+00 3.649883270263671875e+00
2.208000000000000000e+03 2.824610137939453125e+01 3.062460327148437500e+01 1.323120594024658203e+00 4.403414726257324219e+00 1.717960596084594727e+00 2.742813348770141602e+00
2.209000000000000000e+03 2.687023925781250000e+01 3.090708541870117188e+01 1.400249958038330078e+00 2.505667209625244141e+00 1.171775102615356445e+00 1.847657322883605957e+00
2.210000000000000000e+03 2.983110427856445312e+01 3.129663085937500000e+01 1.310815453529357910e+00 6.907523632049560547e+00 2.465501785278320312e+00 3.632226467132568359e+00
2.211000000000000000e+03 2.750531387329101562e+01 3.112715721130371094e+01 1.587927579879760742e+00 3.011389493942260742e+00 1.379795074462890625e+00 2.243033647537231445e+00
2.212000000000000000e+03 2.718234443664550781e+01 2.752022933959960938e+01 3.053219318389892578e-01 4.371950626373291016e+00 1.403181791305541992e+00 2.078266143798828125e+00
2.213000000000000000e+03 3.173694801330566406e+01 2.992754554748535156e+01 -7.765306159853935242e-03 9.638662338256835938e+00 2.889269113540649414e+00 2.273988962173461914e+00
2.214000000000000000e+03 2.702412414550781250e+01 2.812602615356445312e+01 5.435888767242431641e-01 3.999100685119628906e+00 1.362806797027587891e+00 2.115071773529052734e+00
2.215000000000000000e+03 2.845174789428710938e+01 2.482229042053222656e+01 -2.846564352512359619e-01 5.721630573272705078e+00 1.631092190742492676e+00 1.947137951850891113e+00
2.216000000000000000e+03 2.840489387512207031e+01 2.584972381591796875e+01 -1.647748798131942749e-01 5.624213695526123047e+00 1.637831568717956543e+00 2.087751388549804688e+00
2.217000000000000000e+03 3.130690765380859375e+01 3.125797462463378906e+01 4.597963392734527588e-01 1.027057170867919922e+01 3.219110250473022461e+00 2.980538129806518555e+00
2.218000000000000000e+03 3.357832717895507812e+01 3.036746025085449219e+01 9.620844572782516479e-02 1.109141826629638672e+01 3.356287956237792969e+00 9.163798093795776367e-01
2.219000000000000000e+03 6.831166076660156250e+01 -1.019145679473876953e+01 -6.746685504913330078e-02 7.981350421905517578e+00 2.374165058135986328e+00 -1.828056573867797852e-01
2.220000000000000000e+03 6.799289703369140625e+01 -1.143205738067626953e+01 -7.063701003789901733e-02 7.978009223937988281e+00 2.372211694717407227e+00 -1.736629307270050049e-01
2.221000000000000000e+03 8.448067665100097656e+00 6.958532810211181641e+00 2.029656199738383293e-03 -3.584582882467657328e-04 5.013594054616987705e-04 1.068817335180938244e-03
2.222000000000000000e+03 2.959899902343750000e+01 1.737311172485351562e+01 -5.254350900650024414e-01 6.200994014739990234e+00 1.702667713165283203e+00 1.253354310989379883e+00
2.223000000000000000e+03 6.915367889404296875e+01 1.231061077117919922e+01 -6.831387430429458618e-02 7.665861129760742188e+00 2.279264211654663086e+00 -4.646741449832916260e-01
2.224000000000000000e+03 6.963687133789062500e+01 9.725349426269531250e+00 -7.348915934562683105e-02 7.715545654296875000e+00 2.292616844177246094e+00 -4.198440611362457275e-01
2.225000000000000000e+03 2.884843826293945312e+01 2.266450500488281250e+01 -4.794565141201019287e-01 5.951848506927490234e+00 1.641717553138732910e+00 1.709613800048828125e+00
2.226000000000000000e+03 3.157925987243652344e+01 -3.721192598342895508e+00 -1.394903063774108887e-01 6.378024101257324219e+00 1.871560096740722656e+00 3.057434260845184326e-01
2.227000000000000000e+03 3.158593750000000000e+01 -1.123519659042358398e+00 -1.572607904672622681e-01 6.393487930297851562e+00 1.870868206024169922e+00 3.574319183826446533e-01
2.228000000000000000e+03 6.762626647949218750e+01 -1.748241424560546875e+01 -5.609320104122161865e-02 7.997924327850341797e+00 2.382549285888671875e+00 -1.259538680315017700e-01
2.229000000000000000e+03 6.817728424072265625e+01 -1.885868644714355469e+01 -4.491057246923446655e-02 8.027218818664550781e+00 2.394692420959472656e+00 -1.145516782999038696e-01
2.230000000000000000e+03 2.973491287231445312e+01 1.598856067657470703e+01 -4.939705133438110352e-01 6.222686290740966797e+00 1.718614697456359863e+00 1.154852032661437988e+00
2.231000000000000000e+03 3.157768058776855469e+01 1.036981868743896484e+01 -3.870601058006286621e-01 6.517958641052246094e+00 1.839269518852233887e+00 7.963727116584777832e-01
2.232000000000000000e+03 3.006414413452148438e+01 -1.343769741058349609e+01 -4.764344915747642517e-02 6.202391147613525391e+00 1.846424221992492676e+00 1.735177934169769287e-01
2.233000000000000000e+03 7.836536407470703125e+00 -2.180976867675781250e+01 -5.169406067579984665e-03 -9.428129997104406357e-04 -1.833665650337934494e-03 3.114173421636223793e-03
2.234000000000000000e+03 6.798639678955078125e+01 -2.253974342346191406e+01 -4.213127866387367249e-02 8.037077903747558594e+00 2.398483991622924805e+00 -9.107807278633117676e-02
2.235000000000000000e+03 7.767948627471923828e+00 -1.730030632019042969e+01 3.084044670686125755e-03 5.928317550569772720e-04 1.103062881156802177e-03 5.626927595585584641e-04
2.236000000000000000e+03 8.513926506042480469e+00 1.782345962524414062e+01 2.826225245371460915e-03 -4.901529246126301587e-05 8.331629796884953976e-04 -7.779090083204209805e-05
2.237000000000000000e+03 6.645707130432128906e+00 2.323683738708496094e+01 -2.301876666024327278e-03 -1.956810709089040756e-03 -1.277606235817074776e-03 5.394474719651043415e-04
2.238000000000000000e+03 7.071498870849609375e+01 -6.207075119018554688e+00 -5.689905211329460144e-02 8.015011787414550781e+00 2.387433767318725586e+00 -1.996127367019653320e-01
2.239000000000000000e+03 2.932244110107421875e+01 2.481290054321289062e+01 -3.996720612049102783e-01 6.266576290130615234e+00 1.760071158409118652e+00 1.967575311660766602e+00
2.240000000000000000e+03 6.879444122314453125e+01 1.605450630187988281e+01 -4.999855533242225647e-02 7.596136569976806641e+00 2.263841390609741211e+00 -5.101984143257141113e-01
2.241000000000000000e+03 6.956835174560546875e+01 6.518202304840087891e+00 -8.282038569450378418e-02 7.791141986846923828e+00 2.312496423721313477e+00 -3.788859546184539795e-01
2.242000000000000000e+03 6.974015808105468750e+01 1.562829971313476562e+00 -7.874251902103424072e-02 7.879561424255371094e+00 2.340245723724365234e+00 -3.065838217735290527e-01
2.243000000000000000e+03 3.104120635986328125e+01 -1.587117481231689453e+01 -6.665569543838500977e-02 6.235826015472412109e+00 1.850751161575317383e+00 1.447313874959945679e-01
2.244000000000000000e+03 3.172998809814453125e+01 8.865007400512695312e+00 -3.371307551860809326e-01 6.498612880706787109e+00 1.848444581031799316e+00 7.238041758537292480e-01
2.245000000000000000e+03 3.126448249816894531e+01 1.331093788146972656e+01 -4.864577949047088623e-01 6.538273334503173828e+00 1.815544724464416504e+00 9.601263403892517090e-01
2.246000000000000000e+03 3.098468017578125000e+01 1.610976219177246094e+01 -5.765972733497619629e-01 6.569824695587158203e+00 1.797968149185180664e+00 1.128668427467346191e+00
2.247000000000000000e+03 9.300376892089843750e+00 -2.808580207824707031e+01 6.030683871358633041e-04 4.997014184482395649e-04 3.308309242129325867e-04 2.369224093854427338e-03
2.248000000000000000e+03 1.055345344543457031e+01 -2.837342262268066406e+01 -7.743495516479015350e-03 -2.789992373436689377e-03 -3.160046413540840149e-03 9.579831385053694248e-04
2.249000000000000000e+03 6.741860961914062500e+01 -2.782272720336914062e+01 -3.809534385800361633e-02 8.029891014099121094e+00 2.397538900375366211e+00 -6.068486720323562622e-02
2.250000000000000000e+03 3.017962265014648438e+01 2.945992469787597656e+00 -1.443260610103607178e-01 6.273610115051269531e+00 1.838785171508789062e+00 4.797427356243133545e-01
2.251000000000000000e+03 3.163315582275390625e+01 4.354474067687988281e+00 -2.191227078437805176e-01 6.430109500885009766e+00 1.863296031951904297e+00 5.293627381324768066e-01
2.252000000000000000e+03 6.934964752197265625e+01 2.161730003356933594e+01 1.871683634817600250e-02 7.412926673889160156e+00 2.229493141174316406e+00 -5.056865811347961426e-01
2.253000000000000000e+03 7.008132934570312500e+01 1.908754539489746094e+01 -8.567850105464458466e-03 7.459828376770019531e+00 2.235378265380859375e+00 -4.909123182296752930e-01
2.254000000000000000e+03 3.045163917541503906e+01 2.021298217773437500e+01 -6.477445363998413086e-01 6.610282421112060547e+00 1.788761377334594727e+00 1.429040551185607910e+00
2.255000000000000000e+03 3.056033134460449219e+01 -1.468718242645263672e+01 -5.689156427979469299e-02 6.211462974548339844e+00 1.846371412277221680e+00 1.544205844402313232e-01
2.256000000000000000e+03 3.011881065368652344e+01 -6.363827705383300781e+00 -9.464168548583984375e-02 6.258470535278320312e+00 1.849148631095886230e+00 2.794825732707977295e-01
2.257000000000000000e+03 2.877183532714843750e+01 1.531690001487731934e+00 -9.156031906604766846e-02 6.154736518859863281e+00 1.818952798843383789e+00 4.215771257877349854e-01
2.258000000000000000e+03 3.301916122436523438e+01 2.837069272994995117e+00 -2.416660934686660767e-01 6.554923057556152344e+00 1.893977046012878418e+00 4.580031633377075195e-01
2.259000000000000000e+03 3.176042938232421875e+01 -3.313664627075195312e+01 -4.442194849252700806e-02 6.110670566558837891e+00 1.819874525070190430e+00 -2.944023907184600830e-02
2.260000000000000000e+03 6.638276672363281250e+01 2.565755081176757812e+01 1.083643585443496704e-01 7.474384784698486328e+00 2.274824857711791992e+00 -5.553021430969238281e-01
2.261000000000000000e+03 6.825276184082031250e+01 2.454977035522460938e+01 6.464985758066177368e-02 7.390085697174072266e+00 2.236420631408691406e+00 -5.165421366691589355e-01
2.262000000000000000e+03 2.913138580322265625e+01 -2.510775756835937500e+01 -3.111634775996208191e-02 6.052032470703125000e+00 1.806274890899658203e+00 1.424143910408020020e-01
2.263000000000000000e+03 3.033295631408691406e+01 -2.361387062072753906e+01 -6.414268910884857178e-02 6.154059410095214844e+00 1.826974987983703613e+00 1.131786704063415527e-01
2.264000000000000000e+03 6.765517425537109375e+01 -3.097001266479492188e+01 -3.188718110322952271e-02 8.050596237182617188e+00 2.405612707138061523e+00 -4.181989282369613647e-02
2.265000000000000000e+03 2.817354774475097656e+01 3.132849884033203125e+01 1.736674070358276367e+00 3.825368881225585938e+00 1.668612957000732422e+00 2.754130840301513672e+00
2.266000000000000000e+03 3.025327491760253906e+01 3.175084877014160156e+01 1.365250349044799805e+00 7.938572406768798828e+00 2.791146755218505859e+00 3.931026935577392578e+00
2.267000000000000000e+03 2.889648246765136719e+01 3.006800270080566406e+01 9.579359889030456543e-01 5.548995018005371094e+00 1.952079296112060547e+00 2.922214984893798828e+00
2.268000000000000000e+03 2.660846138000488281e+01 2.923412895202636719e+01 8.129432797431945801e-01 3.237491607666015625e+00 1.215130448341369629e+00 1.927410483360290527e+00
2.269000000000000000e+03 2.764180564880371094e+01 2.793873786926269531e+01 3.833462595939636230e-01 4.685070037841796875e+00 1.520524859428405762e+00 2.231952905654907227e+00
2.270000000000000000e+03 2.881344223022460938e+01 3.136608505249023438e+01 1.699183702468872070e+00 4.777256488800048828e+00 1.942932128906250000e+00 3.189701080322265625e+00
2.271000000000000000e+03 2.899005508422851562e+01 3.196734237670898438e+01 2.009102582931518555e+00 4.691952705383300781e+00 2.010316610336303711e+00 3.395277261734008789e+00
2.272000000000000000e+03 2.716049385070800781e+01 2.961543273925781250e+01 9.419152140617370605e-01 3.531049251556396484e+00 1.341889381408691406e+00 2.151013374328613281e+00
2.273000000000000000e+03 2.829551887512207031e+01 2.683051490783691406e+01 3.974902257323265076e-02 5.419933795928955078e+00 1.637904763221740723e+00 2.210690021514892578e+00
2.274000000000000000e+03 3.021011924743652344e+01 2.153993797302246094e+01 -6.267458200454711914e-01 6.613220691680908203e+00 1.795942544937133789e+00 1.546712160110473633e+00
2.275000000000000000e+03 3.133938026428222656e+01 3.042923164367675781e+01 1.965569555759429932e-01 9.563140869140625000e+00 2.927909374237060547e+00 2.682291269302368164e+00
2.276000000000000000e+03 3.211071777343750000e+01 2.926369476318359375e+01 -2.265473902225494385e-01 9.546251296997070312e+00 2.795911073684692383e+00 1.972211241722106934e+00
2.277000000000000000e+03 2.934677124023437500e+01 2.575140953063964844e+01 -2.874711453914642334e-01 6.305603981018066406e+00 1.805439949035644531e+00 2.073581695556640625e+00
2.278000000000000000e+03 3.033810806274414062e+01 3.090707015991210938e+01 8.307392597198486328e-01 8.014760017395019531e+00 2.653649806976318359e+00 3.429060220718383789e+00
2.279000000000000000e+03 9.669914245605468750e+00 1.014927291870117188e+01 -9.828254114836454391e-04 6.255096523091197014e-04 -1.071947262971661985e-04 -5.216539138928055763e-04
2.280000000000000000e+03 3.010416221618652344e+01 -3.775852203369140625e+00 -1.117739453911781311e-01 6.269927501678466797e+00 1.847445964813232422e+00 3.151439726352691650e-01
2.281000000000000000e+03 2.993952178955078125e+01 2.285046768188476562e+01 -5.821798443794250488e-01 6.566981315612792969e+00 1.795440435409545898e+00 1.688856601715087891e+00
2.282000000000000000e+03 3.207026672363281250e+01 1.763183212280273438e+01 -6.855676174163818359e-01 6.957179546356201172e+00 1.881483554840087891e+00 1.148652911186218262e+00
2.283000000000000000e+03 3.185812377929687500e+01 1.898627853393554688e+01 -7.114244103431701660e-01 7.010666370391845703e+00 1.889772534370422363e+00 1.235751509666442871e+00
2.284000000000000000e+03 3.300174331665039062e+01 1.059140872955322266e+01 -4.627530872821807861e-01 6.762035846710205078e+00 1.889784812927246094e+00 7.664768695831298828e-01
2.285000000000000000e+03 3.272702789306640625e+01 1.207049369812011719e+01 -5.085435509681701660e-01 6.774881839752197266e+00 1.879901409149169922e+00 8.413245677947998047e-01
2.286000000000000000e+03 3.226177597045898438e+01 1.627975463867187500e+01 -6.528455615043640137e-01 6.909709453582763672e+00 1.877059102058410645e+00 1.067867398262023926e+00
2.287000000000000000e+03 6.629347229003906250e+01 1.712539672851562500e+01 -5.062944442033767700e-02 7.656092166900634766e+00 2.281638860702514648e+00 -5.727001428604125977e-01
2.288000000000000000e+03 3.337585830688476562e+01 9.018080711364746094e+00 -4.191874265670776367e-01 6.753022670745849609e+00 1.900150537490844727e+00 6.807831525802612305e-01
2.289000000000000000e+03 6.711113739013671875e+01 1.729493379592895508e+00 -1.220636591315269470e-01 7.853187561035156250e+00 2.319337129592895508e+00 -3.474450111389160156e-01
2.290000000000000000e+03 6.802297210693359375e+01 1.001731681823730469e+01 -9.910094738006591797e-02 7.738626956939697266e+00 2.291857957839965820e+00 -4.605260193347930908e-01
2.291000000000000000e+03 6.496687316894531250e+01 -2.431052017211914062e+01 -5.811187997460365295e-02 7.899572849273681641e+00 2.352438211441040039e+00 -9.194546192884445190e-02
2.292000000000000000e+03 6.654270172119140625e+01 -2.339724922180175781e+01 -5.009354650974273682e-02 7.972286224365234375e+00 2.376657724380493164e+00 -9.273816645145416260e-02
2.293000000000000000e+03 3.112764549255371094e+01 1.472620773315429688e+01 -5.344554781913757324e-01 6.554721832275390625e+00 1.806079983711242676e+00 1.043231368064880371e+00
2.294000000000000000e+03 3.177532958984375000e+01 7.348654270172119141e+00 -2.962474524974822998e-01 6.478055000305175781e+00 1.854542255401611328e+00 6.595246195793151855e-01
2.295000000000000000e+03 6.916352081298828125e+01 -1.219337558746337891e+01 -5.891246348619461060e-02 8.023994445800781250e+00 2.389524459838867188e+00 -1.586103886365890503e-01
2.296000000000000000e+03 6.737422943115234375e+01 -1.230739116668701172e+01 -7.598992437124252319e-02 7.959069728851318359e+00 2.364923954010009766e+00 -1.681376099586486816e-01
2.297000000000000000e+03 3.165647125244140625e+01 2.036602592468261719e+01 -7.287455797195434570e-01 7.080463409423828125e+00 1.905515432357788086e+00 1.334319829940795898e+00
2.298000000000000000e+03 7.036489105224609375e+01 -8.353070259094238281e+00 -5.403508245944976807e-02 8.032948493957519531e+00 2.393674135208129883e+00 -1.811821311712265015e-01
2.299000000000000000e+03 6.679621124267578125e+01 -1.113556194305419922e+01 -8.293098956346511841e-02 7.932379245758056641e+00 2.354834556579589844e+00 -1.832559108734130859e-01
2.300000000000000000e+03 6.846628570556640625e+01 9.454775452613830566e-01 -9.562777727842330933e-02 7.874703407287597656e+00 2.333722591400146484e+00 -3.177163004875183105e-01
2.301000000000000000e+03 6.928130340576171875e+01 2.819961309432983398e+00 -8.647969365119934082e-02 7.854060649871826172e+00 2.330274343490600586e+00 -3.323723971843719482e-01
2.302000000000000000e+03 6.782542705535888672e+00 -2.218984031677246094e+01 1.955100800842046738e-03 1.535839517600834370e-03 1.047282130457460880e-03 2.682407386600971222e-03
2.303000000000000000e+03 6.822552490234375000e+01 1.352040004730224609e+01 -7.422918081283569336e-02 7.663165569305419922e+00 2.276680946350097656e+00 -4.975506663322448730e-01
2.304000000000000000e+03 7.130674743652343750e+01 1.330043601989746094e+01 -4.301109164953231812e-02 7.594705581665039062e+00 2.265508174896240234e+00 -4.162851572036743164e-01
2.305000000000000000e+03 3.345521926879882812e+01 7.342584609985351562e+00 -3.658343255519866943e-01 6.711032867431640625e+00 1.903559565544128418e+00 6.152907013893127441e-01
2.306000000000000000e+03 3.254628753662109375e+01 1.350472068786621094e+01 -5.572096109390258789e-01 6.813962936401367188e+00 1.877025961875915527e+00 9.177516698837280273e-01
2.307000000000000000e+03 3.241240692138671875e+01 1.490412425994873047e+01 -6.083508729934692383e-01 6.857826232910156250e+00 1.874842643737792969e+00 9.907005429267883301e-01
2.308000000000000000e+03 3.158892440795898438e+01 2.923326492309570312e+00 -1.911019384860992432e-01 6.411540508270263672e+00 1.866131544113159180e+00 4.756724238395690918e-01
2.309000000000000000e+03 3.323141860961914062e+01 5.724011898040771484e+00 -3.101185858249664307e-01 6.634573459625244141e+00 1.897336483001708984e+00 5.543656349182128906e-01
2.310000000000000000e+03 3.032362174987792969e+01 -8.970227241516113281e+00 -7.629464566707611084e-02 6.253339767456054688e+00 1.853113532066345215e+00 2.412281185388565063e-01
2.311000000000000000e+03 6.764665985107421875e+01 2.230049133300781250e+01 3.923846781253814697e-02 7.480917453765869141e+00 2.256046772003173828e+00 -5.553488135337829590e-01
2.312000000000000000e+03 6.932449340820312500e+01 -2.171991729736328125e+01 -3.485431894659996033e-02 8.095763206481933594e+00 2.418272733688354492e+00 -8.988504111766815186e-02
2.313000000000000000e+03 3.023444747924804688e+01 -1.798462295532226562e+01 -6.637468934059143066e-02 6.194924831390380859e+00 1.838565111160278320e+00 1.350678801536560059e-01
2.314000000000000000e+03 3.059076118469238281e+01 -1.955888175964355469e+01 -7.483046501874923706e-02 6.191962718963623047e+00 1.835139751434326172e+00 1.153627857565879822e-01
2.315000000000000000e+03 3.352939224243164062e+01 2.434687042236328125e+01 -7.899020314216613770e-01 8.425534248352050781e+00 2.290689706802368164e+00 1.207600474357604980e+00
2.316000000000000000e+03 3.563405609130859375e+01 2.919628906250000000e+01 1.756157279014587402e-01 1.037952518463134766e+01 3.166542053222656250e+00 1.066114306449890137e-01
2.317000000000000000e+03 3.741303634643554688e+01 3.015656471252441406e+01 7.960103750228881836e-01 1.024208164215087891e+01 3.311427593231201172e+00 -3.969054818153381348e-01
2.318000000000000000e+03 3.603972625732421875e+01 3.016732788085937500e+01 6.229920387268066406e-01 1.058043384552001953e+01 3.361027717590332031e+00 -1.901302635669708252e-01
2.319000000000000000e+03 6.222452926635742188e+01 2.562151145935058594e+01 1.642310321331024170e-01 7.676918983459472656e+00 2.352344989776611328e+00 -6.342837810516357422e-01
2.320000000000000000e+03 7.275027465820312500e+01 2.998996162414550781e+01 8.458545058965682983e-02 6.929738521575927734e+00 2.104297161102294922e+00 -3.091470003128051758e-01
2.321000000000000000e+03 6.908934020996093750e+01 3.117349052429199219e+01 1.601108014583587646e-01 7.170783519744873047e+00 2.199268341064453125e+00 -3.734305799007415771e-01
2.322000000000000000e+03 2.825650596618652344e+01 2.763942146301269531e+01 2.217755019664764404e-01 5.258890628814697266e+00 1.644199848175048828e+00 2.304138422012329102e+00
2.323000000000000000e+03 2.903291130065917969e+01 2.703167915344238281e+01 -4.596112668514251709e-02 6.120583057403564453e+00 1.822386622428894043e+00 2.256350278854370117e+00
2.324000000000000000e+03 3.240401077270507812e+01 2.757354927062988281e+01 -4.873273372650146484e-01 8.988147735595703125e+00 2.550246238708496094e+00 1.680685997009277344e+00
2.325000000000000000e+03 3.071334266662597656e+01 3.110263252258300781e+01 6.854886412620544434e-01 9.006092071533203125e+00 2.907474279403686523e+00 3.373729228973388672e+00
2.326000000000000000e+03 2.936168098449707031e+01 3.130450630187988281e+01 1.519937157630920410e+00 5.963886260986328125e+00 2.245146989822387695e+00 3.503198385238647461e+00
2.327000000000000000e+03 2.946238899230957031e+01 3.186375045776367188e+01 1.808963894844055176e+00 5.829624176025390625e+00 2.291576385498046875e+00 3.705461263656616211e+00
2.328000000000000000e+03 2.841504478454589844e+01 2.947252464294433594e+01 7.902107834815979004e-01 5.058539867401123047e+00 1.754625201225280762e+00 2.647032976150512695e+00
2.329000000000000000e+03 2.750040817260742188e+01 2.901619148254394531e+01 7.138943076133728027e-01 4.204280853271484375e+00 1.475452542304992676e+00 2.279803276062011719e+00
2.330000000000000000e+03 2.950926017761230469e+01 2.657620811462402344e+01 -1.999818235635757446e-01 6.495360374450683594e+00 1.888613462448120117e+00 2.193058729171752930e+00
2.331000000000000000e+03 3.289876174926757812e+01 2.966793441772460938e+01 -1.564532071352005005e-01 1.036841487884521484e+01 3.063588619232177734e+00 1.443159580230712891e+00
2.332000000000000000e+03 3.103858566284179688e+01 2.299777984619140625e+01 -6.750603318214416504e-01 7.128235816955566406e+00 1.935952663421630859e+00 1.615608692169189453e+00
2.333000000000000000e+03 3.012380218505859375e+01 2.456948471069335938e+01 -5.246577262878417969e-01 6.814008235931396484e+00 1.886805176734924316e+00 1.858196735382080078e+00
2.334000000000000000e+03 3.421472167968750000e+01 2.864276504516601562e+01 -3.004069924354553223e-01 1.023014354705810547e+01 2.978920936584472656e+00 8.285102248191833496e-01
2.335000000000000000e+03 3.021809196472167969e+01 2.558543395996093750e+01 -4.461429119110107422e-01 7.041397094726562500e+00 1.978576183319091797e+00 1.967679142951965332e+00
2.336000000000000000e+03 3.500318527221679688e+01 1.679342269897460938e+01 -7.654102444648742676e-01 7.573803424835205078e+00 2.042517900466918945e+00 8.270015120506286621e-01
2.337000000000000000e+03 3.308544921875000000e+01 1.915831565856933594e+01 -7.730803489685058594e-01 7.393332004547119141e+00 1.986075401306152344e+00 1.119957685470581055e+00
2.338000000000000000e+03 3.133961868286132812e+01 2.169924736022949219e+01 -7.195965051651000977e-01 7.105308532714843750e+00 1.915713548660278320e+00 1.453894019126892090e+00
2.339000000000000000e+03 2.961521148681640625e+01 2.724463653564453125e+01 -1.006051823496818542e-01 6.668131828308105469e+00 1.970257997512817383e+00 2.325468778610229492e+00
2.340000000000000000e+03 3.171811485290527344e+01 2.432919120788574219e+01 -6.824415922164916992e-01 7.624175071716308594e+00 2.082520008087158203e+00 1.580895304679870605e+00
2.341000000000000000e+03 6.772038269042968750e+01 6.498533725738525391e+00 -1.130327358841896057e-01 7.799951553344726562e+00 2.306075572967529297e+00 -4.089879989624023438e-01
2.342000000000000000e+03 6.879413604736328125e+01 -2.452933341264724731e-01 -9.000895172357559204e-02 7.893382072448730469e+00 2.341012001037597656e+00 -2.976121604442596436e-01
2.343000000000000000e+03 6.976247406005859375e+01 -3.841468334197998047e+00 -6.882954388856887817e-02 7.958400726318359375e+00 2.366871356964111328e+00 -2.380049526691436768e-01
2.344000000000000000e+03 6.985692596435546875e+01 -6.713861465454101562e+00 -6.437531858682632446e-02 7.994086742401123047e+00 2.378913402557373047e+00 -2.054862827062606812e-01
2.345000000000000000e+03 6.921074676513671875e+01 -7.643341064453125000e+00 -6.660082936286926270e-02 7.986454486846923828e+00 2.375956058502197266e+00 -2.023604512214660645e-01
2.346000000000000000e+03 6.719277954101562500e+01 4.807199478149414062e+00 -1.186294183135032654e-01 7.820601463317871094e+00 2.310591697692871094e+00 -3.905701637268066406e-01
2.347000000000000000e+03 7.036088562011718750e+01 -9.205582141876220703e-01 -6.950236111879348755e-02 7.929944038391113281e+00 2.358132362365722656e+00 -2.652035057544708252e-01
2.348000000000000000e+03 3.014405250549316406e+01 1.838136464357376099e-01 -1.288806498050689697e-01 6.278514862060546875e+00 1.844890356063842773e+00 3.917997777462005615e-01
2.349000000000000000e+03 6.685983276367187500e+01 -9.631631851196289062e+00 -8.865895867347717285e-02 7.927607059478759766e+00 2.351684331893920898e+00 -1.991638243198394775e-01
2.350000000000000000e+03 6.634319305419921875e+01 -1.300373172760009766e+01 -7.877152413129806519e-02 7.930292606353759766e+00 2.355456352233886719e+00 -1.669157445430755615e-01
2.351000000000000000e+03 3.158826255798339844e+01 -2.427421331405639648e+00 -1.445491760969161987e-01 6.383188724517822266e+00 1.871591806411743164e+00 3.312631547451019287e-01
2.352000000000000000e+03 3.157886886596679688e+01 1.945865303277969360e-01 -1.627125740051269531e-01 6.395675659179687500e+00 1.869888901710510254e+00 3.908012509346008301e-01
2.353000000000000000e+03 3.157632064819335938e+01 1.539759635925292969e+00 -1.783944666385650635e-01 6.404919624328613281e+00 1.867957592010498047e+00 4.298512637615203857e-01
2.354000000000000000e+03 3.301734161376953125e+01 1.489485621452331543e+00 -2.169737070798873901e-01 6.533491134643554688e+00 1.894955158233642578e+00 4.160285592079162598e-01
2.355000000000000000e+03 3.150266647338867188e+01 -1.280294227600097656e+01 -7.039739936590194702e-02 6.290135383605957031e+00 1.865921378135681152e+00 1.684933751821517944e-01
2.356000000000000000e+03 3.097813415527343750e+01 -1.154586410522460938e+01 -6.905719637870788574e-02 6.276904106140136719e+00 1.862354040145874023e+00 1.962825059890747070e-01
2.357000000000000000e+03 3.202000808715820312e+01 -1.406132507324218750e+01 -7.067339122295379639e-02 6.319189548492431641e+00 1.874554872512817383e+00 1.479558646678924561e-01
2.358000000000000000e+03 7.071635437011718750e+01 1.488142395019531250e+01 -4.002725332975387573e-02 7.558897972106933594e+00 2.255661249160766602e+00 -4.509598910808563232e-01
2.359000000000000000e+03 7.190658569335937500e+01 1.543580055236816406e+01 -2.771608158946037292e-02 7.509469032287597656e+00 2.244525909423828125e+00 -4.168229401111602783e-01
2.360000000000000000e+03 6.738312530517578125e+01 1.225882720947265625e+01 -9.103494137525558472e-02 7.711007118225097656e+00 2.285991668701171875e+00 -5.008987784385681152e-01
2.361000000000000000e+03 6.678475189208984375e+01 -1.951354980468750000e+01 -5.544425919651985168e-02 7.973540782928466797e+00 2.375428915023803711e+00 -1.164643242955207825e-01
2.362000000000000000e+03 6.650065612792968750e+01 3.051399993896484375e+01 2.298142015933990479e-01 7.350240707397460938e+00 2.274016618728637695e+00 -4.550486505031585693e-01
2.363000000000000000e+03 3.909890747070312500e+01 3.043222808837890625e+01 1.022760868072509766e+00 9.832940101623535156e+00 3.256710290908813477e+00 -5.330914855003356934e-01
2.364000000000000000e+03 3.372043228149414062e+01 1.510539340972900391e+01 -6.712763905525207520e-01 7.152712345123291016e+00 1.944430828094482422e+00 9.099709987640380859e-01
2.365000000000000000e+03 6.747307586669921875e+01 1.621165084838867188e+01 -5.834436416625976562e-02 7.632684230804443359e+00 2.272301912307739258e+00 -5.362545847892761230e-01
2.366000000000000000e+03 8.083207130432128906e+00 2.016989517211914062e+01 2.604111796244978905e-03 6.024452741257846355e-04 9.619671036489307880e-04 -3.842338046524673700e-04
2.367000000000000000e+03 6.849743652343750000e+01 1.139944362640380859e+01 -8.366361260414123535e-02 7.701776504516601562e+00 2.285433769226074219e+00 -4.695009887218475342e-01
2.368000000000000000e+03 6.579538726806640625e+01 -2.171111679077148438e+01 -5.604740977287292480e-02 7.933018684387207031e+00 2.363091468811035156e+00 -1.039314568042755127e-01
2.369000000000000000e+03 2.833734512329101562e+01 3.001011848449707031e+01 1.033978462219238281e+00 4.810313224792480469e+00 1.753287434577941895e+00 2.715616464614868164e+00
2.370000000000000000e+03 2.796502113342285156e+01 2.934416007995605469e+01 7.907202839851379395e-01 4.574513435363769531e+00 1.609570145606994629e+00 2.497068881988525391e+00
2.371000000000000000e+03 2.988071441650390625e+01 3.078219604492187500e+01 9.895434379577636719e-01 7.118460178375244141e+00 2.432401180267333984e+00 3.393520355224609375e+00
2.372000000000000000e+03 2.882885360717773438e+01 3.069149971008300781e+01 1.279628992080688477e+00 5.211194992065429688e+00 1.947247266769409180e+00 3.044803142547607422e+00
2.373000000000000000e+03 2.954127502441406250e+01 2.872989463806152344e+01 2.491736263036727905e-01 6.573924541473388672e+00 2.046929597854614258e+00 2.626163244247436523e+00
2.374000000000000000e+03 2.796344757080078125e+01 2.853125953674316406e+01 5.407904386520385742e-01 4.848115444183349609e+00 1.616671800613403320e+00 2.402854919433593750e+00
2.375000000000000000e+03 3.023245048522949219e+01 2.649350738525390625e+01 -3.457867503166198730e-01 7.090396404266357422e+00 2.023382902145385742e+00 2.110317230224609375e+00
2.376000000000000000e+03 3.001331329345703125e+01 3.025118827819824219e+01 6.688468456268310547e-01 7.274779796600341797e+00 2.383087873458862305e+00 3.151961565017700195e+00
2.377000000000000000e+03 3.322779464721679688e+01 2.866115760803222656e+01 -3.406356275081634521e-01 9.973182678222656250e+00 2.889764070510864258e+00 1.289288163185119629e+00
2.378000000000000000e+03 3.080797004699707031e+01 3.003240966796875000e+01 2.641914784908294678e-01 8.546980857849121094e+00 2.643351793289184570e+00 2.831361770629882812e+00
2.379000000000000000e+03 3.180678367614746094e+01 2.531158828735351562e+01 -6.375554203987121582e-01 7.857128143310546875e+00 2.165871858596801758e+00 1.661211729049682617e+00
2.380000000000000000e+03 3.218515777587890625e+01 2.482662582397460938e+01 -7.270026206970214844e-01 7.969123363494873047e+00 2.172636270523071289e+00 1.542332768440246582e+00
2.381000000000000000e+03 3.057563781738281250e+01 -1.027040863037109375e+01 -7.425973564386367798e-02 6.259478092193603516e+00 1.855565547943115234e+00 2.139695584774017334e-01
2.382000000000000000e+03 3.166760444641113281e+01 -8.659392356872558594e+00 -1.028339341282844543e-01 6.342110157012939453e+00 1.871782898902893066e+00 2.304458767175674438e-01
2.383000000000000000e+03 3.139863967895507812e+01 2.895853233337402344e+01 -1.675568521022796631e-01 8.735384941101074219e+00 2.570348501205444336e+00 2.286120414733886719e+00
2.384000000000000000e+03 3.673651123046875000e+01 1.844011878967285156e+01 -8.049439191818237305e-01 8.041881561279296875e+00 2.171081304550170898e+00 6.285207867622375488e-01
2.385000000000000000e+03 3.224892044067382812e+01 2.205577468872070312e+01 -7.797127962112426758e-01 7.504345417022705078e+00 2.017389774322509766e+00 1.373862981796264648e+00
2.386000000000000000e+03 3.378977966308593750e+01 1.372840690612792969e+01 -6.189564466476440430e-01 7.066091060638427734e+00 1.934140324592590332e+00 8.490206003189086914e-01
2.387000000000000000e+03 3.507651138305664062e+01 1.525079154968261719e+01 -7.136195898056030273e-01 7.413486003875732422e+00 2.009959936141967773e+00 7.841035723686218262e-01
2.388000000000000000e+03 3.232922744750976562e+01 2.380139923095703125e+01 -7.469283938407897949e-01 7.856850624084472656e+00 2.132976770401000977e+00 1.442262291908264160e+00
2.389000000000000000e+03 3.453077697753906250e+01 2.972442245483398438e+01 1.100770011544227600e-01 1.080687427520751953e+01 3.275085210800170898e+00 4.784331619739532471e-01
2.390000000000000000e+03 6.749456024169921875e+01 2.851389646530151367e+00 -1.134762614965438843e-01 7.843452930450439453e+00 2.318993091583251953e+00 -3.595611453056335449e-01
2.391000000000000000e+03 3.195726776123046875e+01 -9.820116996765136719e+00 -9.672050923109054565e-02 6.349847316741943359e+00 1.875938057899475098e+00 2.139013409614562988e-01
2.392000000000000000e+03 6.604239654541015625e+01 6.685120105743408203e+00 -1.349772363901138306e-01 7.804948329925537109e+00 2.300991296768188477e+00 -4.333420395851135254e-01
2.393000000000000000e+03 6.776132965087890625e+01 8.313530921936035156e+00 -1.051356121897697449e-01 7.769387722015380859e+00 2.299275636672973633e+00 -4.396275877952575684e-01
2.394000000000000000e+03 3.651372528076171875e+01 1.251806068420410156e+01 -6.436342597007751465e-01 7.415012359619140625e+00 2.031413555145263672e+00 5.967028141021728516e-01
2.395000000000000000e+03 3.503977584838867188e+01 1.275204658508300781e+01 -6.109690070152282715e-01 7.181137561798095703e+00 1.971050500869750977e+00 7.256049513816833496e-01
2.396000000000000000e+03 3.380059051513671875e+01 -1.717323493957519531e+01 -9.238415211439132690e-02 6.389135837554931641e+00 1.889025568962097168e+00 1.073002740740776062e-01
2.397000000000000000e+03 3.235777664184570312e+01 -1.537226772308349609e+01 -7.689657062292098999e-02 6.319227695465087891e+00 1.872699379920959473e+00 1.270630210638046265e-01
2.398000000000000000e+03 7.200154876708984375e+01 -2.957135915756225586e+00 -4.725497961044311523e-02 7.999544620513916016e+00 2.385686874389648438e+00 -2.119480371475219727e-01
2.399000000000000000e+03 6.713760375976562500e+01 4.116417467594146729e-01 -1.177253425121307373e-01 7.867464065551757812e+00 2.324921607971191406e+00 -3.251707851886749268e-01
2.400000000000000000e+03 6.808815002441406250e+01 -6.619055271148681641e+00 -8.287792652845382690e-02 7.945672512054443359e+00 2.358838319778442383e+00 -2.232080101966857910e-01
2.401000000000000000e+03 3.455590820312500000e+01 1.219266355037689209e-01 -2.385529279708862305e-01 6.650434017181396484e+00 1.923564314842224121e+00 3.572888374328613281e-01
2.402000000000000000e+03 3.450287246704101562e+01 1.383550047874450684e+00 -2.618792057037353516e-01 6.669895172119140625e+00 1.922404885292053223e+00 3.918250203132629395e-01
2.403000000000000000e+03 3.152380943298339844e+01 -6.253118515014648438e+00 -1.214669123291969299e-01 6.356705665588378906e+00 1.870571613311767578e+00 2.674416303634643555e-01
2.404000000000000000e+03 3.305635452270507812e+01 -5.009447097778320312e+00 -1.532570272684097290e-01 6.470526695251464844e+00 1.895180821418762207e+00 2.700958847999572754e-01
2.405000000000000000e+03 6.730596923828125000e+01 -7.986303329467773438e+00 -8.572839200496673584e-02 7.931952953338623047e+00 2.353867530822753906e+00 -2.148026674985885620e-01
2.406000000000000000e+03 6.729135131835937500e+01 -1.420948505401611328e+01 -6.599648296833038330e-02 7.968677997589111328e+00 2.370804548263549805e+00 -1.529699414968490601e-01
2.407000000000000000e+03 6.539765930175781250e+01 -9.030190467834472656e+00 -1.024486869573593140e-01 7.886148452758789062e+00 2.335109949111938477e+00 -2.107719928026199341e-01
2.408000000000000000e+03 6.376686477661132812e+01 1.481177902221679688e+01 -1.185286268591880798e-01 7.778182029724121094e+00 2.297896146774291992e+00 -5.845740437507629395e-01
2.409000000000000000e+03 6.696992492675781250e+01 1.466997337341308594e+01 -7.470803707838058472e-02 7.674056529998779297e+00 2.279804468154907227e+00 -5.343638062477111816e-01
2.410000000000000000e+03 6.897542572021484375e+01 -1.672901153564453125e+01 -4.778898507356643677e-02 8.047448158264160156e+00 2.399897813796997070e+00 -1.247375532984733582e-01
2.411000000000000000e+03 6.566478729248046875e+01 -1.710252952575683594e+01 -7.172751426696777344e-02 7.914403915405273438e+00 2.352802991867065430e+00 -1.381455510854721069e-01
2.412000000000000000e+03 3.929055404663085938e+01 2.849949836730957031e+01 3.638994991779327393e-01 9.682541847229003906e+00 3.013932466506958008e+00 -4.389753341674804688e-01
2.413000000000000000e+03 6.604409790039062500e+01 8.271542549133300781e+00 -1.354384422302246094e-01 7.789708614349365234e+00 2.296281099319458008e+00 -4.600701034069061279e-01
2.414000000000000000e+03 7.226885986328125000e+01 -2.142108345031738281e+01 -1.913454011082649231e-02 8.233271598815917969e+00 2.464241027832031250e+00 -7.375199347734451294e-02
2.415000000000000000e+03 6.464103698730468750e+01 -2.729208564758300781e+01 -5.538670346140861511e-02 7.891505241394042969e+00 2.350835561752319336e+00 -7.813287526369094849e-02
2.416000000000000000e+03 6.319916915893554688e+01 -2.538016128540039062e+01 -6.561511009931564331e-02 7.810377597808837891e+00 2.323428630828857422e+00 -8.765306323766708374e-02
2.417000000000000000e+03 2.955913352966308594e+01 2.947573089599609375e+01 5.097169876098632812e-01 6.591657161712646484e+00 2.130412340164184570e+00 2.852989196777343750e+00
2.418000000000000000e+03 2.854252052307128906e+01 2.821927452087402344e+01 3.420995771884918213e-01 5.516984462738037109e+00 1.757725119590759277e+00 2.450845718383789062e+00
2.419000000000000000e+03 3.053613090515136719e+01 3.048091697692871094e+01 5.141530036926269531e-01 8.316749572753906250e+00 2.649270772933959961e+00 3.106907844543457031e+00
2.420000000000000000e+03 2.831019783020019531e+01 2.900198745727539062e+01 6.193971037864685059e-01 5.051226139068603516e+00 1.701187014579772949e+00 2.552324295043945312e+00
2.421000000000000000e+03 2.885574722290039062e+01 2.879817581176757812e+01 4.428965449333190918e-01 5.720088481903076172e+00 1.848895549774169922e+00 2.600797176361083984e+00
2.422000000000000000e+03 3.412170028686523438e+01 2.298214149475097656e+01 -8.131256103515625000e-01 8.328887939453125000e+00 2.254728794097900391e+00 1.039992928504943848e+00
2.423000000000000000e+03 3.112040519714355469e+01 2.954506683349609375e+01 1.698142103850841522e-02 8.717318534851074219e+00 2.620290040969848633e+00 2.567709684371948242e+00
2.424000000000000000e+03 3.098325538635253906e+01 2.567407417297363281e+01 -5.294784903526306152e-01 7.530814170837402344e+00 2.100400686264038086e+00 1.909584283828735352e+00
2.425000000000000000e+03 3.309019470214843750e+01 -2.411098480224609375e+00 -1.789357513189315796e-01 6.502227306365966797e+00 1.896987557411193848e+00 3.176690042018890381e-01
2.426000000000000000e+03 3.304344558715820312e+01 1.772850155830383301e-01 -2.051751613616943359e-01 6.523795604705810547e+00 1.895586133003234863e+00 3.797603547573089600e-01
2.427000000000000000e+03 3.320667266845703125e+01 2.344492530822753906e+01 -7.977420687675476074e-01 8.145700454711914062e+00 2.204387664794921875e+00 1.248940348625183105e+00
2.428000000000000000e+03 3.573536682128906250e+01 1.890419769287109375e+01 -8.255514502525329590e-01 7.959822654724121094e+00 2.140281438827514648e+00 7.508967518806457520e-01
2.429000000000000000e+03 3.468243789672851562e+01 1.819584083557128906e+01 -7.956190109252929688e-01 7.674111843109130859e+00 2.063547849655151367e+00 8.867436647415161133e-01
2.430000000000000000e+03 3.298456192016601562e+01 2.149776840209960938e+01 -8.175765275955200195e-01 7.659473896026611328e+00 2.052569150924682617e+00 1.236032843589782715e+00
2.431000000000000000e+03 3.520017623901367188e+01 -1.230873203277587891e+01 -1.238008067011833191e-01 6.529142856597900391e+00 1.921602606773376465e+00 1.476723700761795044e-01
2.432000000000000000e+03 3.414834213256835938e+01 -1.134815216064453125e+01 -1.170680150389671326e-01 6.470177650451660156e+00 1.905932784080505371e+00 1.720826327800750732e-01
2.433000000000000000e+03 3.494278335571289062e+01 9.616729736328125000e+00 -4.925586283206939697e-01 6.985621452331542969e+00 1.947918772697448730e+00 6.380738615989685059e-01
2.434000000000000000e+03 6.631114959716796875e+01 3.234632968902587891e+00 -1.325826495885848999e-01 7.838759899139404297e+00 2.311853170394897461e+00 -3.722091913223266602e-01
2.435000000000000000e+03 6.579782104492187500e+01 -4.121142864227294922e+00 -1.224384531378746033e-01 7.875121116638183594e+00 2.325804710388183594e+00 -2.689988911151885986e-01
2.436000000000000000e+03 7.088043212890625000e+01 -3.327810525894165039e+00 -5.811487510800361633e-02 7.978672504425048828e+00 2.376167297363281250e+00 -2.281995564699172974e-01
2.437000000000000000e+03 6.808719635009765625e+01 -1.952507495880126953e+00 -9.574203938245773315e-02 7.902887821197509766e+00 2.342143774032592773e+00 -2.826925814151763916e-01
2.438000000000000000e+03 6.432832336425781250e+01 5.539627552032470703e+00 -1.640173941850662231e-01 7.820323467254638672e+00 2.296891927719116211e+00 -4.256984591484069824e-01
2.439000000000000000e+03 3.152723312377929688e+01 -7.471100807189941406e+00 -1.046557798981666565e-01 6.341739177703857422e+00 1.871124982833862305e+00 2.512483298778533936e-01
2.440000000000000000e+03 3.357696151733398438e+01 -1.042055511474609375e+01 -1.164509207010269165e-01 6.443414211273193359e+00 1.898088932037353516e+00 1.939439028501510620e-01
2.441000000000000000e+03 2.904189682006835938e+01 -1.070501327514648438e+01 -4.167224094271659851e-02 6.159875392913818359e+00 1.835460901260375977e+00 2.268970906734466553e-01
2.442000000000000000e+03 7.061957550048828125e+01 -2.144942283630371094e+00 -6.481163203716278076e-02 7.953621387481689453e+00 2.366642951965332031e+00 -2.456571310758590698e-01
2.443000000000000000e+03 6.263003540039062500e+01 1.149684524536132812e+01 -1.737246811389923096e-01 7.819950580596923828e+00 2.293867826461791992e+00 -5.344027876853942871e-01
2.444000000000000000e+03 6.336159515380859375e+01 1.020335674285888672e+01 -1.648525297641754150e-01 7.813316345214843750e+00 2.294539213180541992e+00 -5.105959177017211914e-01
2.445000000000000000e+03 3.552894210815429688e+01 1.168538093566894531e+01 -5.888888239860534668e-01 7.189307212829589844e+00 1.980125427246093750e+00 6.657771468162536621e-01
2.446000000000000000e+03 3.497247695922851562e+01 1.388138675689697266e+01 -6.595731973648071289e-01 7.281621456146240234e+00 1.986614465713500977e+00 7.619192004203796387e-01
2.447000000000000000e+03 3.387821960449218750e+01 2.157330322265625000e+01 -8.411551117897033691e-01 7.942895412445068359e+00 2.130522012710571289e+00 1.078094482421875000e+00
2.448000000000000000e+03 3.430599975585937500e+01 2.638502502441406250e+01 -6.210253834724426270e-01 9.294418334960937500e+00 2.602018117904663086e+00 9.679616689682006836e-01
2.449000000000000000e+03 3.642267990112304688e+01 1.541725921630859375e+01 -7.369763255119323730e-01 7.628840923309326172e+00 2.067559242248535156e+00 6.639416217803955078e-01
2.450000000000000000e+03 3.453728485107421875e+01 4.019179821014404297e+00 -3.136931657791137695e-01 6.731542587280273438e+00 1.925354838371276855e+00 4.665698707103729248e-01
2.451000000000000000e+03 3.308621597290039062e+01 4.239026069641113281e+00 -2.674288153648376465e-01 6.582825183868408203e+00 1.894618868827819824e+00 5.050843954086303711e-01
2.452000000000000000e+03 6.607981872558593750e+01 -1.506274223327636719e+01 -7.394632697105407715e-02 7.928761959075927734e+00 2.356444835662841797e+00 -1.486714780330657959e-01
2.453000000000000000e+03 3.445562744140625000e+01 -6.556347370147705078e+00 -1.616345047950744629e-01 6.551310062408447266e+00 1.916902661323547363e+00 2.274864912033081055e-01
2.454000000000000000e+03 3.307213211059570312e+01 -1.114183306694030762e+00 -1.878637969493865967e-01 6.511041164398193359e+00 1.896953225135803223e+00 3.478110730648040771e-01
2.455000000000000000e+03 3.295716476440429688e+01 -6.267685890197753906e+00 -1.369243115186691284e-01 6.442371845245361328e+00 1.891634345054626465e+00 2.557707428932189941e-01
2.456000000000000000e+03 6.482303619384765625e+01 -1.601514625549316406e+01 -7.554636895656585693e-02 7.880803585052490234e+00 2.341577291488647461e+00 -1.448118686676025391e-01
2.457000000000000000e+03 6.347296524047851562e+01 -1.838884162902832031e+01 -8.345463871955871582e-02 7.824238300323486328e+00 2.322235107421875000e+00 -1.308811008930206299e-01
2.458000000000000000e+03 3.266085052490234375e+01 -2.096917724609375000e+01 -8.214815706014633179e-02 6.296620845794677734e+00 1.864341735839843750e+00 1.006191670894622803e-01
2.459000000000000000e+03 3.310702514648437500e+01 -1.928401947021484375e+01 -7.747186720371246338e-02 6.339145183563232422e+00 1.878502011299133301e+00 1.061947420239448547e-01
2.460000000000000000e+03 3.762764739990234375e+01 2.832099914550781250e+01 1.549940109252929688e-01 9.903521537780761719e+00 3.017554521560668945e+00 -1.993352621793746948e-01
2.461000000000000000e+03 4.062733459472656250e+01 3.292513275146484375e+01 1.752820014953613281e+00 9.542328834533691406e+00 3.388544797897338867e+00 -3.840349912643432617e-01
2.462000000000000000e+03 3.851158523559570312e+01 3.239130020141601562e+01 1.843834280967712402e+00 1.003409767150878906e+01 3.563379526138305664e+00 -4.674878418445587158e-01
2.463000000000000000e+03 6.327395248413085938e+01 1.693342399597167969e+01 -8.432632684707641602e-02 7.765508651733398438e+00 2.304354667663574219e+00 -6.132369041442871094e-01
2.464000000000000000e+03 2.945605850219726562e+01 3.012151908874511719e+01 8.174548745155334473e-01 6.409317016601562500e+00 2.168031692504882812e+00 3.085946083068847656e+00
2.465000000000000000e+03 2.894118499755859375e+01 2.945158004760742188e+01 6.763841509819030762e-01 5.752577304840087891e+00 1.928688526153564453e+00 2.777019023895263672e+00
2.466000000000000000e+03 2.952343559265136719e+01 2.795361328125000000e+01 4.580524936318397522e-02 6.557373046875000000e+00 1.980953574180603027e+00 2.430672883987426758e+00
2.467000000000000000e+03 3.086712837219238281e+01 2.808724021911621094e+01 -1.993636935949325562e-01 7.960008621215820312e+00 2.328193426132202148e+00 2.300568342208862305e+00
2.468000000000000000e+03 2.887979888916015625e+01 2.774689674377441406e+01 1.345420330762863159e-01 5.887696743011474609e+00 1.806671619415283203e+00 2.374390840530395508e+00
2.469000000000000000e+03 3.234517288208007812e+01 2.844853973388671875e+01 -3.707996308803558350e-01 9.311412811279296875e+00 2.682183980941772461e+00 1.781514406204223633e+00
2.470000000000000000e+03 3.051870727539062500e+01 2.919789314270019531e+01 1.137895584106445312e-01 7.798110961914062500e+00 2.373570203781127930e+00 2.642152070999145508e+00
2.471000000000000000e+03 3.093720245361328125e+01 2.654939651489257812e+01 -4.420168101787567139e-01 7.627846717834472656e+00 2.155748844146728516e+00 2.022222757339477539e+00
2.472000000000000000e+03 3.219339752197265625e+01 2.571763801574707031e+01 -6.544824242591857910e-01 8.258458137512207031e+00 2.281192779541015625e+00 1.591718196868896484e+00
2.473000000000000000e+03 3.304875564575195312e+01 2.668530464172363281e+01 -6.035052537918090820e-01 8.980948448181152344e+00 2.513232946395874023e+00 1.352039337158203125e+00
2.474000000000000000e+03 3.097841072082519531e+01 2.419942092895507812e+01 -6.271184682846069336e-01 7.281954288482666016e+00 1.996450662612915039e+00 1.723618149757385254e+00
2.475000000000000000e+03 3.509571838378906250e+01 2.093813705444335938e+01 -8.390119075775146484e-01 8.167682647705078125e+00 2.198601484298706055e+00 8.434323072433471680e-01
2.476000000000000000e+03 3.404652023315429688e+01 2.059326934814453125e+01 -8.336033821105957031e-01 7.878094196319580078e+00 2.113347291946411133e+00 1.037050366401672363e+00
2.477000000000000000e+03 3.458943939208984375e+01 -1.139541745185852051e+00 -2.255970239639282227e-01 6.634846687316894531e+00 1.922774910926818848e+00 3.276394605636596680e-01
2.478000000000000000e+03 3.324168395996093750e+01 2.755234527587890625e+01 -5.305220484733581543e-01 9.394992828369140625e+00 2.659341096878051758e+00 1.291629910469055176e+00
2.479000000000000000e+03 3.263500595092773438e+01 2.518927192687988281e+01 -7.111516594886779785e-01 8.323565483093261719e+00 2.283724308013916016e+00 1.445647239685058594e+00
2.480000000000000000e+03 6.748836517333984375e+01 -8.957530856132507324e-01 -1.074801981449127197e-01 7.882906913757324219e+00 2.332628011703491211e+00 -3.030556142330169678e-01
2.481000000000000000e+03 6.945999145507812500e+01 -2.620995521545410156e+00 -7.710313796997070312e-02 7.939234733581542969e+00 2.358639478683471680e+00 -2.556714117527008057e-01
2.482000000000000000e+03 3.616930007934570312e+01 1.176701486110687256e-02 -2.809594869613647461e-01 6.784889698028564453e+00 1.951179027557373047e+00 3.280673921108245850e-01
2.483000000000000000e+03 3.506223297119140625e+01 2.742156219482421875e+01 -3.775420486927032471e-01 9.894634246826171875e+00 2.855127811431884766e+00 5.939826369285583496e-01
2.484000000000000000e+03 3.414757156372070312e+01 2.748012351989746094e+01 -4.980444014072418213e-01 9.640105247497558594e+00 2.742618322372436523e+00 9.547059535980224609e-01
2.485000000000000000e+03 3.592931747436523438e+01 3.737502813339233398e+00 -3.472521007061004639e-01 6.860819816589355469e+00 1.954070210456848145e+00 4.244244694709777832e-01
2.486000000000000000e+03 3.620849609375000000e+01 1.062953090667724609e+01 -5.692771673202514648e-01 7.226179599761962891e+00 1.997070670127868652e+00 5.885347127914428711e-01
2.487000000000000000e+03 3.730002212524414062e+01 1.338484001159667969e+01 -6.860368251800537109e-01 7.562788486480712891e+00 2.063025474548339844e+00 5.541831254959106445e-01
2.488000000000000000e+03 3.643135452270507812e+01 1.693668365478515625e+01 -7.820395827293395996e-01 7.811388015747070312e+00 2.108804464340209961e+00 6.663963198661804199e-01
2.489000000000000000e+03 6.475072479248046875e+01 1.194344282150268555e+00 -1.528457701206207275e-01 7.840642452239990234e+00 2.306339025497436523e+00 -3.521628975868225098e-01
2.490000000000000000e+03 6.595500946044921875e+01 1.770015358924865723e+00 -1.341788917779922485e-01 7.847569465637207031e+00 2.314017295837402344e+00 -3.563517928123474121e-01
2.491000000000000000e+03 3.776513290405273438e+01 1.688568878173828125e+01 -7.675113677978515625e-01 7.991107940673828125e+00 2.167078971862792969e+00 5.005221366882324219e-01
2.492000000000000000e+03 3.527529525756835938e+01 1.981831550598144531e+01 -8.285081386566162109e-01 7.999218463897705078e+00 2.151212930679321289e+00 8.275000452995300293e-01
2.493000000000000000e+03 3.895487213134765625e+01 1.210207653045654297e+01 -6.600747704505920410e-01 7.654053688049316406e+00 2.098193645477294922e+00 4.073952734470367432e-01
2.494000000000000000e+03 3.593474960327148438e+01 2.484501600265502930e+00 -3.203794956207275391e-01 6.828603744506835938e+00 1.952467322349548340e+00 3.868967592716217041e-01
2.495000000000000000e+03 3.447194671630859375e+01 2.676738977432250977e+00 -2.795216143131256104e-01 6.689134597778320312e+00 1.922883868217468262e+00 4.285245835781097412e-01
2.496000000000000000e+03 3.614488983154296875e+01 5.002416133880615234e+00 -3.897892832756042480e-01 6.929030895233154297e+00 1.961772441864013672e+00 4.548279643058776855e-01
2.497000000000000000e+03 6.596188354492187500e+01 -3.060750246047973633e+00 -1.270951032638549805e-01 7.870891094207763672e+00 2.323138713836669922e+00 -2.857553660869598389e-01
2.498000000000000000e+03 6.854446411132812500e+01 -4.408292293548583984e+00 -8.147081732749938965e-02 7.939609527587890625e+00 2.357441663742065430e+00 -2.451529204845428467e-01
2.499000000000000000e+03 6.443556976318359375e+01 -5.182633876800537109e+00 -1.354099810123443604e-01 7.849737167358398438e+00 2.314298152923583984e+00 -2.595879435539245605e-01
2.500000000000000000e+03 3.458232498168945312e+01 -5.107276916503906250e+00 -1.747308224439620972e-01 6.578325748443603516e+00 1.921078443527221680e+00 2.499418854713439941e-01
2.501000000000000000e+03 6.334929275512695312e+01 -1.642483139038085938e+01 -8.724285662174224854e-02 7.822390079498291016e+00 2.320544242858886719e+00 -1.427461504936218262e-01
2.502000000000000000e+03 3.235724639892578125e+01 -1.098384952545166016e+01 -9.505669772624969482e-02 6.359964847564697266e+00 1.879472374916076660e+00 1.890826076269149780e-01
2.503000000000000000e+03 6.564607238769531250e+01 5.192209720611572266e+00 -1.468617916107177734e-01 7.820831298828125000e+00 2.302191019058227539e+00 -4.122274518013000488e-01
2.504000000000000000e+03 6.119897842407226562e+01 1.254533648490905762e+00 -2.121123075485229492e-01 7.810946941375732422e+00 2.279650449752807617e+00 -3.474534749984741211e-01
2.505000000000000000e+03 3.695972442626953125e+01 2.438183212280273438e+01 -6.468480825424194336e-01 9.130195617675781250e+00 2.545004367828369141e+00 3.344631791114807129e-01
2.506000000000000000e+03 3.345727539062500000e+01 2.222325325012207031e+01 -8.159079551696777344e-01 7.957073688507080078e+00 2.142349720001220703e+00 1.175770401954650879e+00
2.507000000000000000e+03 3.521772384643554688e+01 2.834906005859375000e+01 -2.720763683319091797e-01 1.019639492034912109e+01 2.977295398712158203e+00 4.207074046134948730e-01
2.508000000000000000e+03 3.370503997802734375e+01 2.528352546691894531e+01 -7.401797175407409668e-01 8.775267601013183594e+00 2.410526275634765625e+00 1.163124918937683105e+00
2.509000000000000000e+03 3.794989013671875000e+01 2.642631721496582031e+01 -2.789561152458190918e-01 9.544438362121582031e+00 2.779644727706909180e+00 -4.833051562309265137e-02
2.510000000000000000e+03 6.338844299316406250e+01 6.212192535400390625e+00 -1.829267442226409912e-01 7.825168609619140625e+00 2.292672634124755859e+00 -4.425255358219146729e-01
2.511000000000000000e+03 6.527564239501953125e+01 -1.253868579864501953e+00 -1.383543610572814941e-01 7.856593608856201172e+00 2.315471649169921875e+00 -3.122797608375549316e-01
2.512000000000000000e+03 6.723455047607421875e+01 1.995636558532714844e+01 -6.082250270992517471e-03 7.559916019439697266e+00 2.266150236129760742e+00 -5.641829967498779297e-01
2.513000000000000000e+03 6.558242797851562500e+01 2.032099151611328125e+01 2.499376714695245028e-04 7.619836330413818359e+00 2.286026000976562500e+00 -5.991927385330200195e-01
2.514000000000000000e+03 6.212670135498046875e+01 1.308886909484863281e+01 -1.605271995067596436e-01 7.828077793121337891e+00 2.300265073776245117e+00 -5.635735392570495605e-01
2.515000000000000000e+03 6.442874145507812500e+01 1.635808181762695312e+01 -7.941950112581253052e-02 7.735420227050781250e+00 2.296800374984741211e+00 -5.952320694923400879e-01
2.516000000000000000e+03 6.648952484130859375e+01 -1.902764201164245605e+00 -1.179698556661605835e-01 7.873682022094726562e+00 2.326713562011718750e+00 -2.980212271213531494e-01
2.517000000000000000e+03 4.115937423706054688e+01 2.485062789916992188e+01 -2.483190149068832397e-01 9.122984886169433594e+00 2.662400007247924805e+00 -3.306420743465423584e-01
2.518000000000000000e+03 4.502699661254882812e+01 3.603384780883789062e+01 1.441536903381347656e+00 9.095761299133300781e+00 3.161189556121826172e+00 -2.716079354286193848e-01
2.519000000000000000e+03 3.411240768432617188e+01 -1.504939746856689453e+01 -9.319620579481124878e-02 6.434935092926025391e+00 1.902521610260009766e+00 1.253308653831481934e-01
2.520000000000000000e+03 3.798153305053710938e+01 -8.449374198913574219e+00 -1.872200518846511841e-01 6.746415615081787109e+00 1.967758655548095703e+00 1.579049378633499146e-01
2.521000000000000000e+03 3.024402999877929688e+01 2.727858924865722656e+01 -2.027089595794677734e-01 7.162483215332031250e+00 2.087932348251342773e+00 2.278076410293579102e+00
2.522000000000000000e+03 3.020046806335449219e+01 2.868975639343261719e+01 6.912706047296524048e-02 7.374644756317138672e+00 2.233131408691406250e+00 2.592225790023803711e+00
2.523000000000000000e+03 3.020790863037109375e+01 2.968414688110351562e+01 3.470858335494995117e-01 7.539382457733154297e+00 2.365940570831298828e+00 2.888579845428466797e+00
2.524000000000000000e+03 3.077357673645019531e+01 2.872041702270507812e+01 -7.410855591297149658e-02 8.052862167358398438e+00 2.393625974655151367e+00 2.460911273956298828e+00
2.525000000000000000e+03 3.020160865783691406e+01 2.800849723815917969e+01 -6.954403221607208252e-02 7.256121158599853516e+00 2.155973196029663086e+00 2.454232454299926758e+00
2.526000000000000000e+03 3.164139747619628906e+01 2.746366119384765625e+01 -4.218004047870635986e-01 8.437638282775878906e+00 2.404751300811767578e+00 1.953763723373413086e+00
2.527000000000000000e+03 3.615446472167968750e+01 1.997756195068359375e+01 -8.177400827407836914e-01 8.210295677185058594e+00 2.217766761779785156e+00 6.644382476806640625e-01
2.528000000000000000e+03 3.613180923461914062e+01 2.121675872802734375e+01 -8.219755887985229492e-01 8.383922576904296875e+00 2.268584012985229492e+00 6.552594304084777832e-01
2.529000000000000000e+03 3.165302467346191406e+01 2.589406776428222656e+01 -5.838446617126464844e-01 7.999436855316162109e+00 2.224677801132202148e+00 1.766504287719726562e+00
2.530000000000000000e+03 3.260967254638671875e+01 2.616419792175292969e+01 -6.435909867286682129e-01 8.529158592224121094e+00 2.365670442581176758e+00 1.515001535415649414e+00
2.531000000000000000e+03 3.479998397827148438e+01 2.211672210693359375e+01 -8.386199474334716797e-01 8.322588920593261719e+00 2.245190620422363281e+00 9.022550582885742188e-01
2.532000000000000000e+03 3.309079360961914062e+01 2.561720657348632812e+01 -7.055266499519348145e-01 8.562772750854492188e+00 2.357173919677734375e+00 1.365255475044250488e+00
2.533000000000000000e+03 6.399441146850585938e+01 2.355852127075195312e+00 -1.669436544179916382e-01 7.833412647247314453e+00 2.299940586090087891e+00 -3.733721375465393066e-01
2.534000000000000000e+03 3.663566589355468750e+01 2.595544052124023438e+01 -4.844567477703094482e-01 9.486237525939941406e+00 2.700534343719482422e+00 2.651917636394500732e-01
2.535000000000000000e+03 3.517495346069335938e+01 2.654276847839355469e+01 -5.753986239433288574e-01 9.505999565124511719e+00 2.679180383682250977e+00 6.768901348114013672e-01
2.536000000000000000e+03 3.733098983764648438e+01 2.396754741668701172e+00 -3.526624143123626709e-01 6.953943729400634766e+00 1.980384469032287598e+00 3.511985540390014648e-01
2.537000000000000000e+03 3.711827850341796875e+01 1.987604713439941406e+01 -8.098587989807128906e-01 8.321749687194824219e+00 2.253567457199096680e+00 5.356417894363403320e-01
2.538000000000000000e+03 3.768639755249023438e+01 1.553042888641357422e+01 -7.500605583190917969e-01 7.830433845520019531e+00 2.124111890792846680e+00 5.234903097152709961e-01
2.539000000000000000e+03 3.724583053588867188e+01 1.169049644470214844e+01 -6.232683062553405762e-01 7.414883136749267578e+00 2.037484407424926758e+00 5.356441736221313477e-01
2.540000000000000000e+03 3.585613632202148438e+01 1.343787670135498047e+01 -6.705776453018188477e-01 7.388109207153320312e+00 2.015259504318237305e+00 6.803963780403137207e-01
2.541000000000000000e+03 3.664915466308593750e+01 6.255303859710693359e+00 -4.328004717826843262e-01 7.036185264587402344e+00 1.981015443801879883e+00 4.565520584583282471e-01
2.542000000000000000e+03 3.806084060668945312e+01 1.093725299835205078e+01 -6.099219918251037598e-01 7.459005355834960938e+00 2.054725170135498047e+00 4.686321914196014404e-01
2.543000000000000000e+03 3.750706863403320312e+01 7.505804538726806641e+00 -4.892023503780364990e-01 7.179276943206787109e+00 2.007022380828857422e+00 4.409078657627105713e-01
2.544000000000000000e+03 3.514851379394531250e+01 6.966364383697509766e+00 -4.143513143062591553e-01 6.896562099456787109e+00 1.944663166999816895e+00 5.462917685508728027e-01
2.545000000000000000e+03 3.769021224975585938e+01 -2.606428623199462891e+00 -2.609388828277587891e-01 6.843065738677978516e+00 1.974637985229492188e+00 2.371179014444351196e-01
2.546000000000000000e+03 6.504405975341796875e+01 -2.719827413558959961e+00 -1.360648572444915771e-01 7.857491970062255859e+00 2.316428184509277344e+00 -2.900240123271942139e-01
2.547000000000000000e+03 6.589583587646484375e+01 -5.546877861022949219e+00 -1.132807731628417969e-01 7.885605335235595703e+00 2.331697463989257812e+00 -2.491148561239242554e-01
2.548000000000000000e+03 3.602981567382812500e+01 8.412060737609863281e+00 -4.837015867233276367e-01 7.058610916137695312e+00 1.972472786903381348e+00 5.498253703117370605e-01
2.549000000000000000e+03 3.964664077758789062e+01 2.134325218200683594e+01 -6.548500657081604004e-01 8.722290039062500000e+00 2.420231819152832031e+00 1.101081296801567078e-01
2.550000000000000000e+03 6.573037719726562500e+01 3.344118297100067139e-01 -1.388261169195175171e-01 7.854468345642089844e+00 2.314692735671997070e+00 -3.323645591735839844e-01
2.551000000000000000e+03 6.382055664062500000e+01 -1.301233530044555664e+00 -1.610197424888610840e-01 7.834200382232666016e+00 2.301954269409179688e+00 -3.159090876579284668e-01
2.552000000000000000e+03 6.408322143554687500e+01 -2.877040863037109375e+00 -1.452138870954513550e-01 7.841877460479736328e+00 2.308999061584472656e+00 -2.896323502063751221e-01
2.553000000000000000e+03 6.385788345336914062e+01 -1.489089107513427734e+01 -9.643061459064483643e-02 7.836851596832275391e+00 2.322126388549804688e+00 -1.554305255413055420e-01
2.554000000000000000e+03 6.416411590576171875e+01 9.104428291320800781e+00 -1.661024540662765503e-01 7.810755252838134766e+00 2.293395757675170898e+00 -4.892099797725677490e-01
2.555000000000000000e+03 6.506217956542968750e+01 1.812040710449218750e+01 -4.731300473213195801e-02 7.683387756347656250e+00 2.290822505950927734e+00 -5.988989472389221191e-01
2.556000000000000000e+03 6.226662445068359375e+01 2.088854026794433594e+01 4.611379001289606094e-03 7.761553764343261719e+00 2.329849481582641602e+00 -6.549926996231079102e-01
2.557000000000000000e+03 3.824625778198242188e+01 -1.271953964233398438e+01 -1.495711952447891235e-01 6.706607818603515625e+00 1.967110872268676758e+00 1.085520982742309570e-01
2.558000000000000000e+03 3.971431350708007812e+01 2.304689407348632812e+01 -5.477755665779113770e-01 8.949395179748535156e+00 2.520485877990722656e+00 -1.915586926043033600e-02
2.559000000000000000e+03 3.945760726928710938e+01 2.661384773254394531e+01 -8.994702249765396118e-02 9.449876785278320312e+00 2.807978868484497070e+00 -3.036324083805084229e-01
2.560000000000000000e+03 3.166622734069824219e+01 2.664766693115234375e+01 -5.263090133666992188e-01 8.202383995056152344e+00 2.302822589874267578e+00 1.842420339584350586e+00
2.561000000000000000e+03 3.157156181335449219e+01 2.824806213378906250e+01 -3.074666261672973633e-01 8.636700630187988281e+00 2.498770236968994141e+00 2.092196464538574219e+00
2.562000000000000000e+03 3.237790298461914062e+01 2.676936721801757812e+01 -5.747178196907043457e-01 8.687390327453613281e+00 2.433801889419555664e+00 1.619887113571166992e+00
2.563000000000000000e+03 3.454164505004882812e+01 2.529019165039062500e+01 -7.215156555175781250e-01 8.967288970947265625e+00 2.473731994628906250e+00 9.016425013542175293e-01
2.564000000000000000e+03 3.721928787231445312e+01 2.133220100402832031e+01 -7.899793386459350586e-01 8.567078590393066406e+00 2.333129882812500000e+00 4.782241582870483398e-01
2.565000000000000000e+03 3.824913787841796875e+01 2.464901542663574219e+01 -5.153243541717529297e-01 9.192676544189453125e+00 2.603205442428588867e+00 7.295282185077667236e-02
2.566000000000000000e+03 3.779866790771484375e+01 1.162385463714599609e+00 -3.370625078678131104e-01 6.954310417175292969e+00 1.985174298286437988e+00 3.049391806125640869e-01
2.567000000000000000e+03 3.789219284057617188e+01 5.508201599121093750e+00 -4.378386139869689941e-01 7.113409996032714844e+00 2.002671480178833008e+00 3.877781331539154053e-01
2.568000000000000000e+03 3.590821838378906250e+01 2.259981536865234375e+01 -8.037334680557250977e-01 8.623370170593261719e+00 2.345890998840332031e+00 6.671615242958068848e-01
2.569000000000000000e+03 3.970311737060546875e+01 1.148144626617431641e+01 -6.292920112609863281e-01 7.660686492919921875e+00 2.109418392181396484e+00 3.345206081867218018e-01
2.570000000000000000e+03 3.877918624877929688e+01 1.411447715759277344e+01 -7.221060991287231445e-01 7.801465988159179688e+00 2.123807907104492188e+00 4.282341897487640381e-01
2.571000000000000000e+03 3.454220962524414062e+01 2.407539939880371094e+01 -7.911993265151977539e-01 8.678580284118652344e+00 2.366214275360107422e+00 9.387280344963073730e-01
2.572000000000000000e+03 3.667376708984375000e+01 1.417373371124267578e+01 -7.031071186065673828e-01 7.550991058349609375e+00 2.054365158081054688e+00 6.234557628631591797e-01
2.573000000000000000e+03 3.798562622070312500e+01 1.831200218200683594e+01 -7.884156703948974609e-01 8.181933403015136719e+00 2.218055248260498047e+00 4.481216073036193848e-01
2.574000000000000000e+03 3.736405944824218750e+01 4.542778968811035156e+00 -4.039789736270904541e-01 7.026091575622558594e+00 1.986633777618408203e+00 3.933112323284149170e-01
2.575000000000000000e+03 3.713385009765625000e+01 9.689128875732421875e+00 -5.557613968849182129e-01 7.262269496917724609e+00 2.011952400207519531e+00 5.168096423149108887e-01
2.576000000000000000e+03 3.921316146850585938e+01 1.820614814758300781e+01 -7.565839290618896484e-01 8.290108680725097656e+00 2.260057449340820312e+00 3.100300729274749756e-01
2.577000000000000000e+03 3.818932723999023438e+01 1.282121276855468750e+01 -6.739026308059692383e-01 7.629157543182373047e+00 2.086576461791992188e+00 4.688044190406799316e-01
2.578000000000000000e+03 3.766811370849609375e+01 1.434029674530029297e+01 -7.209950089454650879e-01 7.700993061065673828e+00 2.093999385833740234e+00 5.353752374649047852e-01
2.579000000000000000e+03 6.255852508544921875e+01 -6.218045711517333984e+00 -1.515765339136123657e-01 7.807383060455322266e+00 2.296741962432861328e+00 -2.457367479801177979e-01
2.580000000000000000e+03 6.408058929443359375e+01 -6.929574966430664062e+00 -1.302237361669540405e-01 7.841200828552246094e+00 2.313292980194091797e+00 -2.372646480798721313e-01
2.581000000000000000e+03 6.236496734619140625e+01 7.145612239837646484e+00 -2.005764394998550415e-01 7.829629421234130859e+00 2.288715839385986328e+00 -4.583777487277984619e-01
2.582000000000000000e+03 6.454984283447265625e+01 6.731347560882568359e+00 -1.640565693378448486e-01 7.814889907836914062e+00 2.295249938964843750e+00 -4.474077820777893066e-01
2.583000000000000000e+03 6.338398361206054688e+01 2.803636193275451660e-01 -1.761199831962585449e-01 7.831685066223144531e+00 2.296669483184814453e+00 -3.382371366024017334e-01
2.584000000000000000e+03 6.394054794311523438e+01 -8.689927101135253906e+00 -1.241429299116134644e-01 7.837921619415283203e+00 2.314133644104003906e+00 -2.183002978563308716e-01
2.585000000000000000e+03 3.596183776855468750e+01 2.705789947509765625e+01 -3.605316579341888428e-01 9.798873901367187500e+00 2.831502676010131836e+00 3.067838847637176514e-01
2.586000000000000000e+03 3.552445220947265625e+01 2.546729660034179688e+01 -6.743416190147399902e-01 9.253806114196777344e+00 2.573839426040649414e+00 6.440310478210449219e-01
2.587000000000000000e+03 3.570881652832031250e+01 2.407964897155761719e+01 -7.470518350601196289e-01 8.912216186523437500e+00 2.449549198150634766e+00 6.659088730812072754e-01
2.588000000000000000e+03 3.609811782836914062e+01 -5.180276870727539062e+00 -2.022979855537414551e-01 6.685104370117187500e+00 1.944841861724853516e+00 2.262718826532363892e-01
2.589000000000000000e+03 3.612327957153320312e+01 -3.773384571075439453e+00 -2.171398252248764038e-01 6.707316875457763672e+00 1.947053074836730957e+00 2.513199448585510254e-01
2.590000000000000000e+03 6.393974304199218750e+01 2.072674369812011719e+01 6.440137047320604324e-03 7.689770698547363281e+00 2.308863162994384766e+00 -6.308713555335998535e-01
2.591000000000000000e+03 6.207975387573242188e+01 1.705243492126464844e+01 -1.008387058973312378e-01 7.811828613281250000e+00 2.313297033309936523e+00 -6.266609430313110352e-01
2.592000000000000000e+03 6.263120651245117188e+01 1.566446685791015625e+01 -1.154874190688133240e-01 7.804600715637207031e+00 2.306734085083007812e+00 -6.026763916015625000e-01
2.593000000000000000e+03 3.841748046875000000e+01 2.573112487792968750e+00 -3.777195811271667480e-01 7.042758941650390625e+00 1.999511837959289551e+00 3.175979852676391602e-01
2.594000000000000000e+03 3.824140548706054688e+01 1.980122947692871094e+01 -7.755755186080932617e-01 8.417590141296386719e+00 2.292604446411132812e+00 3.876205682754516602e-01
2.595000000000000000e+03 3.838465118408203125e+01 2.298181343078613281e+01 -6.442533731460571289e-01 8.930261611938476562e+00 2.485802650451660156e+00 1.847292333841323853e-01
2.596000000000000000e+03 3.889933776855468750e+01 1.547124767303466797e+01 -7.266949415206909180e-01 7.942896842956542969e+00 2.164860486984252930e+00 3.945872485637664795e-01
2.597000000000000000e+03 4.073912429809570312e+01 1.955749702453613281e+01 -6.682141423225402832e-01 8.524115562438964844e+00 2.356770277023315430e+00 7.106637209653854370e-02
2.598000000000000000e+03 3.877766799926757812e+01 6.439191818237304688e+00 -4.816235899925231934e-01 7.247024536132812500e+00 2.029620170593261719e+00 3.583254218101501465e-01
2.599000000000000000e+03 4.021312713623046875e+01 1.405785846710205078e+01 -6.960738301277160645e-01 7.910727977752685547e+00 2.164396286010742188e+00 2.945293784141540527e-01
2.600000000000000000e+03 6.591802215576171875e+01 2.287379264831542969e+01 5.357802659273147583e-02 7.556915283203125000e+00 2.283147811889648438e+00 -5.863553881645202637e-01
2.601000000000000000e+03 6.235459899902343750e+01 2.319643402099609375e+01 8.035627752542495728e-02 7.722198009490966797e+00 2.340766191482543945e+00 -6.571705937385559082e-01
2.602000000000000000e+03 3.799073791503906250e+01 -1.799358576536178589e-01 -3.103100657463073730e-01 6.930368423461914062e+00 1.986017584800720215e+00 2.774327695369720459e-01
2.603000000000000000e+03 6.548754882812500000e+01 -1.159979343414306641e+01 -9.358025342226028442e-02 7.891822814941406250e+00 2.339472770690917969e+00 -1.842811256647109985e-01
2.604000000000000000e+03 6.119602966308593750e+01 -5.155263900756835938e+00 -1.771154552698135376e-01 7.774039745330810547e+00 2.279077291488647461e+00 -2.531908750534057617e-01
2.605000000000000000e+03 6.152385711669921875e+01 -7.486462593078613281e+00 -1.605579107999801636e-01 7.774954319000244141e+00 2.284318923950195312e+00 -2.254617214202880859e-01
2.606000000000000000e+03 6.279206085205078125e+01 1.635201692581176758e+00 -1.899039447307586670e-01 7.826473712921142578e+00 2.290971040725708008e+00 -3.613845407962799072e-01
2.607000000000000000e+03 6.622367858886718750e+01 1.326109218597412109e+01 -1.017304882407188416e-01 7.724795341491699219e+00 2.286919355392456055e+00 -5.301421284675598145e-01
2.608000000000000000e+03 6.206755447387695312e+01 9.357894897460937500e+00 -1.997055113315582275e-01 7.836091041564941406e+00 2.290915489196777344e+00 -4.987385869026184082e-01
2.609000000000000000e+03 6.320571517944335938e+01 8.284398078918457031e+00 -1.836472451686859131e-01 7.823948860168457031e+00 2.292090415954589844e+00 -4.755531549453735352e-01
2.610000000000000000e+03 6.271437835693359375e+01 -1.359613895416259766e+01 -1.077987626194953918e-01 7.799186229705810547e+00 2.307416200637817383e+00 -1.661188900470733643e-01
2.611000000000000000e+03 6.228330993652343750e+01 -9.184983253479003906e+00 -1.384349614381790161e-01 7.791941165924072266e+00 2.296051740646362305e+00 -2.101822346448898315e-01
2.612000000000000000e+03 4.116497802734375000e+01 2.302986335754394531e+01 -4.355281889438629150e-01 8.945809364318847656e+00 2.553084373474121094e+00 -1.952932626008987427e-01
2.613000000000000000e+03 3.963847732543945312e+01 2.479895401000976562e+01 -3.739324510097503662e-01 9.202749252319335938e+00 2.648645162582397461e+00 -1.477464735507965088e-01
2.614000000000000000e+03 3.838717269897460938e+01 2.136577224731445312e+01 -7.327946424484252930e-01 8.665311813354492188e+00 2.379755020141601562e+00 2.845084071159362793e-01
2.615000000000000000e+03 6.244011306762695312e+01 -1.825712323188781738e+00 -1.753069907426834106e-01 7.815177917480468750e+00 2.291961193084716797e+00 -3.062000870704650879e-01
2.616000000000000000e+03 6.194231033325195312e+01 -3.928554534912109375e+00 -1.736747175455093384e-01 7.796935558319091797e+00 2.286978244781494141e+00 -2.736244499683380127e-01
2.617000000000000000e+03 3.974096298217773438e+01 8.582224845886230469e+00 -5.545686483383178711e-01 7.442896366119384766e+00 2.066498279571533203e+00 3.300663232803344727e-01
2.618000000000000000e+03 3.900699996948242188e+01 1.032370471954345703e+01 -6.058250665664672852e-01 7.516055107116699219e+00 2.073069095611572266e+00 3.909045457839965820e-01
2.619000000000000000e+03 4.008745574951171875e+01 1.260528945922851562e+01 -6.819204092025756836e-01 7.787897586822509766e+00 2.131793260574340820e+00 3.203383088111877441e-01
2.620000000000000000e+03 4.151342773437500000e+01 1.228135204315185547e+01 -6.559439897537231445e-01 7.859469890594482422e+00 2.161057710647583008e+00 2.042246907949447632e-01
2.621000000000000000e+03 3.899156570434570312e+01 1.680527687072753906e+01 -7.535560727119445801e-01 8.112114906311035156e+00 2.207567691802978516e+00 3.538503050804138184e-01
2.622000000000000000e+03 4.018875122070312500e+01 3.894517183303833008e+00 -4.352226853370666504e-01 7.245945930480957031e+00 2.043216943740844727e+00 2.499625384807586670e-01
2.623000000000000000e+03 3.614342117309570312e+01 -2.475051403045654297e+00 -2.384441792964935303e-01 6.736238002777099609e+00 1.949338078498840332e+00 2.710484564304351807e-01
2.624000000000000000e+03 3.770422363281250000e+01 -1.402619361877441406e+00 -2.862017750740051270e-01 6.886345863342285156e+00 1.980043292045593262e+00 2.588946223258972168e-01
2.625000000000000000e+03 6.453002166748046875e+01 1.099103736877441406e+01 -1.469253897666931152e-01 7.788480758666992188e+00 2.292466640472412109e+00 -5.196156501770019531e-01
2.626000000000000000e+03 6.457224273681640625e+01 -1.018464469909667969e+01 -1.104384213685989380e-01 7.861597061157226562e+00 2.325347661972045898e+00 -1.965826302766799927e-01
2.627000000000000000e+03 4.277468490600585938e+01 2.292414093017578125e+01 -3.464102149009704590e-01 8.868295669555664062e+00 2.556565761566162109e+00 -3.515913188457489014e-01
2.628000000000000000e+03 6.157735443115234375e+01 -1.650852394104003906e+01 -1.028110608458518982e-01 7.752544403076171875e+00 2.294919967651367188e+00 -1.434297412633895874e-01
2.629000000000000000e+03 6.412784576416015625e+01 -1.249615287780761719e+01 -1.016379520297050476e-01 7.848143100738525391e+00 2.323951482772827148e+00 -1.766173988580703735e-01
2.630000000000000000e+03 6.046909332275390625e+01 2.542523384094238281e+01 1.862015426158905029e-01 7.821938991546630859e+00 2.402442216873168945e+00 -6.718220710754394531e-01
2.631000000000000000e+03 6.186400222778320312e+01 -3.107722699642181396e-01 -1.971658468246459961e-01 7.809522628784179688e+00 2.283707141876220703e+00 -3.253150880336761475e-01
2.632000000000000000e+03 6.050866699218750000e+01 -9.730433225631713867e-01 -2.110619097948074341e-01 7.789998054504394531e+00 2.273680925369262695e+00 -3.088845312595367432e-01
2.633000000000000000e+03 3.946125030517578125e+01 1.971534919738769531e+01 -7.330272197723388672e-01 8.489069938659667969e+00 2.326812744140625000e+00 2.166211009025573730e-01
2.634000000000000000e+03 5.933628082275390625e+01 -1.581914067268371582e+00 -2.269304096698760986e-01 7.766807556152343750e+00 2.261963129043579102e+00 -2.921737730503082275e-01
2.635000000000000000e+03 4.184664154052734375e+01 1.397322368621826172e+01 -6.700680851936340332e-01 8.007765769958496094e+00 2.201309204101562500e+00 1.470813602209091187e-01
2.636000000000000000e+03 4.014341735839843750e+01 1.548736286163330078e+01 -7.138454318046569824e-01 8.054767608642578125e+00 2.202276706695556641e+00 2.628083527088165283e-01
2.637000000000000000e+03 4.291874694824218750e+01 1.150071239471435547e+01 -6.231300234794616699e-01 7.877329349517822266e+00 2.176259756088256836e+00 1.091147214174270630e-01
2.638000000000000000e+03 4.072919845581054688e+01 5.767015457153320312e+00 -4.804612100124359131e-01 7.356034278869628906e+00 2.062671899795532227e+00 2.470527142286300659e-01
2.639000000000000000e+03 4.113767242431640625e+01 1.622690582275390625e+01 -7.032650113105773926e-01 8.191534042358398438e+00 2.246480703353881836e+00 1.531224101781845093e-01
2.640000000000000000e+03 4.105492782592773438e+01 8.730254173278808594e+00 -5.609683990478515625e-01 7.563841819763183594e+00 2.100862026214599609e+00 2.378008514642715454e-01
2.641000000000000000e+03 3.973707962036132812e+01 5.174900531768798828e+00 -4.587776660919189453e-01 7.267343044281005859e+00 2.042569637298583984e+00 2.844935655593872070e-01
2.642000000000000000e+03 3.879798126220703125e+01 4.721390724182128906e+00 -4.346576631069183350e-01 7.163679122924804688e+00 2.018706321716308594e+00 3.284399509429931641e-01
2.643000000000000000e+03 6.310171127319335938e+01 -4.707974433898925781e+00 -1.494405120611190796e-01 7.821786403656005859e+00 2.301703691482543945e+00 -2.637313306331634521e-01
2.644000000000000000e+03 6.300645828247070312e+01 -3.295701265335083008e+00 -1.614320576190948486e-01 7.822196960449218750e+00 2.298229455947875977e+00 -2.858922779560089111e-01
2.645000000000000000e+03 6.063590240478515625e+01 -1.027793121337890625e+01 -1.489551812410354614e-01 7.734555244445800781e+00 2.275680065155029297e+00 -1.927685737609863281e-01
2.646000000000000000e+03 6.316805648803710938e+01 -1.096047878265380859e+01 -1.165731847286224365e-01 7.817005157470703125e+00 2.310129642486572266e+00 -1.921079754829406738e-01
2.647000000000000000e+03 3.991887664794921875e+01 -9.061879515647888184e-01 -3.278574943542480469e-01 7.050135135650634766e+00 2.016683340072631836e+00 2.034107893705368042e-01
2.648000000000000000e+03 4.079115295410156250e+01 6.123440861701965332e-01 -3.646114766597747803e-01 7.154060363769531250e+00 2.036834716796875000e+00 1.962773352861404419e-01
2.649000000000000000e+03 4.378781890869140625e+01 2.065480804443359375e+01 -4.663611054420471191e-01 8.659197807312011719e+00 2.457850933074951172e+00 -2.890791594982147217e-01
2.650000000000000000e+03 6.127681350708007812e+01 1.084038734436035156e+01 -1.993723213672637939e-01 7.847924709320068359e+00 2.294565677642822266e+00 -5.232014656066894531e-01
2.651000000000000000e+03 6.101776885986328125e+01 2.975270032882690430e+00 -2.248430848121643066e-01 7.818832397460937500e+00 2.278196811676025391e+00 -3.787200748920440674e-01
2.652000000000000000e+03 6.350860214233398438e+01 4.284681320190429688e+00 -1.828715801239013672e-01 7.826781749725341797e+00 2.293173074722290039e+00 -4.070024192333221436e-01
2.653000000000000000e+03 4.099248123168945312e+01 2.124304199218750000e+01 -5.867378711700439453e-01 8.725557327270507812e+00 2.441645622253417969e+00 -5.826937407255172729e-02
2.654000000000000000e+03 6.027040481567382812e+01 -1.291718101501464844e+01 -1.353733688592910767e-01 7.711995124816894531e+00 2.272986650466918945e+00 -1.671229749917984009e-01
2.655000000000000000e+03 6.115983963012695312e+01 -1.456242275238037109e+01 -1.146143153309822083e-01 7.744590282440185547e+00 2.288992643356323242e+00 -1.538468450307846069e-01
2.656000000000000000e+03 4.204764556884765625e+01 1.929557609558105469e+01 -6.149057149887084961e-01 8.523119926452636719e+00 2.372464179992675781e+00 -6.040377169847488403e-02
2.657000000000000000e+03 4.334874343872070312e+01 2.999949836730957031e+01 8.619520664215087891e-01 9.178887367248535156e+00 3.012251853942871094e+00 -6.505890488624572754e-01
2.658000000000000000e+03 4.264913940429687500e+01 2.821700096130371094e+01 4.797376096248626709e-01 9.204854011535644531e+00 2.905377626419067383e+00 -6.259163022041320801e-01
2.659000000000000000e+03 5.969094085693359375e+01 -2.995977878570556641e+00 -2.107095271348953247e-01 7.763129234313964844e+00 2.265725851058959961e+00 -2.713884413242340088e-01
2.660000000000000000e+03 6.059066009521484375e+01 -6.396133422851562500e+00 -1.791868358850479126e-01 7.759568691253662109e+00 2.274114608764648438e+00 -2.339698225259780884e-01
2.661000000000000000e+03 4.499683761596679688e+01 1.556062030792236328e+01 -5.795443058013916016e-01 8.230180740356445312e+00 2.295191049575805664e+00 -1.504484117031097412e-01
2.662000000000000000e+03 5.966793441772460938e+01 4.590741991996765137e-01 -2.339876145124435425e-01 7.788915634155273438e+00 2.266478300094604492e+00 -3.263697624206542969e-01
2.663000000000000000e+03 6.112555313110351562e+01 -2.524259567260742188e+00 -1.921595484018325806e-01 7.787421226501464844e+00 2.278578519821166992e+00 -2.895686328411102295e-01
2.664000000000000000e+03 4.307614517211914062e+01 9.437364578247070312e+00 -5.893422365188598633e-01 7.758175849914550781e+00 2.150650024414062500e+00 1.213556379079818726e-01
2.665000000000000000e+03 4.426150894165039062e+01 1.285609436035156250e+01 -6.085484623908996582e-01 8.027206420898437500e+00 2.225597381591796875e+00 -2.035332284867763519e-02
2.666000000000000000e+03 3.897052764892578125e+01 -2.168618440628051758e+00 -2.872039377689361572e-01 6.935936450958251953e+00 1.994619727134704590e+00 2.094464451074600220e-01
2.667000000000000000e+03 6.277499389648437500e+01 2.934082269668579102e+00 -1.881618350744247437e-01 7.825789451599121094e+00 2.291288375854492188e+00 -3.846519589424133301e-01
2.668000000000000000e+03 6.115048217773437500e+01 4.598485469818115234e+00 -2.243192344903945923e-01 7.830420494079589844e+00 2.281830310821533203e+00 -4.082743525505065918e-01
2.669000000000000000e+03 6.084320449829101562e+01 1.252318191528320312e+01 -1.960455030202865601e-01 7.860307216644287109e+00 2.299278497695922852e+00 -5.581983327865600586e-01
2.670000000000000000e+03 3.756094741821289062e+01 -5.129270553588867188e+00 -2.179215401411056519e-01 6.772984027862548828e+00 1.966518759727478027e+00 1.998709887266159058e-01
2.671000000000000000e+03 5.682250213623046875e+01 -6.311399459838867188e+00 -2.186170667409896851e-01 7.655668735504150391e+00 2.231115579605102539e+00 -2.017294913530349731e-01
2.672000000000000000e+03 5.898815155029296875e+01 -1.387069034576416016e+01 -1.371162980794906616e-01 7.663249969482421875e+00 2.257840156555175781e+00 -1.520581245422363281e-01
2.673000000000000000e+03 6.164646911621093750e+01 -1.860761642456054688e+01 -9.189949929714202881e-02 7.753439426422119141e+00 2.298461914062500000e+00 -1.251986622810363770e-01
2.674000000000000000e+03 4.515452194213867188e+01 2.843557357788085938e+01 5.466899871826171875e-01 8.877613067626953125e+00 2.827291011810302734e+00 -6.953043937683105469e-01
2.675000000000000000e+03 4.253189086914062500e+01 2.666581726074218750e+01 1.505538970232009888e-01 9.142728805541992188e+00 2.787984848022460938e+00 -5.579068064689636230e-01
2.676000000000000000e+03 5.815929794311523438e+01 -3.042932987213134766e+00 -2.374392449855804443e-01 7.726722717285156250e+00 2.246784925460815430e+00 -2.555951476097106934e-01
2.677000000000000000e+03 5.955546188354492188e+01 4.928618431091308594e+00 -2.552688419818878174e-01 7.832055568695068359e+00 2.273036003112792969e+00 -4.017449319362640381e-01
2.678000000000000000e+03 4.147140121459960938e+01 -2.425191879272460938e+00 -3.159505426883697510e-01 7.101226329803466797e+00 2.035582780838012695e+00 1.436539739370346069e-01
2.679000000000000000e+03 3.763871002197265625e+01 -3.856481790542602539e+00 -2.444892525672912598e-01 6.817855358123779297e+00 1.972009897232055664e+00 2.174588739871978760e-01
2.680000000000000000e+03 5.971046066284179688e+01 -4.529308319091796875e+00 -2.011919766664505005e-01 7.752007007598876953e+00 2.265244483947753906e+00 -2.530496120452880859e-01
2.681000000000000000e+03 4.130637359619140625e+01 7.443491935729980469e+00 -5.354896187782287598e-01 7.508783817291259766e+00 2.091988325119018555e+00 2.234747707843780518e-01
2.682000000000000000e+03 4.220070648193359375e+01 1.010785198211669922e+01 -6.026172637939453125e-01 7.728747844696044922e+00 2.137839078903198242e+00 1.794914752244949341e-01
2.683000000000000000e+03 4.526285934448242188e+01 2.018597221374511719e+01 -3.943122625350952148e-01 8.568948745727539062e+00 2.452390909194946289e+00 -3.863615691661834717e-01
2.684000000000000000e+03 4.216867446899414062e+01 8.940835952758789062e+00 -5.711497664451599121e-01 7.641073226928710938e+00 2.120977163314819336e+00 1.829919964075088501e-01
2.685000000000000000e+03 4.427782440185546875e+01 2.241247177124023438e+01 -2.850868105888366699e-01 8.767663002014160156e+00 2.544772863388061523e+00 -4.371426999568939209e-01
2.686000000000000000e+03 4.168230819702148438e+01 1.767792701721191406e+01 -6.679050922393798828e-01 8.349845886230468750e+00 2.304582357406616211e+00 5.288586020469665527e-02
2.687000000000000000e+03 4.339749145507812500e+01 1.444514942169189453e+01 -6.338120102882385254e-01 8.119016647338867188e+00 2.245561361312866211e+00 4.404750186949968338e-03
2.688000000000000000e+03 4.302309036254882812e+01 1.721064567565917969e+01 -6.320009231567382812e-01 8.341872215270996094e+00 2.312961339950561523e+00 -5.499910935759544373e-02
2.689000000000000000e+03 4.328080749511718750e+01 1.785748839378356934e+00 -4.096179008483886719e-01 7.352821350097656250e+00 2.082961082458496094e+00 1.109090000391006470e-01
2.690000000000000000e+03 4.124686431884765625e+01 -5.421698093414306641e+00 -2.635770440101623535e-01 7.014602661132812500e+00 2.025307655334472656e+00 1.165734082460403442e-01
2.691000000000000000e+03 6.149563980102539062e+01 5.927332878112792969e+00 -2.225361764430999756e-01 7.835526466369628906e+00 2.283897161483764648e+00 -4.358260333538055420e-01
2.692000000000000000e+03 4.542108154296875000e+01 2.366159248352050781e+01 -1.031765043735504150e-01 8.742983818054199219e+00 2.591942071914672852e+00 -5.546922087669372559e-01
2.693000000000000000e+03 6.502743530273437500e+01 1.414295959472656250e+01 -1.068073809146881104e-01 7.742859363555908203e+00 2.290815591812133789e+00 -5.585252046585083008e-01
2.694000000000000000e+03 6.338311386108398438e+01 1.333703899383544922e+01 -1.438151448965072632e-01 7.797265529632568359e+00 2.296035051345825195e+00 -5.628547668457031250e-01
2.695000000000000000e+03 5.617579269409179688e+01 1.013716316223144531e+01 -3.153792917728424072e-01 7.929690361022949219e+00 2.284293413162231445e+00 -4.633202552795410156e-01
2.696000000000000000e+03 5.910708999633789062e+01 1.342559719085693359e+01 -2.112436145544052124e-01 7.905974864959716797e+00 2.308419466018676758e+00 -5.736099481582641602e-01
2.697000000000000000e+03 5.962252426147460938e+01 -1.511525344848632812e+01 -1.249013245105743408e-01 7.679742813110351562e+00 2.266452550888061523e+00 -1.468507349491119385e-01
2.698000000000000000e+03 5.533090972900390625e+01 -2.598023891448974609e+00 -2.711808681488037109e-01 7.669836521148681641e+00 2.219596624374389648e+00 -2.222738564014434814e-01
2.699000000000000000e+03 5.669840621948242188e+01 -2.920834541320800781e+00 -2.553036510944366455e-01 7.694006443023681641e+00 2.231610774993896484e+00 -2.352367788553237915e-01
2.700000000000000000e+03 5.739412307739257812e+01 2.590867877006530762e-02 -2.634922862052917480e-01 7.753804206848144531e+00 2.247093439102172852e+00 -2.911188304424285889e-01
2.701000000000000000e+03 5.863241195678710938e+01 -6.042786836624145508e-01 -2.469985038042068481e-01 7.765785217285156250e+00 2.255635976791381836e+00 -2.968555092811584473e-01
2.702000000000000000e+03 4.253860855102539062e+01 7.782609462738037109e+00 -5.459142327308654785e-01 7.610938072204589844e+00 2.119507074356079102e+00 1.615950763225555420e-01
2.703000000000000000e+03 4.403481292724609375e+01 1.035808467864990234e+01 -5.815638303756713867e-01 7.852709293365478516e+00 2.181343793869018555e+00 3.317971155047416687e-02
2.704000000000000000e+03 3.881410217285156250e+01 -4.612047672271728516e+00 -2.473002076148986816e-01 6.872930526733398438e+00 1.987689018249511719e+00 1.822539120912551880e-01
2.705000000000000000e+03 3.608245849609375000e+01 -6.778363704681396484e+00 -1.795929223299026489e-01 6.650021553039550781e+00 1.941128492355346680e+00 2.034343928098678589e-01
2.706000000000000000e+03 5.566433715820312500e+01 -1.841896629333496094e+01 -1.342155933380126953e-01 7.506914138793945312e+00 2.211809635162353516e+00 -1.045503839850425720e-01
2.707000000000000000e+03 4.173625564575195312e+01 6.230412483215332031e+00 -5.076009035110473633e-01 7.469894886016845703e+00 2.088688373565673828e+00 2.051490545272827148e-01
2.708000000000000000e+03 4.234484100341796875e+01 1.556778049468994141e+01 -6.626590490341186523e-01 8.180905342102050781e+00 2.255473852157592773e+00 5.903591588139533997e-02
2.709000000000000000e+03 4.446888351440429688e+01 1.714601516723632812e+01 -5.734326243400573730e-01 8.339371681213378906e+00 2.329781532287597656e+00 -1.617106497287750244e-01
2.710000000000000000e+03 6.016443252563476562e+01 6.535986900329589844e+00 -2.439515888690948486e-01 7.846047401428222656e+00 2.280628681182861328e+00 -4.396455585956573486e-01
2.711000000000000000e+03 5.906192398071289062e+01 3.201043367385864258e+00 -2.581490576267242432e-01 7.812614917755126953e+00 2.266339778900146484e+00 -3.646014630794525146e-01
2.712000000000000000e+03 4.420092773437500000e+01 -7.006391882896423340e-01 -3.670705556869506836e-01 7.332185268402099609e+00 2.089534282684326172e+00 6.477378308773040771e-02
2.713000000000000000e+03 4.008739089965820312e+01 -3.621096134185791016e+00 -2.803086042404174805e-01 6.979822635650634766e+00 2.009854316711425781e+00 1.737545430660247803e-01
2.714000000000000000e+03 4.276474761962890625e+01 -4.191456794738769531e+00 -2.934743762016296387e-01 7.128777027130126953e+00 2.050590753555297852e+00 9.071655571460723877e-02
2.715000000000000000e+03 6.019583129882812500e+01 1.415371036529541016e+01 -1.789783090353012085e-01 7.877094268798828125e+00 2.309434890747070312e+00 -5.830714702606201172e-01
2.716000000000000000e+03 6.096525573730468750e+01 8.103288650512695312e+00 -2.253015637397766113e-01 7.847642898559570312e+00 2.286702394485473633e+00 -4.746818840503692627e-01
2.717000000000000000e+03 5.711814117431640625e+01 7.861387252807617188e+00 -3.014620244503021240e-01 7.878806591033935547e+00 2.273203372955322266e+00 -4.309320151805877686e-01
2.718000000000000000e+03 6.066189193725585938e+01 1.668778038024902344e+01 -1.189788505434989929e-01 7.865275382995605469e+00 2.323889017105102539e+00 -6.283593177795410156e-01
2.719000000000000000e+03 5.474809265136718750e+01 1.081557369232177734e+01 -3.435409367084503174e-01 7.956567764282226562e+00 2.283908128738403320e+00 -4.472251832485198975e-01
2.720000000000000000e+03 5.824800872802734375e+01 -5.788093566894531250e+00 -2.056458890438079834e-01 7.700924873352050781e+00 2.248583555221557617e+00 -2.253014445304870605e-01
2.721000000000000000e+03 3.998918151855468750e+01 7.103320121765136719e+00 -5.137559771537780762e-01 7.374981403350830078e+00 2.058367729187011719e+00 3.063628673553466797e-01
2.722000000000000000e+03 4.369875717163085938e+01 8.292444229125976562e+00 -5.566930174827575684e-01 7.712082862854003906e+00 2.146616935729980469e+00 8.541532605886459351e-02
2.723000000000000000e+03 4.527291870117187500e+01 1.137222957611083984e+01 -5.718029141426086426e-01 7.946255683898925781e+00 2.212335824966430664e+00 -5.214552581310272217e-02
2.724000000000000000e+03 4.574036788940429688e+01 1.796780014038085938e+01 -4.896840155124664307e-01 8.384256362915039062e+00 2.368371725082397461e+00 -3.047066330909729004e-01
2.725000000000000000e+03 4.886339950561523438e+01 1.138742446899414062e+01 -4.901814162731170654e-01 8.011873245239257812e+00 2.256507635116577148e+00 -2.601107060909271240e-01
2.726000000000000000e+03 4.142493057250976562e+01 2.161663293838500977e+00 -4.076356589794158936e-01 7.256899833679199219e+00 2.054779291152954102e+00 1.871193051338195801e-01
2.727000000000000000e+03 4.386881256103515625e+01 -2.872467041015625000e+00 -3.238455653190612793e-01 7.226781845092773438e+00 2.070880889892578125e+00 7.254522293806076050e-02
2.728000000000000000e+03 4.499707794189453125e+01 -2.133565664291381836e+00 -3.420568406581878662e-01 7.323260784149169922e+00 2.094361305236816406e+00 3.618604689836502075e-02
2.729000000000000000e+03 4.562312316894531250e+01 1.928486116230487823e-02 -3.766478896141052246e-01 7.413747787475585938e+00 2.111129999160766602e+00 1.859339885413646698e-02
2.730000000000000000e+03 4.336985778808593750e+01 3.503976106643676758e+00 -4.488625526428222656e-01 7.437118530273437500e+00 2.096476793289184570e+00 1.109197437763214111e-01
2.731000000000000000e+03 4.571308135986328125e+01 2.193024826049804688e+01 -2.588820457458496094e-01 8.626154899597167969e+00 2.510181903839111328e+00 -4.851034879684448242e-01
2.732000000000000000e+03 3.949982070922851562e+01 -6.187025070190429688e+00 -2.307661026716232300e-01 6.883626461029052734e+00 1.995858073234558105e+00 1.550047993659973145e-01
2.733000000000000000e+03 3.326486206054687500e+01 -9.349665641784667969e+00 -1.189157292246818542e-01 6.423165798187255859e+00 1.891274929046630859e+00 2.051723152399063110e-01
2.734000000000000000e+03 3.616931152343750000e+01 -8.568340301513671875e+00 -1.652773618698120117e-01 6.633733749389648438e+00 1.940536856651306152e+00 1.759122759103775024e-01
2.735000000000000000e+03 6.147360229492187500e+01 1.483124256134033203e+01 -1.554241478443145752e-01 7.842616558074951172e+00 2.306157588958740234e+00 -5.956493616104125977e-01
2.736000000000000000e+03 5.961942672729492188e+01 1.216722202301025391e+01 -2.145611494779586792e-01 7.884407043457031250e+00 2.300953865051269531e+00 -5.478014945983886719e-01
2.737000000000000000e+03 5.803733444213867188e+01 1.461276435852050781e+01 -2.103325724601745605e-01 7.944109916687011719e+00 2.320133209228515625e+00 -5.865682363510131836e-01
2.738000000000000000e+03 6.362874603271484375e+01 -2.041725158691406250e+01 -7.411603629589080811e-02 7.834741115570068359e+00 2.328187465667724609e+00 -1.168973669409751892e-01
2.739000000000000000e+03 6.411072540283203125e+01 -2.240915107727050781e+01 -6.427407264709472656e-02 7.859246730804443359e+00 2.338491916656494141e+00 -1.037481799721717834e-01
2.740000000000000000e+03 5.575426864624023438e+01 4.850084185600280762e-01 -2.941004037857055664e-01 7.733095645904541016e+00 2.231698513031005859e+00 -2.694277465343475342e-01
2.741000000000000000e+03 5.782415390014648438e+01 -1.285456085205078125e+01 -1.545290499925613403e-01 7.626381874084472656e+00 2.241555929183959961e+00 -1.545523852109909058e-01
2.742000000000000000e+03 5.792426300048828125e+01 -1.675120162963867188e+01 -1.295874863862991333e-01 7.607434272766113281e+00 2.243354082107543945e+00 -1.274233162403106689e-01
2.743000000000000000e+03 5.774819564819335938e+01 -1.871154022216796875e+01 -1.173901781439781189e-01 7.595404624938964844e+00 2.243404388427734375e+00 -1.131948903203010559e-01
2.744000000000000000e+03 5.974996185302734375e+01 -1.876636314392089844e+01 -1.063873991370201111e-01 7.674503803253173828e+00 2.270434856414794922e+00 -1.213709190487861633e-01
2.745000000000000000e+03 4.747601699829101562e+01 1.503672027587890625e+01 -4.975808560848236084e-01 8.210812568664550781e+00 2.313969612121582031e+00 -2.976832985877990723e-01
2.746000000000000000e+03 5.564030456542968750e+01 8.551857948303222656e+00 -3.347400128841400146e-01 7.900689125061035156e+00 2.269784688949584961e+00 -4.167332053184509277e-01
2.747000000000000000e+03 5.844980239868164062e+01 1.241626739501953125e+01 -2.391467392444610596e-01 7.916411399841308594e+00 2.303179502487182617e+00 -5.456342101097106934e-01
2.748000000000000000e+03 3.613483428955078125e+01 -1.054579162597656250e+01 -1.432344913482666016e-01 6.599858760833740234e+00 1.936987280845642090e+00 1.527033597230911255e-01
2.749000000000000000e+03 4.958673477172851562e+01 2.193786048889160156e+01 -1.201549619436264038e-01 8.429486274719238281e+00 2.492799282073974609e+00 -6.282904148101806641e-01
2.750000000000000000e+03 5.721125793457031250e+01 1.321280097961425781e+01 -2.543874680995941162e-01 7.954969882965087891e+00 2.310174703598022461e+00 -5.510120391845703125e-01
2.751000000000000000e+03 4.297443771362304688e+01 6.491446018218994141e+00 -5.173017978668212891e-01 7.562462329864501953e+00 2.113548278808593750e+00 1.353729963302612305e-01
2.752000000000000000e+03 4.554386520385742188e+01 7.527758598327636719e+00 -5.232783555984497070e-01 7.743879318237304688e+00 2.166180133819580078e+00 -1.361213810741901398e-02
2.753000000000000000e+03 4.485881042480468750e+01 9.014511108398437500e+00 -5.521461367607116699e-01 7.800447463989257812e+00 2.174490451812744141e+00 7.074294146150350571e-03
2.754000000000000000e+03 5.174798202514648438e+01 1.026628971099853516e+01 -4.183753132820129395e-01 7.964535236358642578e+00 2.263848066329956055e+00 -3.481150567531585693e-01
2.755000000000000000e+03 4.824524307250976562e+01 1.323803234100341797e+01 -4.952012896537780762e-01 8.101052284240722656e+00 2.281755208969116211e+00 -2.789372801780700684e-01
2.756000000000000000e+03 4.531008911132812500e+01 1.795423865318298340e+00 -4.161348640918731689e-01 7.459681987762451172e+00 2.113064050674438477e+00 2.909729443490505219e-02
2.757000000000000000e+03 4.754864501953125000e+01 6.633321762084960938e+00 -4.832230806350708008e-01 7.756388664245605469e+00 2.181949615478515625e+00 -9.900738298892974854e-02
2.758000000000000000e+03 5.693662261962890625e+01 -1.418573379516601562e+00 -2.657369673252105713e-01 7.726318359375000000e+00 2.238174438476562500e+00 -2.622851729393005371e-01
2.759000000000000000e+03 5.647732925415039062e+01 -4.591061115264892578e+00 -2.396602928638458252e-01 7.663167476654052734e+00 2.227052211761474609e+00 -2.160461992025375366e-01
2.760000000000000000e+03 5.879373550415039062e+01 1.906121253967285156e+01 -8.354209363460540771e-02 7.934735298156738281e+00 2.355358123779296875e+00 -6.707303524017333984e-01
2.761000000000000000e+03 5.663190078735351562e+01 1.583333778381347656e+01 -2.093389779329299927e-01 7.995710849761962891e+00 2.335911512374877930e+00 -6.035352349281311035e-01
2.762000000000000000e+03 5.810887527465820312e+01 1.102288341522216797e+01 -2.635364234447479248e-01 7.912190437316894531e+00 2.294596195220947266e+00 -5.123412609100341797e-01
2.763000000000000000e+03 6.446774291992187500e+01 1.289181327819824219e+01 -1.282531917095184326e-01 7.771792411804199219e+00 2.293061733245849609e+00 -5.489236712455749512e-01
2.764000000000000000e+03 6.563848876953125000e+01 1.558555984497070312e+01 -8.121317625045776367e-02 7.706458091735839844e+00 2.287573575973510742e+00 -5.721538066864013672e-01
2.765000000000000000e+03 5.652130126953125000e+01 2.184367656707763672e+00 -2.978656589984893799e-01 7.777117252349853516e+00 2.243775367736816406e+00 -3.113088309764862061e-01
2.766000000000000000e+03 6.044443893432617188e+01 1.874812889099121094e+01 -8.176947385072708130e-02 7.867984294891357422e+00 2.335864305496215820e+00 -6.550291180610656738e-01
2.767000000000000000e+03 4.744104766845703125e+01 1.065801715850830078e+01 -5.190837979316711426e-01 7.954247951507568359e+00 2.230549097061157227e+00 -1.668557822704315186e-01
2.768000000000000000e+03 5.426191711425781250e+01 9.233211517333984375e+00 -3.627229630947113037e-01 7.924719333648681641e+00 2.268599033355712891e+00 -4.010594487190246582e-01
2.769000000000000000e+03 5.607316589355468750e+01 1.898108291625976562e+01 -1.227035075426101685e-01 8.051626205444335938e+00 2.378676652908325195e+00 -6.617111563682556152e-01
2.770000000000000000e+03 4.477241516113281250e+01 5.352056026458740234e+00 -4.852914214134216309e-01 7.596644878387451172e+00 2.133406162261962891e+00 4.108817130327224731e-02
2.771000000000000000e+03 3.914123535156250000e+01 3.918370723724365234e+00 -4.190708100795745850e-01 7.161269187927246094e+00 2.022659540176391602e+00 2.970526218414306641e-01
2.772000000000000000e+03 4.679512786865234375e+01 8.262902259826660156e+00 -5.125414133071899414e-01 7.816881179809570312e+00 2.191301822662353516e+00 -8.765935897827148438e-02
2.773000000000000000e+03 5.523540115356445312e+01 1.243288707733154297e+01 -3.175116479396820068e-01 7.989867687225341797e+00 2.301706790924072266e+00 -4.964926242828369141e-01
2.774000000000000000e+03 4.515163040161132812e+01 3.624704360961914062e+00 -4.477487802505493164e-01 7.524580478668212891e+00 2.123049497604370117e+00 3.607736527919769287e-02
2.775000000000000000e+03 4.466094207763671875e+01 1.863875389099121094e+01 -5.189162492752075195e-01 8.470697402954101562e+00 2.385534286499023438e+00 -2.491310238838195801e-01
2.776000000000000000e+03 4.609863281250000000e+01 9.839535713195800781e+00 -5.414740443229675293e-01 7.884416580200195312e+00 2.202882766723632812e+00 -7.785914093255996704e-02
2.777000000000000000e+03 5.088709640502929688e+01 1.699294853210449219e+01 -3.308180570602416992e-01 8.213545799255371094e+00 2.364818096160888672e+00 -5.104669928550720215e-01
2.778000000000000000e+03 5.889570617675781250e+01 -6.811991691589355469e+00 -1.931726783514022827e-01 7.707678794860839844e+00 2.254351854324340820e+00 -2.167670726776123047e-01
2.779000000000000000e+03 4.623261642456054688e+01 -1.211846160888671875e+01 -1.987160742282867432e-01 7.147745609283447266e+00 2.084708929061889648e+00 -1.682526431977748871e-02
2.780000000000000000e+03 3.990453720092773438e+01 -8.086720466613769531e+00 -2.148445993661880493e-01 6.867057800292968750e+00 1.995664000511169434e+00 1.246668994426727295e-01
2.781000000000000000e+03 5.642523574829101562e+01 6.207541942596435547e+00 -3.188239634037017822e-01 7.850604534149169922e+00 2.259534120559692383e+00 -3.821035623550415039e-01
2.782000000000000000e+03 6.372865295410156250e+01 1.206861877441406250e+01 -1.467367112636566162e-01 7.799098491668701172e+00 2.295708417892456055e+00 -5.404344797134399414e-01
2.783000000000000000e+03 3.616820907592773438e+01 -1.393125438690185547e+01 -1.227071508765220642e-01 6.561250686645507812e+00 1.931563019752502441e+00 1.146482601761817932e-01
2.784000000000000000e+03 5.581995773315429688e+01 1.411557769775390625e+01 -2.732047140598297119e-01 8.008561134338378906e+00 2.320606946945190430e+00 -5.535619854927062988e-01
2.785000000000000000e+03 4.838594818115234375e+01 -4.407526969909667969e+00 -3.026785254478454590e-01 7.405205726623535156e+00 2.130758047103881836e+00 -6.041761487722396851e-02
2.786000000000000000e+03 4.215807342529296875e+01 -9.794331550598144531e+00 -2.096415609121322632e-01 6.969017028808593750e+00 2.027812719345092773e+00 6.567895412445068359e-02
2.787000000000000000e+03 4.401348114013671875e+01 -7.372565269470214844e+00 -2.538493573665618896e-01 7.120668888092041016e+00 2.060045957565307617e+00 4.372125491499900818e-02
2.788000000000000000e+03 3.801243972778320312e+01 -1.058591365814208984e+01 -1.674263030290603638e-01 6.711343288421630859e+00 1.963175058364868164e+00 1.280975043773651123e-01
2.789000000000000000e+03 4.926663589477539062e+01 2.455195045471191406e+01 1.288565397262573242e-01 8.497781753540039062e+00 2.587991714477539062e+00 -6.942837834358215332e-01
2.790000000000000000e+03 4.955986404418945312e+01 6.375880241394042969e+00 -4.365634620189666748e-01 7.787632465362548828e+00 2.205320596694946289e+00 -1.900943070650100708e-01
2.791000000000000000e+03 5.061256408691406250e+01 1.010517311096191406e+01 -4.474457502365112305e-01 7.950621604919433594e+00 2.250952720642089844e+00 -3.006663322448730469e-01
2.792000000000000000e+03 4.985997390747070312e+01 1.404793930053710938e+01 -4.369962215423583984e-01 8.125848770141601562e+00 2.306655645370483398e+00 -3.830464482307434082e-01
2.793000000000000000e+03 5.380773925781250000e+01 1.309973526000976562e+01 -3.451487421989440918e-01 8.021882057189941406e+00 2.303020000457763672e+00 -4.756301343441009521e-01
2.794000000000000000e+03 4.662610244750976562e+01 1.667785263061523438e+01 -4.919421374797821045e-01 8.313457489013671875e+00 2.346454620361328125e+00 -3.072534203529357910e-01
2.795000000000000000e+03 4.327257919311523438e+01 5.066453933715820312e+00 -4.810681641101837158e-01 7.497663497924804688e+00 2.104978561401367188e+00 1.213654130697250366e-01
2.796000000000000000e+03 6.546924591064453125e+01 1.199409961700439453e+01 -1.210239976644515991e-01 7.759793281555175781e+00 2.291630744934082031e+00 -5.261574387550354004e-01
2.797000000000000000e+03 4.619277954101562500e+01 -1.569473862648010254e+00 -3.451250493526458740e-01 7.381154537200927734e+00 2.110808849334716797e+00 -4.450075794011354446e-03
2.798000000000000000e+03 5.168943786621093750e+01 4.904872417449951172e+00 -4.013017416000366211e-01 7.779444694519042969e+00 2.213442802429199219e+00 -2.315147817134857178e-01
2.799000000000000000e+03 5.497581481933593750e+01 6.942592144012451172e+00 -3.470275998115539551e-01 7.866296768188476562e+00 2.255780696868896484e+00 -3.681555688381195068e-01
2.800000000000000000e+03 5.565225219726562500e+01 4.539281368255615234e+00 -3.279907703399658203e-01 7.814062118530273438e+00 2.245821237564086914e+00 -3.344027698040008545e-01
2.801000000000000000e+03 5.482638549804687500e+01 2.885663270950317383e+00 -3.310997486114501953e-01 7.770217418670654297e+00 2.231735229492187500e+00 -2.877547740936279297e-01
2.802000000000000000e+03 4.738803100585937500e+01 -1.286833286285400391e+00 -3.509288728237152100e-01 7.452125549316406250e+00 2.130358934402465820e+00 -3.863623738288879395e-02
2.803000000000000000e+03 4.974533081054687500e+01 -2.337778329849243164e+00 -3.286599516868591309e-01 7.503030776977539062e+00 2.152311325073242188e+00 -9.697818756103515625e-02
2.804000000000000000e+03 5.529124450683593750e+01 -7.401587009429931641e+00 -2.235375344753265381e-01 7.596703529357910156e+00 2.211949825286865234e+00 -1.742176711559295654e-01
2.805000000000000000e+03 5.034295272827148438e+01 1.197414493560791016e+01 -4.428904354572296143e-01 8.033238410949707031e+00 2.277104377746582031e+00 -3.411512374877929688e-01
2.806000000000000000e+03 5.796902084350585938e+01 5.519769668579101562e+00 -2.850400507450103760e-01 7.839320659637451172e+00 2.266284227371215820e+00 -3.948417305946350098e-01
2.807000000000000000e+03 3.289498519897460938e+01 -8.345087051391601562e+00 -1.170342117547988892e-01 6.421009540557861328e+00 1.891192555427551270e+00 2.216574400663375854e-01
2.808000000000000000e+03 4.440102005004882812e+01 -5.305144309997558594e+00 -2.812640070915222168e-01 7.185590267181396484e+00 2.071297883987426758e+00 4.484355077147483826e-02
2.809000000000000000e+03 5.187020111083984375e+01 1.197835636138916016e+01 -4.059413671493530273e-01 8.018221855163574219e+00 2.283684015274047852e+00 -3.953135609626770020e-01
2.810000000000000000e+03 4.011072921752929688e+01 -1.016485309600830078e+01 -1.908638030290603638e-01 6.854589462280273438e+00 1.999117612838745117e+00 1.037292256951332092e-01
2.811000000000000000e+03 4.950148010253906250e+01 1.612129449844360352e+00 -3.899682164192199707e-01 7.619344234466552734e+00 2.168812751770019531e+00 -1.208091080188751221e-01
2.812000000000000000e+03 5.298836898803710938e+01 -5.218046307563781738e-01 -3.202021121978759766e-01 7.654467105865478516e+00 2.200279474258422852e+00 -2.003562748432159424e-01
2.813000000000000000e+03 5.397923660278320312e+01 1.162183165550231934e+00 -3.238103091716766357e-01 7.715373516082763672e+00 2.217468976974487305e+00 -2.444521635770797729e-01
2.814000000000000000e+03 4.737042999267578125e+01 1.990660876035690308e-01 -3.810036480426788330e-01 7.500580310821533203e+00 2.135873079299926758e+00 -4.386428743600845337e-02
2.815000000000000000e+03 4.426932144165039062e+01 6.918826580047607422e+00 -5.219205021858215332e-01 7.658119678497314453e+00 2.140859842300415039e+00 6.116439029574394226e-02
2.816000000000000000e+03 5.133891296386718750e+01 8.997927665710449219e+00 -4.341172873973846436e-01 7.914081096649169922e+00 2.243989229202270508e+00 -2.965825200080871582e-01
2.817000000000000000e+03 5.136104202270507812e+01 5.853694081306457520e-01 -3.518737256526947021e-01 7.645905494689941406e+00 2.188209533691406250e+00 -1.732543110847473145e-01
2.818000000000000000e+03 5.866064071655273438e+01 7.193479061126708984e+00 -2.732130289077758789e-01 7.859349727630615234e+00 2.275840997695922852e+00 -4.370651245117187500e-01
2.819000000000000000e+03 4.624013900756835938e+01 5.876523971557617188e+00 -4.859304428100585938e-01 7.687532901763916016e+00 2.160480737686157227e+00 -3.310899436473846436e-02
2.820000000000000000e+03 5.137902069091796875e+01 1.490790557861328125e+01 -3.711342513561248779e-01 8.125036239624023438e+00 2.326170444488525391e+00 -4.617416858673095703e-01
2.821000000000000000e+03 5.334453582763671875e+01 1.143923282623291016e+01 -3.681300580501556396e-01 7.989718437194824219e+00 2.286476373672485352e+00 -4.300808608531951904e-01
2.822000000000000000e+03 5.928647613525390625e+01 -8.946112632751464844e+00 -1.725620329380035400e-01 7.705051422119140625e+00 2.259746789932250977e+00 -1.963883042335510254e-01
2.823000000000000000e+03 5.195317459106445312e+01 -2.044365644454956055e+00 -3.152641952037811279e-01 7.591246128082275391e+00 2.182794570922851562e+00 -1.579844355583190918e-01
2.824000000000000000e+03 5.658921432495117188e+01 -8.962306022644042969e+00 -1.949027925729751587e-01 7.622343063354492188e+00 2.228232145309448242e+00 -1.749192923307418823e-01
2.825000000000000000e+03 5.365922164916992188e+01 7.688855648040771484e+00 -3.779066503047943115e-01 7.882689952850341797e+00 2.251435041427612305e+00 -3.480674028396606445e-01
2.826000000000000000e+03 5.296228790283203125e+01 9.840300559997558594e+00 -3.951786458492279053e-01 7.948524951934814453e+00 2.266003847122192383e+00 -3.763735592365264893e-01
2.827000000000000000e+03 4.509465408325195312e+01 -3.606574296951293945e+00 -3.193234801292419434e-01 7.278008937835693359e+00 2.087605714797973633e+00 2.969319000840187073e-02
2.828000000000000000e+03 4.665683746337890625e+01 -3.998197793960571289e+00 -3.083289861679077148e-01 7.328664779663085938e+00 2.106100797653198242e+00 -1.163953449577093124e-02
2.829000000000000000e+03 4.062507247924804688e+01 -1.403154945373535156e+01 -1.585611850023269653e-01 6.814956665039062500e+00 1.996918559074401855e+00 6.678295135498046875e-02
2.830000000000000000e+03 5.490882873535156250e+01 1.702948951721191406e+01 -2.136818319559097290e-01 8.079257965087890625e+00 2.359673023223876953e+00 -6.087401509284973145e-01
2.831000000000000000e+03 5.431940841674804688e+01 1.489711761474609375e+01 -2.988660037517547607e-01 8.066087722778320312e+00 2.330166578292846680e+00 -5.416902303695678711e-01
2.832000000000000000e+03 4.624343109130859375e+01 -5.738894939422607422e+00 -2.818451225757598877e-01 7.269258499145507812e+00 2.096224069595336914e+00 -7.328444160521030426e-03
2.833000000000000000e+03 4.968795394897460938e+01 7.875076770782470703e+00 -4.590615034103393555e-01 7.866796970367431641e+00 2.222320795059204102e+00 -2.264923304319381714e-01
2.834000000000000000e+03 5.236698150634765625e+01 1.367286968231201172e+01 -3.718777596950531006e-01 8.066864967346191406e+00 2.308496236801147461e+00 -4.563991725444793701e-01
2.835000000000000000e+03 4.703765869140625000e+01 4.010789871215820312e+00 -4.447339773178100586e-01 7.625398159027099609e+00 2.154199361801147461e+00 -5.685821920633316040e-02
2.836000000000000000e+03 4.951691436767578125e+01 -8.106819152832031250e+00 -2.465962767601013184e-01 7.374469280242919922e+00 2.138361930847167969e+00 -7.101029902696609497e-02
2.837000000000000000e+03 5.092723846435546875e+01 -3.485611677169799805e+00 -3.073282241821289062e-01 7.518804550170898438e+00 2.163442850112915039e+00 -1.161344274878501892e-01
2.838000000000000000e+03 4.824301528930664062e+01 1.812284660339355469e+01 -3.695872724056243896e-01 8.344973564147949219e+00 2.392616033554077148e+00 -4.517546892166137695e-01
2.839000000000000000e+03 4.905473709106445312e+01 -1.481956392526626587e-01 -3.617449998855590820e-01 7.542290687561035156e+00 2.154163599014282227e+00 -8.992872387170791626e-02
2.840000000000000000e+03 5.283751296997070312e+01 6.215978622436523438e+00 -3.858149349689483643e-01 7.836558341979980469e+00 2.235223054885864258e+00 -2.981201410293579102e-01
2.841000000000000000e+03 5.082585906982421875e+01 7.729978084564208984e+00 -4.338110983371734619e-01 7.865683078765869141e+00 2.229561567306518555e+00 -2.546947896480560303e-01
2.842000000000000000e+03 4.937335968017578125e+01 9.565668106079101562e+00 -4.702327847480773926e-01 7.925563812255859375e+00 2.236599206924438477e+00 -2.402595579624176025e-01
2.843000000000000000e+03 5.181324768066406250e+01 7.111945629119873047e+00 -4.083511233329772949e-01 7.849545478820800781e+00 2.232358455657958984e+00 -2.835226655006408691e-01
2.844000000000000000e+03 5.415200042724609375e+01 5.336210250854492188e+00 -3.608126938343048096e-01 7.823379993438720703e+00 2.238770246505737305e+00 -3.142431676387786865e-01
2.845000000000000000e+03 6.011184692382812500e+01 -7.591356277465820312e+00 -1.694870144128799438e-01 7.737167835235595703e+00 2.270304203033447266e+00 -2.175473570823669434e-01
2.846000000000000000e+03 5.057920074462890625e+01 -9.727752804756164551e-01 -3.422959744930267334e-01 7.574583053588867188e+00 2.169686079025268555e+00 -1.304339021444320679e-01
2.847000000000000000e+03 5.387129974365234375e+01 -8.904069900512695312e+00 -2.182690203189849854e-01 7.523261070251464844e+00 2.191497564315795898e+00 -1.419082432985305786e-01
2.848000000000000000e+03 5.649738693237304688e+01 -1.174104881286621094e+01 -1.740997582674026489e-01 7.591747283935546875e+00 2.225294351577758789e+00 -1.516848653554916382e-01
2.849000000000000000e+03 4.805293273925781250e+01 8.997122764587402344e+00 -4.959515929222106934e-01 7.878406047821044922e+00 2.214736461639404297e+00 -1.654881536960601807e-01
2.850000000000000000e+03 4.869189834594726562e+01 4.964982986450195312e+00 -4.423044025897979736e-01 7.715332508087158203e+00 2.181908369064331055e+00 -1.300713419914245605e-01
2.851000000000000000e+03 5.916597747802734375e+01 -1.153405857086181641e+01 -1.549931317567825317e-01 7.682410240173339844e+00 2.258225202560424805e+00 -1.721888184547424316e-01
2.852000000000000000e+03 5.120785522460937500e+01 -6.003815174102783203e+00 -2.689035236835479736e-01 7.481068611145019531e+00 2.163649559020996094e+00 -1.118429228663444519e-01
2.853000000000000000e+03 5.233537673950195312e+01 -4.661353111267089844e+00 -2.764364480972290039e-01 7.542783260345458984e+00 2.179903984069824219e+00 -1.457868516445159912e-01
2.854000000000000000e+03 5.038275527954101562e+01 3.447335481643676758e+00 -3.996889889240264893e-01 7.700467109680175781e+00 2.190233469009399414e+00 -1.709064096212387085e-01
2.855000000000000000e+03 5.517693710327148438e+01 -1.040910243988037109e+01 -1.915253847837448120e-01 7.558355331420898438e+00 2.210048913955688477e+00 -1.493239849805831909e-01
2.856000000000000000e+03 4.862807846069335938e+01 7.457325935363769531e+00 -4.686418175697326660e-01 7.812934398651123047e+00 2.203287839889526367e+00 -1.655288636684417725e-01
2.857000000000000000e+03 5.320128250122070312e+01 3.777597904205322266e+00 -3.644666075706481934e-01 7.764831066131591797e+00 2.220109462738037109e+00 -2.607715129852294922e-01
2.858000000000000000e+03 5.673494720458984375e+01 -1.444433212280273438e+01 -1.502774804830551147e-01 7.573660373687744141e+00 2.227014780044555664e+00 -1.347639858722686768e-01
2.859000000000000000e+03 5.362601089477539062e+01 -1.201400279998779297e+01 -1.889413446187973022e-01 7.475772857666015625e+00 2.186049461364746094e+00 -1.187791004776954651e-01
2.860000000000000000e+03 5.243416595458984375e+01 -7.433389186859130859e+00 -2.416916489601135254e-01 7.492727756500244141e+00 2.175310850143432617e+00 -1.267215758562088013e-01
2.861000000000000000e+03 4.987832260131835938e+01 -1.157387828826904297e+01 -2.055705487728118896e-01 7.325242519378662109e+00 2.135901451110839844e+00 -7.058102637529373169e-02
2.862000000000000000e+03 5.121291732788085938e+01 -1.133621025085449219e+01 -2.074136137962341309e-01 7.390432357788085938e+00 2.154905557632446289e+00 -8.824910223484039307e-02
2.863000000000000000e+03 4.801027297973632812e+01 -6.094270229339599609e+00 -2.735438346862792969e-01 7.343749523162841797e+00 2.121061801910400391e+00 -4.553051292896270752e-02
2.864000000000000000e+03 5.383163452148437500e+01 -5.915255069732666016e+00 -2.511628568172454834e-01 7.574154376983642578e+00 2.196897506713867188e+00 -1.639223396778106689e-01
2.865000000000000000e+03 4.772937011718750000e+01 -7.732099533081054688e+00 -2.556267380714416504e-01 7.299971103668212891e+00 2.113303184509277344e+00 -4.011062905192375183e-02
2.866000000000000000e+03 5.029126358032226562e+01 -1.028751087188720703e+01 -2.213011980056762695e-01 7.363833904266357422e+00 2.142759799957275391e+00 -7.817047089338302612e-02
2.867000000000000000e+03 4.974206924438476562e+01 -6.452909469604492188e+00 -2.669912576675415039e-01 7.409706592559814453e+00 2.142814636230468750e+00 -8.080045878887176514e-02
2.868000000000000000e+03 4.842592620849609375e+01 -1.120584869384765625e+01 -2.093018889427185059e-01 7.264335155487060547e+00 2.116509914398193359e+00 -4.976526275277137756e-02
2.869000000000000000e+03 5.328966903686523438e+01 -3.176536083221435547e+00 -2.914551794528961182e-01 7.602652549743652344e+00 2.193359136581420898e+00 -1.742828041315078735e-01
2.870000000000000000e+03 5.001627349853515625e+01 -4.910847663879394531e+00 -2.903954088687896729e-01 7.455138206481933594e+00 2.149422883987426758e+00 -9.050913155078887939e-02
2.871000000000000000e+03 4.893451690673828125e+01 -9.702323913574218750e+00 -2.302206009626388550e-01 7.317648887634277344e+00 2.126228570938110352e+00 -5.996141955256462097e-02
2.872000000000000000e+03 5.180294036865234375e+01 -1.527497291564941406e+01 -1.679216474294662476e-01 7.364619255065917969e+00 2.159009218215942383e+00 -8.441667258739471436e-02
2.873000000000000000e+03 5.177582168579101562e+01 -1.304669952392578125e+01 -1.870480626821517944e-01 7.390100002288818359e+00 2.160915613174438477e+00 -9.274865686893463135e-02
2.874000000000000000e+03 4.800349426269531250e+01 -1.281332206726074219e+01 -1.977160722017288208e-01 7.222981452941894531e+00 2.107579708099365234e+00 -4.019518196582794189e-02
2.875000000000000000e+03 4.420730209350585938e+01 -9.608817100524902344e+00 -2.209034562110900879e-01 7.084285259246826172e+00 2.059014558792114258e+00 2.990842983126640320e-02
2.876000000000000000e+03 4.192959213256835938e+01 -7.560271263122558594e+00 -2.372880876064300537e-01 7.009659290313720703e+00 2.031711339950561523e+00 8.733268082141876221e-02
2.877000000000000000e+03 4.248578262329101562e+01 -1.370121860504150391e+01 -1.753392964601516724e-01 6.927014350891113281e+00 2.025502681732177734e+00 3.738420084118843079e-02
2.878000000000000000e+03 4.746910095214843750e+01 -9.268644332885742188e+00 -2.329640537500381470e-01 7.267712116241455078e+00 2.110424280166625977e+00 -3.519290313124656677e-02
2.879000000000000000e+03 4.431815338134765625e+01 -1.169390296936035156e+01 -2.004301249980926514e-01 7.050311565399169922e+00 2.054964542388916016e+00 1.753390952944755554e-02
2.880000000000000000e+03 4.423215103149414062e+01 -1.348741626739501953e+01 -1.823972314596176147e-01 7.016999244689941406e+00 2.050380706787109375e+00 1.656246930360794067e-02
2.881000000000000000e+03 4.276833343505859375e+01 -1.550111293792724609e+01 -1.594850271940231323e-01 6.912572860717773438e+00 2.025926351547241211e+00 2.602136693894863129e-02
2.882000000000000000e+03 6.622846221923828125e+01 3.389643859863281250e+01 2.847755849361419678e-01 7.299817085266113281e+00 2.275377750396728516e+00 -3.499490320682525635e-01
2.883000000000000000e+03 2.824802017211914062e+01 -3.374238204956054688e+01 3.663033992052078247e-02 5.863753795623779297e+00 1.770115256309509277e+00 -6.424456369131803513e-03
2.884000000000000000e+03 2.951119232177734375e+01 -2.754565620422363281e+01 -6.521188654005527496e-03 6.034911632537841797e+00 1.808517098426818848e+00 1.026403754949569702e-01
2.885000000000000000e+03 3.309331893920898438e+01 -2.316766929626464844e+01 -7.592315971851348877e-02 6.284084320068359375e+00 1.862448334693908691e+00 8.834414184093475342e-02
2.886000000000000000e+03 6.058849334716796875e+01 2.089069366455078125e+01 5.929818376898765564e-03 7.845741748809814453e+00 2.355501413345336914e+00 -6.787842512130737305e-01
2.887000000000000000e+03 6.209964752197265625e+01 1.881752014160156250e+01 -5.289917439222335815e-02 7.794678688049316406e+00 2.322533845901489258e+00 -6.440530419349670410e-01
2.888000000000000000e+03 6.953459262847900391e+00 -2.750973701477050781e+01 1.953381113708019257e-03 1.213962896144948900e-04 6.224332028068602085e-04 2.167083090171217918e-03
2.889000000000000000e+03 4.662476730346679688e+01 3.005862808227539062e+01 7.212896347045898438e-01 8.735728263854980469e+00 2.837105274200439453e+00 -6.793798804283142090e-01
2.890000000000000000e+03 5.900268554687500000e+01 2.085276985168457031e+01 -1.212109625339508057e-02 7.913471221923828125e+00 2.370404958724975586e+00 -6.811968088150024414e-01
2.891000000000000000e+03 5.871438217163085938e+01 2.292143821716308594e+01 7.349710166454315186e-02 7.923442363739013672e+00 2.399081707000732422e+00 -6.910858750343322754e-01
2.892000000000000000e+03 4.697970962524414062e+01 -1.670759201049804688e+01 -1.651588827371597290e-01 7.117016792297363281e+00 2.085557460784912109e+00 -2.831007353961467743e-02
2.893000000000000000e+03 5.402509689331054688e+01 -1.566784954071044922e+01 -1.583002060651779175e-01 7.453802108764648438e+00 2.188650608062744141e+00 -1.062132790684700012e-01
2.894000000000000000e+03 4.232198715209960938e+01 -1.182355403900146484e+01 -1.898479163646697998e-01 6.944618225097656250e+00 2.026431083679199219e+00 5.531687662005424500e-02
2.895000000000000000e+03 4.956861114501953125e+01 -1.511935806274414062e+01 -1.769019961357116699e-01 7.261157512664794922e+00 2.125276565551757812e+00 -5.945882946252822876e-02
2.896000000000000000e+03 4.748465728759765625e+01 2.175971984863281250e+01 -2.059924751520156860e-01 8.517808914184570312e+00 2.493545055389404297e+00 -5.478940606117248535e-01
2.897000000000000000e+03 4.998830032348632812e+01 2.673349380493164062e+01 3.264819383621215820e-01 8.456569671630859375e+00 2.634915351867675781e+00 -7.022745013236999512e-01
2.898000000000000000e+03 6.854634857177734375e+01 -3.458084487915039062e+01 -2.626891434192657471e-02 8.091843605041503906e+00 2.419672489166259766e+00 -2.522709034383296967e-02
2.899000000000000000e+03 6.528834533691406250e+01 -2.002022171020507812e+01 -6.585995107889175415e-02 7.904976844787597656e+00 2.351735115051269531e+00 -1.152669191360473633e-01
2.900000000000000000e+03 6.727800750732421875e+01 -3.720472717285156250e+01 -2.957122027873992920e-02 8.028273582458496094e+00 2.399610519409179688e+00 -1.950123347342014313e-02
2.901000000000000000e+03 3.082321357727050781e+01 -2.645329284667968750e+01 -4.142246022820472717e-02 6.139481067657470703e+00 1.829417586326599121e+00 8.432048559188842773e-02
2.902000000000000000e+03 3.832234191894531250e+01 4.124307155609130859e+00 -4.105441868305206299e-01 7.084499835968017578e+00 2.002186775207519531e+00 3.494034707546234131e-01
2.903000000000000000e+03 4.033325576782226562e+01 -1.216392803192138672e+01 -1.751359254121780396e-01 6.831460475921630859e+00 1.996897339820861816e+00 8.131381124258041382e-02
2.904000000000000000e+03 2.799350738525390625e+01 -3.881583023071289062e+01 -2.735805213451385498e-01 5.870673656463623047e+00 1.679127931594848633e+00 -1.429358124732971191e-01
2.905000000000000000e+03 6.575659179687500000e+01 -7.319869041442871094e+00 -1.059143617749214172e-01 7.890020847320556641e+00 2.335232019424438477e+00 -2.294074594974517822e-01
2.906000000000000000e+03 3.792749404907226562e+01 4.118622207641601562e+01 4.737246632575988770e-01 1.188938140869140625e+01 3.708931922912597656e+00 4.856350421905517578e-01
2.907000000000000000e+03 1.821168899536132812e+01 -4.124672317504882812e+01 -9.890933334827423096e-02 2.266061544418334961e+00 6.501456499099731445e-01 3.366034030914306641e-01
2.908000000000000000e+03 7.599138641357421875e+01 -3.671123886108398438e+01 -1.412091776728630066e-02 8.524266242980957031e+00 2.553043603897094727e+00 -9.355125948786735535e-03
2.909000000000000000e+03 4.095692062377929688e+01 3.607261657714843750e+01 1.914989590644836426e+00 9.720973968505859375e+00 3.490788936614990234e+00 1.833931356668472290e-01
2.910000000000000000e+03 5.281039428710937500e+01 1.531160545349121094e+01 -3.267158269882202148e-01 8.103430747985839844e+00 2.333014488220214844e+00 -5.151382684707641602e-01
2.911000000000000000e+03 5.289122390747070312e+01 1.750194549560546875e+01 -2.474567443132400513e-01 8.158514022827148438e+00 2.373317241668701172e+00 -5.843091607093811035e-01
2.912000000000000000e+03 3.564746856689453125e+01 -1.986230659484863281e+01 -9.705186635255813599e-02 6.467556953430175781e+00 1.911151528358459473e+00 7.158166915178298950e-02
2.913000000000000000e+03 3.726280593872070312e+01 -1.554494762420654297e+01 -1.253966987133026123e-01 6.608953475952148438e+00 1.945067048072814941e+00 9.217249602079391479e-02
2.914000000000000000e+03 7.378013610839843750e+01 3.152588462829589844e+01 5.386874452233314514e-02 6.802454948425292969e+00 2.056896924972534180e+00 -2.393010854721069336e-01
2.915000000000000000e+03 6.506796264648437500e+01 -1.837105178833007812e+01 -7.168199867010116577e-02 7.894400596618652344e+00 2.346815586090087891e+00 -1.277435719966888428e-01
2.916000000000000000e+03 5.020650100708007812e+01 1.934322929382324219e+01 -2.559690177440643311e-01 8.324849128723144531e+00 2.420664072036743164e+00 -5.615692734718322754e-01
2.917000000000000000e+03 5.505593109130859375e+01 -1.349271106719970703e+01 -1.671991348266601562e-01 7.514325618743896484e+00 2.204137802124023438e+00 -1.256565004587173462e-01
2.918000000000000000e+03 3.174378013610839844e+01 -2.228825759887695312e+01 -6.616818904876708984e-02 6.239192962646484375e+00 1.851907491683959961e+00 1.007103547453880310e-01
2.919000000000000000e+03 5.815163040161132812e+01 3.238517379760742188e+01 5.511614680290222168e-01 7.843036651611328125e+00 2.518259525299072266e+00 -5.264365077018737793e-01
2.920000000000000000e+03 4.467739105224609375e+01 3.191748237609863281e+01 1.129133224487304688e+00 9.006703376770019531e+00 3.040751218795776367e+00 -5.858452320098876953e-01
2.921000000000000000e+03 4.653845596313476562e+01 3.352769470214843750e+01 1.202133893966674805e+00 8.795188903808593750e+00 2.999196767807006836e+00 -4.782542884349822998e-01
2.922000000000000000e+03 4.650812530517578125e+01 2.657058906555175781e+01 2.873010635375976562e-01 8.710401535034179688e+00 2.699310779571533203e+00 -6.813808083534240723e-01
2.923000000000000000e+03 5.627738952636718750e+01 2.485275650024414062e+01 1.615631431341171265e-01 8.025351524353027344e+00 2.456074476242065430e+00 -7.083209156990051270e-01
2.924000000000000000e+03 6.054101562500000000e+01 2.310635566711425781e+01 7.554107904434204102e-02 7.826459884643554688e+00 2.370600223541259766e+00 -6.776931285858154297e-01
2.925000000000000000e+03 6.222112274169921875e+01 -3.180489158630371094e+01 -6.320835649967193604e-02 7.771388053894042969e+00 2.312453985214233398e+00 -5.485913902521133423e-02
2.926000000000000000e+03 6.039738464355468750e+01 -3.618972015380859375e+01 -6.230860576033592224e-02 7.697863101959228516e+00 2.290666341781616211e+00 -3.005184233188629150e-02
2.927000000000000000e+03 5.576188278198242188e+01 -3.693565368652343750e+01 -8.407897502183914185e-02 7.464691638946533203e+00 2.214183807373046875e+00 -2.876215428113937378e-02
2.928000000000000000e+03 2.767458152770996094e+01 -4.129725265502929688e+01 -3.316206932067871094e-01 5.974832057952880859e+00 1.692963480949401855e+00 -5.122438445687294006e-02
2.929000000000000000e+03 4.197362136840820312e+01 -3.774897384643554688e+01 -1.362997144460678101e-01 6.753904342651367188e+00 1.985281348228454590e+00 -1.579584740102291107e-02
2.930000000000000000e+03 7.178241729736328125e+01 -4.094044494628906250e+01 -1.041632518172264099e-02 8.283758163452148438e+00 2.482002735137939453e+00 -7.327954284846782684e-03
2.931000000000000000e+03 4.267519378662109375e+01 4.092020797729492188e+01 1.469147086143493652e+00 9.824748992919921875e+00 3.388168811798095703e+00 -4.437174182385206223e-03
2.932000000000000000e+03 6.218200302124023438e+01 3.708541870117187500e+01 5.065189003944396973e-01 7.525763034820556641e+00 2.409684419631958008e+00 -2.705361247062683105e-01
2.933000000000000000e+03 3.231620025634765625e+01 -3.575989532470703125e+01 -1.375850588083267212e-01 6.175030231475830078e+00 1.811233520507812500e+00 -6.195510551333427429e-02
2.934000000000000000e+03 7.773545265197753906e+00 4.115993499755859375e+01 -5.935271270573139191e-03 -2.361892722547054291e-03 -2.489149337634444237e-03 -7.741298060864210129e-03
2.935000000000000000e+03 3.355407714843750000e+01 -2.932876205444335938e+01 -4.257611185312271118e-02 6.246544837951660156e+00 1.861190557479858398e+00 3.121806681156158447e-02
2.936000000000000000e+03 5.604006195068359375e+01 -1.633848762512207031e+01 -1.420995891094207764e-01 7.537615299224853516e+00 2.218654632568359375e+00 -1.189986690878868103e-01
2.937000000000000000e+03 5.479254150390625000e+01 2.116669464111328125e+01 -4.028742015361785889e-02 8.117567062377929688e+00 2.423183917999267578e+00 -6.870853900909423828e-01
2.938000000000000000e+03 3.449700927734375000e+01 -2.635802268981933594e+01 -5.170004069805145264e-02 6.330410480499267578e+00 1.883613109588623047e+00 5.162207782268524170e-02
2.939000000000000000e+03 6.215470504760742188e+01 -2.317451286315917969e+01 -7.469819486141204834e-02 7.768247604370117188e+00 2.308064937591552734e+00 -9.766012430191040039e-02
2.940000000000000000e+03 6.178713607788085938e+01 -2.078852462768554688e+01 -8.631306886672973633e-02 7.752092838287353516e+00 2.299733877182006836e+00 -1.133258193731307983e-01
2.941000000000000000e+03 4.084466171264648438e+01 -1.590214920043945312e+01 -1.483728438615798950e-01 6.802512168884277344e+00 1.996241807937622070e+00 4.692650958895683289e-02
2.942000000000000000e+03 4.750089263916015625e+01 -1.466753673553466797e+01 -1.777831166982650757e-01 7.172905921936035156e+00 2.098536729812622070e+00 -3.300776705145835876e-02
2.943000000000000000e+03 4.905681610107421875e+01 -1.735252380371093750e+01 -1.550660133361816406e-01 7.214542388916015625e+00 2.117842912673950195e+00 -4.758050292730331421e-02
2.944000000000000000e+03 5.180322647094726562e+01 2.271673774719238281e+01 1.669715903699398041e-02 8.303536415100097656e+00 2.496070146560668945e+00 -6.932625770568847656e-01
2.945000000000000000e+03 2.824012756347656250e+01 -3.156508636474609375e+01 5.557818338274955750e-02 5.885945320129394531e+00 1.782457113265991211e+00 5.942882597446441650e-02
2.946000000000000000e+03 3.274698638916015625e+01 -2.715036773681640625e+01 -4.064956307411193848e-02 6.233846187591552734e+00 1.857958912849426270e+00 7.492344826459884644e-02
2.947000000000000000e+03 6.609023284912109375e+01 -3.281515884399414062e+01 -3.365960344672203064e-02 7.986884593963623047e+00 2.385967493057250977e+00 -4.041033983230590820e-02
2.948000000000000000e+03 5.541210556030273438e+01 -2.059446716308593750e+01 -1.192772984504699707e-01 7.484492301940917969e+00 2.209564447402954102e+00 -9.071550518274307251e-02
2.949000000000000000e+03 4.373133468627929688e+01 -1.902384185791015625e+01 -1.367233544588088989e-01 6.934155941009521484e+00 2.039229869842529297e+00 2.341988729313015938e-03
2.950000000000000000e+03 5.115441513061523438e+01 2.506008529663085938e+01 1.756912618875503540e-01 8.364198684692382812e+00 2.561967134475708008e+00 -7.011599540710449219e-01
2.951000000000000000e+03 5.017082595825195312e+01 3.050618553161621094e+01 6.894174218177795410e-01 8.426265716552734375e+00 2.734704971313476562e+00 -6.554940342903137207e-01
2.952000000000000000e+03 4.577587890625000000e+01 -1.815344047546386719e+01 -1.462951302528381348e-01 7.048717021942138672e+00 2.070726633071899414e+00 -2.054267004132270813e-02
2.953000000000000000e+03 5.099776840209960938e+01 -1.997992897033691406e+01 -1.409355252981185913e-01 7.275258064270019531e+00 2.140296697616577148e+00 -6.930213421583175659e-02
2.954000000000000000e+03 4.101862335205078125e+01 -1.786900329589843750e+01 -1.321104913949966431e-01 6.786309242248535156e+00 1.996259570121765137e+00 3.639148548245429993e-02
2.955000000000000000e+03 5.402363586425781250e+01 2.379028892517089844e+01 9.609512239694595337e-02 8.167977333068847656e+00 2.479221582412719727e+00 -7.124648690223693848e-01
2.956000000000000000e+03 3.867454147338867188e+01 -1.804874801635742188e+01 -1.243517473340034485e-01 6.672170639038085938e+00 1.964345693588256836e+00 5.708558112382888794e-02
2.957000000000000000e+03 6.112509918212890625e+01 2.777220726013183594e+01 2.763880193233489990e-01 7.729360103607177734e+00 2.401724338531494141e+00 -6.203111410140991211e-01
2.958000000000000000e+03 3.253963470458984375e+01 -3.848871612548828125e+01 -1.707023680210113525e-01 6.231272220611572266e+00 1.818170905113220215e+00 -2.888367883861064911e-02
2.959000000000000000e+03 6.343864822387695312e+01 2.943878936767578125e+01 2.806740403175354004e-01 7.563146114349365234e+00 2.353146076202392578e+00 -5.499338507652282715e-01
2.960000000000000000e+03 3.455804443359375000e+01 -2.170999336242675781e+01 -7.976313680410385132e-02 6.393755912780761719e+00 1.894197821617126465e+00 7.434308528900146484e-02
2.961000000000000000e+03 5.253034591674804688e+01 2.011495018005371094e+01 -1.432705968618392944e-01 8.227331161499023438e+00 2.425218105316162109e+00 -6.515664458274841309e-01
2.962000000000000000e+03 3.675883865356445312e+01 -3.486307525634765625e+01 -1.158566698431968689e-01 6.456758499145507812e+00 1.902270555496215820e+00 -1.870608329772949219e-02
2.963000000000000000e+03 6.397885131835937500e+01 -3.487966156005859375e+01 -4.389247670769691467e-02 7.869713306427001953e+00 2.347746133804321289e+00 -3.540719673037528992e-02
2.964000000000000000e+03 4.889740371704101562e+01 3.409724044799804688e+01 1.080800533294677734e+00 8.553455352783203125e+00 2.890276670455932617e+00 -4.597575962543487549e-01
2.965000000000000000e+03 5.320322418212890625e+01 -2.021588516235351562e+01 -1.324290335178375244e-01 7.386023521423339844e+00 2.176078319549560547e+00 -8.449215441942214966e-02
2.966000000000000000e+03 3.430883026123046875e+01 -2.411466979980468750e+01 -6.487614661455154419e-02 6.325469970703125000e+00 1.878178119659423828e+00 7.478944957256317139e-02
2.967000000000000000e+03 3.851706695556640625e+01 -2.043031692504882812e+01 -1.100685894489288330e-01 6.640385150909423828e+00 1.959095001220703125e+00 4.714000225067138672e-02
2.968000000000000000e+03 3.543097305297851562e+01 -3.188313293457031250e+01 -9.551168978214263916e-02 6.378821849822998047e+00 1.884992957115173340e+00 -1.602029427886009216e-02
2.969000000000000000e+03 5.762050247192382812e+01 -2.089830017089843750e+01 -1.092168688774108887e-01 7.578284740447998047e+00 2.240720272064208984e+00 -1.013489514589309692e-01
2.970000000000000000e+03 5.977313995361328125e+01 -2.098699378967285156e+01 -9.517319500446319580e-02 7.673271656036376953e+00 2.273429632186889648e+00 -1.061642765998840332e-01
2.971000000000000000e+03 4.648142623901367188e+01 -1.987488365173339844e+01 -1.368843764066696167e-01 7.070097923278808594e+00 2.079964160919189453e+00 -2.983708307147026062e-02
2.972000000000000000e+03 4.870584487915039062e+01 -1.981715011596679688e+01 -1.432837843894958496e-01 7.166130542755126953e+00 2.106854200363159180e+00 -4.195592924952507019e-02
2.973000000000000000e+03 4.139415740966796875e+01 -2.002058601379394531e+01 -1.274929195642471313e-01 6.789971828460693359e+00 1.998743653297424316e+00 1.647365465760231018e-02
2.974000000000000000e+03 3.327362442016601562e+01 -2.546737670898437500e+01 -6.474204361438751221e-02 6.269960403442382812e+00 1.861565470695495605e+00 7.562005519866943359e-02
2.975000000000000000e+03 3.823978042602539062e+01 -2.964916610717773438e+01 -9.168933331966400146e-02 6.548361778259277344e+00 1.937001705169677734e+00 -5.440210923552513123e-03
2.976000000000000000e+03 5.321975708007812500e+01 2.636309623718261719e+01 2.787036597728729248e-01 8.238232612609863281e+00 2.555080890655517578e+00 -7.176011800765991211e-01
2.977000000000000000e+03 5.197340393066406250e+01 2.868335342407226562e+01 5.163039565086364746e-01 8.334462165832519531e+00 2.655230045318603516e+00 -7.002373337745666504e-01
2.978000000000000000e+03 5.849734497070312500e+01 2.544079017639160156e+01 1.820946186780929565e-01 7.901834964752197266e+00 2.425178766250610352e+00 -6.851194500923156738e-01
2.979000000000000000e+03 5.568993759155273438e+01 2.773703384399414062e+01 3.419089615345001221e-01 8.041886329650878906e+00 2.515138387680053711e+00 -6.904046535491943359e-01
2.980000000000000000e+03 4.315862274169921875e+01 -1.728528785705566406e+01 -1.495703756809234619e-01 6.913687229156494141e+00 2.029235124588012695e+00 7.438221946358680725e-03
2.981000000000000000e+03 5.859593200683593750e+01 2.853811073303222656e+01 3.343212008476257324e-01 7.852310180664062500e+00 2.455989360809326172e+00 -6.403368115425109863e-01
2.982000000000000000e+03 5.272099304199218750e+01 -2.972392845153808594e+01 -1.029337793588638306e-01 7.306603908538818359e+00 2.161101102828979492e+00 -4.795287922024726868e-02
2.983000000000000000e+03 4.813975143432617188e+01 3.187242507934570312e+01 9.064784049987792969e-01 8.589533805847167969e+00 2.848803758621215820e+00 -6.226282119750976562e-01
2.984000000000000000e+03 5.986684417724609375e+01 -2.351701927185058594e+01 -8.880039304494857788e-02 7.669179916381835938e+00 2.274113893508911133e+00 -9.144704788923263550e-02
2.985000000000000000e+03 5.453546142578125000e+01 -2.508266830444335938e+01 -1.094454154372215271e-01 7.426394939422607422e+00 2.195084810256958008e+00 -7.108767330646514893e-02
2.986000000000000000e+03 5.214793395996093750e+01 -2.408121871948242188e+01 -1.199128180742263794e-01 7.304781913757324219e+00 2.155460834503173828e+00 -6.569752842187881470e-02
2.987000000000000000e+03 3.743986129760742188e+01 -2.562723159790039062e+01 -8.424246311187744141e-02 6.528729915618896484e+00 1.933346271514892578e+00 1.620021462440490723e-02
2.988000000000000000e+03 5.294535064697265625e+01 -2.228820228576660156e+01 -1.223800927400588989e-01 7.369359493255615234e+00 2.174093723297119141e+00 -7.378810644149780273e-02
2.989000000000000000e+03 5.374048614501953125e+01 -2.738489913940429688e+01 -9.905973076820373535e-02 7.377541065216064453e+00 2.183544397354125977e+00 -6.440422683954238892e-02
2.990000000000000000e+03 5.960982513427734375e+01 -2.623852157592773438e+01 -7.822335511445999146e-02 7.655943393707275391e+00 2.273316144943237305e+00 -7.604245841503143311e-02
2.991000000000000000e+03 5.921466064453125000e+01 -2.908154678344726562e+01 -8.079484850168228149e-02 7.627457141876220703e+00 2.263998746871948242e+00 -6.214908510446548462e-02
2.992000000000000000e+03 5.094170379638671875e+01 -2.232369613647460938e+01 -1.274203658103942871e-01 7.252247333526611328e+00 2.137448072433471680e+00 -6.678736209869384766e-02
2.993000000000000000e+03 4.264060592651367188e+01 -2.201747703552246094e+01 -1.256624460220336914e-01 6.846586704254150391e+00 2.016277313232421875e+00 4.426000639796257019e-03
2.994000000000000000e+03 4.460685348510742188e+01 -2.065686798095703125e+01 -1.339511722326278687e-01 6.943780899047851562e+00 2.042948961257934570e+00 -5.519543774425983429e-03
2.995000000000000000e+03 5.110382461547851562e+01 -3.189311981201171875e+01 -1.058521419763565063e-01 7.222243309020996094e+00 2.134917497634887695e+00 -4.078645259141921997e-02
2.996000000000000000e+03 4.172561645507812500e+01 -3.092945480346679688e+01 -1.073662862181663513e-01 6.726473808288574219e+00 1.985732316970825195e+00 -1.722903177142143250e-02
2.997000000000000000e+03 4.153093719482421875e+01 -3.436614608764648438e+01 -1.227811649441719055e-01 6.717329025268554688e+00 1.978364348411560059e+00 -2.505914121866226196e-02
2.998000000000000000e+03 3.579224014282226562e+01 -2.313721847534179688e+01 -8.583492785692214966e-02 6.450795650482177734e+00 1.909488201141357422e+00 5.905095860362052917e-02
2.999000000000000000e+03 4.810707092285156250e+01 -2.787807464599609375e+01 -1.196877807378768921e-01 7.084048271179199219e+00 2.089308023452758789e+00 -4.724921658635139465e-02
3.000000000000000000e+03 4.252851486206054688e+01 -2.781568145751953125e+01 -1.060414016246795654e-01 6.800874233245849609e+00 2.008449792861938477e+00 -6.977112032473087311e-03
3.001000000000000000e+03 4.549998855590820312e+01 -2.808673095703125000e+01 -1.147891283035278320e-01 6.953073978424072266e+00 2.051485538482666016e+00 -3.189057111740112305e-02
3.002000000000000000e+03 3.976751708984375000e+01 -2.680331802368164062e+01 -1.006367206573486328e-01 6.650478839874267578e+00 1.964952707290649414e+00 1.736675621941685677e-03
3.003000000000000000e+03 3.594910812377929688e+01 -2.778855895996093750e+01 -8.235362917184829712e-02 6.414927005767822266e+00 1.899772047996520996e+00 1.200716570019721985e-02
3.004000000000000000e+03 4.559945297241210938e+01 -2.548348426818847656e+01 -1.179577708244323730e-01 6.969238758087158203e+00 2.055384159088134766e+00 -2.028566040098667145e-02
3.005000000000000000e+03 4.612877273559570312e+01 -2.191823768615722656e+01 -1.331990808248519897e-01 7.021507740020751953e+00 2.066492557525634766e+00 -2.584038674831390381e-02
3.006000000000000000e+03 5.126136016845703125e+01 -3.755504608154296875e+01 -1.100866273045539856e-01 7.230899333953857422e+00 2.136243820190429688e+00 -2.123104408383369446e-02
3.007000000000000000e+03 5.383194351196289062e+01 -3.377882385253906250e+01 -9.075222909450531006e-02 7.389418601989746094e+00 2.189599990844726562e+00 -3.893378749489784241e-02
3.008000000000000000e+03 5.030209732055664062e+01 -2.836970138549804688e+01 -1.114658340811729431e-01 7.206589221954345703e+00 2.128536939620971680e+00 -4.493428021669387817e-02
3.009000000000000000e+03 4.094521331787109375e+01 -2.409582519531250000e+01 -1.098191067576408386e-01 6.744902610778808594e+00 1.990525126457214355e+00 1.318749412894248962e-02
3.010000000000000000e+03 4.830023574829101562e+01 -2.532039833068847656e+01 -1.197843030095100403e-01 7.104138374328613281e+00 2.095306158065795898e+00 -4.975206404924392700e-02
3.011000000000000000e+03 5.109012985229492188e+01 -2.610609436035156250e+01 -1.143755242228507996e-01 7.249282836914062500e+00 2.140472173690795898e+00 -5.417777225375175476e-02
3.012000000000000000e+03 4.879291534423828125e+01 -3.015326499938964844e+01 -1.079026684165000916e-01 7.126644611358642578e+00 2.105622529983520508e+00 -4.152042046189308167e-02
3.013000000000000000e+03 5.043666839599609375e+01 -3.440841674804687500e+01 -9.721978008747100830e-02 7.194536685943603516e+00 2.129195213317871094e+00 -3.356804698705673218e-02
3.014000000000000000e+03 2.920092964172363281e+01 3.815378952026367188e+01 5.479958653450012207e-01 2.661784887313842773e+00 9.629341959953308105e-01 -1.907625436782836914e+00
3.015000000000000000e+03 2.999003982543945312e+01 3.737984085083007812e+01 4.112235605716705322e-01 4.777674198150634766e+00 1.556669354438781738e+00 -2.648761272430419922e+00
3.016000000000000000e+03 2.986625289916992188e+01 3.759019088745117188e+01 6.197121143341064453e-01 4.003239154815673828e+00 1.386885404586791992e+00 -2.384801149368286133e+00
3.017000000000000000e+03 3.153071022033691406e+01 3.722659683227539062e+01 -7.417495250701904297e-01 1.451397609710693359e+01 4.131667613983154297e+00 -2.719003677368164062e+00
3.018000000000000000e+03 2.950745391845703125e+01 3.388990783691406250e+01 3.852265596389770508e+00 3.020182132720947266e+00 2.061734437942504883e+00 3.882976531982421875e+00
3.019000000000000000e+03 3.088971138000488281e+01 3.383616256713867188e+01 2.870173692703247070e+00 1.226541614532470703e+01 4.540677070617675781e+00 6.366058349609375000e+00
3.020000000000000000e+03 2.897745513916015625e+01 3.381973266601562500e+01 3.197967290878295898e+00 1.995352864265441895e+00 1.557996034622192383e+00 2.781481981277465820e+00
3.021000000000000000e+03 2.856314659118652344e+01 3.397592544555664062e+01 2.650378942489624023e+00 1.344065546989440918e+00 1.198333382606506348e+00 1.965085983276367188e+00
3.022000000000000000e+03 7.801395416259765625e+01 4.162586593627929688e+01 -2.692603506147861481e-02 6.162199974060058594e+00 1.840582251548767090e+00 7.604117970913648605e-03
3.023000000000000000e+03 2.060517120361328125e+01 3.400611114501953125e+01 6.352752912789583206e-03 -4.885188341140747070e-01 -1.446498185396194458e-01 -3.106201626360416412e-02
3.024000000000000000e+03 3.454504394531250000e+01 4.084882736206054688e+01 -6.156913638114929199e-01 1.245404529571533203e+01 3.551506042480468750e+00 8.541271686553955078e-01
3.025000000000000000e+03 2.922362709045410156e+01 3.786116790771484375e+01 6.108477711677551270e-01 2.574332714080810547e+00 9.555541276931762695e-01 -1.726787328720092773e+00
3.026000000000000000e+03 3.088895225524902344e+01 3.282764434814453125e+01 1.646844029426574707e+00 1.050665283203125000e+01 3.646049261093139648e+00 4.576091289520263672e+00
3.027000000000000000e+03 3.053661918640136719e+01 3.316440582275390625e+01 2.420463085174560547e+00 9.042807579040527344e+00 3.438981294631958008e+00 5.118259429931640625e+00
3.028000000000000000e+03 1.050985431671142578e+01 -3.651552581787109375e+01 -7.013607770204544067e-02 4.522759839892387390e-02 -7.472543511539697647e-03 1.069883909076452255e-02
3.029000000000000000e+03 2.762770080566406250e+01 4.067564773559570312e+01 1.129229784011840820e+00 1.288593292236328125e+00 7.253469228744506836e-01 -9.937607645988464355e-01
3.030000000000000000e+03 2.820720481872558594e+01 3.993391418457031250e+01 1.305479764938354492e+00 1.645307421684265137e+00 8.852361440658569336e-01 -4.502737522125244141e-01
3.031000000000000000e+03 1.367220020294189453e+01 2.974572753906250000e+01 -4.376390017569065094e-03 1.263948273845016956e-03 -9.337324881926178932e-04 3.409415367059409618e-04
3.032000000000000000e+03 3.256260681152343750e+01 3.924781799316406250e+01 -9.636595249176025391e-01 1.246134376525878906e+01 3.449305295944213867e+00 -3.344852328300476074e-01
3.033000000000000000e+03 3.226063919067382812e+01 4.042384338378906250e+01 -9.514965415000915527e-01 1.093232250213623047e+01 2.994247913360595703e+00 -7.365894913673400879e-01
3.034000000000000000e+03 1.060961246490478516e+01 -2.055879783630371094e+01 -3.206585242878645658e-04 1.093237893655896187e-03 2.317738253623247147e-04 2.112372312694787979e-03
3.035000000000000000e+03 2.930754280090332031e+01 3.770308685302734375e+01 5.594515800476074219e-01 2.246725320816040039e+00 8.418530821800231934e-01 -1.888223290443420410e+00
3.036000000000000000e+03 2.976248931884765625e+01 3.810456848144531250e+01 5.736507773399353027e-01 4.542768955230712891e+00 1.534925937652587891e+00 -2.279835700988769531e+00
3.037000000000000000e+03 2.958620071411132812e+01 3.358935546875000000e+01 3.606690406799316406e+00 4.082228660583496094e+00 2.306675672531127930e+00 4.273951053619384766e+00
3.038000000000000000e+03 2.834383773803710938e+01 3.375667190551757812e+01 2.524182081222534180e+00 1.383352041244506836e+00 1.172260165214538574e+00 1.879189968109130859e+00
3.039000000000000000e+03 7.601657867431640625e+01 3.529937744140625000e+01 6.119840592145919800e-02 6.514248371124267578e+00 1.972634077072143555e+00 -1.261048913002014160e-01
3.040000000000000000e+03 2.313284873962402344e+01 -2.529977226257324219e+01 -2.692591957747936249e-02 5.755914211273193359e+00 1.718696475028991699e+00 1.640885770320892334e-01
3.041000000000000000e+03 2.788305664062500000e+01 3.321193695068359375e+01 2.182898759841918945e+00 1.414184331893920898e+00 1.079124927520751953e+00 1.757863759994506836e+00
3.042000000000000000e+03 2.885309982299804688e+01 3.341926193237304688e+01 3.014202594757080078e+00 2.572552919387817383e+00 1.676026701927185059e+00 2.926841974258422852e+00
3.043000000000000000e+03 1.252736473083496094e+01 -3.348636865615844727e+00 -2.222961047664284706e-03 4.068457201356068254e-05 -6.546829245053231716e-04 2.279653199366293848e-05
3.044000000000000000e+03 2.957553863525390625e+00 -2.953305959701538086e+00 -5.571689689531922340e-04 1.921191687870305032e-05 -1.613871136214584112e-04 -2.060982951661571860e-04
3.045000000000000000e+03 2.951139831542968750e+01 3.783555984497070312e+01 5.356939435005187988e-01 3.051033020019531250e+00 1.076018095016479492e+00 -2.204893827438354492e+00
3.046000000000000000e+03 7.809851837158203125e+01 -3.588348770141601562e+01 -1.072140131145715714e-02 8.619141578674316406e+00 2.582526206970214844e+00 2.963559003546833992e-03
3.047000000000000000e+03 5.115311622619628906e+00 -3.386582183837890625e+01 -1.815211586654186249e-02 7.430638652294874191e-04 -5.222715903073549271e-03 -1.887786202132701874e-02
3.048000000000000000e+03 3.058957862854003906e+01 3.251313018798828125e+01 1.665520310401916504e+00 9.096399307250976562e+00 3.228575944900512695e+00 4.391862869262695312e+00
3.049000000000000000e+03 3.066309738159179688e+01 3.199608802795410156e+01 1.282512903213500977e+00 9.328495025634765625e+00 3.183302402496337891e+00 4.026757717132568359e+00
3.050000000000000000e+03 3.608620452880859375e+01 3.842715454101562500e+01 1.590152978897094727e+00 1.187493801116943359e+01 4.039527416229248047e+00 1.566102504730224609e+00
3.051000000000000000e+03 1.359927177429199219e+01 3.509894561767578125e+01 7.709234487265348434e-03 -1.228438457474112511e-03 1.944238785654306412e-03 2.055564109468832612e-04
3.052000000000000000e+03 3.463222122192382812e+01 3.928192520141601562e+01 1.148210167884826660e-01 1.286498928070068359e+01 3.893943071365356445e+00 1.261299014091491699e+00
3.053000000000000000e+03 3.933827972412109375e+01 3.497942352294921875e+01 2.353441476821899414e+00 9.908268928527832031e+00 3.678513050079345703e+00 1.585116386413574219e-01
3.054000000000000000e+03 3.086190795898437500e+01 3.225061798095703125e+01 1.312903642654418945e+00 9.822657585144042969e+00 3.340668439865112305e+00 4.233948230743408203e+00
3.055000000000000000e+03 5.159563064575195312e+00 -3.343412637710571289e+00 -5.492164054885506630e-04 -4.519663052633404732e-04 -3.003548190463334322e-04 -1.111696547013707459e-04
3.056000000000000000e+03 4.892606735229492188e+00 -3.129766082763671875e+01 -1.513330359011888504e-02 -1.326103811152279377e-04 -4.579774104058742523e-03 -7.728209253400564194e-03
3.057000000000000000e+03 1.095840835571289062e+01 -4.366864681243896484e+00 6.164010846987366676e-04 6.729658343829214573e-04 3.868100757244974375e-04 -7.744050817564129829e-04
3.058000000000000000e+03 3.396594524383544922e+00 4.320105075836181641e+00 6.089715752750635147e-04 -3.472343087196350098e-04 7.852118142182007432e-05 6.843325681984424591e-04
3.059000000000000000e+03 3.057920265197753906e+01 3.171745491027832031e+01 1.099313497543334961e+00 8.786473274230957031e+00 2.965736150741577148e+00 3.867140531539916992e+00
3.060000000000000000e+03 2.267791557312011719e+01 -3.217268753051757812e+01 1.896703690290451050e-01 5.722099781036376953e+00 1.773530960083007812e+00 2.524035573005676270e-01
3.061000000000000000e+03 3.092107772827148438e+01 3.141511535644531250e+01 6.915487051010131836e-01 9.675534248352050781e+00 3.110125064849853516e+00 3.462111949920654297e+00
3.062000000000000000e+03 3.177856826782226562e+01 3.091561889648437500e+01 2.365332245826721191e-01 1.051285839080810547e+01 3.224817514419555664e+00 2.432141065597534180e+00
3.063000000000000000e+03 3.112270927429199219e+01 3.201393127441406250e+01 7.877729535102844238e-01 1.084412193298339844e+01 3.489568710327148438e+00 3.607385635375976562e+00
3.064000000000000000e+03 9.816059112548828125e+00 4.163314819335937500e+00 -2.673606213647872210e-04 -3.830459609162062407e-04 -1.951219746842980385e-04 -1.970996672753244638e-04
3.065000000000000000e+03 3.059416198730468750e+01 3.139554977416992188e+01 9.438884854316711426e-01 8.718411445617675781e+00 2.898689985275268555e+00 3.653230905532836914e+00
3.066000000000000000e+03 9.699224472045898438e+00 -3.271818542480468750e+01 -1.926635019481182098e-02 1.214121934026479721e-02 -2.137538976967334747e-03 1.234728284180164337e-02
3.067000000000000000e+03 2.398198509216308594e+01 -3.248025131225585938e+01 2.542271614074707031e-01 5.675126552581787109e+00 1.778806090354919434e+00 1.984671056270599365e-01
3.068000000000000000e+03 2.556074905395507812e+01 -3.334103775024414062e+01 1.321034729480743408e-01 5.652247428894042969e+00 1.735305190086364746e+00 3.257120773196220398e-02
3.069000000000000000e+03 6.903555393218994141e+00 -2.859960365295410156e+01 -1.279108971357345581e-02 1.656748470850288868e-03 -3.340302268043160439e-03 -4.126261919736862183e-03
3.070000000000000000e+03 4.001866340637207031e+00 5.009302616119384766e+00 -1.228487119078636169e-03 3.799726837314665318e-04 -2.545543247833848000e-04 -7.624267600476741791e-04
3.071000000000000000e+03 4.692255020141601562e+00 3.119714355468750000e+01 4.649589303880929947e-03 -1.245766063220798969e-03 1.021147007122635841e-03 8.982495637610554695e-04
3.072000000000000000e+03 5.576333999633789062e+01 -3.141584014892578125e+01 -8.989653736352920532e-02 7.469478130340576172e+00 2.213874578475952148e+00 -5.124655365943908691e-02
3.073000000000000000e+03 6.436373901367187500e+01 -3.061728858947753906e+01 -5.234668403863906860e-02 7.889046192169189453e+00 2.351009845733642578e+00 -6.068913638591766357e-02
3.074000000000000000e+03 6.610884094238281250e+01 -2.611837005615234375e+01 -5.159208551049232483e-02 7.959835529327392578e+00 2.372473001480102539e+00 -7.770753651857376099e-02
3.075000000000000000e+03 9.806499481201171875e+00 2.791296768188476562e+01 -3.976735752075910568e-03 -1.628201687708497047e-03 -1.681481255218386650e-03 6.930977106094360352e-04
3.076000000000000000e+03 7.901854515075683594e+00 -2.889962005615234375e+01 -3.526790067553520203e-03 -1.172914402559399605e-03 -1.409911317750811577e-03 2.518337452784180641e-03
3.077000000000000000e+03 2.631911849975585938e+01 2.804616165161132812e+01 5.388630628585815430e-01 3.480361223220825195e+00 1.205767273902893066e+00 1.901937484741210938e+00
3.078000000000000000e+03 8.943956375122070312e+00 6.190732955932617188e+00 2.324018394574522972e-03 -7.400406757369637489e-04 4.751933156512677670e-04 4.485991084948182106e-04
3.079000000000000000e+03 8.126060485839843750e+00 5.232131004333496094e+00 -1.184084452688694000e-03 -1.103949616663157940e-04 -3.883438184857368469e-04 -3.598397233872674406e-05
3.080000000000000000e+03 6.148010253906250000e+01 -2.918706893920898438e+01 -6.915269047021865845e-02 7.725582122802734375e+00 2.296928882598876953e+00 -6.655020266771316528e-02
3.081000000000000000e+03 6.629583835601806641e+00 -1.943580245971679688e+01 -2.355409087613224983e-03 -2.617599442601203918e-03 -1.491902512498199940e-03 -2.420641016215085983e-03
3.082000000000000000e+03 3.618923902511596680e+00 5.999938964843750000e+00 1.588784856721758842e-03 2.430894674034789205e-04 5.495622754096984863e-04 5.601741941063664854e-05
3.083000000000000000e+03 8.721178054809570312e+00 5.213524341583251953e+00 9.810189949348568916e-04 5.024565689382143319e-05 3.093793930020183325e-04 8.627812349004670978e-05
3.084000000000000000e+03 8.554366111755371094e+00 2.543422126770019531e+01 4.248797893524169922e-03 1.156423008069396019e-03 1.621566247195005417e-03 1.668796990998089314e-03
3.085000000000000000e+03 9.740705490112304688e+00 -5.745106697082519531e+00 -9.338192758150398731e-04 2.246583899250254035e-04 -2.127482584910467267e-04 1.243941835127770901e-03
3.086000000000000000e+03 4.386156463623046875e+01 2.718254661560058594e+01 3.195173144340515137e-01 9.052843093872070312e+00 2.811707973480224609e+00 -6.462201476097106934e-01
3.087000000000000000e+03 2.937344741821289062e+01 3.072012329101562500e+01 1.156692385673522949e+00 6.110662937164306641e+00 2.180206537246704102e+00 3.285768270492553711e+00
3.088000000000000000e+03 4.227807521820068359e+00 1.313521862030029297e+01 -2.600934822112321854e-03 4.255185776855796576e-04 -6.526248762384057045e-04 -1.196720550069585443e-04
3.089000000000000000e+03 6.176802444458007812e+01 -2.698643112182617188e+01 -7.152725756168365479e-02 7.743137359619140625e+00 2.301483154296875000e+00 -7.989786565303802490e-02
3.090000000000000000e+03 5.510153961181640625e+01 -2.283366203308105469e+01 -1.151245608925819397e-01 7.455593109130859375e+00 2.202140569686889648e+00 -8.162208646535873413e-02
3.091000000000000000e+03 6.730731964111328125e+01 -2.101178359985351562e+01 -4.892956838011741638e-02 7.999703884124755859e+00 2.385232210159301758e+00 -1.037162989377975464e-01
3.092000000000000000e+03 3.092182350158691406e+01 2.735019302368164062e+01 -3.294445276260375977e-01 7.809085369110107422e+00 2.243892192840576172e+00 2.149533748626708984e+00
3.093000000000000000e+03 7.272906494140625000e+01 2.368355941772460938e+01 2.142652869224548340e-02 7.169791698455810547e+00 2.157365560531616211e+00 -3.891325294971466064e-01
3.094000000000000000e+03 2.773869705200195312e+01 -2.871853446960449219e+01 1.535212062299251556e-02 5.922367572784423828e+00 1.781315922737121582e+00 1.231840178370475769e-01
3.095000000000000000e+03 3.357908248901367188e+01 2.612057495117187500e+01 -6.537952423095703125e-01 9.003020286560058594e+00 2.504767417907714844e+00 1.186844468116760254e+00
3.096000000000000000e+03 4.464666748046875000e+01 2.545373725891113281e+01 6.430446356534957886e-02 8.885546684265136719e+00 2.684955358505249023e+00 -6.167632937431335449e-01
3.097000000000000000e+03 5.134128570556640625e+01 -1.765581893920898438e+01 -1.495859026908874512e-01 7.314543247222900391e+00 2.149487257003784180e+00 -7.711587846279144287e-02
3.098000000000000000e+03 7.281186676025390625e+01 -2.431625747680664062e+01 -1.450563035905361176e-02 8.278584480285644531e+00 2.479223728179931641e+00 -5.629100650548934937e-02
3.099000000000000000e+03 3.292067337036132812e+01 -1.215617179870605469e+01 -9.410603344440460205e-02 6.397287845611572266e+00 1.890954613685607910e+00 1.701838076114654541e-01
3.100000000000000000e+03 7.325843048095703125e+01 1.766134834289550781e+01 -1.130447164177894592e-02 7.379513263702392578e+00 2.210462570190429688e+00 -3.679695725440979004e-01
3.101000000000000000e+03 3.893990707397460938e+01 -1.608698272705078125e+01 -1.293299645185470581e-01 6.695707798004150391e+00 1.969913244247436523e+00 6.982704997062683105e-02
3.102000000000000000e+03 3.279128265380859375e+01 -7.378591060638427734e+00 -1.297354847192764282e-01 6.431942462921142578e+00 1.890662074089050293e+00 2.391841560602188110e-01
3.103000000000000000e+03 3.272179412841796875e+01 2.453283309936523438e+01 -7.663456201553344727e-01 8.215763092041015625e+00 2.234825372695922852e+00 1.421252250671386719e+00
3.104000000000000000e+03 4.238649749755859375e+01 2.102715873718261719e+01 -5.108392238616943359e-01 8.697522163391113281e+00 2.456005096435546875e+00 -1.886668652296066284e-01
3.105000000000000000e+03 3.880832290649414062e+01 -1.445670604705810547e+01 -1.465539187192916870e-01 6.710535049438476562e+00 1.969194412231445312e+00 8.383200317621231079e-02
3.106000000000000000e+03 3.128604316711425781e+01 2.495009231567382812e+01 -6.381710171699523926e-01 7.508149623870849609e+00 2.060993432998657227e+00 1.761641621589660645e+00
3.107000000000000000e+03 3.473192977905273438e+01 -1.022320556640625000e+01 -1.331456005573272705e-01 6.515538692474365234e+00 1.914717912673950195e+00 1.780222505331039429e-01
3.108000000000000000e+03 3.391522598266601562e+01 -7.741148471832275391e+00 -1.396284103393554688e-01 6.500449180603027344e+00 1.908246159553527832e+00 2.154932022094726562e-01
3.109000000000000000e+03 3.202143478393554688e+01 2.296385574340820312e+01 -7.353900074958801270e-01 7.578028202056884766e+00 2.052791357040405273e+00 1.452088356018066406e+00
3.110000000000000000e+03 5.665528106689453125e+01 1.169482707977294922e+01 -2.911882102489471436e-01 7.948855876922607422e+00 2.297300338745117188e+00 -5.081725120544433594e-01
3.111000000000000000e+03 5.769197845458984375e+01 9.474379539489746094e+00 -2.865875363349914551e-01 7.899451255798339844e+00 2.283859252929687500e+00 -4.750140309333801270e-01
3.112000000000000000e+03 3.308893966674804688e+01 -3.712851047515869141e+00 -1.618717908859252930e-01 6.484608650207519531e+00 1.896821022033691406e+00 2.943685054779052734e-01
3.113000000000000000e+03 4.336414337158203125e+01 1.896192359924316406e+01 -5.530481338500976562e-01 8.511251449584960938e+00 2.387460947036743164e+00 -1.724518090486526489e-01
3.114000000000000000e+03 3.288940048217773438e+01 2.044981956481933594e+01 -7.967457771301269531e-01 7.498227119445800781e+00 2.010444402694702148e+00 1.206467032432556152e+00
3.115000000000000000e+03 3.426626205444335938e+01 1.942690277099609375e+01 -8.312649130821228027e-01 7.767293930053710938e+00 2.080808639526367188e+00 9.789087772369384766e-01
3.116000000000000000e+03 3.279141616821289062e+01 2.268357276916503906e+01 -7.874789834022521973e-01 7.918583393096923828e+00 2.139331340789794922e+00 1.275539755821228027e+00
3.117000000000000000e+03 6.659902191162109375e+01 1.087750053405761719e+01 -1.150241643190383911e-01 7.751447200775146484e+00 2.290926933288574219e+00 -4.931657314300537109e-01
3.118000000000000000e+03 3.460378265380859375e+01 -8.838598251342773438e+00 -1.394715607166290283e-01 6.526533126831054688e+00 1.916118383407592773e+00 1.970790475606918335e-01
3.119000000000000000e+03 5.247150802612304688e+01 8.391415596008300781e+00 -4.029125869274139404e-01 7.894947528839111328e+00 2.247610569000244141e+00 -3.255680203437805176e-01
3.120000000000000000e+03 4.577809143066406250e+01 -1.389510059356689453e+01 -1.847229748964309692e-01 7.089715480804443359e+00 2.071497678756713867e+00 -1.159729063510894775e-02
3.121000000000000000e+03 6.916280364990234375e+01 -1.417279243469238281e+00 -8.595975488424301147e-02 7.913650512695312500e+00 2.348307132720947266e+00 -2.780198454856872559e-01
3.122000000000000000e+03 3.607290267944335938e+01 1.236797690391540527e+00 -2.933623194694519043e-01 6.799663066864013672e+00 1.951890230178833008e+00 3.554801642894744873e-01
3.123000000000000000e+03 5.082845687866210938e+01 6.262275695800781250e+00 -4.288681447505950928e-01 7.807202816009521484e+00 2.213500261306762695e+00 -2.258188128471374512e-01
3.124000000000000000e+03 4.688779449462890625e+01 -1.059461212158203125e+01 -2.201142460107803345e-01 7.199696540832519531e+00 2.093874692916870117e+00 -1.894044876098632812e-02
3.125000000000000000e+03 3.835401153564453125e+01 8.904872894287109375e+00 -5.486930012702941895e-01 7.338329792022705078e+00 2.036890983581542969e+00 4.238075017929077148e-01
3.126000000000000000e+03 6.736284637451171875e+01 -2.810137033462524414e+00 -1.038664281368255615e-01 7.899100780487060547e+00 2.338570356369018555e+00 -2.779415547847747803e-01
3.127000000000000000e+03 6.832430267333984375e+01 -3.062904596328735352e+00 -9.258084744215011597e-02 7.919634819030761719e+00 2.348116159439086914e+00 -2.654608190059661865e-01
3.128000000000000000e+03 3.718149948120117188e+01 3.495379686355590820e+00 -3.784410953521728516e-01 6.972487926483154297e+00 1.978214025497436523e+00 3.819579184055328369e-01
3.129000000000000000e+03 6.244642257690429688e+01 5.111222267150878906e+00 -2.015512585639953613e-01 7.825504302978515625e+00 2.287185907363891602e+00 -4.217559695243835449e-01
3.130000000000000000e+03 5.813087463378906250e+01 -4.475632667541503906e+00 -2.192510664463043213e-01 7.712479114532470703e+00 2.247968435287475586e+00 -2.381046116352081299e-01
3.131000000000000000e+03 5.422294616699218750e+01 -1.729745745658874512e+00 -2.921161055564880371e-01 7.662660121917724609e+00 2.211163282394409180e+00 -2.147774547338485718e-01
3.132000000000000000e+03 4.001992034912109375e+01 9.952373504638671875e+00 -5.952459573745727539e-01 7.551373481750488281e+00 2.086838245391845703e+00 3.237567245960235596e-01
3.133000000000000000e+03 6.914871978759765625e+01 -5.702017307281494141e+00 -7.523758709430694580e-02 7.965746402740478516e+00 2.367152690887451172e+00 -2.240796685218811035e-01
3.134000000000000000e+03 3.817946243286132812e+01 3.363557577133178711e+00 -3.929573595523834229e-01 7.054193019866943359e+00 1.998370647430419922e+00 3.433302640914916992e-01
3.135000000000000000e+03 4.166098403930664062e+01 3.703440189361572266e+00 -4.404287934303283691e-01 7.336456775665283203e+00 2.068808317184448242e+00 1.875211894512176514e-01
3.136000000000000000e+03 3.922209167480468750e+01 1.625020503997802734e+00 -3.675222694873809814e-01 7.071244716644287109e+00 2.011116743087768555e+00 2.648264467716217041e-01
3.137000000000000000e+03 3.996484375000000000e+01 2.662321090698242188e+00 -4.001763463020324707e-01 7.182184696197509766e+00 2.034602642059326172e+00 2.404667586088180542e-01
3.138000000000000000e+03 3.898162841796875000e+01 3.124106168746948242e+00 -3.984344601631164551e-01 7.109356880187988281e+00 2.013276815414428711e+00 2.971990704536437988e-01
3.139000000000000000e+03 4.865957260131835938e+01 -1.556319355964660645e+00 -3.506236672401428223e-01 7.491089820861816406e+00 2.142139911651611328e+00 -6.823344528675079346e-02
3.140000000000000000e+03 4.713051223754882812e+01 -2.542693853378295898e+00 -3.324557840824127197e-01 7.393898487091064453e+00 2.118432760238647461e+00 -2.773899957537651062e-02
3.141000000000000000e+03 6.477340698242187500e+01 -3.838746786117553711e+00 -1.351125538349151611e-01 7.855067729949951172e+00 2.315986633300781250e+00 -2.770535349845886230e-01
3.142000000000000000e+03 5.549268722534179688e+01 -1.151044964790344238e+00 -2.847116589546203613e-01 7.700617313385009766e+00 2.224771738052368164e+00 -2.414116114377975464e-01
3.143000000000000000e+03 1.427604866027832031e+01 1.918314248323440552e-01 1.456520258216187358e-04 -1.074670308298664168e-05 4.047159382025711238e-05 -5.667624282068572938e-05
3.144000000000000000e+03 1.480745506286621094e+01 4.566579461097717285e-01 -5.223405241849832237e-05 -3.601193748181685805e-05 -2.647379551490303129e-05 -1.267937750526471063e-05
3.145000000000000000e+03 1.334921646118164062e+01 1.154413938522338867e+00 -5.238682497292757034e-04 3.012256638612598181e-05 -1.481237122789025307e-04 -3.432915400480851531e-05
3.146000000000000000e+03 1.329909420013427734e+01 2.687930464744567871e-01 1.859484473243355751e-04 -3.218801575712859631e-04 -4.077950870851054788e-05 -1.020023410092107952e-04
3.147000000000000000e+03 1.449918746948242188e+01 1.067231655120849609e+00 -7.159887463785707951e-04 -1.493901800131425261e-04 -2.596136764623224735e-04 1.578749943291768432e-04
3.148000000000000000e+03 1.358560276031494141e+01 7.570860385894775391e-01 -4.062404623255133629e-04 3.590168853406794369e-05 -1.111016317736357450e-04 2.480708644725382328e-04
3.149000000000000000e+03 1.381844425201416016e+01 1.610024422407150269e-01 -9.445828618481755257e-05 1.786218781489878893e-04 2.524907540646381676e-05 1.776229764800518751e-04
3.150000000000000000e+03 1.395267581939697266e+01 1.181210637092590332e+00 5.142090376466512680e-04 1.881597127066925168e-04 2.107106265611946583e-04 -1.774587290128692985e-04
3.151000000000000000e+03 1.404123497009277344e+01 5.511854887008666992e-01 3.239054640289396048e-04 1.719560532364994287e-04 1.487584522692486644e-04 -4.051694995723664761e-04
3.152000000000000000e+03 1.112969017028808594e+01 3.708996772766113281e-01 -7.424350042128935456e-05 -2.189369115512818098e-04 -8.795412577455863357e-05 -1.318025897489860654e-04
3.153000000000000000e+03 1.113907623291015625e+01 1.110847473144531250e+00 2.049348840955644846e-04 3.192381118424236774e-04 1.572518958710134029e-04 3.280314849689602852e-04
3.154000000000000000e+03 1.263169097900390625e+01 3.451149165630340576e-01 -1.361173490295186639e-04 2.455829235259443521e-04 3.283967089373618364e-05 -7.601507968502119184e-05
3.155000000000000000e+03 1.037880802154541016e+01 3.837110698223114014e-01 7.484275556635111570e-05 4.481954092625528574e-04 1.569114392623305321e-04 1.092334787244908512e-04
3.156000000000000000e+03 1.188065242767333984e+01 3.580341637134552002e-01 1.009583575068973005e-04 -3.760991603485308588e-05 1.900453389680478722e-05 1.329537626588717103e-04
3.157000000000000000e+03 1.264514160156250000e+01 1.084993243217468262e+00 4.608033632393926382e-04 -2.785988954201457091e-06 1.374052080791443586e-04 2.557931002229452133e-04
3.158000000000000000e+03 1.038616180419921875e+01 1.123693704605102539e+00 -1.882248034235090017e-04 -4.244185693096369505e-04 -1.837930176407098770e-04 -2.540691930335015059e-04
3.159000000000000000e+03 1.189207077026367188e+01 1.097947120666503906e+00 -2.923491701949387789e-04 -1.716122351353988051e-04 -1.391884143231436610e-04 -3.550943802110850811e-04
3.160000000000000000e+03 9.625078201293945312e+00 3.871397972106933594e-01 -7.324796752072870731e-05 -6.221149233169853687e-04 -2.086088643409311771e-04 -9.090344974538311362e-05
3.161000000000000000e+03 8.868724822998046875e+00 3.828192353248596191e-01 8.573320519644767046e-05 7.294112583622336388e-04 2.445433347020298243e-04 7.976168853929266334e-05
3.162000000000000000e+03 9.644926071166992188e+00 1.127139806747436523e+00 1.892905711429193616e-04 5.066623562015593052e-04 2.087858883896842599e-04 1.816428266465663910e-04
3.163000000000000000e+03 8.112174034118652344e+00 3.804100155830383301e-01 -9.336890798294916749e-05 -7.725537288933992386e-04 -2.597768034320324659e-04 -8.260871982201933861e-05
3.164000000000000000e+03 7.356014251708984375e+00 3.793691694736480713e-01 9.549936658004298806e-05 7.721078582108020782e-04 2.602821623440831900e-04 8.784211968304589391e-05
3.165000000000000000e+03 5.843623161315917969e+00 3.767499327659606934e-01 8.692630945006385446e-05 6.550231482833623886e-04 2.225848438683897257e-04 7.795362762408331037e-05
3.166000000000000000e+03 5.088051319122314453e+00 3.757717311382293701e-01 -9.289313311455771327e-05 -5.421569221653044224e-04 -1.905150274978950620e-04 -5.695428990293294191e-05
3.167000000000000000e+03 3.576755046844482422e+00 3.680583238601684570e-01 -1.199054458993487060e-04 -3.053567488677799702e-04 -1.275786635233089328e-04 -4.220082701067440212e-05
3.168000000000000000e+03 2.822042465209960938e+00 3.613462746143341064e-01 1.007884129649028182e-04 2.302727807546034455e-04 9.931835666066035628e-05 3.982084672315977514e-05
3.169000000000000000e+03 2.068703651428222656e+00 3.577998280525207520e-01 1.603858436283189803e-05 -1.131650933530181646e-04 -2.913795469794422388e-05 6.151479465188458562e-05
3.170000000000000000e+03 2.358754634857177734e+00 1.097799897193908691e+00 5.731291093979962170e-05 2.111042995238676667e-04 8.052516204770654440e-05 -7.133901817724108696e-05
3.171000000000000000e+03 1.327708005905151367e+00 3.658417165279388428e-01 -3.416651816223748028e-05 -9.287145076086744666e-05 -3.811138958553783596e-05 -1.947868440765887499e-04
3.172000000000000000e+03 1.644779324531555176e+00 1.105841755867004395e+00 3.059817345274495892e-06 -2.176261186832562089e-04 -6.436988769564777613e-05 2.479665272403508425e-04
3.173000000000000000e+03 6.509408354759216309e-01 3.937322795391082764e-01 7.888344698585569859e-04 5.582672310993075371e-04 4.041305219288915396e-04 7.008485263213515282e-04
3.174000000000000000e+03 3.482567369937896729e-01 9.569563269615173340e-01 -8.495303336530923843e-04 -5.176457343623042107e-04 -4.101528029423207045e-04 -3.371280618011951447e-04
3.175000000000000000e+03 3.085073232650756836e+00 1.101346254348754883e+00 -2.364572428632527590e-04 -1.940067304531112313e-04 -1.291391963604837656e-04 6.033615863998420537e-05
3.176000000000000000e+03 3.812765598297119141e+00 1.108058333396911621e+00 2.484009310137480497e-04 2.881238469853997231e-04 1.609574392205104232e-04 -7.689460471738129854e-05
3.177000000000000000e+03 4.332499980926513672e+00 3.732680678367614746e-01 9.181122732115909457e-05 4.126617568545043468e-04 1.513418974354863167e-04 4.086129047209396958e-05
3.178000000000000000e+03 5.998572826385498047e+00 1.116749882698059082e+00 -2.015268546529114246e-04 -5.117555265314877033e-04 -2.139847201760858297e-04 2.100549318129196763e-05
3.179000000000000000e+03 6.600036144256591797e+00 3.784387111663818359e-01 -9.910447988659143448e-05 -7.317254203371703625e-04 -2.492489584255963564e-04 -9.053913527168333530e-05
3.180000000000000000e+03 8.186062812805175781e+00 1.120409965515136719e+00 2.322056679986417294e-04 5.611571250483393669e-04 2.380088408244773746e-04 7.104336691554635763e-05
3.181000000000000000e+03 8.915593147277832031e+00 1.122819185256958008e+00 -2.175000263378024101e-04 -5.436984356492757797e-04 -2.283595385961234570e-04 -1.156599391833879054e-04
3.182000000000000000e+03 7.456923484802246094e+00 1.119369149208068848e+00 -2.335793833481147885e-04 -5.622289027087390423e-04 -2.387424901826307178e-04 -4.259114575688727200e-05
3.183000000000000000e+03 6.727965354919433594e+00 1.118438720703125000e+00 2.173759858123958111e-04 5.429954035207629204e-04 2.281114138895645738e-04 9.299885277869179845e-06
3.184000000000000000e+03 5.270021438598632812e+00 1.115771770477294922e+00 1.817606098484247923e-04 4.673915682360529900e-04 1.947456476045772433e-04 -6.321497494354844093e-05
3.185000000000000000e+03 4.541490077972412109e+00 1.113268017768859863e+00 -2.199423470301553607e-04 -3.903434553649276495e-04 -1.830857363529503345e-04 8.450594759779050946e-05
3.186000000000000000e+03 9.950323700904846191e-01 1.133732318878173828e+00 -3.879730356857180595e-04 4.822728224098682404e-04 2.828993820003233850e-05 -3.073684347327798605e-04
3.187000000000000000e+03 7.951600551605224609e+00 -3.791473805904388428e-01 -1.304089528275653720e-04 -6.666280096396803856e-04 -2.391110756434500217e-04 9.180070628644898534e-05
3.188000000000000000e+03 8.812386512756347656e+00 -1.121279358863830566e+00 -3.078008885495364666e-04 -4.497873596847057343e-04 -2.272764686495065689e-04 1.592438493389636278e-04
3.189000000000000000e+03 9.587816238403320312e+00 -3.863115906715393066e-01 -1.222540595335885882e-04 -4.620632971636950970e-04 -1.752952084643766284e-04 9.644673991715535522e-05
3.190000000000000000e+03 7.132064342498779297e+00 -3.779651820659637451e-01 1.260285353055223823e-04 6.895823171362280846e-04 2.446832659188657999e-04 -9.609100379748269916e-05
3.191000000000000000e+03 6.306247234344482422e+00 -3.772793114185333252e-01 -1.047909972839988768e-04 -6.576206651516258717e-04 -2.287235110998153687e-04 7.304727478185668588e-05
3.192000000000000000e+03 5.442752361297607422e+00 -3.835102021694183350e-01 5.471020995173603296e-05 5.496035446412861347e-04 1.812941336538642645e-04 8.977614015748258680e-06
3.193000000000000000e+03 4.552286148071289062e+00 -3.399353623390197754e-01 -1.067054254235699773e-04 -4.982234677299857140e-04 -1.814786664908751845e-04 -6.911314994795247912e-05
3.194000000000000000e+03 4.371328830718994141e+00 -8.708365559577941895e-01 4.252787330187857151e-04 1.334946573479101062e-04 1.676320243859663606e-04 1.210488844662904739e-04
3.195000000000000000e+03 2.785328388214111328e+00 -7.796061038970947266e-01 4.235695523675531149e-04 -1.442570792278274894e-04 8.379374048672616482e-05 5.066236481070518494e-04
3.196000000000000000e+03 1.180722951889038086e+00 -3.608860373497009277e-01 -5.085369921289384365e-04 9.886090992949903011e-05 -1.229028275702148676e-04 -7.448920223396271467e-05
3.197000000000000000e+03 4.099212884902954102e-01 -5.526853203773498535e-01 5.582146968663437292e-06 -1.098678330890834332e-04 -3.128570460830815136e-05 -6.096678043832071126e-05
3.198000000000000000e+03 7.477942705154418945e-01 -1.100885987281799316e+00 1.312865060754120350e-03 5.724062430090270936e-05 4.110317095182836056e-04 1.123809488490223885e-04
3.199000000000000000e+03 9.597747802734375000e+00 -1.126311540603637695e+00 3.019012801814824343e-04 3.960880858357995749e-04 2.093968068948015571e-04 -2.264326321892440319e-04
3.200000000000000000e+03 8.026608467102050781e+00 -1.119147419929504395e+00 3.137006424367427826e-04 4.726707411464303732e-04 2.359114150749519467e-04 -1.082648159353993833e-04
3.201000000000000000e+03 7.239610195159912109e+00 -1.117965221405029297e+00 -3.221090009901672602e-04 -4.678294935729354620e-04 -2.369815483689308167e-04 6.355440564220771194e-05
3.202000000000000000e+03 6.446331024169921875e+00 -1.117279291152954102e+00 2.750487765297293663e-04 4.510689759626984596e-04 2.178353315684944391e-04 -4.108105713385157287e-05
3.203000000000000000e+03 5.615375041961669922e+00 -1.123510241508483887e+00 -2.101383288390934467e-04 -3.918542934115976095e-04 -1.805977954063564539e-04 2.827029493346344680e-05
3.204000000000000000e+03 4.879715442657470703e+00 -1.221276640892028809e+00 8.677924779476597905e-05 3.077812143601477146e-04 1.183681379188783467e-04 -1.166556394309736788e-04
3.205000000000000000e+03 4.223337173461914062e+00 -1.290901184082031250e+00 -4.519388894550502300e-04 -1.106571144191548228e-04 -1.687788026174530387e-04 -5.004568811273202300e-05
3.206000000000000000e+03 3.489140987396240234e+00 -1.263193726539611816e+00 5.136193940415978432e-04 9.211018914356827736e-05 1.817188749555498362e-04 3.917112480849027634e-04
3.207000000000000000e+03 2.723763942718505859e+00 -1.258556365966796875e+00 -4.254246014170348644e-04 -2.211730752605944872e-04 -1.939793000929057598e-04 -6.782936980016529560e-04
3.208000000000000000e+03 1.357383847236633301e+00 -1.202877521514892578e+00 -1.585607882589101791e-03 -2.078418328892439604e-04 -5.380348884500563145e-04 -4.999342490918934345e-05
3.209000000000000000e+03 8.769917488098144531e+00 -3.812793791294097900e-01 1.107341595343314111e-04 5.922468844801187515e-04 2.108943153871223330e-04 -9.353755012853071094e-05
3.210000000000000000e+03 3.581377506256103516e+00 -7.854385375976562500e-01 -4.723662277683615685e-04 -8.588519995100796223e-05 -1.674754312261939049e-04 -2.848725416697561741e-04
3.211000000000000000e+03 3.695749998092651367e+00 -2.822447717189788818e-01 1.643668074393644929e-04 4.929694114252924919e-04 1.972008612938225269e-04 1.589905295986682177e-04
3.212000000000000000e+03 2.864297151565551758e+00 -2.810497581958770752e-01 -2.373780880589038134e-04 -4.000806657131761312e-04 -1.912376319523900747e-04 -1.867646642494946718e-04
3.213000000000000000e+03 1.994235515594482422e+00 -3.319245874881744385e-01 9.107711957767605782e-05 1.792832626961171627e-04 8.110811177175492048e-05 2.858931547962129116e-04
3.214000000000000000e+03 1.981270551681518555e+00 -1.274680376052856445e+00 6.662379601038992405e-04 3.887079365085810423e-04 3.164837544318288565e-04 6.424117018468677998e-04
3.215000000000000000e+03 1.973554253578186035e+00 -8.466050028800964355e-01 3.510780807118862867e-04 1.833506830735132098e-04 1.603286218596622348e-04 -7.375053246505558491e-04
3.216000000000000000e+03 1.332448291778564453e+01 -3.621845245361328125e-01 2.648208464961498976e-04 -4.201484262011945248e-04 -4.659827754949219525e-05 2.605803456390276551e-05
3.217000000000000000e+03 1.426397991180419922e+01 -1.317608714103698730e+00 -7.756862905807793140e-04 -3.561479679774492979e-04 -3.395502571947872639e-04 -4.346518253441900015e-04
3.218000000000000000e+03 1.327361392974853516e+01 -1.248556852340698242e+00 -1.693748054094612598e-04 -3.556356023182161152e-05 -6.148150714579969645e-05 4.794180567841976881e-04
3.219000000000000000e+03 1.480296707153320312e+01 -1.047354817390441895e+00 6.330608739517629147e-04 4.084178654011338949e-04 3.124436188954859972e-04 3.106512886006385088e-04
3.220000000000000000e+03 1.356446647644042969e+01 -7.579438090324401855e-01 -5.518085090443491936e-04 -1.538889191579073668e-04 -2.117092226399108768e-04 -5.220420425757765770e-04
3.221000000000000000e+03 1.393659019470214844e+01 -3.302382230758666992e-01 1.022177239065058529e-04 3.929586673621088266e-04 1.485529210185632110e-04 1.744503388181328773e-04
3.222000000000000000e+03 1.449034786224365234e+01 -4.399540424346923828e-01 -6.094848504289984703e-04 -5.238005542196333408e-04 -3.399856213945895433e-04 -5.986703909002244473e-04
3.223000000000000000e+03 1.380024147033691406e+01 -1.352263331413269043e+00 9.209908894263207912e-04 -1.443525688955560327e-04 2.329915005248039961e-04 -1.064036332536488771e-04
3.224000000000000000e+03 1.402595424652099609e+01 -9.610455632209777832e-01 1.103634014725685120e-03 2.076322271022945642e-04 3.933798579964786768e-04 7.188385934568941593e-04
3.225000000000000000e+03 1.185737037658691406e+01 -1.162281751632690430e+00 -3.373900253791362047e-04 -3.970104080508463085e-05 -1.131273238570429385e-04 2.287683746544644237e-04
3.226000000000000000e+03 1.112013435363769531e+01 -4.102526009082794189e-01 -1.272825320484116673e-04 -1.327111094724386930e-04 -7.799809100106358528e-05 9.100954048335552216e-05
3.227000000000000000e+03 1.261753940582275391e+01 -4.348734915256500244e-01 -1.103214526665396988e-04 2.924738510046154261e-04 5.464571586344391108e-05 1.445707748644053936e-04
3.228000000000000000e+03 1.037124824523925781e+01 -3.971002995967864990e-01 1.136587670771405101e-04 3.202305233571678400e-04 1.301667798543348908e-04 -9.986940858652815223e-05
3.229000000000000000e+03 1.036389350891113281e+01 -1.137082934379577637e+00 -3.545310173649340868e-04 -2.973483933601528406e-04 -1.955638144863769412e-04 2.861187094822525978e-04
3.230000000000000000e+03 1.260408973693847656e+01 -1.174751639366149902e+00 2.648292575031518936e-04 2.757685979304369539e-05 8.772183355176821351e-05 -2.775735047180205584e-04
3.231000000000000000e+03 1.111074829101562500e+01 -1.150200366973876953e+00 3.825647581834346056e-04 1.358581066597253084e-04 1.555268681840971112e-04 -2.675176656339317560e-04
3.232000000000000000e+03 1.186878871917724609e+01 -4.223687946796417236e-01 9.259895159630104899e-05 -5.706220690626651049e-05 1.066102413460612297e-05 -1.069399077096022666e-04
3.233000000000000000e+03 3.115177536010742188e+01 3.552731323242187500e+01 3.083686256408691406e+01 2.474214792251586914e+00 9.993323326110839844e+00 5.750875949859619141e+00
3.234000000000000000e+03 3.115246391296386719e+01 3.550785827636718750e+01 3.196141815185546875e+01 9.260274887084960938e+00 1.236650848388671875e+01 1.675244712829589844e+01
3.235000000000000000e+03 3.115692710876464844e+01 3.548890686035156250e+01 3.126585578918457031e+01 1.779201126098632812e+01 1.471735954284667969e+01 2.190976142883300781e+01
3.236000000000000000e+03 3.116499328613281250e+01 3.547118759155273438e+01 2.860692024230957031e+01 2.745630073547363281e+01 1.681896591186523438e+01 2.509708595275878906e+01
3.237000000000000000e+03 3.117635536193847656e+01 3.545537948608398438e+01 2.538034629821777344e+01 3.698998260498046875e+01 1.871109962463378906e+01 2.570205307006835938e+01
3.238000000000000000e+03 3.119057655334472656e+01 3.544208526611328125e+01 2.169580459594726562e+01 4.590949249267578125e+01 2.028158950805664062e+01 2.404967117309570312e+01
3.239000000000000000e+03 3.120711517333984375e+01 3.543181228637695312e+01 1.865120697021484375e+01 5.320822906494140625e+01 2.155783081054687500e+01 2.038063812255859375e+01
3.240000000000000000e+03 3.122533607482910156e+01 3.542495727539062500e+01 1.670698738098144531e+01 5.827481079101562500e+01 2.249453926086425781e+01 1.525900363922119141e+01
3.241000000000000000e+03 3.124454307556152344e+01 3.542178344726562500e+01 1.627453804016113281e+01 6.073884963989257812e+01 2.310401535034179688e+01 9.472764968872070312e+00
3.242000000000000000e+03 3.126400184631347656e+01 3.542240524291992188e+01 1.765470504760742188e+01 6.074554443359375000e+01 2.352007484436035156e+01 4.000441074371337891e+00
3.243000000000000000e+03 3.128296661376953125e+01 3.542680358886718750e+01 2.048216247558593750e+01 5.853034973144531250e+01 2.370375442504882812e+01 -7.755584120750427246e-01
3.244000000000000000e+03 3.130071067810058594e+01 3.543481445312500000e+01 2.363892364501953125e+01 5.495605087280273438e+01 2.357849311828613281e+01 -3.829427957534790039e+00
3.245000000000000000e+03 3.131655883789062500e+01 3.544612121582031250e+01 2.820432853698730469e+01 5.082081604003906250e+01 2.370754241943359375e+01 -5.221455574035644531e+00
3.246000000000000000e+03 3.132990074157714844e+01 3.546030044555664062e+01 3.163154220581054688e+01 4.652593612670898438e+01 2.344724273681640625e+01 -5.154790401458740234e+00
3.247000000000000000e+03 3.134022712707519531e+01 3.547680282592773438e+01 3.505493545532226562e+01 4.286840057373046875e+01 2.337700080871582031e+01 -3.481160402297973633e+00
3.248000000000000000e+03 3.134714126586914062e+01 3.549500274658203125e+01 3.715543365478515625e+01 4.062823486328125000e+01 2.333510017395019531e+01 -1.075819969177246094e+00
3.249000000000000000e+03 3.135038185119628906e+01 3.551419830322265625e+01 3.851946640014648438e+01 3.951753616333007812e+01 2.341110038757324219e+01 2.651585817337036133e+00
3.250000000000000000e+03 3.134982299804687500e+01 3.553365707397460938e+01 3.822532653808593750e+01 3.947187423706054688e+01 2.330916023254394531e+01 5.931260108947753906e+00
3.251000000000000000e+03 3.134548759460449219e+01 3.555263900756835938e+01 3.668230819702148438e+01 4.167935562133789062e+01 2.350849914550781250e+01 9.505102157592773438e+00
3.252000000000000000e+03 3.133753776550292969e+01 3.557040786743164062e+01 3.381509017944335938e+01 4.489610290527343750e+01 2.361335754394531250e+01 1.212968063354492188e+01
3.253000000000000000e+03 3.132628250122070312e+01 3.558629226684570312e+01 2.924545669555664062e+01 4.905868911743164062e+01 2.349124336242675781e+01 1.375399971008300781e+01
3.254000000000000000e+03 3.131214904785156250e+01 3.559968185424804688e+01 2.453230667114257812e+01 5.384598541259765625e+01 2.351348686218261719e+01 1.349609184265136719e+01
3.255000000000000000e+03 3.129567909240722656e+01 3.561006546020507812e+01 1.897258186340332031e+01 5.831902313232421875e+01 2.318748283386230469e+01 1.137371635437011719e+01
3.256000000000000000e+03 3.127750396728515625e+01 3.561704254150390625e+01 1.404561328887939453e+01 6.148831939697265625e+01 2.266017913818359375e+01 7.480345249176025391e+00
3.257000000000000000e+03 3.125831794738769531e+01 3.562034606933593750e+01 1.023618888854980469e+01 6.274352645874023438e+01 2.189391517639160156e+01 2.109764337539672852e+00
3.258000000000000000e+03 3.123885726928710938e+01 3.561985015869140625e+01 7.870686054229736328e+00 6.144009399414062500e+01 2.079323387145996094e+01 -4.047749996185302734e+00
3.259000000000000000e+03 3.121986389160156250e+01 3.561557769775390625e+01 7.112122535705566406e+00 5.743883132934570312e+01 1.936528587341308594e+01 -1.000854110717773438e+01
3.260000000000000000e+03 3.120206451416015625e+01 3.560768890380859375e+01 8.018129348754882812e+00 5.086386871337890625e+01 1.766459846496582031e+01 -1.515415668487548828e+01
3.261000000000000000e+03 3.118614387512207031e+01 3.559648513793945312e+01 9.712447166442871094e+00 4.238866806030273438e+01 1.563033485412597656e+01 -1.861453056335449219e+01
3.262000000000000000e+03 3.117270851135253906e+01 3.558239746093750000e+01 1.261516094207763672e+01 3.221122360229492188e+01 1.344791507720947266e+01 -1.998393630981445312e+01
3.263000000000000000e+03 3.116227149963378906e+01 3.556595993041992188e+01 1.510787677764892578e+01 2.164827537536621094e+01 1.102684593200683594e+01 -1.896201133728027344e+01
3.264000000000000000e+03 3.115523529052734375e+01 3.554780960083007812e+01 1.997720146179199219e+01 8.738065719604492188e+00 8.614580154418945312e+00 -1.224930095672607422e+01
