# el_label, x, y, sXX, sYY, sZZ, sXY
1.000000000000000000e+00 6.957560729980468750e+01 3.083370590209960938e+01 -6.381577491760253906e+00 -2.541893243789672852e+00 -2.677041292190551758e+00 -2.726891040802001953e+00
2.000000000000000000e+00 6.937771606445312500e+01 3.081240272521972656e+01 -2.381320953369140625e+00 9.488181471824645996e-01 -4.297508299350738525e-01 6.983328461647033691e-01
3.000000000000000000e+00 6.917981719970703125e+01 3.079109573364257812e+01 -3.671386241912841797e+00 -3.912554979324340820e-01 -1.218792438507080078e+00 -4.928539320826530457e-02
4.000000000000000000e+00 6.898191833496093750e+01 3.076979064941406250e+01 -3.996387481689453125e+00 2.172419130802154541e-01 -1.133743643760681152e+00 9.622444957494735718e-02
5.000000000000000000e+00 6.958750915527343750e+01 3.077652740478515625e+01 8.489480972290039062e+00 -2.324321746826171875e+00 1.849547624588012695e+00 1.982210636138916016e+00
6.000000000000000000e+00 6.939755249023437500e+01 3.071710205078125000e+01 1.497143626213073730e+00 3.480173647403717041e-01 5.535482764244079590e-01 1.348496437072753906e+00
7.000000000000000000e+00 6.920758819580078125e+01 3.065767669677734375e+01 1.280094146728515625e+00 8.560761809349060059e-01 6.408510804176330566e-01 2.104151248931884766e+00
8.000000000000000000e+00 6.901762390136718750e+01 3.059825325012207031e+01 1.250940002501010895e-02 2.807591259479522705e-01 8.798056095838546753e-02 1.360389113426208496e+00
9.000000000000000000e+00 6.961031341552734375e+01 3.072275924682617188e+01 1.333324432373046875e+01 2.687722921371459961e+00 4.806290149688720703e+00 8.884835243225097656e+00
1.000000000000000000e+01 6.943555450439453125e+01 3.062748908996582031e+01 7.202458381652832031e+00 1.663724422454833984e+00 2.659854650497436523e+00 5.170422554016113281e+00
1.100000000000000000e+01 6.926079559326171875e+01 3.053221893310546875e+01 4.070106029510498047e+00 2.047441720962524414e+00 1.835264325141906738e+00 4.130007266998291016e+00
1.200000000000000000e+01 6.908603668212890625e+01 3.043694877624511719e+01 3.245510101318359375e+00 2.033715009689331055e+00 1.583767533302307129e+00 3.924591064453125000e+00
1.300000000000000000e+01 6.964315795898437500e+01 3.067445945739746094e+01 1.481890487670898438e+01 9.654800415039062500e+00 7.342111587524414062e+00 1.407615661621093750e+01
1.400000000000000000e+01 6.949028778076171875e+01 3.054698944091796875e+01 8.715649604797363281e+00 5.958844661712646484e+00 4.402348518371582031e+00 9.232514381408691406e+00
1.500000000000000000e+01 6.933741760253906250e+01 3.041951942443847656e+01 6.422528743743896484e+00 4.900117397308349609e+00 3.396793842315673828e+00 7.263416767120361328e+00
1.600000000000000000e+01 6.918454742431640625e+01 3.029204940795898438e+01 4.504733085632324219e+00 4.300917625427246094e+00 2.641695261001586914e+00 6.173388481140136719e+00
1.700000000000000000e+01 6.968476104736328125e+01 3.063347816467285156e+01 1.286871337890625000e+01 1.815477943420410156e+01 9.307047843933105469e+00 1.719267082214355469e+01
1.800000000000000000e+01 6.955963897705078125e+01 3.047868537902832031e+01 8.717112541198730469e+00 1.179975795745849609e+01 6.155061244964599609e+00 1.211716270446777344e+01
1.900000000000000000e+01 6.943451690673828125e+01 3.032389450073242188e+01 6.257604598999023438e+00 9.351415634155273438e+00 4.682705879211425781e+00 9.665969848632812500e+00
2.000000000000000000e+01 6.930938720703125000e+01 3.016910171508789062e+01 4.871435642242431641e+00 8.077357292175292969e+00 3.884638071060180664e+00 8.450372695922851562e+00
2.100000000000000000e+01 6.973355865478515625e+01 3.060137939453125000e+01 1.010701942443847656e+01 2.687162017822265625e+01 1.109359169006347656e+01 1.770167541503906250e+01
2.200000000000000000e+01 6.964096069335937500e+01 3.042518997192382812e+01 6.956971168518066406e+00 1.836072540283203125e+01 7.595309257507324219e+00 1.314720726013183594e+01
2.300000000000000000e+01 6.954836273193359375e+01 3.024900054931640625e+01 5.259151458740234375e+00 1.473175430297851562e+01 5.997272014617919922e+00 1.096307945251464844e+01
2.400000000000000000e+01 6.945576477050781250e+01 3.007280921936035156e+01 3.990517139434814453e+00 1.259955978393554688e+01 4.977023124694824219e+00 9.513127326965332031e+00
2.500000000000000000e+01 6.978766632080078125e+01 3.057939529418945312e+01 7.088512420654296875e+00 3.476914215087890625e+01 1.255729675292968750e+01 1.561000347137451172e+01
2.600000000000000000e+01 6.973114013671875000e+01 3.038854980468750000e+01 5.123174190521240234e+00 2.470230293273925781e+01 8.947643280029296875e+00 1.241100120544433594e+01
2.700000000000000000e+01 6.967461395263671875e+01 3.019770431518554688e+01 3.609564781188964844e+00 2.009777832031250000e+01 7.112202644348144531e+00 1.057730770111083984e+01
2.800000000000000000e+01 6.961808776855468750e+01 3.000685691833496094e+01 2.736456155776977539e+00 1.744364166259765625e+01 6.054028987884521484e+00 9.387902259826660156e+00
2.900000000000000000e+01 6.984502410888671875e+01 3.056836509704589844e+01 5.357084751129150391e+00 4.085487365722656250e+01 1.386358833312988281e+01 1.167109489440917969e+01
3.000000000000000000e+01 6.982672882080078125e+01 3.037016677856445312e+01 3.596151590347290039e+00 3.002899742126464844e+01 1.008754444122314453e+01 9.980532646179199219e+00
3.100000000000000000e+01 6.980844116210937500e+01 3.017196846008300781e+01 2.371130943298339844e+00 2.484697532653808594e+01 8.165431976318359375e+00 8.830688476562500000e+00
3.200000000000000000e+01 6.979015350341796875e+01 2.997377014160156250e+01 1.523766636848449707e+00 2.162105560302734375e+01 6.943446636199951172e+00 7.907840251922607422e+00
3.300000000000000000e+01 6.990342712402343750e+01 3.056871223449707031e+01 5.330903530120849609e+00 4.457078170776367188e+01 1.497050476074218750e+01 6.618137359619140625e+00
3.400000000000000000e+01 6.992407226562500000e+01 3.037074470520019531e+01 3.154249668121337891e+00 3.382694625854492188e+01 1.109435844421386719e+01 6.584830284118652344e+00
3.500000000000000000e+01 6.994471740722656250e+01 3.017277717590332031e+01 1.911257863044738770e+00 2.834788703918457031e+01 9.077743530273437500e+00 5.955490589141845703e+00
3.600000000000000000e+01 6.996536254882812500e+01 2.997481155395507812e+01 1.024826407432556152e+00 2.486120605468750000e+01 7.765810012817382812e+00 5.501261234283447266e+00
3.700000000000000000e+01 6.996063995361328125e+01 3.058042335510253906e+01 7.126954555511474609e+00 4.586628723144531250e+01 1.589797210693359375e+01 1.650905966758728027e+00
3.800000000000000000e+01 7.001943206787109375e+01 3.039026451110839844e+01 4.110906600952148438e+00 3.578473663330078125e+01 1.196869277954101562e+01 2.730222225189208984e+00
3.900000000000000000e+01 7.007822418212890625e+01 3.020010375976562500e+01 2.472016096115112305e+00 3.036562347412109375e+01 9.851291656494140625e+00 2.723654747009277344e+00
4.000000000000000000e+01 7.013701629638671875e+01 3.000994300842285156e+01 1.597954154014587402e+00 2.688485908508300781e+01 8.544843673706054688e+00 2.586530447006225586e+00
4.100000000000000000e+01 7.001448822021484375e+01 3.060305023193359375e+01 1.050761032104492188e+01 4.508032608032226562e+01 1.667638206481933594e+01 -2.448610305786132812e+00
4.200000000000000000e+01 7.010917663574218750e+01 3.042797470092773438e+01 6.295950412750244141e+00 3.603973388671875000e+01 1.270070552825927734e+01 -7.820607423782348633e-01
4.300000000000000000e+01 7.020385742187500000e+01 3.025289726257324219e+01 4.276455402374267578e+00 3.080018043518066406e+01 1.052299022674560547e+01 -3.454021513462066650e-01
4.400000000000000000e+01 7.029854583740234375e+01 3.007782173156738281e+01 3.047830820083618164e+00 2.745420837402343750e+01 9.150611877441406250e+00 -9.910145401954650879e-02
4.500000000000000000e+01 7.006289672851562500e+01 3.063572502136230469e+01 1.477653026580810547e+01 4.297251510620117188e+01 1.732471466064453125e+01 -5.051341533660888672e+00
4.600000000000000000e+01 7.018985748291015625e+01 3.048243331909179688e+01 9.458135604858398438e+00 3.482812881469726562e+01 1.328587913513183594e+01 -3.415619373321533203e+00
4.700000000000000000e+01 7.031681823730468750e+01 3.032913970947265625e+01 6.984718799591064453e+00 3.001499366760253906e+01 1.109991359710693359e+01 -2.662057876586914062e+00
4.800000000000000000e+01 7.044377136230468750e+01 3.017584800720214844e+01 5.403360366821289062e+00 2.662436294555664062e+01 9.608316421508789062e+00 -2.240363359451293945e+00
4.900000000000000000e+01 7.010401916503906250e+01 3.067720031738281250e+01 1.914542579650878906e+01 4.017993927001953125e+01 1.779760932922363281e+01 -6.031188488006591797e+00
5.000000000000000000e+01 7.025839233398437500e+01 3.055155754089355469e+01 1.309814262390136719e+01 3.284747695922851562e+01 1.378368568420410156e+01 -4.718000888824462891e+00
5.100000000000000000e+01 7.041276550292968750e+01 3.042591476440429688e+01 1.011781024932861328e+01 2.826873397827148438e+01 1.151596260070800781e+01 -3.930134534835815430e+00
5.200000000000000000e+01 7.056713867187500000e+01 3.030027198791503906e+01 8.245518684387207031e+00 2.529304504394531250e+01 1.006156921386718750e+01 -3.479817867279052734e+00
5.300000000000000000e+01 7.013627624511718750e+01 3.072588729858398438e+01 2.297876930236816406e+01 3.759470748901367188e+01 1.817204284667968750e+01 -5.477126121520996094e+00
5.400000000000000000e+01 7.031216430664062500e+01 3.063270187377929688e+01 1.656363296508789062e+01 3.053393363952636719e+01 1.412926959991455078e+01 -4.636013507843017578e+00
5.500000000000000000e+01 7.048803710937500000e+01 3.053951644897460938e+01 1.315458965301513672e+01 2.636978721618652344e+01 1.185731315612792969e+01 -3.978877782821655273e+00
5.600000000000000000e+01 7.066391754150390625e+01 3.044633102416992188e+01 1.093159961700439453e+01 2.363351249694824219e+01 1.036953353881835938e+01 -3.528752565383911133e+00
5.700000000000000000e+01 7.015843963623046875e+01 3.077992248535156250e+01 2.578625297546386719e+01 3.558924865722656250e+01 1.841265106201171875e+01 -3.743876218795776367e+00
5.800000000000000000e+01 7.034909820556640625e+01 3.072276115417480469e+01 1.926009750366210938e+01 2.863196182250976562e+01 1.436761760711669922e+01 -3.344089508056640625e+00
5.900000000000000000e+01 7.053975677490234375e+01 3.066559982299804688e+01 1.554139709472656250e+01 2.473965644836425781e+01 1.208431625366210938e+01 -2.885741233825683594e+00
6.000000000000000000e+01 7.073040771484375000e+01 3.060843658447265625e+01 1.307921600341796875e+01 2.211110877990722656e+01 1.055709743499755859e+01 -2.547182321548461914e+00
6.100000000000000000e+01 7.016966247558593750e+01 3.083723831176757812e+01 2.724571228027343750e+01 3.452217102050781250e+01 1.853036499023437500e+01 -1.329004049301147461e+00
6.200000000000000000e+01 7.036779785156250000e+01 3.081828689575195312e+01 2.074312210083007812e+01 2.757339477539062500e+01 1.449495506286621094e+01 -1.190658807754516602e+00
6.300000000000000000e+01 7.056593322753906250e+01 3.079933738708496094e+01 1.684894371032714844e+01 2.380102157592773438e+01 1.219498920440673828e+01 -1.032099008560180664e+00
6.400000000000000000e+01 7.076406860351562500e+01 3.078038787841796875e+01 1.432336425781250000e+01 2.124062728881835938e+01 1.066919708251953125e+01 -9.130958318710327148e-01
6.500000000000000000e+01 7.016950988769531250e+01 3.089564323425292969e+01 2.724764823913574219e+01 3.453671646118164062e+01 1.853530883789062500e+01 1.326353192329406738e+00
6.600000000000000000e+01 7.036754608154296875e+01 3.091562843322753906e+01 2.075489997863769531e+01 2.758922195434570312e+01 1.450323581695556641e+01 1.236990928649902344e+00
6.700000000000000000e+01 7.056558227539062500e+01 3.093561553955078125e+01 1.688202476501464844e+01 2.381136512756347656e+01 1.220801639556884766e+01 1.106503605842590332e+00
6.800000000000000000e+01 7.076361083984375000e+01 3.095560073852539062e+01 1.430651473999023438e+01 2.129154205322265625e+01 1.067941665649414062e+01 9.530919194221496582e-01
6.900000000000000000e+01 7.015798950195312500e+01 3.095289993286132812e+01 2.580494689941406250e+01 3.564783477783203125e+01 1.843583488464355469e+01 3.706901550292968750e+00
7.000000000000000000e+01 7.034835052490234375e+01 3.101105690002441406e+01 1.930734062194824219e+01 2.864953994750976562e+01 1.438706398010253906e+01 3.382889270782470703e+00
7.100000000000000000e+01 7.053869628906250000e+01 3.106921386718750000e+01 1.560084152221679688e+01 2.479609107971191406e+01 1.211907958984375000e+01 2.933311223983764648e+00
7.200000000000000000e+01 7.072905731201171875e+01 3.112737274169921875e+01 1.316472053527832031e+01 2.218427658081054688e+01 1.060469913482666016e+01 2.632651090621948242e+00
7.300000000000000000e+01 7.013554382324218750e+01 3.100681877136230469e+01 2.300854492187500000e+01 3.765318298339843750e+01 1.819851875305175781e+01 5.405486106872558594e+00
7.400000000000000000e+01 7.031093597412109375e+01 3.110092163085937500e+01 1.667238426208496094e+01 3.056651496887207031e+01 1.417166996002197266e+01 4.622188568115234375e+00
7.500000000000000000e+01 7.048632812500000000e+01 3.119502449035644531e+01 1.324670314788818359e+01 2.641383934020996094e+01 1.189816284179687500e+01 4.045859813690185547e+00
7.600000000000000000e+01 7.066172027587890625e+01 3.128912734985351562e+01 1.109778118133544922e+01 2.374573135375976562e+01 1.045305347442626953e+01 3.536133289337158203e+00
7.700000000000000000e+01 7.010302734375000000e+01 3.105533599853515625e+01 1.925515747070312500e+01 4.024714660644531250e+01 1.785069084167480469e+01 5.894077301025390625e+00
7.800000000000000000e+01 7.025674438476562500e+01 3.118178367614746094e+01 1.322960472106933594e+01 3.285568618774414062e+01 1.382558727264404297e+01 4.670901298522949219e+00
7.900000000000000000e+01 7.041046142578125000e+01 3.130823135375976562e+01 1.033101081848144531e+01 2.826671791076660156e+01 1.157931900024414062e+01 3.956283092498779297e+00
8.000000000000000000e+01 7.056417846679687500e+01 3.143468093872070312e+01 8.339105606079101562e+00 2.543056678771972656e+01 1.013090229034423828e+01 3.530452728271484375e+00
8.100000000000000000e+01 7.006169128417968750e+01 3.109659576416015625e+01 1.493075275421142578e+01 4.298013305664062500e+01 1.737326622009277344e+01 4.872275829315185547e+00
8.200000000000000000e+01 7.018785095214843750e+01 3.125054931640625000e+01 9.692125320434570312e+00 3.483164215087890625e+01 1.335713005065917969e+01 3.324306726455688477e+00
8.300000000000000000e+01 7.031400299072265625e+01 3.140450286865234375e+01 7.235881805419921875e+00 2.994274711608886719e+01 1.115358924865722656e+01 2.627969264984130859e+00
8.400000000000000000e+01 7.044016265869140625e+01 3.155845642089843750e+01 5.628878116607666016e+00 2.661285972595214844e+01 9.672521591186523438e+00 2.379467964172363281e+00
8.500000000000000000e+01 7.001311492919921875e+01 3.112901687622070312e+01 1.078040027618408203e+01 4.506022644042968750e+01 1.675218772888183594e+01 2.222523927688598633e+00
8.600000000000000000e+01 7.010688781738281250e+01 3.130458641052246094e+01 6.593409538269042969e+00 3.596678543090820312e+01 1.276805782318115234e+01 6.679405570030212402e-01
8.700000000000000000e+01 7.020065307617187500e+01 3.148015403747558594e+01 4.614598751068115234e+00 3.073944854736328125e+01 1.060621452331542969e+01 2.810628116130828857e-01
8.800000000000000000e+01 7.029442596435546875e+01 3.165572357177734375e+01 3.393565654754638672e+00 2.720451736450195312e+01 9.179424285888671875e+00 1.423609107732772827e-01
8.900000000000000000e+01 6.995915222167968750e+01 3.115136146545410156e+01 7.490412235260009766e+00 4.576668930053710938e+01 1.597713088989257812e+01 -1.886664748191833496e+00
9.000000000000000000e+01 7.001695251464843750e+01 3.134182739257812500e+01 4.510853767395019531e+00 3.567701721191406250e+01 1.205636119842529297e+01 -2.865278005599975586e+00
9.100000000000000000e+01 7.007474517822265625e+01 3.153229141235351562e+01 2.891934871673583984e+00 3.023574829101562500e+01 9.938304901123046875e+00 -2.777141809463500977e+00
9.200000000000000000e+01 7.013254547119140625e+01 3.172275733947753906e+01 2.003248214721679688e+00 2.674681472778320312e+01 8.625019073486328125e+00 -2.625756263732910156e+00
9.300000000000000000e+01 6.990187835693359375e+01 3.116277313232421875e+01 5.789191246032714844e+00 4.440124893188476562e+01 1.505713176727294922e+01 -6.853026866912841797e+00
9.400000000000000000e+01 6.992148590087890625e+01 3.136084556579589844e+01 3.663695812225341797e+00 3.366333007812500000e+01 1.119810771942138672e+01 -6.695438861846923828e+00
9.500000000000000000e+01 6.994109344482421875e+01 3.155891799926757812e+01 2.394391059875488281e+00 2.818973159790039062e+01 9.175236701965332031e+00 -6.008148670196533203e+00
9.600000000000000000e+01 6.996070861816406250e+01 3.175699043273925781e+01 1.569893717765808105e+00 2.478095054626464844e+01 7.905253410339355469e+00 -5.432619094848632812e+00
9.700000000000000000e+01 6.984346771240234375e+01 3.116281509399414062e+01 5.941408634185791016e+00 4.063188171386718750e+01 1.397198772430419922e+01 -1.187139797210693359e+01
9.800000000000000000e+01 6.982414245605468750e+01 3.136091423034667969e+01 4.169414043426513672e+00 2.980090522766113281e+01 1.019109535217285156e+01 -1.006260395050048828e+01
9.900000000000000000e+01 6.980481719970703125e+01 3.155901527404785156e+01 2.954952955245971680e+00 2.469608306884765625e+01 8.295310974121093750e+00 -8.808712959289550781e+00
1.000000000000000000e+02 6.978549194335937500e+01 3.175711631774902344e+01 2.167262077331542969e+00 2.142504310607910156e+01 7.077691555023193359e+00 -7.831445217132568359e+00
1.010000000000000000e+02 6.978617095947265625e+01 3.115148544311523438e+01 7.724671363830566406e+00 3.447840118408203125e+01 1.266092205047607422e+01 -1.575491046905517578e+01
1.020000000000000000e+02 6.972865295410156250e+01 3.134203338623046875e+01 5.788150787353515625e+00 2.447187805175781250e+01 9.078008651733398438e+00 -1.244010734558105469e+01
1.030000000000000000e+02 6.967112731933593750e+01 3.153258132934570312e+01 4.263878345489501953e+00 1.987074279785156250e+01 7.240386486053466797e+00 -1.049071693420410156e+01
1.040000000000000000e+02 6.961360931396484375e+01 3.172312927246093750e+01 3.387429237365722656e+00 1.729075622558593750e+01 6.203455448150634766e+00 -9.286978721618652344e+00
1.050000000000000000e+02 6.973217773437500000e+01 3.112921905517578125e+01 1.083883571624755859e+01 2.655897521972656250e+01 1.121934318542480469e+01 -1.777532386779785156e+01
1.060000000000000000e+02 6.963866424560546875e+01 3.130492210388183594e+01 7.620674610137939453e+00 1.812276649475097656e+01 7.723031997680664062e+00 -1.309835910797119141e+01
1.070000000000000000e+02 6.954514312744140625e+01 3.148062705993652344e+01 5.990544319152832031e+00 1.451573371887207031e+01 6.151883602142333984e+00 -1.087291145324707031e+01
1.080000000000000000e+02 6.945162963867187500e+01 3.165633010864257812e+01 4.667478084564208984e+00 1.239054393768310547e+01 5.117406845092773438e+00 -9.296649932861328125e+00
1.090000000000000000e+02 6.968355560302734375e+01 3.109686851501464844e+01 1.361545944213867188e+01 1.785918045043945312e+01 9.442392349243164062e+00 -1.718529510498046875e+01
1.100000000000000000e+02 6.955762481689453125e+01 3.125100326538085938e+01 9.409553527832031250e+00 1.156768512725830078e+01 6.293171405792236328e+00 -1.201038455963134766e+01
1.110000000000000000e+02 6.943168640136718750e+01 3.140513801574707031e+01 6.924386024475097656e+00 9.199508666992187500e+00 4.837168216705322266e+00 -9.525885581970214844e+00
1.120000000000000000e+02 6.930574798583984375e+01 3.155927467346191406e+01 5.675510406494140625e+00 7.892581939697265625e+00 4.070427417755126953e+00 -8.309999465942382812e+00
1.130000000000000000e+02 6.964215850830078125e+01 3.105566787719726562e+01 1.550491619110107422e+01 9.357241630554199219e+00 7.458647251129150391e+00 -1.401029014587402344e+01
1.140000000000000000e+02 6.948862457275390625e+01 3.118233680725097656e+01 9.414340972900390625e+00 5.833709239959716797e+00 4.574415206909179688e+00 -9.076703071594238281e+00
1.150000000000000000e+02 6.933509063720703125e+01 3.130900573730468750e+01 7.052287578582763672e+00 4.741752147674560547e+00 3.538212060928344727e+00 -7.110319137573242188e+00
1.160000000000000000e+02 6.918155670166015625e+01 3.143567466735839844e+01 5.163094997406005859e+00 4.285302639007568359e+00 2.834519386291503906e+00 -6.016419410705566406e+00
1.170000000000000000e+02 6.960957336425781250e+01 3.100719642639160156e+01 1.402353000640869141e+01 2.583276510238647461e+00 4.982041835784912109e+00 -8.739835739135742188e+00
1.180000000000000000e+02 6.943431854248046875e+01 3.110155296325683594e+01 7.795711994171142578e+00 1.501703619956970215e+00 2.789224624633789062e+00 -5.059367179870605469e+00
1.190000000000000000e+02 6.925906372070312500e+01 3.119590759277343750e+01 4.740822792053222656e+00 2.066303014755249023e+00 2.042137622833251953e+00 -3.960216522216796875e+00
1.200000000000000000e+02 6.908380889892578125e+01 3.129026412963867188e+01 3.807053327560424805e+00 1.849031567573547363e+00 1.696825385093688965e+00 -3.725246191024780273e+00
1.210000000000000000e+02 6.958705139160156250e+01 3.095331001281738281e+01 9.030919075012207031e+00 -2.457796096801757812e+00 1.971936941146850586e+00 -1.859392046928405762e+00
1.220000000000000000e+02 6.939678192138671875e+01 3.101174163818359375e+01 2.076478004455566406e+00 4.069474637508392334e-01 7.450276613235473633e-01 -1.279388070106506348e+00
1.230000000000000000e+02 6.920650482177734375e+01 3.107017326354980469e+01 1.911092042922973633e+00 7.530481219291687012e-01 7.992420792579650879e-01 -2.021269083023071289e+00
1.240000000000000000e+02 6.901623535156250000e+01 3.112860298156738281e+01 7.968629002571105957e-01 2.519626319408416748e-01 3.146476447582244873e-01 -1.256228208541870117e+00
1.250000000000000000e+02 6.957544708251953125e+01 3.089607048034667969e+01 -5.953361988067626953e+00 -2.498285293579101562e+00 -2.535494089126586914e+00 2.692097663879394531e+00
1.260000000000000000e+02 6.937744140625000000e+01 3.091634178161621094e+01 -1.781014084815979004e+00 9.477370977401733398e-01 -2.499830871820449829e-01 -7.143813371658325195e-01
1.270000000000000000e+02 6.917943572998046875e+01 3.093661117553710938e+01 -2.989223003387451172e+00 -4.007039070129394531e-01 -1.016978025436401367e+00 3.608194738626480103e-02
1.280000000000000000e+02 6.898143005371093750e+01 3.095688247680664062e+01 -3.268527984619140625e+00 2.073798626661300659e-01 -9.183444380760192871e-01 -1.406320333480834961e-01
1.290000000000000000e+02 2.333872413635253906e+01 3.602074050903320312e+01 1.468231249600648880e-02 -4.264427479938603938e-05 4.391900263726711273e-03 2.338177757337689400e-03
1.300000000000000000e+02 2.389290046691894531e+01 3.609888076782226562e+01 1.808449439704418182e-02 -1.501900725997984409e-03 4.974778275936841965e-03 1.508864690549671650e-03
1.310000000000000000e+02 2.284308815002441406e+01 3.526721954345703125e+01 3.162727458402514458e-03 -9.858182165771722794e-04 6.530727841891348362e-04 4.747346043586730957e-03
1.320000000000000000e+02 2.421754455566406250e+01 3.556056594848632812e+01 6.072046700865030289e-03 -2.100018784403800964e-03 1.191608374938368797e-03 8.505756268277764320e-04
1.330000000000000000e+02 2.498613166809082031e+01 3.604191207885742188e+01 1.768763177096843719e-02 -5.799205973744392395e-04 5.132313352078199387e-03 -9.300141246058046818e-04
1.340000000000000000e+02 2.485820960998535156e+01 3.530118560791015625e+01 1.512988237664103508e-03 -2.898675622418522835e-03 -4.157061921432614326e-04 -2.029879484325647354e-03
1.350000000000000000e+02 2.364893722534179688e+01 3.528245925903320312e+01 3.207511501386761665e-03 -2.834023209288716316e-03 1.120464949053712189e-04 2.515446394681930542e-03
1.360000000000000000e+02 2.269410705566406250e+01 3.600639724731445312e+01 1.082538161426782608e-02 -2.850808959919959307e-04 3.162090433761477470e-03 2.696763258427381516e-03
1.370000000000000000e+02 2.440931320190429688e+01 3.610589981079101562e+01 1.920229941606521606e-02 1.000197589746676385e-04 5.790695548057556152e-03 -4.449014086276292801e-04
1.380000000000000000e+02 2.713174057006835938e+01 3.578996658325195312e+01 4.599120467901229858e-03 3.673172031994909048e-04 1.489931368269026279e-03 -5.145776085555553436e-03
1.390000000000000000e+02 2.639669990539550781e+01 3.588855361938476562e+01 1.232158672064542770e-02 1.980618544621393085e-04 3.755894489586353302e-03 -4.436443094164133072e-03
1.400000000000000000e+02 2.560692596435546875e+01 3.524289321899414062e+01 -3.897209418937563896e-03 -3.645294345915317535e-03 -2.262751106172800064e-03 -5.210582632571458817e-03
1.410000000000000000e+02 2.704477500915527344e+01 3.505500793457031250e+01 -2.299540862441062927e-02 -8.846048731356859207e-04 -7.164003793150186539e-03 -1.238906010985374451e-02
1.420000000000000000e+02 2.786719703674316406e+01 3.568653869628906250e+01 -6.708023138344287872e-03 6.067275535315275192e-04 -1.830388675443828106e-03 -5.552088841795921326e-03
1.430000000000000000e+02 2.776436805725097656e+01 3.495370483398437500e+01 -3.725557029247283936e-02 7.509278366342186928e-04 -1.095139235258102417e-02 -1.526284590363502502e-02
1.440000000000000000e+02 2.632559776306152344e+01 3.515146636962890625e+01 -1.224637404084205627e-02 -1.763046137057244778e-03 -4.202825948596000671e-03 -8.605432696640491486e-03
1.450000000000000000e+02 2.566216468811035156e+01 3.598210525512695312e+01 1.601242460310459137e-02 -9.799666004255414009e-04 4.509737715125083923e-03 -2.776495646685361862e-03
1.460000000000000000e+02 2.933965110778808594e+01 3.544803619384765625e+01 -4.149328917264938354e-02 1.308821956627070904e-03 -1.205534022301435471e-02 -3.883933881297707558e-03
1.470000000000000000e+02 2.922042655944824219e+01 3.471769332885742188e+01 -7.683397084474563599e-02 3.985744901001453400e-03 -2.185446768999099731e-02 -2.047263830900192261e-02
1.480000000000000000e+02 2.848941230773925781e+01 3.484096145629882812e+01 -5.499114096164703369e-02 2.124668797478079796e-03 -1.585994102060794830e-02 -1.809663511812686920e-02
1.490000000000000000e+02 3.068212890625000000e+01 3.447154998779296875e+01 -1.307846158742904663e-01 7.437602616846561432e-03 -3.700410574674606323e-02 -2.190892025828361511e-02
1.500000000000000000e+02 2.995129966735839844e+01 3.459505081176757812e+01 -1.016778796911239624e-01 5.457695107907056808e-03 -2.886605449020862579e-02 -2.162745967507362366e-02
1.510000000000000000e+02 3.081263542175292969e+01 3.519998931884765625e+01 -9.137006103992462158e-02 1.590143190696835518e-03 -2.693397551774978638e-02 1.298833056353032589e-03
1.520000000000000000e+02 2.860299301147460938e+01 3.557225799560546875e+01 -2.199218980967998505e-02 1.347105135209858418e-03 -6.193525157868862152e-03 -5.064858123660087585e-03
1.530000000000000000e+02 3.007616424560546875e+01 3.532444381713867188e+01 -6.493307650089263916e-02 1.604378689080476761e-03 -1.899860985577106476e-02 -1.859629293903708458e-03
1.540000000000000000e+02 3.228277587890625000e+01 3.491655731201171875e+01 -1.617064774036407471e-01 5.255930591374635696e-04 -4.835426434874534607e-02 1.077425293624401093e-02
1.550000000000000000e+02 3.141323661804199219e+01 3.433660507202148438e+01 -1.643645316362380981e-01 8.978149853646755219e-03 -4.661591351032257080e-02 -2.205627784132957458e-02
1.560000000000000000e+02 3.301699829101562500e+01 3.477141952514648438e+01 -2.042464315891265869e-01 2.477444941177964211e-04 -6.119960546493530273e-02 1.686220988631248474e-02
1.570000000000000000e+02 3.287635040283203125e+01 3.404490280151367188e+01 -2.449641376733779907e-01 1.131404563784599304e-02 -7.009503245353698730e-02 -2.038777619600296021e-02
1.580000000000000000e+02 3.360715103149414062e+01 3.390307235717773438e+01 -2.914182245731353760e-01 1.254007034003734589e-02 -8.366344124078750610e-02 -1.798598654568195343e-02
1.590000000000000000e+02 3.375072097778320312e+01 3.462901306152343750e+01 -2.512006461620330811e-01 -8.845435222610831261e-04 -7.562556117773056030e-02 2.406940609216690063e-02
1.600000000000000000e+02 3.214505767822265625e+01 3.418946456909179688e+01 -2.025000154972076416e-01 1.042900048196315765e-02 -5.762130767107009888e-02 -2.180941402912139893e-02
1.610000000000000000e+02 3.154802894592285156e+01 3.506427764892578125e+01 -1.232334598898887634e-01 1.459922292269766331e-03 -3.653206303715705872e-02 5.697950720787048340e-03
1.620000000000000000e+02 3.448552703857421875e+01 3.448280334472656250e+01 -3.035887479782104492e-01 -1.941377529874444008e-03 -9.165903180837631226e-02 3.227326273918151855e-02
1.630000000000000000e+02 3.581328582763671875e+01 3.345945358276367188e+01 -4.609436392784118652e-01 1.375985983759164810e-02 -1.341551393270492554e-01 -7.753799203783273697e-03
1.640000000000000000e+02 3.434083938598632812e+01 3.375708389282226562e+01 -3.431092798709869385e-01 1.315237395465373993e-02 -9.898706525564193726e-02 -1.512941159307956696e-02
1.650000000000000000e+02 3.654941177368164062e+01 3.331057739257812500e+01 -5.251458287239074707e-01 1.337477844208478928e-02 -1.535313129425048828e-01 -3.428055439144372940e-03
1.660000000000000000e+02 3.595657730102539062e+01 3.418545532226562500e+01 -4.257586598396301270e-01 -4.850758705288171768e-03 -1.291828304529190063e-01 5.114658549427986145e-02
1.670000000000000000e+02 3.669200897216796875e+01 3.403672027587890625e+01 -4.967053830623626709e-01 -7.301167584955692291e-03 -1.512019634246826172e-01 6.106302887201309204e-02
1.680000000000000000e+02 3.522108078002929688e+01 3.433415222167968750e+01 -3.619402945041656494e-01 -3.569805761799216270e-03 -1.096530258655548096e-01 4.125024750828742981e-02
1.690000000000000000e+02 3.507709503173828125e+01 3.360829162597656250e+01 -3.995206654071807861e-01 1.390097476541996002e-02 -1.156859099864959717e-01 -1.155959721654653549e-02
1.700000000000000000e+02 3.742828750610351562e+01 3.389342117309570312e+01 -5.696692466735839844e-01 -8.276263251900672913e-03 -1.733836680650711060e-01 7.087299227714538574e-02
1.710000000000000000e+02 3.802332687377929688e+01 3.303014373779296875e+01 -6.658248305320739746e-01 1.335864886641502380e-02 -1.957398504018783569e-01 1.066388841718435287e-02
1.720000000000000000e+02 3.728625106811523438e+01 3.316717147827148438e+01 -5.931090116500854492e-01 1.273467298597097397e-02 -1.741123050451278687e-01 3.180458210408687592e-03
1.730000000000000000e+02 3.890202331542968750e+01 3.361664962768554688e+01 -7.214931249618530273e-01 -1.140987873077392578e-02 -2.198708951473236084e-01 9.450346976518630981e-02
1.740000000000000000e+02 3.963956451416015625e+01 3.347409820556640625e+01 -8.029572963714599609e-01 -1.280762162059545517e-02 -2.447294741868972778e-01 1.082256734371185303e-01
1.750000000000000000e+02 3.949879837036132812e+01 3.274760437011718750e+01 -8.229178190231323242e-01 1.470257155597209930e-02 -2.424645721912384033e-01 2.710621058940887451e-02
1.760000000000000000e+02 3.876083374023437500e+01 3.289023590087890625e+01 -7.411407232284545898e-01 1.383090205490589142e-02 -2.181929349899291992e-01 1.840310543775558472e-02
1.770000000000000000e+02 3.816493988037109375e+01 3.375647735595703125e+01 -6.428514719009399414e-01 -9.171222336590290070e-03 -1.956068128347396851e-01 8.211393654346466064e-02
1.780000000000000000e+02 4.037628555297851562e+01 3.333070373535156250e+01 -8.925165534019470215e-01 -1.517013646662235260e-02 -2.723059952259063721e-01 1.245189607143402100e-01
1.790000000000000000e+02 4.171068954467773438e+01 3.231314468383789062e+01 -1.099518537521362305e+00 1.033061929047107697e-02 -3.267563581466674805e-01 5.046208947896957397e-02
1.800000000000000000e+02 4.023619079589843750e+01 3.260407638549804688e+01 -9.093772768974304199e-01 1.439493056386709213e-02 -2.684946954250335693e-01 3.466863557696342468e-02
1.810000000000000000e+02 4.244785308837890625e+01 3.216765213012695312e+01 -1.198039054870605469e+00 6.839561741799116135e-03 -3.573598563671112061e-01 5.720298737287521362e-02
1.820000000000000000e+02 4.184893417358398438e+01 3.304013442993164062e+01 -1.098574638366699219e+00 -2.181924507021903992e-02 -3.361181616783142090e-01 1.579803526401519775e-01
1.830000000000000000e+02 4.258517456054687500e+01 3.289482498168945312e+01 -1.218051075935363770e+00 -2.718592993915081024e-02 -3.735710978507995605e-01 1.725687235593795776e-01
1.840000000000000000e+02 4.111263656616210938e+01 3.318542480468750000e+01 -9.921511411666870117e-01 -1.938175782561302185e-02 -3.034598529338836670e-01 1.411585509777069092e-01
1.850000000000000000e+02 4.097346878051757812e+01 3.245861816406250000e+01 -1.000440716743469238e+00 1.339879073202610016e-02 -2.961125969886779785e-01 4.310118407011032104e-02
1.860000000000000000e+02 4.332307434082031250e+01 3.275568008422851562e+01 -1.334437489509582520e+00 -2.788727357983589172e-02 -4.086974263191223145e-01 1.835242509841918945e-01
1.870000000000000000e+02 4.318753814697265625e+01 3.202817916870117188e+01 -1.301766395568847656e+00 3.518806071951985359e-03 -3.894742727279663086e-01 6.828865408897399902e-02
1.880000000000000000e+02 4.392967605590820312e+01 3.189475250244140625e+01 -1.413019895553588867e+00 5.346780177205801010e-03 -4.223019182682037354e-01 7.849771529436111450e-02
1.890000000000000000e+02 4.480221557617187500e+01 3.249026870727539062e+01 -1.565067887306213379e+00 -2.869951911270618439e-02 -4.781302213668823242e-01 2.127985060214996338e-01
1.900000000000000000e+02 4.541445922851562500e+01 3.162938690185546875e+01 -1.640251398086547852e+00 2.030631760135293007e-03 -4.914662241935729980e-01 9.084091335535049438e-02
1.910000000000000000e+02 4.554204177856445312e+01 3.235831069946289062e+01 -1.699814081192016602e+00 -3.350538015365600586e-02 -5.199958086013793945e-01 2.277112305164337158e-01
1.920000000000000000e+02 4.406255722045898438e+01 3.262272644042968750e+01 -1.444399118423461914e+00 -2.680837363004684448e-02 -4.413622617721557617e-01 1.962601393461227417e-01
1.930000000000000000e+02 4.467198181152343750e+01 3.176181983947753906e+01 -1.526331663131713867e+00 4.876479972153902054e-03 -4.564365446567535400e-01 8.415149152278900146e-02
1.940000000000000000e+02 4.628276062011718750e+01 3.223004150390625000e+01 -1.834184646606445312e+00 -3.418382629752159119e-02 -5.605105161666870117e-01 2.397109270095825195e-01
1.950000000000000000e+02 4.764949035644531250e+01 3.125085830688476562e+01 -2.023990631103515625e+00 -3.200519131496548653e-03 -6.081573367118835449e-01 1.064814627170562744e-01
1.960000000000000000e+02 4.615840911865234375e+01 3.150056076049804688e+01 -1.760630130767822266e+00 -1.158458413556218147e-03 -5.285365581512451172e-01 9.994576871395111084e-02
1.970000000000000000e+02 4.839503097534179688e+01 3.112652587890625000e+01 -2.146050930023193359e+00 -1.276851538568735123e-02 -6.476458311080932617e-01 1.052989885210990906e-01
1.980000000000000000e+02 4.776623153686523438e+01 3.198161315917968750e+01 -2.114742755889892578e+00 -3.527319803833961487e-02 -6.450048089027404785e-01 2.696957588195800781e-01
1.990000000000000000e+02 4.850796127319335938e+01 3.185791587829589844e+01 -2.293161630630493164e+00 -4.536676034331321716e-02 -7.015585303306579590e-01 2.776959240436553955e-01
2.000000000000000000e+02 4.702449035644531250e+01 3.210565567016601562e+01 -1.966631889343261719e+00 -3.392156213521957397e-02 -6.001660227775573730e-01 2.529248893260955811e-01
2.010000000000000000e+02 4.690394592285156250e+01 3.137553787231445312e+01 -1.889232754707336426e+00 6.875693215988576412e-04 -5.665635466575622559e-01 1.078716963529586792e-01
2.020000000000000000e+02 4.925159072875976562e+01 3.174488639831542969e+01 -2.449533700942993164e+00 -4.187138006091117859e-02 -7.474215030670166016e-01 2.730586826801300049e-01
2.030000000000000000e+02 4.914293289184570312e+01 3.101285552978515625e+01 -2.275372266769409180e+00 -1.856959983706474304e-02 -6.881825327873229980e-01 1.161691769957542419e-01
2.040000000000000000e+02 4.989311599731445312e+01 3.090981101989746094e+01 -2.417832851409912109e+00 -9.784181602299213409e-03 -7.282851338386535645e-01 1.217817589640617371e-01
2.050000000000000000e+02 5.074266433715820312e+01 3.154084205627441406e+01 -2.724135398864746094e+00 -3.166411072015762329e-02 -8.267398476600646973e-01 2.847535908222198486e-01
2.060000000000000000e+02 5.139404296875000000e+01 3.070597648620605469e+01 -2.677882909774780273e+00 -1.553802751004695892e-02 -8.080262541770935059e-01 1.097214892506599426e-01
2.070000000000000000e+02 5.148847579956054688e+01 3.143994712829589844e+01 -2.902791023254394531e+00 -3.998536244034767151e-02 -8.828329443931579590e-01 2.886265218257904053e-01
2.080000000000000000e+02 4.999703216552734375e+01 3.164248847961425781e+01 -2.575222492218017578e+00 -3.195418789982795715e-02 -7.821530103683471680e-01 2.737030088901519775e-01
2.090000000000000000e+02 5.064348983764648438e+01 3.080751800537109375e+01 -2.553000926971435547e+00 -8.108488284051418304e-03 -7.683328390121459961e-01 1.136501282453536987e-01
2.100000000000000000e+02 5.373043823242187500e+01 3.117490577697753906e+01 -3.363945722579956055e+00 -2.745123580098152161e-02 -1.017419099807739258e+00 2.880572080612182617e-01
2.110000000000000000e+02 5.214544677734375000e+01 3.061188697814941406e+01 -2.810300350189208984e+00 -1.979237236082553864e-02 -8.490278720855712891e-01 1.151803284883499146e-01
2.120000000000000000e+02 5.440248107910156250e+01 3.035354614257812500e+01 -3.209542512893676758e+00 -2.756407298147678375e-02 -9.711319804191589355e-01 8.809336274862289429e-02
2.130000000000000000e+02 5.365017700195312500e+01 3.043926048278808594e+01 -3.094093799591064453e+00 -1.376999635249376297e-02 -9.323590993881225586e-01 9.918199479579925537e-02
2.140000000000000000e+02 5.447802734375000000e+01 3.108973121643066406e+01 -3.568534851074218750e+00 -4.127718880772590637e-02 -1.082943558692932129e+00 2.812564373016357422e-01
2.150000000000000000e+02 5.298280715942382812e+01 3.126048088073730469e+01 -3.200666427612304688e+00 -2.850958518683910370e-02 -9.687528014183044434e-01 2.805441319942474365e-01
2.160000000000000000e+02 5.223514938354492188e+01 3.134645080566406250e+01 -3.063591241836547852e+00 -3.675262629985809326e-02 -9.301031231880187988e-01 2.821327745914459229e-01
2.170000000000000000e+02 5.289782714843750000e+01 3.052537536621093750e+01 -2.954542398452758789e+00 -1.123625598847866058e-02 -8.897335529327392578e-01 1.154538244009017944e-01
2.180000000000000000e+02 5.597676467895507812e+01 3.095117187500000000e+01 -3.851967334747314453e+00 -2.046034485101699829e-02 -1.161728262901306152e+00 2.420109212398529053e-01
2.190000000000000000e+02 5.591128540039062500e+01 3.021406745910644531e+01 -3.472338914871215820e+00 -1.785228401422500610e-02 -1.047057271003723145e+00 8.989714086055755615e-02
2.200000000000000000e+02 5.515621185302734375e+01 3.027851104736328125e+01 -3.333729505538940430e+00 -3.313205018639564514e-02 -1.010058403015136719e+00 9.406837821006774902e-02
2.210000000000000000e+02 5.666648483276367188e+01 3.015038108825683594e+01 -3.591592788696289062e+00 -1.678713969886302948e-02 -1.082513928413391113e+00 6.689942628145217896e-02
2.220000000000000000e+02 5.672682952880859375e+01 3.088792037963867188e+01 -4.003280162811279297e+00 -1.830571517348289490e-02 -1.206475734710693359e+00 2.425263822078704834e-01
2.230000000000000000e+02 5.742179489135742188e+01 3.008745574951171875e+01 -3.683898210525512695e+00 -2.977229468524456024e-02 -1.114101171493530273e+00 5.422905087471008301e-02
2.240000000000000000e+02 5.747700500488281250e+01 3.082542610168457031e+01 -4.195767879486083984e+00 -3.216644749045372009e-02 -1.268380284309387207e+00 2.290115952491760254e-01
2.250000000000000000e+02 5.522682952880859375e+01 3.101518249511718750e+01 -3.734237670898437500e+00 -3.568275272846221924e-02 -1.130976080894470215e+00 2.565560042858123779e-01
2.260000000000000000e+02 5.893249130249023438e+01 2.998887443542480469e+01 -3.888743877410888672e+00 -1.677465438842773438e-02 -1.171655535697937012e+00 5.397010967135429382e-02
2.270000000000000000e+02 5.817713546752929688e+01 3.003364562988281250e+01 -3.782040357589721680e+00 -3.333026543259620667e-02 -1.144611239433288574e+00 5.901491269469261169e-02
2.280000000000000000e+02 6.044357681274414062e+01 2.990149307250976562e+01 -4.010593414306640625e+00 -2.628954872488975525e-02 -1.211064934730529785e+00 2.679839357733726501e-02
2.290000000000000000e+02 5.972956466674804688e+01 3.068365669250488281e+01 -4.580164909362792969e+00 -9.773674421012401581e-03 -1.376981616020202637e+00 1.770374476909637451e-01
2.300000000000000000e+02 5.822756195068359375e+01 3.077196121215820312e+01 -4.346351623535156250e+00 -2.729775011539459229e-02 -1.312094926834106445e+00 1.987489312887191772e-01
2.310000000000000000e+02 6.048074340820312500e+01 3.064058303833007812e+01 -4.748619556427001953e+00 -2.450698241591453552e-02 -1.431937932968139648e+00 1.601656079292297363e-01
2.320000000000000000e+02 5.897850036621093750e+01 3.072744750976562500e+01 -4.447303295135498047e+00 -1.270750164985656738e-02 -1.338003277778625488e+00 1.801023185253143311e-01
2.330000000000000000e+02 5.968797683715820312e+01 2.994482421875000000e+01 -3.967427253723144531e+00 -1.495680585503578186e-02 -1.194715261459350586e+00 3.308106213808059692e-02
2.340000000000000000e+02 6.198369598388671875e+01 3.057719421386718750e+01 -4.943316459655761719e+00 -8.576909080147743225e-03 -1.485568046569824219e+00 1.092337071895599365e-01
2.350000000000000000e+02 6.195486831665039062e+01 2.983775329589843750e+01 -4.078193187713623047e+00 -8.714310824871063232e-03 -1.226072311401367188e+00 4.582047462463378906e-02
2.360000000000000000e+02 6.119919967651367188e+01 2.986580848693847656e+01 -4.049731254577636719e+00 -2.691544592380523682e-02 -1.222993969917297363e+00 3.830208629369735718e-02
2.370000000000000000e+02 6.271061706542968750e+01 2.981033325195312500e+01 -4.059173583984375000e+00 -1.290997723117470741e-03 -1.218139290809631348e+00 4.068168625235557556e-02
2.380000000000000000e+02 6.273536300659179688e+01 3.054992294311523438e+01 -5.037394046783447266e+00 8.904523565433919430e-04 -1.510951042175292969e+00 1.085387617349624634e-01
2.390000000000000000e+02 6.346643829345703125e+01 2.978354644775390625e+01 -3.961086273193359375e+00 -1.575420051813125610e-02 -1.193052172660827637e+00 6.843338161706924438e-02
2.400000000000000000e+02 6.348709869384765625e+01 3.052328491210937500e+01 -5.158220767974853516e+00 -2.769795060157775879e-02 -1.555775642395019531e+00 8.698761463165283203e-02
2.410000000000000000e+02 6.123211288452148438e+01 3.060509872436523438e+01 -4.871569633483886719e+00 -1.907796785235404968e-02 -1.467194318771362305e+00 1.291024535894393921e-01
2.420000000000000000e+02 6.422100067138671875e+01 3.051149749755859375e+01 -5.222622871398925781e+00 -1.184599380940198898e-02 -1.570340633392333984e+00 5.030306056141853333e-02
2.430000000000000000e+02 6.671879577636718750e+01 2.967738723754882812e+01 -1.952519297599792480e+00 1.563717871904373169e-01 -5.388442873954772949e-01 8.337546586990356445e-01
2.440000000000000000e+02 6.416631317138671875e+01 2.977219390869140625e+01 -3.843883991241455078e+00 5.721583962440490723e-03 -1.151448726654052734e+00 1.315557211637496948e-01
2.450000000000000000e+02 6.667189788818359375e+01 3.025069236755371094e+01 -4.159914493560791016e+00 1.390588283538818359e-01 -1.206256747245788574e+00 1.121392771601676941e-01
2.460000000000000000e+02 6.480923461914062500e+01 2.976869010925292969e+01 -3.702161312103271484e+00 3.106521256268024445e-02 -1.101328849792480469e+00 1.689271777868270874e-01
2.470000000000000000e+02 6.673767852783203125e+01 2.987518119812011719e+01 -2.458323717117309570e+00 2.202290892601013184e-01 -6.714283823966979980e-01 6.968961358070373535e-01
2.480000000000000000e+02 6.621076965332031250e+01 3.045407104492187500e+01 -4.922800540924072266e+00 -1.260620206594467163e-01 -1.514658808708190918e+00 -3.390840440988540649e-02
2.490000000000000000e+02 6.544814300537109375e+01 2.974945449829101562e+01 -3.318383455276489258e+00 6.102121993899345398e-02 -9.772086739540100098e-01 2.559473514556884766e-01
2.500000000000000000e+02 6.664548492431640625e+01 3.047821235656738281e+01 -4.530342578887939453e+00 1.284344047307968140e-01 -1.320572495460510254e+00 -6.309211254119873047e-02
2.510000000000000000e+02 6.657318878173828125e+01 3.072148323059082031e+01 -5.740173816680908203e+00 2.882822789251804352e-02 -1.713403701782226562e+00 7.686784025281667709e-03
2.520000000000000000e+02 6.650797271728515625e+01 2.991037559509277344e+01 -2.889412164688110352e+00 2.129834294319152832e-01 -8.029286265373229980e-01 6.068611741065979004e-01
2.530000000000000000e+02 6.672775268554687500e+01 3.005850601196289062e+01 -3.316140413284301758e+00 1.855055689811706543e-01 -9.391904473304748535e-01 5.193464756011962891e-01
2.540000000000000000e+02 6.663842773437500000e+01 2.946932411193847656e+01 -1.706596732139587402e+00 3.672685921192169189e-01 -4.017984271049499512e-01 1.073100209236145020e+00
2.550000000000000000e+02 6.564707183837890625e+01 3.048673057556152344e+01 -5.165723323822021484e+00 -3.344459226354956627e-03 -1.550720334053039551e+00 5.637067556381225586e-02
2.560000000000000000e+02 6.601758575439453125e+01 2.966624450683593750e+01 -2.771964311599731445e+00 1.085095256567001343e-01 -7.990364432334899902e-01 4.923147559165954590e-01
2.570000000000000000e+02 6.642047119140625000e+01 2.963834571838378906e+01 -2.218278884887695312e+00 3.398481607437133789e-01 -5.635292530059814453e-01 7.849749922752380371e-01
2.580000000000000000e+02 6.627720642089843750e+01 3.007702827453613281e+01 -3.870713710784912109e+00 -2.381768450140953064e-02 -1.168359398841857910e+00 3.415642678737640381e-01
2.590000000000000000e+02 6.493603515625000000e+01 3.050697898864746094e+01 -5.201087474822998047e+00 9.947255253791809082e-03 -1.557342052459716797e+00 5.169013887643814087e-02
2.600000000000000000e+02 6.793101501464843750e+01 2.978731918334960938e+01 -5.931350868195295334e-03 1.195378780364990234e+00 3.568342030048370361e-01 2.252717018127441406e+00
2.610000000000000000e+02 6.817655944824218750e+01 3.072761726379394531e+01 -5.009263992309570312e+00 5.169094353914260864e-02 -1.487271904945373535e+00 7.314955350011587143e-03
2.620000000000000000e+02 7.015930938720703125e+01 2.978273582458496094e+01 7.030600905418395996e-01 2.398578453063964844e+01 7.406653404235839844e+00 2.886941671371459961e+00
2.630000000000000000e+02 7.092731475830078125e+01 3.176663589477539062e+01 5.578376770019531250e+00 2.104543304443359375e+01 7.987142562866210938e+00 2.788526535034179688e+00
2.640000000000000000e+02 7.048350524902343750e+01 3.211063766479492188e+01 1.587407350540161133e+00 2.246484565734863281e+01 7.215675830841064453e+00 -7.635960727930068970e-02
2.650000000000000000e+02 6.942435455322265625e+01 3.205764770507812500e+01 2.645147085189819336e+00 1.270860385894775391e+01 4.606125354766845703e+00 -7.723127365112304688e+00
2.660000000000000000e+02 6.959948730468750000e+01 2.970331382751464844e+01 1.402578711509704590e+00 1.622202301025390625e+01 5.287380218505859375e+00 7.961333751678466797e+00
2.670000000000000000e+02 6.818529510498046875e+01 3.048979187011718750e+01 -2.850698709487915039e+00 1.143226623535156250e-01 -8.209128379821777344e-01 4.759067893028259277e-01
2.680000000000000000e+02 6.696592712402343750e+01 2.946192741394042969e+01 -1.265044569969177246e+00 8.591839075088500977e-01 -1.217581778764724731e-01 1.449804782867431641e+00
2.690000000000000000e+02 6.716641998291015625e+01 2.945813369750976562e+01 -8.961268663406372070e-01 7.896294593811035156e-01 -3.194922208786010742e-02 1.655508756637573242e+00
2.700000000000000000e+02 6.775877380371093750e+01 2.948437690734863281e+01 1.205662935972213745e-01 1.474785923957824707e+00 4.786056578159332275e-01 2.596034526824951172e+00
2.710000000000000000e+02 6.997428131103515625e+01 2.975358772277832031e+01 4.613170027732849121e-01 2.222852325439453125e+01 6.806951999664306641e+00 5.179542541503906250e+00
2.720000000000000000e+02 6.951919555664062500e+01 2.983996582031250000e+01 2.207156896591186523e+00 1.503998184204101562e+01 5.174141883850097656e+00 8.584135055541992188e+00
2.730000000000000000e+02 6.887892150878906250e+01 2.997747611999511719e+01 2.831758260726928711e+00 3.690630435943603516e+00 1.956716537475585938e+00 5.215365409851074219e+00
2.740000000000000000e+02 6.878319549560546875e+01 3.075067901611328125e+01 -4.314945697784423828e+00 -1.088602691888809204e-01 -1.327141761779785156e+00 3.002577647566795349e-02
2.750000000000000000e+02 7.070927429199218750e+01 3.174321365356445312e+01 4.782443046569824219e+00 2.268902206420898438e+01 8.241439819335937500e+00 2.440165281295776367e+00
2.760000000000000000e+02 7.095764160156250000e+01 3.114926338195800781e+01 1.155015087127685547e+01 2.000283813476562500e+01 9.465896606445312500e+00 2.198068141937255859e+00
2.770000000000000000e+02 7.091455078125000000e+01 3.013577270507812500e+01 6.932296752929687500e+00 2.127854728698730469e+01 8.463253021240234375e+00 -2.945572853088378906e+00
2.780000000000000000e+02 7.034461212158203125e+01 2.975068473815917969e+01 1.178967118263244629e+00 2.362318420410156250e+01 7.440645217895507812e+00 1.203732371330261230e+00
2.790000000000000000e+02 6.698533630371093750e+01 3.222968292236328125e+01 -1.343280076980590820e-01 7.928763628005981445e-01 1.975645124912261963e-01 -9.815783500671386719e-01
2.800000000000000000e+02 6.694524383544921875e+01 3.183010101318359375e+01 -1.182525515556335449e+00 6.046589836478233337e-02 -3.366178870201110840e-01 -4.234773814678192139e-01
2.810000000000000000e+02 6.740807342529296875e+01 3.195045661926269531e+01 -1.955060958862304688e-01 6.408525109291076660e-01 1.336039155721664429e-01 -1.055600404739379883e+00
2.820000000000000000e+02 6.713511657714843750e+01 3.144138336181640625e+01 -2.259169816970825195e+00 8.938191831111907959e-02 -6.509363651275634766e-01 -8.565559238195419312e-02
2.830000000000000000e+02 6.818772888183593750e+01 3.099374771118164062e+01 -4.007329940795898438e+00 5.503505095839500427e-02 -1.185688376426696777e+00 1.911150477826595306e-02
2.840000000000000000e+02 6.817996978759765625e+01 3.223559570312500000e+01 2.013208866119384766e+00 2.530029296875000000e+00 1.362971425056457520e+00 -3.337823629379272461e+00
2.850000000000000000e+02 6.934594726562500000e+01 3.182791709899902344e+01 4.042678356170654297e+00 1.104331779479980469e+01 4.525798797607421875e+00 -8.395429611206054688e+00
2.860000000000000000e+02 6.958274841308593750e+01 3.225218963623046875e+01 1.506709694862365723e+00 1.538178253173828125e+01 5.066547393798828125e+00 -6.950122356414794922e+00
2.870000000000000000e+02 6.697230529785156250e+01 3.098620986938476562e+01 -4.402298450469970703e+00 -1.444806605577468872e-01 -1.364033699035644531e+00 -2.082834951579570770e-02
2.880000000000000000e+02 6.707501220703125000e+01 3.187719345092773438e+01 -8.297340273857116699e-01 4.494311809539794922e-01 -1.140908524394035339e-01 -6.237559914588928223e-01
2.890000000000000000e+02 6.696376037597656250e+01 3.201420593261718750e+01 -6.216614246368408203e-01 3.323663473129272461e-01 -8.678852766752243042e-02 -6.845557689666748047e-01
2.900000000000000000e+02 6.901781463623046875e+01 3.158589935302734375e+01 4.439445018768310547e+00 4.057682991027832031e+00 2.549138307571411133e+00 -5.583548545837402344e+00
2.910000000000000000e+02 6.878154754638671875e+01 3.097523498535156250e+01 -3.573886394500732422e+00 -1.013732329010963440e-01 -1.102577924728393555e+00 -7.188203930854797363e-02
2.920000000000000000e+02 7.098019409179687500e+01 3.096408271789550781e+01 1.244445228576660156e+01 1.941317558288574219e+01 9.557288169860839844e+00 8.764272928237915039e-01
2.930000000000000000e+02 7.042053985595703125e+01 3.180130767822265625e+01 2.881942510604858398e+00 2.509410667419433594e+01 8.392814636230468750e+00 4.036909341812133789e-01
2.940000000000000000e+02 7.015412902832031250e+01 3.195008277893066406e+01 1.227007627487182617e+00 2.396155548095703125e+01 7.556568622589111328e+00 -2.813675642013549805e+00
2.950000000000000000e+02 6.996662139892578125e+01 3.223075103759765625e+01 5.239593982696533203e-01 1.962628746032714844e+01 6.045074462890625000e+00 -4.779380321502685547e+00
2.960000000000000000e+02 6.942682647705078125e+01 2.967762756347656250e+01 1.900621652603149414e+00 1.283106708526611328e+01 4.419506549835205078e+00 7.988177299499511719e+00
2.970000000000000000e+02 6.978382873535156250e+01 2.974393844604492188e+01 9.000904560089111328e-01 1.942827796936035156e+01 6.098510265350341797e+00 7.088082790374755859e+00
2.980000000000000000e+02 7.061008453369140625e+01 3.004254150390625000e+01 4.640292167663574219e+00 2.421924972534179688e+01 8.657862663269042969e+00 -2.231548070907592773e+00
2.990000000000000000e+02 7.087417602539062500e+01 3.038930320739746094e+01 9.728023529052734375e+00 2.127374649047851562e+01 9.300531387329101562e+00 -3.057999849319458008e+00
3.000000000000000000e+02 6.797988891601562500e+01 3.048381805419921875e+01 -3.281607866287231445e+00 8.917274326086044312e-02 -9.577305912971496582e-01 3.683428466320037842e-01
3.010000000000000000e+02 6.800170135498046875e+01 3.027478599548339844e+01 -2.170200586318969727e+00 1.811488866806030273e-01 -5.967154502868652344e-01 8.383442163467407227e-01
3.020000000000000000e+02 6.756188201904296875e+01 3.071535301208496094e+01 -5.435181617736816406e+00 -1.101244706660509109e-02 -1.633858203887939453e+00 -2.419039793312549591e-02
3.030000000000000000e+02 6.776660156250000000e+01 3.071487808227539062e+01 -5.310922622680664062e+00 2.508311346173286438e-02 -1.585751891136169434e+00 -1.201464422047138214e-02
3.040000000000000000e+02 6.716767883300781250e+01 3.073668098449707031e+01 -5.637715339660644531e+00 2.930294908583164215e-02 -1.682523608207702637e+00 -8.493745326995849609e-02
3.050000000000000000e+02 6.697043609619140625e+01 3.073438835144042969e+01 -5.749598979949951172e+00 -1.193600073456764221e-01 -1.760687708854675293e+00 -3.808188950642943382e-03
3.060000000000000000e+02 7.119211578369140625e+01 3.132690238952636719e+01 9.482625007629394531e+00 1.835983467102050781e+01 8.352738380432128906e+00 2.370818138122558594e+00
3.070000000000000000e+02 7.033986663818359375e+01 3.197098922729492188e+01 1.747160911560058594e+00 2.366451263427734375e+01 7.623502254486083984e+00 -9.610539078712463379e-01
3.080000000000000000e+02 7.057624053955078125e+01 3.182399940490722656e+01 3.665501594543457031e+00 2.347632026672363281e+01 8.142546653747558594e+00 1.412187099456787109e+00
3.090000000000000000e+02 7.084884643554687500e+01 3.143807792663574219e+01 8.992676734924316406e+00 2.169288825988769531e+01 9.205669403076171875e+00 3.253719329833984375e+00
3.100000000000000000e+02 6.819528961181640625e+01 3.198926734924316406e+01 1.786136627197265625e+00 1.752002120018005371e+00 1.061441659927368164e+00 -2.741156339645385742e+00
3.110000000000000000e+02 6.858105468750000000e+01 3.098297500610351562e+01 -3.780868768692016602e+00 8.727364242076873779e-02 -1.108078479766845703e+00 -6.880293041467666626e-02
3.120000000000000000e+02 6.857212829589843750e+01 3.224441909790039062e+01 2.617996692657470703e+00 4.185105800628662109e+00 2.040930747985839844e+00 -4.646544933319091797e+00
3.130000000000000000e+02 6.857114410400390625e+01 3.201851272583007812e+01 2.726701021194458008e+00 3.398606061935424805e+00 1.837592124938964844e+00 -4.161045074462890625e+00
3.140000000000000000e+02 6.959486389160156250e+01 3.202849578857421875e+01 2.115586757659912109e+00 1.609598731994628906e+01 5.463471889495849609e+00 -7.725367546081542969e+00
3.150000000000000000e+02 6.977838897705078125e+01 3.198707389831542969e+01 1.526747226715087891e+00 1.934999847412109375e+01 6.263023853302001953e+00 -6.964113712310791016e+00
3.160000000000000000e+02 6.938784027099609375e+01 3.225654983520507812e+01 2.249149560928344727e+00 1.247529125213623047e+01 4.417332172393798828e+00 -7.160509109497070312e+00
3.170000000000000000e+02 6.996865081787109375e+01 3.197901535034179688e+01 1.072148799896240234e+00 2.204642105102539062e+01 6.935570716857910156e+00 -5.097765445709228516e+00
3.180000000000000000e+02 6.880815124511718750e+01 3.119541931152343750e+01 2.600302696228027344e-01 3.446452319622039795e-01 1.814026534557342529e-01 -1.263232469558715820e+00
3.190000000000000000e+02 6.881990051269531250e+01 3.054249000549316406e+01 -6.817665100097656250e-01 4.411005675792694092e-01 -7.219979166984558105e-02 1.291517019271850586e+00
3.200000000000000000e+02 7.104183197021484375e+01 3.006277275085449219e+01 5.923607349395751953e+00 1.997494506835937500e+01 7.769565582275390625e+00 -2.692678451538085938e+00
3.210000000000000000e+02 7.075446319580078125e+01 3.021039962768554688e+01 7.489592075347900391e+00 2.274586486816406250e+01 9.070636749267578125e+00 -3.203256130218505859e+00
3.220000000000000000e+02 6.856857299804687500e+01 2.947889900207519531e+01 1.690810799598693848e+00 4.380754947662353516e+00 1.821469664573669434e+00 4.964623928070068359e+00
3.230000000000000000e+02 6.918325805664062500e+01 3.001299285888671875e+01 3.868684530258178711e+00 7.451543331146240234e+00 3.396068334579467773e+00 7.476592063903808594e+00
3.240000000000000000e+02 6.877040863037109375e+01 2.946749877929687500e+01 1.903476476669311523e+00 5.649194240570068359e+00 2.265801191329956055e+00 5.686958312988281250e+00
3.250000000000000000e+02 7.094170379638671875e+01 3.057809448242187500e+01 1.151429843902587891e+01 2.011591911315917969e+01 9.489065170288085938e+00 -2.165158748626708984e+00
3.260000000000000000e+02 7.097639465332031250e+01 3.077068138122558594e+01 1.242006874084472656e+01 1.950772094726562500e+01 9.578336715698242188e+00 -7.411535978317260742e-01
3.270000000000000000e+02 7.080226898193359375e+01 3.190093040466308594e+01 4.066798686981201172e+00 2.197921943664550781e+01 7.813805580139160156e+00 2.103878259658813477e+00
3.280000000000000000e+02 7.110102081298828125e+01 3.021080207824707031e+01 7.808980464935302734e+00 1.955138397216796875e+01 8.208108901977539062e+00 -2.849882841110229492e+00
3.290000000000000000e+02 7.080526733398437500e+01 2.981804084777832031e+01 3.464392423629760742e+00 2.180038833618164062e+01 7.579434394836425781e+00 -1.991295576095581055e+00
3.300000000000000000e+02 7.048937988281250000e+01 2.961247444152832031e+01 1.136565327644348145e+00 2.252375793457031250e+01 7.098097324371337891e+00 3.135736882686614990e-01
3.310000000000000000e+02 7.016025543212890625e+01 2.952450752258300781e+01 -9.060398489236831665e-02 2.098185539245605469e+01 6.267375469207763672e+00 3.375641822814941406e+00
3.320000000000000000e+02 7.033533477783203125e+01 2.954942131042480469e+01 2.443742156028747559e-01 2.192037773132324219e+01 6.649425506591796875e+00 2.088361501693725586e+00
3.330000000000000000e+02 7.032852935791015625e+01 3.218080520629882812e+01 6.443174481391906738e-01 2.181417846679687500e+01 6.737548828125000000e+00 -1.869216203689575195e+00
3.340000000000000000e+02 7.093969726562500000e+01 2.992305374145507812e+01 5.001554012298583984e+00 2.059806442260742188e+01 7.679885387420654297e+00 -2.624013423919677734e+00
3.350000000000000000e+02 7.114378356933593750e+01 3.038355636596679688e+01 9.072244644165039062e+00 1.901156806945800781e+01 8.425144195556640625e+00 -2.430599212646484375e+00
3.360000000000000000e+02 7.122797393798828125e+01 3.077106285095214844e+01 1.073331069946289062e+01 1.767009735107421875e+01 8.521021842956542969e+00 -4.695543646812438965e-01
3.370000000000000000e+02 7.119945526123046875e+01 3.057691383361816406e+01 1.015661811828613281e+01 1.820865440368652344e+01 8.509581565856933594e+00 -1.555081248283386230e+00
3.380000000000000000e+02 7.015372467041015625e+01 3.220831298828125000e+01 4.579039216041564941e-01 2.080458068847656250e+01 6.378745079040527344e+00 -3.166912317276000977e+00
3.390000000000000000e+02 7.103154754638671875e+01 3.162023162841796875e+01 6.694879531860351562e+00 1.979202270507812500e+01 7.946071147918701172e+00 2.851197242736816406e+00
3.400000000000000000e+02 7.123177337646484375e+01 3.096501731872558594e+01 1.075733566284179688e+01 1.765981101989746094e+01 8.525143623352050781e+00 5.888692140579223633e-01
3.410000000000000000e+02 7.099481964111328125e+01 3.133274459838867188e+01 9.787658691406250000e+00 2.011106681823730469e+01 8.969617843627929688e+00 2.683574676513671875e+00
3.420000000000000000e+02 7.113107299804687500e+01 3.147919273376464844e+01 8.051311492919921875e+00 1.920330429077148438e+01 8.176384925842285156e+00 2.933453798294067383e+00
3.430000000000000000e+02 7.064332580566406250e+01 3.200775909423828125e+01 2.592942476272583008e+00 2.208381271362304688e+01 7.403026580810546875e+00 9.996506571769714355e-01
3.440000000000000000e+02 6.798110198974609375e+01 3.222772979736328125e+01 1.600184559822082520e+00 1.881583452224731445e+00 1.044530391693115234e+00 -2.728704690933227539e+00
3.450000000000000000e+02 6.898746490478515625e+01 3.222672653198242188e+01 2.819972515106201172e+00 7.362324237823486328e+00 3.054689168930053711e+00 -6.276636600494384766e+00
3.460000000000000000e+02 6.719004058837890625e+01 3.221320724487304688e+01 8.547706156969070435e-02 7.305886149406433105e-01 2.448197007179260254e-01 -1.194011092185974121e+00
3.470000000000000000e+02 6.722602081298828125e+01 3.193710136413574219e+01 -4.886286556720733643e-01 5.027022361755371094e-01 4.222061950713396072e-03 -8.590328097343444824e-01
3.480000000000000000e+02 6.875279998779296875e+01 3.201551818847656250e+01 3.379325151443481445e+00 4.395125865936279297e+00 2.332335233688354492e+00 -5.218786239624023438e+00
3.490000000000000000e+02 6.778280639648437500e+01 3.222056198120117188e+01 1.226557374000549316e+00 1.536974787712097168e+00 8.290596604347229004e-01 -2.295568943023681641e+00
3.500000000000000000e+02 6.977495574951171875e+01 3.224168777465820312e+01 9.410136342048645020e-01 1.744526100158691406e+01 5.515882492065429688e+00 -6.007011890411376953e+00
3.510000000000000000e+02 6.799136352539062500e+01 3.100801277160644531e+01 -4.016042232513427734e+00 -8.021729998290538788e-03 -1.207219243049621582e+00 4.715810716152191162e-02
3.520000000000000000e+02 6.778824615478515625e+01 3.104115295410156250e+01 -4.054297447204589844e+00 -6.706908345222473145e-02 -1.236410021781921387e+00 -1.121866796165704727e-02
3.530000000000000000e+02 6.822000122070312500e+01 3.123200798034667969e+01 -2.003078222274780273e+00 1.648203432559967041e-01 -5.514773726463317871e-01 -4.475108087062835693e-01
3.540000000000000000e+02 6.888858032226562500e+01 3.140259361267089844e+01 2.636845827102661133e+00 1.427556514739990234e+00 1.219320774078369141e+00 -3.030194997787475586e+00
3.550000000000000000e+02 6.804537963867187500e+01 3.124969673156738281e+01 -2.406568050384521484e+00 1.111562624573707581e-01 -6.886235475540161133e-01 -4.119177460670471191e-01
3.560000000000000000e+02 6.776107788085937500e+01 3.045153617858886719e+01 -3.516245126724243164e+00 2.635811641812324524e-02 -1.046966075897216797e+00 3.219477236270904541e-01
3.570000000000000000e+02 6.818077850341796875e+01 3.026120948791503906e+01 -1.282047986984252930e+00 5.613433122634887695e-01 -2.162113934755325317e-01 1.302896261215209961e+00
3.580000000000000000e+02 6.697319030761718750e+01 2.967081069946289062e+01 -1.682006478309631348e+00 5.379631519317626953e-01 -3.432129919528961182e-01 1.086752057075500488e+00
3.590000000000000000e+02 6.797288513183593750e+01 2.950620651245117188e+01 5.601019859313964844e-01 1.907597780227661133e+00 7.403099536895751953e-01 3.029191970825195312e+00
3.600000000000000000e+02 6.817992401123046875e+01 2.948741722106933594e+01 1.043280839920043945e+00 2.494960308074951172e+00 1.061472296714782715e+00 3.603459596633911133e+00
3.610000000000000000e+02 6.918324279785156250e+01 2.949212646484375000e+01 1.974968552589416504e+00 9.717150688171386719e+00 3.507635831832885742e+00 7.111206531524658203e+00
3.620000000000000000e+02 6.938970184326171875e+01 2.947555732727050781e+01 1.590417146682739258e+00 1.255013942718505859e+01 4.242166996002197266e+00 7.498185157775878906e+00
3.630000000000000000e+02 6.958754730224609375e+01 2.947860336303710938e+01 7.807399034500122070e-01 1.536491966247558594e+01 4.843698024749755859e+00 7.103274822235107422e+00
3.640000000000000000e+02 6.836959838867187500e+01 2.947468948364257812e+01 1.540432214736938477e+00 3.361281871795654297e+00 1.470514297485351562e+00 4.377490043640136719e+00
3.650000000000000000e+02 6.978130340576171875e+01 2.948930740356445312e+01 1.280122101306915283e-01 1.758011054992675781e+01 5.312437057495117188e+00 6.197968482971191406e+00
3.660000000000000000e+02 6.717020416259765625e+01 3.099407196044921875e+01 -4.329022884368896484e+00 1.030383333563804626e-01 -1.267795443534851074e+00 1.264375448226928711e-02
3.670000000000000000e+02 6.711281585693359375e+01 3.165805053710937500e+01 -1.405805826187133789e+00 1.503700017929077148e-01 -3.766307532787322998e-01 -3.073885142803192139e-01
3.680000000000000000e+02 6.696344757080078125e+01 3.141603851318359375e+01 -2.534128427505493164e+00 1.452466398477554321e-01 -7.166645526885986328e-01 -2.200502902269363403e-02
3.690000000000000000e+02 6.736891937255859375e+01 3.100965499877929688e+01 -4.238462924957275391e+00 -2.089061774313449860e-02 -1.277806043624877930e+00 -4.901939257979393005e-02
3.700000000000000000e+02 6.722888183593750000e+01 2.982649230957031250e+01 -1.727928876876831055e+00 4.627310335636138916e-01 -3.795593380928039551e-01 1.142425775527954102e+00
3.710000000000000000e+02 6.732588195800781250e+01 3.050656890869140625e+01 -4.351733207702636719e+00 9.985454380512237549e-02 -1.275563597679138184e+00 9.018281102180480957e-02
3.720000000000000000e+02 6.858184051513671875e+01 3.073720359802246094e+01 -4.570323467254638672e+00 5.818613618612289429e-02 -1.353641271591186523e+00 5.652719736099243164e-02
3.730000000000000000e+02 6.738919067382812500e+01 3.221996307373046875e+01 4.499622583389282227e-01 9.942665696144104004e-01 4.332686662673950195e-01 -1.486237287521362305e+00
3.740000000000000000e+02 6.917078399658203125e+01 3.173273277282714844e+01 4.565410137176513672e+00 7.103541851043701172e+00 3.500685453414916992e+00 -7.133043289184570312e+00
3.750000000000000000e+02 6.851189422607421875e+01 3.141268539428710938e+01 6.659117341041564941e-01 5.594967603683471680e-01 3.676225543022155762e-01 -1.643557906150817871e+00
3.760000000000000000e+02 6.715709686279296875e+01 3.122244262695312500e+01 -3.351598262786865234e+00 3.264330327510833740e-02 -9.956864714622497559e-01 -4.953884333372116089e-02
3.770000000000000000e+02 6.832811737060546875e+01 3.157002830505371094e+01 9.462752938270568848e-01 9.387473464012145996e-01 5.655068159103393555e-01 -1.873391866683959961e+00
3.780000000000000000e+02 6.752662658691406250e+01 3.044742584228515625e+01 -3.840139865875244141e+00 1.010023206472396851e-01 -1.121741294860839844e+00 2.550445199012756348e-01
3.790000000000000000e+02 6.736337280273437500e+01 3.072830772399902344e+01 -5.555041790008544922e+00 2.407664433121681213e-02 -1.659289479255676270e+00 -3.344333916902542114e-02
3.800000000000000000e+02 6.876862335205078125e+01 2.965343284606933594e+01 2.099169492721557617e+00 5.116978645324707031e+00 2.164844512939453125e+00 5.475554466247558594e+00
3.810000000000000000e+02 6.734202575683593750e+01 3.125883674621582031e+01 -3.131576538085937500e+00 8.230984210968017578e-02 -9.147799611091613770e-01 -1.999880746006965637e-02
3.820000000000000000e+02 6.719339752197265625e+01 3.036450386047363281e+01 -3.979119777679443359e+00 -2.075118571519851685e-02 -1.199961304664611816e+00 2.905159592628479004e-01
3.830000000000000000e+02 6.699739837646484375e+01 2.988426208496093750e+01 -2.191934108734130859e+00 1.674270033836364746e-01 -6.073521375656127930e-01 7.588707208633422852e-01
3.840000000000000000e+02 6.840523529052734375e+01 3.176781272888183594e+01 1.982242584228515625e+00 1.607529163360595703e+00 1.076931476593017578e+00 -2.808508634567260742e+00
3.850000000000000000e+02 6.901545715332031250e+01 3.015277671813964844e+01 3.585659027099609375e+00 3.887557506561279297e+00 2.241965055465698242e+00 5.463905811309814453e+00
3.860000000000000000e+02 6.888792419433593750e+01 3.033433532714843750e+01 2.016430377960205078e+00 1.446171879768371582e+00 1.038780689239501953e+00 3.216399431228637695e+00
3.870000000000000000e+02 6.860766601562500000e+01 3.050391197204589844e+01 -1.459221839904785156e+00 1.952593773603439331e-01 -3.791887462139129639e-01 9.735731482505798340e-01
3.880000000000000000e+02 6.841168212890625000e+01 2.999553680419921875e+01 8.968586325645446777e-01 1.475474476814270020e+00 7.116999626159667969e-01 2.825615406036376953e+00
3.890000000000000000e+02 6.864672088623046875e+01 3.026617622375488281e+01 9.696693420410156250e-01 1.232077002525329590e+00 6.605238914489746094e-01 2.604270219802856445e+00
3.900000000000000000e+02 6.697935485839843750e+01 3.031962966918945312e+01 -3.728539466857910156e+00 2.482093498110771179e-02 -1.111115574836730957e+00 7.173544168472290039e-02
3.910000000000000000e+02 6.736190795898437500e+01 2.946129989624023438e+01 -5.295898318290710449e-01 9.916904568672180176e-01 1.386301815509796143e-01 1.953437209129333496e+00
3.920000000000000000e+02 6.875265502929687500e+01 3.184699440002441406e+01 3.040271759033203125e+00 3.178642511367797852e+00 1.865674257278442383e+00 -4.501155853271484375e+00
3.930000000000000000e+02 6.779966735839843750e+01 3.193374061584472656e+01 5.786139965057373047e-01 9.046362638473510742e-01 4.449750781059265137e-01 -1.647306919097900391e+00
3.940000000000000000e+02 6.837898254394531250e+01 3.073048019409179688e+01 -4.809856891632080078e+00 -2.231884002685546875e-02 -1.449652671813964844e+00 3.597928211092948914e-02
3.950000000000000000e+02 6.747437286376953125e+01 3.019284439086914062e+01 -2.690031528472900391e+00 1.447087377309799194e-01 -7.635968327522277832e-01 6.114236116409301758e-01
3.960000000000000000e+02 6.829321289062500000e+01 2.967126083374023438e+01 1.190017938613891602e+00 2.380696535110473633e+00 1.071214318275451660e+00 3.626451015472412109e+00
3.970000000000000000e+02 6.734385681152343750e+01 2.966716384887695312e+01 -1.087124109268188477e+00 6.667629480361938477e-01 -1.261083632707595825e-01 1.540801405906677246e+00
3.980000000000000000e+02 6.888193511962890625e+01 3.189928817749023438e+01 3.635789394378662109e+00 4.878425121307373047e+00 2.554264307022094727e+00 -5.635290622711181641e+00
3.990000000000000000e+02 6.822102355957031250e+01 3.175592041015625000e+01 1.108680248260498047e+00 1.166822791099548340e+00 6.826509237289428711e-01 -2.167435169219970703e+00
4.000000000000000000e+02 6.770560455322265625e+01 3.150312232971191406e+01 -1.217031002044677734e+00 2.272072583436965942e-01 -2.969471216201782227e-01 -5.890784859657287598e-01
4.010000000000000000e+02 6.755792999267578125e+01 2.946998405456542969e+01 -3.309779763221740723e-01 1.152260899543762207e+00 2.463848739862442017e-01 2.144705057144165039e+00
4.020000000000000000e+02 6.717012023925781250e+01 2.965098190307617188e+01 -1.371080040931701660e+00 6.240170598030090332e-01 -2.241188734769821167e-01 1.382002115249633789e+00
4.030000000000000000e+02 6.736604309082031250e+01 2.999295997619628906e+01 -1.986694097518920898e+00 3.016532957553863525e-01 -5.055122375488281250e-01 8.577888011932373047e-01
4.040000000000000000e+02 6.700264739990234375e+01 3.010521697998046875e+01 -3.192707777023315430e+00 1.465104073286056519e-01 -9.138591885566711426e-01 4.825368523597717285e-01
4.050000000000000000e+02 6.715641021728515625e+01 3.053909873962402344e+01 -4.816533088684082031e+00 -1.263365149497985840e-02 -1.448750138282775879e+00 7.295960187911987305e-02
4.060000000000000000e+02 6.696894073486328125e+01 3.052577209472656250e+01 -4.917900562286376953e+00 -1.926724910736083984e-01 -1.533171892166137695e+00 1.072889491915702820e-01
4.070000000000000000e+02 6.695658111572265625e+01 3.162785911560058594e+01 -1.679787755012512207e+00 2.121544927358627319e-01 -4.402899742126464844e-01 -2.301837950944900513e-01
4.080000000000000000e+02 6.760032653808593750e+01 3.192990493774414062e+01 1.086731553077697754e-01 7.155556082725524902e-01 2.472686320543289185e-01 -1.294640064239501953e+00
4.090000000000000000e+02 6.758652496337890625e+01 3.221910095214843750e+01 8.923434019088745117e-01 1.247441291809082031e+00 6.419354081153869629e-01 -1.886895775794982910e+00
4.100000000000000000e+02 6.696939086914062500e+01 3.120220375061035156e+01 -3.404814243316650391e+00 8.760657161474227905e-03 -1.018815994262695312e+00 6.078945845365524292e-02
4.110000000000000000e+02 6.799947357177734375e+01 3.196842765808105469e+01 1.204999327659606934e+00 1.344264149665832520e+00 7.647790312767028809e-01 -2.199897766113281250e+00
4.120000000000000000e+02 6.838609313964843750e+01 3.200468826293945312e+01 2.334613800048828125e+00 2.496557950973510742e+00 1.449351549148559570e+00 -3.569947242736816406e+00
4.130000000000000000e+02 6.837653350830078125e+01 3.224188613891601562e+01 2.314728736877441406e+00 3.286174297332763672e+00 1.680271029472351074e+00 -3.904511213302612305e+00
4.140000000000000000e+02 6.877666473388671875e+01 3.223072814941406250e+01 2.802721023559570312e+00 5.703800201416015625e+00 2.551956415176391602e+00 -5.496428966522216797e+00
4.150000000000000000e+02 6.905070495605468750e+01 3.195962905883789062e+01 3.739454030990600586e+00 6.967569351196289062e+00 3.212106943130493164e+00 -6.585657596588134766e+00
4.160000000000000000e+02 6.919067382812500000e+01 3.224508666992187500e+01 2.607547760009765625e+00 9.688899040222167969e+00 3.688933849334716797e+00 -6.826042175292968750e+00
4.170000000000000000e+02 6.757631683349609375e+01 3.104109382629394531e+01 -4.124045372009277344e+00 5.879273638129234314e-03 -1.235449910163879395e+00 -4.009484499692916870e-02
4.180000000000000000e+02 6.786846160888671875e+01 3.133240127563476562e+01 -1.955102086067199707e+00 7.621084898710250854e-02 -5.636674165725708008e-01 -3.570044636726379395e-01
4.190000000000000000e+02 6.753322601318359375e+01 3.133053588867187500e+01 -2.436577081680297852e+00 -9.780714288353919983e-03 -7.339073419570922852e-01 -8.965783566236495972e-02
4.200000000000000000e+02 7.078477478027343750e+01 3.160575866699218750e+01 6.863299369812011719e+00 2.255567550659179688e+01 8.825692176818847656e+00 3.127526998519897461e+00
4.210000000000000000e+02 7.121538543701171875e+01 3.115179252624511719e+01 1.004458141326904297e+01 1.783439636230468750e+01 8.363693237304687500e+00 1.582461118698120117e+00
4.220000000000000000e+02 7.079596710205078125e+01 2.997514152526855469e+01 4.820312976837158203e+00 2.216070938110351562e+01 8.094306945800781250e+00 -2.483158588409423828e+00
4.230000000000000000e+02 7.064022064208984375e+01 2.972263145446777344e+01 2.181663751602172852e+00 2.208013534545898438e+01 7.278539657592773438e+00 -8.719340562820434570e-01
4.240000000000000000e+02 6.797267150878906250e+01 3.072271156311035156e+01 -5.170039653778076172e+00 -2.480728551745414734e-02 -1.558454155921936035e+00 -1.082068402320146561e-02
4.250000000000000000e+02 6.839207458496093750e+01 3.048867988586425781e+01 -2.213135719299316406e+00 2.760560810565948486e-01 -5.811238884925842285e-01 7.181430459022521973e-01
4.260000000000000000e+02 6.865586090087890625e+01 3.003379631042480469e+01 1.892415523529052734e+00 2.243891716003417969e+00 1.240892171859741211e+00 3.793417930603027344e+00
4.270000000000000000e+02 6.771622467041015625e+01 2.972254371643066406e+01 -4.477043747901916504e-01 8.607695698738098145e-01 1.239195689558982849e-01 1.948910474777221680e+00
4.280000000000000000e+02 6.752777862548828125e+01 2.968923377990722656e+01 -7.607896327972412109e-01 8.577113151550292969e-01 2.907649241387844086e-02 1.742604970932006836e+00
4.290000000000000000e+02 6.897283935546875000e+01 2.948675918579101562e+01 2.140444755554199219e+00 7.440462112426757812e+00 2.874272108078002930e+00 6.615963935852050781e+00
4.300000000000000000e+02 6.892532348632812500e+01 2.969352149963378906e+01 2.487530708312988281e+00 6.099275588989257812e+00 2.576041936874389648e+00 6.265867710113525391e+00
4.310000000000000000e+02 6.935245513916015625e+01 2.990782546997070312e+01 3.341135025024414062e+00 1.115420818328857422e+01 4.348602771759033203e+00 8.630735397338867188e+00
4.320000000000000000e+02 6.997357177734375000e+01 2.950184440612792969e+01 -1.333655267953872681e-01 1.974386405944824219e+01 5.883149623870849609e+00 4.954041957855224609e+00
4.330000000000000000e+02 7.045952606201171875e+01 2.990612030029296875e+01 2.569365262985229492e+00 2.462297058105468750e+01 8.157700538635253906e+00 -4.868788719177246094e-01
4.340000000000000000e+02 6.838343811035156250e+01 3.098706245422363281e+01 -3.936906814575195312e+00 -1.982971094548702240e-02 -1.187021017074584961e+00 -2.030149102210998535e-02
4.350000000000000000e+02 6.859647369384765625e+01 3.121179962158203125e+01 -5.834452509880065918e-01 3.058042824268341064e-01 -8.329229056835174561e-02 -9.123525023460388184e-01
4.360000000000000000e+02 6.840538024902343750e+01 3.121995162963867188e+01 -1.593420505523681641e+00 2.022051513195037842e-01 -4.173645973205566406e-01 -5.900999307632446289e-01
4.370000000000000000e+02 6.906098175048828125e+01 2.983657264709472656e+01 3.075572490692138672e+00 6.968470096588134766e+00 3.013212919235229492e+00 6.907293319702148438e+00
4.380000000000000000e+02 6.924423980712890625e+01 2.972567939758300781e+01 2.559313535690307617e+00 9.975957870483398438e+00 3.760581254959106445e+00 7.670143604278564453e+00
4.390000000000000000e+02 6.885536193847656250e+01 3.171719741821289062e+01 3.777504444122314453e+00 3.711535930633544922e+00 2.246711969375610352e+00 -4.831189632415771484e+00
4.400000000000000000e+02 6.951425170898437500e+01 3.189247894287109375e+01 2.969154119491577148e+00 1.490863227844238281e+01 5.363336086273193359e+00 -8.382561683654785156e+00
4.410000000000000000e+02 7.053492736816406250e+01 3.169013977050781250e+01 4.818591594696044922e+00 2.530065155029296875e+01 9.035773277282714844e+00 2.141248226165771484e+00
4.420000000000000000e+02 7.065573120117187500e+01 3.158802604675292969e+01 6.729457855224609375e+00 2.375917243957519531e+01 9.146589279174804688e+00 2.981716156005859375e+00
4.430000000000000000e+02 6.724975585937500000e+01 3.017049407958984375e+01 -2.932075977325439453e+00 1.776483952999114990e-01 -8.263282775878906250e-01 4.937022626399993896e-01
4.440000000000000000e+02 6.839337158203125000e+01 3.024022293090820312e+01 -3.227875232696533203e-01 6.956855058670043945e-01 1.118694022297859192e-01 1.773895740509033203e+00
4.450000000000000000e+02 6.726363372802734375e+01 3.169518852233886719e+01 -1.069298267364501953e+00 2.743655741214752197e-01 -2.384797930717468262e-01 -5.225622057914733887e-01
4.460000000000000000e+02 6.744738769531250000e+01 3.153631591796875000e+01 -1.410867214202880859e+00 1.589739024639129639e-01 -3.755679726600646973e-01 -3.940363824367523193e-01
4.470000000000000000e+02 6.756259918212890625e+01 3.167644500732421875e+01 -7.410479187965393066e-01 3.811092078685760498e-01 -1.079816147685050964e-01 -7.864587903022766113e-01
4.480000000000000000e+02 6.786154174804687500e+01 3.168131065368652344e+01 -8.956549316644668579e-02 5.452508926391601562e-01 1.367056220769882202e-01 -1.194626212120056152e+00
4.490000000000000000e+02 6.757602691650390625e+01 2.988249206542968750e+01 -1.185341119766235352e+00 6.023974418640136719e-01 -1.748831123113632202e-01 1.428774595260620117e+00
4.500000000000000000e+02 6.781282043457031250e+01 3.022554016113281250e+01 -2.235415697097778320e+00 2.406314909458160400e-01 -5.984352231025695801e-01 7.631048560142517090e-01
4.510000000000000000e+02 6.924845886230468750e+01 3.201899719238281250e+01 3.333058357238769531e+00 1.007754325866699219e+01 4.023180484771728516e+00 -7.409622192382812500e+00
4.520000000000000000e+02 6.859439086914062500e+01 3.178513145446777344e+01 2.576252460479736328e+00 2.431864023208618164e+00 1.502434849739074707e+00 -3.671935558319091797e+00
4.530000000000000000e+02 6.767943572998046875e+01 3.008166503906250000e+01 -1.799064159393310547e+00 3.265321254730224609e-01 -4.417595863342285156e-01 1.017254948616027832e+00
4.540000000000000000e+02 6.787450408935546875e+01 3.002724456787109375e+01 -9.647285342216491699e-01 6.071830987930297852e-01 -1.072636246681213379e-01 1.450050711631774902e+00
4.550000000000000000e+02 6.880163574218750000e+01 2.980618095397949219e+01 2.456991910934448242e+00 4.392188072204589844e+00 2.054754018783569336e+00 5.364165306091308594e+00
4.560000000000000000e+02 6.869889068603515625e+01 3.156377220153808594e+01 2.523299694061279297e+00 1.730775117874145508e+00 1.276222467422485352e+00 -3.159579992294311523e+00
4.570000000000000000e+02 6.860205841064453125e+01 2.967621612548828125e+01 1.864996314048767090e+00 3.822874307632446289e+00 1.706361174583435059e+00 4.815547466278076172e+00
4.580000000000000000e+02 6.864016723632812500e+01 2.983957481384277344e+01 2.164585351943969727e+00 3.222743988037109375e+00 1.616198778152465820e+00 4.522898197174072266e+00
4.590000000000000000e+02 6.817449951171875000e+01 2.988610649108886719e+01 4.088233709335327148e-01 1.236982464790344238e+00 4.937417507171630859e-01 2.517395496368408203e+00
4.600000000000000000e+02 6.729713439941406250e+01 3.147906112670898438e+01 -1.906589627265930176e+00 4.094457253813743591e-02 -5.596935153007507324e-01 -1.657543033361434937e-01
4.610000000000000000e+02 6.741257476806640625e+01 3.171944999694824219e+01 -8.069971203804016113e-01 3.794251978397369385e-01 -1.282715797424316406e-01 -7.297931313514709473e-01
4.620000000000000000e+02 6.816011810302734375e+01 3.142426109313964844e+01 -5.233314633369445801e-01 2.089439630508422852e-01 -9.431625157594680786e-02 -8.887366652488708496e-01
4.630000000000000000e+02 6.803773498535156250e+01 3.173047828674316406e+01 6.561885476112365723e-01 8.973115682601928711e-01 4.660500288009643555e-01 -1.735082864761352539e+00
4.640000000000000000e+02 6.799761199951171875e+01 3.153775787353515625e+01 -1.776020079851150513e-01 4.386462271213531494e-01 7.831326872110366821e-02 -1.060853838920593262e+00
4.650000000000000000e+02 6.807408142089843750e+01 3.009832954406738281e+01 -6.911110281944274902e-01 6.656391024589538574e-01 -7.641580421477556229e-03 1.636545300483703613e+00
4.660000000000000000e+02 6.847526550292968750e+01 2.978626060485839844e+01 1.662775397300720215e+00 2.570369005203247070e+00 1.269943356513977051e+00 3.994246244430541992e+00
4.670000000000000000e+02 6.487816619873046875e+01 3.198531723022460938e+01 -2.021666288375854492e+00 3.734180703759193420e-02 -5.952973961830139160e-01 1.216369718313217163e-01
4.680000000000000000e+02 6.669323730468750000e+01 3.188610267639160156e+01 -1.245932459831237793e+00 3.474838137626647949e-01 -2.695345878601074219e-01 -4.345460236072540283e-01
4.690000000000000000e+02 6.670251464843750000e+01 3.142967414855957031e+01 -2.659703731536865234e+00 1.486835777759552002e-01 -7.533060908317565918e-01 -4.630258772522211075e-03
4.700000000000000000e+02 6.673951721191406250e+01 3.206078338623046875e+01 -5.906992554664611816e-01 3.700481653213500977e-01 -6.619533151388168335e-02 -5.379371643066406250e-01
4.710000000000000000e+02 6.647518920898437500e+01 3.210332107543945312e+01 -8.659241199493408203e-01 3.127536475658416748e-01 -1.659511476755142212e-01 -5.234603881835937500e-01
4.720000000000000000e+02 6.422274017333984375e+01 3.201436614990234375e+01 -2.098212003707885742e+00 4.175274446606636047e-02 -6.169377565383911133e-01 1.985830217599868774e-01
4.730000000000000000e+02 6.497633361816406250e+01 3.124386215209960938e+01 -3.445553302764892578e+00 -1.349325291812419891e-02 -1.037714004516601562e+00 1.685708016157150269e-01
4.740000000000000000e+02 6.581040954589843750e+01 3.153439331054687500e+01 -2.691042900085449219e+00 5.126508697867393494e-02 -7.919333577156066895e-01 6.676202267408370972e-02
4.750000000000000000e+02 6.424304962158203125e+01 3.127400779724121094e+01 -3.201684474945068359e+00 6.668976973742246628e-03 -9.585046768188476562e-01 1.667592674493789673e-01
4.760000000000000000e+02 6.666427612304687500e+01 3.167012977600097656e+01 -1.900907993316650391e+00 1.765277087688446045e-01 -5.173140764236450195e-01 -1.547576487064361572e-01
4.770000000000000000e+02 6.657283782958984375e+01 3.100822448730468750e+01 -4.120156288146972656e+00 8.896209299564361572e-02 -1.209358334541320801e+00 1.672066301107406616e-01
4.780000000000000000e+02 6.666118621826171875e+01 3.225791931152343750e+01 -5.093680620193481445e-01 4.197956621646881104e-01 -2.687172405421733856e-02 -7.301205396652221680e-01
4.790000000000000000e+02 6.668514251708984375e+01 3.122844696044921875e+01 -3.443788766860961914e+00 1.492175161838531494e-01 -9.883713722229003906e-01 1.343496590852737427e-01
4.800000000000000000e+02 6.606697082519531250e+01 3.211570739746093750e+01 -1.212773442268371582e+00 2.325453162193298340e-01 -2.940684258937835693e-01 -2.228924036026000977e-01
4.810000000000000000e+02 6.622984313964843750e+01 3.168520736694335938e+01 -2.125230789184570312e+00 4.396994039416313171e-02 -6.243782639503479004e-01 -9.001812338829040527e-02
4.820000000000000000e+02 6.549770355224609375e+01 3.203862762451171875e+01 -1.735876917839050293e+00 1.095121651887893677e-01 -4.879094362258911133e-01 -1.943598850630223751e-03
4.830000000000000000e+02 6.614683532714843750e+01 3.120158958435058594e+01 -3.728835344314575195e+00 -8.288539201021194458e-02 -1.143516182899475098e+00 1.227441355586051941e-01
4.840000000000000000e+02 6.568035125732421875e+01 3.115721511840820312e+01 -3.692949295043945312e+00 6.734635680913925171e-03 -1.105864405632019043e+00 1.690830141305923462e-01
4.850000000000000000e+02 6.640576171875000000e+01 3.138565063476562500e+01 -3.069739341735839844e+00 5.540554597973823547e-02 -9.043001532554626465e-01 2.433912828564643860e-02
4.860000000000000000e+02 6.276046371459960938e+01 3.133346366882324219e+01 -2.848209381103515625e+00 -7.650746032595634460e-03 -8.567580580711364746e-01 1.970156729221343994e-01
4.870000000000000000e+02 6.204193878173828125e+01 3.210009765625000000e+01 -1.954997301101684570e+00 -5.683211144059896469e-03 -5.882041454315185547e-01 3.140160143375396729e-01
4.880000000000000000e+02 6.352939224243164062e+01 3.204368591308593750e+01 -2.083343029022216797e+00 2.617725171148777008e-02 -6.171497702598571777e-01 2.404343336820602417e-01
4.890000000000000000e+02 6.129957962036132812e+01 3.212466430664062500e+01 -1.882021069526672363e+00 2.761529758572578430e-03 -5.637778639793395996e-01 3.246570825576782227e-01
4.900000000000000000e+02 6.278520965576171875e+01 3.207305526733398438e+01 -2.028927087783813477e+00 1.606399565935134888e-02 -6.038589477539062500e-01 2.803177237510681152e-01
4.910000000000000000e+02 6.126666641235351562e+01 3.138537216186523438e+01 -2.452609777450561523e+00 -4.761953838169574738e-03 -7.372115254402160645e-01 2.009931355714797974e-01
4.920000000000000000e+02 6.350872802734375000e+01 3.130394744873046875e+01 -3.011559724807739258e+00 3.557551419362425804e-03 -9.024006724357604980e-01 1.860889196395874023e-01
4.930000000000000000e+02 6.201310729980468750e+01 3.136065673828125000e+01 -2.661425828933715820e+00 -6.688869558274745941e-03 -8.004344105720520020e-01 1.966960877180099487e-01
4.940000000000000000e+02 5.902614212036132812e+01 3.150998687744140625e+01 -1.909043669700622559e+00 -2.012122422456741333e-02 -5.787494778633117676e-01 2.059053480625152588e-01
4.950000000000000000e+02 5.907215118408203125e+01 3.224856185913085938e+01 -1.512710332870483398e+00 -2.177157066762447357e-02 -4.603445529937744141e-01 3.449631631374359131e-01
4.960000000000000000e+02 5.828060531616210938e+01 3.155119895935058594e+01 -1.711934924125671387e+00 -8.852263912558555603e-03 -5.162361264228820801e-01 2.023822367191314697e-01
4.970000000000000000e+02 5.977254104614257812e+01 3.146639251708984375e+01 -2.094605922698974609e+00 -1.337932143360376358e-02 -6.323955655097961426e-01 2.157425731420516968e-01
4.980000000000000000e+02 6.055696487426757812e+01 3.215964889526367188e+01 -1.768300652503967285e+00 -7.605292368680238724e-03 -5.327717661857604980e-01 3.351460993289947510e-01
4.990000000000000000e+02 6.051979827880859375e+01 3.142056083679199219e+01 -2.264412879943847656e+00 -5.879483185708522797e-03 -6.810877323150634766e-01 2.094469666481018066e-01
5.000000000000000000e+02 5.833103179931640625e+01 3.228951644897460938e+01 -1.400183916091918945e+00 -3.303229436278343201e-02 -4.299648702144622803e-01 3.352339863777160645e-01
5.010000000000000000e+02 5.981412887573242188e+01 3.220522308349609375e+01 -1.633090972900390625e+00 -2.306436747312545776e-02 -4.968466162681579590e-01 3.301273286342620850e-01
5.020000000000000000e+02 5.604499816894531250e+01 3.173213005065917969e+01 -1.235375046730041504e+00 -3.547407686710357666e-02 -3.812547326087951660e-01 1.778498440980911255e-01
5.030000000000000000e+02 5.611047744750976562e+01 3.246923828125000000e+01 -1.013426184654235840e+00 -3.508306294679641724e-02 -3.145527839660644531e-01 3.073568046092987061e-01
5.040000000000000000e+02 5.530117034912109375e+01 3.179267501831054688e+01 -1.080627560615539551e+00 -3.640440292656421661e-03 -3.252804279327392578e-01 1.717560440301895142e-01
5.050000000000000000e+02 5.678963851928710938e+01 3.166926193237304688e+01 -1.388368368148803711e+00 -1.423287484794855118e-02 -4.207803606986999512e-01 1.982003897428512573e-01
5.060000000000000000e+02 5.759029388427734375e+01 3.234218597412109375e+01 -1.268522262573242188e+00 -2.658892981708049774e-02 -3.885333538055419922e-01 3.290453851222991943e-01
5.070000000000000000e+02 5.753508758544921875e+01 3.160421562194824219e+01 -1.539154052734375000e+00 -2.151265181601047516e-02 -4.682000279426574707e-01 1.990403980016708374e-01
5.080000000000000000e+02 5.537178421020507812e+01 3.252934646606445312e+01 -9.012378454208374023e-01 -5.611833184957504272e-02 -2.872068583965301514e-01 2.792083323001861572e-01
5.090000000000000000e+02 5.684997940063476562e+01 3.240679931640625000e+01 -1.135610938072204590e+00 -5.284038558602333069e-02 -3.565353751182556152e-01 3.041553199291229248e-01
5.100000000000000000e+02 5.315649414062500000e+01 3.277415466308593750e+01 -6.201630234718322754e-01 -3.793754056096076965e-02 -1.974301636219024658e-01 2.168203741312026978e-01
5.110000000000000000e+02 5.307151031494140625e+01 3.203905105590820312e+01 -7.314320802688598633e-01 -3.548141941428184509e-02 -2.300740629434585571e-01 1.344833970069885254e-01
5.120000000000000000e+02 5.232960128784179688e+01 3.212165451049804688e+01 -6.310561895370483398e-01 -9.272095747292041779e-03 -1.920984983444213867e-01 1.225698515772819519e-01
5.130000000000000000e+02 5.381415176391601562e+01 3.195396995544433594e+01 -8.370130658149719238e-01 -1.208691857755184174e-02 -2.547299861907958984e-01 1.522493213415145874e-01
5.140000000000000000e+02 5.463307952880859375e+01 3.260275268554687500e+01 -8.035532832145690918e-01 -3.564083948731422424e-02 -2.517582178115844727e-01 2.573100030422210693e-01
5.150000000000000000e+02 5.455753707885742188e+01 3.186656951904296875e+01 -9.461097717285156250e-01 -3.587612137198448181e-02 -2.945957779884338379e-01 1.613375842571258545e-01
5.160000000000000000e+02 5.241930389404296875e+01 3.285622024536132812e+01 -5.455141663551330566e-01 -5.581469833850860596e-02 -1.803986579179763794e-01 1.963052004575729370e-01
5.170000000000000000e+02 5.389441299438476562e+01 3.268961715698242188e+01 -7.029973268508911133e-01 -6.430570781230926514e-02 -2.301909178495407104e-01 2.337171137332916260e-01
5.180000000000000000e+02 5.010603713989257812e+01 3.241886520385742188e+01 -4.037530124187469482e-01 -2.770137973129749298e-02 -1.294363141059875488e-01 8.733087033033370972e-02
5.190000000000000000e+02 5.020995712280273438e+01 3.315154266357421875e+01 -3.543172776699066162e-01 -2.875043079257011414e-02 -1.149203106760978699e-01 1.429156661033630371e-01
5.200000000000000000e+02 4.936609268188476562e+01 3.251750564575195312e+01 -3.395946919918060303e-01 -6.569336634129285812e-03 -1.038492098450660706e-01 7.898407429456710815e-02
5.210000000000000000e+02 5.084666061401367188e+01 3.231782531738281250e+01 -4.723011553287506104e-01 -1.025049947202205658e-02 -1.447654962539672852e-01 1.021653786301612854e-01
5.220000000000000000e+02 5.168240356445312500e+01 3.294850540161132812e+01 -4.734479188919067383e-01 -3.215330466628074646e-02 -1.516803652048110962e-01 1.783227473497390747e-01
5.230000000000000000e+02 5.158797073364257812e+01 3.221453475952148438e+01 -5.451189279556274414e-01 -2.927801944315433502e-02 -1.723190695047378540e-01 1.099783778190612793e-01
5.240000000000000000e+02 4.947475433349609375e+01 3.324953460693359375e+01 -3.059036731719970703e-01 -4.309977591037750244e-02 -1.047010421752929688e-01 1.272314935922622681e-01
5.250000000000000000e+02 5.094583892822265625e+01 3.305115127563476562e+01 -4.068980813026428223e-01 -5.348785966634750366e-02 -1.381157785654067993e-01 1.558490544557571411e-01
5.260000000000000000e+02 4.727144622802734375e+01 3.360919570922851562e+01 -1.762572973966598511e-01 -2.175049670040607452e-02 -5.940233543515205383e-02 9.099455177783966064e-02
5.270000000000000000e+02 4.715089797973632812e+01 3.287907791137695312e+01 -1.999447643756866455e-01 -2.365891635417938232e-02 -6.708110868930816650e-02 5.236028507351875305e-02
5.280000000000000000e+02 4.641378021240234375e+01 3.299990844726562500e+01 -1.624005883932113647e-01 -2.209407743066549301e-03 -4.938299953937530518e-02 4.676799103617668152e-02
5.290000000000000000e+02 4.788861083984375000e+01 3.275563049316406250e+01 -2.419121712446212769e-01 -5.660454742610454559e-03 -7.427179068326950073e-02 6.510525941848754883e-02
5.300000000000000000e+02 4.873987197875976562e+01 3.336110687255859375e+01 -2.565454542636871338e-01 -2.338701486587524414e-02 -8.397974073886871338e-02 1.163337156176567078e-01
5.310000000000000000e+02 4.862693405151367188e+01 3.262971878051757812e+01 -2.866671383380889893e-01 -2.315039560198783875e-02 -9.294525533914566040e-02 6.860011070966720581e-02
5.320000000000000000e+02 4.653813171386718750e+01 3.372938919067382812e+01 -1.408093869686126709e-01 -3.613846376538276672e-02 -5.308435484766960144e-02 7.592272758483886719e-02
5.330000000000000000e+02 4.800535202026367188e+01 3.348638153076171875e+01 -2.116046845912933350e-01 -4.018020257353782654e-02 -7.553546875715255737e-02 9.835664927959442139e-02
5.340000000000000000e+02 4.420226669311523438e+01 3.339414215087890625e+01 -7.916689664125442505e-02 -1.171245425939559937e-02 -2.726380527019500732e-02 2.555694058537483215e-02
5.350000000000000000e+02 4.433515167236328125e+01 3.412211608886718750e+01 -7.433996349573135376e-02 -1.399757433682680130e-02 -2.650126256048679352e-02 4.299290105700492859e-02
5.360000000000000000e+02 4.346595001220703125e+01 3.352351760864257812e+01 -5.974800512194633484e-02 -3.566013649106025696e-03 -1.899420469999313354e-02 1.995934173464775085e-02
5.370000000000000000e+02 4.493911361694335938e+01 3.326211166381835938e+01 -1.029576584696769714e-01 -2.693472197279334068e-03 -3.169533982872962952e-02 3.146249055862426758e-02
5.380000000000000000e+02 4.580409240722656250e+01 3.385649871826171875e+01 -1.181924864649772644e-01 -1.694775745272636414e-02 -4.054207354784011841e-02 6.296828389167785645e-02
5.390000000000000000e+02 4.567650985717773438e+01 3.312757492065429688e+01 -1.291081011295318604e-01 -1.852603442966938019e-02 -4.429024085402488708e-02 3.748270496726036072e-02
5.400000000000000000e+02 4.360148620605468750e+01 3.425101852416992188e+01 -5.796519666910171509e-02 -1.834886707365512848e-02 -2.289422042667865753e-02 3.797961771488189697e-02
5.410000000000000000e+02 4.506934738159179688e+01 3.399055862426757812e+01 -9.132366627454757690e-02 -2.728212997317314148e-02 -3.558173775672912598e-02 5.566574260592460632e-02
5.420000000000000000e+02 4.139850234985351562e+01 3.467833328247070312e+01 -2.255616523325443268e-02 -8.240744471549987793e-03 -9.239072911441326141e-03 2.157325670123100281e-02
5.430000000000000000e+02 4.199465942382812500e+01 3.380642318725585938e+01 -3.039519861340522766e-02 -2.339984755963087082e-03 -9.820555336773395538e-03 1.306536979973316193e-02
5.440000000000000000e+02 4.052394866943359375e+01 3.409660720825195312e+01 -1.036286633461713791e-02 2.028016024269163609e-04 -3.048019483685493469e-03 6.876887753605842590e-03
5.450000000000000000e+02 4.213290405273437500e+01 3.453341293334960938e+01 -3.258050605654716492e-02 -1.211638562381267548e-02 -1.340906787663698196e-02 2.404793538153171539e-02
5.460000000000000000e+02 4.272992324829101562e+01 3.366130447387695312e+01 -4.372420534491539001e-02 -6.716463714838027954e-03 -1.513220090419054031e-02 1.558803115040063858e-02
5.470000000000000000e+02 4.286724853515625000e+01 3.438847732543945312e+01 -4.380660504102706909e-02 -1.098856888711452484e-02 -1.643855124711990356e-02 3.019634634256362915e-02
5.480000000000000000e+02 4.066404342651367188e+01 3.482323455810546875e+01 -1.326042693108320236e-02 -1.098116766661405563e-02 -7.272478193044662476e-03 1.375032402575016022e-02
5.490000000000000000e+02 4.125933456420898438e+01 3.395152664184570312e+01 -1.917933672666549683e-02 -5.832452327013015747e-03 -7.503536529839038849e-03 8.310397155582904816e-03
5.500000000000000000e+02 3.905131912231445312e+01 3.438002777099609375e+01 6.157642346806824207e-04 3.017019713297486305e-03 1.089835190214216709e-03 3.061970695853233337e-03
5.510000000000000000e+02 3.845631790161132812e+01 3.524533081054687500e+01 -2.751985099166631699e-03 1.569385989569127560e-03 -3.547797678038477898e-04 5.534292664378881454e-03
5.520000000000000000e+02 3.757802581787109375e+01 3.465816116333007812e+01 6.137228105217218399e-03 3.553590504452586174e-03 2.907245652750134468e-03 1.067632547346875072e-04
5.530000000000000000e+02 3.992870712280273438e+01 3.496635818481445312e+01 -6.816964596509933472e-03 -4.135859198868274689e-03 -3.285847138613462448e-03 1.135518029332160950e-02
5.540000000000000000e+02 3.978794097900390625e+01 3.423986434936523438e+01 -4.114855546504259109e-03 -5.205087363719940186e-03 -2.795982873067259789e-03 2.561321016401052475e-03
5.550000000000000000e+02 3.772006225585937500e+01 3.538441467285156250e+01 2.949406625702977180e-03 -6.694179493933916092e-03 -1.123431837186217308e-03 3.470203839242458344e-03
5.560000000000000000e+02 3.919250869750976562e+01 3.510644531250000000e+01 -2.893811091780662537e-03 -7.175188977271318436e-03 -3.020700067281723022e-03 4.467635881155729294e-03
5.570000000000000000e+02 3.831470489501953125e+01 3.451899719238281250e+01 4.382910672575235367e-03 -5.080758128315210342e-03 -2.093541406793519855e-04 -5.115250314702279866e-05
5.580000000000000000e+02 3.551680755615234375e+01 3.582569122314453125e+01 5.303625017404556274e-03 -4.919961211271584034e-04 1.443488639779388905e-03 -2.088640583679080009e-03
5.590000000000000000e+02 3.610754394531250000e+01 3.495201110839843750e+01 9.017342701554298401e-03 1.752042328007519245e-03 3.230815520510077477e-03 -1.724790898151695728e-03
5.600000000000000000e+02 3.463803482055664062e+01 3.524788665771484375e+01 9.277799166738986969e-03 1.276769326068460941e-04 2.821642905473709106e-03 -2.604905283078551292e-03
5.610000000000000000e+02 3.684228134155273438e+01 3.480297470092773438e+01 8.499177172780036926e-03 -3.055432811379432678e-03 1.633123261854052544e-03 -8.136944379657506943e-04
5.620000000000000000e+02 3.698487472534179688e+01 3.552911758422851562e+01 1.847011968493461609e-03 2.031483920291066170e-03 1.163548673503100872e-03 4.687420441769063473e-04
5.630000000000000000e+02 3.478272247314453125e+01 3.597360992431640625e+01 7.239976897835731506e-03 2.644661872182041407e-04 2.251332858577370644e-03 -1.467142865294590592e-04
5.640000000000000000e+02 3.625083541870117188e+01 3.567801284790039062e+01 5.681555718183517456e-03 -3.296318463981151581e-03 7.155712810344994068e-04 2.482829848304390907e-03
5.650000000000000000e+02 3.537281799316406250e+01 3.509983062744140625e+01 9.980292990803718567e-03 -4.719616263173520565e-04 2.852499485015869141e-03 -1.497393473982810974e-03
5.660000000000000000e+02 3.242737579345703125e+01 3.568672943115234375e+01 6.675940006971359253e-03 2.259027678519487381e-03 2.680490259081125259e-03 -1.942807924933731556e-03
5.670000000000000000e+02 3.169006347656250000e+01 3.583216094970703125e+01 5.594416055828332901e-03 -5.449908785521984100e-04 1.514827599748969078e-03 -1.448412891477346420e-03
5.680000000000000000e+02 3.330534362792968750e+01 3.626757049560546875e+01 3.692897036671638489e-03 1.396359992213547230e-03 1.526777166873216629e-03 -2.428882755339145660e-03
5.690000000000000000e+02 3.316469573974609375e+01 3.554105377197265625e+01 8.088875561952590942e-03 -1.267510000616312027e-03 2.046409528702497482e-03 -2.725886879488825798e-03
5.700000000000000000e+02 3.390202713012695312e+01 3.539514541625976562e+01 9.350290521979331970e-03 1.471742289140820503e-03 3.246609820052981377e-03 -1.508137211203575134e-03
5.710000000000000000e+02 3.404560089111328125e+01 3.612108612060546875e+01 5.440846551209688187e-03 -9.583728387951850891e-04 1.344742137007415295e-03 -3.530823625624179840e-03
5.720000000000000000e+02 3.182485580444335938e+01 3.655983352661132812e+01 3.842703765258193016e-03 1.427288516424596310e-03 1.580997603014111519e-03 -2.455200767144560814e-03
5.730000000000000000e+02 3.256509399414062500e+01 3.641382217407226562e+01 4.090223461389541626e-03 5.121822468936443329e-04 1.380721689201891422e-03 -1.735925441607832909e-03
5.740000000000000000e+02 2.946516418457031250e+01 3.621912765502929688e+01 3.295845119282603264e-03 1.616618537809699774e-04 1.037252135574817657e-03 -8.299479959532618523e-04
5.750000000000000000e+02 2.958438682556152344e+01 3.694947052001953125e+01 1.614017528481781483e-03 3.738734812941402197e-04 5.963672883808612823e-04 -1.421428867615759373e-03
5.760000000000000000e+02 2.872264671325683594e+01 3.634394836425781250e+01 2.405254403129220009e-03 1.462445361539721489e-04 7.654497167095541954e-04 -8.409132715314626694e-04
5.770000000000000000e+02 3.020768547058105469e+01 3.609378433227539062e+01 3.699955996125936508e-03 2.378431672696024179e-04 1.181339728645980358e-03 -9.505198104307055473e-04
5.780000000000000000e+02 3.095018768310546875e+01 3.596792221069335938e+01 4.782720003277063370e-03 7.933520246297121048e-04 1.672821585088968277e-03 -1.453645643778145313e-03
5.790000000000000000e+02 3.108069419860839844e+01 3.669636154174804688e+01 2.944070845842361450e-03 1.713235105853527784e-04 9.346183505840599537e-04 -1.301637152209877968e-03
5.800000000000000000e+02 2.883622932434082031e+01 3.707524490356445312e+01 2.200370188802480698e-03 6.185462698340415955e-04 8.456749492324888706e-04 -6.873636739328503609e-04
5.810000000000000000e+02 3.033255004882812500e+01 3.682317352294921875e+01 3.313736990094184875e-03 9.045868064276874065e-04 1.265497179701924324e-03 -1.791327726095914841e-03
5.820000000000000000e+02 2.647223281860351562e+01 3.666142654418945312e+01 1.407375209964811802e-03 -1.592620392329990864e-04 3.744339337572455406e-04 -4.985925043001770973e-04
5.830000000000000000e+02 2.572040748596191406e+01 3.676027679443359375e+01 8.482219418510794640e-04 4.950183210894465446e-04 4.029720730613917112e-04 -2.456770744174718857e-04
5.840000000000000000e+02 2.731099891662597656e+01 3.729562377929687500e+01 8.829619036987423897e-04 8.716485463082790375e-04 5.263831117190420628e-04 -8.463120902888476849e-04
5.850000000000000000e+02 2.722403526306152344e+01 3.656066131591796875e+01 1.636884291656315327e-03 4.873534180660499260e-06 4.925273242406547070e-04 -2.616488782223314047e-04
5.860000000000000000e+02 2.797564125061035156e+01 3.645804595947265625e+01 1.999601488932967186e-03 3.672153397928923368e-04 7.100451039150357246e-04 -4.559571389108896255e-04
5.870000000000000000e+02 2.807846832275390625e+01 3.719087982177734375e+01 1.623777672648429871e-03 2.615888297441415489e-05 4.949809517711400986e-04 -1.140079810284078121e-03
5.880000000000000000e+02 2.577564430236816406e+01 3.749948883056640625e+01 1.794783398509025574e-03 1.114213773689698428e-05 5.417776992544531822e-04 -5.378600326366722584e-04
5.890000000000000000e+02 2.654333496093750000e+01 3.739851379394531250e+01 6.660649669356644154e-04 -1.868526451289653778e-04 1.437636965420097113e-04 7.023654325166717172e-05
5.900000000000000000e+02 2.340743637084960938e+01 3.754123687744140625e+01 4.297133418731391430e-04 -4.696505202446132898e-04 -1.198115114675601944e-05 -8.295421721413731575e-04
5.910000000000000000e+02 2.266618919372558594e+01 3.679620742797851562e+01 8.875660569174215198e-05 -1.041725743561983109e-03 -2.858907391782850027e-04 -2.323058142792433500e-04
5.920000000000000000e+02 2.419788742065429688e+01 3.680555725097656250e+01 4.813763371203094721e-04 -2.359327918384224176e-04 7.363306212937459350e-05 -3.708923468366265297e-04
5.930000000000000000e+02 2.496211051940917969e+01 3.680892944335937500e+01 9.231853764504194260e-04 -1.536583004053682089e-04 2.308581169927492738e-04 6.255060725379735231e-05
5.940000000000000000e+02 2.499495697021484375e+01 3.754912567138671875e+01 1.373373816022649407e-04 2.879305684473365545e-04 1.275803806493058801e-04 -1.015245332382619381e-03
5.950000000000000000e+02 2.261228370666503906e+01 3.753591537475585938e+01 9.064035839401185513e-05 5.102120339870452881e-04 1.802557089831680059e-04 4.858499596593901515e-05
5.960000000000000000e+02 2.343242454528808594e+01 3.680136489868164062e+01 2.958372060675173998e-04 6.630949210375547409e-04 2.876796352211385965e-04 9.618440526537597179e-05
5.970000000000000000e+02 2.420181655883789062e+01 3.754558944702148438e+01 5.502731655724346638e-04 2.235553256468847394e-04 2.321485517313703895e-04 4.394325078465044498e-04
5.980000000000000000e+02 1.998039245605468750e+01 3.692026138305664062e+01 -2.031500480370596051e-05 7.700691930949687958e-04 2.249262470286339521e-04 -1.615740438865032047e-05
5.990000000000000000e+02 2.062745285034179688e+01 3.732268142700195312e+01 2.207122015533968806e-04 2.029511088039726019e-04 1.270989887416362762e-04 6.192290456965565681e-04
6.000000000000000000e+02 2.113145446777343750e+01 3.686664581298828125e+01 -6.785470759496092796e-04 -1.187098911032080650e-03 -5.596937844529747963e-04 -4.501500225160270929e-04
6.010000000000000000e+02 2.021580696105957031e+01 3.715901565551757812e+01 -1.854695874499157071e-04 1.511185546405613422e-04 -1.030531075230101123e-05 2.527573087718337774e-04
6.020000000000000000e+02 2.186282539367675781e+01 3.673282623291015625e+01 1.267725456273183227e-04 1.321013551205396652e-03 4.343358159530907869e-04 2.084098232444375753e-04
6.030000000000000000e+02 2.186202239990234375e+01 3.748466491699218750e+01 -1.876735623227432370e-04 4.606004949891939759e-05 -4.248405093676410615e-05 -1.973268808797001839e-04
6.040000000000000000e+02 2.119230079650878906e+01 3.743341445922851562e+01 5.788722191937267780e-04 -2.439057716401293874e-04 1.004899386316537857e-04 -4.999806405976414680e-04
6.050000000000000000e+02 2.068652153015136719e+01 3.649208450317382812e+01 -5.710570258088409901e-05 -7.070385036058723927e-04 -2.292432618560269475e-04 1.291442640649620444e-05
6.060000000000000000e+02 2.102560424804687500e+01 3.579481887817382812e+01 1.402006484568119049e-03 1.063341624103486538e-03 7.396044675260782242e-04 2.031201496720314026e-03
6.070000000000000000e+02 2.197462081909179688e+01 3.519912338256835938e+01 2.119683427736163139e-03 3.001366858370602131e-04 7.259460398927330971e-04 5.515889264643192291e-03
6.080000000000000000e+02 2.189435958862304688e+01 3.593660354614257812e+01 6.243654992431402206e-03 4.540522349998354912e-04 2.009312156587839127e-03 3.004607046023011208e-03
6.090000000000000000e+02 2.057264900207519531e+01 3.514139175415039062e+01 2.957393007818609476e-04 4.351797048002481461e-03 1.394260907545685768e-03 8.217553840950131416e-04
6.100000000000000000e+02 2.112965202331542969e+01 3.506163787841796875e+01 1.354299602098762989e-03 4.388882778584957123e-03 1.722954679280519485e-03 4.124097060412168503e-03
6.110000000000000000e+02 2.117757225036621094e+01 3.421350860595703125e+01 -1.731485361233353615e-03 5.526359658688306808e-03 1.138462219387292862e-03 3.878954565152525902e-03
6.120000000000000000e+02 2.462178611755371094e+01 3.341608428955078125e+01 -2.831654623150825500e-02 -1.643590629100799561e-02 -1.342573575675487518e-02 -1.757647283375263214e-02
6.130000000000000000e+02 2.697116851806640625e+01 3.425598144531250000e+01 -4.839888960123062134e-02 -4.338336177170276642e-03 -1.582116633653640747e-02 -2.396036311984062195e-02
6.140000000000000000e+02 2.097805786132812500e+01 2.544793701171875000e+01 -2.171862171962857246e-03 -1.635866463184356689e-01 -4.972755163908004761e-02 -2.702547237277030945e-02
6.150000000000000000e+02 2.582774734497070312e+01 1.628094482421875000e+01 -1.965941302478313446e-02 -6.546638011932373047e-01 -2.022969573736190796e-01 -3.917047977447509766e-01
6.160000000000000000e+02 3.305763244628906250e+01 1.244699954986572266e+01 2.321114763617515564e-02 -3.912665247917175293e-01 -1.104166135191917419e-01 -6.589813828468322754e-01
6.170000000000000000e+02 4.041162109375000000e+01 4.673473358154296875e+00 2.840644717216491699e-01 2.103035897016525269e-01 1.483104228973388672e-01 -4.923746585845947266e-01
6.180000000000000000e+02 5.244860839843750000e+01 -2.388943433761596680e+00 4.529495835304260254e-01 2.073229789733886719e+00 7.578538060188293457e-01 6.083108112215995789e-02
6.190000000000000000e+02 5.904574966430664062e+01 -7.369382858276367188e+00 3.265831470489501953e-01 3.462975740432739258e+00 1.136867642402648926e+00 2.478343695402145386e-01
6.200000000000000000e+02 6.576969909667968750e+01 -1.552039813995361328e+01 1.281654983758926392e-01 4.844585418701171875e+00 1.491825342178344727e+00 2.005057483911514282e-01
6.210000000000000000e+02 7.024819946289062500e+01 -2.470497703552246094e+01 4.357357695698738098e-02 5.634039878845214844e+00 1.703284025192260742e+00 9.565744549036026001e-02
6.220000000000000000e+02 7.783795928955078125e+01 -3.059637832641601562e+01 1.953566214069724083e-03 6.798502445220947266e+00 2.040136814117431641e+00 1.403918210417032242e-02
6.230000000000000000e+02 7.932237243652343750e+01 -2.646881484985351562e+01 5.486030713655054569e-04 7.065665721893310547e+00 2.119864225387573242e+00 2.775392727926373482e-03
6.240000000000000000e+02 7.798885345458984375e+01 -2.367359352111816406e+01 1.455938210710883141e-03 6.891284942626953125e+00 2.067822217941284180e+00 2.049775794148445129e-02
6.250000000000000000e+02 7.933914947509765625e+01 -2.229307937622070312e+01 -8.876689826138317585e-04 7.119337558746337891e+00 2.135535001754760742e+00 3.558479947969317436e-03
6.260000000000000000e+02 7.301742553710937500e+01 -1.252204322814941406e+01 4.619336128234863281e-02 6.235143184661865234e+00 1.884400963783264160e+00 1.821179240942001343e-01
6.270000000000000000e+02 6.516139984130859375e+01 -3.339421987533569336e+00 2.747484743595123291e-01 4.667212486267089844e+00 1.482588171958923340e+00 4.231486916542053223e-01
6.280000000000000000e+02 6.019929885864257812e+01 1.102587223052978516e+00 4.426696300506591797e-01 3.431068420410156250e+00 1.162121415138244629e+00 4.117158055305480957e-01
6.290000000000000000e+02 5.068289566040039062e+01 1.325587272644042969e+01 3.608939945697784424e-01 8.422651886940002441e-01 3.609477579593658447e-01 -2.695222795009613037e-01
6.300000000000000000e+02 4.367087936401367188e+01 2.155104064941406250e+01 -4.465165734291076660e-01 9.687840193510055542e-02 -1.048914492130279541e-01 -7.226203680038452148e-01
6.310000000000000000e+02 3.839601516723632812e+01 2.787884521484375000e+01 -6.956589221954345703e-01 5.801671743392944336e-02 -1.912926584482192993e-01 -4.172644913196563721e-01
6.320000000000000000e+02 3.202199935913085938e+01 3.275298690795898438e+01 -2.652627527713775635e-01 1.734615117311477661e-02 -7.437498122453689575e-02 -8.866786211729049683e-02
6.330000000000000000e+02 2.987080383300781250e+01 3.385678482055664062e+01 -1.341277509927749634e-01 6.670290604233741760e-03 -3.823724016547203064e-02 -4.420139268040657043e-02
6.340000000000000000e+02 2.356142234802246094e+01 -3.441242599487304688e+01 -1.654144674539566040e-01 -1.903178572654724121e+00 -6.205779314041137695e-01 -4.440520703792572021e-02
6.350000000000000000e+02 1.661956405639648438e+01 -3.861818313598632812e+01 1.146204024553298950e-01 1.583903096616268158e-03 3.486129269003868103e-02 -1.766475141048431396e-01
6.360000000000000000e+02 1.881035614013671875e+01 -3.914971923828125000e+01 1.681093722581863403e-01 -1.691069245338439941e+00 -4.568879604339599609e-01 -5.377231836318969727e-01
6.370000000000000000e+02 1.455066585540771484e+01 -3.649013519287109375e+01 4.765843600034713745e-02 4.320412129163742065e-02 2.725876681506633759e-02 -5.330198258161544800e-02
6.380000000000000000e+02 1.537624740600585938e+01 -3.760560226440429688e+01 2.089269906282424927e-01 6.074494123458862305e-02 8.090157806873321533e-02 -4.808942973613739014e-02
6.390000000000000000e+02 1.258489131927490234e+01 -3.279182815551757812e+01 7.054674439132213593e-03 1.226820517331361771e-02 5.796863697469234467e-03 -1.235092431306838989e-02
6.400000000000000000e+02 6.336931586265563965e-01 -2.471694946289062500e+01 1.330102910287678242e-03 -7.568245055153965950e-04 1.719834981486201286e-04 2.516579988878220320e-04
6.410000000000000000e+02 6.721655726432800293e-01 -3.033992004394531250e+01 1.983750378713011742e-03 6.910132360644638538e-04 8.024291018955409527e-04 1.004045829176902771e-03
6.420000000000000000e+02 7.026646137237548828e-01 -3.174977302551269531e+01 -1.699108514003455639e-03 2.324204193428158760e-03 1.875286834547296166e-04 5.575407412834465504e-04
6.430000000000000000e+02 8.757107853889465332e-01 -3.733457183837890625e+01 -3.898883471265435219e-03 1.565238647162914276e-02 3.526051063090562820e-03 1.094704493880271912e-03
6.440000000000000000e+02 6.831936836242675781e+00 -3.862307739257812500e+01 -1.182912196964025497e-02 7.210282492451369762e-04 -3.332428168505430222e-03 2.938821725547313690e-02
6.450000000000000000e+02 1.213115406036376953e+01 -4.145972824096679688e+01 -9.433598816394805908e-02 -5.513626709580421448e-02 -4.484167695045471191e-02 5.567504093050956726e-03
6.460000000000000000e+02 2.127792167663574219e+01 -3.345956802368164062e+01 -1.439999639987945557e-01 -2.525771141052246094e+00 -8.009313344955444336e-01 -2.180950194597244263e-01
6.470000000000000000e+02 1.965102386474609375e+01 -2.797864151000976562e+01 -6.793531589210033417e-03 -2.726692676544189453e+00 -8.200458884239196777e-01 -2.729478478431701660e-02
6.480000000000000000e+02 2.100663185119628906e+01 -3.070624923706054688e+01 -4.614353645592927933e-03 -2.582988500595092773e+00 -7.762808203697204590e-01 -8.134429901838302612e-02
6.490000000000000000e+02 1.970364189147949219e+01 -3.499794387817382812e+01 -1.477175354957580566e-01 -3.237244844436645508e+00 -1.015488624572753906e+00 -3.247340023517608643e-01
6.500000000000000000e+02 1.951899719238281250e+01 -3.641737365722656250e+01 -3.816378414630889893e-01 -3.003628730773925781e+00 -1.015579938888549805e+00 -5.715857148170471191e-01
6.510000000000000000e+02 1.967602729797363281e+01 -2.376056480407714844e+01 2.986087650060653687e-02 -2.541353464126586914e+00 -7.534477710723876953e-01 -6.778882443904876709e-02
6.520000000000000000e+02 1.974919700622558594e+01 -2.093175125122070312e+01 -7.528327871114015579e-03 -2.573199748992919922e+00 -7.742183804512023926e-01 -7.851840555667877197e-02
6.530000000000000000e+02 2.117222976684570312e+01 -2.375258636474609375e+01 2.593947015702724457e-02 -2.393375396728515625e+00 -7.102308273315429688e-01 -8.268283307552337646e-02
6.540000000000000000e+02 2.063610267639160156e+01 -1.252404570579528809e+00 -1.432383060455322266e-02 -2.179710388183593750e+00 -6.582102775573730469e-01 -1.250187754631042480e-01
6.550000000000000000e+02 2.034858322143554688e+01 -6.856751918792724609e+00 1.256970688700675964e-02 -2.289191722869873047e+00 -6.829865574836730957e-01 -6.972989439964294434e-02
6.560000000000000000e+02 2.161881256103515625e+01 -1.096628570556640625e+01 -1.311372872442007065e-02 -2.327364921569824219e+00 -7.021436095237731934e-01 -1.257609724998474121e-01
6.570000000000000000e+02 2.582159423828125000e+01 -2.485713577270507812e+01 1.939087733626365662e-02 -1.664020895957946777e+00 -4.933889806270599365e-01 -1.224427297711372375e-01
6.580000000000000000e+02 3.223043441772460938e+01 -3.110445213317871094e+01 3.661492466926574707e-02 -6.030563116073608398e-01 -1.699324101209640503e-01 -2.820079773664474487e-02
6.590000000000000000e+02 4.620460510253906250e+01 -3.725950622558593750e+01 9.443973004817962646e-02 1.564121842384338379e+00 4.975684583187103271e-01 -3.669655125122517347e-04
6.600000000000000000e+02 4.939477539062500000e+01 -3.878376388549804688e+01 1.022814437747001648e-01 2.121939897537231445e+00 6.672664284706115723e-01 9.028256870806217194e-03
6.610000000000000000e+02 5.784164428710937500e+01 -4.004042053222656250e+01 8.477797359228134155e-02 3.551899433135986328e+00 1.091003298759460449e+00 1.197414845228195190e-02
6.620000000000000000e+02 5.203161239624023438e+01 -2.930798530578613281e+01 1.358813941478729248e-01 2.568323612213134766e+00 8.112614750862121582e-01 1.747103594243526459e-02
6.630000000000000000e+02 5.636470031738281250e+01 -2.411304664611816406e+01 1.456718295812606812e-01 3.195455312728881836e+00 1.002338171005249023e+00 8.199549466371536255e-02
6.640000000000000000e+02 5.596749877929687500e+01 -1.638260269165039062e+01 2.222491800785064697e-01 3.069043159484863281e+00 9.873877167701721191e-01 1.191741153597831726e-01
6.650000000000000000e+02 4.971462249755859375e+01 -1.122766399383544922e+01 3.064185976982116699e-01 1.916814804077148438e+00 6.669700145721435547e-01 3.071446204558014870e-03
6.660000000000000000e+02 4.710578155517578125e+01 -3.065302848815917969e+00 3.983566462993621826e-01 1.266830682754516602e+00 4.995562136173248291e-01 -1.330794841051101685e-01
6.670000000000000000e+02 3.943977737426757812e+01 -4.626302719116210938e+00 2.529675662517547607e-01 2.598034143447875977e-01 1.538312882184982300e-01 -3.069310784339904785e-01
6.680000000000000000e+02 3.275795364379882812e+01 -9.222597479820251465e-01 1.278199553489685059e-01 -5.737780928611755371e-01 -1.337874531745910645e-01 -4.172310233116149902e-01
6.690000000000000000e+02 2.726611518859863281e+01 -1.892037749290466309e+00 4.180356115102767944e-02 -1.257273912429809570e+00 -3.646411001682281494e-01 -3.188387751579284668e-01
6.700000000000000000e+02 2.056586456298828125e+01 -2.659339904785156250e+00 -3.557247295975685120e-02 -2.263371706008911133e+00 -6.896832585334777832e-01 -1.645969748497009277e-01
6.710000000000000000e+02 2.031899070739746094e+01 -9.672530174255371094e+00 -2.642697095870971680e-02 -2.560257673263549805e+00 -7.760053873062133789e-01 -8.824229985475540161e-02
6.720000000000000000e+02 1.995209503173828125e+01 -1.671367263793945312e+01 -2.045348519459366798e-03 -2.491319656372070312e+00 -7.480095028877258301e-01 -2.082941830158233643e-01
6.730000000000000000e+02 2.138618469238281250e+01 -1.664707374572753906e+01 2.077986858785152435e-02 -2.352499961853027344e+00 -6.995160579681396484e-01 -1.274360865354537964e-01
6.740000000000000000e+02 2.894367408752441406e+01 -2.993234062194824219e+01 -4.342272412031888962e-03 -1.131366491317749023e+00 -3.407126367092132568e-01 -6.049318984150886536e-02
6.750000000000000000e+02 3.718939971923828125e+01 -4.050251388549804688e+01 1.174477785825729370e-01 1.910594850778579712e-01 9.255217760801315308e-02 5.491090007126331329e-03
6.760000000000000000e+02 4.212121963500976562e+01 -4.040939712524414062e+01 1.118105500936508179e-01 9.201074242591857910e-01 3.095754086971282959e-01 5.162234301678836346e-04
6.770000000000000000e+02 1.332447624206542969e+01 -3.583679580688476562e+01 4.035204276442527771e-02 1.217520888894796371e-02 1.575817540287971497e-02 -1.775800064206123352e-02
6.780000000000000000e+02 1.390090751647949219e+01 -3.444503402709960938e+01 1.660156622529029846e-02 2.341772057116031647e-02 1.200578641146421432e-02 -1.680296845734119415e-02
6.790000000000000000e+02 1.413859558105468750e+01 -3.308423233032226562e+01 -3.148867748677730560e-03 4.025719594210386276e-03 2.630554663483053446e-04 -6.783671560697257519e-04
6.800000000000000000e+02 1.343613338470458984e+01 -2.742275428771972656e+01 4.641428822651505470e-04 6.151426350697875023e-04 3.237856726627796888e-04 5.246661385172046721e-05
6.810000000000000000e+02 1.848240375518798828e+00 -1.758152770996093750e+01 4.835543513763695955e-04 -7.075772009557113051e-05 1.238389959326013923e-04 1.682777219684794545e-04
6.820000000000000000e+02 6.336815357208251953e-01 -2.331459426879882812e+01 -1.145329675637185574e-03 -6.661832449026405811e-04 -5.434539052657783031e-04 -3.482259053271263838e-04
6.830000000000000000e+02 1.438366508483886719e+01 -3.033208274841308594e+01 -5.056901136413216591e-04 -7.890660781413316727e-04 -3.884268517140299082e-04 2.057306264759972692e-04
6.840000000000000000e+02 1.295191955566406250e+01 -3.011395263671875000e+01 1.554422429762780666e-03 2.088015433400869370e-03 1.092731370590627193e-03 -2.798806177452206612e-03
6.850000000000000000e+02 1.422358226776123047e+01 -2.209127426147460938e+01 -1.226301246788352728e-04 -1.652395003475248814e-04 -8.636088750790804625e-05 3.072760882787406445e-04
6.860000000000000000e+02 1.452719688415527344e+01 -1.346792984008789062e+01 7.266240427270531654e-04 -1.118409272748976946e-05 2.146319893654435873e-04 -7.745550101390108466e-05
6.870000000000000000e+02 1.462841415405273438e+01 -6.552137374877929688e+00 -4.878962936345487833e-04 -3.808347901212982833e-05 -1.577939256094396114e-04 -1.366362448607105762e-05
6.880000000000000000e+02 1.460736179351806641e+01 -3.864268779754638672e+00 -4.434499132912606001e-04 -1.234519295394420624e-04 -1.700705470284447074e-04 -1.497583871241658926e-04
6.890000000000000000e+02 1.442862987518310547e+01 -2.842378616333007812e+00 5.749698611907660961e-04 2.573305391706526279e-04 2.496901142876595259e-04 2.165753830922767520e-04
6.900000000000000000e+02 1.032523059844970703e+01 -2.658571004867553711e+00 5.418847649707458913e-05 4.938462006975896657e-05 3.107192969764582813e-05 -3.169677802361547947e-05
6.910000000000000000e+02 1.356367778778076172e+01 -1.059053230285644531e+01 -4.486523976083844900e-04 -7.124056719476357102e-05 -1.559678930789232254e-04 5.811587107018567622e-05
6.920000000000000000e+02 1.275646877288818359e+01 -1.885691452026367188e+01 5.183360553928650916e-05 -2.457997470628470182e-05 8.176089068001601845e-06 -1.845238293753936887e-04
6.930000000000000000e+02 1.339568996429443359e+01 -2.515170860290527344e+01 -2.056241064565256238e-04 -9.726884891279041767e-04 -3.534937859512865543e-04 1.440903142793104053e-04
6.940000000000000000e+02 1.459284400939941406e+01 -2.623944282531738281e+01 -1.394478167640045285e-04 -1.290602027438580990e-03 -4.290149663574993610e-04 2.957697724923491478e-04
6.950000000000000000e+02 1.108993244171142578e+01 -1.893700122833251953e+00 7.850382098695263267e-05 -5.456011422211304307e-06 2.191434214182663709e-05 -7.974979962455108762e-05
6.960000000000000000e+02 4.275061130523681641e+00 -1.896381974220275879e+00 -1.355831336695700884e-04 -1.175534926005639136e-04 -7.594098860863596201e-05 -9.348158346256241202e-05
6.970000000000000000e+02 1.704968571662902832e+00 -1.061644649505615234e+01 -1.360141759505495429e-04 7.787381036905571818e-06 -3.846803519991226494e-05 -1.134272824856452644e-04
6.980000000000000000e+02 6.161538362503051758e-01 -1.770126342773437500e+01 -4.347110807429999113e-04 -1.556619827169924974e-04 -1.771119277691468596e-04 -1.420620246790349483e-04
6.990000000000000000e+02 2.854691982269287109e+00 -3.799586486816406250e+01 -3.858932992443442345e-03 1.205017883330583572e-02 2.457373775541782379e-03 5.824167281389236450e-03
7.000000000000000000e+02 2.151257324218750000e+01 -3.651856613159179688e+01 -2.474688440561294556e-01 -2.140277385711669922e+00 -7.163238525390625000e-01 -3.315831720829010010e-02
7.010000000000000000e+02 2.406124305725097656e+01 -3.633051681518554688e+01 -5.485292896628379822e-02 -1.806125521659851074e+00 -5.582935214042663574e-01 7.174969464540481567e-02
7.020000000000000000e+02 3.174112129211425781e+01 -3.794287109375000000e+01 1.052910387516021729e-01 -6.979866623878479004e-01 -1.778086870908737183e-01 1.037770975381135941e-02
7.030000000000000000e+02 2.711972236633300781e+01 -3.310066604614257812e+01 -3.529492020606994629e-02 -1.382271647453308105e+00 -4.252699911594390869e-01 -2.228122949600219727e-02
7.040000000000000000e+02 1.962010765075683594e+01 -3.076230239868164062e+01 -2.365354448556900024e-02 -2.841637372970581055e+00 -8.595873117446899414e-01 -3.610308840870857239e-02
7.050000000000000000e+02 6.281538009643554688e+01 -4.032317352294921875e+01 6.234481558203697205e-02 4.310291290283203125e+00 1.311790823936462402e+00 1.111698523163795471e-02
7.060000000000000000e+02 6.791152954101562500e+01 -3.118928146362304688e+01 4.565553739666938782e-02 5.207962036132812500e+00 1.576085209846496582e+00 5.664153397083282471e-02
7.070000000000000000e+02 6.480180358886718750e+01 -2.753236579895019531e+01 6.693577766418457031e-02 4.702619075775146484e+00 1.430866479873657227e+00 8.506002277135848999e-02
7.080000000000000000e+02 6.440212249755859375e+01 -1.776709365844726562e+01 1.306686997413635254e-01 4.598024368286132812e+00 1.418607950210571289e+00 1.670667976140975952e-01
7.090000000000000000e+02 6.765851593017578125e+01 -4.089096069335937500e+01 4.222733899950981140e-02 5.158483028411865234e+00 1.560213088989257812e+00 2.147304825484752655e-03
7.100000000000000000e+02 7.232563018798828125e+01 -3.036449241638183594e+01 1.489472948014736176e-02 5.871768474578857422e+00 1.765998959541320801e+00 4.865738749504089355e-02
7.110000000000000000e+02 7.197013092041015625e+01 -2.468911933898925781e+01 3.435204178094863892e-02 5.905228614807128906e+00 1.781874179840087891e+00 8.718081563711166382e-02
7.120000000000000000e+02 7.871067047119140625e+01 -4.039017105102539062e+01 -1.644774526357650757e-02 6.847746372222900391e+00 2.049389600753784180e+00 7.346711307764053345e-02
7.130000000000000000e+02 7.688728332519531250e+01 -3.759090042114257812e+01 -3.043282311409711838e-03 6.620912551879882812e+00 1.985360860824584961e+00 4.387737065553665161e-02
7.140000000000000000e+02 7.915562438964843750e+01 -3.344363784790039062e+01 2.211714396253228188e-03 6.995068550109863281e+00 2.099184036254882812e+00 7.249256130307912827e-03
7.150000000000000000e+02 7.807598876953125000e+01 -1.669175338745117188e+01 3.340095514431595802e-03 7.026488304138183594e+00 2.108948469161987305e+00 3.798301890492439270e-02
7.160000000000000000e+02 7.935887908935546875e+01 -1.252705478668212891e+01 1.421407447196543217e-03 7.351021766662597656e+00 2.205733060836791992e+00 1.123141869902610779e-02
7.170000000000000000e+02 7.233883666992187500e+01 -5.021386146545410156e+00 8.893378823995590210e-02 6.271979331970214844e+00 1.908274054527282715e+00 3.227112293243408203e-01
7.180000000000000000e+02 6.727122497558593750e+01 2.473288536071777344e+00 2.699036598205566406e-01 5.157104492187500000e+00 1.628102421760559082e+00 6.115046143531799316e-01
7.190000000000000000e+02 6.149762725830078125e+01 8.499866485595703125e+00 4.595862925052642822e-01 3.406876087188720703e+00 1.159938693046569824e+00 6.510092616081237793e-01
7.200000000000000000e+02 5.265219116210937500e+01 2.110005950927734375e+01 -3.034120202064514160e-01 3.842246234416961670e-01 2.424378506839275360e-02 -3.767714202404022217e-01
7.210000000000000000e+02 4.507500457763671875e+01 2.811663246154785156e+01 -1.273552298545837402e+00 7.698982954025268555e-02 -3.589687347412109375e-01 -3.879758417606353760e-01
7.220000000000000000e+02 3.719364547729492188e+01 3.246241378784179688e+01 -6.145257353782653809e-01 2.951151132583618164e-02 -1.755042523145675659e-01 -5.931763350963592529e-02
7.230000000000000000e+02 3.572061157226562500e+01 3.275234222412109375e+01 -4.874264597892761230e-01 2.673420496284961700e-02 -1.382076740264892578e-01 -6.181598082184791565e-02
7.240000000000000000e+02 3.278586196899414062e+01 3.332963180541992188e+01 -2.787590026855468750e-01 1.842533238232135773e-02 -7.810010015964508057e-02 -5.727962777018547058e-02
7.250000000000000000e+02 7.806169891357421875e+01 -9.702134132385253906e+00 4.225261509418487549e-03 7.236038684844970703e+00 2.172079086303710938e+00 6.617818772792816162e-02
7.260000000000000000e+02 7.935739135742187500e+01 -5.561146259307861328e+00 -4.121545061934739351e-04 7.656023979187011719e+00 2.296683549880981445e+00 2.239790372550487518e-02
7.270000000000000000e+02 7.320446777343750000e+01 1.477363348007202148e+00 8.965580910444259644e-02 6.694991588592529297e+00 2.035394191741943359e+00 4.385200440883636475e-01
7.280000000000000000e+02 6.670236206054687500e+01 9.169118881225585938e+00 2.533169388771057129e-01 4.975107669830322266e+00 1.568527340888977051e+00 8.456469774246215820e-01
7.290000000000000000e+02 5.686446762084960938e+01 2.126873207092285156e+01 -1.389353573322296143e-01 7.356089353561401367e-01 1.790020614862442017e-01 7.927441596984863281e-02
7.300000000000000000e+02 5.210423660278320312e+01 2.848594284057617188e+01 -2.153296470642089844e+00 2.314706146717071533e-02 -6.390448212623596191e-01 -2.461365759372711182e-01
7.310000000000000000e+02 4.155768203735351562e+01 3.092331695556640625e+01 -1.071819305419921875e+00 5.039567872881889343e-02 -3.064270913600921631e-01 -1.255160868167877197e-01
7.320000000000000000e+02 4.161465072631835938e+01 3.160785675048828125e+01 -1.086732625961303711e+00 3.374614566564559937e-02 -3.158959448337554932e-01 -4.315274208784103394e-02
7.330000000000000000e+02 3.940488433837890625e+01 3.204249191284179688e+01 -8.330923318862915039e-01 3.433192521333694458e-02 -2.396281212568283081e-01 -5.025797337293624878e-02
7.340000000000000000e+02 7.809988403320312500e+01 -2.753239631652832031e+00 7.555873133242130280e-03 7.581987380981445312e+00 2.276862859725952148e+00 1.080006062984466553e-01
7.350000000000000000e+02 7.939456176757812500e+01 2.784821510314941406e+00 7.966908160597085953e-04 8.275997161865234375e+00 2.483038187026977539e+00 3.913388773798942566e-02
7.360000000000000000e+02 7.338154602050781250e+01 9.206246376037597656e+00 3.596241027116775513e-02 7.178150653839111328e+00 2.164233922958374023e+00 5.964730381965637207e-01
7.370000000000000000e+02 6.177152633666992188e+01 2.129660224914550781e+01 9.621690213680267334e-02 1.935899615287780762e+00 6.096349358558654785e-01 1.076130867004394531e+00
7.380000000000000000e+02 5.745898437500000000e+01 2.871033668518066406e+01 -2.843248367309570312e+00 -9.309011511504650116e-03 -8.557671904563903809e-01 -1.189132183790206909e-01
7.390000000000000000e+02 5.134926223754882812e+01 2.998999595642089844e+01 -2.478699684143066406e+00 2.253830432891845703e-03 -7.429337501525878906e-01 -2.836143597960472107e-02
7.400000000000000000e+02 4.908011627197265625e+01 3.029639434814453125e+01 -2.135970592498779297e+00 9.503895416855812073e-03 -6.379399895668029785e-01 -2.554441057145595551e-02
7.410000000000000000e+02 4.757429885864257812e+01 3.053423881530761719e+01 -1.909542083740234375e+00 1.751710101962089539e-02 -5.676074624061584473e-01 -2.681877091526985168e-02
7.420000000000000000e+02 4.532774353027343750e+01 3.091604042053222656e+01 -1.580521583557128906e+00 2.732108160853385925e-02 -4.659601449966430664e-01 -2.711296267807483673e-02
7.430000000000000000e+02 7.820643615722656250e+01 4.168431758880615234e+00 7.026236504316329956e-03 8.126441001892089844e+00 2.440040111541748047e+00 1.578004360198974609e-01
7.440000000000000000e+02 7.941207885742187500e+01 8.357283592224121094e+00 9.715584455989301205e-04 8.889154434204101562e+00 2.667037725448608398e+00 4.757414013147354126e-02
7.450000000000000000e+02 7.344904327392578125e+01 1.652704238891601562e+01 -3.652168810367584229e-01 7.948442935943603516e+00 2.274967908859252930e+00 5.471905469894409180e-01
7.460000000000000000e+02 6.407838439941406250e+01 2.851283836364746094e+01 -2.073812484741210938e+00 2.408255636692047119e-01 -5.498960614204406738e-01 5.399355292320251465e-01
7.470000000000000000e+02 5.741569519042968750e+01 2.938396072387695312e+01 -3.246682882308959961e+00 -2.198100648820400238e-02 -9.805991649627685547e-01 -4.956833273172378540e-02
7.480000000000000000e+02 5.665678405761718750e+01 2.944323348999023438e+01 -3.177260875701904297e+00 -1.911457441747188568e-02 -9.589126706123352051e-01 -4.886672273278236389e-02
7.490000000000000000e+02 5.361944580078125000e+01 2.972474861145019531e+01 -2.805441379547119141e+00 -8.703625760972499847e-03 -8.442435264587402344e-01 -3.981910645961761475e-02
7.500000000000000000e+02 7.822879791259765625e+01 1.113521766662597656e+01 -6.592793855816125870e-03 8.846264839172363281e+00 2.651901483535766602e+00 1.802360266447067261e-01
7.510000000000000000e+02 7.943236541748046875e+01 1.672112846374511719e+01 -9.756418876349925995e-03 9.752370834350585938e+00 2.922784328460693359e+00 -1.399142295122146606e-02
7.520000000000000000e+02 6.195410156250000000e+01 2.917457008361816406e+01 -3.329829931259155273e+00 6.868444848805665970e-03 -9.968883991241455078e-01 4.239343106746673584e-02
7.530000000000000000e+02 6.049309158325195312e+01 2.859167289733886719e+01 -2.854408502578735352e+00 1.558029837906360626e-02 -8.516484498977661133e-01 -1.109468936920166016e-02
7.540000000000000000e+02 5.968968963623046875e+01 2.925503349304199219e+01 -3.387688398361206055e+00 -1.560960151255130768e-02 -1.020989418029785156e+00 -3.300673887133598328e-02
7.550000000000000000e+02 7.832539367675781250e+01 1.810962104797363281e+01 -7.029397785663604736e-02 9.382872581481933594e+00 2.793773412704467773e+00 -5.805529281497001648e-02
7.560000000000000000e+02 7.948818206787109375e+01 2.366552162170410156e+01 -2.911028638482093811e-02 8.484782218933105469e+00 2.536701679229736328e+00 -2.873850762844085693e-01
7.570000000000000000e+02 6.937278747558593750e+01 2.912273216247558594e+01 4.681168198585510254e-01 1.214813232421875000e+01 3.784874677658081055e+00 6.496375083923339844e+00
7.580000000000000000e+02 6.658352661132812500e+01 2.912781524658203125e+01 -1.143870353698730469e+00 7.264035344123840332e-01 -1.252400577068328857e-01 1.451151490211486816e+00
7.590000000000000000e+02 7.846046447753906250e+01 2.362017250061035156e+01 -1.170394867658615112e-01 8.656131744384765625e+00 2.561727523803710938e+00 -6.918445825576782227e-01
7.600000000000000000e+02 7.949060821533203125e+01 2.921586036682128906e+01 5.586925148963928223e-02 5.174222469329833984e+00 1.569027543067932129e+00 -2.241375446319580078e-01
7.610000000000000000e+02 7.143820190429687500e+01 3.010613441467285156e+01 6.622368335723876953e+00 1.736151313781738281e+01 7.195164203643798828e+00 -2.520052671432495117e+00
7.620000000000000000e+02 7.948900604248046875e+01 3.198169517517089844e+01 5.911931768059730530e-02 5.014224529266357422e+00 1.522003054618835449e+00 1.319670677185058594e-01
7.630000000000000000e+02 7.923414611816406250e+01 3.745200729370117188e+01 -9.571588598191738129e-03 8.418808937072753906e+00 2.522771120071411133e+00 4.292079508304595947e-01
7.640000000000000000e+02 7.420700073242187500e+01 3.778435897827148438e+01 -1.041867256164550781e+00 1.042309188842773438e+01 2.814367532730102539e+00 8.885281682014465332e-01
7.650000000000000000e+02 6.952153778076171875e+01 3.396394729614257812e+01 -3.723230659961700439e-01 1.106584930419921875e+01 3.208057880401611328e+00 -3.658460378646850586e+00
7.660000000000000000e+02 6.294425964355468750e+01 3.678248977661132812e+01 6.383535861968994141e-01 1.104269981384277344e+00 5.227870941162109375e-01 -3.989508748054504395e-01
7.670000000000000000e+02 6.227696228027343750e+01 3.529228973388671875e+01 1.851763725280761719e-01 5.707991719245910645e-01 2.267926633358001709e-01 -8.088081143796443939e-03
7.680000000000000000e+02 6.206701660156250000e+01 3.284352111816406250e+01 -1.330940246582031250e+00 4.741733893752098083e-02 -3.850568830966949463e-01 3.271150290966033936e-01
7.690000000000000000e+02 6.478323364257812500e+01 3.331122970581054688e+01 -2.948682010173797607e-01 4.405700564384460449e-01 4.371056333184242249e-02 -3.365025818347930908e-01
7.700000000000000000e+02 6.418073272705078125e+01 3.272295761108398438e+01 -1.111436486244201660e+00 1.269385665655136108e-01 -2.953493893146514893e-01 7.902028411626815796e-02
7.710000000000000000e+02 7.745475006103515625e+01 3.836434936523437500e+01 -2.797732949256896973e-01 9.378424644470214844e+00 2.729595184326171875e+00 9.977242946624755859e-01
7.720000000000000000e+02 5.737334060668945312e+01 3.703944778442382812e+01 3.075696825981140137e-01 -9.714503586292266846e-02 6.312739104032516479e-02 3.903238773345947266e-01
7.730000000000000000e+02 5.586817932128906250e+01 3.449174499511718750e+01 -4.315401017665863037e-01 -1.180684566497802734e-01 -1.648825705051422119e-01 4.391145110130310059e-01
7.740000000000000000e+02 5.185684585571289062e+01 3.385772323608398438e+01 -3.670831322669982910e-01 -8.753976970911026001e-02 -1.363868713378906250e-01 2.391158789396286011e-01
7.750000000000000000e+02 5.545434951782226562e+01 3.326168060302734375e+01 -7.099077701568603516e-01 -7.056780904531478882e-02 -2.341426610946655273e-01 3.563357293605804443e-01
7.760000000000000000e+02 5.689779663085937500e+01 3.323001480102539062e+01 -8.611384034156799316e-01 -5.665623769164085388e-02 -2.753383815288543701e-01 4.091784954071044922e-01
7.770000000000000000e+02 5.763891983032226562e+01 3.320958328247070312e+01 -9.367874860763549805e-01 -6.475806981325149536e-02 -3.004636764526367188e-01 4.103401005268096924e-01
7.780000000000000000e+02 5.370209121704101562e+01 3.835506057739257812e+01 2.494662404060363770e-01 -2.683035731315612793e-01 -5.651200190186500549e-03 2.833619713783264160e-01
7.790000000000000000e+02 4.814592361450195312e+01 3.536030197143554688e+01 -1.015338450670242310e-01 -8.842407166957855225e-02 -5.698737502098083496e-02 1.545269191265106201e-01
7.800000000000000000e+02 4.737931060791015625e+01 3.444978332519531250e+01 -1.340036988258361816e-01 -5.907868966460227966e-02 -5.792471766471862793e-02 1.162306889891624451e-01
7.810000000000000000e+02 4.958825302124023438e+01 3.424568557739257812e+01 -2.288499027490615845e-01 -6.374488025903701782e-02 -8.777843415737152100e-02 1.772147268056869507e-01
7.820000000000000000e+02 5.035819244384765625e+01 3.416465377807617188e+01 -2.692157626152038574e-01 -7.996431738138198853e-02 -1.047540232539176941e-01 1.993343830108642578e-01
7.830000000000000000e+02 4.548834991455078125e+01 3.582988357543945312e+01 -4.521958902478218079e-02 -6.660814583301544189e-02 -3.354831784963607788e-02 9.237994253635406494e-02
7.840000000000000000e+02 4.449079132080078125e+01 3.499789047241210938e+01 -6.024424731731414795e-02 -3.663828596472740173e-02 -2.906475961208343506e-02 6.510663777589797974e-02
7.850000000000000000e+02 3.172855758666992188e+01 3.865393066406250000e+01 1.733707264065742493e-03 1.494244643254205585e-04 5.649395170621573925e-04 -5.445526912808418274e-04
7.860000000000000000e+02 2.415101051330566406e+01 3.862276840209960938e+01 4.398677992867305875e-05 4.775772686116397381e-05 2.752335240074899048e-05 -9.440752910450100899e-04
7.870000000000000000e+02 2.237162971496582031e+01 3.842467498779296875e+01 9.747361764311790466e-05 6.696143536828458309e-04 2.301263884874060750e-04 -4.641846753656864166e-04
7.880000000000000000e+02 2.160416793823242188e+01 4.040373611450195312e+01 -1.005026861093938351e-03 5.951639614067971706e-04 -1.229588524438440800e-04 -9.182378998957574368e-04
7.890000000000000000e+02 2.097803878784179688e+01 3.803767013549804688e+01 1.582912955200299621e-05 5.130514036864042282e-04 1.586641592439264059e-04 -3.533707422320730984e-05
7.900000000000000000e+02 1.947417259216308594e+01 3.771203994750976562e+01 1.078289569704793394e-04 5.175730166229186580e-06 3.390140409464947879e-05 -3.743575944099575281e-04
7.910000000000000000e+02 1.888487458229064941e+00 2.604951667785644531e+01 1.320689916610717773e-04 -1.651638854127668310e-06 3.912520332960411906e-05 1.515655185357900336e-05
7.920000000000000000e+02 2.004408359527587891e+00 3.026298713684082031e+01 -1.105927731259725988e-04 -2.365560249018017203e-05 -4.027451359434053302e-05 -1.804493194867973216e-06
7.930000000000000000e+02 4.088317871093750000e+00 3.644536209106445312e+01 -2.005031274165958166e-04 -1.005873564281500876e-04 -9.032715024659410119e-05 -5.342192525858990848e-05
7.940000000000000000e+02 2.004728078842163086e+00 4.165259933471679688e+01 9.608745313016697764e-05 1.542508289276156574e-05 3.345376171637326479e-05 3.029243453056551516e-05
7.950000000000000000e+02 1.356300926208496094e+01 3.651403045654296875e+01 -4.546830314211547375e-04 -6.146381201688200235e-05 -1.548440486658364534e-04 4.941796942148357630e-05
7.960000000000000000e+02 1.459083652496337891e+01 2.300109672546386719e+01 1.870800333563238382e-04 1.575411488374811597e-06 5.659663293045014143e-05 -2.218811277998611331e-05
7.970000000000000000e+02 1.441464710235595703e+01 1.742389869689941406e+01 1.376394648104906082e-04 -4.596219241648213938e-06 3.991297489847056568e-05 -7.539092166553018615e-06
7.980000000000000000e+02 1.455088996887207031e+01 1.044135379791259766e+01 -9.029383363667875528e-05 -1.439839593331271317e-06 -2.752010186668485403e-05 -1.063648710442066658e-06
7.990000000000000000e+02 1.368366527557373047e+01 1.816302061080932617e+00 -1.157065889856312424e-05 -5.468144991027656943e-06 -5.111641257826704532e-06 -1.026234986056806520e-05
8.000000000000000000e+02 1.317661952972412109e+01 1.763251066207885742e+00 5.318385774444323033e-06 1.472647181799402460e-05 6.013457550579914823e-06 5.599481028184527531e-06
8.010000000000000000e+02 6.777113080024719238e-01 3.461478042602539062e+01 -1.436940219718962908e-04 1.281734239455545321e-05 -3.926300269085913897e-05 1.188401438412256539e-05
8.020000000000000000e+02 6.387441158294677734e-01 2.759068298339843750e+01 1.071627193596214056e-04 -1.282030211768869776e-06 3.176420796080492437e-05 6.127294227553647943e-07
8.030000000000000000e+02 6.377087831497192383e-01 2.054589462280273438e+01 -1.373386912746354938e-04 -1.410946538271673489e-06 -4.162488767178729177e-05 2.879905423469608650e-06
8.040000000000000000e+02 1.845753192901611328e+00 1.623736572265625000e+01 -1.263354351976886392e-04 3.881655629811575636e-06 -3.673613537102937698e-05 1.036662160913692787e-05
8.050000000000000000e+02 1.221675205230712891e+01 1.170704078674316406e+01 7.419443863909691572e-05 1.768670153978746384e-05 2.756434332695789635e-05 2.981644865940324962e-05
8.060000000000000000e+02 1.288177585601806641e+01 1.611560630798339844e+01 1.383006601827219129e-04 -7.342684511968400329e-06 3.928739170078188181e-05 -2.569301159383030608e-06
8.070000000000000000e+02 1.190674400329589844e+01 1.915348052978515625e+01 -1.552032190375030041e-04 1.014047302305698395e-05 -4.351882671471685171e-05 2.506460305085056461e-06
8.080000000000000000e+02 1.341143894195556641e+01 2.460107231140136719e+01 2.049344329861924052e-04 -4.258658009348437190e-06 6.020273212925530970e-05 -2.387114545854274184e-05
8.090000000000000000e+02 1.256352424621582031e+01 2.910774993896484375e+01 2.652406692504882812e-04 -9.438172128284350038e-06 7.674074731767177582e-05 -1.453296408726600930e-05
8.100000000000000000e+02 6.181969046592712402e-01 1.489523601531982422e+01 -1.187560046673752367e-04 -4.655689735955093056e-07 -3.576647213776595891e-05 9.309012966696172953e-06
8.110000000000000000e+02 1.747696042060852051e+00 9.114016532897949219e+00 8.041591354412958026e-05 1.762863462317909580e-06 2.465363286319188774e-05 -1.231586338690249249e-05
8.120000000000000000e+02 8.917171478271484375e+00 2.626720428466796875e+00 -2.273575046274345368e-05 -1.092989077733363956e-05 -1.009969219012418762e-05 -2.923073907368234359e-06
8.130000000000000000e+02 9.654162406921386719e+00 1.866078019142150879e+00 -1.969881486729718745e-05 -6.699744972138432786e-06 -7.919567906355950981e-06 1.087775558517023455e-06
8.140000000000000000e+02 1.110942721366882324e+00 3.775251626968383789e+00 -2.282845707668457180e-05 2.194573607994243503e-05 -2.648161228080425644e-07 -4.400645411806181073e-05
8.150000000000000000e+02 5.313948392868041992e-01 6.395570278167724609e+00 -6.708561704726889729e-05 -5.697507731383666396e-06 -2.183493597840424627e-05 3.053630280192010105e-06
8.160000000000000000e+02 3.657320737838745117e+00 3.677483081817626953e+00 -4.614764111465774477e-05 -8.065150723268743604e-06 -1.626383891561999917e-05 1.333119416813133284e-05
8.170000000000000000e+02 1.343908023834228516e+01 1.045576095581054688e+01 8.114938827930018306e-05 5.916756890655960888e-06 2.611984382383525372e-05 1.238199183717370033e-05
8.180000000000000000e+02 1.446169662475585938e+01 2.022465896606445312e+01 1.624119031475856900e-04 1.212803454109234735e-06 4.908741175313480198e-05 -1.990593045775312930e-05
8.190000000000000000e+02 1.559565353393554688e+01 3.132778167724609375e+01 3.189600829500705004e-04 5.610404514300171286e-06 9.737114305607974529e-05 -7.396261207759380341e-05
8.200000000000000000e+02 1.533383750915527344e+01 2.994813919067382812e+01 -2.930015907622873783e-04 -7.230173650896176696e-06 -9.006953041534870863e-05 5.673490886692889035e-05
8.210000000000000000e+02 1.806779670715332031e+01 3.774658584594726562e+01 4.827858356293290854e-05 8.725791703909635544e-04 2.762573421932756901e-04 2.363895328016951680e-04
8.220000000000000000e+02 1.911990356445312500e+01 3.873350524902343750e+01 -7.961373776197433472e-04 6.542986375279724598e-04 -4.255162275512702763e-05 4.789985832758247852e-04
8.230000000000000000e+02 1.214176177978515625e+01 4.128661346435546875e+01 3.000185242854058743e-04 1.415861624991521239e-04 1.324814074905589223e-04 2.496753877494484186e-04
8.240000000000000000e+02 1.985821342468261719e+01 3.776475906372070312e+01 -1.828290551202371716e-04 1.344534102827310562e-04 -1.451269690733170137e-05 2.071139897452667356e-04
8.250000000000000000e+02 3.564321899414062500e+01 3.687994766235351562e+01 9.493159595876932144e-04 -3.079114947468042374e-03 -6.389397312887012959e-04 3.161000320687890053e-03
8.260000000000000000e+02 3.714440155029296875e+01 3.659581375122070312e+01 1.420157379470765591e-03 -6.929273251444101334e-03 -1.652734703384339809e-03 5.418674554675817490e-03
8.270000000000000000e+02 3.894017791748046875e+01 3.780975341796875000e+01 -3.273981856182217598e-03 -1.377604622393846512e-02 -5.115008447319269180e-03 8.652044460177421570e-03
8.280000000000000000e+02 4.167026519775390625e+01 3.602838516235351562e+01 -2.038343250751495361e-02 -1.958808675408363342e-02 -1.199145615100860596e-02 3.208696842193603516e-02
8.290000000000000000e+02 4.238061141967773438e+01 3.599806594848632812e+01 -2.110073715448379517e-02 -2.914923988282680511e-02 -1.507499348372220993e-02 3.711905330419540405e-02
8.300000000000000000e+02 3.055435371398925781e+01 2.929229545593261719e+01 -2.589136362075805664e-01 -3.400639817118644714e-02 -8.787601441144943237e-02 -2.365198880434036255e-01
8.310000000000000000e+02 2.646606063842773438e+01 2.460152435302734375e+01 -9.303214401006698608e-02 -2.345940619707107544e-01 -9.828786551952362061e-02 -2.875763177871704102e-01
8.320000000000000000e+02 3.771371078491210938e+01 2.881471824645996094e+01 -6.732590198516845703e-01 5.598344653844833374e-02 -1.851826608180999756e-01 -3.475188612937927246e-01
8.330000000000000000e+02 4.424122619628906250e+01 2.756384086608886719e+01 -1.134229063987731934e+00 8.289001137018203735e-02 -3.154017031192779541e-01 -4.455814659595489502e-01
8.340000000000000000e+02 5.054637527465820312e+01 2.795187568664550781e+01 -1.824314236640930176e+00 4.298761487007141113e-02 -5.343980193138122559e-01 -3.341025114059448242e-01
8.350000000000000000e+02 5.822002792358398438e+01 2.866806793212890625e+01 -2.871535539627075195e+00 -8.511040359735488892e-03 -8.640139698982238770e-01 -1.024345681071281433e-01
8.360000000000000000e+02 6.344076156616210938e+01 2.912837791442871094e+01 -3.049179077148437500e+00 6.007040292024612427e-02 -8.967325687408447266e-01 1.894427239894866943e-01
8.370000000000000000e+02 7.047284698486328125e+01 2.899387359619140625e+01 -5.505123734474182129e-01 1.855533790588378906e+01 5.401447772979736328e+00 1.830096364021301270e+00
8.380000000000000000e+02 3.292942047119140625e+01 1.503245925903320312e+01 -3.195782750844955444e-02 -3.464062213897705078e-01 -1.135092154145240784e-01 -6.674080491065979004e-01
8.390000000000000000e+02 3.291366958618164062e+01 1.630545425415039062e+01 -6.254851073026657104e-02 -3.181685209274291992e-01 -1.142151132225990295e-01 -6.645673513412475586e-01
8.400000000000000000e+02 4.490352630615234375e+01 2.066220474243164062e+01 -3.614275753498077393e-01 1.400500982999801636e-01 -6.641324609518051147e-02 -7.137333154678344727e-01
8.410000000000000000e+02 5.812767028808593750e+01 2.159570884704589844e+01 -1.253187060356140137e-01 8.646270632743835449e-01 2.217925041913986206e-01 2.640816569328308105e-01
8.420000000000000000e+02 6.118146133422851562e+01 1.970989418029785156e+01 2.113038748502731323e-01 2.057756185531616211e+00 6.807180643081665039e-01 9.528853297233581543e-01
8.430000000000000000e+02 7.269107055664062500e+01 1.909105873107910156e+01 -7.235502004623413086e-01 8.208518981933593750e+00 2.245490789413452148e+00 6.134813427925109863e-01
8.440000000000000000e+02 2.702300834655761719e+01 1.641949653625488281e+01 -2.895013429224491119e-02 -5.933680534362792969e-01 -1.866954565048217773e-01 -4.529949426651000977e-01
8.450000000000000000e+02 2.714016342163085938e+01 1.219188213348388672e+01 -2.744454424828290939e-03 -7.889095544815063477e-01 -2.374962121248245239e-01 -4.712663590908050537e-01
8.460000000000000000e+02 2.595149230957031250e+01 3.531765222549438477e+00 -1.013397984206676483e-02 -1.261029005050659180e+00 -3.813489079475402832e-01 -3.459261655807495117e-01
8.470000000000000000e+02 3.368715286254882812e+01 4.565786361694335938e+00 1.248318031430244446e-01 -4.379105567932128906e-01 -9.392362087965011597e-02 -5.365356802940368652e-01
8.480000000000000000e+02 3.357826614379882812e+01 5.892739772796630859e+00 1.134734749794006348e-01 -4.369773566722869873e-01 -9.705116599798202515e-02 -5.648990869522094727e-01
8.490000000000000000e+02 3.433897018432617188e+01 1.116780853271484375e+01 6.119632720947265625e-02 -3.271251022815704346e-01 -7.977863401174545288e-02 -6.649072170257568359e-01
8.500000000000000000e+02 2.844416618347167969e+01 8.087171554565429688e+00 1.550360210239887238e-02 -8.462404012680053711e-01 -2.492210417985916138e-01 -4.965393245220184326e-01
8.510000000000000000e+02 3.898382949829101562e+01 1.330228233337402344e+01 6.774046272039413452e-02 -3.050481155514717102e-02 1.117069460451602936e-02 -7.139124870300292969e-01
8.520000000000000000e+02 4.039256286621093750e+01 1.386180210113525391e+01 7.347246259450912476e-02 4.329552128911018372e-02 3.503039479255676270e-02 -7.079420685768127441e-01
8.530000000000000000e+02 4.932476806640625000e+01 1.321274757385253906e+01 3.354688882827758789e-01 7.237299084663391113e-01 3.177596330642700195e-01 -3.563635051250457764e-01
8.540000000000000000e+02 5.988538360595703125e+01 9.365684509277343750e+00 5.041772127151489258e-01 2.913489103317260742e+00 1.025299906730651855e+00 5.698553919792175293e-01
8.550000000000000000e+02 6.611697387695312500e+01 1.104202461242675781e+01 2.359785735607147217e-01 4.782002925872802734e+00 1.505394458770751953e+00 9.377910494804382324e-01
8.560000000000000000e+02 7.187982177734375000e+01 9.856554985046386719e+00 4.169020056724548340e-02 6.705510139465332031e+00 2.024160146713256836e+00 7.160018682479858398e-01
8.570000000000000000e+02 2.102667617797851562e+01 1.844151687622070312e+01 -7.757144048810005188e-04 -6.548128128051757812e-01 -1.966765522956848145e-01 -4.781012982130050659e-02
8.580000000000000000e+02 2.103325271606445312e+01 1.703755187988281250e+01 -9.978024754673242569e-04 -7.754140496253967285e-01 -2.329235672950744629e-01 -5.023744329810142517e-02
8.590000000000000000e+02 2.105032539367675781e+01 1.000354671478271484e+01 3.622584627009928226e-04 -1.420340538024902344e+00 -4.259935021400451660e-01 -5.470528081059455872e-02
8.600000000000000000e+02 2.100000190734863281e+01 4.355665683746337891e+00 -3.747804835438728333e-02 -2.034117698669433594e+00 -6.214787364006042480e-01 -1.378117799758911133e-01
8.610000000000000000e+02 2.103903198242187500e+01 5.770529270172119141e+00 -1.615457423031330109e-02 -1.883159637451171875e+00 -5.697942376136779785e-01 -8.021788299083709717e-02
8.620000000000000000e+02 4.811958694458007812e+01 1.614609807729721069e-01 4.414390027523040771e-01 1.273903369903564453e+00 5.146027207374572754e-01 -1.445284485816955566e-01
8.630000000000000000e+02 4.806414031982421875e+01 1.713201880455017090e+00 4.527500867843627930e-01 1.192410945892333984e+00 4.935483038425445557e-01 -1.712878346443176270e-01
8.640000000000000000e+02 6.199464035034179688e+01 3.679533004760742188e+00 4.277444481849670410e-01 3.759566307067871094e+00 1.256193280220031738e+00 5.454892516136169434e-01
8.650000000000000000e+02 6.552518463134765625e+01 2.056732177734375000e+00 3.160995841026306152e-01 4.691977500915527344e+00 1.502423167228698730e+00 5.793669223785400391e-01
8.660000000000000000e+02 7.228894042968750000e+01 4.086284637451171875e+00 1.104985028505325317e-01 6.567128181457519531e+00 2.003288030624389648e+00 5.475711822509765625e-01
8.670000000000000000e+02 2.104614639282226562e+01 1.281937217712402344e+01 2.042373380390927196e-04 -1.156786799430847168e+00 -3.469747602939605713e-01 -5.347368121147155762e-02
8.680000000000000000e+02 4.095174407958984375e+01 2.129189491271972656e+00 3.032571375370025635e-01 3.146776556968688965e-01 1.853804439306259155e-01 -4.230757355690002441e-01
8.690000000000000000e+02 5.950273895263671875e+01 -5.821378231048583984e+00 3.513029515743255615e-01 3.513489007949829102e+00 1.159437537193298340e+00 2.827135622501373291e-01
8.700000000000000000e+02 5.877297592163085938e+01 -3.766267776489257812e+00 3.907747268676757812e-01 3.308752775192260742e+00 1.109858274459838867e+00 2.894089818000793457e-01
8.710000000000000000e+02 6.561885833740234375e+01 -1.716733694076538086e+00 2.815976738929748535e-01 4.768695354461669922e+00 1.515087842941284180e+00 4.768416583538055420e-01
8.720000000000000000e+02 7.158746337890625000e+01 -2.241489648818969727e+00 1.199641227722167969e-01 6.180426597595214844e+00 1.890117168426513672e+00 3.962300419807434082e-01
8.730000000000000000e+02 2.870391082763671875e+01 -3.023123264312744141e+00 6.094386056065559387e-02 -1.094121932983398438e+00 -3.099534213542938232e-01 -3.318613469600677490e-01
8.740000000000000000e+02 2.719138145446777344e+01 -8.868248939514160156e+00 4.155878350138664246e-02 -1.371814608573913574e+00 -3.990767300128936768e-01 -2.497860789299011230e-01
8.750000000000000000e+02 4.294741058349609375e+01 -2.280156517028808594e+01 1.543540060520172119e-01 1.036172032356262207e+00 3.571577966213226318e-01 -4.813223332166671753e-02
8.760000000000000000e+02 3.419604492187500000e+01 -7.420392036437988281e-01 1.592451632022857666e-01 -3.996962904930114746e-01 -7.213533669710159302e-02 -4.271899759769439697e-01
8.770000000000000000e+02 3.323039627075195312e+01 -1.132574367523193359e+01 1.042011231184005737e-01 -5.522356033325195312e-01 -1.344103515148162842e-01 -2.319336831569671631e-01
8.780000000000000000e+02 4.470512008666992188e+01 -1.623234176635742188e+01 2.206126153469085693e-01 1.206259727478027344e+00 4.280616939067840576e-01 -6.496606022119522095e-02
8.790000000000000000e+02 4.746959686279296875e+01 -2.577896308898925781e+01 1.500248908996582031e-01 1.759953260421752930e+00 5.729934573173522949e-01 1.528646331280469894e-03
8.800000000000000000e+02 5.647281265258789062e+01 -2.146634292602539062e+01 1.755286008119583130e-01 3.208810806274414062e+00 1.015301823616027832e+00 1.089458465576171875e-01
8.810000000000000000e+02 4.089011383056640625e+01 -1.362029314041137695e+00 3.040235936641693115e-01 3.872356712818145752e-01 2.073777765035629272e-01 -3.461679518222808838e-01
8.820000000000000000e+02 4.050892639160156250e+01 -8.333681106567382812e+00 2.487067431211471558e-01 4.696891605854034424e-01 2.155187726020812988e-01 -2.273394912481307983e-01
8.830000000000000000e+02 5.021238708496093750e+01 -1.532811450958251953e+01 2.496207207441329956e-01 2.070380926132202148e+00 6.960005164146423340e-01 1.214722357690334320e-02
8.840000000000000000e+02 5.915225982666015625e+01 -1.716809272766113281e+01 1.838057637214660645e-01 3.592366933822631836e+00 1.132851839065551758e+00 1.543064713478088379e-01
8.850000000000000000e+02 6.678324890136718750e+01 -1.212837409973144531e+01 1.513727307319641113e-01 5.043141365051269531e+00 1.558354258537292480e+00 2.556922435760498047e-01
8.860000000000000000e+02 6.569338989257812500e+01 -1.042541408538818359e+01 1.831834912300109863e-01 4.825582981109619141e+00 1.502629995346069336e+00 2.786740660667419434e-01
8.870000000000000000e+02 7.155007934570312500e+01 -1.139579963684082031e+01 7.288864254951477051e-02 5.990833759307861328e+00 1.819116711616516113e+00 2.189941704273223877e-01
8.880000000000000000e+02 2.715443801879882812e+01 -1.162915706634521484e+01 1.553914882242679596e-02 -1.399991750717163086e+00 -4.153357744216918945e-01 -2.096457928419113159e-01
8.890000000000000000e+02 2.751990318298339844e+01 -1.626468467712402344e+01 3.902892768383026123e-02 -1.374642610549926758e+00 -4.006840884685516357e-01 -1.567851006984710693e-01
8.900000000000000000e+02 4.172079086303710938e+01 -2.825060653686523438e+01 1.135438308119773865e-01 8.580754995346069336e-01 2.914858162403106689e-01 -9.548551402986049652e-03
8.910000000000000000e+02 5.034218215942382812e+01 -3.502607345581054688e+01 1.147514060139656067e-01 2.296532869338989258e+00 7.233852744102478027e-01 -6.008888129144906998e-03
8.920000000000000000e+02 3.400051879882812500e+01 -1.000433731079101562e+01 1.349712461233139038e-01 -4.218554198741912842e-01 -8.606525510549545288e-02 -2.625916302204132080e-01
8.930000000000000000e+02 4.225132369995117188e+01 -8.634008407592773438e+00 2.701872885227203369e-01 7.198176980018615723e-01 2.970014810562133789e-01 -1.891308575868606567e-01
8.940000000000000000e+02 5.164395904541015625e+01 -7.713099479675292969e+00 3.657712936401367188e-01 2.130621433258056641e+00 7.489178180694580078e-01 4.558080062270164490e-02
8.950000000000000000e+02 7.264880371093750000e+01 -1.910954475402832031e+01 3.205775469541549683e-02 6.082604885101318359e+00 1.834398865699768066e+00 1.127464100718498230e-01
8.960000000000000000e+02 7.173263549804687500e+01 -1.750979804992675781e+01 4.483500868082046509e-02 5.933279514312744141e+00 1.793434381484985352e+00 1.443026959896087646e-01
8.970000000000000000e+02 2.008149147033691406e+01 -1.531313514709472656e+01 -3.309201076626777649e-02 -2.643630027770996094e+00 -8.030166625976562500e-01 -2.234087139368057251e-01
8.980000000000000000e+02 2.926907348632812500e+01 -1.629694747924804688e+01 4.872646927833557129e-02 -1.117461562156677246e+00 -3.206205368041992188e-01 -1.616604477167129517e-01
8.990000000000000000e+02 3.734589767456054688e+01 -1.792032432556152344e+01 1.410371661186218262e-01 1.206066980957984924e-01 7.849316298961639404e-02 -1.351793110370635986e-01
9.000000000000000000e+02 4.294675064086914062e+01 -1.527389335632324219e+01 2.101452350616455078e-01 9.357973933219909668e-01 3.437828123569488525e-01 -9.947046637535095215e-02
9.010000000000000000e+02 4.816222763061523438e+01 -1.724018669128417969e+01 2.232019603252410889e-01 1.759915947914123535e+00 5.949353575706481934e-01 -1.539351977407932281e-02
9.020000000000000000e+02 2.819232940673828125e+01 -2.789011383056640625e+01 8.910583332180976868e-03 -1.250202536582946777e+00 -3.723875880241394043e-01 -8.913711458444595337e-02
9.030000000000000000e+02 3.421463012695312500e+01 -2.956378555297851562e+01 5.837345495820045471e-02 -3.353902995586395264e-01 -8.310505002737045288e-02 -4.223668202757835388e-02
9.040000000000000000e+02 4.074385070800781250e+01 -2.195700073242187500e+01 1.466569900512695312e-01 6.709992289543151855e-01 2.452968657016754150e-01 -7.566345483064651489e-02
9.050000000000000000e+02 5.084683990478515625e+01 -2.539195060729980469e+01 1.571173220872879028e-01 2.311433792114257812e+00 7.405652999877929688e-01 3.191408887505531311e-02
9.060000000000000000e+02 3.381913757324218750e+01 -3.369104385375976562e+01 7.262130826711654663e-02 -3.649549782276153564e-01 -8.770009875297546387e-02 -5.694373045116662979e-03
9.070000000000000000e+02 4.364719009399414062e+01 -3.274058151245117188e+01 1.124160662293434143e-01 1.165779113769531250e+00 3.834585547447204590e-01 2.387428842484951019e-02
9.080000000000000000e+02 6.632463836669921875e+01 -3.355783081054687500e+01 4.526749253273010254e-02 4.920162677764892578e+00 1.489629030227661133e+00 4.959501326084136963e-02
9.090000000000000000e+02 7.380001068115234375e+01 -3.170116043090820312e+01 1.236917078495025635e-02 6.174646854400634766e+00 1.856104731559753418e+00 3.213480487465858459e-02
9.100000000000000000e+02 1.137235736846923828e+01 -3.128001785278320312e+01 4.914376419037580490e-03 4.271112382411956787e-03 2.755646593868732452e-03 -7.567816413938999176e-03
9.110000000000000000e+02 1.437012863159179688e+01 -1.767548179626464844e+01 -5.700949113816022873e-04 -1.609719474799931049e-04 -2.193200489273294806e-04 5.812411109218373895e-05
9.120000000000000000e+02 1.150318431854248047e+01 -1.719360542297363281e+01 -1.948935532709583640e-04 6.781321280868723989e-05 -3.812410432146862149e-05 -2.439121599309146404e-04
9.130000000000000000e+02 1.459552383422851562e+01 -1.069495296478271484e+01 6.690160371363162994e-04 3.824481609626673162e-05 2.121782454196363688e-04 -7.356586866080760956e-05
9.140000000000000000e+02 1.252293205261230469e+01 -1.045964241027832031e+01 2.634486299939453602e-04 6.891235534567385912e-05 9.970828978111967444e-05 3.431548975640907884e-05
9.150000000000000000e+02 5.674784779548645020e-01 -1.066797542572021484e+01 1.813376729842275381e-05 -1.040652205119840801e-05 2.318173528692568652e-06 3.310430474812164903e-05
9.160000000000000000e+02 1.350685310363769531e+01 9.126456260681152344e+00 -7.094183820299804211e-05 -5.903423243580618873e-06 -2.305357702425681055e-05 -7.895627277321182191e-06
9.170000000000000000e+02 2.551534843444824219e+01 3.439155578613281250e+01 -2.310535311698913574e-02 -7.360144518315792084e-03 -9.139649569988250732e-03 -1.262023299932479858e-02
9.180000000000000000e+02 2.381243324279785156e+01 3.440412902832031250e+01 -7.819921709597110748e-03 -6.753347348421812057e-03 -4.371980670839548111e-03 -1.275630085729062557e-03
9.190000000000000000e+02 2.093641471862792969e+01 2.963658332824707031e+01 -1.786393113434314728e-03 -1.367214787751436234e-02 -4.637562204152345657e-03 -9.865303523838520050e-03
9.200000000000000000e+02 2.095163917541503906e+01 2.824569892883300781e+01 -2.085698302835226059e-03 -4.898563027381896973e-02 -1.532139815390110016e-02 -1.531068794429302216e-02
9.210000000000000000e+02 2.209453201293945312e+01 2.416053962707519531e+01 -8.722490631043910980e-03 -2.595991194248199463e-01 -8.049649000167846680e-02 -9.467835724353790283e-02
9.220000000000000000e+02 2.098947906494140625e+01 2.404732894897460938e+01 -1.876889960840344429e-03 -2.415026575326919556e-01 -7.301386445760726929e-02 -3.238502889871597290e-02
9.230000000000000000e+02 2.101082038879394531e+01 2.124615287780761719e+01 -1.445336500182747841e-03 -4.313769340515136719e-01 -1.298466920852661133e-01 -4.143526405096054077e-02
9.240000000000000000e+02 2.224182891845703125e+01 1.579653263092041016e+01 -2.319476334378123283e-03 -8.397428989410400391e-01 -2.526187300682067871e-01 -1.538323163986206055e-01
9.250000000000000000e+02 2.103825759887695312e+01 1.563210773468017578e+01 -9.566127118887379766e-05 -9.000460505485534668e-01 -2.700425088405609131e-01 -5.172019079327583313e-02
9.260000000000000000e+02 2.104247474670410156e+01 1.422601699829101562e+01 -5.497883539646863937e-04 -1.027516126632690430e+00 -3.084197640419006348e-01 -5.284413322806358337e-02
9.270000000000000000e+02 2.227406501770019531e+01 1.157469654083251953e+01 -1.180237304652109742e-04 -1.182169198989868164e+00 -3.546861708164215088e-01 -1.622143089771270752e-01
9.280000000000000000e+02 2.104976463317871094e+01 8.594659805297851562e+00 -2.091812901198863983e-03 -1.556949257850646973e+00 -4.677123427391052246e-01 -5.729874595999717712e-02
9.290000000000000000e+02 2.104606819152832031e+01 7.184405803680419922e+00 3.932446124963462353e-04 -1.698925614356994629e+00 -5.095596909523010254e-01 -5.925237759947776794e-02
9.300000000000000000e+02 2.221272850036621094e+01 4.478280067443847656e+00 -6.172312796115875244e-02 -1.728258490562438965e+00 -5.369945168495178223e-01 -1.945377886295318604e-01
9.310000000000000000e+02 2.090678405761718750e+01 2.946967840194702148e+00 -3.487195447087287903e-02 -2.049781560897827148e+00 -6.253960728645324707e-01 -1.904231607913970947e-01
9.320000000000000000e+02 2.078398513793945312e+01 1.548123598098754883e+00 -4.639637190848588943e-03 -1.985739111900329590e+00 -5.971136093139648438e-01 -1.869430541992187500e-01
9.330000000000000000e+02 2.068687248229980469e+01 1.519133150577545166e-01 2.274279296398162842e-02 -2.000921726226806641e+00 -5.934536457061767578e-01 -1.375534385442733765e-01
9.340000000000000000e+02 2.046074676513671875e+01 -4.059447288513183594e+00 5.288992542773485184e-03 -2.183624744415283203e+00 -6.535007357597351074e-01 -1.624346077442169189e-01
9.350000000000000000e+02 2.187173080444335938e+01 -2.552971601486206055e+00 -2.796178124845027924e-02 -1.975134849548339844e+00 -6.009290218353271484e-01 -1.649761348962783813e-01
9.360000000000000000e+02 2.033606338500976562e+01 -8.262345314025878906e+00 -3.573301946744322777e-04 -2.431835889816284180e+00 -7.296579480171203613e-01 -5.831020325422286987e-02
9.370000000000000000e+02 2.023462867736816406e+01 -1.249158096313476562e+01 -1.229455810971558094e-03 -2.625623464584350586e+00 -7.880558967590332031e-01 -1.023925021290779114e-01
9.380000000000000000e+02 2.027344512939453125e+01 -1.108146095275878906e+01 -6.713903858326375484e-04 -2.549963235855102539e+00 -7.651904225349426270e-01 -1.062559038400650024e-01
9.390000000000000000e+02 2.158640289306640625e+01 -1.238951015472412109e+01 -3.070707805454730988e-02 -2.361375331878662109e+00 -7.176247239112854004e-01 -1.725041419267654419e-01
9.400000000000000000e+02 1.977469825744628906e+01 -1.952041816711425781e+01 2.730880677700042725e-02 -2.441903114318847656e+00 -7.243782877922058105e-01 -9.815038740634918213e-02
9.410000000000000000e+02 2.129888534545898438e+01 -1.805718040466308594e+01 5.093711242079734802e-02 -2.331787586212158203e+00 -6.842551231384277344e-01 -1.324254125356674194e-01
9.420000000000000000e+02 1.971438980102539062e+01 -2.234708976745605469e+01 -1.145964767783880234e-02 -2.588247537612915039e+00 -7.799121141433715820e-01 -9.164319932460784912e-02
9.430000000000000000e+02 1.966643333435058594e+01 -2.657928276062011719e+01 7.252692244946956635e-03 -2.669782638549804688e+00 -7.987589836120605469e-01 -2.797092497348785400e-02
9.440000000000000000e+02 1.967017173767089844e+01 -2.517163658142089844e+01 2.382766455411911011e-03 -2.607738018035888672e+00 -7.816065549850463867e-01 -3.670014068484306335e-02
9.450000000000000000e+02 1.962858772277832031e+01 -2.937005996704101562e+01 1.137211080640554428e-02 -2.779284715652465820e+00 -8.303738236427307129e-01 -2.299578674137592316e-02
9.460000000000000000e+02 1.964533042907714844e+01 -3.216617202758789062e+01 7.129799574613571167e-03 -2.931827068328857422e+00 -8.774091601371765137e-01 -5.142844840884208679e-02
9.470000000000000000e+02 2.107150077819824219e+01 -3.206797027587890625e+01 -8.495257049798965454e-02 -2.627001762390136719e+00 -8.135862946510314941e-01 -1.550736576318740845e-01
9.480000000000000000e+02 1.970224380493164062e+01 -3.358108901977539062e+01 -1.003888174891471863e-01 -3.137392282485961914e+00 -9.713343381881713867e-01 -1.424755752086639404e-01
9.490000000000000000e+02 1.430679130554199219e+01 -3.171583747863769531e+01 2.434435067698359489e-03 1.150770811364054680e-03 1.075561856850981712e-03 -2.076229779049754143e-03
9.500000000000000000e+02 1.455067443847656250e+01 -2.758328247070312500e+01 4.066764959134161472e-04 -1.525390776805579662e-03 -3.356142842676490545e-04 -1.225548294314648956e-05
9.510000000000000000e+02 1.309436607360839844e+01 -2.391576004028320312e+01 4.747674975078552961e-04 2.888098824769258499e-04 2.290732081746682525e-04 6.397668621502816677e-04
9.520000000000000000e+02 1.441975212097167969e+01 -2.352219772338867188e+01 2.959140983875840902e-04 -7.231859490275382996e-04 -1.281815639231353998e-04 1.750129013089463115e-04
9.530000000000000000e+02 1.417909526824951172e+01 -2.058302879333496094e+01 -3.963128838222473860e-04 -1.012174834613688290e-04 -1.492591109126806259e-04 -1.053481901180930436e-04
9.540000000000000000e+02 1.291711235046386719e+01 -1.744662284851074219e+01 2.102963771903887391e-04 -4.697492840932682157e-05 4.899643317912705243e-05 2.159665746148675680e-04
9.550000000000000000e+02 1.441935729980468750e+01 -1.626564407348632812e+01 6.279410445131361485e-04 -6.454296817537397146e-05 1.690194185357540846e-04 -1.127725681726587936e-05
9.560000000000000000e+02 1.461243820190429688e+01 -9.312933921813964844e+00 -6.079957238398492336e-04 -2.860512358893174678e-05 -1.909802522277459502e-04 5.087960380478762090e-05
9.570000000000000000e+02 1.254460239410400391e+01 -1.922675490379333496e+00 2.915644290624186397e-05 -6.846622272860258818e-05 -1.179293303721351549e-05 -1.958294660653336905e-06
9.580000000000000000e+02 1.301383686065673828e+01 -2.817881345748901367e+00 -1.650259655434638262e-04 -1.512143935542553663e-04 -9.487210627412423491e-05 1.285671605728566647e-04
9.590000000000000000e+02 1.428602695465087891e+01 -2.023280382156372070e+00 -2.989300701301544905e-04 4.771184103447012603e-05 -7.536546763731166720e-05 -2.182169700972735882e-04
9.600000000000000000e+02 1.373726558685302734e+01 -2.031666278839111328e+00 1.691123470664024353e-04 2.219040652562398463e-05 5.739082553191110492e-05 -6.522821786347776651e-05
9.610000000000000000e+02 1.317744541168212891e+01 -1.978396177291870117e+00 1.264126040041446686e-04 -4.031526623293757439e-05 2.582920205895788968e-05 -2.275599945278372616e-05
9.620000000000000000e+02 1.182435894012451172e+01 -1.902016520500183105e+00 -1.067509656422771513e-04 6.547297380166128278e-05 -1.238339609699323773e-05 6.602836219826713204e-05
9.630000000000000000e+02 9.594952583312988281e+00 -1.879484415054321289e+00 4.670680573326535523e-05 3.316036963951773942e-05 2.396015224803704768e-05 -2.285605478391516954e-05
9.640000000000000000e+02 1.034774684906005859e+01 -1.885686159133911133e+00 -4.929565329803153872e-05 -2.700427648960612714e-05 -2.288997893629129976e-05 4.679817720898427069e-05
9.650000000000000000e+02 8.832749366760253906e+00 -1.876082658767700195e+00 -3.549549364834092557e-05 -4.305679976823739707e-05 -2.356568802497349679e-05 4.073100626555969939e-06
9.660000000000000000e+02 7.308083057403564453e+00 -1.864983797073364258e+00 -1.744434121064841747e-05 -7.489336712751537561e-05 -2.770131322904489934e-05 -2.683635284483898431e-05
9.670000000000000000e+02 5.788576126098632812e+00 -1.859371542930603027e+00 -9.785895235836505890e-05 -7.522842497564852238e-05 -5.192621392779983580e-05 -7.955124601721763611e-05
9.680000000000000000e+02 3.520381212234497070e+00 -1.942670822143554688e+00 1.109767472371459007e-04 9.163010690826922655e-05 6.078205478843301535e-05 3.510737587930634618e-05
9.690000000000000000e+02 5.030341625213623047e+00 -1.870041966438293457e+00 1.465952373109757900e-04 9.886104089673608541e-05 7.363688200712203979e-05 1.195380682474933565e-04
9.700000000000000000e+02 4.400786876678466797e+00 -2.682415723800659180e+00 2.120897406712174416e-04 6.797916284995153546e-05 8.402067032875493169e-05 1.283195015275850892e-04
9.710000000000000000e+02 2.758463621139526367e+00 -2.015486717224121094e+00 -1.059324349625967443e-04 -5.125278039486147463e-05 -4.715556133305653930e-05 -6.428340566344559193e-05
9.720000000000000000e+02 1.989791393280029297e+00 -2.109821081161499023e+00 1.008534018183127046e-04 9.133951607509516180e-06 3.299620584584772587e-05 7.108938734745606780e-05
9.730000000000000000e+02 1.209021329879760742e+00 -2.182001829147338867e+00 2.384594881732482463e-05 2.035080979112535715e-05 1.325902758253505453e-05 6.076320460124406964e-06
9.740000000000000000e+02 2.056216239929199219e+00 -4.164273452758789062e+01 1.259305048733949661e-03 2.136581391096115112e-02 6.787535734474658966e-03 -3.903636243194341660e-04
9.750000000000000000e+02 5.347082138061523438e+00 -3.751274108886718750e+01 -2.616303507238626480e-03 5.800817627459764481e-03 9.553541895002126694e-04 1.342274155467748642e-02
9.760000000000000000e+02 1.045405745506286621e+00 -3.869800567626953125e+01 4.608681891113519669e-03 1.988107711076736450e-02 7.346927653998136520e-03 3.715949133038520813e-03
9.770000000000000000e+02 7.773603796958923340e-01 -3.455760574340820312e+01 -2.371174050495028496e-03 8.089550770819187164e-03 1.715512946248054504e-03 1.182203181087970734e-03
9.780000000000000000e+02 7.397619485855102539e-01 -3.315661621093750000e+01 2.428780309855937958e-03 5.113899242132902145e-03 2.262803725898265839e-03 2.085270127281546593e-03
9.790000000000000000e+02 6.518993377685546875e-01 -2.893131256103515625e+01 -1.604206161573529243e-03 -3.702775284182280302e-04 -5.923451390117406845e-04 -1.365909993182867765e-04
9.800000000000000000e+02 6.405425071716308594e-01 -2.752512931823730469e+01 1.648767152801156044e-03 -7.105833501555025578e-04 2.814551407936960459e-04 4.637302190531045198e-04
9.810000000000000000e+02 6.353389024734497070e-01 -2.612035751342773438e+01 -1.437721191905438900e-03 -8.931146003305912018e-04 -6.992507260292768478e-04 -3.557396121323108673e-04
9.820000000000000000e+02 6.320237517356872559e-01 -2.191229057312011719e+01 9.444867610000073910e-04 -4.649224865715950727e-04 1.438692852389067411e-04 1.702054869383573532e-04
9.830000000000000000e+02 6.271805167198181152e-01 -2.050927925109863281e+01 -7.587095024064183235e-04 -3.656435583252459764e-04 -3.373059153091162443e-04 -2.488059981260448694e-04
9.840000000000000000e+02 1.889014363288879395e+00 -2.034851074218750000e+01 7.133076433092355728e-04 -1.594976492924615741e-04 1.661429996602237225e-04 2.207147917943075299e-04
9.850000000000000000e+02 6.109154224395751953e-01 -1.629531097412109375e+01 3.090467944275587797e-04 -8.882906695362180471e-05 6.606531678698956966e-05 5.968924961052834988e-05
9.860000000000000000e+02 6.036066412925720215e-01 -1.488787651062011719e+01 -2.253662241855636239e-04 -4.470687781576998532e-05 -8.102192805381491780e-05 -7.184428977780044079e-05
9.870000000000000000e+02 5.941230654716491699e-01 -1.348004245758056641e+01 1.470148563385009766e-04 -3.426293551456183195e-05 3.382557770237326622e-05 3.952801125706173480e-05
9.880000000000000000e+02 1.778475761413574219e+00 -1.339899063110351562e+01 -2.694155264180153608e-04 -1.436778688912454527e-06 -8.125569002004340291e-05 -1.516031043138355017e-04
9.890000000000000000e+02 5.496961474418640137e-01 -9.265035629272460938e+00 3.597003887989558280e-05 5.902290013182209805e-06 1.256169889529701322e-05 -2.854256672435440123e-05
9.900000000000000000e+02 5.291294455528259277e-01 -7.864721775054931641e+00 -7.757015555398538709e-05 -1.789366478988085873e-06 -2.380785554123576730e-05 1.844004145823419094e-05
9.910000000000000000e+02 5.124409794807434082e-01 -6.461323738098144531e+00 1.058197958627715707e-04 1.522358979855198413e-05 3.631301660789176822e-05 -1.636916931602172554e-05
9.920000000000000000e+02 7.236370849609375000e+01 -4.104777908325195312e+01 3.211712837219238281e-02 5.917207717895507812e+00 1.784797430038452148e+00 3.709124401211738586e-03
9.930000000000000000e+02 5.311145782470703125e+01 -4.007677078247070312e+01 1.008842512965202332e-01 2.709187984466552734e+00 8.430216908454895020e-01 4.205079749226570129e-03
9.940000000000000000e+02 3.233975601196289062e+01 -4.098565292358398438e+01 1.311871856451034546e-01 -6.294494867324829102e-01 -1.494786888360977173e-01 3.480406245216727257e-03
9.950000000000000000e+02 1.161466789245605469e+01 -3.949474334716796875e+01 -3.035759925842285156e-02 -2.949396520853042603e-02 -1.795546896755695343e-02 4.421515390276908875e-02
9.960000000000000000e+02 7.543938446044921875e+01 4.075781631469726562e+01 -8.620881438255310059e-01 9.795680999755859375e+00 2.680078029632568359e+00 4.523700177669525146e-01
9.970000000000000000e+02 7.877970886230468750e+01 4.018955612182617188e+01 -2.674910612404346466e-02 9.586443901062011719e+00 2.867908477783203125e+00 3.456558883190155029e-01
9.980000000000000000e+02 7.908373260498046875e+01 3.881702423095703125e+01 -3.412200510501861572e-02 9.085817337036132812e+00 2.715508699417114258e+00 3.868176341056823730e-01
9.990000000000000000e+02 7.944419097900390625e+01 3.471598434448242188e+01 4.099675640463829041e-02 6.539211750030517578e+00 1.974062561988830566e+00 3.991494774818420410e-01
1.000000000000000000e+03 7.844333648681640625e+01 3.316444396972656250e+01 2.335940748453140259e-01 6.843145847320556641e+00 2.123021841049194336e+00 7.375642061233520508e-01
1.001000000000000000e+03 7.948033142089843750e+01 3.335163879394531250e+01 5.004863813519477844e-02 5.613413810729980469e+00 1.699038624763488770e+00 2.801138758659362793e-01
1.002000000000000000e+03 7.948979949951171875e+01 3.060211372375488281e+01 7.286035269498825073e-02 4.854830741882324219e+00 1.478307366371154785e+00 -4.707137867808341980e-02
1.003000000000000000e+03 7.745634460449218750e+01 2.902261924743652344e+01 5.479379892349243164e-01 7.743676185607910156e+00 2.487484216690063477e+00 -8.837785124778747559e-01
1.004000000000000000e+03 7.949628448486328125e+01 2.643686866760253906e+01 7.598050287924706936e-04 6.787536144256591797e+00 2.036488771438598633e+00 -3.687076866626739502e-01
1.005000000000000000e+03 7.746376800537109375e+01 2.763475990295410156e+01 2.398000359535217285e-01 8.067527770996093750e+00 2.492198467254638672e+00 -1.215917944908142090e+00
1.006000000000000000e+03 7.949417877197265625e+01 2.505023574829101562e+01 -1.315711718052625656e-02 7.702051639556884766e+00 2.306668519973754883e+00 -3.485459983348846436e-01
1.007000000000000000e+03 7.946855163574218750e+01 2.089102554321289062e+01 -2.662166953086853027e-02 9.460574150085449219e+00 2.830185651779174805e+00 -1.525068283081054688e-01
1.008000000000000000e+03 7.945614624023437500e+01 1.950118255615234375e+01 -1.800939626991748810e-02 9.680849075317382812e+00 2.898851871490478516e+00 -9.295819699764251709e-02
1.009000000000000000e+03 7.734883117675781250e+01 2.085681152343750000e+01 -2.694266438484191895e-01 9.156226158142089844e+00 2.666039705276489258e+00 -3.977220058441162109e-01
1.010000000000000000e+03 7.944356536865234375e+01 1.811157035827636719e+01 -1.703761331737041473e-02 9.764699935913085938e+00 2.924298763275146484e+00 -4.760717228055000305e-02
1.011000000000000000e+03 7.941690826416015625e+01 1.393304729461669922e+01 -4.106718115508556366e-03 9.549080848693847656e+00 2.863492250442504883e+00 2.848869748413562775e-02
1.012000000000000000e+03 7.941324615478515625e+01 1.253824901580810547e+01 -5.033148452639579773e-03 9.397080421447753906e+00 2.817614078521728516e+00 3.918749094009399414e-02
1.013000000000000000e+03 7.941208648681640625e+01 1.114506149291992188e+01 3.747041409951634705e-05 9.230666160583496094e+00 2.769211053848266602e+00 4.484379291534423828e-02
1.014000000000000000e+03 7.941037750244140625e+01 6.962968349456787109e+00 -2.259366592625156045e-04 8.722802162170410156e+00 2.616772651672363281e+00 4.640244692564010620e-02
1.015000000000000000e+03 7.940610504150390625e+01 5.569005012512207031e+00 1.181597122922539711e-03 8.563721656799316406e+00 2.569471120834350586e+00 4.500184580683708191e-02
1.016000000000000000e+03 7.822297668457031250e+01 5.558089256286621094e+00 6.739206146448850632e-03 8.260110855102539062e+00 2.480054855346679688e+00 1.663706600666046143e-01
1.017000000000000000e+03 7.940056610107421875e+01 4.176189422607421875e+00 1.325454097241163254e-03 8.414363861083984375e+00 2.524706602096557617e+00 4.183315858244895935e-02
1.018000000000000000e+03 7.938108825683593750e+01 5.272403359413146973e-03 4.869751282967627048e-04 8.031559944152832031e+00 2.409614086151123047e+00 3.294387459754943848e-02
1.019000000000000000e+03 7.937468719482421875e+01 -1.385755181312561035e+00 2.075040014460682869e-03 7.924517154693603516e+00 2.377977609634399414e+00 2.992307394742965698e-02
1.020000000000000000e+03 7.936212158203125000e+01 -4.170305252075195312e+00 2.412036992609500885e-03 7.737376689910888672e+00 2.321936607360839844e+00 2.466076426208019257e-02
1.021000000000000000e+03 7.935540771484375000e+01 -8.344347000122070312e+00 -5.377641064114868641e-04 7.515371322631835938e+00 2.254450082778930664e+00 1.710007153451442719e-02
1.022000000000000000e+03 7.935744476318359375e+01 -1.113209629058837891e+01 -4.100719888810999691e-05 7.400214672088623047e+00 2.220052003860473633e+00 1.274961698800325394e-02
1.023000000000000000e+03 7.936064147949218750e+01 -1.531897068023681641e+01 9.338859235867857933e-04 7.266629219055175781e+00 2.180268764495849609e+00 8.180091157555580139e-03
1.024000000000000000e+03 7.935486602783203125e+01 -1.810849761962890625e+01 9.639518684707581997e-04 7.197363853454589844e+00 2.159498214721679688e+00 6.225996650755405426e-03
1.025000000000000000e+03 7.933396148681640625e+01 -2.368718147277832031e+01 1.874560024589300156e-03 7.099236011505126953e+00 2.130333185195922852e+00 2.582822926342487335e-03
1.026000000000000000e+03 7.932806396484375000e+01 -2.507862281799316406e+01 -1.312756212428212166e-03 7.081930637359619141e+00 2.124185323715209961e+00 1.920146984048187733e-03
1.027000000000000000e+03 7.930201721191406250e+01 -2.925290870666503906e+01 -2.405897714197635651e-03 7.035407543182373047e+00 2.109900474548339844e+00 3.983844071626663208e-03
1.028000000000000000e+03 7.922526550292968750e+01 -3.204399108886718750e+01 -6.563216447830200195e-03 7.010115146636962891e+00 2.101065635681152344e+00 3.519350429996848106e-03
1.029000000000000000e+03 7.900542449951171875e+01 -3.623421859741210938e+01 4.244694951921701431e-03 6.950014114379882812e+00 2.086277484893798828e+00 1.689129136502742767e-02
1.030000000000000000e+03 7.893161773681640625e+01 -3.763438415527343750e+01 1.136261504143476486e-02 6.931752681732177734e+00 2.082934617996215820e+00 6.284686271101236343e-03
1.031000000000000000e+03 7.879985809326171875e+01 -3.903487396240234375e+01 -5.635936930775642395e-02 6.905890941619873047e+00 2.054859638214111328e+00 3.339926525950431824e-02
1.032000000000000000e+03 7.810659027099609375e+01 -4.177484512329101562e+01 9.411309659481048584e-02 6.792809009552001953e+00 2.066076517105102539e+00 2.632471919059753418e-02
1.033000000000000000e+03 4.880054950714111328e+00 4.049845504760742188e+01 -1.952903548954054713e-04 -1.189081158372573555e-04 -9.425954340258613229e-05 5.512854113476350904e-05
1.034000000000000000e+03 2.743300437927246094e+01 3.802459716796875000e+01 1.312884851358830929e-03 -4.130111774429678917e-04 2.699620963539928198e-04 -7.903843070380389690e-04
1.035000000000000000e+03 4.659514236450195312e+01 3.617746734619140625e+01 -2.711901627480983734e-02 -9.684481471776962280e-02 -3.718914836645126343e-02 1.148519963026046753e-01
1.036000000000000000e+03 6.537368011474609375e+01 3.975168228149414062e+01 3.728408217430114746e-01 3.768691062927246094e+00 1.242459535598754883e+00 -8.086106181144714355e-01
1.037000000000000000e+03 6.728819012641906738e-01 3.013957738876342773e+00 3.226095213904045522e-05 -1.171753046946832910e-05 6.163026228023227304e-06 4.801814793609082699e-05
1.038000000000000000e+03 3.088917255401611328e+00 2.727198600769042969e+00 -3.368915713508613408e-05 -1.711889854050241411e-05 -1.524241633887868375e-05 2.621689645820879377e-06
1.039000000000000000e+03 5.259850502014160156e+00 2.690371513366699219e+00 1.557312498334795237e-05 1.938561035785824060e-05 1.048762078426079825e-05 -1.025388155539985746e-05
1.040000000000000000e+03 1.625595688819885254e+00 6.245973110198974609e+00 6.133810529718175530e-05 1.021373827825300395e-05 2.146555380022618920e-05 -1.206378601636970416e-05
1.041000000000000000e+03 5.844408869743347168e-01 9.225728988647460938e+00 -7.786979404045268893e-05 -5.038635322307527531e-07 -2.351209695916622877e-05 8.513481589034199715e-06
1.042000000000000000e+03 6.147226095199584961e-01 1.206199073791503906e+01 -9.613390284357592463e-05 -8.774687785262358375e-07 -2.910341027018148452e-05 9.255994882551021874e-06
1.043000000000000000e+03 1.840891242027282715e+00 1.197583103179931641e+01 9.377217793371528387e-05 2.557475909270578995e-06 2.889889583457261324e-05 -1.433492889191256836e-05
1.044000000000000000e+03 6.187524199485778809e-01 1.630980873107910156e+01 1.280521246371790767e-04 -3.454243255873734597e-07 3.831201320281252265e-05 -8.064167559496127069e-06
1.045000000000000000e+03 1.863743424415588379e+00 1.765175056457519531e+01 1.323791802860796452e-04 -6.157650659588398412e-06 3.786645538639277220e-05 -4.077816356584662572e-06
1.046000000000000000e+03 6.238814592361450195e-01 1.772545433044433594e+01 -1.346006029052659869e-04 8.669863404975330923e-07 -4.012008503195829690e-05 5.728634732804493979e-06
1.047000000000000000e+03 6.368398666381835938e-01 2.195009994506835938e+01 1.343369658570736647e-04 1.402520297233422752e-06 4.072184310643933713e-05 -3.778268364840187132e-06
1.048000000000000000e+03 6.325114965438842773e-01 2.335731697082519531e+01 -1.297170965699478984e-04 -1.216346959154179785e-06 -3.928003206965513527e-05 4.058982540300348774e-06
1.049000000000000000e+03 1.895793795585632324e+00 2.324711990356445312e+01 1.350903185084462166e-04 -6.425769925044733100e-07 4.033432560390792787e-05 8.981943210528697819e-06
1.050000000000000000e+03 6.296169757843017578e-01 2.476821899414062500e+01 1.239810371771454811e-04 -3.971111937062232755e-07 3.707517680595628917e-05 -2.543213895478402264e-06
1.051000000000000000e+03 6.497913002967834473e-01 2.900232696533203125e+01 -9.966356446966528893e-05 -6.830709935456980020e-06 -3.194828241248615086e-05 1.970088987945928238e-06
1.052000000000000000e+03 6.596882939338684082e-01 3.041253280639648438e+01 1.006309321383014321e-04 3.633055712271016091e-06 3.127919626422226429e-05 -8.247264304372947663e-06
1.053000000000000000e+03 2.024071216583251953e+00 3.166251182556152344e+01 1.138153384090401232e-04 2.522457180020865053e-05 4.171197360847145319e-05 -1.998120751522947103e-05
1.054000000000000000e+03 6.640871167182922363e-01 3.181800079345703125e+01 -1.135385100496932864e-04 -1.131841145252110437e-05 -3.745707726920954883e-05 1.722784145385958254e-05
1.055000000000000000e+03 7.317906618118286133e-01 3.600446701049804688e+01 1.349746453342959285e-04 2.194417174905538559e-05 4.707564221462234855e-05 -1.424690708518028259e-05
1.056000000000000000e+03 2.448160648345947266e+00 3.695823287963867188e+01 1.432998687960207462e-04 7.275766984093934298e-05 6.481726450147107244e-05 -2.159038376703392714e-05
1.057000000000000000e+03 9.817925095558166504e-01 3.874337005615234375e+01 1.587204169481992722e-04 4.768458893522620201e-05 6.192149885464459658e-05 -5.312522262101992965e-05
1.058000000000000000e+03 1.291767716407775879e+00 4.011825180053710938e+01 -1.850992121035233140e-04 4.307705603423528373e-05 -4.260664718458428979e-05 3.018535426235757768e-05
1.059000000000000000e+03 1.039004516601562500e+01 1.848134279251098633e+00 2.011866854445543140e-05 5.098276233184151351e-06 7.565083706140285358e-06 -4.204716788080986589e-06
1.060000000000000000e+03 8.931078910827636719e+00 1.873389363288879395e+00 1.736134072416462004e-05 9.399630471307318658e-06 8.028290721995290369e-06 9.826842983784445096e-08
1.061000000000000000e+03 8.209297180175781250e+00 1.877474069595336914e+00 -1.561491444590501487e-05 -1.182119831355521455e-05 -8.230833373090717942e-06 2.915257653057778953e-07
1.062000000000000000e+03 8.179942131042480469e+00 2.640001296997070312e+00 1.997659455810207874e-05 1.440038886357797310e-05 1.031309511745348573e-05 1.297264589084079489e-06
1.063000000000000000e+03 7.490085124969482422e+00 1.880481123924255371e+00 1.485354550823103637e-05 1.386663552693789825e-05 8.616054401500150561e-06 -1.434435148439661134e-06
1.064000000000000000e+03 5.326495647430419922e+00 1.896266818046569824e+00 -1.292292745347367600e-05 -1.627201163501013070e-05 -8.758481271797791123e-06 8.607683412265032530e-06
1.065000000000000000e+03 4.602996349334716797e+00 1.906100153923034668e+00 1.601124313310720026e-05 1.518476619821740314e-05 9.358802344650030136e-06 -9.945013516698963940e-06
1.066000000000000000e+03 3.886906623840332031e+00 1.908978819847106934e+00 -2.164237776014488190e-05 -1.410971071891253814e-05 -1.072562645276775584e-05 8.968756446847692132e-06
1.067000000000000000e+03 3.182977437973022461e+00 1.899427056312561035e+00 2.653537740116007626e-05 1.308114769926760346e-05 1.188495753012830392e-05 -3.478508233456523158e-06
1.068000000000000000e+03 2.489585638046264648e+00 1.883984684944152832e+00 -2.270625373057555407e-05 -1.523055652796756476e-05 -1.138104289566399530e-05 -3.253088834753725678e-06
1.069000000000000000e+03 1.801580309867858887e+00 1.879697680473327637e+00 1.191573937830980867e-05 1.938728019013069570e-05 9.390905688633210957e-06 4.234824245941126719e-06
1.070000000000000000e+03 1.186804676055908203e+01 1.777306675910949707e+00 1.517499640613095835e-05 7.285962510650279000e-06 6.738287993357516825e-06 -8.663599146530032158e-06
1.071000000000000000e+03 1.435962581634521484e+01 2.975625276565551758e+00 -4.884568170382408425e-06 -1.050602440955117345e-05 -4.617177637555869296e-06 1.841360426624305546e-05
1.072000000000000000e+03 1.459833145141601562e+01 3.781795263290405273e+00 3.519417441566474736e-05 7.107219062163494527e-06 1.269041786144953221e-05 -9.869301720755174756e-06
1.073000000000000000e+03 1.479443073272705078e+01 2.010971546173095703e+00 -2.367852357565425336e-05 -4.996957159164594486e-06 -8.602643902122508734e-06 -1.514022756055055652e-06
1.074000000000000000e+03 1.461477470397949219e+01 6.350668430328369141e+00 6.066418791306205094e-05 2.784511025311076082e-06 1.903461088659241796e-05 -6.469759227911708876e-06
1.075000000000000000e+03 1.459984874725341797e+01 7.705317020416259766e+00 -7.042328797979280353e-05 -2.375592202952248044e-06 -2.183966535085346550e-05 4.030063792015425861e-06
1.076000000000000000e+03 1.457807636260986328e+01 9.070455551147460938e+00 8.010110468603670597e-05 1.865954914137546439e-06 2.459011739119887352e-05 -1.373168061036267318e-06
1.077000000000000000e+03 1.451307678222656250e+01 1.181853866577148438e+01 9.997757297242060304e-05 -4.520893526205327362e-07 2.985764513141475618e-05 1.809924128792772535e-06
1.078000000000000000e+03 1.445659065246582031e+01 1.320908164978027344e+01 -1.061856237356550992e-04 3.072160779993282631e-06 -3.093403938692063093e-05 1.428782638868142385e-06
1.079000000000000000e+03 1.439243221282958984e+01 1.461334419250488281e+01 1.112892059609293938e-04 1.206980073220620397e-06 3.374885636731050909e-05 -3.485281467874301597e-06
1.080000000000000000e+03 1.437816429138183594e+01 1.601914787292480469e+01 -1.226249150931835175e-04 -2.420472640096704708e-07 -3.686008858494460583e-05 2.312973037987831049e-06
1.081000000000000000e+03 1.314643383026123047e+01 2.040406036376953125e+01 -1.607472513569518924e-04 -1.223590857080125716e-06 -4.859125328948721290e-05 1.994075500988401473e-05
1.082000000000000000e+03 1.450728797912597656e+01 2.161340141296386719e+01 -1.730794901959598064e-04 -2.874901610994129442e-06 -5.278631579130887985e-05 2.092307295242790133e-05
1.083000000000000000e+03 1.481361961364746094e+01 2.577951049804687500e+01 2.213380648754537106e-04 8.008478289411868900e-07 6.664167449343949556e-05 -3.135062070214189589e-05
1.084000000000000000e+03 1.327924346923828125e+01 2.320228195190429688e+01 -1.884251687442883849e-04 2.318992983418866061e-06 -5.583185338764451444e-05 1.844924736360553652e-05
1.085000000000000000e+03 1.493678474426269531e+01 2.717392921447753906e+01 -2.392666647210717201e-04 -3.439701004026574083e-06 -7.281191210495308042e-05 3.742892295122146606e-05
1.086000000000000000e+03 1.511615753173828125e+01 2.856484222412109375e+01 2.650349633768200874e-04 2.844239133992232382e-06 8.036375947995111346e-05 -4.658108446164987981e-05
1.087000000000000000e+03 1.592856693267822266e+01 3.269538879394531250e+01 -3.327899321448057890e-04 -1.406451974617084488e-05 -1.040563365677371621e-04 9.800049156183376908e-05
1.088000000000000000e+03 1.631910896301269531e+01 3.403990173339843750e+01 3.569738764781504869e-04 3.470554656814783812e-05 1.175038269138894975e-04 -1.038708796841092408e-04
1.089000000000000000e+03 1.529869842529296875e+01 3.587609481811523438e+01 4.991899477317929268e-04 8.838664507493376732e-05 1.762729807524010539e-04 -1.154303536168299615e-04
1.090000000000000000e+03 1.719327163696289062e+01 3.650491333007812500e+01 1.180465333163738251e-03 3.073321131523698568e-04 4.463392542675137520e-04 3.690897428896278143e-04
1.091000000000000000e+03 2.161742210388183594e+01 3.824872970581054688e+01 -7.329259096877649426e-05 -4.776733694598078728e-04 -1.652897917665541172e-04 1.196481898659840226e-04
1.092000000000000000e+03 2.324151611328125000e+01 3.854977798461914062e+01 -2.735836314968764782e-04 -7.235193152155261487e-06 -8.424565021414309740e-05 -6.387691246345639229e-05
1.093000000000000000e+03 2.515586471557617188e+01 3.866641235351562500e+01 6.253611645661294460e-04 2.339678030693903565e-04 2.577986742835491896e-04 -3.824603845714591444e-05
1.094000000000000000e+03 2.822537231445312500e+01 3.801996612548828125e+01 3.606112732086330652e-04 1.299156574532389641e-03 4.979303339496254921e-04 -4.238749679643660784e-04
1.095000000000000000e+03 2.903182792663574219e+01 3.792424392700195312e+01 7.800908497301861644e-05 5.889288149774074554e-04 2.000813692575320601e-04 -1.803211751393973827e-03
1.096000000000000000e+03 3.094541740417480469e+01 3.836027526855468750e+01 2.290496136993169785e-03 1.095885992981493473e-03 1.015914604067802429e-03 -1.947613200172781944e-03
1.097000000000000000e+03 3.125481414794921875e+01 3.737983322143554688e+01 2.934348070994019508e-03 1.247688778676092625e-03 1.254611066542565823e-03 -2.100773621350526810e-03
1.098000000000000000e+03 3.219025421142578125e+01 3.766408157348632812e+01 3.092707367613911629e-03 9.252342279069125652e-04 1.205382519401609898e-03 -2.431334229186177254e-03
1.099000000000000000e+03 3.404032897949218750e+01 3.734143447875976562e+01 6.714462069794535637e-04 -1.104341587051749229e-03 -1.298685965593904257e-04 -1.308346982114017010e-03
1.100000000000000000e+03 3.488896942138671875e+01 3.716104507446289062e+01 4.660662380047142506e-04 -3.538922872394323349e-03 -9.218569612130522728e-04 -1.137570594437420368e-03
1.101000000000000000e+03 3.733555221557617188e+01 3.790694808959960938e+01 -2.989536616951227188e-03 -7.352418266236782074e-03 -3.102586371824145317e-03 6.123895756900310516e-03
1.102000000000000000e+03 3.812178421020507812e+01 3.775580215454101562e+01 -1.670091733103618026e-04 -1.365385018289089203e-02 -4.146257881075143814e-03 1.026040595024824142e-02
1.103000000000000000e+03 3.792189025878906250e+01 3.645457839965820312e+01 -2.549592638388276100e-03 -4.649256356060504913e-03 -2.159654628485441208e-03 6.161940749734640121e-03
1.104000000000000000e+03 3.966943359375000000e+01 3.633898162841796875e+01 -7.325804326683282852e-03 -1.407012622803449631e-02 -6.418779492378234863e-03 1.842710934579372406e-02
1.105000000000000000e+03 4.046172332763671875e+01 3.603824615478515625e+01 -1.211620308458805084e-02 -1.506457850337028503e-02 -8.154233917593955994e-03 2.064732462167739868e-02
1.106000000000000000e+03 4.100045394897460938e+01 3.558033752441406250e+01 -1.812512613832950592e-02 -1.591856405138969421e-02 -1.021310780197381973e-02 2.608825080096721649e-02
1.107000000000000000e+03 4.495222473144531250e+01 3.721482467651367188e+01 -6.453506182879209518e-03 -8.453229814767837524e-02 -2.729574218392372131e-02 8.851938694715499878e-02
1.108000000000000000e+03 4.373449325561523438e+01 3.510337829589843750e+01 -4.706820100545883179e-02 -2.815527096390724182e-02 -2.256704121828079224e-02 5.097948759794235229e-02
1.109000000000000000e+03 4.523014068603515625e+01 3.484138870239257812e+01 -7.684750109910964966e-02 -3.415069356560707092e-02 -3.329945728182792664e-02 7.142306119203567505e-02
1.110000000000000000e+03 4.666352844238281250e+01 3.453871154785156250e+01 -1.180428266525268555e-01 -4.202650114893913269e-02 -4.802079871296882629e-02 1.009837016463279724e-01
1.111000000000000000e+03 4.810050201416015625e+01 3.435778045654296875e+01 -1.645372062921524048e-01 -5.030100047588348389e-02 -6.445146352052688599e-02 1.367975771427154541e-01
1.112000000000000000e+03 4.883463287353515625e+01 3.428831100463867188e+01 -1.952295750379562378e-01 -6.739202141761779785e-02 -7.878647744655609131e-02 1.536385864019393921e-01
1.113000000000000000e+03 5.111725997924804688e+01 3.402361679077148438e+01 -3.184048831462860107e-01 -6.979463994503021240e-02 -1.164598539471626282e-01 2.214333266019821167e-01
1.114000000000000000e+03 5.258628845214843750e+01 3.370623397827148438e+01 -4.235404431819915771e-01 -7.393996417522430420e-02 -1.492441296577453613e-01 2.691033482551574707e-01
1.115000000000000000e+03 5.331487655639648438e+01 3.360098648071289062e+01 -4.968151152133941650e-01 -8.988355845212936401e-02 -1.760096102952957153e-01 2.921507358551025391e-01
1.116000000000000000e+03 5.474317169189453125e+01 3.337257003784179688e+01 -6.356826424598693848e-01 -8.746504783630371094e-02 -2.169443070888519287e-01 3.249396681785583496e-01
1.117000000000000000e+03 5.556490707397460938e+01 3.394370269775390625e+01 -5.592156052589416504e-01 -1.139079853892326355e-01 -2.019370794296264648e-01 3.944324553012847900e-01
1.118000000000000000e+03 5.616933441162109375e+01 3.321989440917968750e+01 -7.771474123001098633e-01 -7.977482676506042480e-02 -2.570766806602478027e-01 3.756810724735260010e-01
1.119000000000000000e+03 5.912966156005859375e+01 3.306827545166015625e+01 -1.091129422187805176e+00 -3.125710412859916687e-02 -3.367159366607666016e-01 4.231745898723602295e-01
1.120000000000000000e+03 5.986758422851562500e+01 3.300365447998046875e+01 -1.180676579475402832e+00 -7.163580972701311111e-03 -3.563520312309265137e-01 4.247868955135345459e-01
1.121000000000000000e+03 6.060117340087890625e+01 3.294451522827148438e+01 -1.245212435722351074e+00 3.098930697888135910e-03 -3.726340532302856445e-01 3.894613087177276611e-01
1.122000000000000000e+03 6.279464721679687500e+01 3.279768371582031250e+01 -1.313342213630676270e+00 5.508488789200782776e-02 -3.774772286415100098e-01 2.701457738876342773e-01
1.123000000000000000e+03 6.351599884033203125e+01 3.275550460815429688e+01 -1.251265883445739746e+00 1.028798222541809082e-01 -3.445158302783966064e-01 1.891108453273773193e-01
1.124000000000000000e+03 6.539149475097656250e+01 3.266505050659179688e+01 -7.457115650177001953e-01 2.817119956016540527e-01 -1.391998678445816040e-01 -3.197548091411590576e-01
1.125000000000000000e+03 6.598089599609375000e+01 3.262791442871093750e+01 -4.823906123638153076e-01 4.736848473548889160e-01 -2.611731877550482750e-03 -5.818909406661987305e-01
1.126000000000000000e+03 6.997817993164062500e+01 3.253485107421875000e+01 9.670029580593109131e-02 1.748702049255371094e+01 5.275116443634033203e+00 -4.221062183380126953e+00
1.127000000000000000e+03 7.018646240234375000e+01 3.250057983398437500e+01 -1.159625966101884842e-02 1.907140350341796875e+01 5.717941761016845703e+00 -3.059971332550048828e+00
1.128000000000000000e+03 7.059140014648437500e+01 3.238982772827148438e+01 8.171074390411376953e-01 2.027887916564941406e+01 6.328795909881591797e+00 -2.877124845981597900e-01
1.129000000000000000e+03 7.038954162597656250e+01 3.245326995849609375e+01 2.181309461593627930e-01 1.993998527526855469e+01 6.047434806823730469e+00 -1.776514887809753418e+00
1.130000000000000000e+03 7.079203033447265625e+01 3.230663299560546875e+01 1.634751796722412109e+00 2.014319419860839844e+01 6.533383846282958984e+00 8.209530115127563477e-01
1.131000000000000000e+03 7.129585266113281250e+01 3.182586288452148438e+01 5.509983539581298828e+00 1.829852485656738281e+01 7.142552852630615234e+00 2.713575839996337891e+00
1.132000000000000000e+03 7.139541625976562500e+01 3.162740325927734375e+01 6.765161514282226562e+00 1.764612007141113281e+01 7.323384761810302734e+00 2.725551843643188477e+00
1.133000000000000000e+03 7.158430480957031250e+01 3.077736282348632812e+01 8.951865196228027344e+00 1.600222969055175781e+01 7.486228466033935547e+00 -3.541233837604522705e-01
1.134000000000000000e+03 7.114073181152343750e+01 2.974868202209472656e+01 4.079501628875732422e+00 1.918481254577636719e+01 6.979294776916503906e+00 -2.316759824752807617e+00
1.135000000000000000e+03 6.981290435791015625e+01 2.916267776489257812e+01 -2.367681115865707397e-01 1.644990730285644531e+01 4.863941669464111328e+00 5.435801982879638672e+00
1.136000000000000000e+03 6.716687011718750000e+01 2.923634338378906250e+01 -3.924210965633392334e-01 1.073405861854553223e+00 2.042954415082931519e-01 1.978186964988708496e+00
1.137000000000000000e+03 6.696985626220703125e+01 2.919469642639160156e+01 -6.568803191184997559e-01 9.764730930328369141e-01 9.587784111499786377e-02 1.825125575065612793e+00
1.138000000000000000e+03 6.536647033691406250e+01 2.903702735900878906e+01 -2.064149141311645508e+00 3.169238865375518799e-01 -5.241675972938537598e-01 7.824172973632812500e-01
1.139000000000000000e+03 6.473683929443359375e+01 2.907629585266113281e+01 -2.452279567718505859e+00 1.760616451501846313e-01 -6.828653812408447266e-01 4.946336150169372559e-01
1.140000000000000000e+03 6.411830902099609375e+01 2.910211563110351562e+01 -2.801377534866333008e+00 8.747405558824539185e-02 -8.141710162162780762e-01 3.035746216773986816e-01
1.141000000000000000e+03 6.044612503051757812e+01 2.922032356262207031e+01 -3.394110441207885742e+00 -1.243852358311414719e-02 -1.021964669227600098e+00 -1.785616017878055573e-02
1.142000000000000000e+03 6.120175552368164062e+01 2.919387626647949219e+01 -3.375036954879760742e+00 -5.862201564013957977e-03 -1.014269709587097168e+00 6.523719523102045059e-03
1.143000000000000000e+03 5.817448425292968750e+01 2.933372688293457031e+01 -3.307078838348388672e+00 -1.981577649712562561e-02 -9.980683922767639160e-01 -4.724108427762985229e-02
1.144000000000000000e+03 5.513772964477539062e+01 2.956906127929687500e+01 -3.002385377883911133e+00 -1.607134379446506500e-02 -9.055370092391967773e-01 -4.500405490398406982e-02
1.145000000000000000e+03 5.589789962768554688e+01 2.950504112243652344e+01 -3.095080852508544922e+00 -1.957395859062671661e-02 -9.343965053558349609e-01 -4.647919908165931702e-02
1.146000000000000000e+03 5.286255264282226562e+01 2.980998420715332031e+01 -2.702291250228881836e+00 -3.798242425546050072e-03 -8.118268847465515137e-01 -3.531331568956375122e-02
1.147000000000000000e+03 4.832541275024414062e+01 3.041077423095703125e+01 -2.022095918655395508e+00 1.146376319229602814e-02 -6.031896471977233887e-01 -2.583249658346176147e-02
1.148000000000000000e+03 4.983702087402343750e+01 3.019157218933105469e+01 -2.251148223876953125e+00 5.738412030041217804e-03 -6.736229658126831055e-01 -2.463494241237640381e-02
1.149000000000000000e+03 5.059375000000000000e+01 3.008984756469726562e+01 -2.366475582122802734e+00 5.568333901464939117e-03 -7.082721590995788574e-01 -2.559345960617065430e-02
1.150000000000000000e+03 4.682477569580078125e+01 3.065954399108886719e+01 -1.800857186317443848e+00 2.260564826428890228e-02 -5.334754586219787598e-01 -2.590016275644302368e-02
1.151000000000000000e+03 4.235255050659179688e+01 3.146180343627929688e+01 -1.178708553314208984e+00 3.136255219578742981e-02 -3.442037999629974365e-01 -3.946440294384956360e-02
1.152000000000000000e+03 4.309407043457031250e+01 3.132044410705566406e+01 -1.274130582809448242e+00 3.096011839807033539e-02 -3.729511201381683350e-01 -3.604971617460250854e-02
1.153000000000000000e+03 4.383828735351562500e+01 3.118431854248046875e+01 -1.373173594474792480e+00 2.922258153557777405e-02 -4.031853079795837402e-01 -3.217999637126922607e-02
1.154000000000000000e+03 4.087775039672851562e+01 3.175414848327636719e+01 -1.000074982643127441e+00 3.533745184540748596e-02 -2.894212603569030762e-01 -4.523278027772903442e-02
1.155000000000000000e+03 3.645671463012695312e+01 3.260582351684570312e+01 -5.490837693214416504e-01 2.778987959027290344e-02 -1.563881635665893555e-01 -6.089532002806663513e-02
1.156000000000000000e+03 3.935617828369140625e+01 3.136049270629882812e+01 -8.375174999237060547e-01 4.877448081970214844e-02 -2.366229146718978882e-01 -1.201057285070419312e-01
1.157000000000000000e+03 3.498498535156250000e+01 3.289890289306640625e+01 -4.297437071800231934e-01 2.512083575129508972e-02 -1.213868558406829834e-01 -6.150355935096740723e-02
1.158000000000000000e+03 3.424964904785156250e+01 3.304483795166015625e+01 -3.751255273818969727e-01 2.334212698042392731e-02 -1.055350154638290405e-01 -6.055375561118125916e-02
1.159000000000000000e+03 3.351657867431640625e+01 3.318833160400390625e+01 -3.250247538089752197e-01 2.079394459724426270e-02 -9.126923978328704834e-02 -5.922051891684532166e-02
1.160000000000000000e+03 3.059879112243652344e+01 3.373704528808593750e+01 -1.642767637968063354e-01 9.634002111852169037e-03 -4.639282822608947754e-02 -4.804367572069168091e-02
1.161000000000000000e+03 3.205593872070312500e+01 3.346981430053710938e+01 -2.365914136171340942e-01 1.550823636353015900e-02 -6.632495671510696411e-02 -5.470560491085052490e-02
1.162000000000000000e+03 2.914258766174316406e+01 3.397232818603515625e+01 -1.072893515229225159e-01 3.445560811087489128e-03 -3.115313686430454254e-02 -3.961610421538352966e-02
1.163000000000000000e+03 2.841441154479980469e+01 3.408230972290039062e+01 -8.416739106178283691e-02 7.157364743761718273e-04 -2.503549680113792419e-02 -3.480407223105430603e-02
1.164000000000000000e+03 2.769119644165039062e+01 3.417691802978515625e+01 -6.434307992458343506e-02 -2.275182632729411125e-03 -1.998547837138175964e-02 -2.954457700252532959e-02
1.165000000000000000e+03 2.470474433898925781e+01 3.441801834106445312e+01 -1.463086716830730438e-02 -8.177832700312137604e-03 -6.842609960585832596e-03 -6.860744673758745193e-03
1.166000000000000000e+03 2.624702072143554688e+01 3.432777023315429688e+01 -3.446288034319877625e-02 -6.881095934659242630e-03 -1.240319292992353439e-02 -1.821670681238174438e-02
1.167000000000000000e+03 2.202338218688964844e+01 3.431095886230468750e+01 -1.976228551939129829e-03 7.885978557169437408e-04 -3.562891797628253698e-04 4.993189591914415359e-03
1.168000000000000000e+03 2.112241172790527344e+01 3.337681961059570312e+01 -4.178510862402617931e-04 1.046808343380689621e-02 3.015069756656885147e-03 2.442257013171911240e-03
1.169000000000000000e+03 6.959887695312500000e+01 2.911757278442382812e+01 8.235386759042739868e-02 1.431875610351562500e+01 4.320333003997802734e+00 6.166870594024658203e+00
1.170000000000000000e+03 6.886145782470703125e+01 2.892919731140136719e+01 9.111128449440002441e-01 7.720094203948974609e+00 2.589362144470214844e+00 5.823392391204833984e+00
1.171000000000000000e+03 7.119461822509765625e+01 3.258502960205078125e+01 1.596750378608703613e+00 1.802035331726074219e+01 5.885131359100341797e+00 1.421890974044799805e+00
1.172000000000000000e+03 7.080610656738281250e+01 2.947607612609863281e+01 1.598198294639587402e+00 2.026606941223144531e+01 6.559280395507812500e+00 -7.736315727233886719e-01
1.173000000000000000e+03 7.041772460937500000e+01 2.928717803955078125e+01 -2.529379427433013916e-01 2.014362907409667969e+01 5.967207431793212891e+00 1.799966931343078613e+00
1.174000000000000000e+03 7.062055969238281250e+01 2.936187362670898438e+01 4.209193885326385498e-01 2.044463920593261719e+01 6.259667396545410156e+00 4.489520788192749023e-01
1.175000000000000000e+03 7.128877258300781250e+01 2.991862869262695312e+01 5.330681800842285156e+00 1.837216186523437500e+01 7.110853195190429688e+00 -2.589074850082397461e+00
1.176000000000000000e+03 7.153170776367187500e+01 3.032335090637207031e+01 7.540949821472167969e+00 1.656166267395019531e+01 7.230783462524414062e+00 -1.969202160835266113e+00
1.177000000000000000e+03 6.954101562500000000e+01 3.257315826416015625e+01 9.354573488235473633e-01 1.381677055358886719e+01 4.425668716430664062e+00 -6.041254043579101562e+00
1.178000000000000000e+03 7.195423126220703125e+01 3.132217216491699219e+01 7.077128887176513672e+00 1.488024044036865234e+01 6.587210655212402344e+00 1.426761269569396973e+00
1.179000000000000000e+03 7.098049163818359375e+01 2.959896087646484375e+01 2.671480655670166016e+00 1.992927932739257812e+01 6.780227661132812500e+00 -1.699142456054687500e+00
1.180000000000000000e+03 7.741407012939453125e+01 3.172865676879882812e+01 7.682730555534362793e-01 7.652156829833984375e+00 2.526129007339477539e+00 4.470760524272918701e-01
1.181000000000000000e+03 7.157926177978515625e+01 3.099701690673828125e+01 8.908804893493652344e+00 1.603780937194824219e+01 7.483984470367431641e+00 6.267119646072387695e-01
1.182000000000000000e+03 7.183747863769531250e+01 3.155966186523437500e+01 6.544587135314941406e+00 1.555125617980957031e+01 6.628752708435058594e+00 2.091582536697387695e+00
1.183000000000000000e+03 7.147661590576171875e+01 3.142142105102539062e+01 7.893394947052001953e+00 1.684925270080566406e+01 7.422793865203857422e+00 2.218436002731323242e+00
1.184000000000000000e+03 7.198701477050781250e+01 3.052321243286132812e+01 7.220805168151855469e+00 1.475890922546386719e+01 6.593914031982421875e+00 -9.799958467483520508e-01
1.185000000000000000e+03 7.199340057373046875e+01 3.026664733886718750e+01 6.455531597137451172e+00 1.489158248901367188e+01 6.404134273529052734e+00 -1.632288813591003418e+00
1.186000000000000000e+03 7.093960571289062500e+01 3.270819854736328125e+01 6.581333875656127930e-01 1.846048355102539062e+01 5.735585212707519531e+00 3.982204496860504150e-01
1.187000000000000000e+03 7.011694335937500000e+01 2.888593101501464844e+01 -7.936112284660339355e-01 1.698991584777832031e+01 4.858891487121582031e+00 3.737574338912963867e+00
1.188000000000000000e+03 7.141077423095703125e+01 2.948096084594726562e+01 2.968223094940185547e+00 1.764070510864257812e+01 6.182678699493408203e+00 -2.072402477264404297e+00
1.189000000000000000e+03 6.738560485839843750e+01 3.247484588623046875e+01 8.777970075607299805e-01 1.360532641410827637e+00 6.714988946914672852e-01 -1.900419473648071289e+00
1.190000000000000000e+03 6.718607330322265625e+01 3.251956558227539062e+01 6.786487698554992676e-01 1.201833486557006836e+00 5.641446709632873535e-01 -1.590769648551940918e+00
1.191000000000000000e+03 6.774607849121093750e+01 3.250935363769531250e+01 1.436969161033630371e+00 2.080487966537475586e+00 1.055237174034118652e+00 -2.690333366394042969e+00
1.192000000000000000e+03 6.857429504394531250e+01 3.252794647216796875e+01 2.386436939239501953e+00 5.283959388732910156e+00 2.301118850708007812e+00 -4.975253105163574219e+00
1.193000000000000000e+03 6.897389221191406250e+01 3.249786758422851562e+01 2.186497926712036133e+00 8.298591613769531250e+00 3.145526885986328125e+00 -5.963544845581054688e+00
1.194000000000000000e+03 6.916292572021484375e+01 3.248688125610351562e+01 1.996230959892272949e+00 9.725157737731933594e+00 3.516416549682617188e+00 -6.509748935699462891e+00
1.195000000000000000e+03 6.877576446533203125e+01 3.251371765136718750e+01 2.403189659118652344e+00 6.504282474517822266e+00 2.672241687774658203e+00 -5.460099220275878906e+00
1.196000000000000000e+03 6.815853881835937500e+01 3.253449630737304688e+01 1.938654065132141113e+00 3.249581336975097656e+00 1.556470632553100586e+00 -3.640423536300659180e+00
1.197000000000000000e+03 6.794892120361328125e+01 3.253319931030273438e+01 1.741136550903320312e+00 2.591373682022094727e+00 1.299753069877624512e+00 -3.184858322143554688e+00
1.198000000000000000e+03 6.694739532470703125e+01 3.255820846557617188e+01 3.997052609920501709e-01 9.777156114578247070e-01 4.132262766361236572e-01 -1.411855220794677734e+00
1.199000000000000000e+03 6.875634002685546875e+01 2.924163436889648438e+01 1.666504144668579102e+00 6.304544448852539062e+00 2.391314506530761719e+00 5.851154804229736328e+00
1.200000000000000000e+03 6.915303039550781250e+01 2.917449569702148438e+01 9.843518137931823730e-01 9.809350967407226562e+00 3.238110780715942383e+00 6.487608432769775391e+00
1.201000000000000000e+03 6.894644165039062500e+01 2.921120643615722656e+01 1.383155584335327148e+00 7.936442375183105469e+00 2.795879364013671875e+00 6.237007617950439453e+00
1.202000000000000000e+03 6.836513519287109375e+01 2.920364952087402344e+01 1.273454546928405762e+00 4.301497936248779297e+00 1.672485828399658203e+00 4.723520755767822266e+00
1.203000000000000000e+03 6.856975555419921875e+01 2.922132492065429688e+01 1.471301674842834473e+00 5.131242275238037109e+00 1.980763196945190430e+00 5.202062606811523438e+00
1.204000000000000000e+03 6.756979370117187500e+01 2.924345016479492188e+01 1.089858636260032654e-01 1.668358087539672852e+00 5.332031846046447754e-01 2.616898536682128906e+00
1.205000000000000000e+03 6.810927581787109375e+01 2.900559616088867188e+01 9.610266089439392090e-01 3.433488845825195312e+00 1.318354606628417969e+00 4.158038139343261719e+00
1.206000000000000000e+03 6.736669158935546875e+01 2.923374366760253906e+01 -2.519650757312774658e-01 1.255348920822143555e+00 3.010151386260986328e-01 2.175281763076782227e+00
1.207000000000000000e+03 2.035232734680175781e+01 3.786552810668945312e+01 2.706330815271940082e-05 -1.653081380936782807e-05 3.159748530379147269e-06 -4.390492540551349521e-05
1.208000000000000000e+03 1.420740222930908203e+01 1.885308623313903809e+00 1.028645874612266198e-05 3.561310677469009534e-06 4.154330781602766365e-06 -2.418105623291921802e-06
1.209000000000000000e+03 1.257510185241699219e+01 1.747927904129028320e+00 -7.916805770946666598e-06 -1.060123940987978131e-05 -5.555413736146874726e-06 5.682142273144563660e-06
1.210000000000000000e+03 6.652827453613281250e+01 3.305721664428710938e+01 4.812931418418884277e-01 1.260504007339477539e+00 5.225391387939453125e-01 -1.395091652870178223e+00
1.211000000000000000e+03 6.654500579833984375e+01 3.259078979492187500e+01 -4.867938905954360962e-02 7.287086248397827148e-01 2.040087580680847168e-01 -9.605510234832763672e-01
1.212000000000000000e+03 6.479003906250000000e+01 3.269593811035156250e+01 -9.023028016090393066e-01 2.418920397758483887e-01 -1.981232315301895142e-01 -9.858550131320953369e-02
1.213000000000000000e+03 6.417304229736328125e+01 3.403223800659179688e+01 1.181071531027555466e-02 5.269927382469177246e-01 1.616410315036773682e-01 -3.566983044147491455e-01
1.214000000000000000e+03 6.540296173095703125e+01 3.324493026733398438e+01 -4.066979512572288513e-02 6.263830065727233887e-01 1.757139712572097778e-01 -6.123041510581970215e-01
1.215000000000000000e+03 6.415150451660156250e+01 3.337741851806640625e+01 -4.595001637935638428e-01 3.305629789829254150e-01 -3.868115693330764771e-02 -1.470738500356674194e-01
1.216000000000000000e+03 6.341557312011718750e+01 2.854725265502929688e+01 -2.365504264831542969e+00 1.563404500484466553e-01 -6.627491712570190430e-01 3.414573371410369873e-01
1.217000000000000000e+03 6.469813537597656250e+01 2.846471405029296875e+01 -1.761199116706848145e+00 3.831693828105926514e-01 -4.134089052677154541e-01 7.761623859405517578e-01
1.218000000000000000e+03 6.618905639648437500e+01 2.851427459716796875e+01 -7.993929982185363770e-01 9.913021922111511230e-01 5.757275596261024475e-02 1.705747961997985840e+00
1.219000000000000000e+03 6.599269866943359375e+01 2.906051826477050781e+01 -1.651227474212646484e+00 4.367860555648803711e-01 -3.643324375152587891e-01 1.042652606964111328e+00
1.220000000000000000e+03 2.058959770202636719e+01 3.863617324829101562e+01 -2.960317942779511213e-04 1.281213772017508745e-04 -5.037312075728550553e-05 3.295965434517711401e-04
1.221000000000000000e+03 1.972045707702636719e+01 3.827346420288085938e+01 4.926617257297039032e-04 -3.010103828273713589e-04 5.749540287069976330e-05 -5.349726416170597076e-05
1.222000000000000000e+03 2.287992095947265625e+01 3.978654861450195312e+01 9.720624657347798347e-04 1.357813598588109016e-03 6.989627727307379246e-04 -9.733770857565104961e-04
1.223000000000000000e+03 6.050984859466552734e+00 1.888378143310546875e+00 1.272355530090862885e-05 1.640531809243839234e-05 8.738662472751457244e-06 -5.403922386904014274e-06
1.224000000000000000e+03 9.658198356628417969e+00 2.607712984085083008e+00 2.719945587159600109e-05 6.251620561670279130e-06 1.003532270260620862e-05 2.284227548443595879e-06
1.225000000000000000e+03 6.772184371948242188e+00 1.883973479270935059e+00 -1.395155413774773479e-05 -1.529092696728184819e-05 -8.772744877205695957e-06 3.082948524024686776e-06
1.226000000000000000e+03 7.452156066894531250e+00 2.651534557342529297e+00 -1.935038744704797864e-05 -1.682524271018337458e-05 -1.085268922906834632e-05 4.676484479659848148e-07
1.227000000000000000e+03 8.155310630798339844e+00 3.426812171936035156e+00 -2.143931305909063667e-05 -1.772435280145145953e-05 -1.174909903056686744e-05 -3.227199158573057503e-06
1.228000000000000000e+03 5.898310184478759766e+00 4.215997219085693359e+00 -1.499464906373759732e-05 -2.688898712221998721e-05 -1.256509131053462625e-05 1.188275655295001343e-05
1.229000000000000000e+03 1.673995494842529297e+00 7.694536685943603516e+00 -7.509457645937800407e-05 -2.912869831561692990e-06 -2.340223363717086613e-05 1.127839459513779730e-05
1.230000000000000000e+03 3.826206624507904053e-01 3.771743774414062500e+00 -7.938935596030205488e-05 -1.339352547802263871e-05 -2.783486343105323613e-05 -1.735062869556713849e-05
1.231000000000000000e+03 2.260760307312011719e+00 3.514352798461914062e+00 -3.184742672601714730e-05 -2.202990253863390535e-05 -1.616319968889001757e-05 3.192599979229271412e-05
1.232000000000000000e+03 3.834801018238067627e-01 2.093220949172973633e+00 2.664682688191533089e-05 1.532424903416540474e-05 1.259132295672316104e-05 -1.000666725303744897e-05
1.233000000000000000e+03 1.112559199333190918e+00 1.931127071380615234e+00 3.045982339244801551e-06 -2.428200059512164444e-05 -6.370805749611463398e-06 -3.979073710524971830e-07
1.234000000000000000e+03 1.113525581359863281e+01 1.816461324691772461e+00 -1.891942156362347305e-05 -5.515271368494722992e-06 -7.330407697736518458e-06 7.180015927588101476e-06
1.235000000000000000e+03 9.675723075866699219e+00 3.366255760192871094e+00 -3.423180532990954816e-05 -7.143068160075927153e-06 -1.241246172867249697e-05 -7.766602720948867500e-06
1.236000000000000000e+03 2.693934631347656250e+01 3.258016204833984375e+01 -8.801935613155364990e-02 -1.927571929991245270e-02 -3.218852356076240540e-02 -6.093485280871391296e-02
1.237000000000000000e+03 2.618929862976074219e+01 3.343622589111328125e+01 -5.363368242979049683e-02 -1.367402542382478714e-02 -2.019231207668781281e-02 -3.300275281071662903e-02
1.238000000000000000e+03 2.291397094726562500e+01 3.438090896606445312e+01 -3.597230883315205574e-03 -4.336684010922908783e-03 -2.380174351856112480e-03 3.318875562399625778e-03
1.239000000000000000e+03 2.381205940246582031e+01 3.114331626892089844e+01 -3.428609669208526611e-02 -4.336126148700714111e-02 -2.329420670866966248e-02 -4.324762150645256042e-02
1.240000000000000000e+03 2.766377067565917969e+01 3.336890029907226562e+01 -8.836598694324493408e-02 -7.213765289634466171e-03 -2.867392636835575104e-02 -4.809284582734107971e-02
1.241000000000000000e+03 2.911662292480468750e+01 3.321483612060546875e+01 -1.337264180183410645e-01 4.969185101799666882e-04 -3.996885195374488831e-02 -6.240067631006240845e-02
1.242000000000000000e+03 2.984235000610351562e+01 3.311374282836914062e+01 -1.614758074283599854e-01 4.631169140338897705e-03 -4.705339297652244568e-02 -6.923820823431015015e-02
1.243000000000000000e+03 2.839083099365234375e+01 3.330209732055664062e+01 -1.092347651720046997e-01 -3.650583093985915184e-03 -3.386560454964637756e-02 -5.505214259028434753e-02
1.244000000000000000e+03 5.354180908203125000e+01 3.455509948730468750e+01 -3.249227106571197510e-01 -1.165711581707000732e-01 -1.324481517076492310e-01 3.468556702136993408e-01
1.245000000000000000e+03 5.615716934204101562e+01 3.394770812988281250e+01 -5.832985639572143555e-01 -7.921876758337020874e-02 -1.987551897764205933e-01 4.221350848674774170e-01
1.246000000000000000e+03 5.642493438720703125e+01 3.502112197875976562e+01 -2.771693468093872070e-01 -9.984776377677917480e-02 -1.131051331758499146e-01 4.476352930068969727e-01
1.247000000000000000e+03 5.838492965698242188e+01 3.314137268066406250e+01 -1.005776643753051758e+00 -3.610914573073387146e-02 -3.125657141208648682e-01 4.292815029621124268e-01
1.248000000000000000e+03 5.767488479614257812e+01 3.426892852783203125e+01 -5.037612318992614746e-01 -8.006462454795837402e-02 -1.751477420330047607e-01 4.774197041988372803e-01
1.249000000000000000e+03 5.202864456176757812e+01 3.644690322875976562e+01 -1.605722308158874512e-02 -1.825043857097625732e-01 -5.956848338246345520e-02 3.043023645877838135e-01
1.250000000000000000e+03 5.143480682373046875e+01 3.524367141723632812e+01 -1.786055266857147217e-01 -1.330789327621459961e-01 -9.350533783435821533e-02 2.703672349452972412e-01
1.251000000000000000e+03 5.218183898925781250e+01 3.490784072875976562e+01 -2.424210906028747559e-01 -1.173358038067817688e-01 -1.079270690679550171e-01 2.955404222011566162e-01
1.252000000000000000e+03 5.285470199584960938e+01 3.461897659301757812e+01 -2.968919277191162109e-01 -1.341999024152755737e-01 -1.293275505304336548e-01 3.065796792507171631e-01
1.253000000000000000e+03 5.403374481201171875e+01 3.350204849243164062e+01 -5.713395476341247559e-01 -6.896363198757171631e-02 -1.920909583568572998e-01 3.131413459777832031e-01
1.254000000000000000e+03 5.494662857055664062e+01 3.416542816162109375e+01 -4.668651819229125977e-01 -1.031475663185119629e-01 -1.710038185119628906e-01 3.980061113834381104e-01
1.255000000000000000e+03 6.133520889282226562e+01 3.289118576049804688e+01 -1.289962053298950195e+00 1.149737183004617691e-02 -3.835393786430358887e-01 3.790613114833831787e-01
1.256000000000000000e+03 5.847928237915039062e+01 3.409973907470703125e+01 -5.885252356529235840e-01 -4.967856034636497498e-02 -1.914611309766769409e-01 4.755746424198150635e-01
1.257000000000000000e+03 5.922372436523437500e+01 3.395838928222656250e+01 -6.730762124061584473e-01 2.345358487218618393e-03 -2.012192457914352417e-01 4.644292891025543213e-01
1.258000000000000000e+03 6.066641235351562500e+01 3.377926635742187500e+01 -7.376380562782287598e-01 3.528179228305816650e-02 -2.107068747282028198e-01 4.081311225891113281e-01
1.259000000000000000e+03 6.138969802856445312e+01 3.369400024414062500e+01 -7.630991935729980469e-01 8.966010808944702148e-02 -2.020317316055297852e-01 3.279356062412261963e-01
1.260000000000000000e+03 6.349448013305664062e+01 3.344995498657226562e+01 -6.080542206764221191e-01 2.248283773660659790e-01 -1.149677485227584839e-01 3.548277541995048523e-02
1.261000000000000000e+03 6.280540847778320312e+01 3.352991867065429688e+01 -6.950731873512268066e-01 1.711568832397460938e-01 -1.571749001741409302e-01 1.651250123977661133e-01
1.262000000000000000e+03 4.594851684570312500e+01 3.466870880126953125e+01 -8.943441510200500488e-02 -4.883412271738052368e-02 -4.148055985569953918e-02 8.865106850862503052e-02
1.263000000000000000e+03 4.882450485229492188e+01 3.538496017456054688e+01 -1.094497516751289368e-01 -9.260430932044982910e-02 -6.061621755361557007e-02 1.865270435810089111e-01
1.264000000000000000e+03 3.275099563598632812e+01 3.262063217163085938e+01 -3.070642352104187012e-01 2.124437876045703888e-02 -8.574596047401428223e-02 -9.441393613815307617e-02
1.265000000000000000e+03 3.132699584960937500e+01 3.360787200927734375e+01 -1.983590275049209595e-01 1.276917383074760437e-02 -5.567695572972297668e-02 -5.155723169445991516e-02
1.266000000000000000e+03 3.129485702514648438e+01 3.288061904907226562e+01 -2.271748632192611694e-01 1.307749841362237930e-02 -6.422920525074005127e-02 -8.251906931400299072e-02
1.267000000000000000e+03 3.056849479675292969e+01 3.300133895874023438e+01 -1.927422136068344116e-01 8.996853604912757874e-03 -5.512360483407974243e-02 -7.607353478670120239e-02
1.268000000000000000e+03 4.614638900756835938e+01 3.552188491821289062e+01 -6.550462543964385986e-02 -6.151980534195899963e-02 -3.810732811689376831e-02 1.011615470051765442e-01
1.269000000000000000e+03 4.299053955078125000e+01 3.517248916625976562e+01 -3.738752752542495728e-02 -2.616634592413902283e-02 -1.906616240739822388e-02 4.210718348622322083e-02
1.270000000000000000e+03 1.178299331665039062e+01 -2.660531044006347656e+00 1.535660994704812765e-04 2.635695818753447384e-05 5.397691711550578475e-05 -1.220950798597186804e-04
1.271000000000000000e+03 1.030447387695312500e+01 -3.462282419204711914e+00 -6.599142943741753697e-05 -6.407186447177082300e-05 -3.901898890035226941e-05 -1.027097641781438142e-05
1.272000000000000000e+03 1.106387519836425781e+01 -2.662998914718627930e+00 -6.409466732293367386e-05 -6.534436397487297654e-05 -3.883170938934199512e-05 7.150982128223404288e-05
1.273000000000000000e+03 4.367435455322265625e+01 3.721010208129882812e+01 -4.757117945700883865e-03 -6.275644153356552124e-02 -2.025406807661056519e-02 6.170582398772239685e-02
1.274000000000000000e+03 4.302180480957031250e+01 3.600384902954101562e+01 -2.394315972924232483e-02 -3.806971386075019836e-02 -1.860386133193969727e-02 5.020770430564880371e-02
1.275000000000000000e+03 4.270409011840820312e+01 3.674830627441406250e+01 -1.427535340189933777e-02 -4.434419423341751099e-02 -1.758586429059505463e-02 4.756066575646400452e-02
1.276000000000000000e+03 4.158964920043945312e+01 3.536637115478515625e+01 -2.415754273533821106e-02 -1.509746443480253220e-02 -1.177650224417448044e-02 2.746576443314552307e-02
1.277000000000000000e+03 3.553178787231445312e+01 3.828690719604492188e+01 2.064826898276805878e-03 -7.481157779693603516e-03 -1.624899217858910561e-03 -3.636044275481253862e-04
1.278000000000000000e+03 3.734216690063476562e+01 3.912602233886718750e+01 -2.367989392951130867e-03 -1.385790668427944183e-02 -4.867768846452236176e-03 1.334562245756387711e-02
1.279000000000000000e+03 4.011248397827148438e+01 3.821142578125000000e+01 3.923679701983928680e-03 -3.888370841741561890e-02 -1.048800814896821976e-02 2.158767729997634888e-02
1.280000000000000000e+03 3.784231948852539062e+01 3.095454406738281250e+01 -7.008116841316223145e-01 5.139083787798881531e-02 -1.948262453079223633e-01 -1.780393719673156738e-01
1.281000000000000000e+03 3.788674163818359375e+01 3.163995170593261719e+01 -6.961895823478698730e-01 4.354025423526763916e-02 -1.957947909832000732e-01 -1.180908530950546265e-01
1.282000000000000000e+03 3.866809463500976562e+01 3.218266296386718750e+01 -7.563453316688537598e-01 3.307012468576431274e-02 -2.169825732707977295e-01 -5.313271284103393555e-02
1.283000000000000000e+03 4.008900451660156250e+01 3.121736145019531250e+01 -9.130699038505554199e-01 5.011360719799995422e-02 -2.588869035243988037e-01 -1.220169141888618469e-01
1.284000000000000000e+03 3.793096542358398438e+01 3.232243347167968750e+01 -6.829864978790283203e-01 3.068257309496402740e-02 -1.956911683082580566e-01 -5.645672976970672607e-02
1.285000000000000000e+03 3.862202453613281250e+01 3.150078773498535156e+01 -7.649838328361511230e-01 4.585593938827514648e-02 -2.157383710145950317e-01 -1.192116737365722656e-01
1.286000000000000000e+03 3.494689941406250000e+01 3.220591735839843750e+01 -4.535477459430694580e-01 3.211973607540130615e-02 -1.264283955097198486e-01 -1.087420061230659485e-01
1.287000000000000000e+03 3.348205184936523438e+01 3.248512268066406250e+01 -3.523890376091003418e-01 2.526113949716091156e-02 -9.813836961984634399e-02 -9.968579560518264771e-02
1.288000000000000000e+03 3.421408462524414062e+01 3.234688186645507812e+01 -4.014298319816589355e-01 2.871343679726123810e-02 -1.118149161338806152e-01 -1.044708415865898132e-01
1.289000000000000000e+03 4.014125061035156250e+01 3.189974212646484375e+01 -9.141705632209777832e-01 3.566337376832962036e-02 -2.635521590709686279e-01 -4.695985093712806702e-02
1.290000000000000000e+03 4.082249832153320312e+01 3.107114601135253906e+01 -9.904676079750061035e-01 5.088708177208900452e-02 -2.818741500377655029e-01 -1.237944215536117554e-01
1.291000000000000000e+03 4.303821182250976562e+01 3.063087844848632812e+01 -1.241752147674560547e+00 4.883161559700965881e-02 -3.578761518001556396e-01 -1.280792206525802612e-01
1.292000000000000000e+03 1.246541309356689453e+01 2.309885501861572266e+00 1.227725624630693346e-05 8.358244485862087458e-06 6.190650310600176454e-06 -1.012912889564177021e-05
1.293000000000000000e+03 1.040363025665283203e+01 2.571768283843994141e+00 -2.998993841174524277e-05 -1.650543140385707375e-06 -9.492144272371660918e-06 2.108870148731512018e-06
1.294000000000000000e+03 1.294361400604248047e+01 2.351794242858886719e+00 4.202233583328052191e-07 -1.826899460866115987e-05 -5.354630957299377769e-06 -2.710232138269930147e-06
1.295000000000000000e+03 1.337057209014892578e+01 2.532007455825805664e+00 1.501146743976278231e-05 1.393242564518004656e-05 8.683167834533378482e-06 2.067517016257625073e-05
1.296000000000000000e+03 4.378390502929687500e+01 3.048981094360351562e+01 -1.330957889556884766e+00 4.892315343022346497e-02 -3.846104145050048828e-01 -1.291352510452270508e-01
1.297000000000000000e+03 4.607512664794921875e+01 3.078595161437988281e+01 -1.688455939292907715e+00 2.638313919305801392e-02 -4.986218214035034180e-01 -2.510622702538967133e-02
1.298000000000000000e+03 4.458281707763671875e+01 3.104966545104980469e+01 -1.475452542304992676e+00 2.920546010136604309e-02 -4.338741302490234375e-01 -2.893435396254062653e-02
1.299000000000000000e+03 4.229542922973632812e+01 3.077582359313964844e+01 -1.154631137847900391e+00 5.015623942017555237e-02 -3.313424885272979736e-01 -1.271691322326660156e-01
1.300000000000000000e+03 3.322241592407226562e+01 3.719885253906250000e+01 2.391581423580646515e-03 1.863579964265227318e-03 1.276548486202955246e-03 -1.912830979563295841e-03
1.301000000000000000e+03 3.188963699340820312e+01 3.970487976074218750e+01 -3.796004224568605423e-03 9.624976082704961300e-04 -8.500519325025379658e-04 -2.824695315212011337e-03
1.302000000000000000e+03 4.678272247314453125e+01 2.995667648315429688e+01 -1.706751823425292969e+00 3.987199440598487854e-02 -5.000639557838439941e-01 -1.377878934144973755e-01
1.303000000000000000e+03 4.829521560668945312e+01 2.970858573913574219e+01 -1.899152517318725586e+00 3.028637170791625977e-02 -5.606598258018493652e-01 -1.424702852964401245e-01
1.304000000000000000e+03 4.527738952636718750e+01 3.021712684631347656e+01 -1.515800476074218750e+00 4.647503793239593506e-02 -4.407976269721984863e-01 -1.319711208343505859e-01
1.305000000000000000e+03 6.270998764038085938e+01 2.856818199157714844e+01 -2.569620847702026367e+00 9.349643439054489136e-02 -7.428373694419860840e-01 2.133134156465530396e-01
1.306000000000000000e+03 6.124278640747070312e+01 2.858266067504882812e+01 -2.803249835968017578e+00 3.163666650652885437e-02 -8.314839601516723633e-01 4.305274412035942078e-02
1.307000000000000000e+03 6.270150756835937500e+01 2.915401840209960938e+01 -3.226613998413085938e+00 1.643437333405017853e-02 -9.630539417266845703e-01 9.412387758493423462e-02
1.308000000000000000e+03 6.404036712646484375e+01 2.791679954528808594e+01 -1.508687615394592285e+00 4.456271827220916748e-01 -3.189181387424468994e-01 7.672560811042785645e-01
1.309000000000000000e+03 5.673269653320312500e+01 2.807532310485839844e+01 -2.439733982086181641e+00 7.918220013380050659e-03 -7.295446991920471191e-01 -1.830039918422698975e-01
1.310000000000000000e+03 5.893274307250976562e+01 2.929277801513671875e+01 -3.357149600982666016e+00 -2.020205743610858917e-02 -1.013205528259277344e+00 -4.134245589375495911e-02
1.311000000000000000e+03 5.437754821777343750e+01 2.964201736450195312e+01 -2.905711889266967773e+00 -1.476116292178630829e-02 -8.761419057846069336e-01 -4.250011965632438660e-02
1.312000000000000000e+03 5.058945846557617188e+01 2.938426208496093750e+01 -2.190583467483520508e+00 1.790446974337100983e-02 -6.518037319183349609e-01 -1.453511565923690796e-01
1.313000000000000000e+03 5.210543060302734375e+01 2.989664649963378906e+01 -2.590308904647827148e+00 7.707686745561659336e-04 -7.768614292144775391e-01 -3.075125254690647125e-02
1.314000000000000000e+03 4.982451629638671875e+01 2.948518943786621094e+01 -2.094505786895751953e+00 2.286375872790813446e-02 -6.214926242828369141e-01 -1.445310115814208984e-01
1.315000000000000000e+03 4.905868530273437500e+01 2.959299850463867188e+01 -1.997238993644714355e+00 2.514105662703514099e-02 -5.916293859481811523e-01 -1.434303522109985352e-01
1.316000000000000000e+03 5.516886901855468750e+01 2.888143539428710938e+01 -2.689330339431762695e+00 -8.273875340819358826e-03 -8.092812299728393555e-01 -1.442551761865615845e-01
1.317000000000000000e+03 5.596527099609375000e+01 2.812759971618652344e+01 -2.414400577545166016e+00 4.997234791517257690e-03 -7.228209972381591797e-01 -2.022667378187179565e-01
1.318000000000000000e+03 5.593452835083007812e+01 2.881903457641601562e+01 -2.750789165496826172e+00 -8.526714518666267395e-03 -8.277947306632995605e-01 -1.389709711074829102e-01
1.319000000000000000e+03 5.669705963134765625e+01 2.876157760620117188e+01 -2.802350997924804688e+00 -1.169185526669025421e-02 -8.442128896713256836e-01 -1.304184794425964355e-01
1.320000000000000000e+03 3.020708656311035156e+01 3.866142654418945312e+01 -1.049439772032201290e-03 1.030299972626380622e-04 -2.839229418896138668e-04 -3.038474824279546738e-03
1.321000000000000000e+03 3.153946304321289062e+01 3.798883056640625000e+01 -4.632800992112606764e-04 1.292483415454626083e-03 2.487610036041587591e-04 -2.258569933474063873e-03
1.322000000000000000e+03 2.980785179138183594e+01 3.776324844360351562e+01 2.056656870990991592e-03 1.393140060827136040e-03 1.034939079545438290e-03 -1.585743972100317478e-03
1.323000000000000000e+03 3.054634094238281250e+01 3.757715606689453125e+01 6.932042306289076805e-04 2.612241405586246401e-05 2.157979906769469380e-04 -1.887596095912158489e-03
1.324000000000000000e+03 8.069966316223144531e+00 -1.871241331100463867e+00 2.552438127167988569e-05 5.335709283826872706e-05 2.366444277868140489e-05 1.418969986843876541e-05
1.325000000000000000e+03 9.577850341796875000e+00 -2.649682998657226562e+00 -5.387051714933477342e-05 -4.504570097196847200e-05 -2.967486580018885434e-05 7.410840680677210912e-06
1.326000000000000000e+03 7.320429325103759766e+00 -2.602805376052856445e+00 2.944039079011417925e-05 7.104060932761058211e-05 3.014429967151954770e-05 2.421889257675502449e-05
1.327000000000000000e+03 8.069934844970703125e+00 -2.623127698898315430e+00 -3.985736111644655466e-05 -5.410526500781998038e-05 -2.818878783727996051e-05 -1.304355009779101238e-05
1.328000000000000000e+03 8.823930740356445312e+00 -2.639163017272949219e+00 4.870928751188330352e-05 4.111639282200485468e-05 2.694770410016644746e-05 7.433428436343092471e-06
1.329000000000000000e+03 6.547844409942626953e+00 -1.859596371650695801e+00 3.985370494774542749e-05 8.040043030632659793e-05 3.607624239521101117e-05 4.190890103927813470e-05
1.330000000000000000e+03 6.578983783721923828e+00 -2.583405971527099609e+00 -3.169397314195521176e-05 -9.290629532188177109e-05 -3.738007944775745273e-05 -5.307629908202216029e-05
1.331000000000000000e+03 5.116489410400390625e+00 -2.609566211700439453e+00 -1.451389107387512922e-04 -9.305639832746237516e-05 -7.145859126467257738e-05 -1.340596936643123627e-04
1.332000000000000000e+03 1.590111613273620605e+00 -7.862204551696777344e+00 -3.214979005861096084e-05 2.081790171359898522e-06 -9.020399375003762543e-06 -6.186452083056792617e-05
1.333000000000000000e+03 3.920740604400634766e+00 -3.607582569122314453e+00 3.470082301646471024e-04 -3.312566832391894422e-06 1.031087012961506844e-04 6.980181206017732620e-05
1.334000000000000000e+03 4.611291885375976562e-01 -3.620816707611083984e+00 1.546826097182929516e-04 -1.763538057275582105e-05 4.111416637897491455e-05 -4.387444732856238261e-06
1.335000000000000000e+03 4.065155982971191406e-01 -2.205354452133178711e+00 -1.586811704328283668e-04 -8.209415682358667254e-06 -5.006717765354551375e-05 -1.108623928303131834e-05
1.336000000000000000e+03 4.996547996997833252e-01 -5.044229507446289062e+00 -1.325791090494021773e-04 -9.236601727025117725e-06 -4.254471423337236047e-05 2.081221100524999201e-05
1.337000000000000000e+03 2.607076644897460938e+01 3.848916625976562500e+01 -8.157027186825871468e-04 -2.199794835178181529e-04 -3.107046650256961584e-04 -3.245505504310131073e-04
1.338000000000000000e+03 2.675871849060058594e+01 3.814699554443359375e+01 9.218649938702583313e-04 1.551392837427556515e-03 7.419773610308766365e-04 -9.388056350871920586e-04
1.339000000000000000e+03 2.836386108398437500e+01 3.900226211547851562e+01 4.069191345479339361e-04 1.311502419412136078e-03 5.155264516361057758e-04 -1.146293012425303459e-03
1.340000000000000000e+03 2.932481193542480469e+01 3.892375564575195312e+01 6.117176380939781666e-04 2.846328075975179672e-03 1.037413720041513443e-03 -1.307840575464069843e-03
1.341000000000000000e+03 2.460842895507812500e+01 4.118560028076171875e+01 -3.487371606752276421e-03 1.028337501338683069e-04 -1.015361398458480835e-03 -2.850621240213513374e-05
1.342000000000000000e+03 2.395907020568847656e+01 3.997494125366210938e+01 8.628971991129219532e-04 -5.391276790760457516e-04 9.713084727991372347e-05 -1.387387746945023537e-04
1.343000000000000000e+03 2.736505126953125000e+01 3.869482421875000000e+01 -6.804970325902104378e-04 -1.767893554642796516e-04 -2.571859222371131182e-04 -4.894190351478755474e-04
1.344000000000000000e+03 2.523198509216308594e+01 4.005745315551757812e+01 -5.217292709858156741e-05 8.361422078451141715e-05 9.432388651475775987e-06 -7.284753373824059963e-04
1.345000000000000000e+03 2.200676155090332031e+01 3.330605316162109375e+01 -4.226466175168752670e-03 -1.808616332709789276e-03 -1.810524729080498219e-03 1.698051695711910725e-03
1.346000000000000000e+03 2.541946601867675781e+01 3.247764968872070312e+01 -5.368156731128692627e-02 -2.709428779780864716e-02 -2.423275634646415710e-02 -4.267213866114616394e-02
1.347000000000000000e+03 2.060478019714355469e+01 3.400384521484375000e+01 -4.093304451089352369e-04 1.438622735440731049e-02 4.193068947643041611e-03 2.631573588587343693e-04
1.348000000000000000e+03 2.094762420654296875e+01 3.233571624755859375e+01 -1.179827842861413956e-03 1.421949826180934906e-02 3.911900799721479416e-03 -4.601721884682774544e-04
1.349000000000000000e+03 2.012199783325195312e+01 3.838677597045898438e+01 3.025557962246239185e-04 2.998789423145353794e-04 1.807304215617477894e-04 7.067277329042553902e-05
1.350000000000000000e+03 2.277978897094726562e+01 -4.127539443969726562e+01 3.974031507968902588e-01 -2.002437591552734375e+00 -4.815103709697723389e-01 7.494304329156875610e-02
1.351000000000000000e+03 1.904938507080078125e+01 -3.772373580932617188e+01 -3.949496448040008545e-01 -2.380261182785034180e+00 -8.325632214546203613e-01 -7.027022242546081543e-01
1.352000000000000000e+03 1.312350273132324219e+01 -3.727242279052734375e+01 9.291537851095199585e-02 -2.799499221146106720e-02 1.947611570358276367e-02 -2.692839875817298889e-02
1.353000000000000000e+03 1.354547023773193359e+01 2.600318145751953125e+01 -2.236867294413968921e-04 2.795235332087031566e-06 -6.626745016546919942e-05 2.553498597990255803e-05
1.354000000000000000e+03 1.211564159393310547e+01 2.486239051818847656e+01 -1.996514911297708750e-04 2.335951194254448637e-06 -5.919465911574661732e-05 2.202395080530550331e-05
1.355000000000000000e+03 1.428295516967773438e+01 3.165166473388671875e+01 -3.358239773660898209e-04 2.397382377239409834e-05 -9.355504880659282207e-05 5.143473754287697375e-05
1.356000000000000000e+03 1.674416732788085938e+01 3.533713912963867188e+01 -4.093483439646661282e-04 -3.102612754446454346e-05 -1.321123418165370822e-04 1.012956272461451590e-04
1.357000000000000000e+03 1.706641006469726562e+01 3.768685150146484375e+01 -1.036737696267664433e-03 -1.494131429353728890e-04 -3.558452590368688107e-04 1.339258596999570727e-04
1.358000000000000000e+03 1.487489509582519531e+01 3.449497604370117188e+01 -3.844244347419589758e-04 -7.318019925151020288e-06 -1.175227371277287602e-04 1.327656646026298404e-04
1.359000000000000000e+03 1.444583034515380859e+01 1.882840728759765625e+01 -1.507423730799928308e-04 1.360804276373528410e-06 -4.481447103898972273e-05 1.557732866785954684e-05
1.360000000000000000e+03 1.313894462585449219e+01 1.899410247802734375e+01 1.517938217148184776e-04 -7.553339401056291535e-06 4.327214628574438393e-05 -1.809098284866195172e-05
1.361000000000000000e+03 1.470190143585205078e+01 2.438941955566406250e+01 -2.030757605098187923e-04 -1.397548430759343319e-06 -6.134199065854772925e-05 2.552963087509851903e-05
1.362000000000000000e+03 1.385501670837402344e+01 2.883125114440917969e+01 -2.684954670257866383e-04 4.759619514516089112e-06 -7.912075670901685953e-05 2.967669570352882147e-05
1.363000000000000000e+03 1.368808555603027344e+01 2.741432762145996094e+01 2.439332165522500873e-04 -6.163105808809632435e-06 7.133103645173832774e-05 -2.852034413081128150e-05
1.364000000000000000e+03 1.405104541778564453e+01 3.024150657653808594e+01 3.039139555767178535e-04 -1.045659610099392012e-05 8.803720993455499411e-05 -3.395779640413820744e-05
1.365000000000000000e+03 1.305460739135742188e+01 1.757573699951171875e+01 -1.468437840230762959e-04 1.184749544336227700e-05 -4.049888593726791441e-05 1.345030705124372616e-05
1.366000000000000000e+03 1.334379291534423828e+01 1.179422378540039062e+01 -9.355564543511718512e-05 -3.338006536068860441e-06 -2.906809640990104526e-05 -1.753588730935007334e-05
1.367000000000000000e+03 1.293117523193359375e+01 1.461375522613525391e+01 -1.242822327185422182e-04 4.177729351795278490e-06 -3.603134973673149943e-05 -1.377240732836071402e-05
1.368000000000000000e+03 1.461917686462402344e+01 5.022655963897705078e+00 -4.943562817061319947e-05 -2.918911150118219666e-06 -1.570636050018947572e-05 7.946674486447591335e-06
1.369000000000000000e+03 1.184967803955078125e+01 2.411859750747680664e+00 -1.998251900658942759e-05 -3.967730663134716451e-06 -7.185074991866713390e-06 1.096540017897496000e-05
1.370000000000000000e+03 1.050526714324951172e+01 4.092872619628906250e+00 -4.883099245489574969e-05 -2.506723149053868838e-06 -1.540131415822543204e-05 -1.070955568138742819e-05
1.371000000000000000e+03 1.355821895599365234e+01 7.811831474304199219e+00 6.257908535189926624e-05 5.076516572444234043e-06 2.029668212344404310e-05 4.482087661017430946e-06
1.372000000000000000e+03 1.318633270263671875e+01 1.316414356231689453e+01 1.089796278392896056e-04 -4.091322352905990556e-06 3.146649032714776695e-05 2.104968552885111421e-05
1.373000000000000000e+03 7.791144561767578125e+01 -2.921512794494628906e+01 2.069924026727676392e-03 6.822777748107910156e+00 2.047454357147216797e+00 1.241997815668582916e-02
1.374000000000000000e+03 7.931580352783203125e+01 -2.786015892028808594e+01 3.423430316615849733e-04 7.050493717193603516e+00 2.115250825881958008e+00 1.776711200363934040e-03
1.375000000000000000e+03 7.698870086669921875e+01 -3.620246124267578125e+01 -5.669929669238626957e-04 6.671166419982910156e+00 2.001179695129394531e+00 1.738494634628295898e-02
1.376000000000000000e+03 7.907758331298828125e+01 -3.484110641479492188e+01 -9.508268907666206360e-03 6.975047588348388672e+00 2.089661836624145508e+00 1.296336110681295395e-02
1.377000000000000000e+03 7.936094665527343750e+01 3.608494949340820312e+01 1.138565130531787872e-03 7.552591800689697266e+00 2.266119241714477539e+00 4.401605129241943359e-01
1.378000000000000000e+03 7.934388732910156250e+01 -2.089756774902343750e+01 1.232462935149669647e-03 7.142158508300781250e+00 2.143017292022705078e+00 3.992794547230005264e-03
1.379000000000000000e+03 7.796994781494140625e+01 -2.506274032592773438e+01 2.496307715773582458e-03 6.870352745056152344e+00 2.061854839324951172e+00 1.808402314782142639e-02
1.380000000000000000e+03 7.795644378662109375e+01 -2.644760322570800781e+01 2.747713006101548672e-04 6.855652332305908203e+00 2.056778192520141602e+00 1.377088855952024460e-02
1.381000000000000000e+03 7.769982910156250000e+01 -3.198226928710937500e+01 2.186597324907779694e-03 6.763296127319335938e+00 2.029644727706909180e+00 7.043931633234024048e-03
1.382000000000000000e+03 7.927364349365234375e+01 -3.064677429199218750e+01 4.674485418945550919e-03 7.021606922149658203e+00 2.107884407043457031e+00 1.579198171384632587e-03
1.383000000000000000e+03 7.748120117187500000e+01 -3.337707901000976562e+01 -1.259562466293573380e-02 6.726650714874267578e+00 2.014216661453247070e+00 1.051017548888921738e-02
1.384000000000000000e+03 7.495379638671875000e+01 -3.793136978149414062e+01 -6.739210337400436401e-03 6.368073463439941406e+00 1.908400297164916992e+00 -1.205477770417928696e-02
1.385000000000000000e+03 7.605986022949218750e+01 -4.070413589477539062e+01 1.595526188611984253e-02 6.616771221160888672e+00 1.989817976951599121e+00 -5.111338198184967041e-02
1.386000000000000000e+03 7.826471710205078125e+01 1.533112716674804688e+01 -3.809313848614692688e-02 9.250479698181152344e+00 2.763715982437133789e+00 9.691008925437927246e-02
1.387000000000000000e+03 7.942339324951171875e+01 1.532829570770263672e+01 -1.059021055698394775e-02 9.673331260681152344e+00 2.898822307586669922e+00 1.094025280326604843e-02
1.388000000000000000e+03 7.840635681152343750e+01 2.087194442749023438e+01 -1.154918223619461060e-01 9.252407073974609375e+00 2.741074562072753906e+00 -3.280473947525024414e-01
1.389000000000000000e+03 7.947954559326171875e+01 2.227942276000976562e+01 -2.033903263509273529e-02 9.070285797119140625e+00 2.714983940124511719e+00 -2.170350700616836548e-01
1.390000000000000000e+03 7.845932006835937500e+01 3.184759330749511719e+01 2.922900617122650146e-01 6.451567173004150391e+00 2.023157119750976562e+00 3.322969079017639160e-01
1.391000000000000000e+03 7.847924041748046875e+01 2.773738098144531250e+01 1.026931032538414001e-01 7.045784473419189453e+00 2.144543409347534180e+00 -8.588879704475402832e-01
1.392000000000000000e+03 7.949320983886718750e+01 2.782672309875488281e+01 2.479650638997554779e-02 5.881855010986328125e+00 1.771995544433593750e+00 -3.351257443428039551e-01
1.393000000000000000e+03 7.848152923583984375e+01 2.498587989807128906e+01 -9.679224342107772827e-02 8.190449714660644531e+00 2.428097248077392578e+00 -8.546941280364990234e-01
1.394000000000000000e+03 7.713094329833984375e+01 1.673475265502929688e+01 -1.265780180692672729e-01 8.986027717590332031e+00 2.657835006713867188e+00 9.679820388555526733e-02
1.395000000000000000e+03 7.829106903076171875e+01 1.672471237182617188e+01 -5.609078705310821533e-02 9.340494155883789062e+00 2.785320997238159180e+00 3.117120638489723206e-02
1.396000000000000000e+03 7.824382781982421875e+01 1.392864131927490234e+01 -2.721189521253108978e-02 9.129395484924316406e+00 2.730655193328857422e+00 1.415967345237731934e-01
1.397000000000000000e+03 7.702416229248046875e+01 1.250690364837646484e+01 -2.952393516898155212e-02 8.589814186096191406e+00 2.568087100982666016e+00 2.883842289447784424e-01
1.398000000000000000e+03 7.823194122314453125e+01 9.740918159484863281e+00 -5.369606660678982735e-04 8.697510719299316406e+00 2.609092235565185547e+00 1.836701780557632446e-01
1.399000000000000000e+03 7.941202545166015625e+01 9.751480102539062500e+00 -1.904819393530488014e-03 9.059602737426757812e+00 2.717309236526489258e+00 4.676771908998489380e-02
1.400000000000000000e+03 7.934942626953125000e+01 -1.950269889831542969e+01 -6.934470729902386665e-05 7.167874813079833984e+00 2.150341510772705078e+00 5.190043244510889053e-03
1.401000000000000000e+03 7.800778961181640625e+01 -2.227750396728515625e+01 2.451778156682848930e-03 6.912512302398681641e+00 2.074489116668701172e+00 2.243885025382041931e-02
1.402000000000000000e+03 7.808271026611328125e+01 -1.529507923126220703e+01 2.380841411650180817e-03 7.061538219451904297e+00 2.119175672531127930e+00 4.207544773817062378e-02
1.403000000000000000e+03 7.936036682128906250e+01 -1.392315292358398438e+01 1.997759536607190967e-04 7.306615829467773438e+00 2.192044496536254883e+00 9.395749308168888092e-03
1.404000000000000000e+03 7.805485534667968750e+01 -8.307695388793945312e+00 7.043145596981048584e-03 7.291090011596679688e+00 2.189440011978149414e+00 7.487423717975616455e-02
1.405000000000000000e+03 7.935544586181640625e+01 -6.952119827270507812e+00 2.852196106687188148e-03 7.582065582275390625e+00 2.275475263595581055e+00 1.964017190039157867e-02
1.406000000000000000e+03 7.814427947998046875e+01 2.061699330806732178e-02 8.614934049546718597e-03 7.774227619171142578e+00 2.334852695465087891e+00 1.268386393785476685e-01
1.407000000000000000e+03 7.938769531250000000e+01 1.394898533821105957e+00 1.913351239636540413e-03 8.148337364196777344e+00 2.445075273513793945e+00 3.584727272391319275e-02
1.408000000000000000e+03 7.823588562011718750e+01 8.345078468322753906e+00 7.884121150709688663e-04 8.549169540405273438e+00 2.564987421035766602e+00 1.806499511003494263e-01
1.409000000000000000e+03 7.847080993652343750e+01 2.912013053894042969e+01 2.521123290061950684e-01 6.602056026458740234e+00 2.056250572204589844e+00 -5.914893746376037598e-01
1.410000000000000000e+03 7.774616241455078125e+01 3.704763031005859375e+01 -1.990233808755874634e-01 8.909489631652832031e+00 2.613139867782592773e+00 1.104418992996215820e+00
1.411000000000000000e+03 7.653058624267578125e+01 3.638149261474609375e+01 -3.129316568374633789e-01 9.478467941284179688e+00 2.749660730361938477e+00 1.447103023529052734e+00
1.412000000000000000e+03 7.816474914550781250e+01 1.401543140411376953e+00 7.456933613866567612e-03 7.882975578308105469e+00 2.367129802703857422e+00 1.377181112766265869e-01
1.413000000000000000e+03 7.818679046630859375e+01 2.782923221588134766e+00 7.973151281476020813e-03 8.000322341918945312e+00 2.402488708496093750e+00 1.471896767616271973e-01
1.414000000000000000e+03 7.690864562988281250e+01 4.518283903598785400e-02 2.056220918893814087e-02 7.505719661712646484e+00 2.257884502410888672e+00 2.129448354244232178e-01
1.415000000000000000e+03 7.807627105712890625e+01 -4.143602848052978516e+00 5.563788581639528275e-03 7.497476577758789062e+00 2.250912189483642578e+00 1.002479866147041321e-01
1.416000000000000000e+03 7.936802673339843750e+01 -2.778169631958007812e+00 2.879192652471829206e-05 7.826730728149414062e+00 2.348027944564819336e+00 2.745947055518627167e-02
1.417000000000000000e+03 7.805871582031250000e+01 -5.530524253845214844e+00 7.699182257056236267e-03 7.420957088470458984e+00 2.228596925735473633e+00 9.130730479955673218e-02
1.418000000000000000e+03 7.806949615478515625e+01 -1.109844207763671875e+01 5.431383382529020309e-03 7.185599327087402344e+00 2.157309055328369141e+00 6.027892976999282837e-02
1.419000000000000000e+03 7.935607147216796875e+01 -9.737762451171875000e+00 2.236769767478108406e-03 7.454806327819824219e+00 2.237112998962402344e+00 1.518079917877912521e-02
1.420000000000000000e+03 7.807666778564453125e+01 -1.249659824371337891e+01 4.001495894044637680e-03 7.139765262603759766e+00 2.143130064010620117e+00 5.259292200207710266e-02
1.421000000000000000e+03 7.806250762939453125e+01 -1.808731079101562500e+01 2.309439238160848618e-03 6.993849754333496094e+00 2.098847627639770508e+00 3.391171991825103760e-02
1.422000000000000000e+03 7.935871887207031250e+01 -1.671392822265625000e+01 -6.837530963821336627e-05 7.230274200439453125e+00 2.169061660766601562e+00 7.163460366427898407e-03
1.423000000000000000e+03 7.804494476318359375e+01 -1.948237037658691406e+01 3.477451391518115997e-03 6.963809490203857422e+00 2.090186119079589844e+00 3.016283363103866577e-02
1.424000000000000000e+03 2.207489204406738281e+01 1.655924320220947266e+00 5.639901850372552872e-03 -1.864507794380187988e+00 -5.576604008674621582e-01 -1.769154220819473267e-01
1.425000000000000000e+03 2.336033439636230469e+01 1.790428161621093750e+00 -1.054819673299789429e-02 -1.674535274505615234e+00 -5.055250525474548340e-01 -2.308934181928634644e-01
1.426000000000000000e+03 2.018944740295410156e+01 -1.390549373626708984e+01 -6.254336982965469360e-02 -2.760815620422363281e+00 -8.470076918601989746e-01 -1.645126342773437500e-01
1.427000000000000000e+03 1.383836746215820312e+01 -3.876590347290039062e+01 6.788121908903121948e-02 -2.261926978826522827e-02 1.357858534902334213e-02 6.525725871324539185e-02
1.428000000000000000e+03 1.984401702880859375e+01 -1.811487770080566406e+01 2.130537480115890503e-02 -2.423071384429931641e+00 -7.205297946929931641e-01 -1.573906093835830688e-01
1.429000000000000000e+03 1.115777111053466797e+01 -3.256160354614257812e+01 1.324546802788972855e-02 -4.188741091638803482e-03 2.717018127441406250e-03 -7.378967944532632828e-03
1.430000000000000000e+03 2.038176536560058594e+01 -5.456464290618896484e+00 2.481276355683803558e-02 -2.179647207260131836e+00 -6.464503407478332520e-01 -1.109594330191612244e-01
1.431000000000000000e+03 2.200089645385742188e+01 2.599500715732574463e-01 2.412754669785499573e-02 -1.925326466560363770e+00 -5.703597068786621094e-01 -2.081340402364730835e-01
1.432000000000000000e+03 2.166839027404785156e+01 -8.138038635253906250e+00 -4.659647587686777115e-03 -2.197236537933349609e+00 -6.605688333511352539e-01 -1.581602245569229126e-01
1.433000000000000000e+03 2.122783660888671875e+01 -1.946996498107910156e+01 4.719301313161849976e-02 -2.341274499893188477e+00 -6.882244348526000977e-01 -1.447551995515823364e-01
1.434000000000000000e+03 2.173803901672363281e+01 -5.344849586486816406e+00 4.439067095518112183e-02 -2.098542928695678711e+00 -6.162456870079040527e-01 -1.598677784204483032e-01
1.435000000000000000e+03 2.147289657592773438e+01 -1.523620414733886719e+01 -4.396642744541168213e-02 -2.357146501541137695e+00 -7.203338742256164551e-01 -1.168670505285263062e-01
1.436000000000000000e+03 2.154237174987792969e+01 -1.381676483154296875e+01 -6.665601581335067749e-02 -2.323527574539184570e+00 -7.170550227165222168e-01 -1.534139513969421387e-01
1.437000000000000000e+03 2.180010223388671875e+01 -3.953283309936523438e+00 1.526947692036628723e-02 -2.056226015090942383e+00 -6.122869849205017090e-01 -1.428991854190826416e-01
1.438000000000000000e+03 2.227018928527832031e+01 7.329989433288574219e+00 -1.106705144047737122e-02 -1.543966889381408691e+00 -4.665101766586303711e-01 -1.799751818180084229e-01
1.439000000000000000e+03 2.402329254150390625e+01 -2.216334915161132812e+01 3.919889405369758606e-02 -1.929847240447998047e+00 -5.671945214271545410e-01 -1.130301803350448608e-01
1.440000000000000000e+03 1.170853424072265625e+01 -2.851458740234375000e+01 7.245628512464463711e-04 1.627999357879161835e-03 7.057686452753841877e-04 -2.409760141745209694e-03
1.441000000000000000e+03 2.215106964111328125e+01 3.059589862823486328e+00 -4.522689431905746460e-02 -1.799211621284484863e+00 -5.533315539360046387e-01 -1.791973412036895752e-01
1.442000000000000000e+03 1.453635215759277344e+01 -2.488846015930175781e+01 -1.444996451027691364e-04 -8.188924985006451607e-04 -2.890176547225564718e-04 -2.241481888631824404e-05
1.443000000000000000e+03 1.231498050689697266e+01 -2.561171722412109375e+01 6.900116568431258202e-04 9.789927862584590912e-04 5.007013678550720215e-04 6.929145893082022667e-04
1.444000000000000000e+03 2.119401741027832031e+01 -2.660872840881347656e+01 -4.927212721668183804e-04 -2.429279327392578125e+00 -7.289316058158874512e-01 -7.946899533271789551e-02
1.445000000000000000e+03 2.096502494812011719e+01 2.684715652465820312e+01 -2.171134809032082558e-03 -9.897144138813018799e-02 -3.034277260303497314e-02 -2.117205038666725159e-02
1.446000000000000000e+03 2.542817115783691406e+01 3.343653488159179688e+01 -4.040819033980369568e-02 -1.575480215251445770e-02 -1.684889756143093109e-02 -2.537388540804386139e-02
1.447000000000000000e+03 2.104880332946777344e+01 1.141185569763183594e+01 -5.473811761476099491e-04 -1.287752866744995117e+00 -3.864900767803192139e-01 -5.427816510200500488e-02
1.448000000000000000e+03 2.092780494689941406e+01 3.100998115539550781e+01 -1.802548416890203953e-03 7.226800546050071716e-03 1.627275603823363781e-03 -4.687391687184572220e-03
1.449000000000000000e+03 1.483028697967529297e+01 -2.151545763015747070e+00 1.625491713639348745e-04 -8.532722131349146366e-05 2.316658537893090397e-05 1.277162082260474563e-04
1.450000000000000000e+03 2.164619827270507812e+01 -9.549036026000976562e+00 -2.612490206956863403e-02 -2.235757350921630859e+00 -6.785646677017211914e-01 -1.352529525756835938e-01
1.451000000000000000e+03 2.169597434997558594e+01 -6.737305164337158203e+00 3.140191361308097839e-02 -2.134821414947509766e+00 -6.310258507728576660e-01 -1.604433208703994751e-01
1.452000000000000000e+03 2.227890396118164062e+01 1.016265964508056641e+01 -2.110620727762579918e-03 -1.299926996231079102e+00 -3.906112909317016602e-01 -1.654446721076965332e-01
1.453000000000000000e+03 2.341087722778320312e+01 1.736014366149902344e+01 -8.798108436167240143e-03 -6.821439862251281738e-01 -2.072826325893402100e-01 -2.346371561288833618e-01
1.454000000000000000e+03 2.099987602233886719e+01 2.264623832702636719e+01 -1.792777678929269314e-03 -3.314413726329803467e-01 -9.997024387121200562e-02 -3.721678629517555237e-02
1.455000000000000000e+03 2.312691879272460938e+01 2.563117599487304688e+01 -2.367681264877319336e-02 -2.024955302476882935e-01 -6.785169988870620728e-02 -1.259116679430007935e-01
1.456000000000000000e+03 2.101957511901855469e+01 1.984451675415039062e+01 -1.332381856627762318e-03 -5.396045446395874023e-01 -1.622810661792755127e-01 -4.505578055977821350e-02
1.457000000000000000e+03 2.218589210510253906e+01 1.999422073364257812e+01 -5.447831004858016968e-03 -5.224410295486450195e-01 -1.583666503429412842e-01 -1.323491483926773071e-01
1.458000000000000000e+03 2.334331512451171875e+01 2.014060783386230469e+01 -1.478534378111362457e-02 -4.994100034236907959e-01 -1.542586088180541992e-01 -2.091861963272094727e-01
1.459000000000000000e+03 2.222568321228027344e+01 1.719897079467773438e+01 -2.904496854171156883e-03 -7.298957705497741699e-01 -2.198400795459747314e-01 -1.483855545520782471e-01
1.460000000000000000e+03 2.220756530761718750e+01 1.859867286682128906e+01 -4.541205242276191711e-03 -6.237511038780212402e-01 -1.884876936674118042e-01 -1.415504813194274902e-01
1.461000000000000000e+03 2.199250221252441406e+01 2.832114219665527344e+01 -9.427309967577457428e-03 -8.104724436998367310e-02 -2.714236639440059662e-02 -4.572656378149986267e-02
1.462000000000000000e+03 2.318628501892089844e+01 2.426361465454101562e+01 -2.180681936442852020e-02 -2.659397423267364502e-01 -8.632396906614303589e-02 -1.493189334869384766e-01
1.463000000000000000e+03 2.225559997558593750e+01 1.439178276062011719e+01 -8.557396358810365200e-04 -9.520730972290039062e-01 -2.858786582946777344e-01 -1.576139181852340698e-01
1.464000000000000000e+03 1.319539260864257812e+01 -1.462857246398925781e+01 4.138871445320546627e-04 -1.129853480961173773e-04 9.027053602039813995e-05 6.975102587603032589e-05
1.465000000000000000e+03 1.364441394805908203e+01 -7.932734012603759766e+00 -3.865152539219707251e-04 -1.033927765092812479e-04 -1.469724084017798305e-04 7.046449900371953845e-05
1.466000000000000000e+03 1.462381267547607422e+01 -7.929272651672363281e+00 5.416566855274140835e-04 3.805940650636330247e-05 1.739148137858137488e-04 -2.301399581483565271e-05
1.467000000000000000e+03 1.180177593231201172e+01 -3.449151515960693359e+00 -1.009345505735836923e-04 -2.065884618787094951e-04 -9.225690882885828614e-05 1.130080272560007870e-04
1.468000000000000000e+03 1.349067020416259766e+01 -1.191455745697021484e+01 4.189306637272238731e-04 7.081015064613893628e-05 1.469222333980724216e-04 -3.796541204792447388e-05
1.469000000000000000e+03 1.456978893280029297e+01 -1.207822704315185547e+01 -7.151266909204423428e-04 -4.234948573866859078e-05 -2.272428391734138131e-04 9.746182331582531333e-05
1.470000000000000000e+03 1.364571189880371094e+01 -5.322319030761718750e+00 -3.044259210582822561e-04 -1.001949567580595613e-04 -1.213862706208601594e-04 -1.042865369527135044e-05
1.471000000000000000e+03 1.462597274780273438e+01 -5.188544750213623047e+00 4.471224674489349127e-04 6.213203596416860819e-05 1.527763524791225791e-04 6.294929335126653314e-05
1.472000000000000000e+03 1.447186851501464844e+01 -1.486395454406738281e+01 -7.028745021671056747e-04 -5.353481537895277143e-05 -2.269227989017963409e-04 6.659131031483411789e-05
1.473000000000000000e+03 1.430191230773925781e+01 -1.909970855712890625e+01 5.448603769764304161e-04 -1.503610401414334774e-04 1.183498025056906044e-04 -1.032765612762887031e-05
1.474000000000000000e+03 1.359731960296630859e+01 -2.631901168823242188e+01 -1.098543507396243513e-04 -9.408262849319726229e-05 -6.118109013186767697e-05 -1.185713608720107004e-05
1.475000000000000000e+03 2.194957733154296875e+01 2.968691635131835938e+01 -9.009878151118755341e-03 -4.500039666891098022e-02 -1.620308309793472290e-02 -3.011274710297584534e-02
1.476000000000000000e+03 2.303763198852539062e+01 2.839039230346679688e+01 -2.394025586545467377e-02 -9.953225404024124146e-02 -3.704175353050231934e-02 -7.494969666004180908e-02
1.477000000000000000e+03 1.393573999404907227e+00 -4.007711410522460938e+01 -5.807899404317140579e-03 2.161206118762493134e-02 4.741248674690723419e-03 3.905205812770873308e-04
1.478000000000000000e+03 8.316850066184997559e-01 3.737596893310546875e+01 -1.325480552623048425e-04 5.003783826396102086e-06 -3.826328247669152915e-05 2.299843436048831791e-05
1.479000000000000000e+03 6.651058793067932129e-01 3.321804809570312500e+01 1.357179135084152222e-04 5.946524197497637942e-06 4.249933044775389135e-05 -2.595512160041835159e-05
1.480000000000000000e+03 6.311898827552795410e-01 2.617935371398925781e+01 -1.165366411441937089e-04 -1.593406864230928477e-06 -3.543901402736082673e-05 1.335784872935619205e-06
1.481000000000000000e+03 1.961209058761596680e+00 2.885433006286621094e+01 1.212670395034365356e-04 7.316463324968935922e-06 3.857504998450167477e-05 1.331926614511758089e-05
1.482000000000000000e+03 8.154910206794738770e-01 -3.594922637939453125e+01 3.352172207087278366e-03 1.235914882272481918e-02 4.713396076112985611e-03 3.256960771977901459e-03
1.483000000000000000e+03 2.217821121215820312e+00 -3.281296157836914062e+01 -9.326083236373960972e-04 3.280021483078598976e-03 7.042239303700625896e-04 3.102483926340937614e-03
1.484000000000000000e+03 3.193717241287231445e+00 2.727406692504882812e+01 1.425744558218866587e-04 6.145385214040288702e-06 4.461595017346553504e-05 2.331640826014336199e-05
1.485000000000000000e+03 3.107465505599975586e+00 2.453750991821289062e+01 1.492347364546731114e-04 -5.621483524009818211e-06 4.308397546992637217e-05 2.693084388738498092e-05
1.486000000000000000e+03 2.012169599533081055e+00 3.304292678833007812e+01 -1.252770016435533762e-04 -1.079106004908680916e-05 -4.082041778019629419e-05 2.653627052495721728e-05
1.487000000000000000e+03 2.716209411621093750e+00 3.820391845703125000e+01 -1.078688510460779071e-04 -6.514944107038900256e-05 -5.190548836253583431e-05 6.770077015971764922e-05
1.488000000000000000e+03 3.351344347000122070e+00 3.930202484130859375e+01 1.178261445602402091e-04 5.180176958674564958e-05 5.088837497169151902e-05 -1.417276653228327632e-04
1.489000000000000000e+03 2.004966259002685547e+00 -3.003296852111816406e+01 -1.055783359333872795e-03 8.748211548663675785e-04 -5.428867007140070200e-05 8.209909428842365742e-04
1.490000000000000000e+03 1.917494416236877441e+00 -2.725715446472167969e+01 -1.185678993351757526e-03 -1.423781650373712182e-04 -3.984171489719301462e-04 -2.414437185507267714e-04
1.491000000000000000e+03 2.497126340866088867e+00 -3.687374877929687500e+01 2.907166490331292152e-03 1.163931656628847122e-02 4.363944754004478455e-03 8.547697216272354126e-03
1.492000000000000000e+03 1.906195998191833496e+00 -2.173081970214843750e+01 -8.889907039701938629e-04 -2.629031951073557138e-04 -3.455681726336479187e-04 -5.586731713265180588e-04
1.493000000000000000e+03 6.320858597755432129e-01 1.913848304748535156e+01 1.377064618282020092e-04 -4.715728323390067089e-07 4.117046773899346590e-05 -3.340240255056414753e-06
1.494000000000000000e+03 6.184135079383850098e-01 1.348021602630615234e+01 1.074048923328518867e-04 8.257679837697651237e-07 3.246920095989480615e-05 -9.474939361098222435e-06
1.495000000000000000e+03 5.609767436981201172e-01 7.808847427368164062e+00 6.996571028139442205e-05 1.545670897939999122e-06 2.145341568393632770e-05 -7.993768122105393559e-06
1.496000000000000000e+03 3.727810859680175781e+00 -3.909858322143554688e+01 -2.148416358977556229e-03 1.445101201534271240e-02 3.690778510645031929e-03 9.924556128680706024e-03
1.497000000000000000e+03 5.984303951263427734e+00 -3.456636810302734375e+01 5.148281343281269073e-03 -4.663321189582347870e-03 1.454881567042320967e-04 8.986998349428176880e-03
1.498000000000000000e+03 2.347385883331298828e+00 -3.419393157958984375e+01 3.299809992313385010e-03 6.147580686956644058e-03 2.834217157214879990e-03 6.356834899634122849e-03
1.499000000000000000e+03 2.097963809967041016e+00 -3.142643547058105469e+01 2.943831263110041618e-03 2.062438987195491791e-03 1.501881051808595657e-03 3.218092257156968117e-03
1.500000000000000000e+03 3.181230783462524414e+00 -2.698015785217285156e+01 1.821120386011898518e-03 1.232779468409717083e-04 5.833195173181593418e-04 9.351424523629248142e-04
1.501000000000000000e+03 1.911449313163757324e+00 -2.311177062988281250e+01 1.011539716273546219e-03 -3.038078430108726025e-04 2.123195590684190392e-04 2.503044670447707176e-04
1.502000000000000000e+03 1.906899571418762207e+00 -2.587398719787597656e+01 1.415849314071238041e-03 -2.915021032094955444e-04 3.373041399754583836e-04 4.406989028211683035e-04
1.503000000000000000e+03 3.166723728179931641e+00 -2.016943168640136719e+01 -7.808881928212940693e-04 -7.210469630081206560e-05 -2.558978740125894547e-04 -6.268171709962189198e-04
1.504000000000000000e+03 6.211000084877014160e-01 -1.910562133789062500e+01 5.715126171708106995e-04 -2.225903299404308200e-04 1.046766847139224410e-04 1.070046782842837274e-04
1.505000000000000000e+03 1.867663025856018066e+00 -1.896568489074707031e+01 -6.411414942704141140e-04 -1.701539731584489346e-04 -2.433886402286589146e-04 -4.115720221307128668e-04
1.506000000000000000e+03 1.827508091926574707e+00 -1.619197654724121094e+01 -4.264088056515902281e-04 -7.693152292631566525e-05 -1.510020956629887223e-04 -2.411448367638513446e-04
1.507000000000000000e+03 5.817193388938903809e-01 -1.207320308685302734e+01 -8.278162567876279354e-05 -1.501517772339866497e-06 -2.528494223952293396e-05 -4.512888699537143111e-05
1.508000000000000000e+03 1.745134472846984863e+00 -1.200501823425292969e+01 1.908378617372363806e-04 -3.802025457844138145e-05 4.584528142004273832e-05 1.080407018889673054e-04
1.509000000000000000e+03 4.780856609344482422e+00 -4.252763271331787109e+00 3.581516793929040432e-04 9.073782712221145630e-05 1.346668577753007412e-04 2.595632977318018675e-04
1.510000000000000000e+03 3.691888570785522461e+00 -2.800502061843872070e+00 -1.931040023919194937e-04 -6.688941357424482703e-05 -7.799802551744505763e-05 -5.170984513824805617e-05
1.511000000000000000e+03 2.971196413040161133e+00 -2.993156433105468750e+00 8.675290155224502087e-05 1.496900949859991670e-04 7.093290332704782486e-05 7.777152859489433467e-06
1.512000000000000000e+03 1.388676643371582031e+00 -3.587515115737915039e+00 -7.120589998521609232e-06 6.013836173224262893e-05 1.590533065609633923e-05 6.439966909965733066e-06
1.513000000000000000e+03 4.648299217224121094e-01 5.020793437957763672e+00 7.477577310055494308e-05 6.237547040655044839e-06 2.430399581498932093e-05 6.145439328975044191e-06
1.514000000000000000e+03 2.397764682769775391e+00 4.392041683197021484e+00 -1.339867321803467348e-05 1.772087472318162327e-07 -3.966439635405549780e-06 -3.131988705717958510e-05
1.515000000000000000e+03 1.809087038040161133e+00 1.053979396820068359e+01 -8.579093264415860176e-05 -2.651809836606844328e-06 -2.653282172104809433e-05 1.323148535448126495e-05
1.516000000000000000e+03 6.036839485168457031e-01 1.064286327362060547e+01 8.639805309940129519e-05 1.228697328770067543e-06 2.628802576509770006e-05 -8.720642654225230217e-06
1.517000000000000000e+03 1.852809786796569824e+00 1.340716171264648438e+01 -1.047283731168136001e-04 -1.491152602284273598e-06 -3.186585672665387392e-05 1.531229463580530137e-05
1.518000000000000000e+03 1.926447987556457520e+00 2.046053504943847656e+01 1.377720618620514870e-04 9.670205827205791138e-07 4.162172263022512197e-05 6.670048151136143133e-06
1.519000000000000000e+03 1.900255322456359863e+00 1.906224632263183594e+01 -1.360288442810997367e-04 4.057489604747388512e-06 -3.959140667575411499e-05 -2.405025725238374434e-06
1.520000000000000000e+03 1.881482481956481934e+00 2.465007209777832031e+01 -1.348749210592359304e-04 1.671876816544681787e-06 -3.996091254521161318e-05 -1.134368449129397050e-05
1.521000000000000000e+03 6.756138610839843750e+01 3.247264480590820312e+01 1.104488849639892578e+00 1.745468735694885254e+00 8.549872636795043945e-01 -2.256747722625732422e+00
1.522000000000000000e+03 6.806082916259765625e+01 3.346335983276367188e+01 1.383308410644531250e+00 4.856509685516357422e+00 1.871945381164550781e+00 -3.871104240417480469e+00
1.523000000000000000e+03 6.934059143066406250e+01 3.252577209472656250e+01 1.446755766868591309e+00 1.178517055511474609e+01 3.969578027725219727e+00 -6.383371353149414062e+00
1.524000000000000000e+03 6.836844635009765625e+01 3.253006744384765625e+01 2.175132274627685547e+00 4.227802276611328125e+00 1.920880317687988281e+00 -4.285092353820800781e+00
1.525000000000000000e+03 6.816069793701171875e+01 2.923545265197753906e+01 1.005124688148498535e+00 3.166770935058593750e+00 1.251568675041198730e+00 4.004653930664062500e+00
1.526000000000000000e+03 6.827954101562500000e+01 2.887882232666015625e+01 9.640912413597106934e-01 4.703546524047851562e+00 1.700291275978088379e+00 4.679636955261230469e+00
1.527000000000000000e+03 6.866233825683593750e+01 2.902550125122070312e+01 1.153799176216125488e+00 6.235779285430908203e+00 2.216873407363891602e+00 5.557912349700927734e+00
1.528000000000000000e+03 6.809761810302734375e+01 2.830207061767578125e+01 5.235812664031982422e-01 5.015924930572509766e+00 1.661851763725280762e+00 4.453094005584716797e+00
1.529000000000000000e+03 6.951342773437500000e+01 3.303462982177734375e+01 3.461777567863464355e-01 1.258210086822509766e+01 3.878483772277832031e+00 -5.064305305480957031e+00
1.530000000000000000e+03 7.100434875488281250e+01 3.219842529296875000e+01 2.645954370498657227e+00 1.959617614746093750e+01 6.672639369964599609e+00 1.785408735275268555e+00
1.531000000000000000e+03 7.156357574462890625e+01 3.055416297912597656e+01 8.456951141357421875e+00 1.610371780395507812e+01 7.368200778961181641e+00 -1.220867872238159180e+00
1.532000000000000000e+03 7.228351593017578125e+01 3.039534759521484375e+01 6.107542037963867188e+00 1.396988773345947266e+01 6.023229122161865234e+00 -1.083365678787231445e+00
1.533000000000000000e+03 7.121040344238281250e+01 2.929053115844726562e+01 1.755120277404785156e+00 1.817965888977050781e+01 5.980433940887451172e+00 -1.424235820770263672e+00
1.534000000000000000e+03 7.166894531250000000e+01 3.204933929443359375e+01 4.579040050506591797e+00 1.660390090942382812e+01 6.354882717132568359e+00 2.535581111907958984e+00
1.535000000000000000e+03 6.929260253906250000e+01 2.869055747985839844e+01 2.826132252812385559e-02 1.138968849182128906e+01 3.425384998321533203e+00 5.759271621704101562e+00
1.536000000000000000e+03 6.599311828613281250e+01 3.315764617919921875e+01 2.113113254308700562e-01 8.259901404380798340e-01 3.111904263496398926e-01 -9.732890725135803223e-01
1.537000000000000000e+03 6.530395507812500000e+01 2.838422966003417969e+01 -1.276503920555114746e+00 6.284381747245788574e-01 -1.944197416305541992e-01 1.136578083038330078e+00
1.538000000000000000e+03 1.244487571716308594e+01 -2.653847932815551758e+00 -2.311269636265933514e-04 9.159914770862087607e-05 -4.185834404779598117e-05 6.503707481897436082e-06
1.539000000000000000e+03 6.545144653320312500e+01 3.384650039672851562e+01 4.299353659152984619e-01 1.013311386108398438e+00 4.329740107059478760e-01 -9.535611867904663086e-01
1.540000000000000000e+03 6.480340576171875000e+01 3.391841888427734375e+01 1.961183398962020874e-01 7.435976862907409668e-01 2.819148302078247070e-01 -6.084524989128112793e-01
1.541000000000000000e+03 6.353128051757812500e+01 3.416648483276367188e+01 -9.424504637718200684e-02 4.715659320354461670e-01 1.131962686777114868e-01 -1.885430514812469482e-01
1.542000000000000000e+03 6.661466217041015625e+01 3.351855850219726562e+01 8.227937221527099609e-01 1.808531284332275391e+00 7.893975377082824707e-01 -1.808835506439208984e+00
1.543000000000000000e+03 6.459084320068359375e+01 2.726365470886230469e+01 -7.988418936729431152e-01 9.863604903221130371e-01 5.625557899475097656e-02 1.336359977722167969e+00
1.544000000000000000e+03 6.339918518066406250e+01 2.794931983947753906e+01 -1.767187833786010742e+00 3.086535930633544922e-01 -4.375602900981903076e-01 5.449415445327758789e-01
1.545000000000000000e+03 6.217587280273437500e+01 3.441638946533203125e+01 -2.434066832065582275e-01 2.583762705326080322e-01 4.490871448069810867e-03 1.464323997497558594e-01
1.546000000000000000e+03 6.198386001586914062e+01 2.857736968994140625e+01 -2.712787151336669922e+00 5.396675691008567810e-02 -7.976461648941040039e-01 1.100161820650100708e-01
1.547000000000000000e+03 2.693188858032226562e+01 3.341371917724609375e+01 -6.933639198541641235e-02 -1.140255574136972427e-02 -2.422168478369712830e-02 -4.056449234485626221e-02
1.548000000000000000e+03 2.982922935485839844e+01 3.237598419189453125e+01 -1.836996525526046753e-01 2.176965208491310477e-04 -5.504458397626876831e-02 -9.634679555892944336e-02
1.549000000000000000e+03 2.018819808959960938e+01 3.921242904663085938e+01 1.720798318274319172e-04 -3.130529948975890875e-04 -4.229194746585562825e-05 -8.916683727875351906e-04
1.550000000000000000e+03 2.103882980346679688e+01 3.902977752685546875e+01 1.028571743518114090e-03 5.436028586700558662e-04 4.716523690149188042e-04 -5.036497022956609726e-04
1.551000000000000000e+03 1.386885166168212891e+01 2.689902305603027344e+00 -3.555573857738636434e-05 1.314938435825752094e-05 -6.721906629536533728e-06 -6.407628006854793057e-06
1.552000000000000000e+03 3.783980369567871094e+00 2.754151821136474609e+00 3.127678792225196958e-05 1.226457789016421884e-05 1.306240937992697582e-05 -9.312123438576236367e-06
1.553000000000000000e+03 6.000476837158203125e+00 2.666131973266601562e+00 -1.581908691150601953e-05 -1.952498678292613477e-05 -1.060322210832964629e-05 5.432236775959609076e-06
1.554000000000000000e+03 5.956964492797851562e+00 3.448790788650512695e+00 1.541795609227847308e-05 2.386128471698611975e-05 1.178377260657725856e-05 -6.241088158276397735e-06
1.555000000000000000e+03 6.690436363220214844e+00 3.456187725067138672e+00 -2.186991150665562600e-05 -2.246120675408747047e-05 -1.329933547822292894e-05 -1.047852720148512162e-07
1.556000000000000000e+03 8.913458824157714844e+00 3.396559953689575195e+00 2.652274088177364320e-05 1.338084985036402941e-05 1.197107758343918249e-05 7.189580173871945590e-06
1.557000000000000000e+03 6.730762004852294922e+00 2.658316850662231445e+00 1.801419057301245630e-05 1.881830394268035889e-05 1.104974853660678491e-05 -2.114332801284035668e-06
1.558000000000000000e+03 7.414044380187988281e+00 3.455194473266601562e+00 2.288453470100648701e-05 2.010106800298672169e-05 1.289568081119796261e-05 -3.527487706378451549e-07
1.559000000000000000e+03 4.455235481262207031e+00 3.561373949050903320e+00 2.670940739335492253e-05 1.660541784076485783e-05 1.299444738833699375e-05 -1.836115552578121424e-05
1.560000000000000000e+03 4.516358375549316406e+00 2.728695392608642578e+00 -2.188178223150316626e-05 -1.554310074425302446e-05 -1.122746471082791686e-05 1.377364606014452875e-05
1.561000000000000000e+03 1.821085214614868164e+00 2.608453273773193359e+00 -2.414584378129802644e-05 -1.563430669193621725e-05 -1.193404568766709417e-05 -8.601515219197608531e-06
1.562000000000000000e+03 1.114457798004150391e+01 2.507546901702880859e+00 2.737267641350626945e-05 8.725020848032727372e-07 8.473553862131666392e-06 -8.368289854843169451e-06
1.563000000000000000e+03 1.121780967712402344e+01 3.230476617813110352e+00 -4.045694004162214696e-05 5.619452622340759262e-06 -1.045124645315809175e-05 7.112797902664169669e-06
1.564000000000000000e+03 2.376676177978515625e+01 3.337485504150390625e+01 -1.866302825510501862e-02 -1.454049069434404373e-02 -9.961055591702461243e-03 -9.823743253946304321e-03
1.565000000000000000e+03 2.460725975036621094e+01 3.239105987548828125e+01 -3.983004763722419739e-02 -2.804792858660221100e-02 -2.036339230835437775e-02 -3.347200900316238403e-02
1.566000000000000000e+03 5.479216384887695312e+01 3.536414718627929688e+01 -1.584910899400711060e-01 -1.671759486198425293e-01 -9.770011156797409058e-02 4.317196011543273926e-01
1.567000000000000000e+03 4.962922286987304688e+01 3.555767059326171875e+01 -1.226437836885452271e-01 -1.201408132910728455e-01 -7.283537834882736206e-02 2.199769318103790283e-01
1.568000000000000000e+03 3.055006790161132812e+01 3.227243804931640625e+01 -2.151456028223037720e-01 5.352114327251911163e-03 -6.293804943561553955e-02 -1.055207699537277222e-01
1.569000000000000000e+03 3.127349472045898438e+01 3.215935897827148438e+01 -2.498573064804077148e-01 1.070967502892017365e-02 -7.174428552389144897e-02 -1.146581992506980896e-01
1.570000000000000000e+03 5.703454589843750000e+01 3.584992599487304688e+01 -5.532209575176239014e-02 -1.028499379754066467e-01 -4.745161160826683044e-02 4.613170921802520752e-01
1.571000000000000000e+03 2.193671035766601562e+01 3.223049163818359375e+01 -7.057936396449804306e-03 -8.349972777068614960e-03 -4.622372798621654510e-03 -5.372546147555112839e-03
1.572000000000000000e+03 2.375545310974121094e+01 3.229869461059570312e+01 -2.664177492260932922e-02 -2.674462646245956421e-02 -1.601592078804969788e-02 -2.390692569315433502e-02
1.573000000000000000e+03 6.210382080078125000e+01 3.361154556274414062e+01 -7.245866060256958008e-01 1.130304485559463501e-01 -1.834668517112731934e-01 2.628554999828338623e-01
1.574000000000000000e+03 5.994812393188476562e+01 3.386446380615234375e+01 -7.037917971611022949e-01 1.376728340983390808e-02 -2.070073485374450684e-01 4.146702587604522705e-01
1.575000000000000000e+03 4.468648529052734375e+01 3.606472015380859375e+01 -3.818851336836814880e-02 -5.311414599418640137e-02 -2.739079855382442474e-02 7.423010468482971191e-02
1.576000000000000000e+03 4.193063735961914062e+01 3.860667419433593750e+01 3.824905026704072952e-03 -5.184052884578704834e-02 -1.440468709915876389e-02 4.290296509861946106e-02
1.577000000000000000e+03 2.839360809326171875e+01 3.253078842163085938e+01 -1.300805509090423584e-01 -1.007753144949674606e-02 -4.204742237925529480e-02 -7.831130176782608032e-02
1.578000000000000000e+03 2.767049980163574219e+01 3.257331848144531250e+01 -1.073967814445495605e-01 -1.496543921530246735e-02 -3.670866414904594421e-02 -6.897160410881042480e-02
1.579000000000000000e+03 5.685399627685546875e+01 3.419463348388671875e+01 -5.101994872093200684e-01 -1.031936258077621460e-01 -1.840179264545440674e-01 4.419749081134796143e-01
1.580000000000000000e+03 5.872737884521484375e+01 3.500927352905273438e+01 -2.163963019847869873e-01 -5.775692407041788101e-03 -6.665159761905670166e-02 5.046132206916809082e-01
1.581000000000000000e+03 5.615140914916992188e+01 3.644573593139648438e+01 1.191038191318511963e-01 -1.318721920251846313e-01 -3.830509958788752556e-03 4.185020029544830322e-01
1.582000000000000000e+03 5.268021392822265625e+01 3.583042144775390625e+01 -1.193340420722961426e-01 -1.788322031497955322e-01 -8.944987505674362183e-02 3.395734131336212158e-01
1.583000000000000000e+03 5.057365417480468750e+01 3.552099609375000000e+01 -1.434971690177917480e-01 -1.198741570115089417e-01 -7.901139557361602783e-02 2.474952340126037598e-01
1.584000000000000000e+03 5.335560989379882812e+01 3.534292984008789062e+01 -2.048000693321228027e-01 -1.563025712966918945e-01 -1.083307936787605286e-01 3.611753880977630615e-01
1.585000000000000000e+03 5.426817321777343750e+01 3.446076202392578125e+01 -3.611357510089874268e-01 -1.287252902984619141e-01 -1.469583064317703247e-01 3.706403672695159912e-01
1.586000000000000000e+03 6.005069351196289062e+01 3.473991012573242188e+01 -3.418428301811218262e-01 6.918618083000183105e-02 -8.179699629545211792e-02 3.980517089366912842e-01
1.587000000000000000e+03 6.075594329833984375e+01 3.462622070312500000e+01 -3.013791143894195557e-01 1.398391574621200562e-01 -4.846198484301567078e-02 2.952927052974700928e-01
1.588000000000000000e+03 6.147534179687500000e+01 3.451465606689453125e+01 -2.385191023349761963e-01 1.736170202493667603e-01 -1.947062648832798004e-02 2.469819337129592896e-01
1.589000000000000000e+03 4.744437408447265625e+01 3.544266510009765625e+01 -9.742143005132675171e-02 -7.176277786493301392e-02 -5.075526237487792969e-02 1.428921669721603394e-01
1.590000000000000000e+03 3.272401046752929688e+01 3.191473960876464844e+01 -3.286299705505371094e-01 2.114700339734554291e-02 -9.224489331245422363e-02 -1.320880800485610962e-01
1.591000000000000000e+03 3.345271682739257812e+01 3.178468132019042969e+01 -3.730068504810333252e-01 2.610448189079761505e-02 -1.040707081556320190e-01 -1.402689963579177856e-01
1.592000000000000000e+03 4.676095962524414062e+01 3.540358734130859375e+01 -7.118816673755645752e-02 -7.819777727127075195e-02 -4.481578245759010315e-02 1.265719085931777954e-01
1.593000000000000000e+03 4.597367095947265625e+01 3.683589553833007812e+01 -1.993103511631488800e-02 -8.827032148838043213e-02 -3.246040642261505127e-02 1.007616594433784485e-01
1.594000000000000000e+03 1.256931209564208984e+01 2.784409999847412109e+00 -5.402022907219361514e-06 -2.754638444457668811e-06 -2.446998450977844186e-06 1.255910774489166215e-05
1.595000000000000000e+03 9.557097434997558594e+00 -3.446631431579589844e+00 7.056288450257852674e-05 3.577774259611032903e-05 3.190218922100029886e-05 1.463001535739749670e-05
1.596000000000000000e+03 1.363033199310302734e+01 -4.072624206542968750e+00 2.334439777769148350e-04 1.661510032135993242e-04 1.198784957523457706e-04 -9.211600627168081701e-06
1.597000000000000000e+03 9.527080535888671875e+00 -4.279018402099609375e+00 -6.262498209252953529e-05 -4.493023152463138103e-05 -3.226656554033979774e-05 -2.473681342962663621e-05
1.598000000000000000e+03 4.003129196166992188e+01 3.053335189819335938e+01 -9.014285206794738770e-01 6.076470389962196350e-02 -2.521991431713104248e-01 -1.924928128719329834e-01
1.599000000000000000e+03 1.365529727935791016e+01 -2.980369567871093750e+00 -1.889176637632772326e-04 -9.924312325892969966e-05 -8.644823537906631827e-05 5.602716191788204014e-05
1.600000000000000000e+03 3.715084075927734375e+01 3.177953147888183594e+01 -6.302783489227294922e-01 4.025914892554283142e-02 -1.770057678222656250e-01 -1.168244257569313049e-01
1.601000000000000000e+03 3.930374145507812500e+01 3.067711067199707031e+01 -8.325797319412231445e-01 5.805805325508117676e-02 -2.323565036058425903e-01 -1.874278783798217773e-01
1.602000000000000000e+03 3.641507720947265625e+01 3.192084312438964844e+01 -5.681203007698059082e-01 3.787552937865257263e-02 -1.590734273195266724e-01 -1.150187626481056213e-01
1.603000000000000000e+03 3.857431030273437500e+01 3.081688499450683594e+01 -7.655779719352722168e-01 5.542141571640968323e-02 -2.130469530820846558e-01 -1.825020164251327515e-01
1.604000000000000000e+03 3.568041229248046875e+01 3.206342315673828125e+01 -5.092716217041015625e-01 3.488209098577499390e-02 -1.423168629407882690e-01 -1.121839433908462524e-01
1.605000000000000000e+03 3.779831695556640625e+01 3.026129722595214844e+01 -6.985593438148498535e-01 5.647583305835723877e-02 -1.926250457763671875e-01 -2.359125912189483643e-01
1.606000000000000000e+03 3.418192672729492188e+01 3.165045547485351562e+01 -4.202224612236022949e-01 3.102966770529747009e-02 -1.167578399181365967e-01 -1.480558067560195923e-01
1.607000000000000000e+03 3.491150665283203125e+01 3.151274871826171875e+01 -4.705886840820312500e-01 3.544349223375320435e-02 -1.305435597896575928e-01 -1.552658379077911377e-01
1.608000000000000000e+03 3.637515640258789062e+01 3.123225402832031250e+01 -5.799033045768737793e-01 4.374036565423011780e-02 -1.608488857746124268e-01 -1.679041087627410889e-01
1.609000000000000000e+03 4.149386978149414062e+01 3.023720932006835938e+01 -1.045816540718078613e+00 6.301905959844589233e-02 -2.948392331600189209e-01 -2.033194452524185181e-01
1.610000000000000000e+03 4.372075653076171875e+01 2.979534339904785156e+01 -1.279178619384765625e+00 6.206470727920532227e-02 -3.651341795921325684e-01 -2.181408256292343140e-01
1.611000000000000000e+03 4.297393035888671875e+01 2.994035339355468750e+01 -1.199235081672668457e+00 6.328489631414413452e-02 -3.407850861549377441e-01 -2.133440226316452026e-01
1.612000000000000000e+03 4.446861648559570312e+01 2.965452575683593750e+01 -1.359807848930358887e+00 6.195215135812759399e-02 -3.893567323684692383e-01 -2.226884365081787109e-01
1.613000000000000000e+03 4.453011703491210938e+01 3.035221099853515625e+01 -1.422646403312683105e+00 4.713624715805053711e-02 -4.126530289649963379e-01 -1.304846704006195068e-01
1.614000000000000000e+03 4.602837753295898438e+01 3.008515739440917969e+01 -1.612011551856994629e+00 4.345661774277687073e-02 -4.705664813518524170e-01 -1.350833326578140259e-01
1.615000000000000000e+03 1.353924369812011719e+01 4.223699569702148438e+00 -5.641236566589213908e-05 -4.373247577404981712e-07 -1.705490649328567088e-05 -2.496474962754291482e-06
1.616000000000000000e+03 4.753723144531250000e+01 2.983075714111328125e+01 -1.803763031959533691e+00 3.461497277021408081e-02 -5.307444334030151367e-01 -1.402872949838638306e-01
1.617000000000000000e+03 4.597259902954101562e+01 2.938357734680175781e+01 -1.523738026618957520e+00 5.719169229269027710e-02 -4.399639070034027100e-01 -2.323796153068542480e-01
1.618000000000000000e+03 6.271987152099609375e+01 2.796457099914550781e+01 -1.991132855415344238e+00 2.073006331920623779e-01 -5.351496934890747070e-01 3.602728545665740967e-01
1.619000000000000000e+03 6.128680801391601562e+01 2.796080780029296875e+01 -2.271617650985717773e+00 9.694219380617141724e-02 -6.524026393890380859e-01 1.174831688404083252e-01
1.620000000000000000e+03 5.973905563354492188e+01 2.860883712768554688e+01 -2.880172967910766602e+00 3.595648100599646568e-03 -8.629731535911560059e-01 -4.968321323394775391e-02
1.621000000000000000e+03 5.898065185546875000e+01 2.863468742370605469e+01 -2.884473085403442383e+00 -2.464999910444021225e-03 -8.660814166069030762e-01 -8.071973174810409546e-02
1.622000000000000000e+03 6.338521957397460938e+01 2.733822059631347656e+01 -1.294532418251037598e+00 5.066137313842773438e-01 -2.363756000995635986e-01 7.443798184394836426e-01
1.623000000000000000e+03 5.363462448120117188e+01 2.902678489685058594e+01 -2.542243003845214844e+00 5.197842256166040897e-04 -7.625169754028320312e-01 -1.501092314720153809e-01
1.624000000000000000e+03 5.440102386474609375e+01 2.895023155212402344e+01 -2.617695808410644531e+00 -3.143981797620654106e-03 -7.862519621849060059e-01 -1.482139676809310913e-01
1.625000000000000000e+03 5.287195968627929688e+01 2.910958671569824219e+01 -2.460672140121459961e+00 6.646670866757631302e-03 -7.362076640129089355e-01 -1.499099582433700562e-01
1.626000000000000000e+03 5.135037231445312500e+01 2.928775024414062500e+01 -2.284499645233154297e+00 1.615232974290847778e-02 -6.805042028427124023e-01 -1.464496701955795288e-01
1.627000000000000000e+03 5.211080932617187500e+01 2.919623947143554688e+01 -2.375934839248657227e+00 1.068157423287630081e-02 -7.095760107040405273e-01 -1.485010534524917603e-01
1.628000000000000000e+03 4.980291748046875000e+01 2.877626609802246094e+01 -1.931856274604797363e+00 3.477555140852928162e-02 -5.691242218017578125e-01 -2.475947141647338867e-01
1.629000000000000000e+03 4.825588226318359375e+01 2.900327491760253906e+01 -1.770242929458618164e+00 4.365100711584091187e-02 -5.179775357246398926e-01 -2.445484101772308350e-01
1.630000000000000000e+03 5.598389434814453125e+01 2.743278121948242188e+01 -2.090256690979003906e+00 3.043616935610771179e-02 -6.179461479187011719e-01 -2.416969686746597290e-01
1.631000000000000000e+03 5.519339752197265625e+01 2.818631172180175781e+01 -2.377264022827148438e+00 7.369295693933963776e-03 -7.109684348106384277e-01 -2.179274260997772217e-01
1.632000000000000000e+03 5.441862487792968750e+01 2.754529762268066406e+01 -2.049343824386596680e+00 2.748247794806957245e-02 -6.065583825111389160e-01 -2.884953618049621582e-01
1.633000000000000000e+03 3.021453475952148438e+01 3.963862609863281250e+01 -2.881096908822655678e-03 1.269653323106467724e-03 -4.834331048186868429e-04 -5.914953653700649738e-04
1.634000000000000000e+03 4.521813583374023438e+01 2.951732444763183594e+01 -1.442178368568420410e+00 5.950133502483367920e-02 -4.148030877113342285e-01 -2.277125269174575806e-01
1.635000000000000000e+03 4.223101425170898438e+01 3.008812904357910156e+01 -1.121845126152038574e+00 6.284677237272262573e-02 -3.176995217800140381e-01 -2.084556967020034790e-01
1.636000000000000000e+03 6.591449260711669922e+00 -3.319452524185180664e+00 8.739570148463826627e-06 8.825450640870258212e-05 2.909822251240257174e-05 3.711098543135449290e-05
1.637000000000000000e+03 2.663121700286865234e+00 -7.842387199401855469e+00 1.158210434368811548e-04 1.660179077589418739e-05 3.972684862674213946e-05 1.082586459233425558e-04
1.638000000000000000e+03 7.949750423431396484e+00 -5.022204399108886719e+00 2.116459072567522526e-04 -9.531200339552015066e-05 3.490017115836963058e-05 6.250663136597722769e-05
1.639000000000000000e+03 5.897666931152343750e+00 -3.294157505035400391e+00 -2.566301191109232605e-05 -1.225892920047044754e-04 -4.447569153853692114e-05 -1.170503091998398304e-04
1.640000000000000000e+03 5.844388008117675781e+00 -2.579290628433227539e+00 6.966810178710147738e-05 1.063272866304032505e-04 5.279861579765565693e-05 9.580786718288436532e-05
1.641000000000000000e+03 2.747428417205810547e+00 -4.224514007568359375e+00 2.194779663113877177e-04 3.066979115828871727e-04 1.578527590027078986e-04 1.600484392838552594e-05
1.642000000000000000e+03 4.129305839538574219e+00 -4.426039218902587891e+00 -4.308272909838706255e-04 4.599778549163602293e-05 -1.154488563770428300e-04 -1.193326606880873442e-04
1.643000000000000000e+03 2.230184078216552734e+00 -3.334301471710205078e+00 -1.231844216817989945e-04 -2.031861804425716400e-04 -9.791117918211966753e-05 -7.343178003793582320e-05
1.644000000000000000e+03 1.508517026901245117e+00 -5.054364204406738281e+00 6.061013209546217695e-06 3.949013262172229588e-05 1.366534434055211022e-05 -2.602449785626959056e-05
1.645000000000000000e+03 8.804059028625488281e+00 -3.427689075469970703e+00 -6.039168147253803909e-05 -3.525289866956882179e-05 -2.869337367883417755e-05 -2.307018621650058776e-05
1.646000000000000000e+03 5.979094696044921875e+01 2.795914459228515625e+01 -2.405016422271728516e+00 4.572239518165588379e-02 -7.077882289886474609e-01 -3.014001622796058655e-02
1.647000000000000000e+03 6.054367065429687500e+01 2.795589637756347656e+01 -2.351777553558349609e+00 6.684260070323944092e-02 -6.854804754257202148e-01 3.787489607930183411e-02
1.648000000000000000e+03 5.749911880493164062e+01 2.803136825561523438e+01 -2.452932834625244141e+00 1.035219524055719376e-02 -7.327741980552673340e-01 -1.569488197565078735e-01
1.649000000000000000e+03 2.676523590087890625e+01 4.030742263793945312e+01 -5.325626698322594166e-04 8.362877997569739819e-04 9.111755207413807511e-05 1.439072366338223219e-04
1.650000000000000000e+03 2.803056716918945312e+01 3.994584274291992188e+01 -2.415920840576291084e-03 1.123082329286262393e-04 -6.910837837494909763e-04 1.323402102570980787e-04
1.651000000000000000e+03 2.289123344421386719e+01 3.333114242553710938e+01 -1.058610249310731888e-02 -1.026634778827428818e-02 -6.255735177546739578e-03 -3.397987689822912216e-03
1.652000000000000000e+03 2.211264991760253906e+01 4.173487854003906250e+01 7.770733209326863289e-04 4.354529955890029669e-04 3.637578920461237431e-04 7.660253322683274746e-04
1.653000000000000000e+03 1.883092117309570312e+01 3.775022888183593750e+01 -4.221494600642472506e-04 -2.254818100482225418e-04 -1.942893723025918007e-04 1.799710735213011503e-04
1.654000000000000000e+03 1.144228267669677734e+01 1.649208831787109375e+01 -9.430624049855396152e-05 -3.593106612242991105e-06 -2.936980490630958229e-05 3.322510019643232226e-05
1.655000000000000000e+03 1.233495140075683594e+01 1.044044399261474609e+01 -6.744419079041108489e-05 -1.402386988047510386e-05 -2.444041820126585662e-05 -1.829753455240279436e-05
1.656000000000000000e+03 1.227300262451171875e+01 2.626321601867675781e+01 2.183780161431059241e-04 -5.019500804337440059e-06 6.400755228241905570e-05 -1.863381112343631685e-05
1.657000000000000000e+03 2.298492240905761719e+01 -1.082369041442871094e+01 -2.544640377163887024e-02 -2.050168275833129883e+00 -6.226844191551208496e-01 -1.818815469741821289e-01
1.658000000000000000e+03 2.330487442016601562e+01 3.861360549926757812e-01 3.302871016785502434e-03 -1.720094799995422363e+00 -5.150375366210937500e-01 -2.325332462787628174e-01
1.659000000000000000e+03 2.444235038757324219e+01 -6.448852062225341797e+00 2.803062461316585541e-02 -1.742041349411010742e+00 -5.142031908035278320e-01 -2.247417569160461426e-01
1.660000000000000000e+03 2.305279731750488281e+01 -6.606017112731933594e+00 3.124099597334861755e-02 -1.954387545585632324e+00 -5.769439935684204102e-01 -1.996243745088577271e-01
1.661000000000000000e+03 2.274023818969726562e+01 -1.798183631896972656e+01 4.281555488705635071e-02 -2.140789985656738281e+00 -6.293923854827880859e-01 -1.254128366708755493e-01
1.662000000000000000e+03 2.193706703186035156e+01 -1.143840074539184570e+00 -1.174538768827915192e-02 -1.932314276695251465e+00 -5.832179188728332520e-01 -2.150142043828964233e-01
1.663000000000000000e+03 2.325044250488281250e+01 -1.019515037536621094e+00 7.847451604902744293e-03 -1.769441485404968262e+00 -5.284782052040100098e-01 -2.278651744127273560e-01
1.664000000000000000e+03 1.292341327667236328e+01 3.196035957336425781e+01 3.591527929529547691e-04 -4.250229176250286400e-05 9.499514999333769083e-05 1.915095481308526359e-06
1.665000000000000000e+03 1.455659389495849609e+01 3.307516479492187500e+01 3.759735263884067535e-04 -2.496258457540534437e-05 1.053032829076983035e-04 -7.871624256949871778e-05
1.666000000000000000e+03 1.317572975158691406e+01 2.180427169799804688e+01 1.719670108286663890e-04 3.828278750006575137e-06 5.273858550935983658e-05 -1.726334812701679766e-05
1.667000000000000000e+03 1.177410888671875000e+01 1.782718467712402344e+01 1.279164862353354692e-04 -5.465454933073488064e-07 3.821098289336077869e-05 -1.871428321464918554e-05
1.668000000000000000e+03 2.283176612854003906e+01 -1.655144882202148438e+01 6.203498691320419312e-03 -2.117976188659667969e+00 -6.335318088531494141e-01 -1.108980849385261536e-01
1.669000000000000000e+03 1.160430240631103516e+01 1.425442314147949219e+01 6.172186840558424592e-05 1.408675780112389475e-05 2.274258804391138256e-05 5.326915197656489909e-05
1.670000000000000000e+03 1.358981132507324219e+01 6.529947757720947266e+00 -5.525907181436195970e-05 -3.917922640539472923e-06 -1.775309829099569470e-05 -2.243001745227957144e-06
1.671000000000000000e+03 1.055619049072265625e+01 4.912228584289550781e+00 5.102002978674136102e-05 9.277826393372379243e-06 1.808935667213518173e-05 1.680977402429562062e-05
1.672000000000000000e+03 1.098085975646972656e+01 1.270413780212402344e+01 4.258004992152564228e-05 4.101970625924877822e-05 2.507992758182808757e-05 3.596214810386300087e-05
1.673000000000000000e+03 1.359252262115478516e+01 5.308800697326660156e+00 5.081073686596937478e-05 1.272136501029308420e-06 1.562486249895300716e-05 9.560841363054350950e-07
1.674000000000000000e+03 8.925925254821777344e+00 4.180922985076904297e+00 -2.948132896563038230e-05 -1.672468169999774545e-05 -1.386180338158737868e-05 -1.220920967170968652e-05
1.675000000000000000e+03 7.569182872772216797e+00 -3.344535827636718750e+01 1.253329124301671982e-02 -7.178711239248514175e-03 1.606374047696590424e-03 7.225244306027889252e-03
1.676000000000000000e+03 1.279139804840087891e+01 -3.147552299499511719e+01 6.955033750273287296e-04 2.831358229741454124e-03 1.058058463968336582e-03 -1.114885555580258369e-03
1.677000000000000000e+03 1.178653144836425781e+01 2.055235862731933594e+01 1.697678962955251336e-04 -7.742292837065178901e-06 4.860768240178003907e-05 -3.688450078698224388e-06
1.678000000000000000e+03 7.450928497314453125e+01 -3.265118026733398438e+01 1.043912488967180252e-02 6.263931274414062500e+00 1.882311105728149414e+00 2.814077585935592651e-02
1.679000000000000000e+03 7.721524810791015625e+01 -3.478307342529296875e+01 -1.006317138671875000e-02 6.690958976745605469e+00 2.004268646240234375e+00 1.746226660907268524e-02
1.680000000000000000e+03 7.534185028076171875e+01 -2.076017379760742188e+01 1.661230996251106262e-02 6.503738403320312500e+00 1.956105232238769531e+00 6.884434819221496582e-02
1.681000000000000000e+03 7.794412231445312500e+01 -2.783171272277832031e+01 -1.396882813423871994e-03 6.840272426605224609e+00 2.051662683486938477e+00 1.723180152475833893e-02
1.682000000000000000e+03 7.212092590332031250e+01 -3.825234985351562500e+01 1.576902531087398529e-02 5.891983509063720703e+00 1.772325754165649414e+00 1.915823854506015778e-02
1.683000000000000000e+03 7.836666107177734375e+01 1.949113082885742188e+01 -9.567254781723022461e-02 9.360514640808105469e+00 2.779452800750732422e+00 -1.756565868854522705e-01
1.684000000000000000e+03 7.593803405761718750e+01 1.674893379211425781e+01 -2.263231724500656128e-01 8.674808502197265625e+00 2.534545660018920898e+00 2.007458209991455078e-01
1.685000000000000000e+03 7.250922393798828125e+01 4.141054153442382812e+01 -1.246905207633972168e+00 9.478878974914550781e+00 2.469592094421386719e+00 -1.062774099409580231e-03
1.686000000000000000e+03 7.707678985595703125e+01 3.528389739990234375e+01 -1.486663357354700565e-03 8.847855567932128906e+00 2.653910636901855469e+00 1.464067459106445312e+00
1.687000000000000000e+03 7.665550994873046875e+01 -2.223498344421386719e+01 7.017131894826889038e-03 6.696513652801513672e+00 2.011059284210205078e+00 4.254322126507759094e-02
1.688000000000000000e+03 7.653623962402343750e+01 -2.915286445617675781e+01 1.867751780082471669e-05 6.610414028167724609e+00 1.983129858970642090e+00 2.815665490925312042e-02
1.689000000000000000e+03 7.656449890136718750e+01 -2.779246902465820312e+01 -6.200427305884659290e-04 6.624130249023437500e+00 1.987053036689758301e+00 2.133242040872573853e-02
1.690000000000000000e+03 7.532107543945312500e+01 -3.453934097290039062e+01 -1.389428321272134781e-02 6.372461795806884766e+00 1.907570242881774902e+00 7.283842656761407852e-03
1.691000000000000000e+03 7.512499237060546875e+01 -2.498623085021972656e+01 1.143631804734468460e-02 6.413002014160156250e+00 1.927331566810607910e+00 4.969096183776855469e-02
1.692000000000000000e+03 7.656185913085937500e+01 -2.641914367675781250e+01 4.915129859000444412e-03 6.632471561431884766e+00 1.991215944290161133e+00 2.995755895972251892e-02
1.693000000000000000e+03 7.661219024658203125e+01 -2.363560485839843750e+01 4.826230462640523911e-03 6.671809196472167969e+00 2.002990722656250000e+00 3.728050366044044495e-02
1.694000000000000000e+03 7.644667053222656250e+01 -3.049427223205566406e+01 7.906640879809856415e-03 6.581459045410156250e+00 1.976809740066528320e+00 2.352892048656940460e-02
1.695000000000000000e+03 7.587988281250000000e+01 -3.314226150512695312e+01 -1.064181886613368988e-02 6.459079742431640625e+00 1.934531331062316895e+00 1.390904933214187622e-02
1.696000000000000000e+03 7.391547393798828125e+01 -2.909759521484375000e+01 1.715102605521678925e-02 6.173501491546630859e+00 1.857195734977722168e+00 2.752141654491424561e-02
1.697000000000000000e+03 7.639117431640625000e+01 -3.896458435058593750e+01 -3.926347941160202026e-02 6.544390201568603516e+00 1.951537966728210449e+00 9.702086448669433594e-03
1.698000000000000000e+03 7.843774414062500000e+01 2.224896812438964844e+01 -1.246649548411369324e-01 9.018423080444335938e+00 2.668127536773681641e+00 -5.120376348495483398e-01
1.699000000000000000e+03 7.742308044433593750e+01 2.357388114929199219e+01 -2.876921892166137695e-01 8.956061363220214844e+00 2.600510835647583008e+00 -9.232878088951110840e-01
1.700000000000000000e+03 7.746730041503906250e+01 2.492396926879882812e+01 -2.228051275014877319e-01 8.712216377258300781e+00 2.546823501586914062e+00 -1.132532000541687012e+00
1.701000000000000000e+03 7.705435180664062500e+01 1.391919612884521484e+01 -6.012869253754615784e-02 8.732275009155273438e+00 2.601643800735473633e+00 2.542140185832977295e-01
1.702000000000000000e+03 7.823140716552734375e+01 1.252881526947021484e+01 -1.321246474981307983e-02 8.991441726684570312e+00 2.693468809127807617e+00 1.686655879020690918e-01
1.703000000000000000e+03 7.443391418457031250e+01 1.242616176605224609e+01 -6.544492393732070923e-02 7.742827415466308594e+00 2.303214788436889648e+00 5.351508855819702148e-01
1.704000000000000000e+03 7.709121704101562500e+01 1.533491325378417969e+01 -9.493586421012878418e-02 8.869640350341796875e+00 2.632411479949951172e+00 1.871665120124816895e-01
1.705000000000000000e+03 7.750942993164062500e+01 2.626590538024902344e+01 -5.413942784070968628e-02 8.408159255981445312e+00 2.506206035614013672e+00 -1.277061223983764648e+00
1.706000000000000000e+03 7.849239349365234375e+01 2.635562324523925781e+01 4.383396822959184647e-03 7.617803096771240234e+00 2.286655902862548828e+00 -9.377921819686889648e-01
1.707000000000000000e+03 7.802645111083984375e+01 -2.087910652160644531e+01 2.494793618097901344e-03 6.935837268829345703e+00 2.081499576568603516e+00 2.646658755838871002e-02
1.708000000000000000e+03 7.669575500488281250e+01 -2.083571434020996094e+01 7.944760844111442566e-03 6.725131988525390625e+00 2.019922971725463867e+00 4.822632297873497009e-02
1.709000000000000000e+03 7.846559906005859375e+01 3.049434089660644531e+01 3.348666429519653320e-01 6.378990650177001953e+00 2.014157295227050781e+00 -1.358512789011001587e-01
1.710000000000000000e+03 7.426061248779296875e+01 -1.653001022338867188e+01 2.325846254825592041e-02 6.390326023101806641e+00 1.924075245857238770e+00 1.129920259118080139e-01
1.711000000000000000e+03 7.673273468017578125e+01 -1.944132232666015625e+01 7.983043789863586426e-03 6.753078460693359375e+00 2.028318405151367188e+00 5.410818010568618774e-02
1.712000000000000000e+03 7.530452728271484375e+01 -6.838418960571289062e+00 3.316975012421607971e-02 6.837910175323486328e+00 2.061324119567871094e+00 1.987679153680801392e-01
1.713000000000000000e+03 7.808238220214843750e+01 -1.389672183990478516e+01 4.180706106126308441e-03 7.099278926849365234e+00 2.131037950515747070e+00 4.705264419317245483e-02
1.714000000000000000e+03 7.560045623779296875e+01 -1.270118832588195801e+00 3.830085322260856628e-02 7.137592315673828125e+00 2.152767896652221680e+00 2.703219950199127197e-01
1.715000000000000000e+03 7.805256652832031250e+01 -6.917185306549072266e+00 5.216345191001892090e-03 7.353176116943359375e+00 2.207517623901367188e+00 8.302981406450271606e-02
1.716000000000000000e+03 7.578536224365234375e+01 2.781220912933349609e+00 3.833853453397750854e-02 7.417940616607666016e+00 2.236883640289306641e+00 3.274269104003906250e-01
1.717000000000000000e+03 7.739823913574218750e+01 2.221571159362792969e+01 -3.041024208068847656e-01 9.108512878417968750e+00 2.641323089599609375e+00 -6.489878296852111816e-01
1.718000000000000000e+03 7.823390197753906250e+01 6.950459480285644531e+00 4.624790046364068985e-03 8.402232170104980469e+00 2.522057056427001953e+00 1.762220114469528198e-01
1.719000000000000000e+03 7.706370544433593750e+01 6.924714088439941406e+00 1.495048776268959045e-02 8.072499275207519531e+00 2.426234960556030273e+00 2.865082621574401855e-01
1.720000000000000000e+03 7.812349700927734375e+01 -1.363825678825378418e+00 6.460253149271011353e-03 7.674313068389892578e+00 2.304231882095336914e+00 1.172710657119750977e-01
1.721000000000000000e+03 7.686882019042968750e+01 -1.327347040176391602e+00 2.109701931476593018e-02 7.411157608032226562e+00 2.229676485061645508e+00 1.964147239923477173e-01
1.722000000000000000e+03 7.672402191162109375e+01 -8.269208908081054688e+00 1.465670298784971237e-02 7.052510738372802734e+00 2.120150089263916016e+00 1.281284093856811523e-01
1.723000000000000000e+03 7.680877685546875000e+01 -1.526025772094726562e+01 9.213687852025032043e-03 6.851150035858154297e+00 2.058109045028686523e+00 7.353381812572479248e-02
1.724000000000000000e+03 7.734312438964843750e+01 3.416206359863281250e+01 2.833246886730194092e-01 8.281317710876464844e+00 2.569392681121826172e+00 1.320990681648254395e+00
1.725000000000000000e+03 7.617561340332031250e+01 1.951339149475097656e+01 -3.820907473564147949e-01 8.988109588623046875e+00 2.581805467605590820e+00 -1.293821483850479126e-01
1.726000000000000000e+03 7.702019500732421875e+01 1.110765838623046875e+01 -1.131989993155002594e-02 8.458472251892089844e+00 2.534145593643188477e+00 3.014882504940032959e-01
1.727000000000000000e+03 7.705916595458984375e+01 8.314873695373535156e+00 6.429369095712900162e-03 8.200516700744628906e+00 2.462083816528320312e+00 3.014393746852874756e-01
1.728000000000000000e+03 7.680855560302734375e+01 -1.386538887023925781e+01 9.543796069920063019e-03 6.885591983795166016e+00 2.068540811538696289e+00 8.197693526744842529e-02
1.729000000000000000e+03 7.671084594726562500e+01 -6.875220775604248047e+00 1.874637044966220856e-02 7.104624271392822266e+00 2.137011289596557617e+00 1.424266397953033447e-01
1.730000000000000000e+03 7.555362701416015625e+01 3.725267791748046875e+01 -6.378470659255981445e-01 9.957278251647949219e+00 2.795829296112060547e+00 1.361046314239501953e+00
1.731000000000000000e+03 7.835881042480468750e+01 3.444949722290039062e+01 9.935996681451797485e-02 7.447211265563964844e+00 2.263971328735351562e+00 9.724929332733154297e-01
1.732000000000000000e+03 7.814132690429687500e+01 3.573655700683593750e+01 -2.412902750074863434e-02 8.193874359130859375e+00 2.450923442840576172e+00 1.115988016128540039e+00
1.733000000000000000e+03 7.588458251953125000e+01 5.503943443298339844e+00 3.323544561862945557e-02 7.632267951965332031e+00 2.299650907516479492e+00 3.646306395530700684e-01
1.734000000000000000e+03 7.694546508789062500e+01 1.413395047187805176e+00 2.140869386494159698e-02 7.605683326721191406e+00 2.288127660751342773e+00 2.276684045791625977e-01
1.735000000000000000e+03 7.704924011230468750e+01 5.538704395294189453e+00 1.733363792300224304e-02 7.949819564819335938e+00 2.390146017074584961e+00 2.732865810394287109e-01
1.736000000000000000e+03 7.672225189208984375e+01 -5.488018512725830078e+00 1.718760840594768524e-02 7.168015956878662109e+00 2.155560970306396484e+00 1.571431010961532593e-01
1.737000000000000000e+03 7.681884002685546875e+01 -2.710047960281372070e+00 1.768904738128185272e-02 7.322628021240234375e+00 2.202095270156860352e+00 1.823105812072753906e-01
1.738000000000000000e+03 7.551604461669921875e+01 -2.637824773788452148e+00 3.848729655146598816e-02 7.047358512878417969e+00 2.125753641128540039e+00 2.506268322467803955e-01
1.739000000000000000e+03 7.677391052246093750e+01 -1.106563472747802734e+01 1.312877703458070755e-02 6.960350513458251953e+00 2.092043638229370117e+00 1.019366160035133362e-01
1.740000000000000000e+03 7.679537200927734375e+01 -1.246555900573730469e+01 1.198875438421964645e-02 6.922983646392822266e+00 2.080491781234741211e+00 9.182125329971313477e-02
1.741000000000000000e+03 7.674867248535156250e+01 -9.667423248291015625e+00 1.472768746316432953e-02 7.003263473510742188e+00 2.105397224426269531e+00 1.166944056749343872e-01
1.742000000000000000e+03 7.676667785644531250e+01 -1.804751205444335938e+01 8.416623808443546295e-03 6.784801483154296875e+00 2.037965297698974609e+00 6.097410246729850769e-02
1.743000000000000000e+03 2.225116729736328125e+01 5.905250549316406250e+00 -3.643076494336128235e-02 -1.647333025932312012e+00 -5.051291584968566895e-01 -1.982014179229736328e-01
1.744000000000000000e+03 2.350449562072753906e+01 1.032421493530273438e+01 -2.840352244675159454e-03 -1.179207324981689453e+00 -3.546143174171447754e-01 -2.594700753688812256e-01
1.745000000000000000e+03 2.272702407836914062e+01 -2.516267395019531250e+01 1.923294737935066223e-02 -2.159003496170043945e+00 -6.419311165809631348e-01 -1.062813401222229004e-01
1.746000000000000000e+03 2.116880416870117188e+01 -2.232233047485351562e+01 1.192336250096559525e-02 -2.339557409286499023e+00 -6.982902288436889648e-01 -7.752307504415512085e-02
1.747000000000000000e+03 2.191640853881835938e+01 3.100581169128417969e+01 -8.117238059639930725e-03 -2.083598449826240540e-02 -8.685966953635215759e-03 -1.631275750696659088e-02
1.748000000000000000e+03 2.348164367675781250e+01 1.315052318572998047e+01 -1.892676926217973232e-03 -9.774067997932434082e-01 -2.937898337841033936e-01 -2.541552782058715820e-01
1.749000000000000000e+03 1.269951343536376953e+01 -2.672848320007324219e+01 -4.201921547064557672e-05 -1.441365922801196575e-03 -4.450155538506805897e-04 -7.683172589167952538e-04
1.750000000000000000e+03 2.467997932434082031e+01 3.131723785400390625e+01 -4.828255623579025269e-02 -4.527221992611885071e-02 -2.806643396615982056e-02 -5.439886450767517090e-02
1.751000000000000000e+03 2.202568817138671875e+01 2.693408775329589844e+01 -1.007340662181377411e-02 -1.289982199668884277e-01 -4.172148928046226501e-02 -6.208285689353942871e-02
1.752000000000000000e+03 2.307710456848144531e+01 2.700519561767578125e+01 -2.531445026397705078e-02 -1.458155065774917603e-01 -5.133898928761482239e-02 -1.009589210152626038e-01
1.753000000000000000e+03 1.364480113983154297e+01 -6.614872932434082031e+00 3.470416122581809759e-04 1.306368358200415969e-04 1.433035358786582947e-04 -2.232087899756152183e-05
1.754000000000000000e+03 2.206014251708984375e+01 2.554743766784667969e+01 -9.760525077581405640e-03 -1.887283027172088623e-01 -5.954664573073387146e-02 -7.900074124336242676e-02
1.755000000000000000e+03 2.443218994140625000e+01 2.165037727355957031e+01 -3.316876292228698730e-02 -3.965123891830444336e-01 -1.289043426513671875e-01 -2.542819082736968994e-01
1.756000000000000000e+03 2.115121459960937500e+01 -2.800836181640625000e+01 7.855998352169990540e-03 -2.471363782882690430e+00 -7.390522956848144531e-01 -7.264302670955657959e-02
1.757000000000000000e+03 2.212610435485839844e+01 2.277192306518554688e+01 -7.626731414347887039e-03 -3.394264280796051025e-01 -1.041159480810165405e-01 -1.085761561989784241e-01
1.758000000000000000e+03 2.324538040161132812e+01 2.289474678039550781e+01 -2.001195959746837616e-02 -3.372640013694763184e-01 -1.071827858686447144e-01 -1.718506962060928345e-01
1.759000000000000000e+03 2.329847526550292969e+01 2.152089118957519531e+01 -1.718531362712383270e-02 -4.153567850589752197e-01 -1.297626346349716187e-01 -1.915398240089416504e-01
1.760000000000000000e+03 2.215808105468750000e+01 2.138472747802734375e+01 -6.910399068146944046e-03 -4.272600710391998291e-01 -1.302511394023895264e-01 -1.215162426233291626e-01
1.761000000000000000e+03 2.454710769653320312e+01 1.890483093261718750e+01 -2.238825894892215729e-02 -5.501660108566284180e-01 -1.717662811279296875e-01 -2.953869700431823730e-01
1.762000000000000000e+03 1.303886318206787109e+01 -1.603003692626953125e+01 -3.713882178999483585e-04 -7.370571256615221500e-05 -1.335281849605962634e-04 -7.413152343360707164e-05
1.763000000000000000e+03 1.130599117279052734e+01 -1.853923034667968750e+01 3.721493339980952442e-05 -4.467004910111427307e-04 -1.228456676471978426e-04 7.432529237121343613e-04
1.764000000000000000e+03 1.164047050476074219e+01 -1.573910999298095703e+01 1.329203078057616949e-04 3.698564978549256921e-05 5.097178654978051782e-05 2.946790773421525955e-04
1.765000000000000000e+03 1.261256313323974609e+01 -9.206501960754394531e+00 -3.337136295158416033e-04 -3.129181277472525835e-05 -1.095016341423615813e-04 4.809096026292536408e-06
1.766000000000000000e+03 1.361479663848876953e+01 -9.265662193298339844e+00 4.327835922595113516e-04 5.958991459920071065e-05 1.477120531490072608e-04 -7.517608173657208681e-05
1.767000000000000000e+03 1.241926288604736328e+01 -1.170363330841064453e+01 -2.457019290886819363e-04 -8.548478217562660575e-05 -9.935601701727136970e-05 -3.421955989324487746e-05
1.768000000000000000e+03 2.346413612365722656e+01 1.455908775329589844e+01 -3.931827843189239502e-03 -8.772797584533691406e-01 -2.643634676933288574e-01 -2.500599324703216553e-01
1.769000000000000000e+03 2.343960380554199219e+01 1.596206760406494141e+01 -5.654956679791212082e-03 -7.785697579383850098e-01 -2.352674156427383423e-01 -2.433876097202301025e-01
1.770000000000000000e+03 2.226605796813964844e+01 1.298431396484375000e+01 -9.944665944203734398e-04 -1.066616535186767578e+00 -3.202832937240600586e-01 -1.605430692434310913e-01
1.771000000000000000e+03 2.349532318115234375e+01 1.173944377899169922e+01 -1.940884161740541458e-03 -1.079235076904296875e+00 -3.243528008460998535e-01 -2.577326297760009766e-01
1.772000000000000000e+03 1.100913715362548828e+01 -1.980805206298828125e+01 -3.406252653803676367e-04 1.276207971386611462e-03 2.806748379953205585e-04 -2.236055152025073767e-04
1.773000000000000000e+03 1.187211608886718750e+01 -2.453044891357421875e+01 -2.762063813861459494e-04 -1.315602916292846203e-03 -4.775428096763789654e-04 -2.250507677672430873e-04
1.774000000000000000e+03 2.227820587158203125e+01 8.748261451721191406e+00 -3.017590148374438286e-03 -1.417194962501525879e+00 -4.260637760162353516e-01 -1.676699817180633545e-01
1.775000000000000000e+03 2.349822616577148438e+01 7.479296207427978516e+00 -2.008332684636116028e-02 -1.373407602310180664e+00 -4.180472791194915771e-01 -2.688197493553161621e-01
1.776000000000000000e+03 2.309364700317382812e+01 -5.219512939453125000e+00 3.184463083744049072e-02 -1.909541368484497070e+00 -5.633090138435363770e-01 -1.880111694335937500e-01
1.777000000000000000e+03 2.314552879333496094e+01 -3.826907157897949219e+00 1.278443168848752975e-02 -1.850773811340332031e+00 -5.513968467712402344e-01 -1.972849518060684204e-01
1.778000000000000000e+03 3.395154237747192383e+00 3.008539390563964844e+01 1.298251299886032939e-04 2.711025081225670874e-05 4.708061169367283583e-05 2.307898103026673198e-05
1.779000000000000000e+03 1.917361974716186523e+00 2.744930458068847656e+01 -1.281419681617990136e-04 -2.898786988225765526e-06 -3.931222818209789693e-05 -1.349808735540136695e-05
1.780000000000000000e+03 4.936932086944580078e+00 3.305910873413085938e+01 -8.599938155384734273e-05 -4.033929508295841515e-05 -3.790160189964808524e-05 -1.945889016496948898e-05
1.781000000000000000e+03 2.162928342819213867e+00 3.569480133056640625e+01 -1.843403006205335259e-04 1.143233112088637426e-05 -5.187239003134891391e-05 -9.653115739638451487e-06
1.782000000000000000e+03 3.287243604660034180e+00 2.866450500488281250e+01 -1.402031921315938234e-04 -1.130657165049342439e-05 -4.545292904367670417e-05 -1.814659299270715564e-05
1.783000000000000000e+03 4.281477928161621094e+00 3.792150115966796875e+01 9.247422713087871671e-05 2.375838994339574128e-05 3.486978312139399350e-05 -2.297968421771656722e-05
1.784000000000000000e+03 2.016001701354980469e+00 3.439140701293945312e+01 1.681413996266201138e-04 -1.675186285865493119e-05 4.541686212178319693e-05 -3.584485966712236404e-05
1.785000000000000000e+03 3.468294620513916016e+00 3.529579162597656250e+01 2.319695340702310205e-04 -3.914860280929133296e-05 5.784627865068614483e-05 -5.452310870168730617e-05
1.786000000000000000e+03 3.421076774597167969e+00 3.294164657592773438e+01 1.208930625580251217e-04 1.735014484438579530e-05 4.147296203882433474e-05 -3.423884845688007772e-05
1.787000000000000000e+03 4.798020362854003906e+00 2.984121894836425781e+01 -1.564792328281328082e-04 -2.190740269725210965e-05 -5.351598883862607181e-05 -1.243523547600489110e-05
1.788000000000000000e+03 3.470727920532226562e+00 3.152449607849121094e+01 -1.008435938274487853e-04 -5.498294922290369868e-05 -4.674796218750998378e-05 -5.082689767732517794e-06
1.789000000000000000e+03 4.196255207061767578e+00 -3.523886489868164062e+01 4.840999376028776169e-03 3.807310247793793678e-03 2.594492863863706589e-03 1.085461210459470749e-02
1.790000000000000000e+03 3.969281911849975586e+00 -3.678684997558593750e+01 -1.550900517031550407e-03 7.212578319013118744e-03 1.698503270745277405e-03 1.096186041831970215e-02
1.791000000000000000e+03 3.932906150817871094e+00 -3.376276016235351562e+01 1.045030308887362480e-03 1.206806628033518791e-03 6.755510694347321987e-04 6.031494587659835815e-03
1.792000000000000000e+03 3.307452201843261719e+00 -2.968666839599609375e+01 3.024378558620810509e-03 6.836208631284534931e-04 1.112399855628609657e-03 2.565604634582996368e-03
1.793000000000000000e+03 1.947006464004516602e+00 -2.864202499389648438e+01 2.018096856772899628e-03 2.671599504537880421e-04 6.855770479887723923e-04 1.240892102941870689e-03
1.794000000000000000e+03 1.919859647750854492e+00 2.185027694702148438e+01 -1.370505779050290585e-04 -2.852765874195029028e-06 -4.197100133751519024e-05 -7.430614459735807031e-06
1.795000000000000000e+03 3.143784284591674805e+00 2.315539169311523438e+01 -1.469608832849189639e-04 5.789977421954972669e-06 -4.235127198626287282e-05 -1.982790126930922270e-05
1.796000000000000000e+03 3.119841814041137695e+00 -1.880881118774414062e+01 5.838515935465693474e-04 2.387260428804438561e-05 1.823172642616555095e-04 2.915586810559034348e-04
1.797000000000000000e+03 2.906382322311401367e+00 -1.192583274841308594e+01 -3.070308594033122063e-04 2.976309042423963547e-05 -8.318032632814720273e-05 -2.156497648684307933e-04
1.798000000000000000e+03 1.652720212936401367e+00 -9.234546661376953125e+00 7.676975656067952514e-05 -5.389991201809607446e-06 2.141392906196415424e-05 8.255164721049368382e-05
1.799000000000000000e+03 3.076657056808471680e+00 1.755557250976562500e+01 -1.411966222804039717e-04 1.733503631839994341e-05 -3.715847196872346103e-05 6.763251349184429273e-06
1.800000000000000000e+03 3.059032678604125977e+00 1.188496875762939453e+01 -9.223526285495609045e-05 -2.787339099086239003e-06 -2.850677992682904005e-05 2.094177943945396692e-05
1.801000000000000000e+03 1.805490851402282715e+00 -1.479618930816650391e+01 3.205709799658507109e-04 -5.229642556514590979e-05 8.048236486501991749e-05 1.160438769147731364e-04
1.802000000000000000e+03 2.951609849929809570e+00 -1.330708789825439453e+01 3.417040279600769281e-04 -5.186500857234932482e-05 8.695170981809496880e-05 1.765653141774237156e-04
1.803000000000000000e+03 4.457127571105957031e+00 5.165181636810302734e+00 3.219595237169414759e-05 1.519338457001140341e-05 1.421680099156219512e-05 -4.032631113659590483e-05
1.804000000000000000e+03 2.759014844894409180e+00 7.578534603118896484e+00 7.358205766649916768e-05 4.809580786968581378e-06 2.351749208173714578e-05 -1.088581120711751282e-05
1.805000000000000000e+03 1.849416494369506836e+00 1.482500076293945312e+01 1.171272015199065208e-04 -6.207191631801833864e-07 3.495194323477335274e-05 -1.424937636329559609e-05
1.806000000000000000e+03 3.045650959014892578e+00 1.616419029235839844e+01 1.309570652665570378e-04 -1.075785439752507955e-05 3.605976235121488571e-05 -1.561602766741998494e-05
1.807000000000000000e+03 2.906621694564819336e+00 8.970500946044921875e+00 -7.480176282115280628e-05 -5.564731964113889262e-06 -2.410994784440845251e-05 1.385186897095991299e-05
1.808000000000000000e+03 5.916789531707763672e+00 -3.982012748718261719e+00 -8.809173596091568470e-05 1.018553884932771325e-04 4.129095941607374698e-06 1.112626632675528526e-04
1.809000000000000000e+03 2.510375738143920898e+00 -5.216829299926757812e+00 -1.904899909277446568e-05 -1.059653295669704676e-04 -3.750429823412559927e-05 7.991115853656083345e-05
1.810000000000000000e+03 1.530944585800170898e+00 -6.488389015197753906e+00 -5.261564410830033012e-07 -1.647630779189057648e-05 -5.100739144836552441e-06 3.604174344218336046e-05
1.811000000000000000e+03 3.219168424606323242e+00 -2.833041763305664062e+01 -4.918355843983590603e-04 2.516685635782778263e-04 -7.205011206679046154e-05 2.006152062676846981e-04
1.812000000000000000e+03 3.203155994415283203e+00 -2.153534698486328125e+01 7.909298292361199856e-04 -4.285274553694762290e-05 2.244231291115283966e-04 3.071577812079340219e-04
1.813000000000000000e+03 2.453513860702514648e+00 -3.555901336669921875e+01 -2.018144354224205017e-03 7.910015992820262909e-03 1.767561305314302444e-03 5.036370363086462021e-03
1.814000000000000000e+03 3.211717605590820312e+00 -2.290242767333984375e+01 -9.223962551914155483e-04 4.691165304393507540e-05 -2.626453933771699667e-04 -6.783854914829134941e-04
1.815000000000000000e+03 3.032718658447265625e+00 -1.607930564880371094e+01 4.344469925854355097e-04 2.179192415496800095e-05 1.368716766592115164e-04 2.033289056271314621e-04
1.816000000000000000e+03 3.226469755172729492e+00 2.176243400573730469e+01 1.414058933733031154e-04 2.908514716182253323e-06 4.329431976657360792e-05 1.482026436860905960e-05
1.817000000000000000e+03 2.848928689956665039e+00 -1.055172348022460938e+01 2.190592495026066899e-04 -8.253261512436438352e-06 6.324179412331432104e-05 1.672952203080058098e-04
1.818000000000000000e+03 2.767914056777954102e+00 -9.186382293701171875e+00 -1.703998132143169641e-04 -1.787006476661190391e-05 -5.648096339427866042e-05 -1.472799776820465922e-04
1.819000000000000000e+03 3.673964500427246094e+00 -3.238799667358398438e+01 4.839400760829448700e-03 1.550286309793591499e-03 1.916906097903847694e-03 5.897436290979385376e-03
1.820000000000000000e+03 1.908044815063476562e+00 -2.449222564697265625e+01 -1.102455658838152885e-03 -3.125920775346457958e-04 -4.245143209118396044e-04 -5.547195905819535255e-04
1.821000000000000000e+03 4.484844684600830078e+00 -2.406634712219238281e+01 -7.641488336957991123e-04 3.921101451851427555e-04 -1.116116036428138614e-04 -5.691516562364995480e-04
1.822000000000000000e+03 3.176646471023559570e+00 -2.562723159790039062e+01 -8.598546264693140984e-04 7.864148210501298308e-05 -2.343639498576521873e-04 -5.087460158392786980e-04
1.823000000000000000e+03 2.992779254913330078e+00 -1.469461154937744141e+01 -4.379376478027552366e-04 -7.356200967478798702e-06 -1.335881534032523632e-04 -2.651099057402461767e-04
1.824000000000000000e+03 3.017279863357543945e+00 1.041579723358154297e+01 7.968026329763233662e-05 7.425518560921773314e-06 2.613173273857682943e-05 -1.854065521911252290e-05
1.825000000000000000e+03 3.086525917053222656e+00 1.333823585510253906e+01 1.040497081703506410e-04 5.812524932480300777e-07 3.138928877888247371e-05 -1.924987009260803461e-05
1.826000000000000000e+03 3.177644491195678711e+00 1.895527076721191406e+01 1.420396147295832634e-04 -1.516194060968700796e-05 3.806330278166569769e-05 6.487782229669392109e-06
1.827000000000000000e+03 2.341030883789062500e+01 3.200850009918212891e+00 -3.579781576991081238e-02 -1.602387070655822754e+00 -4.914554655551910400e-01 -2.344255298376083374e-01
1.828000000000000000e+03 2.300407028198242188e+01 -9.400193214416503906e+00 -3.943211399018764496e-03 -2.026292324066162109e+00 -6.090707182884216309e-01 -1.829352676868438721e-01
1.829000000000000000e+03 1.177390670776367188e+01 3.365167236328125000e+01 4.041505744680762291e-04 -9.528564987704157829e-05 9.265947301173582673e-05 8.527505269739776850e-05
1.830000000000000000e+03 1.272524166107177734e+01 3.053798103332519531e+01 -2.972073270939290524e-04 1.227557731908746064e-05 -8.547952893422916532e-05 7.875836672610603273e-06
1.831000000000000000e+03 1.193723773956298828e+01 2.346035385131835938e+01 1.836506125982850790e-04 -4.510411599767394364e-06 5.374206375563517213e-05 -2.524355295463465154e-05
1.832000000000000000e+03 1.596586894989013672e+01 3.712363052368164062e+01 -1.734900870360434055e-04 -4.488627600949257612e-04 -1.867058599600568414e-04 -3.106990334345027804e-05
1.833000000000000000e+03 2.290340042114257812e+01 -1.512378311157226562e+01 -2.541324868798255920e-02 -2.091638088226318359e+00 -6.351153850555419922e-01 -1.315715759992599487e-01
1.834000000000000000e+03 2.296691894531250000e+01 -1.226159095764160156e+01 -3.675568103790283203e-02 -2.070122957229614258e+00 -6.320636272430419922e-01 -1.571355760097503662e-01
1.835000000000000000e+03 1.169437789916992188e+01 -3.536676406860351562e+01 3.039353899657726288e-02 -8.761872537434101105e-03 6.489499937742948532e-03 -1.403431594371795654e-02
1.836000000000000000e+03 8.982111930847167969e+00 -3.943013000488281250e+01 -2.034761570394039154e-02 -2.199134975671768188e-02 -1.270168926566839218e-02 3.011857345700263977e-02
1.837000000000000000e+03 2.348043441772460938e+01 6.050387859344482422e+00 -3.733842074871063232e-02 -1.458102107048034668e+00 -4.486321508884429932e-01 -2.652965486049652100e-01
1.838000000000000000e+03 3.849736022949218750e+01 3.884603118896484375e+01 -8.392716757953166962e-03 -1.167868729680776596e-02 -6.021421402692794800e-03 1.173085439950227737e-02
1.839000000000000000e+03 1.331439018249511719e+01 3.490609359741210938e+01 5.202341126278042793e-04 -7.502867083530873060e-05 1.335616252617910504e-04 -5.381975643103942275e-05
1.840000000000000000e+03 4.377658843994140625e+01 3.863663101196289062e+01 1.027182675898075104e-02 -7.259230315685272217e-02 -1.869614236056804657e-02 4.945978149771690369e-02
1.841000000000000000e+03 3.737291336059570312e+01 4.111920547485351562e+01 -1.210486399941146374e-03 -1.885150372982025146e-02 -6.018596701323986053e-03 1.941672380780801177e-04
1.842000000000000000e+03 3.653327941894531250e+01 3.827073287963867188e+01 2.553169149905443192e-03 -1.152958068996667862e-02 -2.692923648282885551e-03 5.919338669627904892e-03
1.843000000000000000e+03 3.964302444458007812e+01 4.021024322509765625e+01 1.028623338788747787e-02 -3.750650584697723389e-02 -8.166082203388214111e-03 4.829633049666881561e-03
1.844000000000000000e+03 4.166703796386718750e+01 3.691474533081054688e+01 -1.112651173025369644e-02 -3.507289290428161621e-02 -1.385982148349285126e-02 3.698585927486419678e-02
1.845000000000000000e+03 2.319874000549316406e+01 -2.425977945327758789e+00 6.671428214758634567e-03 -1.806337594985961914e+00 -5.398998856544494629e-01 -2.183033525943756104e-01
1.846000000000000000e+03 2.265646743774414062e+01 -1.940645217895507812e+01 4.063084349036216736e-02 -2.129008054733276367e+00 -6.265131831169128418e-01 -1.288284659385681152e-01
1.847000000000000000e+03 1.241811847686767578e+01 2.767796707153320312e+01 -2.412974718026816845e-04 8.813267413643188775e-06 -6.974526331759989262e-05 1.596968468220438808e-05
1.848000000000000000e+03 3.339621734619140625e+01 3.888549041748046875e+01 1.160563901066780090e-03 8.983653387986123562e-04 6.176787428557872772e-04 -2.456263871863484383e-03
1.849000000000000000e+03 2.118705177307128906e+01 -2.089118385314941406e+01 7.992352358996868134e-03 -2.310153722763061523e+00 -6.906483769416809082e-01 -1.298243552446365356e-01
1.850000000000000000e+03 2.234637832641601562e+01 -3.188496017456054688e+01 -1.207585781812667847e-01 -2.292344570159912109e+00 -7.239309549331665039e-01 -1.557052582502365112e-01
1.851000000000000000e+03 2.272624588012695312e+01 -2.811339569091796875e+01 -1.715455390512943268e-02 -2.208672046661376953e+00 -6.677479743957519531e-01 -1.200510635972023010e-01
1.852000000000000000e+03 2.692576408386230469e+01 3.933953094482421875e+01 1.305242301896214485e-03 1.183914369903504848e-03 7.467470131814479828e-04 -1.672371523454785347e-03
1.853000000000000000e+03 2.441467285156250000e+01 -2.665412902832031250e+01 6.399855948984622955e-03 -1.878835678100585938e+00 -5.617307424545288086e-01 -1.214421093463897705e-01
1.854000000000000000e+03 2.119116592407226562e+01 -2.518220138549804688e+01 3.081718459725379944e-02 -2.392146110534667969e+00 -7.083986997604370117e-01 -9.079784899950027466e-02
1.855000000000000000e+03 2.106401824951171875e+01 -2.936803436279296875e+01 -1.752149499952793121e-02 -2.533167839050292969e+00 -7.652068138122558594e-01 -8.537541329860687256e-02
1.856000000000000000e+03 1.515080451965332031e+01 -4.038551330566406250e+01 -1.484804451465606689e-01 -1.334217190742492676e-01 -8.457065373659133911e-02 -2.524157799780368805e-02
1.857000000000000000e+03 2.152350044250488281e+01 -3.490542984008789062e+01 -2.689081430435180664e-01 -2.331866979598999023e+00 -7.802325487136840820e-01 -2.038702219724655151e-01
1.858000000000000000e+03 5.137209415435791016e+00 -4.051356124877929688e+01 -1.154485810548067093e-02 2.089017257094383240e-02 2.803594106808304787e-03 5.745144560933113098e-03
1.859000000000000000e+03 6.788263702392578125e+01 3.290050506591796875e+01 1.618999958038330078e+00 3.245931148529052734e+00 1.459479331970214844e+00 -3.403286218643188477e+00
1.860000000000000000e+03 6.895608520507812500e+01 3.301898574829101562e+01 1.219508647918701172e+00 8.638154983520507812e+00 2.957299232482910156e+00 -5.309063911437988281e+00
1.861000000000000000e+03 6.825519561767578125e+01 3.313687896728515625e+01 1.536065459251403809e+00 5.044076919555664062e+00 1.974042773246765137e+00 -4.181749820709228516e+00
1.862000000000000000e+03 7.023780822753906250e+01 3.283656311035156250e+01 -2.982371747493743896e-01 1.745764541625976562e+01 5.147822380065917969e+00 -2.739258766174316406e+00
1.863000000000000000e+03 6.880455780029296875e+01 3.282197952270507812e+01 1.738576531410217285e+00 7.452707767486572266e+00 2.757385253906250000e+00 -5.307136535644531250e+00
1.864000000000000000e+03 6.937057495117187500e+01 2.809970474243164062e+01 -5.960358977317810059e-01 1.082553863525390625e+01 3.068850755691528320e+00 4.852148056030273438e+00
1.865000000000000000e+03 6.972058105468750000e+01 2.865658760070800781e+01 -6.740880012512207031e-01 1.382479858398437500e+01 3.945213079452514648e+00 5.036355972290039062e+00
1.866000000000000000e+03 7.041564941406250000e+01 2.877402687072753906e+01 -8.817108273506164551e-01 1.719677352905273438e+01 4.894518852233886719e+00 2.403332471847534180e+00
1.867000000000000000e+03 6.776849365234375000e+01 2.925175094604492188e+01 4.283904135227203369e-01 2.010495424270629883e+00 7.316657304763793945e-01 3.057180404663085938e+00
1.868000000000000000e+03 6.992926788330078125e+01 2.877805519104003906e+01 -8.233313560485839844e-01 1.552300453186035156e+01 4.409902095794677734e+00 4.447360038757324219e+00
1.869000000000000000e+03 7.068924713134765625e+01 3.276142120361328125e+01 1.697975099086761475e-01 1.838403701782226562e+01 5.566150188446044922e+00 -5.639861822128295898e-01
1.870000000000000000e+03 6.922422027587890625e+01 3.304357910156250000e+01 8.209022283554077148e-01 1.054909133911132812e+01 3.410997867584228516e+00 -5.301972866058349609e+00
1.871000000000000000e+03 7.209532928466796875e+01 2.997774696350097656e+01 5.350294113159179688e+00 1.483194065093994141e+01 6.054670333862304688e+00 -1.899066567420959473e+00
1.872000000000000000e+03 7.160063171386718750e+01 2.967726135253906250e+01 4.298796176910400391e+00 1.699284553527832031e+01 6.387492179870605469e+00 -2.430367946624755859e+00
1.873000000000000000e+03 7.146745300292968750e+01 2.899647331237792969e+01 1.159911632537841797e+00 1.689478111267089844e+01 5.416407585144042969e+00 -1.381611704826354980e+00
1.874000000000000000e+03 7.080622863769531250e+01 2.907370758056640625e+01 1.969998329877853394e-02 1.877260589599609375e+01 5.637691974639892578e+00 4.120972752571105957e-01
1.875000000000000000e+03 7.194580841064453125e+01 3.233269500732421875e+01 3.362782239913940430e+00 1.556983375549316406e+01 5.679784774780273438e+00 2.297422647476196289e+00
1.876000000000000000e+03 7.061835479736328125e+01 3.307761383056640625e+01 -4.215738773345947266e-01 1.720697784423828125e+01 5.035621166229248047e+00 -1.282867431640625000e+00
1.877000000000000000e+03 7.136956024169921875e+01 3.290514373779296875e+01 8.415387272834777832e-01 1.676873016357421875e+01 5.283081054687500000e+00 1.138310313224792480e+00
1.878000000000000000e+03 7.742628479003906250e+01 3.299665069580078125e+01 5.187557935714721680e-01 7.868505954742431641e+00 2.516178369522094727e+00 9.957734346389770508e-01
1.879000000000000000e+03 7.641769409179687500e+01 3.178921699523925781e+01 1.335874915122985840e+00 8.586807250976562500e+00 2.976804733276367188e+00 6.050692796707153320e-01
1.880000000000000000e+03 7.567121887207031250e+01 3.555905914306640625e+01 -1.969121843576431274e-01 9.933824539184570312e+00 2.921073675155639648e+00 1.694346189498901367e+00
1.881000000000000000e+03 6.667057037353515625e+01 2.866256523132324219e+01 -5.232715010643005371e-01 1.274721860885620117e+00 2.254350930452346802e-01 2.036537408828735352e+00
1.882000000000000000e+03 6.711306762695312500e+01 2.900344848632812500e+01 -3.978450000286102295e-01 1.289827346801757812e+00 2.675946950912475586e-01 2.193507909774780273e+00
1.883000000000000000e+03 6.764052581787109375e+01 3.280793380737304688e+01 1.407500147819519043e+00 2.545316696166992188e+00 1.185845017433166504e+00 -2.814426660537719727e+00
1.884000000000000000e+03 6.482920837402343750e+01 3.450888824462890625e+01 4.778208434581756592e-01 9.789658784866333008e-01 4.370360076427459717e-01 -8.283908963203430176e-01
1.885000000000000000e+03 6.618611145019531250e+01 2.786765480041503906e+01 -3.038157522678375244e-01 1.638753890991210938e+00 4.004814326763153076e-01 2.196901798248291016e+00
1.886000000000000000e+03 6.463717651367187500e+01 2.786337852478027344e+01 -1.150675415992736816e+00 6.491462588310241699e-01 -1.504587382078170776e-01 1.077050447463989258e+00
1.887000000000000000e+03 6.607298278808593750e+01 3.370826721191406250e+01 6.265619993209838867e-01 1.427472114562988281e+00 6.162102222442626953e-01 -1.341221809387207031e+00
1.888000000000000000e+03 6.468911743164062500e+01 3.510897445678710938e+01 5.997086763381958008e-01 1.220433950424194336e+00 5.460427999496459961e-01 -8.933811187744140625e-01
1.889000000000000000e+03 2.626838302612304688e+01 3.166095161437988281e+01 -8.523047715425491333e-02 -3.551033884286880493e-02 -3.622224554419517517e-02 -7.553576678037643433e-02
1.890000000000000000e+03 6.201445770263671875e+01 2.796599578857421875e+01 -2.152885913848876953e+00 1.433879286050796509e-01 -6.028493642807006836e-01 2.283789217472076416e-01
1.891000000000000000e+03 6.272646331787109375e+01 2.734825325012207031e+01 -1.495456814765930176e+00 3.635466992855072021e-01 -3.395730257034301758e-01 5.397331714630126953e-01
1.892000000000000000e+03 6.543154144287109375e+01 3.448707580566406250e+01 6.326945424079895020e-01 1.405489563941955566e+00 6.114552617073059082e-01 -1.139427661895751953e+00
1.893000000000000000e+03 5.902849960327148438e+01 2.797385597229003906e+01 -2.439028739929199219e+00 2.843548171222209930e-02 -7.231779694557189941e-01 -8.206483721733093262e-02
1.894000000000000000e+03 6.582502746582031250e+01 2.816385269165039062e+01 -7.571775317192077637e-01 1.023875474929809570e+00 8.000940084457397461e-02 1.646401047706604004e+00
1.895000000000000000e+03 2.700005531311035156e+01 3.175668334960937500e+01 -1.027698814868927002e-01 -2.995872311294078827e-02 -3.981858119368553162e-02 -8.293424546718597412e-02
1.896000000000000000e+03 8.149389266967773438e+00 4.243194103240966797e+00 2.129385575244668871e-05 2.096945536322891712e-05 1.267899369850056246e-05 6.408988156181294471e-06
1.897000000000000000e+03 1.044497776031494141e+01 3.320531368255615234e+00 4.036893733427859843e-05 -1.296087219770925003e-07 1.207179866469232365e-05 3.473597416814300232e-06
1.898000000000000000e+03 2.619275283813476562e+01 3.254436492919921875e+01 -6.958774477243423462e-02 -2.449631318449974060e-02 -2.822521701455116272e-02 -5.218575522303581238e-02
1.899000000000000000e+03 2.570214271545410156e+01 3.056578063964843750e+01 -8.180034905672073364e-02 -5.630441009998321533e-02 -4.143142700195312500e-02 -9.374813735485076904e-02
1.900000000000000000e+03 6.756587505340576172e+00 5.642763614654541016e+00 -1.067344328475883231e-05 -5.887799034098861739e-06 -4.968372650182573125e-06 8.317225365317426622e-06
1.901000000000000000e+03 5.176211357116699219e+00 4.257093429565429688e+00 1.952745151356793940e-05 2.239343120891135186e-05 1.257626445294590667e-05 -2.332423719053622335e-05
1.902000000000000000e+03 4.520967006683349609e+00 6.054363250732421875e+00 -1.305929527006810531e-05 -2.437502917018719018e-05 -1.123029687732923776e-05 3.381216447451151907e-05
1.903000000000000000e+03 5.210547447204589844e+00 3.484072685241699219e+00 -1.815727409848477691e-05 -2.117872281814925373e-05 -1.180079925688914955e-05 1.451235948479734361e-05
1.904000000000000000e+03 3.002021551132202148e+00 5.065570831298828125e+00 6.285288691287860274e-05 5.556230917136417702e-06 2.052273521258030087e-05 1.390917532262392342e-05
1.905000000000000000e+03 2.912810897827148438e+01 3.171629142761230469e+01 -1.728495657444000244e-01 -1.266923453658819199e-02 -5.565563961863517761e-02 -1.139822453260421753e-01
1.906000000000000000e+03 2.929155349731445312e+00 3.614659070968627930e+00 2.938118632300756872e-05 2.987336847581900656e-05 1.777636680344585329e-05 1.225117557623889297e-05
1.907000000000000000e+03 1.448586821556091309e+00 4.858705997467041016e+00 -3.114217179245315492e-05 -8.208610779547598213e-06 -1.180523486254969612e-05 2.053381285804789513e-05
1.908000000000000000e+03 1.641831278800964355e+00 3.292608499526977539e+00 5.397626591729931533e-05 -7.552328540327835071e-09 1.619061367819085717e-05 9.710475751489866525e-06
1.909000000000000000e+03 5.561819839477539062e+01 3.554816436767578125e+01 -1.206320822238922119e-01 -1.340219080448150635e-01 -7.639619708061218262e-02 4.443615078926086426e-01
1.910000000000000000e+03 2.983207321166992188e+01 3.164094924926757812e+01 -2.011411339044570923e-01 -6.741511169821023941e-03 -6.236479431390762329e-02 -1.248546168208122253e-01
1.911000000000000000e+03 3.054366493225097656e+01 3.154603576660156250e+01 -2.326621711254119873e-01 -5.968154873698949814e-04 -6.997770071029663086e-02 -1.362776458263397217e-01
1.912000000000000000e+03 5.797246932983398438e+01 3.541310119628906250e+01 -1.584887206554412842e-01 -1.111258491873741150e-01 -8.088436722755432129e-02 4.460103809833526611e-01
1.913000000000000000e+03 5.935461044311523438e+01 3.567275619506835938e+01 4.069108143448829651e-02 1.397200077772140503e-01 5.412332713603973389e-02 4.185816943645477295e-01
1.914000000000000000e+03 3.198133087158203125e+01 3.132760429382324219e+01 -3.042659759521484375e-01 1.176414266228675842e-02 -8.775054663419723511e-02 -1.590844690799713135e-01
1.915000000000000000e+03 5.094572830200195312e+01 3.704458618164062500e+01 1.909015513956546783e-02 -1.919950842857360840e-01 -5.187147855758666992e-02 2.571191489696502686e-01
1.916000000000000000e+03 6.285944747924804688e+01 3.430286407470703125e+01 -1.850772351026535034e-01 3.569352626800537109e-01 5.155740678310394287e-02 1.139211468398571014e-02
1.917000000000000000e+03 6.427525329589843750e+01 3.470315933227539062e+01 3.913786709308624268e-01 8.679661154747009277e-01 3.778034448623657227e-01 -5.960454940795898438e-01
1.918000000000000000e+03 9.705392837524414062e+00 4.143243789672851562e+00 3.977819142164662480e-05 1.046664692694321275e-05 1.507345132267801091e-05 1.441626318410271779e-05
1.919000000000000000e+03 1.022849941253662109e+01 -5.228301048278808594e+00 -1.434297882951796055e-04 -6.821466377004981041e-05 -6.349333852995187044e-05 6.401629070751368999e-05
1.920000000000000000e+03 1.027578449249267578e+01 -4.309332370758056641e+00 1.269329659407958388e-04 1.828487438615411520e-05 4.356534918770194054e-05 3.469084185780957341e-05
1.921000000000000000e+03 2.911169624328613281e+01 3.246297073364257812e+01 -1.553758382797241211e-01 -5.009709857404232025e-03 -4.811566323041915894e-02 -8.712309598922729492e-02
1.922000000000000000e+03 1.099654769897460938e+01 -5.209075927734375000e+00 2.897452795878052711e-04 -8.976252865977585316e-05 5.999482164043001831e-05 1.335779088549315929e-04
1.923000000000000000e+03 1.105359554290771484e+01 -3.469658374786376953e+00 5.279060496832244098e-05 1.187445595860481262e-04 5.146054900251328945e-05 -1.236211755895055830e-05
1.924000000000000000e+03 3.270319366455078125e+01 3.120924568176269531e+01 -3.444155156612396240e-01 1.799850910902023315e-02 -9.792510420083999634e-02 -1.700608283281326294e-01
1.925000000000000000e+03 2.771596908569335938e+01 3.178780746459960938e+01 -1.237514615058898926e-01 -2.455046959221363068e-02 -4.449057951569557190e-02 -9.330417960882186890e-02
1.926000000000000000e+03 2.842462539672851562e+01 3.176808929443359375e+01 -1.471989601850509644e-01 -1.850867457687854767e-02 -4.971228912472724915e-02 -1.032378301024436951e-01
1.927000000000000000e+03 3.199785614013671875e+01 3.203980255126953125e+01 -2.876282930374145508e-01 1.585117354989051819e-02 -8.153313398361206055e-02 -1.235047429800033569e-01
1.928000000000000000e+03 3.126155471801757812e+01 3.143982124328613281e+01 -2.670119702816009521e-01 5.440553184598684311e-03 -7.847142219543457031e-02 -1.477265655994415283e-01
1.929000000000000000e+03 3.924775695800781250e+01 2.998733520507812500e+01 -8.194252848625183105e-01 6.447445601224899292e-02 -2.264852523803710938e-01 -2.512740194797515869e-01
1.930000000000000000e+03 3.996869659423828125e+01 2.984440040588378906e+01 -8.822548985481262207e-01 6.710823625326156616e-02 -2.445439994335174561e-01 -2.592671215534210205e-01
1.931000000000000000e+03 3.710895156860351562e+01 3.109271430969238281e+01 -6.391049027442932129e-01 4.800458624958992004e-02 -1.773300915956497192e-01 -1.731829643249511719e-01
1.932000000000000000e+03 3.852547836303710938e+01 3.012556838989257812e+01 -7.580757141113281250e-01 6.027003750205039978e-02 -2.093417048454284668e-01 -2.436041086912155151e-01
1.933000000000000000e+03 3.564238357543945312e+01 3.137270545959472656e+01 -5.237418413162231445e-01 3.991100564599037170e-02 -1.451492458581924438e-01 -1.619954556226730347e-01
1.934000000000000000e+03 3.775584793090820312e+01 2.955108833312988281e+01 -6.890967488288879395e-01 5.742970854043960571e-02 -1.895001083612442017e-01 -2.926773726940155029e-01
1.935000000000000000e+03 4.076075744628906250e+01 3.038625144958496094e+01 -9.730461835861206055e-01 6.197268143296241760e-02 -2.733220458030700684e-01 -1.979155093431472778e-01
1.936000000000000000e+03 3.342734909057617188e+01 3.108398437500000000e+01 -3.872559964656829834e-01 2.422387152910232544e-02 -1.089096367359161377e-01 -1.808294206857681274e-01
1.937000000000000000e+03 3.415206146240234375e+01 3.095303726196289062e+01 -4.328682422637939453e-01 3.009556420147418976e-02 -1.208318024873733521e-01 -1.912092715501785278e-01
1.938000000000000000e+03 4.364934921264648438e+01 2.910167503356933594e+01 -1.219160914421081543e+00 7.274965196847915649e-02 -3.439233899116516113e-01 -2.987624704837799072e-01
1.939000000000000000e+03 7.310567378997802734e+00 -3.362455606460571289e+00 -5.414568295236676931e-05 -4.029758929391391575e-05 -2.833298094628844410e-05 -1.510158472228795290e-05
1.940000000000000000e+03 1.174563217163085938e+01 -5.323714733123779297e+00 1.455952296964824200e-04 7.584635750390589237e-05 6.643247616011649370e-05 -1.867979735834524035e-04
1.941000000000000000e+03 4.290313720703125000e+01 2.925041580200195312e+01 -1.149533390998840332e+00 7.220543175935745239e-02 -3.231984078884124756e-01 -2.913608551025390625e-01
1.942000000000000000e+03 4.667018890380859375e+01 2.854859733581542969e+01 -1.499541044235229492e+00 6.390529870986938477e-02 -4.306907355785369873e-01 -3.245199322700500488e-01
1.943000000000000000e+03 4.673117828369140625e+01 2.925339317321777344e+01 -1.607148408889770508e+00 5.287874862551689148e-02 -4.662809073925018311e-01 -2.369935065507888794e-01
1.944000000000000000e+03 3.487767791748046875e+01 3.081729888916015625e+01 -4.809058010578155518e-01 3.597100824117660522e-02 -1.334804445505142212e-01 -2.012483924627304077e-01
1.945000000000000000e+03 3.560550689697265625e+01 3.067798042297363281e+01 -5.316383838653564453e-01 4.128810018301010132e-02 -1.471050977706909180e-01 -2.107764929533004761e-01
1.946000000000000000e+03 5.057543945312500000e+01 2.867374992370605469e+01 -2.010380983352661133e+00 3.196788579225540161e-02 -5.935239791870117188e-01 -2.474161684513092041e-01
1.947000000000000000e+03 4.902785110473632812e+01 2.888614654541015625e+01 -1.851082921028137207e+00 3.997439891099929810e-02 -5.433325767517089844e-01 -2.465523183345794678e-01
1.948000000000000000e+03 4.971324920654296875e+01 2.733377456665039062e+01 -1.593529820442199707e+00 6.016309559345245361e-02 -4.600100219249725342e-01 -4.104307889938354492e-01
1.949000000000000000e+03 5.441650390625000000e+01 2.825058555603027344e+01 -2.331710100173950195e+00 8.190937340259552002e-03 -6.970557570457458496e-01 -2.296140789985656738e-01
1.950000000000000000e+03 5.675716781616210938e+01 2.738654708862304688e+01 -2.093559265136718750e+00 3.394154086709022522e-02 -6.178853511810302734e-01 -2.083545327186584473e-01
1.951000000000000000e+03 4.749095916748046875e+01 2.912624168395996094e+01 -1.687913775444030762e+00 4.877589643001556396e-02 -4.917413890361785889e-01 -2.412527203559875488e-01
1.952000000000000000e+03 5.364207839965820312e+01 2.832196235656738281e+01 -2.277227163314819336e+00 1.412876043468713760e-02 -6.789295077323913574e-01 -2.379841506481170654e-01
1.953000000000000000e+03 4.875865554809570312e+01 3.888539505004882812e+01 1.379952728748321533e-01 -2.008869200944900513e-01 -1.886749081313610077e-02 1.563803255558013916e-01
1.954000000000000000e+03 1.195962715148925781e+01 3.059910058975219727e+00 2.516465974622406065e-05 -1.081514028555830009e-06 7.224944056360982358e-06 -1.803389204724226147e-05
1.955000000000000000e+03 1.223360633850097656e+01 3.723727464675903320e+00 -4.419012475409545004e-05 1.083332972484640777e-05 -1.000703832687577233e-05 1.755450102791655809e-05
1.956000000000000000e+03 4.439818572998046875e+01 2.895722579956054688e+01 -1.289847016334533691e+00 7.122252136468887329e-02 -3.655873537063598633e-01 -3.060333132743835449e-01
1.957000000000000000e+03 4.069384765625000000e+01 2.969830322265625000e+01 -9.462401866912841797e-01 6.970123946666717529e-02 -2.629616856575012207e-01 -2.674891650676727295e-01
1.958000000000000000e+03 4.142494964599609375e+01 2.955006027221679688e+01 -1.012986302375793457e+00 7.097044587135314941e-02 -2.826047837734222412e-01 -2.756000161170959473e-01
1.959000000000000000e+03 8.955013275146484375e+00 4.970210552215576172e+00 3.344718788866885006e-05 1.823144157242495567e-05 1.550358865642920136e-05 1.505876934970729053e-05
1.960000000000000000e+03 6.272512435913085938e+01 2.672138214111328125e+01 -1.101739168167114258e+00 5.626655817031860352e-01 -1.617220640182495117e-01 7.065299749374389648e-01
1.961000000000000000e+03 4.590848159790039062e+01 2.868087005615234375e+01 -1.430834412574768066e+00 6.693088263273239136e-02 -4.091710746288299561e-01 -3.189323842525482178e-01
1.962000000000000000e+03 5.287140274047851562e+01 2.840099143981933594e+01 -2.218853235244750977e+00 1.656707189977169037e-02 -6.606858372688293457e-01 -2.433739453554153442e-01
1.963000000000000000e+03 4.976770401000976562e+01 2.806017494201660156e+01 -1.764783143997192383e+00 4.804877191781997681e-02 -5.150203108787536621e-01 -3.351466655731201172e-01
1.964000000000000000e+03 4.568815708160400391e+00 -3.460073232650756836e+00 -2.839498920366168022e-04 -6.299970118561759591e-05 -1.040848728734999895e-04 -1.964760158443823457e-04
1.965000000000000000e+03 6.376731872558593750e+00 -4.898130416870117188e+00 5.853075708728283644e-05 -1.121446111937984824e-04 -1.608415732334833592e-05 1.002952649287180975e-05
1.966000000000000000e+03 8.051714897155761719e+00 -3.399627685546875000e+00 6.576690066140145063e-05 2.535735620767809451e-05 2.733727706072386354e-05 2.906515692302491516e-05
1.967000000000000000e+03 3.760120630264282227e+00 -7.789535999298095703e+00 -2.167153434129431844e-04 -4.437309689819812775e-05 -7.832653500372543931e-05 -1.682459551375359297e-04
1.968000000000000000e+03 3.442679405212402344e+00 -4.497064590454101562e+00 3.509738889988511801e-04 -2.247595257358625531e-04 3.786430897889658809e-05 -5.761050852015614510e-05
1.969000000000000000e+03 3.592265605926513672e+00 -6.533828258514404297e+00 1.986710267374292016e-04 4.105235711904242635e-05 7.191701297415420413e-05 1.297943526878952980e-04
1.970000000000000000e+03 2.552363157272338867e+00 -6.528203964233398438e+00 -5.982810034765861928e-05 4.611218628269853070e-06 -1.656506356084719300e-05 -8.392536983592435718e-05
1.971000000000000000e+03 6.350764465332031250e+01 3.572507858276367188e+01 5.088320970535278320e-01 9.382223486900329590e-01 4.341163635253906250e-01 -5.150521397590637207e-01
1.972000000000000000e+03 6.296895217895507812e+01 3.514712142944335938e+01 2.424270510673522949e-01 6.859031319618225098e-01 2.784990370273590088e-01 -2.255376279354095459e-01
1.973000000000000000e+03 5.983419799804687500e+01 2.730735969543457031e+01 -1.971605062484741211e+00 1.085227951407432556e-01 -5.589246749877929688e-01 2.196611277759075165e-02
1.974000000000000000e+03 6.058745193481445312e+01 2.731424903869628906e+01 -1.896445751190185547e+00 1.457059383392333984e-01 -5.252219438552856445e-01 1.130656674504280090e-01
1.975000000000000000e+03 5.906966400146484375e+01 2.731103897094726562e+01 -2.026700258255004883e+00 7.966256141662597656e-02 -5.841113328933715820e-01 -5.593238398432731628e-02
1.976000000000000000e+03 5.826372909545898438e+01 2.799773788452148438e+01 -2.453926086425781250e+00 1.859561540186405182e-02 -7.305991053581237793e-01 -1.245966777205467224e-01
1.977000000000000000e+03 6.203840637207031250e+01 2.734288787841796875e+01 -1.667488932609558105e+00 2.693522870540618896e-01 -4.194410145282745361e-01 3.624718487262725830e-01
1.978000000000000000e+03 6.337279129028320312e+01 2.672010040283203125e+01 -9.111333489418029785e-01 7.291876673698425293e-01 -5.458370968699455261e-02 9.461291432380676270e-01
1.979000000000000000e+03 1.269700527191162109e+01 -4.225183486938476562e+00 -2.011319884331896901e-04 -1.958912616828456521e-04 -1.191069750348106027e-04 2.511138336558360606e-05
1.980000000000000000e+03 1.293636322021484375e+01 3.205508947372436523e+00 -4.041053216496948153e-06 -1.375963620375841856e-05 -5.340206826076610014e-06 -2.475597102602478117e-05
1.981000000000000000e+03 1.134519577026367188e+01 3.978762626647949219e+00 5.410243102232925594e-05 -5.929896815359825268e-06 1.445175985281821340e-05 1.531281895950087346e-06
1.982000000000000000e+03 1.357285690307617188e+01 3.379274845123291016e+00 6.609345291508361697e-05 -5.911672360525699332e-06 1.805453393899369985e-05 6.049621788406511769e-06
1.983000000000000000e+03 2.288934707641601562e+01 3.104612922668457031e+01 -2.034818939864635468e-02 -3.734391927719116211e-02 -1.730763353407382965e-02 -3.018658421933650970e-02
1.984000000000000000e+03 2.286693382263183594e+01 3.223669815063476562e+01 -1.559565681964159012e-02 -1.994554884731769562e-02 -1.066236197948455811e-02 -1.404960267245769501e-02
1.985000000000000000e+03 1.224530887603759766e+01 -1.296759796142578125e+01 1.572379696881398559e-04 -2.955521813419181854e-05 3.830482455668970942e-05 9.043257159646600485e-05
1.986000000000000000e+03 1.191380310058593750e+01 -1.429453563690185547e+01 -1.882360666058957577e-04 2.472177147865295410e-04 1.769449772837106138e-05 -5.453092308016493917e-05
1.987000000000000000e+03 1.261177635192871094e+01 -6.689824104309082031e+00 -2.881796681322157383e-04 -2.406435378361493349e-04 -1.586469588801264763e-04 1.120179076679050922e-04
1.988000000000000000e+03 1.266358566284179688e+01 -7.942551612854003906e+00 3.640454087872058153e-04 8.182172314263880253e-05 1.337601424893364310e-04 -8.545412129024043679e-05
1.989000000000000000e+03 5.414695739746093750e+01 3.616555786132812500e+01 -2.131703682243824005e-02 -2.016768306493759155e-01 -6.689815968275070190e-02 3.568078577518463135e-01
1.990000000000000000e+03 5.530941009521484375e+01 3.485372161865234375e+01 -3.446747958660125732e-01 -1.306880116462707520e-01 -1.426088511943817139e-01 4.359431862831115723e-01
1.991000000000000000e+03 1.248798179626464844e+01 7.901920318603515625e+00 -5.781960499007254839e-05 -8.488263119943439960e-06 -1.989236079680267721e-05 -1.074227384378900751e-05
1.992000000000000000e+03 4.232822799682617188e+01 4.112482833862304688e+01 3.691845759749412537e-02 -8.554857969284057617e-02 -1.458903681486845016e-02 2.282952889800071716e-02
1.993000000000000000e+03 2.719861984252929688e+01 4.171793746948242188e+01 -1.696690451353788376e-03 1.163413748145103455e-03 -1.599829993210732937e-04 -1.618965645320713520e-03
1.994000000000000000e+03 1.183703327178955078e+01 -4.324064731597900391e+00 -2.768076774373184890e-05 2.003477275138720870e-04 5.180008884053677320e-05 3.093362101935781538e-05
1.995000000000000000e+03 1.822632026672363281e+01 4.154782867431640625e+01 4.159929812885820866e-04 4.831317710340954363e-05 1.392918493365868926e-04 -5.565402098000049591e-04
1.996000000000000000e+03 1.835061264038085938e+01 3.927430343627929688e+01 1.734259189106523991e-03 3.190725983586162329e-04 6.159995682537555695e-04 1.316483248956501484e-04
1.997000000000000000e+03 2.461104011535644531e+01 5.367502570152282715e-01 5.042612086981534958e-03 -1.541736483573913574e+00 -4.610081315040588379e-01 -2.699552476406097412e-01
1.998000000000000000e+03 2.451008605957031250e+01 -3.678166627883911133e+00 2.674138732254505157e-02 -1.666503190994262695e+00 -4.919285178184509277e-01 -2.398571819067001343e-01
1.999000000000000000e+03 2.420045280456542969e+01 -1.790216827392578125e+01 2.839888446033000946e-02 -1.902467250823974609e+00 -5.622205138206481934e-01 -1.193502023816108704e-01
2.000000000000000000e+03 2.408330345153808594e+01 -1.933756065368652344e+01 4.857440292835235596e-02 -1.930819511413574219e+00 -5.646735429763793945e-01 -1.226041093468666077e-01
2.001000000000000000e+03 2.464733123779296875e+01 1.946840643882751465e+00 -1.145524065941572189e-02 -1.483325600624084473e+00 -4.484342634677886963e-01 -2.789428234100341797e-01
2.002000000000000000e+03 4.746099472045898438e+01 3.659117889404296875e+01 -4.595839884132146835e-03 -1.264867484569549561e-01 -3.932477533817291260e-02 1.584797799587249756e-01
2.003000000000000000e+03 2.302417755126953125e+01 -7.996185302734375000e+00 7.795574609190225601e-03 -1.976473450660705566e+00 -5.906033515930175781e-01 -1.936511397361755371e-01
2.004000000000000000e+03 1.336821365356445312e+01 -1.325740528106689453e+01 -4.227799072396010160e-04 -2.553976992203388363e-05 -1.344959018751978874e-04 6.508843216579407454e-05
2.005000000000000000e+03 2.437587165832519531e+01 -1.209803390502929688e+01 -1.687262393534183502e-02 -1.835830688476562500e+00 -5.558109879493713379e-01 -1.831800937652587891e-01
2.006000000000000000e+03 1.099876689910888672e+01 2.656018829345703125e+01 -2.102187136188149452e-04 1.014621830108808354e-06 -6.276122439885511994e-05 3.804153038799995556e-06
2.007000000000000000e+03 5.740415096282958984e+00 9.113890647888183594e+00 -6.728035805281251669e-05 2.554227876316872425e-06 -1.941783921211026609e-05 -7.916652975836768746e-06
2.008000000000000000e+03 1.242509269714355469e+01 9.162019729614257812e+00 6.231928273336961865e-05 1.023951972456416115e-05 2.176764246542006731e-05 1.316824182140408084e-05
2.009000000000000000e+03 9.968907356262207031e+00 1.962220764160156250e+01 -1.254391827387735248e-05 -5.111758218845352530e-05 -1.909845013869926333e-05 -2.601262167445383966e-06
2.010000000000000000e+03 1.073045158386230469e+01 1.531876277923583984e+01 1.955979678314179182e-05 -3.986678621004102752e-06 4.671935130318161100e-06 -7.023603393463417888e-05
2.011000000000000000e+03 7.584399414062500000e+01 1.390292263031005859e+01 -9.420917928218841553e-02 8.332668304443359375e+00 2.471537828445434570e+00 3.664796948432922363e-01
2.012000000000000000e+03 7.566461944580078125e+01 7.957258820533752441e-02 3.992995247244834900e-02 7.225471019744873047e+00 2.179620265960693359e+00 2.879489362239837646e-01
2.013000000000000000e+03 7.258860015869140625e+01 3.255469512939453125e+01 2.798871278762817383e+00 1.385193824768066406e+01 4.995242595672607422e+00 2.168750762939453125e+00
2.014000000000000000e+03 7.430590820312500000e+01 -1.185913443565368652e+00 6.284021586179733276e-02 6.848652362823486328e+00 2.073447942733764648e+00 3.323050141334533691e-01
2.015000000000000000e+03 7.535673522949218750e+01 -8.250940322875976562e+00 3.122950531542301178e-02 6.789962291717529297e+00 2.046357631683349609e+00 1.801949292421340942e-01
2.016000000000000000e+03 7.590058898925781250e+01 6.872375965118408203e+00 2.776659838855266571e-02 7.742592334747314453e+00 2.331107616424560547e+00 3.834303617477416992e-01
2.017000000000000000e+03 7.698480224609375000e+01 2.783165454864501953e+00 2.026969939470291138e-02 7.713870048522949219e+00 2.320241928100585938e+00 2.438915818929672241e-01
2.018000000000000000e+03 7.407453918457031250e+01 -9.691866874694824219e+00 4.614345729351043701e-02 6.512117862701416016e+00 1.967478394508361816e+00 1.962820887565612793e-01
2.019000000000000000e+03 7.554389190673828125e+01 -1.521888828277587891e+01 1.709302887320518494e-02 6.636714935302734375e+00 1.996142506599426270e+00 1.017842292785644531e-01
2.020000000000000000e+03 7.541179656982421875e+01 -4.029006958007812500e+00 3.408806398510932922e-02 6.961555004119873047e+00 2.098692893981933594e+00 2.328666299581527710e-01
2.021000000000000000e+03 7.676336669921875000e+01 -4.100303173065185547e+00 1.836200430989265442e-02 7.240686893463134766e+00 2.177714586257934570e+00 1.691585183143615723e-01
2.022000000000000000e+03 7.532044982910156250e+01 -5.430075645446777344e+00 3.571806475520133972e-02 6.890555858612060547e+00 2.077882051467895508e+00 2.152433246374130249e-01
2.023000000000000000e+03 7.546978759765625000e+01 -1.798680496215820312e+01 1.292531564831733704e-02 6.572693347930908203e+00 1.975685596466064453e+00 8.557532727718353271e-02
2.024000000000000000e+03 7.528116607666015625e+01 -2.216049766540527344e+01 1.274433173239231110e-02 6.475703716278076172e+00 1.946534395217895508e+00 6.164760515093803406e-02
2.025000000000000000e+03 7.584259796142578125e+01 4.140567302703857422e+00 3.567828983068466187e-02 7.523980617523193359e+00 2.267897605895996094e+00 3.467364609241485596e-01
2.026000000000000000e+03 7.702124786376953125e+01 4.157968521118164062e+00 1.941095851361751556e-02 7.828586578369140625e+00 2.354399204254150391e+00 2.580215334892272949e-01
2.027000000000000000e+03 7.547226715087890625e+01 -1.105094528198242188e+01 2.465650066733360291e-02 6.730784893035888672e+00 2.026632547378540039e+00 1.414068341255187988e-01
2.028000000000000000e+03 7.551750183105468750e+01 -1.244686412811279297e+01 2.077372185885906219e-02 6.698417663574218750e+00 2.015757560729980469e+00 1.273514926433563232e-01
2.029000000000000000e+03 7.541749572753906250e+01 -9.654623031616210938e+00 2.914502099156379700e-02 6.757986545562744141e+00 2.036139488220214844e+00 1.566114574670791626e-01
2.030000000000000000e+03 7.703921508789062500e+01 9.710808753967285156e+00 -2.727182349190115929e-03 8.331727027893066406e+00 2.498699903488159180e+00 3.044801056385040283e-01
2.031000000000000000e+03 7.576441192626953125e+01 1.104680347442626953e+01 -2.061826176941394806e-02 8.063946723937988281e+00 2.412998676300048828e+00 4.212304651737213135e-01
2.032000000000000000e+03 7.551931762695312500e+01 -1.659934806823730469e+01 1.485467422753572464e-02 6.605167865753173828e+00 1.986006736755371094e+00 9.231712669134140015e-02
2.033000000000000000e+03 7.540541839599609375e+01 -1.937356948852539062e+01 1.689444668591022491e-02 6.537932395935058594e+00 1.966448068618774414e+00 7.965282350778579712e-02
2.034000000000000000e+03 7.679425048828125000e+01 -1.665348052978515625e+01 6.873448844999074936e-03 6.817997455596923828e+00 2.047461271286010742e+00 6.654777377843856812e-02
2.035000000000000000e+03 7.554302978515625000e+01 -1.383822059631347656e+01 2.054867334663867950e-02 6.668026924133300781e+00 2.006572723388671875e+00 1.143727302551269531e-01
2.036000000000000000e+03 7.518781280517578125e+01 -2.910378265380859375e+01 -6.855442188680171967e-04 6.384108543395996094e+00 1.915026903152465820e+00 2.971981093287467957e-02
2.037000000000000000e+03 7.376348114013671875e+01 -2.345470619201660156e+01 1.642281189560890198e-02 6.207214832305908203e+00 1.867091298103332520e+00 7.568489760160446167e-02
2.038000000000000000e+03 7.582495117187500000e+01 9.638778686523437500e+00 -5.538582263397984207e-05 7.944790840148925781e+00 2.383420705795288086e+00 4.209632873535156250e-01
2.039000000000000000e+03 7.577196502685546875e+01 1.246820068359375000e+01 -4.769909754395484924e-02 8.189684867858886719e+00 2.442595720291137695e+00 4.019033908843994141e-01
2.040000000000000000e+03 7.509001159667968750e+01 1.959466934204101562e+01 -5.514939427375793457e-01 8.873043060302734375e+00 2.496464729309082031e+00 -4.736733972094953060e-04
2.041000000000000000e+03 7.353682708740234375e+01 -2.650251388549804688e+01 2.024053968489170074e-02 6.132611751556396484e+00 1.845855712890625000e+00 6.180877238512039185e-02
2.042000000000000000e+03 7.657457733154296875e+01 -2.503083992004394531e+01 6.007254589349031448e-03 6.652946949005126953e+00 1.997686266899108887e+00 3.323502093553543091e-02
2.043000000000000000e+03 7.520304870605468750e+01 -2.356849670410156250e+01 1.137012150138616562e-02 6.443548202514648438e+00 1.936475515365600586e+00 5.609950795769691467e-02
2.044000000000000000e+03 7.744126129150390625e+01 3.038739967346191406e+01 7.940033078193664551e-01 7.553919315338134766e+00 2.504376649856567383e+00 -2.365594357252120972e-01
2.045000000000000000e+03 7.655488586425781250e+01 2.908802413940429688e+01 9.033007025718688965e-01 8.552073478698730469e+00 2.836612224578857422e+00 -1.030426502227783203e+00
2.046000000000000000e+03 7.649774932861328125e+01 2.737762641906738281e+01 3.018620014190673828e-01 8.967422485351562500e+00 2.780785322189331055e+00 -1.464882969856262207e+00
2.047000000000000000e+03 7.719148254394531250e+01 1.811728477478027344e+01 -1.741046607494354248e-01 9.084792137145996094e+00 2.673206090927124023e+00 -2.610492147505283356e-02
2.048000000000000000e+03 7.602820587158203125e+01 1.814359092712402344e+01 -2.968790233135223389e-01 8.828653335571289062e+00 2.559532403945922852e+00 5.741801485419273376e-02
2.049000000000000000e+03 7.727286529541015625e+01 1.949068260192871094e+01 -2.213303893804550171e-01 9.148613929748535156e+00 2.678185224533081055e+00 -1.931806504726409912e-01
2.050000000000000000e+03 7.630536651611328125e+01 2.085013008117675781e+01 -4.481580257415771484e-01 9.126398086547851562e+00 2.603471994400024414e+00 -3.668656945228576660e-01
2.051000000000000000e+03 7.644055175781250000e+01 2.488564491271972656e+01 -4.090170264244079590e-01 9.299002647399902344e+00 2.666995525360107422e+00 -1.251569509506225586e+00
2.052000000000000000e+03 7.486920928955078125e+01 -3.613172149658203125e+01 -3.478497033938765526e-03 6.308136940002441406e+00 1.891397595405578613e+00 6.876225117594003677e-03
2.053000000000000000e+03 7.202357482910156250e+01 3.078559875488281250e+01 7.274006843566894531e+00 1.447435092926025391e+01 6.524507045745849609e+00 -2.046335190534591675e-01
2.054000000000000000e+03 7.517135620117187500e+01 -2.778206062316894531e+01 6.849965429864823818e-04 6.394822597503662109e+00 1.918652176856994629e+00 3.768357634544372559e-02
2.055000000000000000e+03 7.625843048095703125e+01 -3.181950950622558594e+01 1.030383631587028503e-02 6.539850711822509766e+00 1.965046405792236328e+00 1.955500617623329163e-02
2.056000000000000000e+03 7.498482513427734375e+01 -3.159792900085449219e+01 9.640124626457691193e-03 6.353698253631591797e+00 1.909001469612121582e+00 2.872267179191112518e-02
2.057000000000000000e+03 7.636322021484375000e+01 2.351911735534667969e+01 -5.318064689636230469e-01 9.322298049926757812e+00 2.637147426605224609e+00 -9.536421298980712891e-01
2.058000000000000000e+03 7.570135498046875000e+01 2.613837432861328125e+01 -2.310507595539093018e-01 9.775873184204101562e+00 2.863446950912475586e+00 -1.505388140678405762e+00
2.059000000000000000e+03 7.656928253173828125e+01 2.617163276672363281e+01 -1.407212316989898682e-01 9.097822189331054688e+00 2.687130451202392578e+00 -1.458106517791748047e+00
2.060000000000000000e+03 7.609940338134765625e+01 3.847783660888671875e+01 -6.236794590950012207e-01 9.749941825866699219e+00 2.737878561019897461e+00 1.027511239051818848e+00
2.061000000000000000e+03 2.472903442382812500e+01 1.048534774780273438e+01 -3.426758805289864540e-03 -1.064953446388244629e+00 -3.205140829086303711e-01 -3.415392339229583740e-01
2.062000000000000000e+03 1.265645313262939453e+01 -2.263833045959472656e+01 -4.159241507295519114e-04 -1.885364181362092495e-03 -6.903865141794085503e-04 -4.648774629458785057e-04
2.063000000000000000e+03 1.247666549682617188e+01 -2.029566955566406250e+01 -3.314574423711746931e-04 -1.195462304167449474e-03 -4.580758977681398392e-04 7.516657933592796326e-04
2.064000000000000000e+03 2.294588088989257812e+01 -1.369686222076416016e+01 -3.316969051957130432e-02 -2.097982883453369141e+00 -6.393457651138305664e-01 -1.505591869354248047e-01
2.065000000000000000e+03 2.439444541931152344e+01 -1.354398345947265625e+01 -1.994577236473560333e-02 -1.838504791259765625e+00 -5.575351715087890625e-01 -1.566328853368759155e-01
2.066000000000000000e+03 2.471460914611816406e+01 1.190280055999755859e+01 -2.759485505521297455e-03 -9.774026870727539062e-01 -2.940486371517181396e-01 -3.393975496292114258e-01
2.067000000000000000e+03 5.672909259796142578e+00 -2.522189903259277344e+01 -1.018735056277364492e-04 2.009174349950626493e-04 2.971317735500633717e-05 -4.905376117676496506e-04
2.068000000000000000e+03 1.155254173278808594e+01 -2.993028640747070312e+01 1.931116217747330666e-03 9.922953322529792786e-04 8.770234417170286179e-04 -4.537760396488010883e-04
2.069000000000000000e+03 2.556308555603027344e+01 2.177393150329589844e+01 -5.189522355794906616e-02 -3.731959164142608643e-01 -1.275273412466049194e-01 -3.101933300495147705e-01
2.070000000000000000e+03 2.449394607543945312e+01 2.027995109558105469e+01 -2.742262929677963257e-02 -4.716254770755767822e-01 -1.497144401073455811e-01 -2.764692008495330811e-01
2.071000000000000000e+03 2.469372177124023438e+01 1.331294727325439453e+01 -4.467926919460296631e-03 -8.911501765251159668e-01 -2.686854302883148193e-01 -3.364865481853485107e-01
2.072000000000000000e+03 2.338009452819824219e+01 1.875400733947753906e+01 -1.134671550244092941e-02 -5.886633396148681641e-01 -1.800030171871185303e-01 -2.231750786304473877e-01
2.073000000000000000e+03 2.459317779541015625e+01 1.751959991455078125e+01 -1.667499355971813202e-02 -6.323056221008300781e-01 -1.946941763162612915e-01 -3.105134665966033936e-01
2.074000000000000000e+03 9.893351554870605469e+00 -1.827833747863769531e+01 -4.687371547333896160e-04 6.463463651016354561e-04 5.328275801730342209e-05 -5.620987503789365292e-04
2.075000000000000000e+03 2.463420295715332031e+01 1.612566566467285156e+01 -1.197479758411645889e-02 -7.168015241622924805e-01 -2.186329066753387451e-01 -3.223760724067687988e-01
2.076000000000000000e+03 2.296870422363281250e+01 2.975494575500488281e+01 -2.209222316741943359e-02 -6.439319252967834473e-02 -2.594562433660030365e-02 -5.178510025143623352e-02
2.077000000000000000e+03 2.490240859985351562e+01 3.017023468017578125e+01 -6.107189878821372986e-02 -6.886680424213409424e-02 -3.898161277174949646e-02 -8.722758293151855469e-02
2.078000000000000000e+03 2.350564002990722656e+01 8.904001235961914062e+00 -7.125548552721738815e-03 -1.282009959220886230e+00 -3.867406249046325684e-01 -2.640020549297332764e-01
2.079000000000000000e+03 2.473168945312500000e+01 7.634321212768554688e+00 -1.715890131890773773e-02 -1.225704550743103027e+00 -3.728590309619903564e-01 -3.376390933990478516e-01
2.080000000000000000e+03 2.417082977294921875e+01 2.569681739807128906e+01 -4.270933195948600769e-02 -2.055316418409347534e-01 -7.447229325771331787e-02 -1.680305302143096924e-01
2.081000000000000000e+03 2.426707839965820312e+01 2.435962867736816406e+01 -4.054550454020500183e-02 -2.635951936244964600e-01 -9.124221652746200562e-02 -1.990707367658615112e-01
2.082000000000000000e+03 8.057662963867187500e+00 -8.481184005737304688e+00 1.103471513488329947e-04 4.089614085387438536e-04 1.557925716042518616e-04 4.822712216991931200e-04
2.083000000000000000e+03 2.407945251464843750e+01 2.844191360473632812e+01 -4.454527050256729126e-02 -1.083502173423767090e-01 -4.586864635348320007e-02 -1.047893166542053223e-01
2.084000000000000000e+03 2.601702690124511719e+01 2.972589492797851562e+01 -9.003721177577972412e-02 -7.377882301807403564e-02 -4.914480820298194885e-02 -1.206305846571922302e-01
2.085000000000000000e+03 1.054371356964111328e+01 -2.099820518493652344e+01 -1.394060964230448008e-04 -1.147355767898261547e-03 -3.860285505652427673e-04 -2.531812933739274740e-04
2.086000000000000000e+03 7.491125488281250000e+01 3.621170806884765625e+01 -5.517828464508056641e-01 1.047442340850830078e+01 2.976792097091674805e+00 1.490066409111022949e+00
2.087000000000000000e+03 3.075021505355834961e+00 -1.745001983642578125e+01 -5.947158206254243851e-04 -1.007049140753224492e-04 -2.086262247757986188e-04 -4.427258681971579790e-04
2.088000000000000000e+03 4.153717041015625000e+00 -1.458752822875976562e+01 4.472810542210936546e-04 -1.479019465477904305e-05 1.297472626902163029e-04 2.241955226054415107e-04
2.089000000000000000e+03 4.565303325653076172e+00 2.175135231018066406e+01 -1.569529413245618343e-04 4.594124675350030884e-06 -4.570764576783403754e-05 -4.014097794424742460e-05
2.090000000000000000e+03 3.259362697601318359e+00 2.036335754394531250e+01 -1.388946839142590761e-04 -6.411556228158588056e-07 -4.186075238976627588e-05 -1.457769940316211432e-05
2.091000000000000000e+03 4.299077510833740234e+00 -1.729903984069824219e+01 4.927451373077929020e-04 1.951152516994625330e-04 2.063581050606444478e-04 3.446352493483573198e-04
2.092000000000000000e+03 4.218651294708251953e+00 -1.595541191101074219e+01 -5.654637934640049934e-04 -8.026842260733246803e-05 -1.937196648214012384e-04 -3.763718123082071543e-04
2.093000000000000000e+03 5.570159435272216797e+00 2.548951911926269531e+01 -1.437897735740989447e-04 -1.634377622394822538e-05 -4.804006675840355456e-05 -3.100505273323506117e-05
2.094000000000000000e+03 4.607217788696289062e+00 2.840819168090820312e+01 1.487761182943359017e-04 2.185276571253780276e-05 5.118866465636529028e-05 1.657504799368325621e-05
2.095000000000000000e+03 4.459723949432373047e+00 -2.801165390014648438e+01 2.599809551611542702e-03 2.101965510519221425e-04 8.430018206126987934e-04 1.566151855513453484e-03
2.096000000000000000e+03 3.194310665130615234e+00 -2.426754188537597656e+01 1.136875245720148087e-03 -8.469870226690545678e-05 3.156529564876109362e-04 3.659383510239422321e-04
2.097000000000000000e+03 4.540636062622070312e+00 -2.269954109191894531e+01 9.100925526581704617e-04 -3.152609133394435048e-05 2.635699347592890263e-04 3.405007882975041866e-04
2.098000000000000000e+03 4.228509426116943359e+00 1.741746520996093750e+01 1.362612820230424404e-04 -1.675126441114116460e-05 3.585300510167144239e-05 -1.799927304091397673e-05
2.099000000000000000e+03 4.459236145019531250e+00 1.876358985900878906e+01 -1.473913289373740554e-04 3.477319478406570852e-05 -3.378544352017343044e-05 1.688014162937179208e-05
2.100000000000000000e+03 4.195893287658691406e+00 1.611290168762207031e+01 -1.329475198872387409e-04 1.341066581517225131e-05 -3.586105594877153635e-05 7.411557362502207980e-06
2.101000000000000000e+03 4.459969997406005859e+00 -1.996262931823730469e+01 6.645685061812400818e-04 9.981616312870755792e-05 2.293153956998139620e-04 3.998689353466033936e-04
2.102000000000000000e+03 4.381381988525390625e+00 -1.862339591979980469e+01 -7.515057804994285107e-04 -3.176127938786521554e-05 -2.349801070522516966e-04 -6.521260947920382023e-04
2.103000000000000000e+03 3.129482269287109375e+00 2.590377426147460938e+01 -1.475224271416664124e-04 -3.184358092767070048e-07 -4.435225855559110641e-05 -2.563181260484270751e-05
2.104000000000000000e+03 4.289742946624755859e+00 2.443159294128417969e+01 -1.560114615131169558e-04 -1.062665049289535091e-07 -4.683531733462586999e-05 -4.515751061262562871e-05
2.105000000000000000e+03 4.329162120819091797e+00 2.312229156494140625e+01 1.572949840920045972e-04 -8.266114491561893374e-06 4.470866042538546026e-05 5.256867370917461812e-05
2.106000000000000000e+03 9.734498977661132812e+00 -2.317639160156250000e+01 1.272979279747232795e-04 1.122722518630325794e-03 3.750061441678553820e-04 4.530481237452477217e-04
2.107000000000000000e+03 4.434737682342529297e+00 -2.540247154235839844e+01 1.396259525790810585e-03 1.747487549437209964e-04 4.713024827651679516e-04 5.780176143161952496e-04
2.108000000000000000e+03 3.075701951980590820e+00 1.476370906829833984e+01 -1.175794022856280208e-04 1.718691237329039723e-06 -3.475821358733810484e-05 1.880598392745014280e-05
2.109000000000000000e+03 4.247550964355468750e+00 1.179834461212158203e+01 9.693468746263533831e-05 2.714009951887419447e-06 2.989460881508421153e-05 -3.600254785851575434e-05
2.110000000000000000e+03 4.342665672302246094e+00 1.327234554290771484e+01 -1.107134085032157600e-04 9.268374924431554973e-06 -3.043350989173632115e-05 2.879235398722812533e-05
2.111000000000000000e+03 4.006762981414794922e+00 -1.048115921020507812e+01 -3.157308092340826988e-04 -1.963661634363234043e-05 -1.006102320388890803e-04 -2.440933312755078077e-04
2.112000000000000000e+03 3.899681329727172852e+00 -9.121204376220703125e+00 2.475093933753669262e-04 3.938397276215255260e-05 8.606800838606432080e-05 1.880650088423863053e-04
2.113000000000000000e+03 4.110130786895751953e+00 -1.321398639678955078e+01 -4.680906131397932768e-04 8.024800627026706934e-05 -1.163527776952832937e-04 -2.988174674101173878e-04
2.114000000000000000e+03 4.384763717651367188e+00 3.447630310058593750e+01 2.398193464614450932e-05 -2.839257285813800991e-05 -1.323191099800169468e-06 5.225753920967690647e-05
2.115000000000000000e+03 3.460742235183715820e+00 -3.104149436950683594e+01 3.784461587201803923e-04 6.242366507649421692e-04 3.008048515766859055e-04 2.054356969892978668e-03
2.116000000000000000e+03 4.564197540283203125e+00 -2.931370735168457031e+01 9.417118271812796593e-04 -2.818903594743460417e-04 1.979464286705479026e-04 6.636054022237658501e-04
2.117000000000000000e+03 5.484034538269042969e+00 1.034685230255126953e+01 6.405866588465869427e-05 2.453527304169256240e-05 2.657818185980431736e-05 -1.468514074076665565e-05
2.118000000000000000e+03 4.071627140045166016e+00 -1.184577274322509766e+01 3.537443117238581181e-04 -4.586514478432945907e-05 9.236374899046495557e-05 2.505884331185370684e-04
2.119000000000000000e+03 5.506545543670654297e+00 -6.006790637969970703e+00 1.838767930166795850e-04 4.854375729337334633e-04 2.007943112403154373e-04 2.873524790629744530e-04
2.120000000000000000e+03 4.247950077056884766e+00 1.027298069000244141e+01 -7.034304871922358871e-05 -1.686235555098392069e-05 -2.616162237245589495e-05 2.862734800146427006e-05
2.121000000000000000e+03 6.572148799896240234e+00 3.092576217651367188e+01 -1.196972516481764615e-04 -5.632205647998489439e-05 -5.280579352984204888e-05 1.167854679806623608e-05
2.122000000000000000e+03 3.277214050292968750e+00 3.421796417236328125e+01 -1.610947074368596077e-04 2.510235026420559734e-05 -4.079770587850362062e-05 3.071930041187442839e-05
2.123000000000000000e+03 5.070189952850341797e+00 -3.185011672973632812e+01 2.910960000008344650e-03 -1.534504583105444908e-03 4.129366134293377399e-04 2.813141094520688057e-03
2.124000000000000000e+03 3.464797735214233398e+00 -5.401206970214843750e+00 -2.663119521457701921e-04 8.313494618050754070e-05 -5.495309960679151118e-05 -8.490821346640586853e-05
2.125000000000000000e+03 3.717871904373168945e+00 5.270180225372314453e+00 -4.673695730161853135e-05 -1.099760720535414293e-05 -1.732036980683915317e-05 5.139189670444466174e-05
2.126000000000000000e+03 5.812529087066650391e+00 4.898689746856689453e+00 2.146663609892129898e-05 2.113110895152203739e-05 1.277932278753723949e-05 -2.394861803622916341e-05
2.127000000000000000e+03 1.311165618896484375e+01 -2.869319534301757812e+01 1.809825189411640167e-04 -2.506922464817762375e-04 -2.091291207761969417e-05 5.209553637541830540e-04
2.128000000000000000e+03 1.170841121673583984e+01 -2.720038604736328125e+01 1.228491310030221939e-03 5.662845796905457973e-04 5.384327960200607777e-04 7.574646151624619961e-04
2.129000000000000000e+03 6.852550983428955078e+00 -3.588290405273437500e+01 8.102263323962688446e-03 -7.607366424053907394e-03 1.484690728830173612e-04 1.909822225570678711e-02
2.130000000000000000e+03 2.260680961608886719e+01 -2.226337242126464844e+01 2.830331027507781982e-02 -2.143797636032104492e+00 -6.346482634544372559e-01 -1.193248406052589417e-01
2.131000000000000000e+03 2.441446685791015625e+01 -7.826236724853515625e+00 2.300973050296306610e-02 -1.777894258499145508e+00 -5.264653563499450684e-01 -2.210174053907394409e-01
2.132000000000000000e+03 1.721850585937500000e+01 3.894292068481445312e+01 1.131068216636776924e-03 9.712795144878327847e-05 3.684588591568171978e-04 2.334723685635253787e-04
2.133000000000000000e+03 1.162075805664062500e+01 3.895718383789062500e+01 -4.980725352652370930e-04 2.283749745402019471e-05 -1.425705122528597713e-04 -1.899209892144426703e-04
2.134000000000000000e+03 2.431753921508789062e+01 -1.644034004211425781e+01 1.238902844488620758e-02 -1.881476163864135742e+00 -5.607261657714843750e-01 -1.295870244503021240e-01
2.135000000000000000e+03 4.838580322265625000e+01 3.633684158325195312e+01 -2.626632340252399445e-02 -1.206904277205467224e-01 -4.408702254295349121e-02 1.862809509038925171e-01
2.136000000000000000e+03 2.457422828674316406e+01 -8.712475895881652832e-01 1.275568082928657532e-02 -1.581758975982666016e+00 -4.707009792327880859e-01 -2.635724544525146484e-01
2.137000000000000000e+03 2.345083618164062500e+01 4.622015953063964844e+00 -4.705904424190521240e-02 -1.532165050506591797e+00 -4.737672209739685059e-01 -2.539960741996765137e-01
2.138000000000000000e+03 2.472109413146972656e+01 6.206081867218017578e+00 -2.771070599555969238e-02 -1.295616030693054199e+00 -3.969980180263519287e-01 -3.289821743965148926e-01
2.139000000000000000e+03 2.470233535766601562e+01 4.780289649963378906e+00 -3.138019144535064697e-02 -1.361829996109008789e+00 -4.179630577564239502e-01 -3.109593391418457031e-01
2.140000000000000000e+03 3.473276138305664062e+01 4.017819976806640625e+01 -6.509329192340373993e-03 -5.368805490434169769e-03 -3.563440404832363129e-03 1.183898202725686133e-04
2.141000000000000000e+03 7.771990299224853516e+00 3.014006233215332031e+01 1.088832941604778171e-04 5.483505447045899928e-05 4.911550422548316419e-05 4.298116255085915327e-05
2.142000000000000000e+03 2.437213897705078125e+01 -1.064740562438964844e+01 -7.231723051518201828e-03 -1.816668152809143066e+00 -5.471699833869934082e-01 -1.956807523965835571e-01
2.143000000000000000e+03 2.251367759704589844e+01 -2.946576881408691406e+01 -1.481799292378127575e-03 -2.258150815963745117e+00 -6.778898239135742188e-01 -1.125191748142242432e-01
2.144000000000000000e+03 2.447383117675781250e+01 -5.070793628692626953e+00 2.953818999230861664e-02 -1.706516861915588379e+00 -5.030936002731323242e-01 -2.322600483894348145e-01
2.145000000000000000e+03 5.936787033081054688e+01 3.480802917480468750e+01 -3.171663880348205566e-01 6.468889862298965454e-02 -7.574325054883956909e-02 4.335529804229736328e-01
2.146000000000000000e+03 2.949283981323242188e+01 4.092449188232421875e+01 1.112636877223849297e-03 2.464777790009975433e-03 1.073224353604018688e-03 -1.259102486073970795e-03
2.147000000000000000e+03 2.182049942016601562e+01 3.939170074462890625e+01 -7.817600999260321259e-05 -1.945047697518020868e-04 -8.180423174053430557e-05 5.446098512038588524e-04
2.148000000000000000e+03 1.201708698272705078e+01 1.297127056121826172e+01 -7.547807763330638409e-05 -1.900898678286466748e-05 -2.834611950675025582e-05 -4.662820720113813877e-05
2.149000000000000000e+03 2.467776107788085938e+01 3.360399484634399414e+00 -2.436239272356033325e-02 -1.427423238754272461e+00 -4.355356693267822266e-01 -2.948775589466094971e-01
2.150000000000000000e+03 1.114270401000976562e+01 2.795655632019042969e+01 2.394720795564353466e-04 -1.081445770978461951e-05 6.859728455310687423e-05 3.734145593625726178e-06
2.151000000000000000e+03 6.596297740936279297e+00 1.031821537017822266e+01 -2.987543211929732934e-06 -4.796152279595844448e-05 -1.528472057543694973e-05 3.009503598150331527e-05
2.152000000000000000e+03 6.826535224914550781e+00 1.810046768188476562e+01 1.878698640211950988e-05 -3.122021007584407926e-05 -3.729967147592105903e-06 -7.229882612591609359e-05
2.153000000000000000e+03 2.082616043090820312e+01 -3.830968093872070312e+01 3.658475726842880249e-02 -2.050262928009033203e+00 -6.041034460067749023e-01 1.129771843552589417e-01
2.154000000000000000e+03 2.759707260131835938e+01 -3.857916641235351562e+01 1.468778401613235474e-01 -1.336204409599304199e+00 -3.567979633808135986e-01 7.453022152185440063e-02
2.155000000000000000e+03 2.260752296447753906e+01 -2.083067321777343750e+01 4.285451397299766541e-02 -2.143054962158203125e+00 -6.300601363182067871e-01 -1.176418513059616089e-01
2.156000000000000000e+03 1.096082496643066406e+01 -3.370791244506835938e+01 1.819496229290962219e-02 -2.959518227726221085e-03 4.570633172988891602e-03 -9.560979902744293213e-03
2.157000000000000000e+03 1.227668571472167969e+01 -3.406312179565429688e+01 2.012403123080730438e-02 -5.116300308145582676e-04 5.883720237761735916e-03 -1.551020890474319458e-02
2.158000000000000000e+03 2.427208137512207031e+01 -2.507184410095214844e+01 1.771666295826435089e-02 -1.897304177284240723e+00 -5.638762116432189941e-01 -1.146165579557418823e-01
2.159000000000000000e+03 2.277808952331542969e+01 -2.664753150939941406e+01 1.652017608284950256e-02 -2.163493156433105469e+00 -6.440919041633605957e-01 -1.125075966119766235e-01
2.160000000000000000e+03 3.226866531372070312e+01 4.143998336791992188e+01 -2.419082447886466980e-03 -6.078100414015352726e-04 -9.080677991732954979e-04 1.537986216135323048e-03
2.161000000000000000e+03 6.973583984375000000e+01 3.365832519531250000e+01 -4.753201305866241455e-01 1.282733726501464844e+01 3.705605268478393555e+00 -3.715064287185668945e+00
2.162000000000000000e+03 6.914303588867187500e+01 3.350823593139648438e+01 4.518601894378662109e-01 9.972986221313476562e+00 3.127454042434692383e+00 -4.735665321350097656e+00
2.163000000000000000e+03 7.040556335449218750e+01 3.335958480834960938e+01 -6.906120777130126953e-01 1.567221546173095703e+01 4.494481086730957031e+00 -2.094906806945800781e+00
2.164000000000000000e+03 6.856203460693359375e+01 2.752927589416503906e+01 -2.513191401958465576e-01 7.332974910736083984e+00 2.124496698379516602e+00 4.495551586151123047e+00
2.165000000000000000e+03 7.068580627441406250e+01 2.887915802001953125e+01 -4.159703552722930908e-01 1.835370635986328125e+01 5.381320953369140625e+00 1.066420197486877441e+00
2.166000000000000000e+03 6.911486816406250000e+01 2.831116676330566406e+01 -1.642032712697982788e-01 9.867349624633789062e+00 2.910943746566772461e+00 5.228925704956054688e+00
2.167000000000000000e+03 7.112882995605468750e+01 3.309953689575195312e+01 1.013513132929801941e-01 1.686164665222167969e+01 5.088899612426757812e+00 3.323129117488861084e-01
2.168000000000000000e+03 7.258915710449218750e+01 2.994244194030761719e+01 4.788045406341552734e+00 1.351615810394287109e+01 5.491261005401611328e+00 -1.638236761093139648e+00
2.169000000000000000e+03 7.188169860839843750e+01 3.294366836547851562e+01 1.510082483291625977e+00 1.565735340118408203e+01 5.150230884552001953e+00 1.852119684219360352e+00
2.170000000000000000e+03 7.178062438964843750e+01 2.987905120849609375e+01 5.255571842193603516e+00 1.609640693664550781e+01 6.405593872070312500e+00 -2.325938701629638672e+00
2.171000000000000000e+03 7.606108856201171875e+01 3.088754081726074219e+01 1.593230962753295898e+00 8.812130928039550781e+00 3.121608734130859375e+00 5.038263276219367981e-02
2.172000000000000000e+03 7.227658843994140625e+01 3.149315452575683594e+01 5.973974704742431641e+00 1.412057113647460938e+01 6.028363704681396484e+00 1.520086407661437988e+00
2.173000000000000000e+03 7.261357879638671875e+01 3.027354812622070312e+01 5.231771469116210938e+00 1.328331089019775391e+01 5.554524898529052734e+00 -1.186612963676452637e+00
2.174000000000000000e+03 7.212530517578125000e+01 3.168035316467285156e+01 5.868698120117187500e+00 1.481171226501464844e+01 6.204123020172119141e+00 1.964418530464172363e+00
2.175000000000000000e+03 7.640493774414062500e+01 3.394417190551757812e+01 5.347263813018798828e-01 9.109363555908203125e+00 2.893226861953735352e+00 1.515885233879089355e+00
2.176000000000000000e+03 6.725437164306640625e+01 3.282847213745117188e+01 9.771865606307983398e-01 1.782440423965454102e+00 8.278881311416625977e-01 -2.125666379928588867e+00
2.177000000000000000e+03 6.537624359130859375e+01 3.587114334106445312e+01 7.432872653007507324e-01 2.281777381896972656e+00 9.075194001197814941e-01 -1.368913054466247559e+00
2.178000000000000000e+03 6.598575592041015625e+01 3.456826019287109375e+01 7.734615206718444824e-01 1.969456195831298828e+00 8.228753209114074707e-01 -1.514357686042785645e+00
2.179000000000000000e+03 6.400753021240234375e+01 2.731092262268066406e+01 -1.034101843833923340e+00 6.921189427375793457e-01 -1.025948598980903625e-01 1.012426376342773438e+00
2.180000000000000000e+03 6.518300628662109375e+01 2.777945899963378906e+01 -8.312030434608459473e-01 9.958302974700927734e-01 4.938818141818046570e-02 1.455908298492431641e+00
2.181000000000000000e+03 6.365663146972656250e+01 3.491380691528320312e+01 3.355571627616882324e-01 7.267122268676757812e-01 3.186808228492736816e-01 -4.358921945095062256e-01
2.182000000000000000e+03 6.628961181640625000e+01 3.418263626098632812e+01 8.020348548889160156e-01 2.154307603836059570e+00 8.869027495384216309e-01 -1.710290551185607910e+00
2.183000000000000000e+03 2.711912155151367188e+01 3.095689392089843750e+01 -1.160039082169532776e-01 -4.282731935381889343e-02 -4.764936864376068115e-02 -1.091314926743507385e-01
2.184000000000000000e+03 3.691282033920288086e+00 4.509577274322509766e+00 4.480849020183086395e-05 -9.641757060308009386e-06 1.055002030625473708e-05 -4.787033685715869069e-05
2.185000000000000000e+03 4.447366714477539062e+00 4.364298820495605469e+00 -3.517890218063257635e-05 -1.113733833335572854e-05 -1.389487169944914058e-05 2.885164212784729898e-05
2.186000000000000000e+03 6.621460914611816406e+00 4.310964584350585938e+00 2.196468267356976867e-05 2.820578993123490363e-05 1.505114141764352098e-05 1.653213530516950414e-06
2.187000000000000000e+03 5.255863189697265625e+00 5.762508869171142578e+00 1.082647486327914521e-05 1.407034778821980581e-05 7.469046977348625660e-06 -1.788431654858868569e-05
2.188000000000000000e+03 2.397970962524414062e+01 2.985488128662109375e+01 -4.140063002705574036e-02 -7.226462662220001221e-02 -3.409957885742187500e-02 -7.317990809679031372e-02
2.189000000000000000e+03 5.165392875671386719e+00 5.006566524505615234e+00 -2.037278682109899819e-05 -1.924441130540799350e-05 -1.188515943795209751e-05 2.725466947595123202e-05
2.190000000000000000e+03 8.965193748474121094e+00 5.761614322662353516e+00 -3.318274320918135345e-05 -2.116718678735196590e-05 -1.630497899895999581e-05 -5.086665623821318150e-06
2.191000000000000000e+03 7.371649742126464844e+00 4.342708587646484375e+00 -2.227561162726487964e-05 -2.353659874643199146e-05 -1.374366365780588239e-05 9.983702966565033421e-07
2.192000000000000000e+03 8.196026802062988281e+00 5.053153514862060547e+00 -2.621579733386170119e-05 -1.888879887701477855e-05 -1.353137940895976499e-05 -1.117786814575083554e-05
2.193000000000000000e+03 2.984689712524414062e+01 3.090312194824218750e+01 -2.146308720111846924e-01 -1.577419787645339966e-02 -6.912152469158172607e-02 -1.548317670822143555e-01
2.194000000000000000e+03 3.054643440246582031e+01 3.081473159790039062e+01 -2.453624159097671509e-01 -9.288400411605834961e-03 -7.639524340629577637e-02 -1.681058555841445923e-01
2.195000000000000000e+03 8.769854545593261719e+00 -4.242184162139892578e+00 6.825132732046768069e-05 1.778848672984167933e-05 2.581194348749704659e-05 7.143435504985973239e-05
2.196000000000000000e+03 2.780057716369628906e+01 3.102531242370605469e+01 -1.375111639499664307e-01 -3.524756431579589844e-02 -5.182761698961257935e-02 -1.185407564043998718e-01
2.197000000000000000e+03 2.916037178039550781e+01 3.097352027893066406e+01 -1.864686161279678345e-01 -2.240636013448238373e-02 -6.266249716281890869e-02 -1.422001421451568604e-01
2.198000000000000000e+03 3.197056198120117188e+01 3.061007308959960938e+01 -3.159506320953369141e-01 5.053871776908636093e-03 -9.326902776956558228e-02 -1.952833980321884155e-01
2.199000000000000000e+03 6.132575225830078125e+01 2.732905769348144531e+01 -1.795570015907287598e+00 1.951632350683212280e-01 -4.801220595836639404e-01 2.288159281015396118e-01
2.200000000000000000e+03 6.205150222778320312e+01 2.670850372314453125e+01 -1.253284573554992676e+00 4.213451147079467773e-01 -2.495818287134170532e-01 5.151121020317077637e-01
2.201000000000000000e+03 3.268695068359375000e+01 3.049814033508300781e+01 -3.548270165920257568e-01 1.234928611665964127e-02 -1.027433201670646667e-01 -2.084051966667175293e-01
2.202000000000000000e+03 8.009948730468750000e+00 -4.203803539276123047e+00 -1.132507459260523319e-04 2.180007868446409702e-05 -2.743520053627435118e-05 -5.947463432676158845e-05
2.203000000000000000e+03 1.160237407684326172e+01 -9.117629051208496094e+00 1.843650388764217496e-04 -1.274708392884349450e-05 5.148538912180811167e-05 1.273083908017724752e-04
2.204000000000000000e+03 3.919204330444335938e+01 2.928132629394531250e+01 -7.990043759346008301e-01 6.664289534091949463e-02 -2.197084426879882812e-01 -3.123419582843780518e-01
2.205000000000000000e+03 3.340476989746093750e+01 3.037809562683105469e+01 -3.961834013462066650e-01 1.954357512295246124e-02 -1.129919514060020447e-01 -2.213102877140045166e-01
2.206000000000000000e+03 3.706771087646484375e+01 3.039855384826660156e+01 -6.405631899833679199e-01 5.146400257945060730e-02 -1.767297536134719849e-01 -2.282169610261917114e-01
2.207000000000000000e+03 3.847833251953125000e+01 2.941545295715332031e+01 -7.441153526306152344e-01 6.282527744770050049e-02 -2.043870240449905396e-01 -3.025141954421997070e-01
2.208000000000000000e+03 3.990570068359375000e+01 2.914470863342285156e+01 -8.552973270416259766e-01 7.078143954277038574e-02 -2.353547811508178711e-01 -3.226214349269866943e-01
2.209000000000000000e+03 3.633598327636718750e+01 3.053773498535156250e+01 -5.849065780639648438e-01 4.675905033946037292e-02 -1.614442616701126099e-01 -2.197666913270950317e-01
2.210000000000000000e+03 4.216143417358398438e+01 2.940059471130371094e+01 -1.080165386199951172e+00 7.229562848806381226e-02 -3.023609519004821777e-01 -2.834160327911376953e-01
2.211000000000000000e+03 3.412355804443359375e+01 3.025045394897460938e+01 -4.396331906318664551e-01 2.666976302862167358e-02 -1.238890290260314941e-01 -2.339356243610382080e-01
2.212000000000000000e+03 7.175044536590576172e+00 -4.978168010711669922e+00 -1.402439811499789357e-04 5.241906183073297143e-05 -2.634747397678438574e-05 -1.613362474017776549e-05
2.213000000000000000e+03 5.362241744995117188e+00 -4.035914897918701172e+00 -1.311685919063165784e-04 -2.424150006845593452e-04 -1.120750748668797314e-04 -2.955005911644548178e-04
2.214000000000000000e+03 4.209113693237304688e+01 2.871422767639160156e+01 -1.033441781997680664e+00 7.735031843185424805e-02 -2.868274450302124023e-01 -3.521408736705780029e-01
2.215000000000000000e+03 4.499484252929687500e+01 2.741466331481933594e+01 -1.182968616485595703e+00 8.317403495311737061e-02 -3.299383521080017090e-01 -4.540511369705200195e-01
2.216000000000000000e+03 3.843588256835937500e+01 2.867113304138183594e+01 -7.224177122116088867e-01 6.109809875488281250e-02 -1.983958780765533447e-01 -3.605957627296447754e-01
2.217000000000000000e+03 3.484434127807617188e+01 3.011600685119628906e+01 -4.852649569511413574e-01 3.325868025422096252e-02 -1.356018781661987305e-01 -2.463735342025756836e-01
2.218000000000000000e+03 4.062707138061523438e+01 2.900518035888671875e+01 -9.139352440834045410e-01 7.358358800411224365e-02 -2.521055042743682861e-01 -3.323662281036376953e-01
2.219000000000000000e+03 4.820526504516601562e+01 2.829491424560546875e+01 -1.634223222732543945e+00 5.522215738892555237e-02 -4.737003147602081299e-01 -3.329771459102630615e-01
2.220000000000000000e+03 4.515020751953125000e+01 2.881704330444335938e+01 -1.359705328941345215e+00 7.024596631526947021e-02 -3.868378102779388428e-01 -3.127350807189941406e-01
2.221000000000000000e+03 5.520548629760742188e+01 2.748690414428710938e+01 -2.075896501541137695e+00 2.559425495564937592e-02 -6.150906682014465332e-01 -2.674617171287536621e-01
2.222000000000000000e+03 5.909704971313476562e+01 2.664532852172851562e+01 -1.652988076210021973e+00 1.483935415744781494e-01 -4.513783454895019531e-01 -5.386427976191043854e-03
2.223000000000000000e+03 4.898498916625976562e+01 2.817491531372070312e+01 -1.700987100601196289e+00 5.118092149496078491e-02 -4.949418306350708008e-01 -3.354933559894561768e-01
2.224000000000000000e+03 4.357263565063476562e+01 2.840966987609863281e+01 -1.153831958770751953e+00 7.862809300422668457e-02 -3.225611448287963867e-01 -3.713434040546417236e-01
2.225000000000000000e+03 5.134103393554687500e+01 2.857692527770996094e+01 -2.084273099899291992e+00 2.611751295626163483e-02 -6.174467206001281738e-01 -2.473568916320800781e-01
2.226000000000000000e+03 7.261887073516845703e+00 -4.156553745269775391e+00 1.072273662430234253e-04 -3.321095209685154259e-05 2.220492388005368412e-05 1.380360390612622723e-05
2.227000000000000000e+03 1.252706527709960938e+01 6.694684982299804688e+00 5.394274921854957938e-05 6.724983904859982431e-06 1.820032048271968961e-05 7.681083843635860831e-06
2.228000000000000000e+03 4.432127380371093750e+01 2.826062774658203125e+01 -1.213548064231872559e+00 7.894534617662429810e-02 -3.403808176517486572e-01 -3.800556659698486328e-01
2.229000000000000000e+03 6.547705650329589844e+00 -4.084818363189697266e+00 -8.594989594712387770e-06 -1.379079094476765022e-05 -6.715734343742951751e-06 1.198312565975356847e-05
2.230000000000000000e+03 5.119886875152587891e+00 -5.077487945556640625e+00 -3.217100747860968113e-04 -2.938683901447802782e-04 -1.846735394792631269e-04 -2.483264252077788115e-04
2.231000000000000000e+03 5.598477554321289062e+01 2.673970603942871094e+01 -1.786677360534667969e+00 6.101011857390403748e-02 -5.177001953125000000e-01 -2.590462863445281982e-01
2.232000000000000000e+03 4.135639572143554688e+01 2.886187744140625000e+01 -9.726403355598449707e-01 7.606357336044311523e-02 -2.689730226993560791e-01 -3.420836329460144043e-01
2.233000000000000000e+03 5.986151123046875000e+01 2.665083885192871094e+01 -1.584595680236816406e+00 1.944102793931961060e-01 -4.170556068420410156e-01 9.059607237577438354e-02
2.234000000000000000e+03 6.238592147827148438e+01 3.994567108154296875e+01 7.932468652725219727e-01 1.658609390258789062e+00 7.355569005012512207e-01 -1.959670484066009521e-01
2.235000000000000000e+03 6.158471298217773438e+01 3.534941101074218750e+01 7.104079425334930420e-02 2.408537417650222778e-01 9.356836229562759399e-02 1.504127830266952515e-01
2.236000000000000000e+03 6.134952926635742188e+01 2.668737983703613281e+01 -1.387816548347473145e+00 3.283078372478485107e-01 -3.178526163101196289e-01 3.492870926856994629e-01
2.237000000000000000e+03 5.131589508056640625e+01 2.785139083862304688e+01 -1.879342675209045410e+00 3.972730785608291626e-02 -5.518845915794372559e-01 -3.309087455272674561e-01
2.238000000000000000e+03 1.263065052032470703e+01 -5.431454181671142578e+00 1.751959935063496232e-04 1.034390370477922261e-04 8.359050843864679337e-05 -2.090457201120443642e-05
2.239000000000000000e+03 4.659953689575195312e+01 2.784233474731445312e+01 -1.389606595039367676e+00 7.183067500591278076e-02 -3.953327536582946777e-01 -4.004371762275695801e-01
2.240000000000000000e+03 5.754565811157226562e+01 2.666883277893066406e+01 -1.744947075843811035e+00 9.141157567501068115e-02 -4.960606396198272705e-01 -1.555278897285461426e-01
2.241000000000000000e+03 5.208077239990234375e+01 2.776022148132324219e+01 -1.929353594779968262e+00 3.494932875037193298e-02 -5.683212876319885254e-01 -3.256395161151885986e-01
2.242000000000000000e+03 5.440718460083007812e+01 2.683834457397460938e+01 -1.780153274536132812e+00 4.923494532704353333e-02 -5.192754864692687988e-01 -3.281792104244232178e-01
2.243000000000000000e+03 6.447789001464843750e+01 3.591094207763671875e+01 6.398751139640808105e-01 1.531714439392089844e+00 6.514768600463867188e-01 -9.097922444343566895e-01
2.244000000000000000e+03 4.686766052246093750e+01 3.796456527709960938e+01 4.983519762754440308e-02 -1.493713855743408203e-01 -2.986085601150989532e-02 1.150988042354583740e-01
2.245000000000000000e+03 1.246292400360107422e+01 4.539360523223876953e+00 5.310981578077189624e-05 1.319271632382879034e-06 1.632872590562328696e-05 -2.603136906031977560e-08
2.246000000000000000e+03 1.034510612487792969e+01 8.014273643493652344e+00 -5.841731035616248846e-05 -1.320127648796187714e-05 -2.148557541659101844e-05 -2.175999179598875344e-05
2.247000000000000000e+03 5.516989517211914062e+01 4.028037261962890625e+01 5.549322962760925293e-01 -2.147821933031082153e-01 1.020450219511985779e-01 1.743569523096084595e-01
2.248000000000000000e+03 4.540536499023437500e+01 3.860899734497070312e+01 4.794298112392425537e-02 -1.298436373472213745e-01 -2.457019686698913574e-02 7.434089481830596924e-02
2.249000000000000000e+03 6.250532150268554688e+01 3.823006057739257812e+01 7.431376576423645020e-01 1.330407500267028809e+00 6.220635771751403809e-01 -3.426953256130218506e-01
2.250000000000000000e+03 5.928491210937500000e+01 3.943065643310546875e+01 7.932236194610595703e-01 2.570848166942596436e-01 3.150925338268280029e-01 1.880327612161636353e-01
2.251000000000000000e+03 2.549974060058593750e+01 3.151150131225585938e+01 -6.597868353128433228e-02 -4.282246902585029602e-02 -3.264034539461135864e-02 -6.652707606554031372e-02
2.252000000000000000e+03 1.145936298370361328e+01 4.796254634857177734e+00 -5.468024392030201852e-05 -3.148344603687291965e-06 -1.734857687551993877e-05 -9.183648217003792524e-06
2.253000000000000000e+03 2.592206764221191406e+01 7.098048329353332520e-01 1.092869415879249573e-02 -1.359382987022399902e+00 -4.045363068580627441e-01 -3.122495114803314209e-01
2.254000000000000000e+03 2.696213960647583008e+00 6.216398239135742188e+00 -6.957296864129602909e-05 -1.457069265597965568e-05 -2.524310002627316862e-05 3.523900204527308233e-06
2.255000000000000000e+03 2.553119468688964844e+01 -1.929692268371582031e+01 3.855763748288154602e-02 -1.699107527732849121e+00 -4.981649816036224365e-01 -1.249805316329002380e-01
2.256000000000000000e+03 2.570853614807128906e+01 -1.784729194641113281e+01 3.534435480833053589e-02 -1.674555420875549316e+00 -4.917633235454559326e-01 -1.274892091751098633e-01
2.257000000000000000e+03 2.589410209655761719e+01 -4.893641948699951172e+00 3.776058927178382874e-02 -1.504626750946044922e+00 -4.400598704814910889e-01 -2.639537751674652100e-01
2.258000000000000000e+03 1.027691745758056641e+01 -1.561278057098388672e+01 -4.080225480720400810e-04 -1.691140496404841542e-04 -1.731409720377996564e-04 -2.951316128019243479e-04
2.259000000000000000e+03 1.124088764190673828e+01 1.041459083557128906e+01 6.026967821526341140e-05 1.643939867790322751e-05 2.301272252225317061e-05 1.288278690481092781e-05
2.260000000000000000e+03 9.719840049743652344e+00 5.798299312591552734e+00 3.401036519790068269e-05 2.616712845338042825e-05 1.805324791348539293e-05 2.061607665382325649e-05
2.261000000000000000e+03 7.438872528076171875e+01 3.536874389648437500e+01 -3.669053018093109131e-01 1.105663681030273438e+01 3.206919431686401367e+00 1.626856207847595215e+00
2.262000000000000000e+03 7.458972930908203125e+01 3.917981719970703125e+01 -1.068314075469970703e+00 1.000165081024169922e+01 2.680001020431518555e+00 7.705737352371215820e-01
2.263000000000000000e+03 1.019318962097167969e+01 1.711823654174804688e+01 7.413567072944715619e-05 5.974594841973157600e-06 2.403308099019341171e-05 -2.078605757560580969e-05
2.264000000000000000e+03 1.081845283508300781e+01 2.518970108032226562e+01 1.826489897212013602e-04 5.741052063967799768e-06 5.651701212627813220e-05 -1.647456338105257601e-05
2.265000000000000000e+03 1.136015415191650391e+01 -1.147083377838134766e+01 7.404167990898713470e-05 1.253655937034636736e-04 5.982218135613948107e-05 1.133642435888759792e-04
2.266000000000000000e+03 1.003203201293945312e+01 -1.428970050811767578e+01 4.219872353132814169e-04 6.718103541061282158e-04 3.281392855569720268e-04 9.551666153129190207e-05
2.267000000000000000e+03 2.454238510131835938e+01 -2.276546001434326172e+00 2.010282129049301147e-02 -1.625460267066955566e+00 -4.816072285175323486e-01 -2.510363161563873291e-01
2.268000000000000000e+03 2.590760993957519531e+01 -6.965588331222534180e-01 2.252736128866672516e-02 -1.404651880264282227e+00 -4.146373569965362549e-01 -2.980481684207916260e-01
2.269000000000000000e+03 1.044137287139892578e+01 -3.465900802612304688e+01 2.734413929283618927e-02 -1.365473400801420212e-02 4.106821492314338684e-03 -5.991036538034677505e-03
2.270000000000000000e+03 6.372269630432128906e+00 -3.118890571594238281e+01 6.550243590027093887e-03 -1.041711657308042049e-03 1.652559498324990273e-03 4.578096792101860046e-03
2.271000000000000000e+03 1.548881244659423828e+01 4.022419357299804688e+01 -9.016079129651188850e-04 -5.145648610778152943e-04 -4.248518380336463451e-04 1.032636500895023346e-04
2.272000000000000000e+03 1.810253715515136719e+01 3.850543594360351562e+01 -9.452028898522257805e-04 1.056633482221513987e-05 -2.803909883368760347e-04 -1.237746037077158689e-04
2.273000000000000000e+03 2.579257392883300781e+01 -1.189171314239501953e+01 3.427222603932023048e-03 -1.598973512649536133e+00 -4.786638915538787842e-01 -1.959322690963745117e-01
2.274000000000000000e+03 7.550174713134765625e+01 2.508455657958984375e+01 -5.870484113693237305e-01 9.834209442138671875e+00 2.774148225784301758e+00 -1.260840058326721191e+00
2.275000000000000000e+03 7.493213653564453125e+01 2.619311904907226562e+01 -3.700768053531646729e-01 1.039216613769531250e+01 3.006626844406127930e+00 -1.437416195869445801e+00
2.276000000000000000e+03 7.510816955566406250e+01 -2.641156387329101562e+01 1.384513825178146362e-02 6.405215740203857422e+00 1.925718307495117188e+00 3.965780138969421387e-02
2.277000000000000000e+03 7.611224365234375000e+01 2.825748634338378906e+01 6.753060817718505859e-01 9.136378288269042969e+00 2.943505287170410156e+00 -1.413304448127746582e+00
2.278000000000000000e+03 7.653153228759765625e+01 3.015679931640625000e+01 1.225219607353210449e+00 8.432326316833496094e+00 2.897263765335083008e+00 -4.061539173126220703e-01
2.279000000000000000e+03 2.438842201232910156e+01 -9.222269058227539062e+00 9.740144596435129642e-04 -1.791773200035095215e+00 -5.372397303581237793e-01 -2.150656878948211670e-01
2.280000000000000000e+03 2.584325599670410156e+01 -7.640973567962646484e+00 2.844972535967826843e-02 -1.557105541229248047e+00 -4.585967361927032471e-01 -2.467689812183380127e-01
2.281000000000000000e+03 7.637693023681640625e+01 2.216647529602050781e+01 -5.080826282501220703e-01 9.227200508117675781e+00 2.615735530853271484e+00 -6.278560161590576172e-01
2.282000000000000000e+03 7.365451049804687500e+01 1.856204414367675781e+01 -5.792341828346252441e-01 8.361744880676269531e+00 2.334753274917602539e+00 4.075167775154113770e-01
2.283000000000000000e+03 7.590053558349609375e+01 1.533361625671386719e+01 -1.571059226989746094e-01 8.500984191894531250e+00 2.503163337707519531e+00 3.091925978660583496e-01
2.284000000000000000e+03 7.441894531250000000e+01 1.092568302154541016e+01 -1.829223707318305969e-02 7.612196922302246094e+00 2.278171539306640625e+00 5.398615002632141113e-01
2.285000000000000000e+03 7.389524841308593750e+01 -2.205521965026855469e+01 2.085350826382637024e-02 6.245676994323730469e+00 1.879959106445312500e+00 8.034720271825790405e-02
2.286000000000000000e+03 7.588008880615234375e+01 8.246495246887207031e+00 1.970362663269042969e-02 7.842730045318603516e+00 2.358730077743530273e+00 4.010081291198730469e-01
2.287000000000000000e+03 7.466597747802734375e+01 4.117196559906005859e+00 5.807449296116828918e-02 7.211459159851074219e+00 2.180860042572021484e+00 4.226992428302764893e-01
2.288000000000000000e+03 7.572380065917968750e+01 1.427037835121154785e+00 3.940850868821144104e-02 7.317977905273437500e+00 2.207215785980224609e+00 3.090419173240661621e-01
2.289000000000000000e+03 7.419406127929687500e+01 -2.524036169052124023e+00 5.962709710001945496e-02 6.767013549804687500e+00 2.047992229461669922e+00 3.142524659633636475e-01
2.290000000000000000e+03 7.429158782958984375e+01 -1.517636585235595703e+01 3.271064162254333496e-02 6.419232845306396484e+00 1.935582995414733887e+00 1.284601986408233643e-01
2.291000000000000000e+03 7.397132873535156250e+01 -8.292351722717285156e+00 4.946829378604888916e-02 6.524841308593750000e+00 1.972292900085449219e+00 2.139967232942581177e-01
2.292000000000000000e+03 7.403218841552734375e+01 -3.904775142669677734e+00 6.006432324647903442e-02 6.668760776519775391e+00 2.018647670745849609e+00 2.954431474208831787e-01
2.293000000000000000e+03 7.472489929199218750e+01 5.449350357055664062e+00 5.188097432255744934e-02 7.313331127166748047e+00 2.209563493728637695e+00 4.460261464118957520e-01
2.294000000000000000e+03 7.382259368896484375e+01 -5.343551635742187500e+00 6.117285415530204773e-02 6.571710586547851562e+00 1.989865064620971680e+00 2.719921469688415527e-01
2.295000000000000000e+03 7.416997528076171875e+01 -1.107686614990234375e+01 3.787210211157798767e-02 6.488197803497314453e+00 1.957821011543273926e+00 1.750034093856811523e-01
2.296000000000000000e+03 7.425196075439453125e+01 -1.245876979827880859e+01 3.311846405267715454e-02 6.472486019134521484e+00 1.951681256294250488e+00 1.580190360546112061e-01
2.297000000000000000e+03 7.417621612548828125e+01 -1.789833641052246094e+01 1.807410083711147308e-02 6.355758666992187500e+00 1.912149906158447266e+00 1.075709387660026550e-01
2.298000000000000000e+03 7.405250549316406250e+01 -1.927140808105468750e+01 2.447530999779701233e-02 6.317057609558105469e+00 1.902459979057312012e+00 1.021088957786560059e-01
2.299000000000000000e+03 7.586778259277343750e+01 2.925517272949218750e+01 1.425799012184143066e+00 9.258879661560058594e+00 3.205403804779052734e+00 -1.042055845260620117e+00
2.300000000000000000e+03 7.360582733154296875e+01 -2.490876388549804688e+01 2.281131036579608917e-02 6.168508052825927734e+00 1.857395768165588379e+00 6.810251623392105103e-02
2.301000000000000000e+03 7.377255249023437500e+01 -2.791015052795410156e+01 7.219002582132816315e-03 6.144515514373779297e+00 1.845520377159118652e+00 4.814182594418525696e-02
2.302000000000000000e+03 7.480648040771484375e+01 1.821548271179199219e+01 -4.413642883300781250e-01 8.569288253784179688e+00 2.438377141952514648e+00 2.258607894182205200e-01
2.303000000000000000e+03 7.381201934814453125e+01 -6.834099769592285156e+00 5.831955000758171082e-02 6.525373935699462891e+00 1.975108027458190918e+00 2.449663281440734863e-01
2.304000000000000000e+03 7.439295196533203125e+01 1.261392831802368164e-01 6.410818547010421753e-02 6.929805278778076172e+00 2.098174095153808594e+00 3.575377166271209717e-01
2.305000000000000000e+03 7.457980346679687500e+01 2.779930591583251953e+00 5.919100344181060791e-02 7.112386226654052734e+00 2.151473283767700195e+00 4.009881317615509033e-01
2.306000000000000000e+03 7.448343658447265625e+01 1.444833517074584961e+00 6.263787299394607544e-02 7.018125534057617188e+00 2.124228954315185547e+00 3.792066872119903564e-01
2.307000000000000000e+03 7.429186248779296875e+01 -1.382684993743896484e+01 3.069089539349079132e-02 6.448201179504394531e+00 1.943667531013488770e+00 1.441793888807296753e-01
2.308000000000000000e+03 7.474300384521484375e+01 6.782282352447509766e+00 4.432252421975135803e-02 7.405687332153320312e+00 2.235002994537353516e+00 4.659654498100280762e-01
2.309000000000000000e+03 7.395751190185546875e+01 -2.065337371826171875e+01 3.109280765056610107e-02 6.281447410583496094e+00 1.893762111663818359e+00 9.288180619478225708e-02
2.310000000000000000e+03 7.375058746337890625e+01 -3.039282608032226562e+01 2.450306201353669167e-03 6.155742645263671875e+00 1.847457885742187500e+00 2.239036001265048981e-02
2.311000000000000000e+03 7.509908294677734375e+01 -3.039797210693359375e+01 1.459247618913650513e-02 6.380727767944335938e+00 1.918596029281616211e+00 2.823479101061820984e-02
2.312000000000000000e+03 7.459815979003906250e+01 9.490088462829589844e+00 1.516369357705116272e-02 7.551602840423583984e+00 2.270030021667480469e+00 5.125667452812194824e-01
2.313000000000000000e+03 7.470428466796875000e+01 8.121442794799804688e+00 3.489831089973449707e-02 7.489761829376220703e+00 2.257398128509521484e+00 4.893384873867034912e-01
2.314000000000000000e+03 7.338325500488281250e+01 -3.382210159301757812e+01 1.070688740583136678e-04 6.043338775634765625e+00 1.813033699989318848e+00 2.950973436236381531e-02
2.315000000000000000e+03 7.218618774414062500e+01 3.271551895141601562e+01 2.279405117034912109e+00 1.487397193908691406e+01 5.146013259887695312e+00 2.128110170364379883e+00
2.316000000000000000e+03 7.622064208984375000e+01 3.480842971801757812e+01 7.735203206539154053e-02 9.469148635864257812e+00 2.863950252532958984e+00 1.628469467163085938e+00
2.317000000000000000e+03 7.641786956787109375e+01 3.291171646118164062e+01 8.694241046905517578e-01 8.852627754211425781e+00 2.916615486145019531e+00 1.240010619163513184e+00
2.318000000000000000e+03 7.463229370117187500e+01 1.390133190155029297e+01 -1.280987858772277832e-01 7.963580131530761719e+00 2.350644350051879883e+00 4.907536804676055908e-01
2.319000000000000000e+03 7.468606567382812500e+01 1.675812149047851562e+01 -3.234543204307556152e-01 8.326620101928710938e+00 2.400949716567993164e+00 3.618224561214447021e-01
2.320000000000000000e+03 7.471831512451171875e+01 1.531834316253662109e+01 -2.025483697652816772e-01 8.142179489135742188e+00 2.381889343261718750e+00 4.360968172550201416e-01
2.321000000000000000e+03 2.438637351989746094e+01 -1.498338699340820312e+01 -5.050666164606809616e-03 -1.863160610198974609e+00 -5.604633688926696777e-01 -1.401423960924148560e-01
2.322000000000000000e+03 6.450295925140380859e+00 -1.563801670074462891e+01 -6.741418619640171528e-04 -1.222336140926927328e-04 -2.389126311754807830e-04 -4.640199476853013039e-04
2.323000000000000000e+03 5.753527641296386719e+00 -2.893691444396972656e+01 3.723934292793273926e-03 2.123134254361502826e-05 1.123549649491906166e-03 1.977065112441778183e-03
2.324000000000000000e+03 1.177489566802978516e+01 -2.159918403625488281e+01 5.855949129909276962e-04 1.756006269715726376e-03 7.024803198873996735e-04 3.569516411516815424e-04
2.325000000000000000e+03 1.134441471099853516e+01 3.084333229064941406e+01 2.890238829422742128e-04 -6.333456894935807213e-06 8.480712131131440401e-05 6.170317192299989983e-06
2.326000000000000000e+03 7.528495025634765625e+01 2.086863327026367188e+01 -6.302314400672912598e-01 9.110757827758789062e+00 2.544157743453979492e+00 -2.384586930274963379e-01
2.327000000000000000e+03 2.596284675598144531e+01 9.214619636535644531e+00 -4.244255367666482925e-03 -1.024659156799316406e+00 -3.086709976196289062e-01 -4.062801599502563477e-01
2.328000000000000000e+03 5.656707286834716797e+00 -2.646388626098632812e+01 1.781961764208972454e-03 2.079264377243816853e-04 5.969664780423045158e-04 9.306826977990567684e-04
2.329000000000000000e+03 4.461894989013671875e+00 2.704652404785156250e+01 -1.505424006609246135e-04 -1.258712654816918075e-05 -4.893885852652601898e-05 -2.438548290228936821e-05
2.330000000000000000e+03 5.907147884368896484e+00 2.806637954711914062e+01 -1.442783395759761333e-04 -3.222730811103247106e-05 -5.295169466990046203e-05 -1.481064555264310911e-05
2.331000000000000000e+03 2.564362144470214844e+01 2.041255378723144531e+01 -4.455582797527313232e-02 -4.393614828586578369e-01 -1.451751887798309326e-01 -3.370276093482971191e-01
2.332000000000000000e+03 2.577626991271972656e+01 1.767243385314941406e+01 -2.765267901122570038e-02 -5.808643698692321777e-01 -1.825551092624664307e-01 -3.775942921638488770e-01
2.333000000000000000e+03 2.571427917480468750e+01 1.904754638671875000e+01 -3.574531897902488708e-02 -5.091139674186706543e-01 -1.634577959775924683e-01 -3.595844209194183350e-01
2.334000000000000000e+03 2.593861389160156250e+01 2.120229721069335938e+00 7.336391136050224304e-04 -1.315666437149047852e+00 -3.944798409938812256e-01 -3.280655741691589355e-01
2.335000000000000000e+03 2.595104217529296875e+01 1.063870620727539062e+01 -2.583175199106335640e-03 -9.536288976669311523e-01 -2.868636250495910645e-01 -4.103178679943084717e-01
2.336000000000000000e+03 2.593105888366699219e+01 1.205699062347412109e+01 -2.971491310745477676e-03 -8.815350532531738281e-01 -2.653519809246063232e-01 -4.107339382171630859e-01
2.337000000000000000e+03 2.473411369323730469e+01 9.061035156250000000e+00 -8.655060082674026489e-03 -1.146731138229370117e+00 -3.466158807277679443e-01 -3.415654599666595459e-01
2.338000000000000000e+03 2.596975517272949219e+01 7.792368888854980469e+00 -9.598013013601303101e-03 -1.088679432868957520e+00 -3.294832408428192139e-01 -3.986329734325408936e-01
2.339000000000000000e+03 1.445613193511962891e+01 -2.894441032409667969e+01 -3.036702764802612364e-05 -1.076947082765400410e-03 -3.321942058391869068e-04 -4.481651703827083111e-04
2.340000000000000000e+03 3.059276580810546875e+01 1.799590682983398438e+01 -8.364836126565933228e-02 -3.722020387649536133e-01 -1.367551237344741821e-01 -5.865633487701416016e-01
2.341000000000000000e+03 7.492671203613281250e+01 2.423463630676269531e+01 -8.473544120788574219e-01 9.940108299255371094e+00 2.727826118469238281e+00 -9.266201257705688477e-01
2.342000000000000000e+03 7.538425445556640625e+01 2.208260154724121094e+01 -7.114022374153137207e-01 9.326291084289550781e+00 2.584466695785522461e+00 -5.007140040397644043e-01
2.343000000000000000e+03 2.466801643371582031e+01 1.472213268280029297e+01 -7.425568997859954834e-03 -8.031151294708251953e-01 -2.431622147560119629e-01 -3.308035433292388916e-01
2.344000000000000000e+03 2.435673332214355469e+01 2.301190567016601562e+01 -3.689694777131080627e-02 -3.269920051097869873e-01 -1.091666817665100098e-01 -2.276652157306671143e-01
2.345000000000000000e+03 5.686422348022460938e+00 2.211745452880859375e+01 4.098280260222963989e-05 3.077412839047610760e-05 2.152707747882232070e-05 8.200950833270326257e-05
2.346000000000000000e+03 1.028742122650146484e+01 2.244767379760742188e+01 1.232510840054601431e-04 1.359101679554441944e-05 4.105262996745295823e-05 -4.254266605130396783e-05
2.347000000000000000e+03 6.435180664062500000e+00 -1.031764602661132812e+01 -4.171375767327845097e-04 -2.331546857021749020e-04 -1.950876758201047778e-04 -2.425164566375315189e-04
2.348000000000000000e+03 5.190749645233154297e+00 -1.040888500213623047e+01 3.096930449828505516e-04 1.034658489516004920e-04 1.239476696355268359e-04 2.510990598239004612e-04
2.349000000000000000e+03 2.519778823852539062e+01 2.576152420043945312e+01 -6.666423380374908447e-02 -2.018342316150665283e-01 -8.054953813552856445e-02 -2.074006050825119019e-01
2.350000000000000000e+03 2.409200096130371094e+01 2.703889656066894531e+01 -4.470541700720787048e-02 -1.547055244445800781e-01 -5.982328206300735474e-02 -1.370420604944229126e-01
2.351000000000000000e+03 2.667555618286132812e+01 2.997489166259765625e+01 -1.087590530514717102e-01 -6.549043953418731689e-02 -5.227484926581382751e-02 -1.292932331562042236e-01
2.352000000000000000e+03 2.590377044677734375e+01 1.346896839141845703e+01 -7.019082084298133850e-03 -8.057237863540649414e-01 -2.438228726387023926e-01 -4.077941179275512695e-01
2.353000000000000000e+03 2.587018394470214844e+01 1.487904930114746094e+01 -1.257663220167160034e-02 -7.305679917335510254e-01 -2.229433804750442505e-01 -4.016288816928863525e-01
2.354000000000000000e+03 2.506081390380859375e+01 2.702393531799316406e+01 -6.643456220626831055e-02 -1.547723710536956787e-01 -6.636208295822143555e-02 -1.695907413959503174e-01
2.355000000000000000e+03 2.593611526489257812e+01 2.806253051757812500e+01 -9.314533323049545288e-02 -1.205063387751579285e-01 -6.409550458192825317e-02 -1.699173450469970703e-01
2.356000000000000000e+03 5.918083190917968750e+00 -2.254151916503906250e+01 -9.506762144155800343e-04 9.265080443583428860e-04 -7.250458565977169201e-06 -4.208453756291419268e-04
2.357000000000000000e+03 9.528882980346679688e+00 2.557520103454589844e+01 -1.657456159591674805e-04 -1.486352903157239780e-05 -5.418274304247461259e-05 1.523063019703840837e-06
2.358000000000000000e+03 5.439393043518066406e+00 2.428827857971191406e+01 1.383191993227228522e-04 1.529983637738041580e-05 4.608571180142462254e-05 4.611301847035065293e-05
2.359000000000000000e+03 5.530915737152099609e+00 -1.711361503601074219e+01 -6.290358141995966434e-04 -2.763224474620074034e-04 -2.716074814088642597e-04 -5.318221519701182842e-04
2.360000000000000000e+03 5.371050357818603516e+00 -1.581429481506347656e+01 4.832181439269334078e-04 1.922542141983285546e-04 2.026417059823870659e-04 2.697383170016109943e-04
2.361000000000000000e+03 5.274744510650634766e+00 -1.448513507843017578e+01 -6.045347545295953751e-04 9.201248758472502232e-05 -1.537566713523119688e-04 -3.408298653084784746e-04
2.362000000000000000e+03 4.529488086700439453e+00 -2.132493591308593750e+01 -8.702616905793547630e-04 1.767201320035383105e-04 -2.080624690279364586e-04 -7.097457419149577618e-04
2.363000000000000000e+03 7.865500450134277344e+00 1.586273765563964844e+01 -1.654072366363834590e-05 6.923301953065674752e-06 -2.885226422222331166e-06 3.927040233975276351e-05
2.364000000000000000e+03 4.697784423828125000e+00 2.025318527221679688e+01 1.529049332020804286e-04 -9.002778824651613832e-06 4.317064667702652514e-05 1.582743971084710211e-05
2.365000000000000000e+03 7.031543731689453125e+00 -1.813830757141113281e+01 -7.799944141879677773e-04 5.551166032091714442e-05 -2.173448301618918777e-04 -8.021469111554324627e-04
2.366000000000000000e+03 4.322171211242675781e+00 1.473822879791259766e+01 1.284069730900228024e-04 -1.157749193225754425e-05 3.504884443827904761e-05 -1.060659997165203094e-05
2.367000000000000000e+03 5.725972652435302734e+00 2.675166320800781250e+01 1.448949624318629503e-04 2.342003062949515879e-05 5.049449828220531344e-05 2.276492159580811858e-05
2.368000000000000000e+03 4.351296901702880859e+00 2.572726249694824219e+01 1.513657771283760667e-04 7.412923423544270918e-06 4.763361357618123293e-05 3.436195402173325419e-05
2.369000000000000000e+03 4.424749851226806641e+00 -2.671091270446777344e+01 -2.541832218412309885e-04 2.375887997914105654e-04 -4.978325250704074278e-06 -3.775807272177189589e-04
2.370000000000000000e+03 6.925339221954345703e+00 -2.625769615173339844e+01 7.612955523654818535e-04 5.250211106613278389e-04 3.858949930872768164e-04 -7.608762825839221478e-04
2.371000000000000000e+03 2.658374404907226562e+01 2.323409843444824219e+01 -8.427239209413528442e-02 -2.887961268424987793e-01 -1.119205579161643982e-01 -3.259324431419372559e-01
2.372000000000000000e+03 2.770272254943847656e+01 2.331561660766601562e+01 -1.137429848313331604e-01 -2.619761526584625244e-01 -1.127157434821128845e-01 -3.685513734817504883e-01
2.373000000000000000e+03 8.475992202758789062e+00 -1.091267108917236328e+01 -2.377749042352661490e-04 -5.947623867541551590e-04 -2.497611858416348696e-04 -6.950106035219505429e-05
2.374000000000000000e+03 5.043098449707031250e+00 3.140965843200683594e+01 1.520495716249570251e-04 5.581275036092847586e-05 6.235869659576565027e-05 3.431782897678203881e-05
2.375000000000000000e+03 6.652348995208740234e+00 2.134574699401855469e+01 9.463632886763662100e-05 -2.929243055405095220e-05 1.960316876647993922e-05 -6.311610923148691654e-05
2.376000000000000000e+03 5.505179405212402344e+00 1.829092407226562500e+01 7.144806295400485396e-05 -5.219704689807258546e-05 5.775304543931270018e-06 -5.329504710971377790e-05
2.377000000000000000e+03 6.173652172088623047e+00 2.008703804016113281e+01 -1.306178164668381214e-04 -2.969376964756520465e-06 -4.007616007584147155e-05 -6.596186267415760085e-06
2.378000000000000000e+03 5.905699253082275391e+00 -2.109489631652832031e+01 8.250060491263866425e-04 2.069702604785561562e-04 3.095928987022489309e-04 5.298926262184977531e-04
2.379000000000000000e+03 5.668527126312255859e+00 -1.839850234985351562e+01 5.494247307069599628e-04 2.803198003675788641e-04 2.489233738742768764e-04 6.168157560750842094e-04
2.380000000000000000e+03 5.469358444213867188e+00 3.536674118041992188e+01 1.499409117968752980e-04 -4.132618778385221958e-05 3.258441574871540070e-05 2.938885700132232159e-05
2.381000000000000000e+03 6.909835338592529297e+00 1.662776565551757812e+01 1.743999564496334642e-05 -2.285588561790063977e-05 -1.624767151042760815e-06 -3.782250132644549012e-05
2.382000000000000000e+03 5.512011051177978516e+00 1.298822879791259766e+01 5.573736052610911429e-05 -3.607174448916339315e-06 1.563905607326887548e-05 -4.581240136758424342e-05
2.383000000000000000e+03 6.229117870330810547e+00 1.403221607208251953e+01 1.633153260627295822e-05 -1.078400373444310389e-06 4.575939783535432070e-06 5.351391519070602953e-05
2.384000000000000000e+03 5.659992694854736328e+00 -2.771059799194335938e+01 8.064092835411429405e-04 4.558130967780016363e-05 2.555971732363104820e-04 -3.266262647230178118e-04
2.385000000000000000e+03 9.779056549072265625e+00 -3.252100753784179688e+01 1.138935331255197525e-02 -3.604691941291093826e-03 2.335398225113749504e-03 -4.362831357866525650e-03
2.386000000000000000e+03 1.019392395019531250e+01 1.037554264068603516e+01 -6.619887426495552063e-05 -1.234650426340522245e-05 -2.356361437705345452e-05 -1.171856638393364847e-05
2.387000000000000000e+03 4.081559658050537109e+00 8.754493713378906250e+00 5.570547000388614833e-05 1.302833788940915838e-05 2.062014209514018148e-05 -2.273255995532963425e-05
2.388000000000000000e+03 5.262801170349121094e+00 -1.177983283996582031e+01 -4.461931530386209488e-04 7.996624481165781617e-05 -1.098680731956847012e-04 -3.502682666294276714e-04
2.389000000000000000e+03 4.877516269683837891e+00 -7.676915645599365234e+00 3.720746317412704229e-04 3.884646048391005024e-06 1.127877840190194547e-04 2.127837215084582567e-04
2.390000000000000000e+03 5.180690288543701172e+00 8.229549407958984375e+00 -2.275375209137564525e-06 -2.115442293870728463e-05 -7.028939762676600367e-06 1.321317176916636527e-05
2.391000000000000000e+03 3.799553155899047852e+00 7.409849166870117188e+00 -4.747923958348110318e-05 -1.415675160387763754e-05 -1.849079671956133097e-05 2.176832094846758991e-05
2.392000000000000000e+03 6.905566692352294922e+00 -2.507887077331542969e+01 9.589473484084010124e-04 1.241261139512062073e-03 6.600625347346067429e-04 6.990045221755281091e-05
2.393000000000000000e+03 1.073320102691650391e+01 -2.529976654052734375e+01 4.132844624109566212e-04 2.257724991068243980e-03 8.013028418645262718e-04 2.082813734887167811e-04
2.394000000000000000e+03 1.061514282226562500e+01 -2.708796501159667969e+01 7.120345253497362137e-04 2.595005324110388756e-03 9.921119781211018562e-04 -1.496575307101011276e-03
2.395000000000000000e+03 1.058985519409179688e+01 1.359290695190429688e+01 -3.122366979368962348e-05 4.071299372299108654e-06 -8.145711035467684269e-06 -5.055615110904909670e-05
2.396000000000000000e+03 4.628910541534423828e+00 -6.411069869995117188e+00 -3.794659569393843412e-04 -1.492838055128231645e-04 -1.586249272804707289e-04 -2.171109081245958805e-04
2.397000000000000000e+03 4.333559513092041016e+00 -5.340263843536376953e+00 4.170723259449005127e-04 5.131506986799649894e-05 1.405162183800712228e-04 1.882665237644687295e-04
2.398000000000000000e+03 2.588128852844238281e+01 -6.267920494079589844e+00 3.621665760874748230e-02 -1.532881259918212891e+00 -4.489993751049041748e-01 -2.553135752677917480e-01
2.399000000000000000e+03 2.589741134643554688e+01 -3.502078056335449219e+00 3.709352388978004456e-02 -1.473104238510131836e+00 -4.308032095432281494e-01 -2.762947082519531250e-01
2.400000000000000000e+03 2.589418792724609375e+01 -1.334470176696777344e+01 4.979248158633708954e-03 -1.609845519065856934e+00 -4.814598560333251953e-01 -1.782718300819396973e-01
2.401000000000000000e+03 2.575653266906738281e+01 -1.044337177276611328e+01 4.903184715658426285e-03 -1.595587849617004395e+00 -4.772053956985473633e-01 -2.155787050724029541e-01
2.402000000000000000e+03 1.021290683746337891e+01 -2.985567855834960938e+01 3.656427143141627312e-03 1.283034449443221092e-03 1.481838524341583252e-03 -4.801155999302864075e-03
2.403000000000000000e+03 2.596912765502929688e+01 6.368620395660400391e+00 -1.370023284107446671e-02 -1.149788379669189453e+00 -3.490465879440307617e-01 -3.842386007308959961e-01
2.404000000000000000e+03 2.578868865966796875e+01 -9.029437065124511719e+00 2.345601283013820648e-02 -1.586849689483642578e+00 -4.690181016921997070e-01 -2.281502038240432739e-01
2.405000000000000000e+03 1.174715614318847656e+01 2.201644515991210938e+01 -1.742309686960652471e-04 5.988431439618580043e-07 -5.208963921177200973e-05 1.693617195996921510e-05
2.406000000000000000e+03 1.084459972381591797e+01 1.926747322082519531e+01 1.204964937642216682e-04 1.968421929632313550e-05 4.205421282676979899e-05 3.210260183550417423e-05
2.407000000000000000e+03 2.401136398315429688e+01 -2.075045394897460938e+01 4.331088066101074219e-02 -1.932906627655029297e+00 -5.668787360191345215e-01 -1.255770772695541382e-01
2.408000000000000000e+03 2.265354156494140625e+01 -2.370341110229492188e+01 2.409517206251621246e-02 -2.138925552368164062e+00 -6.344491243362426758e-01 -1.005898937582969666e-01
2.409000000000000000e+03 1.110415363311767578e+01 1.160766506195068359e+01 -5.214054544921964407e-05 -3.246244159527122974e-05 -2.538089574954938143e-05 -1.733309545670635998e-05
2.410000000000000000e+03 9.965851783752441406e+00 2.962063217163085938e+01 2.728606923483312130e-04 -2.206402859883382916e-05 7.523900421801954508e-05 6.061382009647786617e-05
2.411000000000000000e+03 1.060663318634033203e+01 1.819592857360839844e+01 -9.228581620845943689e-05 -1.878179864434059709e-05 -3.332028427394106984e-05 2.828223387041362002e-06
2.412000000000000000e+03 2.590071678161621094e+01 -2.099890232086181641e+00 2.931579388678073883e-02 -1.437308073043823242e+00 -4.223976731300354004e-01 -2.878942489624023438e-01
2.413000000000000000e+03 2.596169281005859375e+01 4.947153568267822266e+00 -1.472387928515672684e-02 -1.207866191864013672e+00 -3.667770326137542725e-01 -3.671994507312774658e-01
2.414000000000000000e+03 7.691967010498046875e+01 3.954980087280273438e+01 -4.237244129180908203e-01 9.584733963012695312e+00 2.748302698135375977e+00 7.118552327156066895e-01
2.415000000000000000e+03 2.586928367614746094e+01 -1.633269119262695312e+01 2.543880976736545563e-02 -1.638698935508728027e+00 -4.839780330657958984e-01 -1.393993198871612549e-01
2.416000000000000000e+03 2.594800949096679688e+01 -1.481434345245361328e+01 8.384282700717449188e-03 -1.613543868064880371e+00 -4.815478622913360596e-01 -1.576440930366516113e-01
2.417000000000000000e+03 5.141582870483398438e+01 3.897864532470703125e+01 2.201665490865707397e-01 -2.390435338020324707e-01 -5.663095507770776749e-03 2.100775688886642456e-01
2.418000000000000000e+03 2.399625015258789062e+01 -2.987163925170898438e+01 -4.726266488432884216e-02 -1.935009598731994629e+00 -5.946816802024841309e-01 -1.391786187887191772e-01
2.419000000000000000e+03 1.125127220153808594e+01 2.938793754577636719e+01 -2.622978354338556528e-04 1.672471262281760573e-05 -7.367193029494956136e-05 -4.227356384944869205e-06
2.420000000000000000e+03 8.015470504760742188e+00 2.474697685241699219e+01 -1.354096457362174988e-04 -2.287358438479714096e-05 -4.748496940010227263e-05 -2.448248096698080190e-06
2.421000000000000000e+03 1.422293949127197266e+01 3.825630950927734375e+01 5.765045643784105778e-04 1.119151493185199797e-04 2.065259031951427460e-04 -2.285985538037493825e-04
2.422000000000000000e+03 6.393361568450927734e+00 3.369069290161132812e+01 -1.016220994642935693e-04 1.350542297586798668e-04 1.002963745122542605e-05 5.168873758520931005e-05
2.423000000000000000e+03 5.306892776489257812e+01 3.682806015014648438e+01 3.981711342930793762e-02 -1.980032175779342651e-01 -4.745583236217498779e-02 3.087481558322906494e-01
2.424000000000000000e+03 6.850849151611328125e+01 2.874875831604003906e+01 9.432818889617919922e-01 6.007664203643798828e+00 2.085283756256103516e+00 5.186280727386474609e+00
2.425000000000000000e+03 7.012054443359375000e+01 2.843364906311035156e+01 -1.184189081192016602e+00 1.520789527893066406e+01 4.207111835479736328e+00 3.465334892272949219e+00
2.426000000000000000e+03 6.740803527832031250e+01 2.873141098022460938e+01 2.752515971660614014e-01 2.247003793716430664e+00 7.566766142845153809e-01 3.040258646011352539e+00
2.427000000000000000e+03 6.566449737548828125e+01 2.765603065490722656e+01 -5.599755048751831055e-01 1.356581807136535645e+00 2.389818876981735229e-01 1.821835398674011230e+00
2.428000000000000000e+03 6.992590332031250000e+01 2.822564888000488281e+01 -1.120634675025939941e+00 1.369966888427734375e+01 3.773710250854492188e+00 3.884292602539062500e+00
2.429000000000000000e+03 7.066123962402343750e+01 3.365322875976562500e+01 -8.847385644912719727e-01 1.524853801727294922e+01 4.309139728546142578e+00 -1.352319955825805664e+00
2.430000000000000000e+03 7.213623809814453125e+01 2.916616630554199219e+01 2.500058889389038086e+00 1.507713413238525391e+01 5.273158073425292969e+00 -2.031943321228027344e+00
2.431000000000000000e+03 7.088591766357421875e+01 3.335185241699218750e+01 -5.078849792480468750e-01 1.630711746215820312e+01 4.739769935607910156e+00 -5.676150918006896973e-01
2.432000000000000000e+03 7.194779968261718750e+01 3.359930801391601562e+01 1.954530030488967896e-01 1.481259059906005859e+01 4.502412796020507812e+00 1.226670980453491211e+00
2.433000000000000000e+03 7.502395629882812500e+01 3.480302810668945312e+01 1.217155307531356812e-01 1.057500743865966797e+01 3.209017038345336914e+00 1.784905433654785156e+00
2.434000000000000000e+03 7.246015930175781250e+01 3.108594322204589844e+01 6.192954540252685547e+00 1.337881278991699219e+01 5.871530055999755859e+00 6.191451549530029297e-01
2.435000000000000000e+03 7.299620056152343750e+01 3.166597747802734375e+01 4.460132598876953125e+00 1.261709022521972656e+01 5.123167037963867188e+00 1.459647655487060547e+00
2.436000000000000000e+03 7.257770538330078125e+01 3.137230300903320312e+01 5.681054592132568359e+00 1.327686405181884766e+01 5.687375545501708984e+00 1.087829351425170898e+00
2.437000000000000000e+03 7.226699066162109375e+01 3.219890213012695312e+01 3.942778348922729492e+00 1.456131744384765625e+01 5.551229000091552734e+00 2.239455461502075195e+00
2.438000000000000000e+03 6.779511260986328125e+01 2.884580421447753906e+01 6.797432899475097656e-01 3.194525957107543945e+00 1.162280797958374023e+00 3.723494529724121094e+00
2.439000000000000000e+03 6.719255828857421875e+01 2.834326934814453125e+01 1.111335605382919312e-01 2.467282056808471680e+00 7.735247015953063965e-01 3.038713216781616211e+00
2.440000000000000000e+03 6.512772369384765625e+01 2.719809532165527344e+01 -5.622252225875854492e-01 1.321776747703552246e+00 2.278654426336288452e-01 1.665013432502746582e+00
2.441000000000000000e+03 6.702173614501953125e+01 3.448162460327148438e+01 8.909077048301696777e-01 3.676437616348266602e+00 1.370203614234924316e+00 -2.568240642547607422e+00
2.442000000000000000e+03 6.720694732666015625e+01 3.375927734375000000e+01 1.074951410293579102e+00 3.090658664703369141e+00 1.249683022499084473e+00 -2.588129997253417969e+00
2.443000000000000000e+03 6.647065734863281250e+01 2.808556365966796875e+01 -2.159574627876281738e-01 1.757827401161193848e+00 4.625609815120697021e-01 2.337125301361083984e+00
2.444000000000000000e+03 6.852804565429687500e+01 3.326021575927734375e+01 1.291140317916870117e+00 6.618118762969970703e+00 2.372777700424194336e+00 -4.662154197692871094e+00
2.445000000000000000e+03 6.998266601562500000e+01 3.393473434448242188e+01 -8.008605241775512695e-01 1.319799995422363281e+01 3.719141721725463867e+00 -3.075576543807983398e+00
2.446000000000000000e+03 6.444784545898437500e+01 3.697959136962890625e+01 7.114396691322326660e-01 2.092826843261718750e+00 8.412799239158630371e-01 -9.742068052291870117e-01
2.447000000000000000e+03 6.707702636718750000e+01 3.334964370727539062e+01 1.051779389381408691e+00 2.284778833389282227e+00 1.000967502593994141e+00 -2.316998958587646484e+00
2.448000000000000000e+03 6.398308944702148438e+01 2.669916534423828125e+01 -7.295944094657897949e-01 9.885110259056091309e-01 7.767497748136520386e-02 1.218354821205139160e+00
2.449000000000000000e+03 6.677884674072265625e+01 3.397201919555664062e+01 9.475309848785400391e-01 2.440271377563476562e+00 1.016340732574462891e+00 -2.188022613525390625e+00
2.450000000000000000e+03 6.591051483154296875e+01 3.511280441284179688e+01 7.660681605339050293e-01 2.268411636352539062e+00 9.103438854217529297e-01 -1.591903209686279297e+00
2.451000000000000000e+03 6.603516387939453125e+01 3.561900329589843750e+01 7.537680268287658691e-01 2.835867166519165039e+00 1.076890587806701660e+00 -1.705054521560668945e+00
2.452000000000000000e+03 5.049810028076171875e+01 2.721266174316406250e+01 -1.635932207107543945e+00 5.781127139925956726e-02 -4.734362959861755371e-01 -4.054169654846191406e-01
2.453000000000000000e+03 4.583543014526367188e+01 2.797719573974609375e+01 -1.331791877746582031e+00 7.550679147243499756e-02 -3.768855333328247070e-01 -3.949480652809143066e-01
2.454000000000000000e+03 5.541985034942626953e+00 6.508679389953613281e+00 5.381731170928105712e-06 1.040793995343847200e-05 4.736901701107854024e-06 4.293905021768296137e-06
2.455000000000000000e+03 8.280152320861816406e+00 5.794204711914062500e+00 4.510482540354132652e-05 5.111226073495345190e-06 1.506481567048467696e-05 5.297050392982782796e-06
2.456000000000000000e+03 9.733168601989746094e+00 4.947993755340576172e+00 -4.125897976337000728e-05 -1.623212483536917716e-05 -1.724733192531857640e-05 -1.841066296037752181e-05
2.457000000000000000e+03 6.118031501770019531e+00 6.044777870178222656e+00 4.188154707662761211e-05 -1.784905907697975636e-05 7.209746854641707614e-06 -1.429069925507064909e-05
2.458000000000000000e+03 7.450747489929199219e+00 5.254728794097900391e+00 1.897082256618887186e-05 1.766336936270818114e-05 1.099025757866911590e-05 -5.129714963914011605e-07
2.459000000000000000e+03 2.643015289306640625e+01 3.080330467224121094e+01 -9.693353623151779175e-02 -4.878692328929901123e-02 -4.371613636612892151e-02 -9.918172657489776611e-02
2.460000000000000000e+03 2.703853225708007812e+01 2.931440162658691406e+01 -1.201030313968658447e-01 -7.810881733894348145e-02 -5.946355313062667847e-02 -1.562265157699584961e-01
2.461000000000000000e+03 6.371753215789794922e+00 5.051133155822753906e+00 -1.549047192384023219e-05 -2.040195067820604891e-05 -1.076772696251282468e-05 -7.285539595613954589e-06
2.462000000000000000e+03 5.879079818725585938e+00 5.473744869232177734e+00 -2.785623291856609285e-05 9.284544830734375864e-06 -5.571506335400044918e-06 1.756931305862963200e-05
2.463000000000000000e+03 9.471845626831054688e+00 -5.147106170654296875e+00 -4.796458961209282279e-05 8.609458018327131867e-05 1.143899589806096628e-05 1.207690802402794361e-04
2.464000000000000000e+03 8.717496871948242188e+00 -5.064630031585693359e+00 -1.457394828321412206e-04 6.169124389998614788e-05 -2.521447277104016393e-05 -1.745667541399598122e-04
2.465000000000000000e+03 8.175312995910644531e+00 6.503573417663574219e+00 -6.691707676509395242e-05 1.169481038232333958e-06 -1.972427708096802235e-05 -9.938532912201480940e-07
2.466000000000000000e+03 2.848030662536621094e+01 3.102019309997558594e+01 -1.606220602989196777e-01 -2.904823608696460724e-02 -5.690108984708786011e-02 -1.300368756055831909e-01
2.467000000000000000e+03 1.055343151092529297e+01 5.825289726257324219e+00 -4.915138924843631685e-05 -1.392102240060921758e-05 -1.892172440420836210e-05 -1.926634104165714234e-05
2.468000000000000000e+03 3.055185890197753906e+01 3.006744003295898438e+01 -2.540208101272583008e-01 -2.059791609644889832e-02 -8.238561451435089111e-02 -2.019008100032806396e-01
2.469000000000000000e+03 2.986262893676757812e+01 3.015030479431152344e+01 -2.232272773981094360e-01 -2.792061492800712585e-02 -7.534436881542205811e-02 -1.860456168651580811e-01
2.470000000000000000e+03 3.125636672973632812e+01 3.071533584594726562e+01 -2.793608009815216064e-01 -2.291502198204398155e-03 -8.449569344520568848e-02 -1.819735467433929443e-01
2.471000000000000000e+03 3.125482559204101562e+01 2.997705841064453125e+01 -2.874361574649810791e-01 -1.233890186995267868e-02 -8.993252366781234741e-02 -2.170668691396713257e-01
2.472000000000000000e+03 3.196409416198730469e+01 2.988044357299804688e+01 -3.229694366455078125e-01 -4.192667081952095032e-03 -9.814862906932830811e-02 -2.322803735733032227e-01
2.473000000000000000e+03 2.919249534606933594e+01 3.022445297241210938e+01 -1.963158249855041504e-01 -3.410786762833595276e-02 -6.912710517644882202e-02 -1.713984757661819458e-01
2.474000000000000000e+03 2.854183387756347656e+01 3.028512954711914062e+01 -1.711972057819366455e-01 -4.097925499081611633e-02 -6.365294009447097778e-02 -1.579995304346084595e-01
2.475000000000000000e+03 2.790999412536621094e+01 3.030466079711914062e+01 -1.474629938602447510e-01 -4.836050420999526978e-02 -5.874704942107200623e-02 -1.450363397598266602e-01
2.476000000000000000e+03 3.267458724975585938e+01 2.977580261230468750e+01 -3.606938421726226807e-01 4.294259473681449890e-03 -1.069198697805404663e-01 -2.471589595079421997e-01
2.477000000000000000e+03 3.914361572265625000e+01 2.854408836364746094e+01 -7.724182605743408203e-01 6.689812242984771729e-02 -2.116560339927673340e-01 -3.720584809780120850e-01
2.478000000000000000e+03 3.702653503417968750e+01 2.969118690490722656e+01 -6.353899240493774414e-01 5.222284421324729919e-02 -1.749501228332519531e-01 -2.817149162292480469e-01
2.479000000000000000e+03 3.984975433349609375e+01 2.842779541015625000e+01 -8.232120871543884277e-01 7.103522866964340210e-02 -2.256530672311782837e-01 -3.818845450878143311e-01
2.480000000000000000e+03 3.629628372192382812e+01 2.983326911926269531e+01 -5.832610726356506348e-01 4.611250758171081543e-02 -1.611445695161819458e-01 -2.705325186252593994e-01
2.481000000000000000e+03 3.766287231445312500e+01 2.804676437377929688e+01 -6.495801210403442383e-01 5.122006684541702271e-02 -1.795080155134201050e-01 -4.025854766368865967e-01
2.482000000000000000e+03 3.338471984863281250e+01 2.966215705871582031e+01 -4.000169038772583008e-01 1.256192568689584732e-02 -1.162364929914474487e-01 -2.615997791290283203e-01
2.483000000000000000e+03 4.056817245483398438e+01 2.830564308166503906e+01 -8.746918439865112305e-01 7.476697117090225220e-02 -2.399774640798568726e-01 -3.926052153110504150e-01
2.484000000000000000e+03 5.705455303192138672e+00 -4.606752395629882812e+00 9.914117981679737568e-05 3.784116124734282494e-04 1.432658318663015962e-04 4.650913615478202701e-05
2.485000000000000000e+03 6.282675266265869141e+00 -5.756251811981201172e+00 -6.147197564132511616e-05 -1.178581878775730729e-04 -5.379904905566945672e-05 9.611332643544301391e-06
2.486000000000000000e+03 3.556847000122070312e+01 2.997579002380371094e+01 -5.331538319587707520e-01 3.999535366892814636e-02 -1.479475498199462891e-01 -2.586829364299774170e-01
2.487000000000000000e+03 3.692738342285156250e+01 2.822286033630371094e+01 -6.035706400871276855e-01 4.353459179401397705e-02 -1.680108159780502319e-01 -3.843523263931274414e-01
2.488000000000000000e+03 4.275637054443359375e+01 2.787604713439941406e+01 -1.033594131469726562e+00 8.168178796768188477e-02 -2.855737209320068359e-01 -4.250674843788146973e-01
2.489000000000000000e+03 3.409577178955078125e+01 2.953861045837402344e+01 -4.411233961582183838e-01 2.037753164768218994e-02 -1.262237578630447388e-01 -2.761605978012084961e-01
2.490000000000000000e+03 4.282942962646484375e+01 2.856249427795410156e+01 -1.093432903289794922e+00 7.894221693277359009e-02 -3.043472170829772949e-01 -3.616344332695007324e-01
2.491000000000000000e+03 4.415966033935546875e+01 2.686385917663574219e+01 -1.051846861839294434e+00 8.662436902523040771e-02 -2.895667552947998047e-01 -5.029817223548889160e-01
2.492000000000000000e+03 9.296060562133789062e+00 8.184338569641113281e+00 5.064711876912042499e-05 8.836880624585319310e-06 1.784519918146543205e-05 1.281055392610142007e-05
2.493000000000000000e+03 4.129602432250976562e+01 2.817242622375488281e+01 -9.291067123413085938e-01 7.777982950210571289e-02 -2.553980648517608643e-01 -4.035655856132507324e-01
2.494000000000000000e+03 3.480960464477539062e+01 2.940528488159179688e+01 -4.840783476829528809e-01 2.827717363834381104e-02 -1.367403566837310791e-01 -2.906045615673065186e-01
2.495000000000000000e+03 3.552828598022460938e+01 2.926316261291503906e+01 -5.285197496414184570e-01 3.534803166985511780e-02 -1.479515135288238525e-01 -3.051213622093200684e-01
2.496000000000000000e+03 7.022755622863769531e+00 -7.670106887817382812e+00 3.700145171023905277e-04 4.821344555239193141e-05 1.254683884326368570e-04 3.698060463648289442e-04
2.497000000000000000e+03 4.349421691894531250e+01 2.771858024597167969e+01 -1.084071516990661621e+00 8.336520195007324219e-02 -3.002119064331054688e-01 -4.356349110603332520e-01
2.498000000000000000e+03 7.900503158569335938e+00 -5.854046344757080078e+00 -2.789865247905254364e-04 4.174922651145607233e-05 -7.117119093891233206e-05 -7.709919009357690811e-05
2.499000000000000000e+03 4.892585372924804688e+01 2.745848083496093750e+01 -1.546434998512268066e+00 6.126486137509346008e-02 -4.455510675907135010e-01 -4.099071025848388672e-01
2.500000000000000000e+03 4.743383407592773438e+01 2.841966247558593750e+01 -1.568278193473815918e+00 5.917356163263320923e-02 -4.527314007282257080e-01 -3.291611373424530029e-01
2.501000000000000000e+03 4.341672134399414062e+01 2.702525138854980469e+01 -1.011598825454711914e+00 8.468519896268844604e-02 -2.780740857124328613e-01 -4.928403198719024658e-01
2.502000000000000000e+03 6.022676467895507812e+01 3.765231323242187500e+01 5.781599879264831543e-01 4.450100362300872803e-01 3.069510161876678467e-01 1.764620244503021240e-01
2.503000000000000000e+03 5.520085144042968750e+01 2.678768730163574219e+01 -1.789655089378356934e+00 5.473513156175613403e-02 -5.204759836196899414e-01 -2.970089912414550781e-01
2.504000000000000000e+03 5.597108840942382812e+01 2.605101394653320312e+01 -1.507862329483032227e+00 1.036450266838073730e-01 -4.212652146816253662e-01 -2.600082457065582275e-01
2.505000000000000000e+03 4.202550125122070312e+01 2.802896499633789062e+01 -9.816859364509582520e-01 8.058680593967437744e-02 -2.703297436237335205e-01 -4.138067364692687988e-01
2.506000000000000000e+03 5.829948806762695312e+01 2.732520675659179688e+01 -2.063339471817016602e+00 5.840463936328887939e-02 -6.014804840087890625e-01 -1.165205910801887512e-01
2.507000000000000000e+03 5.752928161621093750e+01 2.735031509399414062e+01 -2.085658311843872070e+00 4.583325609564781189e-02 -6.119475364685058594e-01 -1.681924313306808472e-01
2.508000000000000000e+03 5.285498046875000000e+01 2.768001365661621094e+01 -1.974403262138366699e+00 3.173447772860527039e-02 -5.828006267547607422e-01 -3.172590136528015137e-01
2.509000000000000000e+03 5.676573562622070312e+01 2.669920539855957031e+01 -1.772172212600708008e+00 7.506543397903442383e-02 -5.091320276260375977e-01 -2.130694389343261719e-01
2.510000000000000000e+03 4.814225769042968750e+01 2.758400917053222656e+01 -1.497627377510070801e+00 6.451220810413360596e-02 -4.299345612525939941e-01 -4.079490602016448975e-01
2.511000000000000000e+03 6.061341094970703125e+01 2.666562843322753906e+01 -1.494958162307739258e+00 2.485225051641464233e-01 -3.739307224750518799e-01 2.099442481994628906e-01
2.512000000000000000e+03 6.204948806762695312e+01 2.606340789794921875e+01 -9.243329167366027832e-01 6.099934577941894531e-01 -9.430184215307235718e-02 6.558198332786560059e-01
2.513000000000000000e+03 2.506428146362304688e+01 2.829331207275390625e+01 -6.789971888065338135e-02 -1.133600696921348572e-01 -5.437793582677841187e-02 -1.346404999494552612e-01
2.514000000000000000e+03 6.271166992187500000e+01 2.608473396301269531e+01 -7.846798896789550781e-01 7.664292454719543457e-01 -5.475178360939025879e-03 8.641710281372070312e-01
2.515000000000000000e+03 5.363538742065429688e+01 2.760889053344726562e+01 -2.016264200210571289e+00 2.862381748855113983e-02 -5.962920784950256348e-01 -3.052896261215209961e-01
2.516000000000000000e+03 6.269209289550781250e+01 2.544197463989257812e+01 -5.499216318130493164e-01 9.968624114990234375e-01 1.340822428464889526e-01 9.939299821853637695e-01
2.517000000000000000e+03 1.146930503845214844e+01 6.818505287170410156e+00 -5.108483310323208570e-05 -1.173331747850170359e-05 -1.884544508357066661e-05 -1.184032953460700810e-05
2.518000000000000000e+03 6.135159683227539062e+01 2.603545761108398438e+01 -1.042314052581787109e+00 4.769732654094696045e-01 -1.696022450923919678e-01 4.728167057037353516e-01
2.519000000000000000e+03 1.252997112274169922e+01 5.560951232910156250e+00 -5.196518395678140223e-05 -3.977816504630027339e-06 -1.678290027484763414e-05 -3.968802957388106734e-06
2.520000000000000000e+03 7.529789733886718750e+01 2.923558998107910156e+01 1.790046334266662598e+00 9.822944641113281250e+00 3.483897447586059570e+00 -1.170060038566589355e+00
2.521000000000000000e+03 7.540765380859375000e+01 2.782321357727050781e+01 5.494469404220581055e-01 9.940032958984375000e+00 3.146844148635864258e+00 -1.611526966094970703e+00
2.522000000000000000e+03 7.504573059082031250e+01 3.349662780761718750e+01 1.016603231430053711e+00 1.036251544952392578e+01 3.413735389709472656e+00 1.721713423728942871e+00
2.523000000000000000e+03 7.564693450927734375e+01 2.707619476318359375e+01 2.025299966335296631e-01 9.824995994567871094e+00 3.008257627487182617e+00 -1.619643330574035645e+00
2.524000000000000000e+03 8.138386726379394531e+00 1.231161499023437500e+01 2.908038732130080462e-05 -1.002594399324152619e-05 5.716332907468313351e-06 3.173200093442574143e-05
2.525000000000000000e+03 7.300169372558593750e+01 3.584410095214843750e+01 -1.032464623451232910e+00 1.183643054962158203e+01 3.241189718246459961e+00 8.596897721290588379e-01
2.526000000000000000e+03 4.793041229248046875e+00 7.059750556945800781e+00 5.500170573213836178e-06 1.894933666335418820e-05 7.334851943596731871e-06 -2.041553125309292227e-05
2.527000000000000000e+03 7.386303710937500000e+01 3.471353530883789062e+01 -5.936671420931816101e-02 1.177885818481445312e+01 3.515847444534301758e+00 1.682870864868164062e+00
2.528000000000000000e+03 2.703281784057617188e+01 -1.937248992919921875e+01 4.554845020174980164e-02 -1.483238816261291504e+00 -4.313071072101593018e-01 -1.282503008842468262e-01
2.529000000000000000e+03 7.167336940765380859e+00 8.270053863525390625e+00 4.122223253943957388e-05 2.231576218036934733e-05 1.906139914353843778e-05 -2.828019387379754335e-05
2.530000000000000000e+03 2.723354721069335938e+01 2.305355787277221680e+00 1.584628969430923462e-02 -1.151274323463439941e+00 -3.406283855438232422e-01 -3.722725808620452881e-01
2.531000000000000000e+03 1.146054840087890625e+01 -1.030735683441162109e+01 -1.238215336343273520e-04 -8.363505185116082430e-05 -6.223697710083797574e-05 -1.391034893458709121e-04
2.532000000000000000e+03 9.687142372131347656e+00 -8.676950454711914062e+00 -2.496913366485387087e-04 1.156927028205245733e-04 -4.019958942080847919e-05 1.812929112929850817e-04
2.533000000000000000e+03 9.111185073852539062e+00 1.772684288024902344e+01 -5.249840978649444878e-05 -1.519322995591210201e-05 -2.030749237746931612e-05 1.908137164718937129e-05
2.534000000000000000e+03 8.838847160339355469e+00 1.510618591308593750e+01 6.986383596085943282e-06 5.595077709585893899e-06 3.774438482651021332e-06 -4.856918167206458747e-05
2.535000000000000000e+03 7.258079528808593750e+01 3.946370315551757812e+01 -1.340742945671081543e+00 9.913650512695312500e+00 2.571872234344482422e+00 4.131950065493583679e-02
2.536000000000000000e+03 7.394124603271484375e+01 3.664415359497070312e+01 -9.621532559394836426e-01 1.094881248474121094e+01 2.995997667312622070e+00 1.131186842918395996e+00
2.537000000000000000e+03 7.905774116516113281e+00 2.081182098388671875e+01 -8.645110938232392073e-05 7.750069926260039210e-06 -2.361031329201068729e-05 3.856600233120843768e-05
2.538000000000000000e+03 8.932212829589843750e+00 2.304789733886718750e+01 -1.209203037433326244e-04 -1.214509939018171281e-05 -3.991962148575112224e-05 2.687472624529618770e-05
2.539000000000000000e+03 6.370220184326171875e+00 1.224174213409423828e+01 1.717395025480072945e-05 8.268473720818292350e-06 7.632726919837296009e-06 5.915178462601033971e-06
2.540000000000000000e+03 2.733100318908691406e+01 -7.475363254547119141e+00 4.553171992301940918e-02 -1.344008088111877441e+00 -3.895429074764251709e-01 -2.661192715167999268e-01
2.541000000000000000e+03 2.730356407165527344e+01 -3.287667036056518555e+00 4.625505581498146057e-02 -1.276224017143249512e+00 -3.689906895160675049e-01 -3.073229789733886719e-01
2.542000000000000000e+03 1.084129142761230469e+01 -1.371646499633789062e+01 9.558831516187638044e-05 -8.552056387998163700e-04 -2.278851898154243827e-04 2.375626791035756469e-04
2.543000000000000000e+03 7.015128326416015625e+01 -3.222998809814453125e+01 2.452549710869789124e-02 5.562324523925781250e+00 1.676054954528808594e+00 5.357551947236061096e-02
2.544000000000000000e+03 7.244226837158203125e+01 3.308108139038085938e+01 1.612042427062988281e+00 1.426356983184814453e+01 4.762683868408203125e+00 2.066417694091796875e+00
2.545000000000000000e+03 7.563906097412109375e+01 3.418202972412109375e+01 4.971331954002380371e-01 9.850934982299804688e+00 3.104420661926269531e+00 1.732996821403503418e+00
2.546000000000000000e+03 6.015054321289062500e+01 3.569804382324218750e+01 8.043712377548217773e-02 3.033365905284881592e-01 1.151321157813072205e-01 3.017067015171051025e-01
2.547000000000000000e+03 7.228754425048828125e+01 -3.225306701660156250e+01 1.263712719082832336e-02 5.879629611968994141e+00 1.767680048942565918e+00 3.208746016025543213e-02
2.548000000000000000e+03 7.526367664337158203e+00 3.221315383911132812e+01 1.309993822360411286e-04 -6.628090341109782457e-05 1.941554364748299122e-05 -1.276604161830618978e-04
2.549000000000000000e+03 9.728125572204589844e+00 2.689127540588378906e+01 1.928186975419521332e-04 1.150702428276417777e-05 6.129771645646542311e-05 1.665665877226274461e-05
2.550000000000000000e+03 7.227950286865234375e+01 -2.320478630065917969e+01 2.720101550221443176e-02 5.958436965942382812e+00 1.795691370964050293e+00 9.670738130807876587e-02
2.551000000000000000e+03 7.290611267089843750e+01 1.756696128845214844e+01 -4.915593862533569336e-01 7.954589366912841797e+00 2.238909006118774414e+00 6.039668321609497070e-01
2.552000000000000000e+03 7.307490539550781250e+01 1.049458885192871094e+01 1.621020957827568054e-03 7.168447017669677734e+00 2.151020288467407227e+00 6.390800476074218750e-01
2.553000000000000000e+03 7.315420532226562500e+01 1.265174579620361328e+01 -8.069731295108795166e-02 7.363632678985595703e+00 2.184880733489990234e+00 6.484085917472839355e-01
2.554000000000000000e+03 7.303469085693359375e+01 -1.645029640197753906e+01 3.640083968639373779e-02 6.176372528076171875e+00 1.863831996917724609e+00 1.403248459100723267e-01
2.555000000000000000e+03 7.290462493896484375e+01 -1.776052665710449219e+01 2.832240797579288483e-02 6.125140190124511719e+00 1.846038818359375000e+00 1.235123872756958008e-01
2.556000000000000000e+03 7.271321868896484375e+01 -9.795321464538574219e+00 5.809240043163299561e-02 6.248463630676269531e+00 1.891966819763183594e+00 2.285062819719314575e-01
2.557000000000000000e+03 7.286570739746093750e+01 -1.117273902893066406e+01 5.920495092868804932e-02 6.246000766754150391e+00 1.891561746597290039e+00 2.094630300998687744e-01
2.558000000000000000e+03 7.287020874023437500e+01 -2.371972560882568359e+00 8.793026953935623169e-02 6.464993000030517578e+00 1.965876936912536621e+00 3.660551607608795166e-01
2.559000000000000000e+03 7.267382812500000000e+01 -3.686575174331665039e+00 8.861640840768814087e-02 6.389265537261962891e+00 1.943364620208740234e+00 3.386342227458953857e-01
2.560000000000000000e+03 7.348286437988281250e+01 4.093951225280761719e+00 8.159808814525604248e-02 6.896229743957519531e+00 2.093348264694213867e+00 4.926420152187347412e-01
2.561000000000000000e+03 7.239863586425781250e+01 5.318212032318115234e+00 1.011233553290367126e-01 6.658783912658691406e+00 2.027972221374511719e+00 5.764172077178955078e-01
2.562000000000000000e+03 7.055184936523437500e+01 2.834214019775390625e+01 -1.234330415725708008e+00 1.595746326446533203e+01 4.416939735412597656e+00 2.125342130661010742e+00
2.563000000000000000e+03 7.112047576904296875e+01 2.831571578979492188e+01 -7.715748548507690430e-01 1.589061450958251953e+01 4.535711765289306641e+00 4.152195751667022705e-01
2.564000000000000000e+03 9.182032585144042969e+00 3.480599975585937500e+01 3.234877076465636492e-04 4.773014552483800799e-06 9.847822366282343864e-05 2.270650838909205049e-06
2.565000000000000000e+03 7.358830261230468750e+01 6.660253047943115234e+00 6.543871015310287476e-02 7.069874286651611328e+00 2.140593767166137695e+00 5.406681299209594727e-01
2.566000000000000000e+03 7.192795562744140625e+01 -2.646339035034179688e+01 3.011944144964218140e-02 5.872942447662353516e+00 1.770918488502502441e+00 7.277564704418182373e-02
2.567000000000000000e+03 1.135292816162109375e+01 9.182896614074707031e+00 -5.882896948605775833e-05 -1.156229518528562039e-05 -2.111737921950407326e-05 -1.641523340367712080e-05
2.568000000000000000e+03 8.337594032287597656e+00 -1.935393905639648438e+01 -5.298602045513689518e-04 5.750614218413829803e-04 1.356037773803109303e-05 -5.226283683441579342e-04
2.569000000000000000e+03 1.012335014343261719e+01 -1.699999046325683594e+01 2.968551707454025745e-04 -2.653828705660998821e-04 9.441685506317298859e-06 5.670578102581202984e-04
2.570000000000000000e+03 2.596339416503906250e+01 2.702107429504394531e+01 -9.000352025032043457e-02 -1.485296189785003662e-01 -7.155994325876235962e-02 -1.962026357650756836e-01
2.571000000000000000e+03 2.535187339782714844e+01 2.446328926086425781e+01 -6.368727982044219971e-02 -2.521883249282836914e-01 -9.476268291473388672e-02 -2.436704039573669434e-01
2.572000000000000000e+03 2.826077651977539062e+01 1.511828231811523438e+01 -2.383335866034030914e-02 -5.913392901420593262e-01 -1.845518052577972412e-01 -5.178060531616210938e-01
2.573000000000000000e+03 2.696386528015136719e+01 1.780981063842773438e+01 -4.057527706027030945e-02 -5.280595421791076660e-01 -1.705904453992843628e-01 -4.374632835388183594e-01
2.574000000000000000e+03 9.344579696655273438e+00 -2.066068649291992188e+01 -1.202893472509458661e-04 1.036317320540547371e-03 2.748083788901567459e-04 3.073682601097971201e-04
2.575000000000000000e+03 2.720871925354003906e+01 7.945814132690429688e+00 2.374766860157251358e-03 -9.635943174362182617e-01 -2.883658707141876221e-01 -4.506821632385253906e-01
2.576000000000000000e+03 2.718978118896484375e+01 9.358757019042968750e+00 2.402350306510925293e-03 -9.089648127555847168e-01 -2.719687521457672119e-01 -4.623122215270996094e-01
2.577000000000000000e+03 2.971432113647460938e+01 6.822417259216308594e+00 3.700243309140205383e-02 -7.687718868255615234e-01 -2.195308357477188110e-01 -5.158722400665283203e-01
2.578000000000000000e+03 5.372923851013183594e+00 2.316226577758789062e+01 -1.252427900908514857e-04 -2.205663440690841526e-05 -4.418982643983326852e-05 -7.895501767052337527e-05
2.579000000000000000e+03 9.713782310485839844e+00 2.124717712402343750e+01 -5.708736352971754968e-05 -3.033246116501686629e-07 -1.721720582281704992e-05 7.308323984034359455e-05
2.580000000000000000e+03 6.141387939453125000e+00 -8.942173004150390625e+00 4.151883476879447699e-04 7.561474194517359138e-05 1.472409203415736556e-04 2.066912857117131352e-04
2.581000000000000000e+03 5.033039093017578125e+00 -9.040911674499511719e+00 -3.575008595362305641e-04 -5.590778528130613267e-05 -1.240225974470376968e-04 -1.842893543653190136e-04
2.582000000000000000e+03 7.404682159423828125e+01 1.979306411743164062e+01 -7.033269405364990234e-01 8.766097068786621094e+00 2.418831110000610352e+00 1.871358901262283325e-01
2.583000000000000000e+03 2.707004928588867188e+01 1.501807212829589844e+01 -1.836827024817466736e-02 -6.585944294929504395e-01 -2.030888050794601440e-01 -4.639026820659637451e-01
2.584000000000000000e+03 6.790605068206787109e+00 2.516068649291992188e+01 1.352165418211370707e-04 2.419754491711501032e-05 4.782422547577880323e-05 1.843204154283739626e-05
2.585000000000000000e+03 7.347912597656250000e+01 1.397705459594726562e+01 -1.536612063646316528e-01 7.624328613281250000e+00 2.241200208663940430e+00 6.028634309768676758e-01
2.586000000000000000e+03 7.804181098937988281e+00 -2.745444107055664062e+01 2.923078602179884911e-03 -5.306985112838447094e-04 7.177140214480459690e-04 -1.912874868139624596e-03
2.587000000000000000e+03 6.938731670379638672e+00 -2.396452331542968750e+01 -3.980101610068231821e-04 1.255523064173758030e-03 2.572538505773991346e-04 1.234867231687530875e-04
2.588000000000000000e+03 5.752114295959472656e+00 -2.394047164916992188e+01 9.770243195816874504e-04 3.583363650250248611e-05 3.038573777303099632e-04 7.259155245264992118e-05
2.589000000000000000e+03 6.789220333099365234e+00 -1.685337829589843750e+01 4.530979495029896498e-04 8.092220523394644260e-04 3.786960151046514511e-04 4.278419364709407091e-04
2.590000000000000000e+03 2.608485221862792969e+01 2.895289611816406250e+01 -9.475774317979812622e-02 -9.667760878801345825e-02 -5.743060633540153503e-02 -1.483742594718933105e-01
2.591000000000000000e+03 8.455552101135253906e+00 2.725999641418457031e+01 -1.635617227293550968e-04 -2.590991971374023706e-05 -5.684149073204025626e-05 -2.831382516887970269e-05
2.592000000000000000e+03 6.988106727600097656e+00 2.639131164550781250e+01 -1.434699661331251264e-04 -2.669881905603688210e-05 -5.105063246446661651e-05 -1.969199911400210112e-05
2.593000000000000000e+03 5.302318572998046875e+00 1.724150276184082031e+01 -9.728940494824200869e-05 -1.257740950677543879e-05 -3.296004433650523424e-05 1.036243793350877240e-05
2.594000000000000000e+03 5.289501190185546875e+00 1.612032699584960938e+01 1.098491484299302101e-04 -3.702438334585167468e-06 3.184401430189609528e-05 1.865700869529973716e-05
2.595000000000000000e+03 1.079794692993164062e+01 -2.260106086730957031e+01 -2.549285418353974819e-04 -1.636995119042694569e-03 -5.675770808011293411e-04 5.583086749538779259e-05
2.596000000000000000e+03 1.136909580230712891e+01 -2.350284767150878906e+01 -9.790842159418389201e-05 2.304461551830172539e-03 6.619659834541380405e-04 3.755989891942590475e-04
2.597000000000000000e+03 6.273124217987060547e+00 1.890016174316406250e+01 9.892749221762642264e-05 3.017857306986115873e-05 3.873182140523567796e-05 6.142864731373265386e-05
2.598000000000000000e+03 6.238133430480957031e+00 1.574390029907226562e+01 -8.486341357638593763e-06 -1.145559735959977843e-06 -2.889570396291674115e-06 8.225988494814373553e-06
2.599000000000000000e+03 7.105936050415039062e+00 1.494349861145019531e+01 -7.339013336604693905e-06 5.260808393359184265e-06 -6.234614602362853475e-07 -3.434236350585706532e-05
2.600000000000000000e+03 2.539351272583007812e+01 2.928254318237304688e+01 -7.255921512842178345e-02 -8.906123787164688110e-02 -4.848613590002059937e-02 -1.181546896696090698e-01
2.601000000000000000e+03 7.223853588104248047e+00 1.881107139587402344e+01 -4.481877476791851223e-05 -4.662520950660109520e-05 -2.743319419096224010e-05 3.343791831866838038e-05
2.602000000000000000e+03 5.759867668151855469e+00 -1.971529960632324219e+01 -9.465647744946181774e-04 2.418207877781242132e-04 -2.114231901941820979e-04 -7.876252639107406139e-04
2.603000000000000000e+03 8.222973823547363281e+00 -2.047702217102050781e+01 -1.520780497230589390e-04 3.901302989106625319e-05 -3.391950667719356716e-05 2.692405541893094778e-04
2.604000000000000000e+03 2.546800804138183594e+01 2.312607192993164062e+01 -5.962132662534713745e-02 -3.096271157264709473e-01 -1.107745319604873657e-01 -2.792446911334991455e-01
2.605000000000000000e+03 2.668946266174316406e+01 2.188177871704101562e+01 -7.548137009143829346e-02 -3.445820212364196777e-01 -1.260190159082412720e-01 -3.610780239105224609e-01
2.606000000000000000e+03 2.766886901855468750e+01 -1.459830760955810547e+01 3.043282590806484222e-02 -1.343083620071411133e+00 -3.937952220439910889e-01 -1.751898378133773804e-01
2.607000000000000000e+03 2.709823417663574219e+01 -1.024116706848144531e+01 2.717097662389278412e-02 -1.403234124183654785e+00 -4.128189384937286377e-01 -2.235778272151947021e-01
2.608000000000000000e+03 7.370721435546875000e+01 2.285863304138183594e+01 -1.127711653709411621e+00 9.725648880004882812e+00 2.579380989074707031e+00 -1.599561572074890137e-01
2.609000000000000000e+03 7.532997894287109375e+01 2.328556823730468750e+01 -7.715580463409423828e-01 9.599671363830566406e+00 2.648433923721313477e+00 -7.797965407371520996e-01
2.610000000000000000e+03 5.459928035736083984e+00 1.500254058837890625e+01 -8.761465869611129165e-05 3.947570803575217724e-06 -2.510012564016506076e-05 -3.245063635404221714e-05
2.611000000000000000e+03 6.335413455963134766e+00 -1.440519332885742188e+01 4.389098612591624260e-04 -2.475951987435109913e-05 1.242451107827946544e-04 3.827743930742144585e-04
2.612000000000000000e+03 7.428528594970703125e+01 2.094944572448730469e+01 -8.167260885238647461e-01 9.092005729675292969e+00 2.482583761215209961e+00 -4.107750579714775085e-02
2.613000000000000000e+03 1.030605411529541016e+01 -2.842835998535156250e+01 2.069937763735651970e-03 -1.529987348476424813e-04 5.750817363150417805e-04 6.483061588369309902e-04
2.614000000000000000e+03 8.501268386840820312e+00 8.565923690795898438e+00 -3.191192081430926919e-05 2.612805474200285971e-07 -9.495191989117302001e-06 -2.689658867893740535e-05
2.615000000000000000e+03 6.402275562286376953e+00 8.512108802795410156e+00 -3.100100730080157518e-05 -7.300806828425265849e-06 -1.149054423876805231e-05 4.797629298991523683e-05
2.616000000000000000e+03 9.989911079406738281e+00 1.272997188568115234e+01 -4.270698627806268632e-05 -2.768840022326912731e-05 -2.111861613229848444e-05 2.316742939001414925e-05
2.617000000000000000e+03 5.395105838775634766e+00 1.175738906860351562e+01 -8.907734445529058576e-05 -8.430360139755066484e-06 -2.925231274275574833e-05 3.721160101122222841e-05
2.618000000000000000e+03 5.256035327911376953e+00 -1.314068317413330078e+01 4.732910019811242819e-04 -1.332317333435639739e-04 1.020177733153104782e-04 2.938805555459111929e-04
2.619000000000000000e+03 6.379173755645751953e+00 -1.313319206237792969e+01 -4.820040194317698479e-04 2.301476197317242622e-04 -7.555691991001367569e-05 -3.038104914594441652e-04
2.620000000000000000e+03 7.462307929992675781e+00 9.926856994628906250e+00 -1.068976325768744573e-05 3.286158971604891121e-05 6.651547664660029113e-06 -7.261196969921002164e-06
2.621000000000000000e+03 5.990296363830566406e+00 -7.653777599334716797e+00 -3.599388583097606897e-04 7.713210652582347393e-05 -8.484202407998964190e-05 -1.889384730020537972e-04
2.622000000000000000e+03 6.135764598846435547e+00 -6.608110427856445312e+00 2.036095975199714303e-04 -3.726028662640601397e-04 -5.069798135082237422e-05 -1.096113555831834674e-04
2.623000000000000000e+03 2.730448722839355469e+01 -1.786910820007324219e+01 4.461147263646125793e-02 -1.427093267440795898e+00 -4.147445559501647949e-01 -1.427999436855316162e-01
2.624000000000000000e+03 2.721946525573730469e+01 6.529568195343017578e+00 1.520684221759438515e-03 -1.014745116233825684e+00 -3.039673268795013428e-01 -4.353860020637512207e-01
2.625000000000000000e+03 2.723627662658691406e+01 9.012120366096496582e-01 2.605480514466762543e-02 -1.194138526916503906e+00 -3.504251241683959961e-01 -3.522146344184875488e-01
2.626000000000000000e+03 2.851047897338867188e+01 3.888082027435302734e+00 2.836318127810955048e-02 -9.639133214950561523e-01 -2.806650400161743164e-01 -4.351115822792053223e-01
2.627000000000000000e+03 9.591950416564941406e+00 1.609044647216796875e+01 -4.280989378457888961e-05 6.873583060951204970e-06 -1.078089280781568959e-05 4.657072713598608971e-05
2.628000000000000000e+03 2.710729598999023438e+01 1.360487556457519531e+01 -9.225624613463878632e-03 -7.253189086914062500e-01 -2.203633487224578857e-01 -4.696351587772369385e-01
2.629000000000000000e+03 1.119930553436279297e+01 -1.260804367065429688e+01 -1.767585781635716558e-04 2.263305068481713533e-04 1.487157715018838644e-05 -1.353257539449259639e-04
2.630000000000000000e+03 2.539370918273925781e+01 -2.067509078979492188e+01 5.323066562414169312e-02 -1.724564313888549805e+00 -5.014000535011291504e-01 -1.223543807864189148e-01
2.631000000000000000e+03 2.412351226806640625e+01 -2.359174919128417969e+01 2.808979339897632599e-02 -1.925851225852966309e+00 -5.693284273147583008e-01 -1.192728951573371887e-01
2.632000000000000000e+03 2.722954750061035156e+01 3.709381341934204102e+00 8.444176055490970612e-03 -1.110230922698974609e+00 -3.305360078811645508e-01 -3.939992785453796387e-01
2.633000000000000000e+03 9.275169372558593750e+00 2.428485298156738281e+01 1.383059570798650384e-04 1.974724546016659588e-05 4.741596421808935702e-05 -1.541013443784322590e-05
2.634000000000000000e+03 2.337314033508300781e+01 -3.084045600891113281e+01 -5.608292669057846069e-02 -2.072873592376708984e+00 -6.386869549751281738e-01 -1.463589221239089966e-01
2.635000000000000000e+03 2.444983100891113281e+01 -2.838738822937011719e+01 -1.635948196053504944e-02 -1.864635825157165527e+00 -5.642986297607421875e-01 -1.202739849686622620e-01
2.636000000000000000e+03 4.793751144409179688e+01 4.123625183105468750e+01 1.570866256952285767e-01 -2.113456875085830688e-01 -1.627771742641925812e-02 3.409121185541152954e-02
2.637000000000000000e+03 4.493706512451171875e+01 4.028810119628906250e+01 5.715624243021011353e-02 -1.249993219971656799e-01 -2.035292237997055054e-02 4.428549855947494507e-02
2.638000000000000000e+03 2.632679176330566406e+01 -2.840105247497558594e+01 -1.230475772172212601e-02 -1.557724595069885254e+00 -4.710088074207305908e-01 -1.030992493033409119e-01
2.639000000000000000e+03 1.055930233001708984e+01 3.420675659179687500e+01 -2.337177429581061006e-04 -1.181965444629895501e-06 -7.046991231618449092e-05 8.189534128177911043e-05
2.640000000000000000e+03 1.156213092803955078e+01 -6.967425823211669922e+00 4.523623501881957054e-04 3.340581024531275034e-04 2.359261416131630540e-04 -1.010152336675673723e-04
2.641000000000000000e+03 8.648695945739746094e+00 -5.849190235137939453e+00 3.068356309086084366e-04 -1.484961248934268951e-04 4.750184962176717818e-05 1.594298519194126129e-04
2.642000000000000000e+03 9.885628700256347656e+00 2.823220634460449219e+01 -2.303958608536049724e-04 2.484193373675225303e-06 -6.837349792476743460e-05 -4.166227517998777330e-05
2.643000000000000000e+03 2.606769371032714844e+01 -2.650029182434082031e+01 1.130318176001310349e-02 -1.615543603897094727e+00 -4.812721312046051025e-01 -1.107895448803901672e-01
2.644000000000000000e+03 7.253488159179687500e+01 -2.193720245361328125e+01 3.025106340646743774e-02 6.037220478057861328e+00 1.820241451263427734e+00 1.080612689256668091e-01
2.645000000000000000e+03 7.304019165039062500e+01 -1.514316082000732422e+01 4.633912816643714905e-02 6.211410522460937500e+00 1.877324938774108887e+00 1.515774130821228027e-01
2.646000000000000000e+03 8.405204772949218750e+00 -3.456807708740234375e+01 1.713025011122226715e-02 -1.543884724378585815e-02 5.074207438156008720e-04 3.471226198598742485e-03
2.647000000000000000e+03 9.382687568664550781e+00 -3.564477157592773438e+01 2.389546483755111694e-02 -1.919943653047084808e-02 1.408808166161179543e-03 7.742625195533037186e-03
2.648000000000000000e+03 7.259278106689453125e+01 -8.421390533447265625e+00 7.111016660928726196e-02 6.263876438140869141e+00 1.900496006011962891e+00 2.528205811977386475e-01
2.649000000000000000e+03 1.144253826141357422e+01 3.678611373901367188e+01 4.005286027677357197e-04 -7.030198958091204986e-06 1.180495164589956403e-04 6.315801874734461308e-05
2.650000000000000000e+03 1.003916835784912109e+01 3.267528152465820312e+01 3.399810520932078362e-04 -4.345871275290846825e-05 8.895670180208981037e-05 -2.595734804344829172e-05
2.651000000000000000e+03 8.681594848632812500e+00 3.895966720581054688e+01 1.150221214629709721e-04 1.716920669423416257e-04 8.601425361121073365e-05 1.858824398368597031e-04
2.652000000000000000e+03 1.023554515838623047e+01 -1.227237319946289062e+01 4.031682037748396397e-04 -6.065719062462449074e-04 -6.102110637584701180e-05 3.249687870265915990e-05
2.653000000000000000e+03 5.681879806518554688e+01 3.852951812744140625e+01 5.190168619155883789e-01 -1.011385098099708557e-01 1.253634989261627197e-01 2.901608645915985107e-01
2.654000000000000000e+03 6.682384490966796875e+01 2.823569297790527344e+01 -9.476049244403839111e-02 2.023856163024902344e+00 5.787287354469299316e-01 2.636279821395874023e+00
2.655000000000000000e+03 7.426071929931640625e+01 2.628581047058105469e+01 -5.452458262443542480e-01 1.097872734069824219e+01 3.130044460296630859e+00 -1.340413331985473633e+00
2.656000000000000000e+03 7.130684661865234375e+01 2.868150901794433594e+01 1.195633560419082642e-01 1.661117744445800781e+01 5.019222259521484375e+00 -5.899469256401062012e-01
2.657000000000000000e+03 7.474021148681640625e+01 2.545059776306152344e+01 -7.037531733512878418e-01 1.041784477233886719e+01 2.914227485656738281e+00 -1.222314476966857910e+00
2.658000000000000000e+03 7.477940368652343750e+01 2.896722412109375000e+01 1.756457448005676270e+00 1.038697528839111328e+01 3.643029928207397461e+00 -1.418132901191711426e+00
2.659000000000000000e+03 7.245948028564453125e+01 2.919618034362792969e+01 2.666572570800781250e+00 1.410241794586181641e+01 5.030697345733642578e+00 -2.003084421157836914e+00
2.660000000000000000e+03 7.332219696044921875e+01 3.523242950439453125e+01 -6.291365027427673340e-01 1.203701686859130859e+01 3.422363996505737305e+00 1.306550741195678711e+00
2.661000000000000000e+03 7.164743041992187500e+01 3.322009277343750000e+01 5.150285959243774414e-01 1.590797328948974609e+01 4.926900386810302734e+00 1.209795594215393066e+00
2.662000000000000000e+03 7.302958679199218750e+01 2.944653129577636719e+01 3.157124280929565430e+00 1.272658061981201172e+01 4.765111446380615234e+00 -1.781655430793762207e+00
2.663000000000000000e+03 7.284866333007812500e+01 3.672275161743164062e+01 -1.262868046760559082e+00 1.129323959350585938e+01 3.009111404418945312e+00 5.453488826751708984e-01
2.664000000000000000e+03 7.087516021728515625e+01 2.797083663940429688e+01 -1.281597495079040527e+00 1.501090240478515625e+01 4.118791580200195312e+00 1.355727314949035645e+00
2.665000000000000000e+03 7.556504821777343750e+01 3.191106224060058594e+01 1.857878088951110840e+00 9.447601318359375000e+00 3.391643762588500977e+00 8.569354414939880371e-01
2.666000000000000000e+03 7.254929351806640625e+01 3.055123138427734375e+01 5.762459754943847656e+00 1.324122333526611328e+01 5.701105117797851562e+00 -6.042353510856628418e-01
2.667000000000000000e+03 7.139365386962890625e+01 3.346056747436523438e+01 -1.383662968873977661e-01 1.558087635040283203e+01 4.632752895355224609e+00 4.926247000694274902e-01
2.668000000000000000e+03 7.091117858886718750e+01 3.394536590576171875e+01 -9.726518392562866211e-01 1.496057510375976562e+01 4.196376800537109375e+00 -7.977502346038818359e-01
2.669000000000000000e+03 7.044383239746093750e+01 3.396875381469726562e+01 -9.775308966636657715e-01 1.398976325988769531e+01 3.903669595718383789e+00 -1.868519186973571777e+00
2.670000000000000000e+03 7.243435668945312500e+01 3.081379318237304688e+01 6.360633850097656250e+00 1.346179008483886719e+01 5.946727275848388672e+00 -7.055592536926269531e-02
2.671000000000000000e+03 7.548938751220703125e+01 3.274297714233398438e+01 1.397209405899047852e+00 9.696607589721679688e+00 3.328145265579223633e+00 1.340511441230773926e+00
2.672000000000000000e+03 7.307714843750000000e+01 3.113836097717285156e+01 5.059057235717773438e+00 1.234771919250488281e+01 5.222033023834228516e+00 6.013705730438232422e-01
2.673000000000000000e+03 7.477780151367187500e+01 3.136650085449218750e+01 2.670149564743041992e+00 1.011603927612304688e+01 3.835856676101684570e+00 4.969403445720672607e-01
2.674000000000000000e+03 6.945821380615234375e+01 3.353493118286132812e+01 -1.371614518575370312e-03 1.147901344299316406e+01 3.443292617797851562e+00 -4.294651985168457031e+00
2.675000000000000000e+03 6.872891998291015625e+01 2.839376068115234375e+01 3.876618444919586182e-01 7.766199588775634766e+00 2.446158409118652344e+00 5.332399368286132812e+00
2.676000000000000000e+03 6.967313385009765625e+01 2.806809043884277344e+01 -1.040632247924804688e+00 1.252164649963378906e+01 3.444304227828979492e+00 4.285743236541748047e+00
2.677000000000000000e+03 6.756604003906250000e+01 3.372096252441406250e+01 1.179303765296936035e+00 3.877079010009765625e+00 1.516914844512939453e+00 -3.268864393234252930e+00
2.678000000000000000e+03 6.456271362304687500e+01 2.666214179992675781e+01 -5.296050906181335449e-01 1.291180968284606934e+00 2.284727692604064941e-01 1.518815279006958008e+00
2.679000000000000000e+03 6.511379241943359375e+01 2.661695671081542969e+01 -3.588334918022155762e-01 1.692209720611572266e+00 4.000128805637359619e-01 1.859881758689880371e+00
2.680000000000000000e+03 6.567694854736328125e+01 3.670287322998046875e+01 6.382379531860351562e-01 2.964888095855712891e+00 1.080937743186950684e+00 -1.466607093811035156e+00
2.681000000000000000e+03 6.396106338500976562e+01 2.608434677124023438e+01 -4.910097420215606689e-01 1.259342789649963379e+00 2.304999232292175293e-01 1.376453042030334473e+00
2.682000000000000000e+03 6.640850067138671875e+01 3.518888092041015625e+01 7.633376121520996094e-01 3.142670154571533203e+00 1.171802282333374023e+00 -1.936149954795837402e+00
2.683000000000000000e+03 5.832154846191406250e+01 2.665111160278320312e+01 -1.707034587860107422e+00 1.163634732365608215e-01 -4.772013425827026367e-01 -8.938460797071456909e-02
2.684000000000000000e+03 5.910482406616210938e+01 2.597453498840332031e+01 -1.322088956832885742e+00 2.382819652557373047e-01 -3.251420855522155762e-01 5.488219484686851501e-02
2.685000000000000000e+03 8.051177978515625000e+00 7.348198413848876953e+00 5.100083581055514514e-05 2.191970634157769382e-05 2.187616337323561311e-05 7.840039870643522590e-06
2.686000000000000000e+03 6.177710056304931641e+00 7.682794094085693359e+00 3.314121931907720864e-05 1.774313750502187759e-05 1.526530650153290480e-05 -1.202635939989704639e-05
2.687000000000000000e+03 7.490795898437500000e+01 2.692399978637695312e+01 1.200443971902132034e-02 1.048917961120605469e+01 3.150355100631713867e+00 -1.607227206230163574e+00
2.688000000000000000e+03 7.560031890869140625e+01 2.874845504760742188e+01 1.167059421539306641e+00 9.613253593444824219e+00 3.234093904495239258e+00 -1.377080440521240234e+00
2.689000000000000000e+03 7.456000518798828125e+01 2.815939903259277344e+01 9.152973294258117676e-01 1.081715965270996094e+01 3.519737005233764648e+00 -1.709289431571960449e+00
2.690000000000000000e+03 4.884760665893554688e+01 2.673836135864257812e+01 -1.394889593124389648e+00 7.111398130655288696e-02 -3.971326649188995361e-01 -4.707393646240234375e-01
2.691000000000000000e+03 4.575534820556640625e+01 2.727139091491699219e+01 -1.230930566787719727e+00 8.105909824371337891e-02 -3.449614346027374268e-01 -4.608703553676605225e-01
2.692000000000000000e+03 7.584532928466796875e+01 2.988195419311523438e+01 1.646296739578247070e+00 9.186721801757812500e+00 3.249905586242675781e+00 -7.285673022270202637e-01
2.693000000000000000e+03 7.681174278259277344e+00 6.076314449310302734e+00 -7.723242561041843146e-06 -7.804442248016130179e-06 -4.658305442717391998e-06 1.799047595341107808e-06
2.694000000000000000e+03 6.993458747863769531e+00 6.497357368469238281e+00 1.985767812584526837e-05 1.906037869048304856e-05 1.167541631730273366e-05 -1.220441754412604496e-05
2.695000000000000000e+03 2.621441078186035156e+01 2.588237953186035156e+01 -9.699334949254989624e-02 -1.861719489097595215e-01 -8.494959026575088501e-02 -2.432381063699722290e-01
2.696000000000000000e+03 3.125558471679687500e+01 2.921929550170898438e+01 -2.910847663879394531e-01 -2.537918835878372192e-02 -9.493918716907501221e-02 -2.533072829246520996e-01
2.697000000000000000e+03 7.443746948242187500e+01 3.413571548461914062e+01 5.757996439933776855e-01 1.113498973846435547e+01 3.513236761093139648e+00 1.886999964714050293e+00
2.698000000000000000e+03 7.334864044189453125e+01 3.159536933898925781e+01 4.081456184387207031e+00 1.190566158294677734e+01 4.796135425567626953e+00 1.109221339225769043e+00
2.699000000000000000e+03 2.799453353881835938e+01 2.964611625671386719e+01 -1.556202471256256104e-01 -6.162468716502189636e-02 -6.517347693443298340e-02 -1.716920882463455200e-01
2.700000000000000000e+03 3.196167755126953125e+01 2.913596725463867188e+01 -3.259966671466827393e-01 -1.546879764646291733e-02 -1.024396345019340515e-01 -2.699031531810760498e-01
2.701000000000000000e+03 5.127202987670898438e+01 2.710165405273437500e+01 -1.670568346977233887e+00 5.337471142411231995e-02 -4.851580858230590820e-01 -3.984820246696472168e-01
2.702000000000000000e+03 5.282138442993164062e+01 2.694323730468750000e+01 -1.734466791152954102e+00 5.036337301135063171e-02 -5.052310228347778320e-01 -3.736316859722137451e-01
2.703000000000000000e+03 3.126025581359863281e+01 2.844356346130371094e+01 -2.915859818458557129e-01 -3.991674259305000305e-02 -9.945081919431686401e-02 -2.904732823371887207e-01
2.704000000000000000e+03 2.785896682739257812e+01 2.906562805175781250e+01 -1.514138877391815186e-01 -7.835923880338668823e-02 -6.893193721771240234e-02 -1.905549168586730957e-01
2.705000000000000000e+03 1.042804050445556641e+01 6.869182109832763672e+00 4.775022534886375070e-05 1.854652145993895829e-05 1.988902295124717057e-05 1.861954660853371024e-05
2.706000000000000000e+03 3.336729049682617188e+01 2.893178749084472656e+01 -3.992781341075897217e-01 3.072792664170265198e-03 -1.188616007566452026e-01 -3.019490242004394531e-01
2.707000000000000000e+03 3.911112213134765625e+01 2.776046180725097656e+01 -7.379439473152160645e-01 6.272830814123153687e-02 -2.025646865367889404e-01 -4.289290606975555420e-01
2.708000000000000000e+03 3.698267364501953125e+01 2.896564102172851562e+01 -6.235996484756469727e-01 4.959493130445480347e-02 -1.722014248371124268e-01 -3.343245089054107666e-01
2.709000000000000000e+03 3.684759140014648438e+01 2.746541404724121094e+01 -5.788077712059020996e-01 3.480570018291473389e-02 -1.632006317377090454e-01 -4.307902455329895020e-01
2.710000000000000000e+03 7.100408554077148438e+00 -5.829056739807128906e+00 1.947267737705260515e-04 -3.818476398009806871e-05 4.696259929914958775e-05 1.375711963191861287e-05
2.711000000000000000e+03 3.625289535522460938e+01 2.911591529846191406e+01 -5.748519897460937500e-01 4.263139143586158752e-02 -1.596661806106567383e-01 -3.199107348918914795e-01
2.712000000000000000e+03 3.620038604736328125e+01 2.838567543029785156e+01 -5.606901645660400391e-01 3.602596744894981384e-02 -1.573992520570755005e-01 -3.668539524078369141e-01
2.713000000000000000e+03 8.443176269531250000e+00 -9.246445655822753906e+00 -1.308529899688437581e-04 -5.736002349294722080e-04 -2.113359660143032670e-04 3.166269743815064430e-05
2.714000000000000000e+03 4.407787704467773438e+01 2.615541648864746094e+01 -9.672122597694396973e-01 8.777993172407150269e-02 -2.638297080993652344e-01 -5.531616806983947754e-01
2.715000000000000000e+03 3.477150344848632812e+01 2.867932701110839844e+01 -4.772032499313354492e-01 2.014321833848953247e-02 -1.371180117130279541e-01 -3.336779177188873291e-01
2.716000000000000000e+03 3.406765365600585938e+01 2.881245040893554688e+01 -4.379716515541076660e-01 1.217243447899818420e-02 -1.277397572994232178e-01 -3.175969123840332031e-01
2.717000000000000000e+03 4.196880722045898438e+01 2.734351730346679688e+01 -9.275074601173400879e-01 8.071296662092208862e-02 -2.540383338928222656e-01 -4.698779881000518799e-01
2.718000000000000000e+03 3.613307571411132812e+01 2.763771629333496094e+01 -5.399563908576965332e-01 2.675276622176170349e-02 -1.539610922336578369e-01 -4.118867814540863037e-01
2.719000000000000000e+03 1.089170169830322266e+01 -7.771317481994628906e+00 -2.121228608302772045e-04 -1.075598847819492221e-04 -9.590481931809335947e-05 2.759548078756779432e-04
2.720000000000000000e+03 5.120355224609375000e+01 2.631097602844238281e+01 -1.459860801696777344e+00 7.323643565177917480e-02 -4.159873127937316895e-01 -4.534168541431427002e-01
2.721000000000000000e+03 5.204000473022460938e+01 2.701067352294921875e+01 -1.702152490615844727e+00 5.125331878662109375e-02 -4.952697753906250000e-01 -3.893393874168395996e-01
2.722000000000000000e+03 4.963375473022460938e+01 2.659963989257812500e+01 -1.420867443084716797e+00 7.052253931760787964e-02 -4.051034450531005859e-01 -4.698252677917480469e-01
2.723000000000000000e+03 4.736674499511718750e+01 2.771149826049804688e+01 -1.443795919418334961e+00 6.866238266229629517e-02 -4.125400483608245850e-01 -4.051901400089263916e-01
2.724000000000000000e+03 5.986798858642578125e+01 2.598646354675292969e+01 -1.243703007698059082e+00 2.955030798912048340e-01 -2.844599783420562744e-01 1.728002876043319702e-01
2.725000000000000000e+03 4.268744277954101562e+01 2.718821334838867188e+01 -9.702878594398498535e-01 8.347400277853012085e-02 -2.660441696643829346e-01 -4.811278879642486572e-01
2.726000000000000000e+03 6.454159545898437500e+01 2.605079650878906250e+01 -3.547335863113403320e-01 1.612124323844909668e+00 3.772172331809997559e-01 1.672509789466857910e+00
2.727000000000000000e+03 6.335336303710937500e+01 2.609588241577148438e+01 -6.459370851516723633e-01 9.904733896255493164e-01 1.033608913421630859e-01 1.105452656745910645e+00
2.728000000000000000e+03 5.518154144287109375e+01 2.609307289123535156e+01 -1.524443984031677246e+00 8.942852169275283813e-02 -4.305046200752258301e-01 -3.096618950366973877e-01
2.729000000000000000e+03 5.754307556152343750e+01 2.598778343200683594e+01 -1.438043355941772461e+00 1.520269662141799927e-01 -3.858049213886260986e-01 -1.297864168882369995e-01
2.730000000000000000e+03 4.729088592529296875e+01 2.700096130371093750e+01 -1.320396542549133301e+00 7.633317261934280396e-02 -3.732190132141113281e-01 -4.691304564476013184e-01
2.731000000000000000e+03 5.675892639160156250e+01 2.601417350769042969e+01 -1.478297114372253418e+00 1.243833228945732117e-01 -4.061741232872009277e-01 -1.999655365943908691e-01
2.732000000000000000e+03 5.361341094970703125e+01 2.688886451721191406e+01 -1.759585142135620117e+00 4.970294237136840820e-02 -5.129646658897399902e-01 -3.520235717296600342e-01
2.733000000000000000e+03 5.358810424804687500e+01 2.616425704956054688e+01 -1.516646265983581543e+00 7.355970144271850586e-02 -4.329259693622589111e-01 -3.843623995780944824e-01
2.734000000000000000e+03 1.150125694274902344e+01 5.746322631835937500e+00 5.074835280538536608e-05 7.695539352425839752e-06 1.753316792019177228e-05 9.832114301389083266e-06
2.735000000000000000e+03 1.141642475128173828e+01 7.970390319824218750e+00 5.441267785499803722e-05 1.303192857449175790e-05 2.023338129220064729e-05 1.586086182214785367e-05
2.736000000000000000e+03 6.199414825439453125e+01 2.474128150939941406e+01 -4.506726264953613281e-01 1.004532337188720703e+00 1.661579161882400513e-01 8.789384365081787109e-01
2.737000000000000000e+03 4.643994522094726562e+01 2.642077445983886719e+01 -1.163543224334716797e+00 8.535149693489074707e-02 -3.234575092792510986e-01 -5.220244526863098145e-01
2.738000000000000000e+03 4.567300033569335938e+01 2.656072998046875000e+01 -1.127817034721374512e+00 8.711990714073181152e-02 -3.122091293334960938e-01 -5.180822014808654785e-01
2.739000000000000000e+03 6.202922058105468750e+01 2.540818023681640625e+01 -6.541628837585449219e-01 8.010716438293457031e-01 4.407263174653053284e-02 7.795962691307067871e-01
2.740000000000000000e+03 5.832565689086914062e+01 2.597464179992675781e+01 -1.385181427001953125e+00 1.869677901268005371e-01 -3.594640791416168213e-01 -4.463357105851173401e-02
2.741000000000000000e+03 1.115302562713623047e+01 -6.080178260803222656e+00 -4.304661997593939304e-04 -3.375107480678707361e-04 -2.303930814377963543e-04 2.430380482110194862e-05
2.742000000000000000e+03 8.865840911865234375e+00 1.131795024871826172e+01 -5.137019616086035967e-05 -1.391358546243282035e-05 -1.958513530553318560e-05 -1.480610808357596397e-05
2.743000000000000000e+03 7.204740524291992188e+00 1.318470478057861328e+01 -7.249677764775697142e-06 -3.496753834042465314e-06 -3.223929525120183825e-06 -3.504462438286282122e-05
2.744000000000000000e+03 9.793987274169921875e+00 1.434566783905029297e+01 1.407589115842711180e-05 -1.910304308694321662e-05 -1.508145373918523546e-06 5.662662442773580551e-05
2.745000000000000000e+03 7.615550041198730469e+00 1.744847297668457031e+01 -2.838700129359494895e-05 6.044726887921569869e-06 -6.702682185277808458e-06 4.066515248268842697e-05
2.746000000000000000e+03 7.363756656646728516e+00 -1.543006038665771484e+01 9.263699757866561413e-05 6.040752050466835499e-04 2.090136695187538862e-04 7.949896971695125103e-04
2.747000000000000000e+03 5.193828582763671875e+01 2.536602592468261719e+01 -1.234131813049316406e+00 1.021979525685310364e-01 -3.395801484584808350e-01 -4.708026647567749023e-01
2.748000000000000000e+03 1.033306026458740234e+01 9.194933891296386719e+00 6.185058009577915072e-05 1.019020874082343653e-05 2.161223710572812706e-05 1.704900932963937521e-05
2.749000000000000000e+03 5.278512954711914062e+01 2.618769645690917969e+01 -1.494119882583618164e+00 7.521753758192062378e-02 -4.256707131862640381e-01 -4.115089774131774902e-01
2.750000000000000000e+03 7.410168457031250000e+01 2.573243141174316406e+01 -7.954701781272888184e-01 1.089409637451171875e+01 3.029587984085083008e+00 -1.113936424255371094e+00
2.751000000000000000e+03 7.307028961181640625e+01 3.373350524902343750e+01 6.968452930450439453e-01 1.289809036254882812e+01 4.078480720520019531e+00 1.850353598594665527e+00
2.752000000000000000e+03 7.012008666992187500e+01 2.745335197448730469e+01 -1.432719230651855469e+00 1.272553730010986328e+01 3.387845516204833984e+00 3.081858396530151367e+00
2.753000000000000000e+03 2.724476051330566406e+01 -4.974451065063476562e-01 3.402095660567283630e-02 -1.225927948951721191e+00 -3.575720787048339844e-01 -3.353047966957092285e-01
2.754000000000000000e+03 2.979424476623535156e+01 4.063273429870605469e+00 5.022414773702621460e-02 -8.268785476684570312e-01 -2.329963147640228271e-01 -4.705870449542999268e-01
2.755000000000000000e+03 6.469339752197265625e+01 3.824051666259765625e+01 6.178644895553588867e-01 2.774716854095458984e+00 1.017774343490600586e+00 -9.193162322044372559e-01
2.756000000000000000e+03 9.955234527587890625e+00 1.157855129241943359e+01 6.704669067403301597e-05 2.446260077704209834e-05 2.745278834481723607e-05 -6.506985300802625716e-06
2.757000000000000000e+03 7.283524322509765625e+01 3.296022415161132812e+01 1.975032329559326172e+00 1.343877410888671875e+01 4.624141693115234375e+00 2.085660457611083984e+00
2.758000000000000000e+03 1.173000431060791016e+01 -7.976106166839599609e+00 -3.383520815987139940e-04 2.582341221568640321e-05 -9.375860099680721760e-05 -6.444990140153095126e-05
2.759000000000000000e+03 1.028917598724365234e+01 -1.130673885345458984e+01 -2.026728907367214561e-04 -3.642580122686922550e-04 -1.700792781775817275e-04 -1.839954711613245308e-05
2.760000000000000000e+03 1.033131217956542969e+01 -1.016303157806396484e+01 4.992349568055942655e-05 2.062665225821547210e-05 2.116504401783458889e-05 1.463940425310283899e-04
2.761000000000000000e+03 9.559124946594238281e+00 1.868916702270507812e+01 5.053719723946414888e-05 3.567376552382484078e-05 2.586328810139093548e-05 -1.962429905688622966e-06
2.762000000000000000e+03 7.907286167144775391e+00 8.878510475158691406e+00 2.978623160743154585e-05 1.593650995346251875e-05 1.371682265016715974e-05 1.692801015451550484e-05
2.763000000000000000e+03 7.249644470214843750e+01 -2.053747749328613281e+01 3.772310167551040649e-02 6.059509277343750000e+00 1.829169750213623047e+00 1.088272184133529663e-01
2.764000000000000000e+03 7.046990203857421875e+01 -2.633713722229003906e+01 3.756187856197357178e-02 5.651432037353515625e+00 1.706698298454284668e+00 9.019204974174499512e-02
2.765000000000000000e+03 8.851689338684082031e+00 -8.439877510070800781e+00 8.182862802641466260e-05 -9.753705671755596995e-05 -4.712529062089743093e-06 -3.086293872911483049e-04
2.766000000000000000e+03 7.296297454833984375e+01 -1.083945155143737793e+00 9.098572283983230591e-02 6.545694351196289062e+00 1.991003990173339844e+00 3.936505615711212158e-01
2.767000000000000000e+03 7.029413604736328125e+01 -3.120766401290893555e+00 1.372581869363784790e-01 5.849296569824218750e+00 1.795966386795043945e+00 4.164587855339050293e-01
2.768000000000000000e+03 8.252785682678222656e+00 2.598783493041992188e+01 1.499769568908959627e-04 2.492874955350998789e-05 5.247171066002920270e-05 1.216543751070275903e-05
2.769000000000000000e+03 7.335679626464843750e+01 2.789824724197387695e+00 8.936380594968795776e-02 6.792013645172119141e+00 2.064413309097290039e+00 4.662366807460784912e-01
2.770000000000000000e+03 7.305789184570312500e+01 1.854222118854522705e-01 9.261275827884674072e-02 6.617304325103759766e+00 2.012975215911865234e+00 4.142254590988159180e-01
2.771000000000000000e+03 3.080728721618652344e+01 -1.821196174621582031e+01 6.840196251869201660e-02 -8.894636034965515137e-01 -2.463184893131256104e-01 -1.413015425205230713e-01
2.772000000000000000e+03 7.306524658203125000e+01 2.008085060119628906e+01 -8.302480578422546387e-01 8.592082977294921875e+00 2.328550577163696289e+00 4.390314221382141113e-01
2.773000000000000000e+03 7.215965270996093750e+01 2.034237480163574219e+01 -9.250814914703369141e-01 8.424768447875976562e+00 2.249906063079833984e+00 7.163391113281250000e-01
2.774000000000000000e+03 6.523656368255615234e+00 -1.176027584075927734e+01 4.112749011255800724e-04 -1.745338959153741598e-04 7.102229574229568243e-05 2.813281316775828600e-04
2.775000000000000000e+03 7.238778686523437500e+01 1.151454925537109375e+01 -2.259444445371627808e-02 7.026788711547851562e+00 2.101258277893066406e+00 7.046336531639099121e-01
2.776000000000000000e+03 7.220367431640625000e+01 8.816059112548828125e+00 6.379436701536178589e-02 6.776045799255371094e+00 2.051951885223388672e+00 6.730329990386962891e-01
2.777000000000000000e+03 9.653903007507324219e+00 -1.948957443237304688e+01 1.440258347429335117e-04 -5.842509563080966473e-04 -1.320675364695489407e-04 4.754717519972473383e-04
2.778000000000000000e+03 8.916810035705566406e+00 -2.182099533081054688e+01 -3.593625442590564489e-04 -3.646044060587882996e-04 -2.171900850953534245e-04 -3.090176614932715893e-04
2.779000000000000000e+03 7.189054870605468750e+01 -1.640836715698242188e+01 5.070490762591362000e-02 5.978364944458007812e+00 1.808720946311950684e+00 1.564174294471740723e-01
2.780000000000000000e+03 7.356592559814453125e+01 5.384278297424316406e+00 7.480228692293167114e-02 6.986574649810791016e+00 2.118413209915161133e+00 5.135423541069030762e-01
2.781000000000000000e+03 7.089982604980468750e+01 2.921683788299560547e+00 1.459002494812011719e-01 6.152826786041259766e+00 1.889618039131164551e+00 5.641281604766845703e-01
2.782000000000000000e+03 7.132865142822265625e+01 -9.958835601806640625e+00 8.790524303913116455e-02 5.955593585968017578e+00 1.813049674034118652e+00 2.492724657058715820e-01
2.783000000000000000e+03 7.099516296386718750e+01 -4.536237716674804688e+00 1.190417706966400146e-01 5.985916137695312500e+00 1.831487417221069336e+00 3.639304339885711670e-01
2.784000000000000000e+03 7.196785736083984375e+01 1.696661949157714844e+01 -4.217462241649627686e-01 7.475505352020263672e+00 2.116127729415893555e+00 7.976143360137939453e-01
2.785000000000000000e+03 7.357693481445312500e+01 1.525583839416503906e+01 -2.359922975301742554e-01 7.805932521820068359e+00 2.270982027053833008e+00 5.652990341186523438e-01
2.786000000000000000e+03 7.108898925781250000e+01 8.438750267028808594e+00 9.473294019699096680e-02 6.388660430908203125e+00 1.945018053054809570e+00 7.160599231719970703e-01
2.787000000000000000e+03 7.353489685058593750e+01 7.928758144378662109e+00 5.209203809499740601e-02 7.132451534271240234e+00 2.155363082885742188e+00 5.641552209854125977e-01
2.788000000000000000e+03 7.244049835205078125e+01 -7.088194370269775391e+00 7.645224779844284058e-02 6.254128932952880859e+00 1.899174332618713379e+00 2.779187560081481934e-01
2.789000000000000000e+03 7.172396087646484375e+01 -6.157627105712890625e+00 1.041522994637489319e-01 6.128789901733398438e+00 1.869882702827453613e+00 3.115772604942321777e-01
2.790000000000000000e+03 6.568895339965820312e+00 2.400516128540039062e+01 -1.190396214951761067e-04 -2.308773946424480528e-05 -4.263820665073581040e-05 -1.502497707406291738e-05
2.791000000000000000e+03 6.289328098297119141e+00 2.295357894897460938e+01 6.768733146600425243e-05 2.602837594167795032e-05 2.811471313179936260e-05 -5.718584816349903122e-06
2.792000000000000000e+03 2.716769409179687500e+01 1.077675628662109375e+01 1.458492013625800610e-03 -8.512941598892211914e-01 -2.549507021903991699e-01 -4.687593877315521240e-01
2.793000000000000000e+03 2.688600349426269531e+01 1.917615890502929688e+01 -5.218901112675666809e-02 -4.658669829368591309e-01 -1.554168015718460083e-01 -4.164880514144897461e-01
2.794000000000000000e+03 3.057021522521972656e+01 2.766951560974121094e+01 -2.573968470096588135e-01 -6.938435137271881104e-02 -9.803435951471328735e-02 -3.096012473106384277e-01
2.795000000000000000e+03 2.957581710815429688e+01 1.098777866363525391e+01 1.441869139671325684e-02 -6.624966859817504883e-01 -1.944234073162078857e-01 -5.605744719505310059e-01
2.796000000000000000e+03 2.937677955627441406e+01 1.799751091003417969e+01 -7.153848558664321899e-02 -4.203718304634094238e-01 -1.475730985403060913e-01 -5.407929420471191406e-01
2.797000000000000000e+03 8.467386245727539062e+00 -1.808636665344238281e+01 2.807753044180572033e-04 -1.999328815145418048e-04 2.425272759865038097e-05 6.822176510468125343e-04
2.798000000000000000e+03 2.807726097106933594e+01 1.929420280456542969e+01 -7.106655091047286987e-02 -4.197500944137573242e-01 -1.472449898719787598e-01 -4.689644575119018555e-01
2.799000000000000000e+03 7.305689239501953125e+01 -1.383959865570068359e+01 4.392556846141815186e-02 6.227923393249511719e+00 1.881554722785949707e+00 1.643254309892654419e-01
2.800000000000000000e+03 6.819101810455322266e+00 -2.859892845153808594e+01 2.280184300616383553e-03 -6.311817560344934464e-04 4.947007400915026665e-04 -6.185284582898020744e-04
2.801000000000000000e+03 6.172149181365966797e+00 1.748128509521484375e+01 -2.165269324905239046e-05 7.093883323250338435e-05 1.478584181313635781e-05 4.213861393509432673e-05
2.802000000000000000e+03 7.148917675018310547e+00 -2.069554901123046875e+01 -8.157043484970927238e-04 -2.630843373481184244e-04 -3.236366028431802988e-04 -1.076812040992081165e-03
2.803000000000000000e+03 8.209177970886230469e+00 -1.451174640655517578e+01 -4.949284484609961510e-04 5.383837269619107246e-04 1.303659155382774770e-05 6.262780516408383846e-04
2.804000000000000000e+03 9.417013168334960938e+00 -1.171444416046142578e+01 -6.185583333717659116e-05 9.457221603952348232e-04 2.651599061209708452e-04 9.409249469172209501e-05
2.805000000000000000e+03 2.829861259460449219e+01 1.370616531372070312e+01 -1.116510108113288879e-02 -6.479051113128662109e-01 -1.977210640907287598e-01 -5.227739810943603516e-01
2.806000000000000000e+03 2.750906181335449219e+01 2.957844924926757812e+01 -1.331817954778671265e-01 -6.984570622444152832e-02 -6.090825051069259644e-02 -1.593262553215026855e-01
2.807000000000000000e+03 2.735735893249511719e+01 -4.681393623352050781e+00 5.324817076325416565e-02 -1.295686125755310059e+00 -3.727313876152038574e-01 -2.954631149768829346e-01
2.808000000000000000e+03 3.007453155517578125e+01 -2.712191343307495117e+00 8.122330158948898315e-02 -9.177382588386535645e-01 -2.509544789791107178e-01 -3.570678234100341797e-01
2.809000000000000000e+03 2.679267883300781250e+01 2.052947235107421875e+01 -6.348228454589843750e-02 -4.052512347698211670e-01 -1.406200528144836426e-01 -3.917237520217895508e-01
2.810000000000000000e+03 7.235699462890625000e+01 1.613421630859375000e+01 -3.495089709758758545e-01 7.495210170745849609e+00 2.143710374832153320e+00 7.400624752044677734e-01
2.811000000000000000e+03 1.009333705902099609e+01 -2.429351043701171875e+01 -1.393127968185581267e-05 -1.500131445936858654e-03 -4.542188253253698349e-04 -6.251702143345028162e-05
2.812000000000000000e+03 9.979289054870605469e+00 -2.207757377624511719e+01 2.022449334617704153e-04 1.019307528622448444e-03 3.664657415356487036e-04 7.386917714029550552e-04
2.813000000000000000e+03 9.716635704040527344e+00 -2.631715774536132812e+01 1.252357615157961845e-03 -1.994584454223513603e-03 -2.226680517196655273e-04 -5.950988270342350006e-04
2.814000000000000000e+03 7.187052154541015625e+01 -1.266130256652832031e+01 6.289833039045333862e-02 6.037283420562744141e+00 1.830054521560668945e+00 2.047681808471679688e-01
2.815000000000000000e+03 9.098281860351562500e+00 -1.560341072082519531e+01 -1.038303526001982391e-04 3.543812199495732784e-04 7.516526238759979606e-05 5.651218234561383724e-04
2.816000000000000000e+03 9.325164794921875000e+00 -6.031027793884277344e+00 5.349385173758491874e-05 2.740131167229264975e-04 9.825208690017461777e-05 -2.910003240685909986e-04
2.817000000000000000e+03 7.914169788360595703e+00 -6.694116115570068359e+00 2.069741021841764450e-04 1.752759417286142707e-04 1.146750146290287375e-04 2.058747340925037861e-04
2.818000000000000000e+03 2.833830833435058594e+01 1.229999923706054688e+01 -5.697803571820259094e-04 -7.028493881225585938e-01 -2.110257446765899658e-01 -5.229260921478271484e-01
2.819000000000000000e+03 2.887295532226562500e+01 2.204476356506347656e+01 -1.269250959157943726e-01 -2.823765277862548828e-01 -1.227904930710792542e-01 -4.472848474979400635e-01
2.820000000000000000e+03 2.739365768432617188e+01 -6.072806835174560547e+00 4.638216271996498108e-02 -1.317501187324523926e+00 -3.813357055187225342e-01 -2.818922102451324463e-01
2.821000000000000000e+03 2.779730033874511719e+01 2.196079826354980469e+01 -9.931547194719314575e-02 -3.167551755905151367e-01 -1.248212009668350220e-01 -4.077872037887573242e-01
2.822000000000000000e+03 7.357335662841796875e+01 2.344208908081054688e+01 -1.201384544372558594e+00 9.973921775817871094e+00 2.631761074066162109e+00 -2.155723273754119873e-01
2.823000000000000000e+03 7.417796325683593750e+01 2.375335121154785156e+01 -1.071639299392700195e+00 1.002536201477050781e+01 2.686116933822631836e+00 -5.236241817474365234e-01
2.824000000000000000e+03 2.846847724914550781e+01 6.681938648223876953e+00 1.885353401303291321e-02 -8.880686759948730469e-01 -2.607645392417907715e-01 -4.783843755722045898e-01
2.825000000000000000e+03 8.563400268554687500e+00 3.097254562377929688e+01 6.900934386067092419e-05 6.930463132448494434e-05 4.149419328314252198e-05 1.566627470310777426e-04
2.826000000000000000e+03 2.930322837829589844e+01 -1.127453327178955078e+01 5.898213386535644531e-02 -1.072792053222656250e+00 -3.041429817676544189e-01 -2.390939295291900635e-01
2.827000000000000000e+03 2.855864334106445312e+01 -8.839435577392578125e+00 6.345737725496292114e-02 -1.171875476837158203e+00 -3.325254321098327637e-01 -2.628235816955566406e-01
2.828000000000000000e+03 7.113877868652343750e+01 -1.878221893310546875e+01 4.622016474604606628e-02 5.810446262359619141e+00 1.756999969482421875e+00 1.333983093500137329e-01
2.829000000000000000e+03 2.722481155395507812e+01 5.115991115570068359e+00 3.376668319106101990e-03 -1.062889933586120605e+00 -3.178539574146270752e-01 -4.148217737674713135e-01
2.830000000000000000e+03 2.848936462402343750e+01 5.281357765197753906e+00 2.286245860159397125e-02 -9.280405044555664062e-01 -2.715534269809722900e-01 -4.580371081829071045e-01
2.831000000000000000e+03 7.999584674835205078e+00 1.069686222076416016e+01 2.574203062977176160e-05 -2.146787210222100839e-06 7.078572707541752607e-06 6.333146302495151758e-06
2.832000000000000000e+03 7.180338382720947266e+00 1.140179824829101562e+01 -2.169115577999036759e-05 1.822051854105666280e-05 -1.041191580952727236e-06 -2.076953569485340267e-05
2.833000000000000000e+03 7.242986297607421875e+01 6.518742084503173828e+00 9.036440402269363403e-02 6.724154949188232422e+00 2.044355869293212891e+00 6.003336906433105469e-01
2.834000000000000000e+03 7.149073028564453125e+01 -2.822208595275878906e+01 2.613624557852745056e-02 5.785029411315917969e+00 1.743349790573120117e+00 6.861762702465057373e-02
2.835000000000000000e+03 2.747480773925781250e+01 -1.304072475433349609e+01 2.704245969653129578e-02 -1.353722691535949707e+00 -3.980040848255157471e-01 -1.920347809791564941e-01
2.836000000000000000e+03 8.802081108093261719e+00 2.974930191040039062e+01 -2.079819096252322197e-04 -2.891843359975609928e-05 -7.107010605977848172e-05 -1.374023413518443704e-04
2.837000000000000000e+03 2.862676811218261719e+01 -1.653945684432983398e+00 5.738307535648345947e-02 -1.079326272010803223e+00 -3.065829575061798096e-01 -3.498759269714355469e-01
2.838000000000000000e+03 7.958444595336914062e+00 -3.152292823791503906e+01 9.354618377983570099e-03 -3.640930866822600365e-03 1.714106416329741478e-03 2.958387136459350586e-03
2.839000000000000000e+03 5.520127105712890625e+01 3.737575149536132812e+01 1.998641937971115112e-01 -2.119270861148834229e-01 -3.618863876909017563e-03 3.764253854751586914e-01
2.840000000000000000e+03 7.188700866699218750e+01 1.554812431335449219e+00 1.259391754865646362e-01 6.359808444976806641e+00 1.945724248886108398e+00 4.977687597274780273e-01
2.841000000000000000e+03 7.159625244140625000e+01 2.631054520606994629e-01 1.288285404443740845e-01 6.240968704223632812e+00 1.910939097404479980e+00 4.690145254135131836e-01
2.842000000000000000e+03 2.986559486389160156e+01 2.936295509338378906e+01 -2.285495996475219727e-01 -4.307915270328521729e-02 -8.148862421512603760e-02 -2.204601615667343140e-01
2.843000000000000000e+03 2.674555015563964844e+01 2.709934616088867188e+01 -1.118048503994941711e-01 -1.443676799535751343e-01 -7.685176283121109009e-02 -2.197885960340499878e-01
2.844000000000000000e+03 2.855059242248535156e+01 1.102244615554809570e+00 4.374701529741287231e-02 -1.030436635017395020e+00 -2.960068881511688232e-01 -3.896364271640777588e-01
2.845000000000000000e+03 7.117835998535156250e+01 -8.518428802490234375e+00 9.388080984354019165e-02 5.941650867462158203e+00 1.810659408569335938e+00 2.838622033596038818e-01
2.846000000000000000e+03 1.151377677917480469e+01 3.228033828735351562e+01 -3.122761845588684082e-04 1.858811992860864848e-05 -8.810641884338110685e-05 -3.052892134292051196e-05
2.847000000000000000e+03 1.314283943176269531e+01 3.340911483764648438e+01 -4.123935068491846323e-04 8.375297329621389508e-05 -9.859216515906155109e-05 2.260364271933212876e-05
2.848000000000000000e+03 5.816861724853515625e+01 4.145376586914062500e+01 8.305122256278991699e-01 7.858341187238693237e-02 2.727287113666534424e-01 3.441222384572029114e-02
2.849000000000000000e+03 2.540589141845703125e+01 -2.201932525634765625e+01 4.480904713273048401e-02 -1.726100087165832520e+00 -5.043873190879821777e-01 -1.205819621682167053e-01
2.850000000000000000e+03 8.633338928222656250e+00 3.335100173950195312e+01 -2.576099068392068148e-04 8.681192412041127682e-05 -5.123939990880899131e-05 1.090231089619919658e-04
2.851000000000000000e+03 7.172259521484375000e+01 -1.513137722015380859e+01 5.717799067497253418e-02 5.974309921264648438e+00 1.809446334838867188e+00 1.722311526536941528e-01
2.852000000000000000e+03 7.271202087402343750e+01 3.792748260498046875e+01 -1.387303948402404785e+00 1.067531681060791016e+01 2.786403894424438477e+00 2.655753791332244873e-01
2.853000000000000000e+03 2.769997215270996094e+01 -2.612529182434082031e+01 1.573011279106140137e-02 -1.356184959411621094e+00 -4.021364450454711914e-01 -1.094279512763023376e-01
2.854000000000000000e+03 6.911545562744140625e+01 -2.078876304626464844e+01 5.906046181917190552e-02 5.457950592041015625e+00 1.655103325843811035e+00 1.343285292387008667e-01
2.855000000000000000e+03 7.124787902832031250e+01 -2.221972465515136719e+01 3.894750028848648071e-02 5.798814296722412109e+00 1.751328587532043457e+00 1.057873815298080444e-01
2.856000000000000000e+03 5.206692504882812500e+01 4.129793548583984375e+01 4.151985645294189453e-01 -3.035324215888977051e-01 3.349984437227249146e-02 8.037206530570983887e-02
2.857000000000000000e+03 7.074962615966796875e+01 -3.004447746276855469e+01 3.058270551264286041e-02 5.657863140106201172e+00 1.706533789634704590e+00 6.641232222318649292e-02
2.858000000000000000e+03 7.184218883514404297e+00 2.766383934020996094e+01 1.445460948161780834e-04 3.832871152553707361e-05 5.486244117491878569e-05 2.294014848303049803e-05
2.859000000000000000e+03 9.042845726013183594e+00 -1.446371650695800781e+01 -8.032673213165253401e-05 -9.839249541983008385e-04 -3.192755102645605803e-04 -3.538532182574272156e-04
2.860000000000000000e+03 6.244099426269531250e+01 4.167132949829101562e+01 8.912003636360168457e-01 1.609142899513244629e+00 7.501029968261718750e-01 -1.860301010310649872e-02
2.861000000000000000e+03 9.041016578674316406e+00 2.023987007141113281e+01 3.010327782249078155e-05 3.364023723406717181e-05 1.912305378937162459e-05 -3.737122824531979859e-05
2.862000000000000000e+03 8.452185630798339844e+00 -1.367093563079833984e+01 1.693172089289873838e-04 6.500920862890779972e-04 2.458227972965687513e-04 -9.627315739635378122e-05
2.863000000000000000e+03 7.277530670166015625e+01 -2.876876449584960938e+01 2.562008425593376160e-02 5.982464313507080078e+00 1.802425265312194824e+00 5.215542018413543701e-02
2.864000000000000000e+03 9.117498397827148438e+00 3.671761322021484375e+01 -2.639036974869668484e-04 -3.307153747300617397e-05 -8.909257303457707167e-05 -1.228066976182162762e-04
2.865000000000000000e+03 8.549283981323242188e+00 1.678216361999511719e+01 3.535729774739593267e-05 -2.554478669480886310e-06 9.840846360020805150e-06 -3.685575575218535960e-05
2.866000000000000000e+03 7.709611892700195312e+00 2.356948852539062500e+01 1.165899302577599883e-04 1.999158303078729659e-05 4.097445344086736441e-05 -1.306127160205505788e-05
2.867000000000000000e+03 8.900776863098144531e+00 -2.994986152648925781e+01 5.739722866564989090e-03 -1.348090125247836113e-03 1.317489892244338989e-03 3.179369377903640270e-04
2.868000000000000000e+03 2.275470733642578125e+01 -3.309169006347656250e+01 -1.712707132101058960e-01 -2.166148424148559570e+00 -7.012257575988769531e-01 -1.510195285081863403e-01
2.869000000000000000e+03 6.970535278320312500e+01 2.755155944824218750e+01 -1.204601764678955078e+00 1.172193336486816406e+01 3.155199289321899414e+00 3.857577562332153320e+00
2.870000000000000000e+03 6.733621978759765625e+01 2.800345993041992188e+01 1.970598697662353516e-01 3.243419885635375977e+00 1.032143950462341309e+00 3.421773672103881836e+00
2.871000000000000000e+03 6.648503112792968750e+01 2.715854644775390625e+01 -6.067362800240516663e-02 2.669586896896362305e+00 7.826739549636840820e-01 2.776569843292236328e+00
2.872000000000000000e+03 6.667449951171875000e+01 2.770102500915527344e+01 -2.375521697103977203e-02 2.444772243499755859e+00 7.263051271438598633e-01 2.762912511825561523e+00
2.873000000000000000e+03 6.562220001220703125e+01 2.713148117065429688e+01 -3.372615277767181396e-01 1.734108328819274902e+00 4.190540313720703125e-01 2.027939796447753906e+00
2.874000000000000000e+03 6.770743560791015625e+01 2.815702819824218750e+01 3.594016730785369873e-01 3.934348344802856445e+00 1.288125038146972656e+00 3.900545597076416016e+00
2.875000000000000000e+03 6.841673278808593750e+01 3.437270355224609375e+01 4.328621625900268555e-01 7.161116600036621094e+00 2.278193712234497070e+00 -3.721774578094482422e+00
2.876000000000000000e+03 7.020379638671875000e+01 2.789393806457519531e+01 -1.437612652778625488e+00 1.374773120880126953e+01 3.693035602569580078e+00 3.073867797851562500e+00
2.877000000000000000e+03 7.316743469238281250e+01 2.989767646789550781e+01 3.897750139236450195e+00 1.227532958984375000e+01 4.851923942565917969e+00 -1.340059876441955566e+00
2.878000000000000000e+03 7.253828430175781250e+01 3.344600677490234375e+01 9.154487848281860352e-01 1.381160163879394531e+01 4.418115139007568359e+00 1.828838348388671875e+00
2.879000000000000000e+03 7.174958801269531250e+01 2.878406333923339844e+01 9.049611687660217285e-01 1.583251667022705078e+01 5.021243572235107422e+00 -1.406392097473144531e+00
2.880000000000000000e+03 7.334922790527343750e+01 3.297475433349609375e+01 1.923444271087646484e+00 1.251111507415771484e+01 4.330368041992187500e+00 2.004918098449707031e+00
2.881000000000000000e+03 7.164096832275390625e+01 3.381590652465820312e+01 -3.917452692985534668e-01 1.488757896423339844e+01 4.348750114440917969e+00 5.744255185127258301e-01
2.882000000000000000e+03 6.795795440673828125e+01 3.479130554199218750e+01 5.350604653358459473e-01 5.885194778442382812e+00 1.926076650619506836e+00 -3.268709897994995117e+00
2.883000000000000000e+03 6.865621185302734375e+01 3.384569931030273438e+01 6.573047637939453125e-01 7.838795661926269531e+00 2.548830032348632812e+00 -4.370035171508789062e+00
2.884000000000000000e+03 7.228588867187500000e+01 3.551915359497070312e+01 -1.192873358726501465e+00 1.237186431884765625e+01 3.353697299957275391e+00 4.537943303585052490e-01
2.885000000000000000e+03 7.139827728271484375e+01 3.409273910522460938e+01 -8.178257346153259277e-01 1.446924781799316406e+01 4.095426559448242188e+00 -2.204735763370990753e-02
2.886000000000000000e+03 6.923342895507812500e+01 3.428177642822265625e+01 -2.054241746664047241e-01 9.756683349609375000e+00 2.865377664566040039e+00 -3.652180194854736328e+00
2.887000000000000000e+03 7.008992767333984375e+01 3.535138320922851562e+01 -1.173568844795227051e+00 1.123060035705566406e+01 3.017109394073486328e+00 -2.111107826232910156e+00
2.888000000000000000e+03 6.883201599121093750e+01 3.452247238159179688e+01 7.299760729074478149e-02 8.248641014099121094e+00 2.496491432189941406e+00 -3.668926715850830078e+00
2.889000000000000000e+03 7.294013977050781250e+01 3.067068672180175781e+01 5.170640468597412109e+00 1.243409919738769531e+01 5.281421661376953125e+00 -2.711664140224456787e-01
2.890000000000000000e+03 7.289024353027343750e+01 3.230197525024414062e+01 3.344125509262084961e+00 1.317457199096679688e+01 4.955609321594238281e+00 1.943079590797424316e+00
2.891000000000000000e+03 7.444994354248046875e+01 3.296714782714843750e+01 1.753343105316162109e+00 1.092619514465332031e+01 3.803861618041992188e+00 1.750715374946594238e+00
2.892000000000000000e+03 7.410195922851562500e+01 3.212678527832031250e+01 2.887700319290161133e+00 1.112425899505615234e+01 4.203587532043457031e+00 1.398872733116149902e+00
2.893000000000000000e+03 7.297775268554687500e+01 3.140032577514648438e+01 5.039081573486328125e+00 1.242812824249267578e+01 5.240162849426269531e+00 8.767076134681701660e-01
2.894000000000000000e+03 7.396578979492187500e+01 3.263319396972656250e+01 2.395126104354858398e+00 1.145271301269531250e+01 4.154351711273193359e+00 1.777787327766418457e+00
2.895000000000000000e+03 6.607670593261718750e+01 2.710151863098144531e+01 -1.746351718902587891e-01 2.196462631225585938e+00 6.065482497215270996e-01 2.415466547012329102e+00
2.896000000000000000e+03 6.605876159667968750e+01 2.753957939147949219e+01 -2.891596257686614990e-01 1.753710627555847168e+00 4.393652975559234619e-01 2.239286422729492188e+00
2.897000000000000000e+03 5.042181777954101562e+01 2.645246315002441406e+01 -1.441479444503784180e+00 7.513177394866943359e-02 -4.099043011665344238e-01 -4.656002521514892578e-01
2.898000000000000000e+03 5.198694992065429688e+01 2.622161102294921875e+01 -1.476042747497558594e+00 7.187923043966293335e-02 -4.212490618228912354e-01 -4.357343316078186035e-01
2.899000000000000000e+03 6.715137481689453125e+01 2.750282287597656250e+01 8.850482106208801270e-02 3.501256942749023438e+00 1.076928496360778809e+00 3.307985544204711914e+00
2.900000000000000000e+03 6.332473754882812500e+01 2.546423721313476562e+01 -4.365760982036590576e-01 1.230635046958923340e+00 2.382176816463470459e-01 1.228586196899414062e+00
2.901000000000000000e+03 6.451008605957031250e+01 2.543338584899902344e+01 -2.362682968378067017e-01 1.899236917495727539e+00 4.988905787467956543e-01 1.767777919769287109e+00
2.902000000000000000e+03 7.442860412597656250e+01 2.297428894042968750e+01 -1.004012465476989746e+00 9.720306396484375000e+00 2.614888191223144531e+00 -4.343916177749633789e-01
2.903000000000000000e+03 5.908924865722656250e+01 2.529571723937988281e+01 -1.031196117401123047e+00 3.384354114532470703e-01 -2.078281939029693604e-01 1.213399842381477356e-01
2.904000000000000000e+03 3.055582046508789062e+01 2.848925971984863281e+01 -2.585941851139068604e-01 -5.175249651074409485e-02 -9.310400485992431641e-02 -2.727133929729461670e-01
2.905000000000000000e+03 2.844794654846191406e+01 2.874135398864746094e+01 -1.736732423305511475e-01 -7.749155908823013306e-02 -7.534944266080856323e-02 -2.147827148437500000e-01
2.906000000000000000e+03 3.062875747680664062e+01 2.685357093811035156e+01 -2.531528174877166748e-01 -8.827493339776992798e-02 -1.024283245205879211e-01 -3.434833288192749023e-01
2.907000000000000000e+03 4.491224670410156250e+01 2.670827484130859375e+01 -1.090691566467285156e+00 8.645477890968322754e-02 -3.012710511684417725e-01 -5.115337967872619629e-01
2.908000000000000000e+03 6.061723709106445312e+01 2.600773620605468750e+01 -1.153172850608825684e+00 3.796816468238830566e-01 -2.320473641157150269e-01 3.090545535087585449e-01
2.909000000000000000e+03 3.266130447387695312e+01 2.828976821899414062e+01 -3.593559265136718750e-01 -1.846594735980033875e-02 -1.133465692400932312e-01 -3.247452676296234131e-01
2.910000000000000000e+03 3.266625595092773438e+01 2.903891372680664062e+01 -3.620331287384033203e-01 -6.056597921997308731e-03 -1.104269251227378845e-01 -2.858819663524627686e-01
2.911000000000000000e+03 2.856171417236328125e+01 2.954051017761230469e+01 -1.766158789396286011e-01 -5.496148020029067993e-02 -6.947320699691772461e-02 -1.851950436830520630e-01
2.912000000000000000e+03 2.984509277343750000e+01 2.765554428100585938e+01 -2.250067591667175293e-01 -8.416170626878738403e-02 -9.275053441524505615e-02 -2.907341420650482178e-01
2.913000000000000000e+03 2.751715660095214844e+01 2.792245864868164062e+01 -1.417780369520187378e-01 -1.110008656978607178e-01 -7.583367079496383667e-02 -2.209056913852691650e-01
2.914000000000000000e+03 2.919670104980468750e+01 2.944162940979003906e+01 -1.999165415763854980e-01 -5.058192089200019836e-02 -7.514953613281250000e-02 -2.022951990365982056e-01
2.915000000000000000e+03 3.548205947875976562e+01 2.853681755065917969e+01 -5.182227492332458496e-01 2.839985303580760956e-02 -1.469468623399734497e-01 -3.503563404083251953e-01
2.916000000000000000e+03 3.334973907470703125e+01 2.818363952636718750e+01 -3.943957984447479248e-01 -8.216710761189460754e-03 -1.207837536931037903e-01 -3.413281738758087158e-01
2.917000000000000000e+03 3.403479766845703125e+01 2.806169319152832031e+01 -4.289964139461517334e-01 7.022903882898390293e-04 -1.284882277250289917e-01 -3.585667312145233154e-01
2.918000000000000000e+03 4.474865341186523438e+01 2.526816940307617188e+01 -9.016590714454650879e-01 9.220401197671890259e-02 -2.428365051746368408e-01 -6.040629148483276367e-01
2.919000000000000000e+03 3.757945251464843750e+01 2.725470542907714844e+01 -6.148892045021057129e-01 4.212252050638198853e-02 -1.718299984931945801e-01 -4.521918296813964844e-01
2.920000000000000000e+03 3.472656250000000000e+01 2.792986679077148438e+01 -4.655439853668212891e-01 1.004672050476074219e-02 -1.366491764783859253e-01 -3.762611150741577148e-01
2.921000000000000000e+03 4.482939529418945312e+01 2.599411010742187500e+01 -9.965060949325561523e-01 9.019499272108078003e-02 -2.718933224678039551e-01 -5.612236857414245605e-01
2.922000000000000000e+03 4.652122497558593750e+01 2.713388824462890625e+01 -1.276338577270507812e+00 7.980402559041976929e-02 -3.589603602886199951e-01 -4.663956165313720703e-01
2.923000000000000000e+03 4.125196838378906250e+01 2.748107337951660156e+01 -8.817823529243469238e-01 7.815124839544296265e-02 -2.410893440246582031e-01 -4.585134387016296387e-01
2.924000000000000000e+03 5.985357284545898438e+01 2.531124305725097656e+01 -9.520239830017089844e-01 4.200546145439147949e-01 -1.595908105373382568e-01 2.550324499607086182e-01
2.925000000000000000e+03 5.277555084228515625e+01 2.542103576660156250e+01 -1.272126436233520508e+00 1.030189469456672668e-01 -3.507322371006011963e-01 -4.364892244338989258e-01
2.926000000000000000e+03 4.806651306152343750e+01 2.687056350708007812e+01 -1.359172105789184570e+00 7.388136535882949829e-02 -3.855872452259063721e-01 -4.711598455905914307e-01
2.927000000000000000e+03 4.875045013427734375e+01 2.601661491394042969e+01 -1.245455265045166016e+00 8.234025537967681885e-02 -3.489345014095306396e-01 -5.201976299285888672e-01
2.928000000000000000e+03 4.053106689453125000e+01 2.759581184387207031e+01 -8.345373868942260742e-01 7.377420365810394287e-02 -2.282289564609527588e-01 -4.491585493087768555e-01
2.929000000000000000e+03 5.435234069824218750e+01 2.473652076721191406e+01 -1.084908366203308105e+00 1.588994860649108887e-01 -2.778026461601257324e-01 -3.510562777519226074e-01
2.930000000000000000e+03 5.438709640502929688e+01 2.613299369812011719e+01 -1.528153181076049805e+00 7.939104735851287842e-02 -4.346286356449127197e-01 -3.506048619747161865e-01
2.931000000000000000e+03 4.797983932495117188e+01 2.615298461914062500e+01 -1.225020408630371094e+00 8.279992640018463135e-02 -3.426661193370819092e-01 -5.224859118461608887e-01
2.932000000000000000e+03 5.594371032714843750e+01 2.536641883850097656e+01 -1.253776907920837402e+00 1.536467075347900391e-01 -3.300390839576721191e-01 -2.482252866029739380e-01
2.933000000000000000e+03 9.579006195068359375e+00 6.693224430084228516e+00 -1.100078497984213755e-05 -3.636728797573596239e-05 -1.421042270521866158e-05 -1.306672311329748482e-05
2.934000000000000000e+03 5.515343856811523438e+01 2.540364074707031250e+01 -1.283590435981750488e+00 1.323990374803543091e-01 -3.453574180603027344e-01 -3.084052801132202148e-01
2.935000000000000000e+03 5.673391342163085938e+01 2.533123970031738281e+01 -1.214032769203186035e+00 1.850815117359161377e-01 -3.086853921413421631e-01 -1.770467907190322876e-01
2.936000000000000000e+03 6.640381622314453125e+01 3.764622879028320312e+01 3.448947072029113770e-01 4.346508026123046875e+00 1.407420754432678223e+00 -1.555458307266235352e+00
2.937000000000000000e+03 7.554468536376953125e+01 3.033177947998046875e+01 1.992567062377929688e+00 9.396262168884277344e+00 3.416648864746093750e+00 -4.680960476398468018e-01
2.938000000000000000e+03 7.131639099121093750e+01 2.749836921691894531e+01 -1.287504434585571289e+00 1.410951137542724609e+01 3.846602201461791992e+00 5.607193112373352051e-01
2.939000000000000000e+03 4.053128433227539062e+01 2.688052177429199219e+01 -7.905640602111816406e-01 7.145572453737258911e-02 -2.157324999570846558e-01 -4.991969764232635498e-01
2.940000000000000000e+03 6.328766250610351562e+01 2.482586860656738281e+01 -2.865383327007293701e-01 1.475757718086242676e+00 3.567658066749572754e-01 1.319385170936584473e+00
2.941000000000000000e+03 2.672921180725097656e+01 2.796666145324707031e+01 -1.130613982677459717e-01 -1.191137358546257019e-01 -6.965254247188568115e-02 -1.941228210926055908e-01
2.942000000000000000e+03 2.744569396972656250e+01 2.702562141418457031e+01 -1.396178603172302246e-01 -1.358677297830581665e-01 -8.264567703008651733e-02 -2.497124522924423218e-01
2.943000000000000000e+03 6.133056259155273438e+01 2.537131881713867188e+01 -7.642890214920043945e-01 6.505042910575866699e-01 -3.413543477654457092e-02 5.826925635337829590e-01
2.944000000000000000e+03 6.262090682983398438e+01 2.411828422546386719e+01 -2.249906361103057861e-01 1.437214970588684082e+00 3.636673092842102051e-01 1.169273853302001953e+00
2.945000000000000000e+03 4.635763549804687500e+01 2.569912338256835938e+01 -1.050137519836425781e+00 9.288635104894638062e-02 -2.871753573417663574e-01 -5.694020986557006836e-01
2.946000000000000000e+03 6.060160827636718750e+01 2.533730888366699219e+01 -8.618201017379760742e-01 5.197883248329162598e-01 -1.026095375418663025e-01 4.076326489448547363e-01
2.947000000000000000e+03 6.266174316406250000e+01 2.478960418701171875e+01 -3.612663745880126953e-01 1.214040875434875488e+00 2.558323442935943604e-01 1.093927145004272461e+00
2.948000000000000000e+03 7.474766540527343750e+01 3.243582153320312500e+01 2.022215843200683594e+00 1.042858791351318359e+01 3.735241174697875977e+00 1.358372330665588379e+00
2.949000000000000000e+03 7.331192016601562500e+01 3.342601394653320312e+01 1.181888699531555176e+00 1.263370609283447266e+01 4.144678592681884766e+00 1.981763243675231934e+00
2.950000000000000000e+03 7.352158355712890625e+01 2.208516311645507812e+01 -1.086723804473876953e+00 9.411303520202636719e+00 2.497373819351196289e+00 6.062008440494537354e-02
2.951000000000000000e+03 4.334075927734375000e+01 2.632350730895996094e+01 -9.366775155067443848e-01 8.596284687519073486e-02 -2.552143931388854980e-01 -5.430653095245361328e-01
2.952000000000000000e+03 7.047789764404296875e+01 -5.640903472900390625e+00 1.299907863140106201e-01 5.881378173828125000e+00 1.803410649299621582e+00 3.449995219707489014e-01
2.953000000000000000e+03 5.436638259887695312e+01 2.543211555480957031e+01 -1.296151161193847656e+00 1.158305034041404724e-01 -3.540962040424346924e-01 -3.588168919086456299e-01
2.954000000000000000e+03 7.212026977539062500e+01 2.832191944122314453e+00 1.205610483884811401e-01 6.475247859954833984e+00 1.978742718696594238e+00 5.231349468231201172e-01
2.955000000000000000e+03 7.264487457275390625e+01 3.388725280761718750e+01 2.848261594772338867e-01 1.340043640136718750e+01 4.105578899383544922e+00 1.633847832679748535e+00
2.956000000000000000e+03 3.981611633300781250e+01 2.768307685852050781e+01 -7.835117578506469727e-01 6.855790317058563232e-02 -2.144861668348312378e-01 -4.397088587284088135e-01
2.957000000000000000e+03 3.834619140625000000e+01 2.701070594787597656e+01 -6.545106172561645508e-01 4.939071461558341980e-02 -1.815359741449356079e-01 -4.761781990528106689e-01
2.958000000000000000e+03 9.971639633178710938e+00 -7.460352897644042969e+00 1.537381031084805727e-04 -1.606590521987527609e-04 -2.076285682051093318e-06 -1.378638407913967967e-04
2.959000000000000000e+03 8.781744956970214844e+00 -6.569809436798095703e+00 -2.581405569799244404e-04 -4.121259844396263361e-04 -2.010799653362482786e-04 -6.796652451157569885e-05
2.960000000000000000e+03 7.443112182617187500e+01 2.201541137695312500e+01 -9.030956625938415527e-01 9.390684127807617188e+00 2.546276569366455078e+00 -2.624264657497406006e-01
2.961000000000000000e+03 7.318347930908203125e+01 2.393831825256347656e+01 -1.293050646781921387e+00 1.025501251220703125e+01 2.688588619232177734e+00 -1.455381363630294800e-01
2.962000000000000000e+03 7.509906768798828125e+01 2.841028022766113281e+01 9.840214848518371582e-01 1.011632347106933594e+01 3.330103397369384766e+00 -1.512144684791564941e+00
2.963000000000000000e+03 8.536204338073730469e+00 9.999107360839843750e+00 -3.027591992577072233e-05 -1.961281304829753935e-05 -1.496661934652365744e-05 -9.292219147027935833e-06
2.964000000000000000e+03 9.267740249633789062e+00 1.025327587127685547e+01 5.495105870068073273e-05 1.964374678209424019e-05 2.237844091723673046e-05 2.090116140607278794e-05
2.965000000000000000e+03 7.777868270874023438e+00 -1.630548858642578125e+01 -1.899351918837055564e-04 -1.353425206616520882e-03 -4.630081239156424999e-04 -2.744671837717760354e-05
2.966000000000000000e+03 1.061136913299560547e+01 -8.939755439758300781e+00 8.822314703138545156e-05 -6.736296927556395531e-05 6.258053872443269938e-06 -1.393958373228088021e-04
2.967000000000000000e+03 2.816296005249023438e+01 1.792378807067871094e+01 -5.517341569066047668e-02 -4.751223325729370117e-01 -1.590887308120727539e-01 -4.909819364547729492e-01
2.968000000000000000e+03 2.794768333435058594e+01 2.063176727294921875e+01 -8.566545695066452026e-02 -3.677580058574676514e-01 -1.360270380973815918e-01 -4.402085840702056885e-01
2.969000000000000000e+03 8.892982482910156250e+00 6.530772209167480469e+00 4.180654650554060936e-05 1.086207430489594117e-05 1.580058597028255463e-05 -1.921347211464308202e-05
2.970000000000000000e+03 8.995674133300781250e+00 7.281065940856933594e+00 -5.089035403216257691e-05 -1.167898517451249063e-06 -1.561747558298520744e-05 7.904111953394021839e-06
2.971000000000000000e+03 7.121723651885986328e+00 7.404884338378906250e+00 -3.289168671471998096e-05 -2.702506571949925274e-05 -1.797502591216471046e-05 1.484546100982697681e-05
2.972000000000000000e+03 7.140122222900390625e+01 -3.410325765609741211e+00 1.143883839249610901e-01 6.099924087524414062e+00 1.864293813705444336e+00 3.778246045112609863e-01
2.973000000000000000e+03 7.045293426513671875e+01 -2.237837076187133789e+00 1.481745988130569458e-01 5.926939010620117188e+00 1.822534084320068359e+00 4.371493458747863770e-01
2.974000000000000000e+03 6.968984985351562500e+01 -1.097307682037353516e+01 1.059137955307960510e-01 5.638527393341064453e+00 1.723332405090332031e+00 2.579214274883270264e-01
2.975000000000000000e+03 7.033837127685546875e+01 -1.198075866699218750e+01 8.696143329143524170e-02 5.736189365386962891e+00 1.746945261955261230e+00 2.250819653272628784e-01
2.976000000000000000e+03 6.914417266845703125e+01 -2.926765823364257812e+01 3.775526583194732666e-02 5.435336112976074219e+00 1.641927361488342285e+00 7.545203715562820435e-02
2.977000000000000000e+03 2.837614250183105469e+01 1.089399909973144531e+01 6.638868246227502823e-03 -7.536572217941284180e-01 -2.241055071353912354e-01 -5.187709331512451172e-01
2.978000000000000000e+03 7.089281463623046875e+01 -1.678553199768066406e+01 5.942905321717262268e-02 5.815559864044189453e+00 1.762496590614318848e+00 1.616758555173873901e-01
2.979000000000000000e+03 6.986155700683593750e+01 -1.777652549743652344e+01 6.640182435512542725e-02 5.604046821594238281e+00 1.701134681701660156e+00 1.591762751340866089e-01
2.980000000000000000e+03 3.058498191833496094e+01 1.656650543212890625e+01 -5.626422539353370667e-02 -4.205137789249420166e-01 -1.430334001779556274e-01 -5.976909399032592773e-01
2.981000000000000000e+03 7.171404361724853516e+00 -8.752681732177734375e+00 -3.741203399840742350e-04 -2.632924297358840704e-04 -1.912238367367535830e-04 -4.239025292918086052e-04
2.982000000000000000e+03 7.250144195556640625e+01 1.516376018524169922e+01 -2.558152675628662109e-01 7.434289455413818359e+00 2.153542280197143555e+00 7.137124538421630859e-01
2.983000000000000000e+03 7.207059478759765625e+01 1.309388256072998047e+01 -1.070673465728759766e-01 7.018490314483642578e+00 2.073426961898803711e+00 7.620354890823364258e-01
2.984000000000000000e+03 7.124989318847656250e+01 6.366488456726074219e+00 1.229269504547119141e-01 6.363806724548339844e+00 1.946020126342773438e+00 6.565693020820617676e-01
2.985000000000000000e+03 2.882774925231933594e+01 -4.408342838287353516e+00 6.533265858888626099e-02 -1.090695381164550781e+00 -3.076088130474090576e-01 -3.183160722255706787e-01
2.986000000000000000e+03 2.998042297363281250e+01 -1.395163297653198242e+00 7.754809409379959106e-02 -9.129288196563720703e-01 -2.506142258644104004e-01 -3.770153224468231201e-01
2.987000000000000000e+03 2.821799659729003906e+01 1.652420425415039062e+01 -3.921992331743240356e-02 -5.322172045707702637e-01 -1.714311391115188599e-01 -5.077622532844543457e-01
2.988000000000000000e+03 3.076965141296386719e+01 1.105922889709472656e+01 2.315441705286502838e-02 -5.747700333595275879e-01 -1.654846817255020142e-01 -5.961032509803771973e-01
2.989000000000000000e+03 7.118123626708984375e+01 1.980884170532226562e+01 -8.370109200477600098e-01 7.853497028350830078e+00 2.104945898056030273e+00 1.038694143295288086e+00
2.990000000000000000e+03 7.210696411132812500e+01 1.826390457153320312e+01 -6.131833195686340332e-01 7.821766376495361328e+00 2.162575006484985352e+00 7.646512985229492188e-01
2.991000000000000000e+03 7.187308502197265625e+01 1.950662994384765625e+01 -8.100719451904296875e-01 8.060635566711425781e+00 2.175169229507446289e+00 8.270207643508911133e-01
2.992000000000000000e+03 2.962608528137207031e+01 9.598194122314453125e+00 2.315317094326019287e-02 -7.006363868713378906e-01 -2.032449692487716675e-01 -5.501562356948852539e-01
2.993000000000000000e+03 2.841087913513183594e+01 9.487171173095703125e+00 1.235500350594520569e-02 -8.022071123123168945e-01 -2.369556427001953125e-01 -5.095132589340209961e-01
2.994000000000000000e+03 7.083734130859375000e+01 9.347754478454589844e+00 8.968044072389602661e-02 6.359353542327880859e+00 1.934710264205932617e+00 7.510889768600463867e-01
2.995000000000000000e+03 8.526970863342285156e+00 -2.309913635253906250e+01 2.216396678704768419e-04 1.226179185323417187e-03 4.343456530477851629e-04 -4.780566378030925989e-04
2.996000000000000000e+03 9.254825592041015625e+00 -9.831190109252929688e+00 1.926299883052706718e-04 2.407470892649143934e-04 1.300131261814385653e-04 -1.721022272249683738e-04
2.997000000000000000e+03 7.594441890716552734e+00 -9.924862861633300781e+00 2.548419870436191559e-04 6.459700525738298893e-04 2.702436177060008049e-04 2.959020785056054592e-04
2.998000000000000000e+03 8.034595489501953125e+00 1.412983798980712891e+01 3.306125108792912215e-06 -7.137773081922205165e-06 -1.149494437413522974e-06 4.190840627416037023e-05
2.999000000000000000e+03 7.120742797851562500e+01 5.255925178527832031e+00 1.338255554437637329e-01 6.303688526153564453e+00 1.931254267692565918e+00 6.200929284095764160e-01
3.000000000000000000e+03 7.108110046386718750e+01 4.103334903717041016e+00 1.465987116098403931e-01 6.243122100830078125e+00 1.916916251182556152e+00 5.896214246749877930e-01
3.001000000000000000e+03 2.947723197937011719e+01 1.376839733123779297e+01 -1.148294378072023392e-02 -5.755547881126403809e-01 -1.761113107204437256e-01 -5.680322647094726562e-01
3.002000000000000000e+03 7.477135658264160156e+00 1.975611877441406250e+01 6.362126441672444344e-05 3.570080298231914639e-05 2.979661985591519624e-05 -8.306011295644566417e-06
3.003000000000000000e+03 2.892370986938476562e+01 -7.410564422607421875e+00 6.091697886586189270e-02 -1.107101798057556152e+00 -3.138554692268371582e-01 -2.859524786472320557e-01
3.004000000000000000e+03 7.805868148803710938e+00 -2.148835563659667969e+01 3.154675650876015425e-04 1.343821408227086067e-03 4.977866774424910545e-04 4.517567285802215338e-04
3.005000000000000000e+03 7.054946136474609375e+01 3.893390655517578125e+01 -1.263855934143066406e+00 9.324436187744140625e+00 2.418174266815185547e+00 -7.050036191940307617e-01
3.006000000000000000e+03 9.885782241821289062e+00 3.112008857727050781e+01 -3.042182361241430044e-04 2.121285251632798463e-05 -8.490161417284980416e-05 -5.623312608804553747e-05
3.007000000000000000e+03 2.901436805725097656e+01 -5.868064880371093750e+00 6.870385259389877319e-02 -1.081977844238281250e+00 -3.039821684360504150e-01 -3.024923503398895264e-01
3.008000000000000000e+03 7.317673683166503906e+00 -1.439542198181152344e+01 -1.615027867956086993e-04 -4.597627412294968963e-05 -6.224372191354632378e-05 -4.386523505672812462e-04
3.009000000000000000e+03 7.241352081298828125e+01 1.412238693237304688e+01 -1.642645150423049927e-01 7.261270999908447266e+00 2.129101991653442383e+00 7.236458063125610352e-01
3.010000000000000000e+03 7.152572631835937500e+01 -1.015259027481079102e+00 1.318695843219757080e-01 6.191362380981445312e+00 1.896969556808471680e+00 4.348440468311309814e-01
3.011000000000000000e+03 7.282057285308837891e+00 2.244776344299316406e+01 -8.765338134253397584e-05 -4.709194399765692651e-06 -2.770877290458884090e-05 4.482162694330327213e-05
3.012000000000000000e+03 7.775546073913574219e+00 -2.856953048706054688e+01 3.463011002168059349e-03 -1.800060155801475048e-03 4.988852888345718384e-04 1.506686443462967873e-03
3.013000000000000000e+03 7.275228977203369141e+00 -2.268052673339843750e+01 4.774596018251031637e-04 -7.322203600779175758e-04 -7.642823038622736931e-05 1.056331020663492382e-04
3.014000000000000000e+03 7.953512191772460938e+00 -2.440512847900390625e+01 1.450970012228935957e-04 -1.399492379277944565e-03 -3.763186396099627018e-04 1.757714744599070400e-05
3.015000000000000000e+03 8.758221626281738281e+00 -2.720036125183105469e+01 9.300122619606554508e-04 2.734485547989606857e-03 1.099349348805844784e-03 6.378528196364641190e-04
3.016000000000000000e+03 8.871221542358398438e+00 -2.527939414978027344e+01 6.836546235717833042e-04 2.590038813650608063e-03 9.821079438552260399e-04 -1.128786971094086766e-04
3.017000000000000000e+03 7.241340160369873047e+00 9.086503028869628906e+00 -1.487199006078299135e-05 -3.390725032659247518e-05 -1.463377248001052067e-05 2.815780680975876749e-05
3.018000000000000000e+03 2.985193443298339844e+01 2.853177261352539062e+01 -2.297530025243759155e-01 -6.032658740878105164e-02 -8.702387660741806030e-02 -2.541629374027252197e-01
3.019000000000000000e+03 2.863208389282226562e+01 -1.973705863952636719e+01 5.963126569986343384e-02 -1.221238613128662109e+00 -3.484821915626525879e-01 -1.360261440277099609e-01
3.020000000000000000e+03 3.260192871093750000e+01 -2.375292205810546875e+01 6.177984178066253662e-02 -6.105703711509704590e-01 -1.646371483802795410e-01 -1.045260205864906311e-01
3.021000000000000000e+03 3.044108009338378906e+01 -2.194783782958984375e+01 6.161922961473464966e-02 -9.498265981674194336e-01 -2.664622068405151367e-01 -1.243299022316932678e-01
3.022000000000000000e+03 6.724674987792968750e+01 -2.147120285034179688e+01 7.464289665222167969e-02 5.118501663208007812e+00 1.557943344116210938e+00 1.324194818735122681e-01
3.023000000000000000e+03 9.912401199340820312e+00 -1.320746612548828125e+01 -6.787303718738257885e-04 7.303970633074641228e-04 1.550001252326183021e-05 -1.475056633353233337e-04
3.024000000000000000e+03 8.893510818481445312e+00 -1.273011207580566406e+01 1.315692643402144313e-04 -6.893102545291185379e-04 -1.673222868703305721e-04 2.274948201375082135e-04
3.025000000000000000e+03 2.975375747680664062e+01 5.438911437988281250e+00 4.357948154211044312e-02 -7.985191941261291504e-01 -2.264818996191024780e-01 -4.937026798725128174e-01
3.026000000000000000e+03 1.007243824005126953e+01 -3.118071556091308594e+01 8.342803455889225006e-03 -3.135314444079995155e-03 1.562246587127447128e-03 -2.441305201500654221e-03
3.027000000000000000e+03 2.848399925231933594e+01 2.498481178283691406e+01 -1.571635156869888306e-01 -1.857276409864425659e-01 -1.028673499822616577e-01 -3.497847616672515869e-01
3.028000000000000000e+03 2.967488288879394531e+01 8.213965415954589844e+00 3.121039457619190216e-02 -7.357280254364013672e-01 -2.113552838563919067e-01 -5.347816944122314453e-01
3.029000000000000000e+03 2.756608772277832031e+01 2.463897705078125000e+01 -1.241848021745681763e-01 -2.142322808504104614e-01 -1.015251204371452332e-01 -3.269092440605163574e-01
3.030000000000000000e+03 2.852984809875488281e+01 2.494458913803100586e+00 3.607372939586639404e-02 -1.000621080398559570e+00 -2.893642187118530273e-01 -4.120491445064544678e-01
3.031000000000000000e+03 2.983094787597656250e+01 2.682565927505493164e+00 5.773688107728958130e-02 -8.517901301383972168e-01 -2.382159829139709473e-01 -4.463314712047576904e-01
3.032000000000000000e+03 2.952546310424804688e+01 1.237803077697753906e+01 2.306979382410645485e-03 -6.201913356781005859e-01 -1.853653043508529663e-01 -5.669516324996948242e-01
3.033000000000000000e+03 7.775986194610595703e+00 -1.207282447814941406e+01 -1.697412226349115372e-04 5.204466870054602623e-04 1.052116349455900490e-04 -2.425261045573279262e-04
3.034000000000000000e+03 6.907439422607421875e+01 -1.621248626708984375e+01 8.083101361989974976e-02 5.450128555297851562e+00 1.659287929534912109e+00 1.834428012371063232e-01
3.035000000000000000e+03 7.120380401611328125e+01 7.427830696105957031e+00 1.146873384714126587e-01 6.397792816162109375e+00 1.953744053840637207e+00 6.887785196304321289e-01
3.036000000000000000e+03 2.949876403808593750e+01 -1.455809211730957031e+01 5.614688992500305176e-02 -1.076625943183898926e+00 -3.061437010765075684e-01 -1.815965920686721802e-01
3.037000000000000000e+03 7.182521820068359375e+01 -1.382989120483398438e+01 5.845834314823150635e-02 6.000890731811523438e+00 1.817804694175720215e+00 1.821324378252029419e-01
3.038000000000000000e+03 7.090338134765625000e+01 -1.322033691406250000e+01 7.698255032300949097e-02 5.846820354461669922e+00 1.777140855789184570e+00 1.983081847429275513e-01
3.039000000000000000e+03 7.011431884765625000e+01 -2.774164390563964844e+01 3.548112884163856506e-02 5.583512783050537109e+00 1.685698270797729492e+00 8.349812775850296021e-02
3.040000000000000000e+03 6.916501617431640625e+01 -2.681108665466308594e+01 4.365267604589462280e-02 5.438629150390625000e+00 1.644684433937072754e+00 9.280972927808761597e-02
3.041000000000000000e+03 6.852189636230468750e+01 -2.530238151550292969e+01 4.804089292883872986e-02 5.332544803619384766e+00 1.614175677299499512e+00 1.030644997954368591e-01
3.042000000000000000e+03 2.986958694458007812e+01 1.306424736976623535e+00 6.588330119848251343e-02 -8.776186704635620117e-01 -2.435206174850463867e-01 -4.217047691345214844e-01
3.043000000000000000e+03 7.064930725097656250e+01 1.142841720581054688e+01 2.948529832065105438e-02 6.420232295989990234e+00 1.934915184974670410e+00 8.227531909942626953e-01
3.044000000000000000e+03 6.991147613525390625e+01 8.981981277465820312e+00 1.162871047854423523e-01 6.047069549560546875e+00 1.849007010459899902e+00 7.939268350601196289e-01
3.045000000000000000e+03 2.930910491943359375e+01 1.940407943725585938e+01 -9.283282607793807983e-02 -3.710187375545501709e-01 -1.391554623842239380e-01 -5.159364342689514160e-01
3.046000000000000000e+03 2.912824630737304688e+01 2.075849342346191406e+01 -1.103216633200645447e-01 -3.271208107471466064e-01 -1.312327384948730469e-01 -4.864988327026367188e-01
3.047000000000000000e+03 2.677833747863769531e+01 -3.060892677307128906e+01 -4.023605957627296448e-02 -1.450437903404235840e+00 -4.472021758556365967e-01 -7.377440482378005981e-02
3.048000000000000000e+03 2.395914459228515625e+01 -3.146854400634765625e+01 -8.900502324104309082e-02 -1.968571305274963379e+00 -6.172729134559631348e-01 -1.428304165601730347e-01
3.049000000000000000e+03 2.789576530456542969e+01 -2.114001846313476562e+01 5.404910817742347717e-02 -1.326026082038879395e+00 -3.815931081771850586e-01 -1.231682151556015015e-01
3.050000000000000000e+03 2.558555793762207031e+01 -2.338788032531738281e+01 2.611817605793476105e-02 -1.690127372741699219e+00 -4.992027878761291504e-01 -1.148427799344062805e-01
3.051000000000000000e+03 6.929817199707031250e+01 -3.485066223144531250e+01 1.186534576117992401e-02 5.414458274841308594e+00 1.627897024154663086e+00 2.785334736108779907e-02
3.052000000000000000e+03 8.996583938598632812e+00 1.330057525634765625e+01 -1.916595465445425361e-06 1.927367884491104633e-05 5.207125013839686289e-06 -3.462650784058496356e-05
3.053000000000000000e+03 7.284388732910156250e+01 2.244585609436035156e+01 -1.216060519218444824e+00 9.452183723449707031e+00 2.470837116241455078e+00 2.942070662975311279e-01
3.054000000000000000e+03 7.374243927001953125e+01 2.435435676574707031e+01 -1.161061048507690430e+00 1.036333465576171875e+01 2.760681867599487305e+00 -5.124128460884094238e-01
3.055000000000000000e+03 7.008414459228515625e+01 2.690117454528808594e+01 -1.522662281990051270e+00 1.157528781890869141e+01 3.015787601470947266e+00 2.920845508575439453e+00
3.056000000000000000e+03 7.263782501220703125e+01 2.866169548034667969e+01 1.392075419425964355e+00 1.377784061431884766e+01 4.550974845886230469e+00 -1.832073569297790527e+00
3.057000000000000000e+03 6.683763885498046875e+01 2.731147575378417969e+01 2.406804822385311127e-02 3.060067892074584961e+00 9.252408146858215332e-01 3.019462823867797852e+00
3.058000000000000000e+03 7.527050781250000000e+01 2.981380081176757812e+01 2.060279607772827148e+00 9.763428688049316406e+00 3.547112703323364258e+00 -9.081608653068542480e-01
3.059000000000000000e+03 6.982712554931640625e+01 3.429450225830078125e+01 -8.447950482368469238e-01 1.191202449798583984e+01 3.320168733596801758e+00 -3.044281721115112305e+00
3.060000000000000000e+03 7.165528869628906250e+01 2.845016670227050781e+01 1.555807292461395264e-01 1.564349460601806641e+01 4.739722728729248047e+00 -9.602572917938232422e-01
3.061000000000000000e+03 7.204330444335937500e+01 2.872884941101074219e+01 1.161792516708374023e+00 1.496671772003173828e+01 4.838552951812744141e+00 -1.651788592338562012e+00
3.062000000000000000e+03 7.204280090332031250e+01 2.835173797607421875e+01 3.919436931610107422e-01 1.468136596679687500e+01 4.521993160247802734e+00 -1.276549339294433594e+00
3.063000000000000000e+03 7.238564300537109375e+01 3.457393646240234375e+01 -5.866186022758483887e-01 1.315611076354980469e+01 3.770847558975219727e+00 1.084926009178161621e+00
3.064000000000000000e+03 7.219034576416015625e+01 3.406270599365234375e+01 -2.389188408851623535e-01 1.375039196014404297e+01 4.053442001342773438e+00 1.095685243606567383e+00
3.065000000000000000e+03 7.050836944580078125e+01 3.471883392333984375e+01 -1.233301401138305664e+00 1.268639755249023438e+01 3.435928821563720703e+00 -1.733421564102172852e+00
3.066000000000000000e+03 7.501825714111328125e+01 3.059539222717285156e+01 2.382741451263427734e+00 9.841760635375976562e+00 3.667350769042968750e+00 -2.577660679817199707e-01
3.067000000000000000e+03 7.313176727294921875e+01 3.033039283752441406e+01 4.532745838165283203e+00 1.217821025848388672e+01 5.013286590576171875e+00 -8.518027663230895996e-01
3.068000000000000000e+03 7.084450531005859375e+01 3.589967727661132812e+01 -1.419649600982666016e+00 1.159697246551513672e+01 3.053196668624877930e+00 -1.018446087837219238e+00
3.069000000000000000e+03 6.955731964111328125e+01 3.478033447265625000e+01 -7.629570364952087402e-01 1.064427280426025391e+01 2.964394569396972656e+00 -2.896999359130859375e+00
3.070000000000000000e+03 7.183860015869140625e+01 3.489696884155273438e+01 -1.064603686332702637e+00 1.314268302917480469e+01 3.623423814773559570e+00 2.242291569709777832e-01
3.071000000000000000e+03 7.017546844482421875e+01 3.428944015502929688e+01 -1.008561968803405762e+00 1.266062450408935547e+01 3.495618820190429688e+00 -2.447873353958129883e+00
3.072000000000000000e+03 7.340240478515625000e+01 3.248899459838867188e+01 2.699579000473022461e+00 1.219651699066162109e+01 4.468828678131103516e+00 1.859061479568481445e+00
3.073000000000000000e+03 7.382845306396484375e+01 3.368178939819335938e+01 9.355503320693969727e-01 1.184804153442382812e+01 3.835077524185180664e+00 1.933292388916015625e+00
3.074000000000000000e+03 7.349042510986328125e+01 3.127434539794921875e+01 4.170132160186767578e+00 1.164669609069824219e+01 4.745048522949218750e+00 7.289955019950866699e-01
3.075000000000000000e+03 7.362052917480468750e+01 3.062119483947753906e+01 4.108724117279052734e+00 1.145129489898681641e+01 4.668005943298339844e+00 -3.256306648254394531e-01
3.076000000000000000e+03 6.845027160644531250e+01 2.836547279357910156e+01 5.165110230445861816e-01 6.334715843200683594e+00 2.055367946624755859e+00 4.977508544921875000e+00
3.077000000000000000e+03 6.781272888183593750e+01 2.779020118713378906e+01 2.484900057315826416e-01 4.753060340881347656e+00 1.500465035438537598e+00 4.104844570159912109e+00
3.078000000000000000e+03 6.741400146484375000e+01 3.413073730468750000e+01 9.616115689277648926e-01 4.203510761260986328e+00 1.549536705017089844e+00 -2.990848302841186523e+00
3.079000000000000000e+03 6.747296142578125000e+01 3.573495864868164062e+01 3.452357649803161621e-01 5.476915836334228516e+00 1.746645450592041016e+00 -2.543208360671997070e+00
3.080000000000000000e+03 7.277124786376953125e+01 3.492581939697265625e+01 -5.942610502243041992e-01 1.269094562530517578e+01 3.629005432128906250e+00 1.188116073608398438e+00
3.081000000000000000e+03 6.563584136962890625e+01 2.658196067810058594e+01 -2.185744494199752808e-01 2.134751319885253906e+00 5.748530626296997070e-01 2.211373090744018555e+00
3.082000000000000000e+03 7.428151702880859375e+01 2.681745338439941406e+01 -1.818253099918365479e-01 1.107290458679199219e+01 3.267323970794677734e+00 -1.536755561828613281e+00
3.083000000000000000e+03 6.676815795898437500e+01 2.610043334960937500e+01 -1.362471431493759155e-01 3.953608036041259766e+00 1.145208239555358887e+00 3.029747009277343750e+00
3.084000000000000000e+03 6.509719848632812500e+01 2.537967872619628906e+01 -1.667749881744384766e-01 2.378328084945678711e+00 6.634659171104431152e-01 2.069041967391967773e+00
3.085000000000000000e+03 7.351636505126953125e+01 2.924880027770996094e+01 2.571175098419189453e+00 1.200250244140625000e+01 4.372103214263916016e+00 -1.676084756851196289e+00
3.086000000000000000e+03 7.381324005126953125e+01 2.526284217834472656e+01 -1.025049328804016113e+00 1.081427669525146484e+01 2.936768054962158203e+00 -8.265715241432189941e-01
3.087000000000000000e+03 5.830881118774414062e+01 2.529372406005859375e+01 -1.101898193359375000e+00 2.731879651546478271e-01 -2.486130744218826294e-01 6.304566748440265656e-03
3.088000000000000000e+03 3.196345329284667969e+01 2.837760162353515625e+01 -3.249460458755493164e-01 -2.904479019343852997e-02 -1.061972454190254211e-01 -3.071242868900299072e-01
3.089000000000000000e+03 3.196071052551269531e+01 2.688458442687988281e+01 -3.112157881259918213e-01 -6.113509461283683777e-02 -1.117052659392356873e-01 -3.773347735404968262e-01
3.090000000000000000e+03 6.511306762695312500e+01 2.601107788085937500e+01 -2.285791188478469849e-01 2.054007768630981445e+00 5.476285815238952637e-01 1.993983745574951172e+00
3.091000000000000000e+03 6.392477416992187500e+01 2.546157646179199219e+01 -3.370465636253356934e-01 1.533076286315917969e+00 3.588089048862457275e-01 1.486059308052062988e+00
3.092000000000000000e+03 3.127375030517578125e+01 2.766577911376953125e+01 -2.877840995788574219e-01 -5.680545419454574585e-02 -1.033768653869628906e-01 -3.258326649665832520e-01
3.093000000000000000e+03 2.915145683288574219e+01 2.860104179382324219e+01 -2.021901011466979980e-01 -6.989351660013198853e-02 -8.162508904933929443e-02 -2.372269779443740845e-01
3.094000000000000000e+03 2.704928016662597656e+01 2.627871131896972656e+01 -1.216553077101707458e-01 -1.639996021986007690e-01 -8.569647371768951416e-02 -2.585154771804809570e-01
3.095000000000000000e+03 4.720893859863281250e+01 2.628566741943359375e+01 -1.195622086524963379e+00 8.552958816289901733e-02 -3.330277502536773682e-01 -5.242549180984497070e-01
3.096000000000000000e+03 7.536818695068359375e+01 3.119446372985839844e+01 2.161300897598266602e+00 9.530603408813476562e+00 3.507571458816528320e+00 3.348782360553741455e-01
3.097000000000000000e+03 7.395512390136718750e+01 3.114851570129394531e+01 3.575694799423217773e+00 1.104460620880126953e+01 4.386090278625488281e+00 4.714815318584442139e-01
3.098000000000000000e+03 3.815447998046875000e+01 2.618095970153808594e+01 -6.086111664772033691e-01 3.980586305260658264e-02 -1.706415861845016479e-01 -5.220448374748229980e-01
3.099000000000000000e+03 4.121886825561523438e+01 2.611226844787597656e+01 -7.813967466354370117e-01 7.328068464994430542e-02 -2.124348282814025879e-01 -5.514807701110839844e-01
3.100000000000000000e+03 3.542682266235351562e+01 2.778985977172851562e+01 -5.025906562805175781e-01 1.846664957702159882e-02 -1.452371925115585327e-01 -3.935039937496185303e-01
3.101000000000000000e+03 3.673880767822265625e+01 2.669654464721679688e+01 -5.478137135505676270e-01 2.382863312959671021e-02 -1.571955233812332153e-01 -4.738982915878295898e-01
3.102000000000000000e+03 3.196700859069824219e+01 2.761731719970703125e+01 -3.200951218605041504e-01 -4.443123564124107361e-02 -1.093579083681106567e-01 -3.444997072219848633e-01
3.103000000000000000e+03 3.605161285400390625e+01 2.686677169799804688e+01 -5.157110095024108887e-01 1.540215779095888138e-02 -1.500926613807678223e-01 -4.548082649707794189e-01
3.104000000000000000e+03 3.467110061645507812e+01 2.714690780639648438e+01 -4.476402401924133301e-01 -3.592039458453655243e-03 -1.353696733713150024e-01 -4.171616137027740479e-01
3.105000000000000000e+03 3.536189651489257812e+01 2.701204872131347656e+01 -4.811510741710662842e-01 5.918135400861501694e-03 -1.425698846578598022e-01 -4.365359246730804443e-01
3.106000000000000000e+03 7.127320861816406250e+01 3.757003402709960938e+01 -1.436691999435424805e+00 1.041077518463134766e+01 2.692224979400634766e+00 -5.898041725158691406e-01
3.107000000000000000e+03 5.982029724121093750e+01 2.462462425231933594e+01 -7.029272913932800293e-01 5.528793931007385254e-01 -4.501437023282051086e-02 3.317830562591552734e-01
3.108000000000000000e+03 6.057280349731445312e+01 2.465536689758300781e+01 -6.198453903198242188e-01 6.781816482543945312e-01 1.750088110566139221e-02 4.981430768966674805e-01
3.109000000000000000e+03 4.262246704101562500e+01 2.649357986450195312e+01 -9.042562246322631836e-01 8.240706473588943481e-02 -2.465547472238540649e-01 -5.317323207855224609e-01
3.110000000000000000e+03 4.399700546264648438e+01 2.543257331848144531e+01 -8.801696896553039551e-01 8.906582742929458618e-02 -2.373311668634414673e-01 -5.968372225761413574e-01
3.111000000000000000e+03 4.192165374755859375e+01 2.665488815307617188e+01 -8.700934052467346191e-01 7.993084937334060669e-02 -2.370487749576568604e-01 -5.191065073013305664e-01
3.112000000000000000e+03 4.255386734008789062e+01 2.578571510314941406e+01 -8.355292081832885742e-01 8.120892196893692017e-02 -2.262960821390151978e-01 -5.758488178253173828e-01
3.113000000000000000e+03 4.326403808593750000e+01 2.560532760620117188e+01 -8.579364418983459473e-01 8.494573086500167847e-02 -2.318972051143646240e-01 -5.872179865837097168e-01
3.114000000000000000e+03 7.472152709960937500e+01 2.758316612243652344e+01 4.400125145912170410e-01 1.067489147186279297e+01 3.334470987319946289e+00 -1.695598363876342773e+00
3.115000000000000000e+03 4.924531555175781250e+01 2.441091346740722656e+01 -9.610536694526672363e-01 1.113466769456863403e-01 -2.549121081829071045e-01 -5.805284380912780762e-01
3.116000000000000000e+03 4.952188110351562500e+01 2.586685943603515625e+01 -1.259160757064819336e+00 8.213405311107635498e-02 -3.531080186367034912e-01 -5.153437852859497070e-01
3.117000000000000000e+03 4.863985443115234375e+01 2.528857994079589844e+01 -1.104214668273925781e+00 9.386229515075683594e-02 -3.031057119369506836e-01 -5.593581795692443848e-01
3.118000000000000000e+03 4.937970352172851562e+01 2.514230346679687500e+01 -1.105181574821472168e+00 9.750021249055862427e-02 -3.023044168949127197e-01 -5.511536002159118652e-01
3.119000000000000000e+03 4.559096145629882812e+01 2.584230422973632812e+01 -1.024583935737609863e+00 9.091445058584213257e-02 -2.801008224487304688e-01 -5.667880177497863770e-01
3.120000000000000000e+03 4.712329864501953125e+01 2.556110572814941406e+01 -1.072449564933776855e+00 9.226832538843154907e-02 -2.940543591976165771e-01 -5.691846609115600586e-01
3.121000000000000000e+03 5.508857727050781250e+01 2.403604125976562500e+01 -8.680221438407897949e-01 2.372702807188034058e-01 -1.892255544662475586e-01 -2.818927764892578125e-01
3.122000000000000000e+03 5.590375137329101562e+01 2.468436622619628906e+01 -1.027624368667602539e+00 2.148494273424148560e-01 -2.438324838876724243e-01 -2.291642725467681885e-01
3.123000000000000000e+03 5.752010345458984375e+01 2.530611801147460938e+01 -1.162876963615417480e+00 2.223748266696929932e-01 -2.821506559848785400e-01 -9.257384389638900757e-02
3.124000000000000000e+03 5.748121261596679688e+01 2.461809539794921875e+01 -9.178805351257324219e-01 3.025759756565093994e-01 -1.845913678407669067e-01 -5.175797268748283386e-02
3.125000000000000000e+03 4.122833633422851562e+01 2.679014015197753906e+01 -8.328607082366943359e-01 7.614659518003463745e-02 -2.270142287015914917e-01 -5.086839795112609863e-01
3.126000000000000000e+03 5.905271911621093750e+01 2.460605621337890625e+01 -7.814396023750305176e-01 4.516389071941375732e-01 -9.894020855426788330e-02 1.873947679996490479e-01
3.127000000000000000e+03 3.983446884155273438e+01 2.691287803649902344e+01 -7.473345398902893066e-01 6.543224304914474487e-02 -2.045706808567047119e-01 -4.942914843559265137e-01
3.128000000000000000e+03 2.676504135131835938e+01 2.878257560729980469e+01 -1.162309125065803528e-01 -9.557773172855377197e-02 -6.354258954524993896e-02 -1.710370332002639771e-01
3.129000000000000000e+03 6.324534225463867188e+01 2.417471504211425781e+01 -1.671890914440155029e-01 1.692727208137512207e+00 4.576614499092102051e-01 1.377481937408447266e+00
3.130000000000000000e+03 5.669245529174804688e+01 2.464711761474609375e+01 -9.767660498619079590e-01 2.529342770576477051e-01 -2.171495258808135986e-01 -1.444308906793594360e-01
3.131000000000000000e+03 6.129826736450195312e+01 2.469491767883300781e+01 -5.347109436988830566e-01 8.267206549644470215e-01 8.760292828083038330e-02 6.782649159431457520e-01
3.132000000000000000e+03 6.195577239990234375e+01 2.405988311767578125e+01 -2.823363244533538818e-01 1.207649707794189453e+00 2.775940001010894775e-01 9.549098014831542969e-01
3.133000000000000000e+03 7.339574432373046875e+01 3.417184448242187500e+01 2.241449207067489624e-01 1.236571979522705078e+01 3.776959419250488281e+00 1.770614862442016602e+00
3.134000000000000000e+03 2.904709053039550781e+01 2.410345458984375000e+01 -1.635010540485382080e-01 -2.027470320463180542e-01 -1.098744273185729980e-01 -3.937099874019622803e-01
3.135000000000000000e+03 7.038812637329101562e+00 -6.710897445678710938e+00 -3.585359081625938416e-04 1.024351367959752679e-04 -7.683023432036861777e-05 -1.767858193488791585e-04
3.136000000000000000e+03 6.966178894042968750e+01 2.699441909790039062e+01 -1.298425793647766113e+00 1.075751972198486328e+01 2.837728023529052734e+00 3.548292160034179688e+00
3.137000000000000000e+03 7.435076904296875000e+01 2.861496734619140625e+01 1.492854475975036621e+00 1.098725128173828125e+01 3.744031667709350586e+00 -1.660809397697448730e+00
3.138000000000000000e+03 7.433911895751953125e+01 2.942880821228027344e+01 2.399901390075683594e+00 1.074573230743408203e+01 3.943690061569213867e+00 -1.330981969833374023e+00
3.139000000000000000e+03 7.408119964599609375e+01 2.734790611267089844e+01 1.624886393547058105e-01 1.134174251556396484e+01 3.451269388198852539e+00 -1.633094310760498047e+00
3.140000000000000000e+03 7.375922393798828125e+01 2.781399726867675781e+01 5.246512293815612793e-01 1.177970695495605469e+01 3.691307544708251953e+00 -1.689018964767456055e+00
3.141000000000000000e+03 7.132466888427734375e+01 2.052423667907714844e+01 -9.696304202079772949e-01 8.164086341857910156e+00 2.158336877822875977e+00 1.012953400611877441e+00
3.142000000000000000e+03 5.512142562866210938e+01 2.471801185607910156e+01 -1.059737920761108398e+00 1.790608167648315430e-01 -2.642031311988830566e-01 -2.978779673576354980e-01
3.143000000000000000e+03 7.317415618896484375e+01 2.304209327697753906e+01 -1.234392166137695312e+00 9.766032218933105469e+00 2.559492111206054688e+00 4.892871901392936707e-02
3.144000000000000000e+03 6.985455322265625000e+01 2.582418823242187500e+01 -1.450090646743774414e+00 9.962924957275390625e+00 2.553850173950195312e+00 2.724827766418457031e+00
3.145000000000000000e+03 8.105523109436035156e+00 9.524637222290039062e+00 -1.878688181022880599e-06 -2.026157926593441516e-05 -6.642079824814572930e-06 -1.798955599952023476e-05
3.146000000000000000e+03 7.952808856964111328e+00 8.189158439636230469e+00 -4.510703001869842410e-05 -2.408122054475825280e-05 -2.075647535093594342e-05 -3.745306230484857224e-06
3.147000000000000000e+03 7.224478149414062500e+01 2.214295959472656250e+01 -1.226770162582397461e+00 9.178382873535156250e+00 2.385483741760253906e+00 6.256648898124694824e-01
3.148000000000000000e+03 7.328562927246093750e+01 2.112487792968750000e+01 -9.849114418029785156e-01 9.026468276977539062e+00 2.412467002868652344e+00 2.658675312995910645e-01
3.149000000000000000e+03 6.975828552246093750e+01 -4.062148571014404297e+00 1.540029644966125488e-01 5.723881244659423828e+00 1.763365268707275391e+00 3.949255347251892090e-01
3.150000000000000000e+03 6.999912261962890625e+01 -6.785976409912109375e+00 1.309730410575866699e-01 5.765345096588134766e+00 1.768895506858825684e+00 3.232274055480957031e-01
3.151000000000000000e+03 7.231342315673828125e+01 2.126063156127929688e+01 -1.076613306999206543e+00 8.809802055358886719e+00 2.319956541061401367e+00 6.297963857650756836e-01
3.152000000000000000e+03 7.144989776611328125e+01 1.218092155456542969e+01 -4.034087434411048889e-02 6.747330665588378906e+00 2.012096881866455078e+00 7.984230518341064453e-01
3.153000000000000000e+03 5.029800415039062500e+01 2.568508338928222656e+01 -1.253627419471740723e+00 9.009469300508499146e-02 -3.490597903728485107e-01 -5.086187720298767090e-01
3.154000000000000000e+03 7.455294609069824219e+00 -1.328958988189697266e+01 1.219937039422802627e-04 -3.183527151122689247e-04 -5.890770626137964427e-05 2.404833649052307010e-04
3.155000000000000000e+03 6.872703552246093750e+01 -1.159086322784423828e+01 1.206942200660705566e-01 5.424146652221679688e+00 1.663452267646789551e+00 2.526756525039672852e-01
3.156000000000000000e+03 6.923239135742187500e+01 -1.273266124725341797e+01 1.041639521718025208e-01 5.513358116149902344e+00 1.685256600379943848e+00 2.288477122783660889e-01
3.157000000000000000e+03 4.843416213989257812e+01 2.379444122314453125e+01 -8.234387040138244629e-01 1.254890114068984985e-01 -2.093849033117294312e-01 -6.137347817420959473e-01
3.158000000000000000e+03 2.909579658508300781e+01 2.767740631103515625e+01 -1.983686536550521851e-01 -9.161972999572753906e-02 -8.699651807546615601e-02 -2.677272558212280273e-01
3.159000000000000000e+03 2.940769386291503906e+01 1.657807350158691406e+01 -4.808243736624717712e-02 -4.755265116691589355e-01 -1.570826768875122070e-01 -5.561228990554809570e-01
3.160000000000000000e+03 7.117456054687500000e+01 1.656935691833496094e+01 -3.747885525226593018e-01 7.132876396179199219e+00 2.027426242828369141e+00 9.140202999114990234e-01
3.161000000000000000e+03 7.140891265869140625e+01 1.587684345245361328e+01 -3.158790469169616699e-01 7.120016098022460938e+00 2.041241168975830078e+00 8.702389001846313477e-01
3.162000000000000000e+03 3.155869293212890625e+01 -3.601443767547607422e+00 1.038257256150245667e-01 -7.373949885368347168e-01 -1.900707781314849854e-01 -3.618042171001434326e-01
3.163000000000000000e+03 6.767919158935546875e+01 -1.690436744689941406e+01 9.427592158317565918e-02 5.201268672943115234e+00 1.588663339614868164e+00 1.811863929033279419e-01
3.164000000000000000e+03 6.842450714111328125e+01 -1.875680160522460938e+01 7.588530331850051880e-02 5.343645572662353516e+00 1.625859141349792480e+00 1.589647531509399414e-01
3.165000000000000000e+03 6.163116931915283203e+00 6.770010471343994141e+00 -4.363121843198314309e-05 -2.078937359328847378e-05 -1.932617851707618684e-05 1.668103686824906617e-05
3.166000000000000000e+03 3.083761405944824219e+01 9.692468643188476562e+00 3.641554340720176697e-02 -6.039646863937377930e-01 -1.702647358179092407e-01 -5.833393931388854980e-01
3.167000000000000000e+03 2.943885231018066406e+01 1.517047214508056641e+01 -2.888836152851581573e-02 -5.263367295265197754e-01 -1.665675193071365356e-01 -5.646264553070068359e-01
3.168000000000000000e+03 2.871393013000488281e+01 2.324504470825195312e+01 -1.428594738245010376e-01 -2.379009574651718140e-01 -1.142281293869018555e-01 -4.063110351562500000e-01
3.169000000000000000e+03 3.190170860290527344e+01 2.622293090820312500e+01 -2.995634078979492188e-01 -7.758016884326934814e-02 -1.131430715322494507e-01 -4.041982591152191162e-01
3.170000000000000000e+03 7.041705322265625000e+01 1.012524890899658203e+01 7.589941471815109253e-02 6.258739948272705078e+00 1.900391817092895508e+00 8.018752336502075195e-01
3.171000000000000000e+03 7.135005950927734375e+01 1.072270774841308594e+01 3.528998792171478271e-02 6.598848342895507812e+00 1.990241527557373047e+00 7.629557251930236816e-01
3.172000000000000000e+03 6.998049163818359375e+01 7.209439277648925781e+00 1.555226892232894897e-01 6.001785278320312500e+00 1.847192287445068359e+00 7.246132493019104004e-01
3.173000000000000000e+03 6.757447814941406250e+01 3.890623092651367188e+01 -1.688399463891983032e-01 5.779348850250244141e+00 1.683152675628662109e+00 -1.153341412544250488e+00
3.174000000000000000e+03 7.055675506591796875e+01 1.985536384582519531e+01 -8.060591816902160645e-01 7.547011375427246094e+00 2.022285699844360352e+00 1.215479016304016113e+00
3.175000000000000000e+03 7.022923278808593750e+01 -1.266466379165649414e+00 1.622152328491210938e-01 5.906660079956054688e+00 1.820662617683410645e+00 4.692474007606506348e-01
3.176000000000000000e+03 6.787318420410156250e+01 -2.347847366333007812e+01 6.087812781333923340e-02 5.228468418121337891e+00 1.586804032325744629e+00 1.129746511578559875e-01
3.177000000000000000e+03 7.119031524658203125e+01 -7.222159385681152344e+00 1.010621935129165649e-01 5.966010093688964844e+00 1.820121645927429199e+00 3.007174134254455566e-01
3.178000000000000000e+03 7.076724243164062500e+01 1.822990608215332031e+01 -5.670970082283020020e-01 7.260420799255371094e+00 2.007997274398803711e+00 1.046304225921630859e+00
3.179000000000000000e+03 7.138494110107421875e+01 1.763631629943847656e+01 -5.000944733619689941e-01 7.385547637939453125e+00 2.065635919570922852e+00 9.082747101783752441e-01
3.180000000000000000e+03 8.786718368530273438e+00 -1.680847358703613281e+01 -3.546998777892440557e-04 7.678316324017941952e-04 1.239395205629989505e-04 -3.380877606105059385e-04
3.181000000000000000e+03 2.875625419616699219e+01 -1.234800052642822266e+01 4.531520605087280273e-02 -1.177626729011535645e+00 -3.396934866905212402e-01 -2.103335112333297729e-01
3.182000000000000000e+03 8.140711784362792969e+00 1.831682014465332031e+01 3.960665344493463635e-05 2.684744686121121049e-05 1.993623118323739618e-05 -2.488009704393334687e-05
3.183000000000000000e+03 7.237111663818359375e+01 7.684717178344726562e+00 7.859428972005844116e-02 6.768629550933837891e+00 2.054167270660400391e+00 6.344983577728271484e-01
3.184000000000000000e+03 7.038324737548828125e+01 -1.547782230377197266e+01 6.862705945968627930e-02 5.729188919067382812e+00 1.739344716072082520e+00 1.757328957319259644e-01
3.185000000000000000e+03 8.952516555786132812e+00 -3.115662956237792969e+01 7.437783759087324142e-03 -2.266034018248319626e-03 1.551524852402508259e-03 -3.464704146608710289e-03
3.186000000000000000e+03 2.672970962524414062e+01 -2.180348968505859375e+01 4.985815286636352539e-02 -1.513410329818725586e+00 -4.390656352043151855e-01 -1.213846728205680847e-01
3.187000000000000000e+03 6.914816284179687500e+01 -1.014866161346435547e+01 1.142602935433387756e-01 5.509035110473632812e+00 1.686988592147827148e+00 2.784679234027862549e-01
3.188000000000000000e+03 3.023450851440429688e+01 -4.021038055419921875e+00 8.088427782058715820e-02 -9.185962080955505371e-01 -2.513135969638824463e-01 -3.393676877021789551e-01
3.189000000000000000e+03 7.010921478271484375e+01 -9.989179611206054688e+00 1.090588867664337158e-01 5.731444358825683594e+00 1.752151012420654297e+00 2.542144358158111572e-01
3.190000000000000000e+03 3.112841033935546875e+01 -1.641007614135742188e+01 7.471148669719696045e-02 -8.470639586448669434e-01 -2.317057400941848755e-01 -1.623069792985916138e-01
3.191000000000000000e+03 2.899787712097167969e+01 -1.801076889038085938e+01 5.914466083049774170e-02 -1.153600215911865234e+00 -3.283366560935974121e-01 -1.513841152191162109e-01
3.192000000000000000e+03 6.982593536376953125e+01 1.078163909912109375e+01 7.321541756391525269e-02 6.093622207641601562e+00 1.850051283836364746e+00 8.549510240554809570e-01
3.193000000000000000e+03 3.090168380737304688e+01 8.325540542602539062e+00 4.733962938189506531e-02 -6.302736997604370117e-01 -1.748802214860916138e-01 -5.671218037605285645e-01
3.194000000000000000e+03 3.070293045043945312e+01 1.242383003234863281e+01 7.453244179487228394e-03 -5.421754121780395508e-01 -1.604166477918624878e-01 -6.035577654838562012e-01
3.195000000000000000e+03 6.778723907470703125e+01 -2.798661804199218750e+01 5.008216202259063721e-02 5.207642078399658203e+00 1.577317357063293457e+00 8.107384294271469116e-02
3.196000000000000000e+03 3.108228874206542969e+01 4.233375072479248047e+00 7.360413670539855957e-02 -6.926521062850952148e-01 -1.857143789529800415e-01 -4.995574057102203369e-01
3.197000000000000000e+03 3.060434722900390625e+01 1.517026615142822266e+01 -3.174848109483718872e-02 -4.653043448925018311e-01 -1.491158455610275269e-01 -6.047508716583251953e-01
3.198000000000000000e+03 3.102093887329101562e+01 5.592130184173583984e+00 6.484005600214004517e-02 -6.751018762588500977e-01 -1.830785423517227173e-01 -5.236305594444274902e-01
3.199000000000000000e+03 8.621864318847656250e+00 -3.229510879516601562e+01 1.280460692942142487e-02 -9.056835435330867767e-03 1.124331261962652206e-03 -1.197153469547629356e-03
3.200000000000000000e+03 3.133671188354492188e+01 -1.466713047027587891e+01 8.274316042661666870e-02 -8.045766353607177734e-01 -2.165500372648239136e-01 -1.918580234050750732e-01
3.201000000000000000e+03 2.988092994689941406e+01 2.225197410583496094e+01 -1.590888351202011108e-01 -2.435531318187713623e-01 -1.207925900816917419e-01 -4.770508706569671631e-01
3.202000000000000000e+03 2.864731788635253906e+01 -2.239333534240722656e+01 4.808867722749710083e-02 -1.214639425277709961e+00 -3.499652147293090820e-01 -1.184158623218536377e-01
3.203000000000000000e+03 3.237932968139648438e+01 4.400743484497070312e+00 9.726355969905853271e-02 -5.636677742004394531e-01 -1.399212628602981567e-01 -5.211935639381408691e-01
3.204000000000000000e+03 8.454104423522949219e+00 2.189819717407226562e+01 1.017348840832710266e-04 -1.059859823726583272e-05 2.734088593570049852e-05 -4.966503911418840289e-05
3.205000000000000000e+03 8.927991867065429688e+00 -2.852059173583984375e+01 2.590195043012499809e-03 6.831665086792781949e-05 7.975534535944461823e-04 -2.772517502307891846e-03
3.206000000000000000e+03 6.942900085449218750e+01 1.944197893142700195e+00 1.874673217535018921e-01 5.748026847839355469e+00 1.780648231506347656e+00 5.531863570213317871e-01
3.207000000000000000e+03 6.999281311035156250e+01 5.234028339385986328e+00 1.766230612993240356e-01 5.949065685272216797e+00 1.837706685066223145e+00 6.531716585159301758e-01
3.208000000000000000e+03 9.647019386291503906e+00 -3.775986862182617188e+01 1.119473017752170563e-02 -2.899799309670925140e-02 -5.340978503227233887e-03 3.506430611014366150e-02
3.209000000000000000e+03 1.137913990020751953e+01 -3.776628875732421875e+01 5.283610895276069641e-02 -3.612228855490684509e-02 5.014145281165838242e-03 2.823707461357116699e-02
3.210000000000000000e+03 6.003483772277832031e+00 -3.008429908752441406e+01 3.255287418141961098e-03 -2.233799779787659645e-03 3.064462507609277964e-04 6.205575773492455482e-04
3.211000000000000000e+03 6.846662521362304688e+00 -3.233351135253906250e+01 6.923460867255926132e-03 -5.246192682534456253e-03 5.031804903410375118e-04 2.616282785311341286e-03
3.212000000000000000e+03 6.757431030273437500e+01 2.734566497802734375e+01 8.929710090160369873e-02 4.578464031219482422e+00 1.400328278541564941e+00 3.813750982284545898e+00
3.213000000000000000e+03 6.898046112060546875e+01 3.522927474975585938e+01 -3.256290555000305176e-01 8.513114929199218750e+00 2.456245660781860352e+00 -2.969945907592773438e+00
3.214000000000000000e+03 7.221699523925781250e+01 2.390861129760742188e+01 -1.491404294967651367e+00 1.020395755767822266e+01 2.613765954971313477e+00 5.223055481910705566e-01
3.215000000000000000e+03 7.326629638671875000e+01 2.882143020629882812e+01 1.899559617042541504e+00 1.253783893585205078e+01 4.331219196319580078e+00 -1.863668322563171387e+00
3.216000000000000000e+03 7.231959533691406250e+01 2.888723754882812500e+01 1.653407931327819824e+00 1.440057659149169922e+01 4.816195487976074219e+00 -1.855434298515319824e+00
3.217000000000000000e+03 6.816408538818359375e+01 2.788695144653320312e+01 1.857636421918869019e-01 5.774271488189697266e+00 1.788010597229003906e+00 4.451789855957031250e+00
3.218000000000000000e+03 7.354392242431640625e+01 2.572825622558593750e+01 -9.848035573959350586e-01 1.120705223083496094e+01 3.066674470901489258e+00 -8.688572645187377930e-01
3.219000000000000000e+03 7.036522674560546875e+01 2.814060592651367188e+01 -1.300243258476257324e+00 1.501654624938964844e+01 4.114890575408935547e+00 2.625514030456542969e+00
3.220000000000000000e+03 7.366761779785156250e+01 2.854357337951660156e+01 1.397294998168945312e+00 1.196382713317871094e+01 4.008336544036865234e+00 -1.769010424613952637e+00
3.221000000000000000e+03 6.840995788574218750e+01 3.665779876708984375e+01 -3.230672180652618408e-01 7.094959259033203125e+00 2.031567573547363281e+00 -2.097915887832641602e+00
3.222000000000000000e+03 7.098350524902343750e+01 2.702598762512207031e+01 -1.586139678955078125e+00 1.308907604217529297e+01 3.450881004333496094e+00 1.397960066795349121e+00
3.223000000000000000e+03 7.244445800781250000e+01 2.826749610900878906e+01 5.426484346389770508e-01 1.385360431671142578e+01 4.318875789642333984e+00 -1.527177572250366211e+00
3.224000000000000000e+03 7.154406738281250000e+01 2.798755645751953125e+01 -7.481042146682739258e-01 1.493811511993408203e+01 4.257003307342529297e+00 -2.067755907773971558e-01
3.225000000000000000e+03 7.469006347656250000e+01 2.999483680725097656e+01 2.552293300628662109e+00 1.023580455780029297e+01 3.836429357528686523e+00 -8.835188746452331543e-01
3.226000000000000000e+03 7.377121734619140625e+01 2.974590301513671875e+01 3.208657026290893555e+00 1.142297267913818359e+01 4.389488697052001953e+00 -1.271445274353027344e+00
3.227000000000000000e+03 7.198099517822265625e+01 2.787753868103027344e+01 -4.492459297180175781e-01 1.408313083648681641e+01 4.090165615081787109e+00 -6.868345737457275391e-01
3.228000000000000000e+03 6.733419799804687500e+01 3.505115890502929688e+01 6.426345109939575195e-01 4.767104625701904297e+00 1.622921705245971680e+00 -2.698022603988647461e+00
3.229000000000000000e+03 6.779526519775390625e+01 3.425554656982421875e+01 8.776748776435852051e-01 4.986439704895019531e+00 1.759234309196472168e+00 -3.388134956359863281e+00
3.230000000000000000e+03 7.407555389404296875e+01 2.822489547729492188e+01 1.011233210563659668e+00 1.138846492767333984e+01 3.719909667968750000e+00 -1.736247658729553223e+00
3.231000000000000000e+03 7.114031982421875000e+01 3.499368667602539062e+01 -1.309234619140625000e+00 1.297934627532958984e+01 3.501033544540405273e+00 -6.708818674087524414e-01
3.232000000000000000e+03 7.109902191162109375e+01 3.432900238037109375e+01 -1.059190154075622559e+00 1.417016220092773438e+01 3.933291673660278320e+00 -5.826772451400756836e-01
3.233000000000000000e+03 7.178764343261718750e+01 3.639625167846679688e+01 -1.427749037742614746e+00 1.163244152069091797e+01 3.061407804489135742e+00 -1.745306998491287231e-01
3.234000000000000000e+03 7.409967803955078125e+01 3.029505157470703125e+01 3.299900054931640625e+00 1.092282199859619141e+01 4.266816616058349609e+00 -6.822018623352050781e-01
3.235000000000000000e+03 7.015687561035156250e+01 3.687763977050781250e+01 -1.262846946716308594e+00 1.005441474914550781e+01 2.637470483779907227e+00 -1.444290041923522949e+00
3.236000000000000000e+03 7.446667480468750000e+01 3.084762191772460938e+01 2.948838233947753906e+00 1.039915275573730469e+01 4.004397392272949219e+00 3.816010057926177979e-02
3.237000000000000000e+03 6.705039215087890625e+01 2.690683746337890625e+01 -2.215533517301082611e-02 3.850881576538085938e+00 1.148617863655090332e+00 3.279311656951904297e+00
3.238000000000000000e+03 6.664434051513671875e+01 2.667652130126953125e+01 -5.887706577777862549e-02 3.358838081359863281e+00 9.899883270263671875e-01 2.976186513900756836e+00
3.239000000000000000e+03 7.394264221191406250e+01 3.312654113769531250e+01 1.591722130775451660e+00 1.154031467437744141e+01 3.939611196517944336e+00 1.847795009613037109e+00
3.240000000000000000e+03 7.291566467285156250e+01 3.336765670776367188e+01 1.150904774665832520e+00 1.320786380767822266e+01 4.307630538940429688e+00 1.976444602012634277e+00
3.241000000000000000e+03 7.025740814208984375e+01 2.383416366577148438e+01 -1.378918051719665527e+00 8.936420440673828125e+00 2.267250776290893555e+00 1.867342710494995117e+00
3.242000000000000000e+03 6.614290618896484375e+01 2.659228897094726562e+01 -1.083972975611686707e-01 2.699301004409790039e+00 7.772710919380187988e-01 2.577296733856201172e+00
3.243000000000000000e+03 6.387799072265625000e+01 2.483795928955078125e+01 -2.097414284944534302e-01 1.769558906555175781e+00 4.679452478885650635e-01 1.550514459609985352e+00
3.244000000000000000e+03 6.566823577880859375e+01 2.598261833190917969e+01 -1.417990773916244507e-01 2.581091165542602539e+00 7.317876219749450684e-01 2.342534065246582031e+00
3.245000000000000000e+03 3.332178115844726562e+01 2.740428161621093750e+01 -3.838370442390441895e-01 -2.267485670745372772e-02 -1.219535693526268005e-01 -3.807696998119354248e-01
3.246000000000000000e+03 2.989869880676269531e+01 2.673885726928710938e+01 -2.245404869318008423e-01 -1.048042103648185730e-01 -9.880340844392776489e-02 -3.303700685501098633e-01
3.247000000000000000e+03 3.009858703613281250e+01 2.582582283020019531e+01 -2.221939861774444580e-01 -1.248915046453475952e-01 -1.041256487369537354e-01 -3.671312630176544189e-01
3.248000000000000000e+03 4.551091384887695312e+01 2.511312484741210938e+01 -9.210750460624694824e-01 9.634947031736373901e-02 -2.474176734685897827e-01 -6.077448725700378418e-01
3.249000000000000000e+03 5.900127792358398438e+01 2.390041542053222656e+01 -5.665285587310791016e-01 5.748108029365539551e-01 2.484672935679554939e-03 2.479079663753509521e-01
3.250000000000000000e+03 5.827115249633789062e+01 2.460360908508300781e+01 -8.535646200180053711e-01 3.698383569717407227e-01 -1.451178789138793945e-01 5.933813750743865967e-02
3.251000000000000000e+03 3.725748062133789062e+01 2.572475433349609375e+01 -5.378018021583557129e-01 1.849921047687530518e-02 -1.557907760143280029e-01 -5.344560742378234863e-01
3.252000000000000000e+03 2.831772041320800781e+01 2.780855178833007812e+01 -1.728479266166687012e-01 -9.929075837135314941e-02 -8.164160698652267456e-02 -2.457143366336822510e-01
3.253000000000000000e+03 2.821482467651367188e+01 2.672834205627441406e+01 -1.610748618841171265e-01 -1.339244097471237183e-01 -8.849977701902389526e-02 -2.798103690147399902e-01
3.254000000000000000e+03 6.502738952636718750e+01 2.475408554077148438e+01 -1.263972371816635132e-01 2.608781814575195312e+00 7.447153925895690918e-01 2.077566146850585938e+00
3.255000000000000000e+03 5.283786773681640625e+01 2.467279052734375000e+01 -1.078261852264404297e+00 1.305996626615524292e-01 -2.842986583709716797e-01 -4.394111037254333496e-01
3.256000000000000000e+03 5.357633209228515625e+01 2.544131660461425781e+01 -1.293228387832641602e+00 1.038368418812751770e-01 -3.568174839019775391e-01 -4.001629054546356201e-01
3.257000000000000000e+03 4.318090438842773438e+01 2.486213493347167969e+01 -7.753099203109741211e-01 8.365491777658462524e-02 -2.074964940547943115e-01 -6.265968680381774902e-01
3.258000000000000000e+03 4.467092514038085938e+01 2.452665710449218750e+01 -8.062669634819030762e-01 9.545460343360900879e-02 -2.132437080144882202e-01 -6.397759318351745605e-01
3.259000000000000000e+03 3.596552658081054688e+01 2.606699180603027344e+01 -4.858096539974212646e-01 1.724746893160045147e-03 -1.452254652976989746e-01 -4.964609146118164062e-01
3.260000000000000000e+03 3.529466247558593750e+01 2.620206832885742188e+01 -4.559762179851531982e-01 -8.853888139128684998e-03 -1.394490301609039307e-01 -4.782336950302124023e-01
3.261000000000000000e+03 3.661898422241210938e+01 2.591321372985839844e+01 -5.143145322799682617e-01 1.118760742247104645e-02 -1.509380787611007690e-01 -5.143007040023803711e-01
3.262000000000000000e+03 7.271134185791015625e+01 2.344594955444335938e+01 -1.369947075843811035e+00 9.958578109741210938e+00 2.576589345932006836e+00 2.622537314891815186e-01
3.263000000000000000e+03 6.126058197021484375e+01 2.400802421569824219e+01 -3.482113182544708252e-01 1.010878086090087891e+00 1.988000422716140747e-01 7.588102221488952637e-01
3.264000000000000000e+03 7.379446411132812500e+01 2.657833290100097656e+01 -5.297253131866455078e-01 1.148402500152587891e+01 3.286289930343627930e+00 -1.295591115951538086e+00
3.265000000000000000e+03 4.788566970825195312e+01 2.542572021484375000e+01 -1.090007781982421875e+00 9.542134404182434082e-02 -2.983759343624114990e-01 -5.666351914405822754e-01
3.266000000000000000e+03 5.039711761474609375e+01 2.402121734619140625e+01 -8.863001465797424316e-01 1.444596499204635620e-01 -2.225521504878997803e-01 -5.536262989044189453e-01
3.267000000000000000e+03 4.246567916870117188e+01 2.505027389526367188e+01 -7.594791650772094727e-01 7.795462757349014282e-02 -2.044573575258255005e-01 -6.151267290115356445e-01
3.268000000000000000e+03 5.585571289062500000e+01 2.400554847717285156e+01 -8.203856945037841797e-01 2.817959487438201904e-01 -1.615769267082214355e-01 -1.993574947118759155e-01
3.269000000000000000e+03 5.663826370239257812e+01 2.395683860778808594e+01 -7.631316184997558594e-01 3.271992802619934082e-01 -1.307796984910964966e-01 -1.116017401218414307e-01
3.270000000000000000e+03 4.778852081298828125e+01 2.468430709838867188e+01 -9.578101038932800293e-01 1.045167222619056702e-01 -2.559880018234252930e-01 -6.006632447242736816e-01
3.271000000000000000e+03 3.931887054443359375e+01 2.603560829162597656e+01 -6.639987230300903320e-01 5.161190405488014221e-02 -1.837160438299179077e-01 -5.400001406669616699e-01
3.272000000000000000e+03 3.911428070068359375e+01 2.689882278442382812e+01 -6.969441771507263184e-01 5.756493285298347473e-02 -1.918137818574905396e-01 -4.896306097507476807e-01
3.273000000000000000e+03 4.627550888061523438e+01 2.496610832214355469e+01 -9.378000497817993164e-01 9.860917180776596069e-02 -2.517572641372680664e-01 -6.086726188659667969e-01
3.274000000000000000e+03 4.703592300415039062e+01 2.482406044006347656e+01 -9.502460956573486328e-01 1.028296500444412231e-01 -2.542249262332916260e-01 -6.059180498123168945e-01
3.275000000000000000e+03 5.359241867065429688e+01 2.472859954833984375e+01 -1.091618180274963379e+00 1.440089941024780273e-01 -2.842827737331390381e-01 -4.023189842700958252e-01
3.276000000000000000e+03 5.109659957885742188e+01 2.545623016357421875e+01 -1.229988694190979004e+00 1.000721380114555359e-01 -3.389749526977539062e-01 -4.948149025440216064e-01
3.277000000000000000e+03 5.010234832763671875e+01 2.495436859130859375e+01 -1.095451712608337402e+00 1.041031703352928162e-01 -2.974045574665069580e-01 -5.423244237899780273e-01
3.278000000000000000e+03 5.742715072631835938e+01 2.391527748107910156e+01 -7.021475434303283691e-01 3.921623826026916504e-01 -9.299553930759429932e-02 -7.431634701788425446e-03
3.279000000000000000e+03 7.231330108642578125e+01 2.286054229736328125e+01 -1.365067481994628906e+00 9.556856155395507812e+00 2.457536458969116211e+00 5.908010601997375488e-01
3.280000000000000000e+03 6.259009170532226562e+01 2.342076873779296875e+01 -1.076972410082817078e-01 1.660002231597900391e+00 4.656914770603179932e-01 1.218051075935363770e+00
3.281000000000000000e+03 6.322197723388671875e+01 2.349890708923339844e+01 -8.727040141820907593e-02 1.920406699180603027e+00 5.499408841133117676e-01 1.421163558959960938e+00
3.282000000000000000e+03 5.977315139770507812e+01 2.392515754699707031e+01 -4.958981275558471680e-01 6.954896450042724609e-01 5.987745150923728943e-02 4.031857252120971680e-01
3.283000000000000000e+03 6.053009033203125000e+01 2.396286201477050781e+01 -4.203350245952606201e-01 8.362149000167846680e-01 1.247639730572700500e-01 5.728383660316467285e-01
3.284000000000000000e+03 6.972469329833984375e+01 3.025457620620727539e+00 1.870790421962738037e-01 5.828552246093750000e+00 1.804689407348632812e+00 5.825937986373901367e-01
3.285000000000000000e+03 3.265106582641601562e+01 2.752597427368164062e+01 -3.527556359767913818e-01 -3.263543918728828430e-02 -1.156173273921012878e-01 -3.618862032890319824e-01
3.286000000000000000e+03 3.076349258422851562e+01 2.267532539367675781e+01 -1.878322660923004150e-01 -2.118599861860275269e-01 -1.199076771736145020e-01 -4.967223703861236572e-01
3.287000000000000000e+03 6.824081420898437500e+01 -1.058240222930908203e+01 1.337473988533020020e-01 5.324779033660888672e+00 1.637557983398437500e+00 2.798839509487152100e-01
3.288000000000000000e+03 6.729152679443359375e+01 -1.111097145080566406e+01 1.522753983736038208e-01 5.134113311767578125e+00 1.585916638374328613e+00 2.658043801784515381e-01
3.289000000000000000e+03 2.779346275329589844e+01 2.571653556823730469e+01 -1.397542953491210938e-01 -1.722922176122665405e-01 -9.361395239830017090e-02 -2.980180382728576660e-01
3.290000000000000000e+03 2.953068161010742188e+01 2.330442619323730469e+01 -1.673035770654678345e-01 -2.209823429584503174e-01 -1.164857745170593262e-01 -4.404667317867279053e-01
3.291000000000000000e+03 7.142876434326171875e+01 2.132326507568359375e+01 -1.096336841583251953e+00 8.497554779052734375e+00 2.220365524291992188e+00 1.000134348869323730e+00
3.292000000000000000e+03 6.988305664062500000e+01 1.965249633789062500e+01 -7.125549316406250000e-01 7.111351966857910156e+00 1.919639110565185547e+00 1.371862888336181641e+00
3.293000000000000000e+03 7.270860290527343750e+01 2.447307777404785156e+01 -1.418898582458496094e+00 1.065210533142089844e+01 2.769962072372436523e+00 3.953932598233222961e-02
3.294000000000000000e+03 7.174903106689453125e+01 2.328520584106445312e+01 -1.448801040649414062e+00 9.623861312866210938e+00 2.452518224716186523e+00 8.632780313491821289e-01
3.295000000000000000e+03 9.424030303955078125e+00 9.226928710937500000e+00 -5.557873009820468724e-05 -1.566258833918254822e-05 -2.137239607691299170e-05 -1.681093999650329351e-05
3.296000000000000000e+03 8.693484306335449219e+00 9.295109748840332031e+00 3.488326183287426829e-05 3.013407513208221644e-05 1.950520163518376648e-05 3.027847742487210780e-05
3.297000000000000000e+03 6.773479461669921875e+01 -2.195978879928588867e+00 2.183957099914550781e-01 5.277355670928955078e+00 1.648725390434265137e+00 4.636765718460083008e-01
3.298000000000000000e+03 6.911060333251953125e+01 8.780036926269531250e+00 1.525096148252487183e-01 5.774417877197265625e+00 1.778078317642211914e+00 8.086975216865539551e-01
3.299000000000000000e+03 7.004025268554687500e+01 8.174015998840332031e+00 1.305756568908691406e-01 6.049270153045654297e+00 1.853953719139099121e+00 7.607038617134094238e-01
3.300000000000000000e+03 7.003638458251953125e+01 6.219334125518798828e+00 1.644307821989059448e-01 5.988810539245605469e+00 1.845972418785095215e+00 6.943466067314147949e-01
3.301000000000000000e+03 7.171044158935546875e+01 2.440571594238281250e+01 -1.577494382858276367e+00 1.040620613098144531e+01 2.648613452911376953e+00 8.258395791053771973e-01
3.302000000000000000e+03 7.123862457275390625e+01 2.275982475280761719e+01 -1.329719901084899902e+00 9.062088966369628906e+00 2.319710731506347656e+00 1.137605905532836914e+00
3.303000000000000000e+03 4.017761993408203125e+01 2.540096092224121094e+01 -6.709395647048950195e-01 5.493086948990821838e-02 -1.848026067018508911e-01 -5.816354751586914062e-01
3.304000000000000000e+03 7.063592529296875000e+01 1.506459617614746094e+01 -2.042785137891769409e-01 6.698151111602783203e+00 1.948161840438842773e+00 9.433405399322509766e-01
3.305000000000000000e+03 3.175059890747070312e+01 1.647167587280273438e+01 -6.092763319611549377e-02 -3.689956068992614746e-01 -1.289769709110260010e-01 -6.341836452484130859e-01
3.306000000000000000e+03 3.180135917663574219e+01 1.784923362731933594e+01 -9.297858178615570068e-02 -3.276878297328948975e-01 -1.261999309062957764e-01 -6.238074898719787598e-01
3.307000000000000000e+03 3.176274299621582031e+01 1.511812210083007812e+01 -3.297647833824157715e-02 -4.058791697025299072e-01 -1.316566914319992065e-01 -6.386383771896362305e-01
3.308000000000000000e+03 3.204463577270507812e+01 9.768754959106445312e+00 5.075744539499282837e-02 -5.108805894851684570e-01 -1.380369514226913452e-01 -6.109189391136169434e-01
3.309000000000000000e+03 3.196022605895996094e+01 1.111007976531982422e+01 3.412398695945739746e-02 -4.901823997497558594e-01 -1.368175148963928223e-01 -6.246563792228698730e-01
3.310000000000000000e+03 3.212662124633789062e+01 8.424157142639160156e+00 6.555496901273727417e-02 -5.287801623344421387e-01 -1.389675587415695190e-01 -5.921570062637329102e-01
3.311000000000000000e+03 7.114334106445312500e+01 1.347182464599609375e+01 -1.166829168796539307e-01 6.734812259674072266e+00 1.985438823699951172e+00 8.592627048492431641e-01
3.312000000000000000e+03 6.962983703613281250e+01 9.658061027526855469e+00 1.216126307845115662e-01 6.007811069488525391e+00 1.838827013969421387e+00 8.176251649856567383e-01
3.313000000000000000e+03 3.061619186401367188e+01 1.950004196166992188e+01 -1.182275339961051941e-01 -3.169179260730743408e-01 -1.305436342954635620e-01 -5.643289089202880859e-01
3.314000000000000000e+03 3.035642433166503906e+01 2.097354888916015625e+01 -1.432757228612899780e-01 -2.766695022583007812e-01 -1.259835660457611084e-01 -5.281488895416259766e-01
3.315000000000000000e+03 7.023923492431640625e+01 1.887989807128906250e+01 -6.218806505203247070e-01 7.132417201995849609e+00 1.953161001205444336e+00 1.199869275093078613e+00
3.316000000000000000e+03 7.083900451660156250e+01 1.928610610961914062e+01 -7.384758591651916504e-01 7.540090084075927734e+00 2.040484428405761719e+00 1.101249694824218750e+00
3.317000000000000000e+03 6.939475250244140625e+01 -5.800964236259460449e-01 1.812914013862609863e-01 5.683669567108154297e+00 1.759488344192504883e+00 4.858707487583160400e-01
3.318000000000000000e+03 7.017110443115234375e+01 5.114634633064270020e-01 1.691963225603103638e-01 5.899442672729492188e+00 1.820591688156127930e+00 5.100575685501098633e-01
3.319000000000000000e+03 8.563048362731933594e+00 1.925326156616210938e+01 -3.801136335823684931e-05 -4.522980816545896232e-05 -2.497235254850238562e-05 1.451290972909191623e-05
3.320000000000000000e+03 6.594080352783203125e+01 -2.430599594116210938e+01 7.077402621507644653e-02 4.885207176208496094e+00 1.486794352531433105e+00 1.107140704989433289e-01
3.321000000000000000e+03 6.675157928466796875e+01 -2.628742599487304688e+01 6.292267143726348877e-02 5.027326107025146484e+00 1.527074575424194336e+00 9.243331849575042725e-02
3.322000000000000000e+03 3.064474296569824219e+01 1.378964710235595703e+01 -1.083199493587017059e-02 -5.057085752487182617e-01 -1.549621671438217163e-01 -6.066023707389831543e-01
3.323000000000000000e+03 3.054785537719726562e+01 -5.358060359954833984e+00 8.803380280733108521e-02 -8.791056871414184570e-01 -2.373215705156326294e-01 -3.234448134899139404e-01
3.324000000000000000e+03 3.096021652221679688e+01 6.955003738403320312e+00 5.739264562726020813e-02 -6.543954014778137207e-01 -1.791008263826370239e-01 -5.460720658302307129e-01
3.325000000000000000e+03 3.196731948852539062e+01 1.929068183898925781e+01 -1.334069222211837769e-01 -2.757245004177093506e-01 -1.227394267916679382e-01 -6.097319126129150391e-01
3.326000000000000000e+03 2.991742515563964844e+01 -5.494286119937896729e-02 7.196573913097381592e-02 -8.950987458229064941e-01 -2.469399124383926392e-01 -3.990396857261657715e-01
3.327000000000000000e+03 7.151988983154296875e+01 1.510121917724609375e+01 -2.382384091615676880e-01 7.040636539459228516e+00 2.040719509124755859e+00 8.496494889259338379e-01
3.328000000000000000e+03 6.987664031982421875e+01 1.206198596954345703e+01 1.988675817847251892e-02 6.179760456085205078e+00 1.859894156455993652e+00 8.954349756240844727e-01
3.329000000000000000e+03 6.822095489501953125e+01 3.557889175415039062e+01 6.711415946483612061e-02 6.752251625061035156e+00 2.045809745788574219e+00 -2.885189294815063477e+00
3.330000000000000000e+03 3.120486259460449219e+01 1.510018467903137207e+00 8.965866267681121826e-02 -7.229022383689880371e-01 -1.899730861186981201e-01 -4.493838250637054443e-01
3.331000000000000000e+03 7.060962677001953125e+01 1.721342086791992188e+00 1.661942601203918457e-01 6.050117015838623047e+00 1.864893317222595215e+00 5.377963185310363770e-01
3.332000000000000000e+03 6.982991790771484375e+01 4.145236492156982422e+00 1.816530078649520874e-01 5.884272098541259766e+00 1.819777488708496094e+00 6.247150897979736328e-01
3.333000000000000000e+03 7.616321563720703125e+00 -3.044265556335449219e+01 5.716180428862571716e-03 -3.829298075288534164e-03 5.660647293552756310e-04 -1.130499760620296001e-03
3.334000000000000000e+03 3.311324310302734375e+01 2.564035034179687500e+01 -3.403809070587158203e-01 -6.521254777908325195e-02 -1.216780319809913635e-01 -4.594705700874328613e-01
3.335000000000000000e+03 2.671704292297363281e+01 -2.067434120178222656e+01 5.331216007471084595e-02 -1.517262935638427734e+00 -4.391852319240570068e-01 -1.240625306963920593e-01
3.336000000000000000e+03 3.229653549194335938e+01 5.744957923889160156e+00 8.876582235097885132e-02 -5.548207163810729980e-01 -1.398164629936218262e-01 -5.467097163200378418e-01
3.337000000000000000e+03 3.114195060729980469e+01 2.867622613906860352e+00 8.146016299724578857e-02 -7.101433277130126953e-01 -1.886049509048461914e-01 -4.740760326385498047e-01
3.338000000000000000e+03 3.187770843505859375e+01 1.244398498535156250e+01 1.407411601394414902e-02 -4.663442969322204590e-01 -1.356810480356216431e-01 -6.343928575515747070e-01
3.339000000000000000e+03 3.180891036987304688e+01 1.377719211578369141e+01 -8.090807124972343445e-03 -4.381498694419860840e-01 -1.338721960783004761e-01 -6.388123631477355957e-01
3.340000000000000000e+03 3.221129989624023438e+01 7.084978580474853516e+00 7.820243388414382935e-02 -5.432544350624084473e-01 -1.395155936479568481e-01 -5.712982416152954102e-01
3.341000000000000000e+03 3.154148292541503906e+01 -1.298673629760742188e+01 8.629343658685684204e-02 -7.594994306564331055e-01 -2.019618004560470581e-01 -2.185133546590805054e-01
3.342000000000000000e+03 2.994097328186035156e+01 -1.289579963684082031e+01 5.962280929088592529e-02 -1.009149670600891113e+00 -2.848580479621887207e-01 -2.078729867935180664e-01
3.343000000000000000e+03 3.246455764770507812e+01 3.054482936859130859e+00 1.065476015210151672e-01 -5.691651701927185059e-01 -1.387852728366851807e-01 -4.962597787380218506e-01
3.344000000000000000e+03 9.748867034912109375e+00 -3.376436996459960938e+01 1.982524245977401733e-02 -1.102659758180379868e-02 2.639593556523323059e-03 -8.030486642383038998e-04
3.345000000000000000e+03 6.972220611572265625e+01 -2.283049201965332031e+01 4.692230746150016785e-02 5.561228752136230469e+00 1.682445287704467773e+00 1.122915446758270264e-01
3.346000000000000000e+03 3.225682067871093750e+01 -2.020139503479003906e+01 7.512356340885162354e-02 -6.643667817115783691e-01 -1.767729669809341431e-01 -1.299571394920349121e-01
3.347000000000000000e+03 2.738417243957519531e+01 -2.448830986022949219e+01 2.285506017506122589e-02 -1.421258568763732910e+00 -4.195210337638854980e-01 -1.058640182018280029e-01
3.348000000000000000e+03 2.898838996887207031e+01 -2.404148674011230469e+01 4.005561396479606628e-02 -1.168261766433715820e+00 -3.384618461132049561e-01 -1.139635369181632996e-01
3.349000000000000000e+03 6.940999603271484375e+01 4.052527236938476562e+01 -8.995893001556396484e-01 7.873451709747314453e+00 2.092158794403076172e+00 -4.509513378143310547e-01
3.350000000000000000e+03 3.272240447998046875e+01 -1.849222946166992188e+01 8.902232348918914795e-02 -6.041248440742492676e-01 -1.545307487249374390e-01 -1.477176547050476074e-01
3.351000000000000000e+03 3.043527030944824219e+01 -2.006435775756835938e+01 7.368368655443191528e-02 -9.382671713829040527e-01 -2.593750357627868652e-01 -1.342471092939376831e-01
3.352000000000000000e+03 6.913459777832031250e+01 -7.601749897003173828e+00 1.329402923583984375e-01 5.535821914672851562e+00 1.700628638267517090e+00 3.277174532413482666e-01
3.353000000000000000e+03 8.129451751708984375e+00 -3.695667266845703125e+01 1.368985325098037720e-02 -2.294792048633098602e-02 -2.777420450001955032e-03 1.964670792222023010e-02
3.354000000000000000e+03 6.928117370605468750e+01 2.705784797668457031e+01 -1.011854052543640137e+00 9.711063385009765625e+00 2.609762907028198242e+00 3.956587553024291992e+00
3.355000000000000000e+03 6.893105316162109375e+01 2.759776878356933594e+01 -5.143469572067260742e-01 8.798929214477539062e+00 2.485374689102172852e+00 4.595623970031738281e+00
3.356000000000000000e+03 7.056373596191406250e+01 2.733506584167480469e+01 -1.555073976516723633e+00 1.346102619171142578e+01 3.571785449981689453e+00 2.110759258270263672e+00
3.357000000000000000e+03 7.396846771240234375e+01 2.896388435363769531e+01 2.027453899383544922e+00 1.137522983551025391e+01 4.020805358886718750e+00 -1.658234000205993652e+00
3.358000000000000000e+03 7.328422546386718750e+01 2.751008987426757812e+01 -2.531663980334997177e-03 1.230041980743408203e+01 3.689366340637207031e+00 -1.473556995391845703e+00
3.359000000000000000e+03 7.144926452636718750e+01 2.649520683288574219e+01 -1.601373791694641113e+00 1.251373291015625000e+01 3.273707628250122070e+00 8.156417608261108398e-01
3.360000000000000000e+03 7.196865081787109375e+01 2.599653434753417969e+01 -1.508625745773315430e+00 1.194099903106689453e+01 3.129711866378784180e+00 3.322848975658416748e-01
3.361000000000000000e+03 7.433547973632812500e+01 3.164084625244140625e+01 3.005540370941162109e+00 1.077013969421386719e+01 4.132704257965087891e+00 9.124580025672912598e-01
3.362000000000000000e+03 6.445674133300781250e+01 2.482072830200195312e+01 -1.654772460460662842e-01 2.166924953460693359e+00 6.004343032836914062e-01 1.808959841728210449e+00
3.363000000000000000e+03 6.942397308349609375e+01 3.605794906616210938e+01 -9.075941443443298340e-01 9.370894432067871094e+00 2.538990020751953125e+00 -2.084258556365966797e+00
3.364000000000000000e+03 7.188095092773437500e+01 2.700886344909667969e+01 -1.202773332595825195e+00 1.319001293182373047e+01 3.596171855926513672e+00 -3.452085703611373901e-02
3.365000000000000000e+03 4.543276977539062500e+01 2.437034606933593750e+01 -8.180323243141174316e-01 1.007035672664642334e-01 -2.151986211538314819e-01 -6.418468952178955078e-01
3.366000000000000000e+03 2.930038261413574219e+01 2.553577041625976562e+01 -1.895128339529037476e-01 -1.508511155843734741e-01 -1.021091789007186890e-01 -3.551404476165771484e-01
3.367000000000000000e+03 7.330046081542968750e+01 2.626029968261718750e+01 -9.155579805374145508e-01 1.168516540527343750e+01 3.230882167816162109e+00 -8.888175487518310547e-01
3.368000000000000000e+03 7.351599884033203125e+01 2.705848312377929688e+01 -2.917626202106475830e-01 1.194589328765869141e+01 3.496239185333251953e+00 -1.371217250823974609e+00
3.369000000000000000e+03 5.821667861938476562e+01 2.389561080932617188e+01 -6.346783041954040527e-01 4.752241969108581543e-01 -4.783622920513153076e-02 1.112155094742774963e-01
3.370000000000000000e+03 5.972121810913085938e+01 2.321239089965820312e+01 -3.177244365215301514e-01 8.414486646652221680e-01 1.571172773838043213e-01 4.646325111389160156e-01
3.371000000000000000e+03 2.907643508911132812e+01 2.662092781066894531e+01 -1.889113187789916992e-01 -1.254912465810775757e-01 -9.432077407836914062e-02 -3.094609081745147705e-01
3.372000000000000000e+03 6.383238220214843750e+01 2.421578979492187500e+01 -1.287630796432495117e-01 2.003203630447387695e+00 5.623321533203125000e-01 1.595757842063903809e+00
3.373000000000000000e+03 6.570156097412109375e+01 2.529746055603027344e+01 -1.344696134328842163e-01 3.003485202789306641e+00 8.607046604156494141e-01 2.393893241882324219e+00
3.374000000000000000e+03 3.651847839355468750e+01 2.510777664184570312e+01 -4.736523032188415527e-01 -5.204457789659500122e-03 -1.436570286750793457e-01 -5.529384016990661621e-01
3.375000000000000000e+03 3.877909851074218750e+01 2.567428779602050781e+01 -6.163682937622070312e-01 4.257020726799964905e-02 -1.721394360065460205e-01 -5.553094148635864258e-01
3.376000000000000000e+03 5.363191604614257812e+01 2.402373886108398438e+01 -8.990712761878967285e-01 1.926940530538558960e-01 -2.119131684303283691e-01 -3.809949755668640137e-01
3.377000000000000000e+03 4.160367584228515625e+01 2.451323318481445312e+01 -6.672756075859069824e-01 6.620471179485321045e-02 -1.803212761878967285e-01 -6.383219957351684570e-01
3.378000000000000000e+03 7.080757141113281250e+01 2.222464179992675781e+01 -1.207448601722717285e+00 8.464194297790527344e+00 2.177023649215698242e+00 1.363703489303588867e+00
3.379000000000000000e+03 6.621234893798828125e+01 2.601154518127441406e+01 -1.164969429373741150e-01 3.132417917251586914e+00 9.047762751579284668e-01 2.657906055450439453e+00
3.380000000000000000e+03 7.300837707519531250e+01 2.547873115539550781e+01 -1.251886606216430664e+00 1.128594875335693359e+01 3.010218620300292969e+00 -4.116623401641845703e-01
3.381000000000000000e+03 3.460623168945312500e+01 2.632077598571777344e+01 -4.239187240600585938e-01 -2.046351879835128784e-02 -1.333146691322326660e-01 -4.591295719146728516e-01
3.382000000000000000e+03 3.588526916503906250e+01 2.524075698852539062e+01 -4.517516791820526123e-01 -1.476528868079185486e-02 -1.399550884962081909e-01 -5.342807173728942871e-01
3.383000000000000000e+03 4.119580459594726562e+01 2.546855926513671875e+01 -7.300461530685424805e-01 6.983388960361480713e-02 -1.980636715888977051e-01 -5.899915695190429688e-01
3.384000000000000000e+03 4.145704269409179688e+01 2.365489006042480469e+01 -5.916731953620910645e-01 6.132082268595695496e-02 -1.591057181358337402e-01 -6.716398596763610840e-01
3.385000000000000000e+03 3.392260360717773438e+01 2.642910957336425781e+01 -3.938872516155242920e-01 -3.114026971161365509e-02 -1.275082528591156006e-01 -4.382125735282897949e-01
3.386000000000000000e+03 3.523653793334960938e+01 2.538092613220214844e+01 -4.277740120887756348e-01 -2.471807599067687988e-02 -1.357476264238357544e-01 -5.165006518363952637e-01
3.387000000000000000e+03 6.257074356079101562e+01 2.268562126159667969e+01 -2.100709080696105957e-02 1.889735698699951172e+00 5.606185793876647949e-01 1.255643725395202637e+00
3.388000000000000000e+03 4.383944320678710938e+01 2.392683410644531250e+01 -7.028566598892211914e-01 9.020645916461944580e-02 -1.837950646877288818e-01 -6.664304733276367188e-01
3.389000000000000000e+03 4.391740417480468750e+01 2.468975448608398438e+01 -7.917951345443725586e-01 8.919615298509597778e-02 -2.107796967029571533e-01 -6.350815296173095703e-01
3.390000000000000000e+03 4.852990341186523438e+01 2.454411697387695312e+01 -9.582785964012145996e-01 1.119014024734497070e-01 -2.539131641387939453e-01 -5.922766923904418945e-01
3.391000000000000000e+03 4.834101104736328125e+01 2.305394172668457031e+01 -7.016906142234802246e-01 1.438231021165847778e-01 -1.673602610826492310e-01 -6.290253996849060059e-01
3.392000000000000000e+03 5.815119552612304688e+01 2.315990257263183594e+01 -4.458143711090087891e-01 5.892525315284729004e-01 4.303146153688430786e-02 1.599448472261428833e-01
3.393000000000000000e+03 4.179187393188476562e+01 2.525479507446289062e+01 -7.466564178466796875e-01 7.262451946735382080e-02 -2.022095620632171631e-01 -6.016109585762023926e-01
3.394000000000000000e+03 4.234883880615234375e+01 2.428041839599609375e+01 -6.785409450531005859e-01 7.442642748355865479e-02 -1.812343597412109375e-01 -6.518695950508117676e-01
3.395000000000000000e+03 3.399014663696289062e+01 2.727495384216308594e+01 -4.157665073871612549e-01 -1.261667907238006592e-02 -1.285149604082107544e-01 -3.991343975067138672e-01
3.396000000000000000e+03 3.260631942749023438e+01 2.674463462829589844e+01 -3.402318060398101807e-01 -4.989979416131973267e-02 -1.170394793152809143e-01 -3.991411328315734863e-01
3.397000000000000000e+03 4.769394302368164062e+01 2.393331909179687500e+01 -8.300172090530395508e-01 1.191628575325012207e-01 -2.132563143968582153e-01 -6.260883212089538574e-01
3.398000000000000000e+03 5.655965805053710938e+01 2.326088333129882812e+01 -5.771051049232482910e-01 4.050906002521514893e-01 -5.160435289144515991e-02 -7.867199182510375977e-02
3.399000000000000000e+03 5.579603195190429688e+01 2.333939552307128906e+01 -6.399093270301818848e-01 3.463766276836395264e-01 -8.805980533361434937e-02 -1.705736070871353149e-01
3.400000000000000000e+03 5.139643859863281250e+01 2.410906028747558594e+01 -9.320387840270996094e-01 1.486009061336517334e-01 -2.350313514471054077e-01 -5.119735598564147949e-01
3.401000000000000000e+03 5.735363769531250000e+01 2.319029045104980469e+01 -5.068663954734802246e-01 4.902606010437011719e-01 -4.981735255569219589e-03 3.377550095319747925e-02
3.402000000000000000e+03 6.047715759277343750e+01 2.325971984863281250e+01 -2.596235871315002441e-01 9.975844025611877441e-01 2.213882356882095337e-01 6.351116895675659180e-01
3.403000000000000000e+03 4.619444656372070312e+01 2.421926498413085938e+01 -8.261463642120361328e-01 1.069052293896675110e-01 -2.157723456621170044e-01 -6.401091814041137695e-01
3.404000000000000000e+03 4.694910812377929688e+01 2.407354354858398438e+01 -8.306958079338073730e-01 1.123015135526657104e-01 -2.155182808637619019e-01 -6.354448795318603516e-01
3.405000000000000000e+03 5.434667587280273438e+01 2.404091835021972656e+01 -8.825358748435974121e-01 1.995267570018768311e-01 -2.049027234315872192e-01 -3.397135734558105469e-01
3.406000000000000000e+03 3.247667312622070312e+01 2.060227584838867188e+01 -1.795271635055541992e-01 -2.202574610710144043e-01 -1.199353858828544617e-01 -5.997913479804992676e-01
3.407000000000000000e+03 4.068230819702148438e+01 2.551745223999023438e+01 -7.004916667938232422e-01 6.236901506781578064e-02 -1.914367824792861938e-01 -5.806617140769958496e-01
3.408000000000000000e+03 6.908182525634765625e+01 3.785726547241210938e+01 -8.035729527473449707e-01 8.048569679260253906e+00 2.173499107360839844e+00 -1.392553806304931641e+00
3.409000000000000000e+03 6.867587280273437500e+01 3.975783348083496094e+00 2.211632132530212402e-01 5.564861297607421875e+00 1.735807299613952637e+00 6.457708477973937988e-01
3.410000000000000000e+03 7.001062011718750000e+01 2.634980583190917969e+01 -1.544701457023620605e+00 1.075553703308105469e+01 2.763250589370727539e+00 2.805439472198486328e+00
3.411000000000000000e+03 6.120997238159179688e+01 2.331084442138671875e+01 -2.013831883668899536e-01 1.181286096572875977e+00 2.939708828926086426e-01 8.158224225044250488e-01
3.412000000000000000e+03 7.148212432861328125e+01 2.211707687377929688e+01 -1.233024597167968750e+00 8.841048240661621094e+00 2.282407283782958984e+00 9.812325835227966309e-01
3.413000000000000000e+03 2.977191352844238281e+01 2.458011627197265625e+01 -1.918473988771438599e-01 -1.732360571622848511e-01 -1.095250397920608521e-01 -4.026407897472381592e-01
3.414000000000000000e+03 3.218297958374023438e+01 2.395015716552734375e+01 -2.629847824573516846e-01 -1.320042014122009277e-01 -1.184966936707496643e-01 -5.013176202774047852e-01
3.415000000000000000e+03 3.047122001647949219e+01 2.496039199829101562e+01 -2.216418534517288208e-01 -1.450766474008560181e-01 -1.100155487656593323e-01 -4.115799367427825928e-01
3.416000000000000000e+03 7.042801666259765625e+01 1.645781898498535156e+01 -3.410586714744567871e-01 6.771539688110351562e+00 1.929144382476806641e+00 1.037882804870605469e+00
3.417000000000000000e+03 7.068270111083984375e+01 1.709155845642089844e+01 -4.110040366649627686e-01 6.971159458160400391e+00 1.968046665191650391e+00 1.015178799629211426e+00
3.418000000000000000e+03 7.053392028808593750e+01 2.059681320190429688e+01 -9.203912615776062012e-01 7.731513977050781250e+00 2.043336868286132812e+00 1.303033113479614258e+00
3.419000000000000000e+03 3.407203674316406250e+01 1.612772560119628906e+01 -6.080830469727516174e-02 -2.662567198276519775e-01 -9.811950474977493286e-02 -6.908152103424072266e-01
3.420000000000000000e+03 3.298194885253906250e+01 1.756481170654296875e+01 -9.822117537260055542e-02 -2.821845412254333496e-01 -1.141217127442359924e-01 -6.589335799217224121e-01
3.421000000000000000e+03 5.206679916381835938e+01 2.452809143066406250e+01 -1.032057404518127441e+00 1.364718228578567505e-01 -2.686756849288940430e-01 -4.778512418270111084e-01
3.422000000000000000e+03 5.081258773803710938e+01 2.465142631530761719e+01 -1.039152264595031738e+00 1.259978264570236206e-01 -2.739463448524475098e-01 -5.264413356781005859e-01
3.423000000000000000e+03 6.909436798095703125e+01 1.013477897644042969e+01 1.238910928368568420e-01 5.820408821105957031e+00 1.783290028572082520e+00 8.483218550682067871e-01
3.424000000000000000e+03 6.887723541259765625e+01 9.439336776733398438e+00 1.453892737627029419e-01 5.726685523986816406e+00 1.761622428894042969e+00 8.428269028663635254e-01
3.425000000000000000e+03 7.064818572998046875e+01 1.441075897216796875e+01 -1.681008487939834595e-01 6.651826858520507812e+00 1.945117712020874023e+00 9.232728481292724609e-01
3.426000000000000000e+03 3.142283821105957031e+01 2.155116081237792969e+01 -1.783906370401382446e-01 -2.275478094816207886e-01 -1.217815279960632324e-01 -5.481222271919250488e-01
3.427000000000000000e+03 3.712432098388671875e+01 2.496993446350097656e+01 -4.954904615879058838e-01 4.329993389546871185e-03 -1.473481357097625732e-01 -5.698739290237426758e-01
3.428000000000000000e+03 3.919974136352539062e+01 2.507376289367675781e+01 -6.053171753883361816e-01 4.278230294585227966e-02 -1.687604635953903198e-01 -5.944002866744995117e-01
3.429000000000000000e+03 3.335275650024414062e+01 8.515803337097167969e+00 8.502192050218582153e-02 -4.298806786537170410e-01 -1.034576222300529480e-01 -6.120681762695312500e-01
3.430000000000000000e+03 3.314955139160156250e+01 1.114350700378417969e+01 4.646825790405273438e-02 -4.078400135040283203e-01 -1.084115281701087952e-01 -6.477448344230651855e-01
3.431000000000000000e+03 6.981907653808593750e+01 1.331068992614746094e+01 -5.903810262680053711e-02 6.221027374267578125e+00 1.848596811294555664e+00 9.601742625236511230e-01
3.432000000000000000e+03 6.911374664306640625e+01 1.138753890991210938e+01 8.100128918886184692e-02 5.887261867523193359e+00 1.790478944778442383e+00 8.998549580574035645e-01
3.433000000000000000e+03 3.321793365478515625e+01 1.877165985107421875e+01 -1.392148733139038086e-01 -2.394820451736450195e-01 -1.136090755462646484e-01 -6.530503034591674805e-01
3.434000000000000000e+03 6.822821044921875000e+01 4.486387595534324646e-02 2.241260856389999390e-01 5.394864559173583984e+00 1.685697197914123535e+00 5.297973155975341797e-01
3.435000000000000000e+03 6.902704620361328125e+01 9.182804822921752930e-01 2.064895778894424438e-01 5.649546623229980469e+00 1.756810903549194336e+00 5.415332913398742676e-01
3.436000000000000000e+03 6.805920410156250000e+01 -8.390160560607910156e+00 1.642921119928359985e-01 5.302209377288818359e+00 1.639950394630432129e+00 3.092520236968994141e-01
3.437000000000000000e+03 6.982713317871093750e+01 -1.404033088684082031e+01 8.438727259635925293e-02 5.629933357238769531e+00 1.714296221733093262e+00 2.034384757280349731e-01
3.438000000000000000e+03 3.176421928405761719e+01 -4.675893306732177734e+00 1.109988465905189514e-01 -7.114576697349548340e-01 -1.801376491785049438e-01 -3.402788043022155762e-01
3.439000000000000000e+03 3.287173461914062500e+01 -3.368449687957763672e+00 1.319839656352996826e-01 -5.668651461601257324e-01 -1.304643452167510986e-01 -3.706495165824890137e-01
3.440000000000000000e+03 3.044164848327636719e+01 -1.001908874511718750e+01 7.430537790060043335e-02 -9.073871970176696777e-01 -2.499245405197143555e-01 -2.514849007129669189e-01
3.441000000000000000e+03 3.046634483337402344e+01 -7.824101448059082031e+00 8.327298611402511597e-02 -8.959063291549682617e-01 -2.437900006771087646e-01 -2.860576212406158447e-01
3.442000000000000000e+03 2.858007240295410156e+01 -2.812691628932952881e-01 5.163467675447463989e-02 -1.060734033584594727e+00 -3.027298152446746826e-01 -3.680935800075531006e-01
3.443000000000000000e+03 3.127439117431640625e+01 1.705035865306854248e-01 9.656532108783721924e-02 -7.364419698715209961e-01 -1.919630020856857300e-01 -4.238668680191040039e-01
3.444000000000000000e+03 3.135041046142578125e+01 -1.141678214073181152e+00 1.001951247453689575e-01 -7.409758567810058594e-01 -1.922342330217361450e-01 -4.010633230209350586e-01
3.445000000000000000e+03 3.143729019165039062e+01 -2.404386281967163086e+00 1.039486378431320190e-01 -7.482164502143859863e-01 -1.932803392410278320e-01 -3.804829716682434082e-01
3.446000000000000000e+03 2.832057952880859375e+01 -1.132139396667480469e+01 3.116122819483280182e-02 -1.251599073410034180e+00 -3.661313354969024658e-01 -2.283944040536880493e-01
3.447000000000000000e+03 3.039589118957519531e+01 -1.139156532287597656e+01 7.811114937067031860e-02 -9.198653101921081543e-01 -2.525262534618377686e-01 -2.278205901384353638e-01
3.448000000000000000e+03 3.298181915283203125e+01 1.374540138244628906e+01 -3.653408261016011238e-03 -3.711381554603576660e-01 -1.124374717473983765e-01 -6.658512353897094727e-01
3.449000000000000000e+03 7.145401763916015625e+01 1.427711486816406250e+01 -1.715936958789825439e-01 6.921587944030761719e+00 2.024998188018798828e+00 8.419990539550781250e-01
3.450000000000000000e+03 6.951514434814453125e+01 -2.571184396743774414e+00 1.692819595336914062e-01 5.658532619476318359e+00 1.748344302177429199e+00 4.540782570838928223e-01
3.451000000000000000e+03 3.179370498657226562e+01 -1.130700969696044922e+01 8.121317625045776367e-02 -7.244146466255187988e-01 -1.929604411125183105e-01 -2.392871826887130737e-01
3.452000000000000000e+03 6.920082855224609375e+01 -5.184394359588623047e+00 1.631128191947937012e-01 5.579627513885498047e+00 1.722822070121765137e+00 3.715025782585144043e-01
3.453000000000000000e+03 3.324831390380859375e+01 -1.463066577911376953e+01 1.110458299517631531e-01 -5.063015222549438477e-01 -1.185767054557800293e-01 -1.881228983402252197e-01
3.454000000000000000e+03 6.852237701416015625e+01 -1.468850135803222656e+01 9.925433993339538574e-02 5.364958763122558594e+00 1.639263987541198730e+00 2.037427872419357300e-01
3.455000000000000000e+03 6.664334106445312500e+01 -1.942214393615722656e+01 9.183475375175476074e-02 5.011596679687500000e+00 1.531029462814331055e+00 1.491706520318984985e-01
3.456000000000000000e+03 6.903600311279296875e+01 5.649195194244384766e+00 2.065152227878570557e-01 5.685678005218505859e+00 1.767657995223999023e+00 6.924863457679748535e-01
3.457000000000000000e+03 6.867463684082031250e+01 3.094844818115234375e+00 2.208202183246612549e-01 5.560485363006591797e+00 1.734391689300537109e+00 6.122053861618041992e-01
3.458000000000000000e+03 3.486350631713867188e+01 6.041666030883789062e+00 1.396417021751403809e-01 -3.218014538288116455e-01 -5.464792624115943909e-02 -5.750957727432250977e-01
3.459000000000000000e+03 6.913279724121093750e+01 8.128315925598144531e+00 1.665873825550079346e-01 5.771259307861328125e+00 1.781353950500488281e+00 7.762374281883239746e-01
3.460000000000000000e+03 6.528060913085937500e+01 -2.216076087951660156e+01 8.620007336139678955e-02 4.762625217437744141e+00 1.454647541046142578e+00 1.207898780703544617e-01
3.461000000000000000e+03 3.069033432006835938e+01 -2.380131149291992188e+01 4.866182431578636169e-02 -8.950776457786560059e-01 -2.539247274398803711e-01 -1.107534691691398621e-01
3.462000000000000000e+03 6.920513916015625000e+01 2.655109214782714844e+01 -1.076787352561950684e+00 9.185501098632812500e+00 2.432614088058471680e+00 3.645493268966674805e+00
3.463000000000000000e+03 7.338394927978515625e+01 2.817211914062500000e+01 8.861837983131408691e-01 1.237455463409423828e+01 3.978221654891967773e+00 -1.748308420181274414e+00
3.464000000000000000e+03 7.273110961914062500e+01 2.777299880981445312e+01 4.601853899657726288e-03 1.331820583343505859e+01 3.996842145919799805e+00 -1.346446871757507324e+00
3.465000000000000000e+03 7.123895263671875000e+01 2.383165359497070312e+01 -1.525652408599853516e+00 9.733150482177734375e+00 2.462249279022216797e+00 1.236496329307556152e+00
3.466000000000000000e+03 6.732073974609375000e+01 2.719403839111328125e+01 7.408691197633743286e-02 4.140872955322265625e+00 1.264487981796264648e+00 3.549905776977539062e+00
3.467000000000000000e+03 7.052265930175781250e+01 2.620540046691894531e+01 -1.674166083335876465e+00 1.139612483978271484e+01 2.916587591171264648e+00 2.095119237899780273e+00
3.468000000000000000e+03 7.235773468017578125e+01 2.784936141967773438e+01 -1.245990991592407227e-01 1.372862815856933594e+01 4.081208705902099609e+00 -1.206556439399719238e+00
3.469000000000000000e+03 6.958219909667968750e+01 2.646447372436523438e+01 -1.323352098464965820e+00 9.990886688232421875e+00 2.600260257720947266e+00 3.291692256927490234e+00
3.470000000000000000e+03 6.439457702636718750e+01 2.421988105773925781e+01 -9.411633014678955078e-02 2.373363018035888672e+00 6.837739944458007812e-01 1.807504534721374512e+00
3.471000000000000000e+03 6.561003112792968750e+01 2.460546684265136719e+01 -1.224306300282478333e-01 3.233553171157836914e+00 9.333367347717285156e-01 2.349011182785034180e+00
3.472000000000000000e+03 7.056493377685546875e+01 2.681194496154785156e+01 -1.658303380012512207e+00 1.226259994506835938e+01 3.181288957595825195e+00 2.093250036239624023e+00
3.473000000000000000e+03 7.221631622314453125e+01 2.745147323608398438e+01 -7.364218235015869141e-01 1.353895187377929688e+01 3.840759038925170898e+00 -6.951844096183776855e-01
3.474000000000000000e+03 6.629201507568359375e+01 2.534740829467773438e+01 -1.509002745151519775e-01 3.668286561965942383e+00 1.055215954780578613e+00 2.685538053512573242e+00
3.475000000000000000e+03 6.821273803710937500e+01 2.747046470642089844e+01 -7.558603584766387939e-02 6.218423843383789062e+00 1.842851400375366211e+00 4.279044151306152344e+00
3.476000000000000000e+03 7.239152526855468750e+01 2.647144699096679688e+01 -1.197421908378601074e+00 1.237211227416992188e+01 3.352406978607177734e+00 -3.435897827148437500e-01
3.477000000000000000e+03 7.275403594970703125e+01 2.733187675476074219e+01 -5.006095170974731445e-01 1.289187526702880859e+01 3.717379808425903320e+00 -1.070728182792663574e+00
3.478000000000000000e+03 6.788217926025390625e+01 2.701346778869628906e+01 -1.404577493667602539e-01 5.559627056121826172e+00 1.625750780105590820e+00 3.909932851791381836e+00
3.479000000000000000e+03 6.946031188964843750e+01 2.435132980346679688e+01 -1.222242355346679688e+00 8.352646827697753906e+00 2.139121294021606445e+00 2.373469829559326172e+00
3.480000000000000000e+03 4.535473632812500000e+01 2.361258506774902344e+01 -7.158784866333007812e-01 1.069014593958854675e-01 -1.826931089162826538e-01 -6.684575080871582031e-01
3.481000000000000000e+03 3.393612670898437500e+01 2.460335350036621094e+01 -3.484487831592559814e-01 -6.972499191761016846e-02 -1.254521310329437256e-01 -5.146698951721191406e-01
3.482000000000000000e+03 3.130696868896484375e+01 2.692061042785644531e+01 -2.820498049259185791e-01 -7.388340681791305542e-02 -1.067799702286720276e-01 -3.595027327537536621e-01
3.483000000000000000e+03 7.279267120361328125e+01 2.597817039489746094e+01 -1.212109327316284180e+00 1.178421211242675781e+01 3.171630859375000000e+00 -4.607350826263427734e-01
3.484000000000000000e+03 7.073965454101562500e+01 2.328518295288085938e+01 -1.382567524909973145e+00 9.039228439331054688e+00 2.296998262405395508e+00 1.465009927749633789e+00
3.485000000000000000e+03 7.024861907958984375e+01 2.271165847778320312e+01 -1.209698200225830078e+00 8.333851814270019531e+00 2.137245893478393555e+00 1.632974982261657715e+00
3.486000000000000000e+03 3.787544250488281250e+01 2.546356391906738281e+01 -5.515744686126708984e-01 2.429439686238765717e-02 -1.581840366125106812e-01 -5.591837763786315918e-01
3.487000000000000000e+03 6.728112030029296875e+01 3.667820358276367188e+01 2.360612303018569946e-01 5.265486240386962891e+00 1.650464177131652832e+00 -2.049679994583129883e+00
3.488000000000000000e+03 5.967581176757812500e+01 2.249242973327636719e+01 -1.701497882604598999e-01 9.878156781196594238e-01 2.452997714281082153e-01 5.191920995712280273e-01
3.489000000000000000e+03 5.894318008422851562e+01 2.317523002624511719e+01 -3.815818727016448975e-01 7.089247703552246094e-01 9.820286184549331665e-02 3.056417405605316162e-01
3.490000000000000000e+03 6.435102844238281250e+01 2.363917160034179688e+01 -6.032557785511016846e-02 2.569186925888061523e+00 7.526584267616271973e-01 1.821596741676330566e+00
3.491000000000000000e+03 3.478023529052734375e+01 2.403367233276367188e+01 -3.560398519039154053e-01 -6.786545366048812866e-02 -1.271715909242630005e-01 -5.622372031211853027e-01
3.492000000000000000e+03 3.325872421264648438e+01 2.657016754150390625e+01 -3.685220777988433838e-01 -3.950292244553565979e-02 -1.224074959754943848e-01 -4.188524186611175537e-01
3.493000000000000000e+03 3.515510559082031250e+01 2.457463455200195312e+01 -3.911638855934143066e-01 -4.603962972760200500e-02 -1.311610490083694458e-01 -5.502703785896301270e-01
3.494000000000000000e+03 6.325373840332031250e+01 2.278281974792480469e+01 -1.145173795521259308e-02 2.188096523284912109e+00 6.529933810234069824e-01 1.448105454444885254e+00
3.495000000000000000e+03 4.301228713989257812e+01 2.329711151123046875e+01 -6.094955801963806152e-01 8.138296753168106079e-02 -1.584337949752807617e-01 -6.884916424751281738e-01
3.496000000000000000e+03 4.309180450439453125e+01 2.409305572509765625e+01 -6.920452117919921875e-01 8.189861476421356201e-02 -1.830439865589141846e-01 -6.610676646232604980e-01
3.497000000000000000e+03 6.042662048339843750e+01 2.254870605468750000e+01 -1.236315742135047913e-01 1.154353618621826172e+00 3.092166185379028320e-01 6.808065772056579590e-01
3.498000000000000000e+03 6.186042785644531250e+01 2.266217422485351562e+01 -5.361865460872650146e-02 1.583560347557067871e+00 4.589825272560119629e-01 1.039629340171813965e+00
3.499000000000000000e+03 4.451810073852539062e+01 2.300111961364746094e+01 -6.180259585380554199e-01 1.019047796726226807e-01 -1.548363566398620605e-01 -6.915069818496704102e-01
3.500000000000000000e+03 4.907530212402343750e+01 2.293591308593750000e+01 -6.925634741783142090e-01 1.581970304250717163e-01 -1.603099256753921509e-01 -6.049066781997680664e-01
3.501000000000000000e+03 5.185483932495117188e+01 2.348480987548828125e+01 -7.845348715782165527e-01 1.887395530939102173e-01 -1.787385940551757812e-01 -4.885745346546173096e-01
3.502000000000000000e+03 5.295791244506835938e+01 2.394944000244140625e+01 -8.950291275978088379e-01 1.753413528203964233e-01 -2.159063220024108887e-01 -4.335201084613800049e-01
3.503000000000000000e+03 5.506171798706054688e+01 2.336339187622070312e+01 -6.840714812278747559e-01 3.079557418823242188e-01 -1.128347218036651611e-01 -2.523031234741210938e-01
3.504000000000000000e+03 4.459476852416992188e+01 2.376915168762207031e+01 -7.111380696296691895e-01 9.822458773851394653e-02 -1.838740408420562744e-01 -6.693844199180603027e-01
3.505000000000000000e+03 4.988801956176757812e+01 2.429635238647460938e+01 -9.475579261779785156e-01 1.231470927596092224e-01 -2.473232448101043701e-01 -5.680584907531738281e-01
3.506000000000000000e+03 4.611334991455078125e+01 2.345595169067382812e+01 -7.160024046897888184e-01 1.151165142655372620e-01 -1.802657693624496460e-01 -6.644660830497741699e-01
3.507000000000000000e+03 4.686467742919921875e+01 2.330564308166503906e+01 -7.119638323783874512e-01 1.239791959524154663e-01 -1.763954013586044312e-01 -6.569209098815917969e-01
3.508000000000000000e+03 4.058001708984375000e+01 2.617856216430664062e+01 -7.467319965362548828e-01 6.780445575714111328e-02 -2.036782652139663696e-01 -5.442930459976196289e-01
3.509000000000000000e+03 3.988978195190429688e+01 2.453366279602050781e+01 -5.946757197380065918e-01 4.574797675013542175e-02 -1.646783202886581421e-01 -6.271230578422546387e-01
3.510000000000000000e+03 5.808382415771484375e+01 2.238404273986816406e+01 -2.711626291275024414e-01 7.165468335151672363e-01 1.336152553558349609e-01 2.074639201164245605e-01
3.511000000000000000e+03 5.570185089111328125e+01 2.270582199096679688e+01 -4.896497428417205811e-01 4.165795445442199707e-01 -2.192105725407600403e-02 -1.444372087717056274e-01
3.512000000000000000e+03 5.725405120849609375e+01 2.244211387634277344e+01 -3.390073180198669434e-01 5.961002707481384277e-01 7.712788879871368408e-02 7.400336861610412598e-02
3.513000000000000000e+03 7.247393798828125000e+01 2.555377006530761719e+01 -1.406627655029296875e+00 1.149702262878417969e+01 3.027118444442749023e+00 -6.925634294748306274e-02
3.514000000000000000e+03 7.121384429931640625e+01 2.488314628601074219e+01 -1.653868317604064941e+00 1.060064983367919922e+01 2.684034347534179688e+00 1.270021796226501465e+00
3.515000000000000000e+03 6.115197372436523438e+01 2.260752487182617188e+01 -8.584845066070556641e-02 1.351550698280334473e+00 3.797107040882110596e-01 8.576925992965698242e-01
3.516000000000000000e+03 6.191537857055664062e+01 2.336317253112792969e+01 -1.490568369626998901e-01 1.413509845733642578e+00 3.793359100818634033e-01 1.013886809349060059e+00
3.517000000000000000e+03 7.060380554199218750e+01 2.144306945800781250e+01 -1.067875981330871582e+00 8.077656745910644531e+00 2.102934122085571289e+00 1.345751404762268066e+00
3.518000000000000000e+03 6.973980712890625000e+01 2.054786872863769531e+01 -8.175637722015380859e-01 7.241312503814697266e+00 1.927124619483947754e+00 1.505832433700561523e+00
3.519000000000000000e+03 6.633940887451171875e+01 -2.909816503524780273e+00 2.481152266263961792e-01 4.946843147277832031e+00 1.558487534523010254e+00 4.530203938484191895e-01
3.520000000000000000e+03 4.048663711547851562e+01 2.462745094299316406e+01 -6.297624111175537109e-01 5.515665560960769653e-02 -1.723817288875579834e-01 -6.280264258384704590e-01
3.521000000000000000e+03 3.513017654418945312e+01 2.326830673217773438e+01 -3.458838462829589844e-01 -7.176179438829421997e-02 -1.252936869859695435e-01 -5.958886146545410156e-01
3.522000000000000000e+03 6.835963439941406250e+01 1.062247753143310547e+01 1.371826380491256714e-01 5.593509674072265625e+00 1.719207644462585449e+00 8.944113254547119141e-01
3.523000000000000000e+03 6.755406188964843750e+01 9.838120460510253906e+00 1.962244361639022827e-01 5.297389507293701172e+00 1.648084282875061035e+00 8.738450407981872559e-01
3.524000000000000000e+03 3.110911178588867188e+01 2.533224678039550781e+01 -2.522774338722229004e-01 -1.191481426358222961e-01 -1.114276722073554993e-01 -4.164905846118927002e-01
3.525000000000000000e+03 3.095281410217285156e+01 2.411838722229003906e+01 -2.231550514698028564e-01 -1.608896851539611816e-01 -1.152134239673614502e-01 -4.574316442012786865e-01
3.526000000000000000e+03 7.003825378417968750e+01 1.765358543395996094e+01 -4.389247894287109375e-01 6.790394306182861328e+00 1.905440807342529297e+00 1.151327490806579590e+00
3.527000000000000000e+03 6.976588439941406250e+01 1.566765975952148438e+01 -2.166784256696701050e-01 6.414720058441162109e+00 1.859412550926208496e+00 1.040637612342834473e+00
3.528000000000000000e+03 6.950453948974609375e+01 1.843746185302734375e+01 -5.028800368309020996e-01 6.665238380432128906e+00 1.848707437515258789e+00 1.302456378936767578e+00
3.529000000000000000e+03 3.646525192260742188e+01 2.429491615295410156e+01 -4.342143833637237549e-01 -2.138062566518783569e-02 -1.366785019636154175e-01 -5.890437364578247070e-01
3.530000000000000000e+03 3.767817687988281250e+01 2.481574630737304688e+01 -5.120723843574523926e-01 1.156799308955669403e-02 -1.501513272523880005e-01 -5.820517539978027344e-01
3.531000000000000000e+03 3.137425994873046875e+01 2.625204849243164062e+01 -2.761321365833282471e-01 -8.898131549358367920e-02 -1.095340400934219360e-01 -3.869912028312683105e-01
3.532000000000000000e+03 3.219628143310546875e+01 2.241131973266601562e+01 -2.223157882690429688e-01 -1.758475899696350098e-01 -1.194490119814872742e-01 -5.531356334686279297e-01
3.533000000000000000e+03 3.429842758178710938e+01 1.826590347290039062e+01 -1.361374408006668091e-01 -2.086482644081115723e-01 -1.034357100725173950e-01 -6.849154233932495117e-01
3.534000000000000000e+03 3.455799102783203125e+01 2.547688293457031250e+01 -3.987506330013275146e-01 -3.801767900586128235e-02 -1.310304999351501465e-01 -4.985897541046142578e-01
3.535000000000000000e+03 3.025531005859375000e+01 2.366983413696289062e+01 -1.926410496234893799e-01 -1.918631494045257568e-01 -1.153512597084045410e-01 -4.502725005149841309e-01
3.536000000000000000e+03 3.212335968017578125e+01 2.524491119384765625e+01 -2.901295423507690430e-01 -9.798513352870941162e-02 -1.164344027638435364e-01 -4.487499892711639404e-01
3.537000000000000000e+03 6.812082672119140625e+01 4.764863014221191406e+00 2.363682538270950317e-01 5.413126945495605469e+00 1.694848656654357910e+00 6.800401210784912109e-01
3.538000000000000000e+03 6.547046661376953125e+01 3.698092937469482422e+00 3.282892405986785889e-01 4.664165019989013672e+00 1.497736334800720215e+00 6.305736899375915527e-01
3.539000000000000000e+03 6.831311798095703125e+01 2.144387960433959961e+00 2.286324948072433472e-01 5.425848484039306641e+00 1.696344375610351562e+00 5.876789093017578125e-01
3.540000000000000000e+03 3.524672317504882812e+01 1.604843902587890625e+01 -5.884027853608131409e-02 -2.096414268016815186e-01 -8.054450899362564087e-02 -7.131531834602355957e-01
3.541000000000000000e+03 3.324801254272460938e+01 9.830098152160644531e+00 6.710187345743179321e-02 -4.206342995166778564e-01 -1.060597300529479980e-01 -6.315146088600158691e-01
3.542000000000000000e+03 6.693913269042968750e+01 -8.352811336517333984e-01 2.523010671138763428e-01 5.086248874664306641e+00 1.601565003395080566e+00 5.080804824829101562e-01
3.543000000000000000e+03 6.908460998535156250e+01 1.272773933410644531e+01 1.504657790064811707e-02 5.918006420135498047e+00 1.779915809631347656e+00 9.627020359039306641e-01
3.544000000000000000e+03 3.346629333496093750e+01 7.209727287292480469e+00 1.003989130258560181e-01 -4.345632791519165039e-01 -1.002493128180503845e-01 -5.891454815864562988e-01
3.545000000000000000e+03 3.445426177978515625e+01 9.890420913696289062e+00 8.556727319955825806e-02 -3.324186205863952637e-01 -7.405541092157363892e-02 -6.463035941123962402e-01
3.546000000000000000e+03 6.848404693603515625e+01 8.449647903442382812e+00 1.892483979463577271e-01 5.566381454467773438e+00 1.726688981056213379e+00 7.890806198120117188e-01
3.547000000000000000e+03 6.818186950683593750e+01 6.350963592529296875e+00 2.213973551988601685e-01 5.448810100555419922e+00 1.701062202453613281e+00 7.288716435432434082e-01
3.548000000000000000e+03 3.417010116577148438e+01 1.369770145416259766e+01 3.908161539584398270e-03 -3.028307259082794189e-01 -8.967676758766174316e-02 -6.868947744369506836e-01
3.549000000000000000e+03 3.411982727050781250e+01 1.493314266204833984e+01 -2.900775894522666931e-02 -2.864932417869567871e-01 -9.465029835700988770e-02 -6.909769773483276367e-01
3.550000000000000000e+03 2.979392814636230469e+01 -9.121747970581054688e+00 7.565489411354064941e-02 -9.936572909355163574e-01 -2.754006981849670410e-01 -2.670536935329437256e-01
3.551000000000000000e+03 2.833801269531250000e+01 -1.011418342590332031e+01 4.483474045991897583e-02 -1.217380404472351074e+00 -3.517636954784393311e-01 -2.459978461265563965e-01
3.552000000000000000e+03 3.424164962768554688e+01 1.243634986877441406e+01 3.356948122382164001e-02 -3.170813620090484619e-01 -8.505356311798095703e-02 -6.783580183982849121e-01
3.553000000000000000e+03 6.678869628906250000e+01 -1.004088497161865234e+01 1.654162406921386719e-01 5.047310829162597656e+00 1.563818097114562988e+00 2.890841960906982422e-01
3.554000000000000000e+03 6.984069061279296875e+01 -8.723698616027832031e+00 1.229335814714431763e-01 5.679282665252685547e+00 1.740664958953857422e+00 2.842659652233123779e-01
3.555000000000000000e+03 6.776517486572265625e+01 -1.205161666870117188e+01 1.362707465887069702e-01 5.243832588195800781e+00 1.614030957221984863e+00 2.470383942127227783e-01
3.556000000000000000e+03 3.462349700927734375e+01 -1.909785842895507812e+01 1.053251400589942932e-01 -2.954260706901550293e-01 -5.703027918934822083e-02 -1.447807550430297852e-01
3.557000000000000000e+03 3.265771102905273438e+01 3.846541047096252441e-01 1.235441938042640686e-01 -5.726215839385986328e-01 -1.347232013940811157e-01 -4.441773593425750732e-01
3.558000000000000000e+03 6.832253265380859375e+01 1.204792404174804688e+01 8.738517016172409058e-02 5.625699996948242188e+00 1.713925600051879883e+00 9.574473500251770020e-01
3.559000000000000000e+03 3.255727386474609375e+01 1.712518215179443359e+00 1.154214665293693542e-01 -5.741009116172790527e-01 -1.376038342714309692e-01 -4.696904718875885010e-01
3.560000000000000000e+03 3.405047225952148438e+01 5.840302109718322754e-01 1.527589559555053711e-01 -4.162512421607971191e-01 -7.904769480228424072e-02 -4.562118649482727051e-01
3.561000000000000000e+03 3.429663467407226562e+01 -2.060512781143188477e+00 1.580382436513900757e-01 -3.941614627838134766e-01 -7.083696871995925903e-02 -3.979548513889312744e-01
3.562000000000000000e+03 6.859316253662109375e+01 -3.373566865921020508e+00 1.935736984014511108e-01 5.437667369842529297e+00 1.689372301101684570e+00 4.233724176883697510e-01
3.563000000000000000e+03 6.666952514648437500e+01 4.153948593139648438e+01 -1.818985641002655029e-01 5.440706253051757812e+00 1.577642321586608887e+00 -2.885758876800537109e-01
3.564000000000000000e+03 6.558934020996093750e+01 -1.372569179534912109e+01 1.529259681701660156e-01 4.802323818206787109e+00 1.486574888229370117e+00 2.271773815155029297e-01
3.565000000000000000e+03 6.804556274414062500e+01 9.111982345581054688e+00 1.958955377340316772e-01 5.446308135986328125e+00 1.692661166191101074e+00 8.307823538780212402e-01
3.566000000000000000e+03 3.312274551391601562e+01 -1.291669750213623047e+01 1.031999737024307251e-01 -5.464418530464172363e-01 -1.329725682735443115e-01 -2.071454375982284546e-01
3.567000000000000000e+03 6.786766815185546875e+01 3.376180648803710938e+00 2.526446580886840820e-01 5.293313026428222656e+00 1.663787364959716797e+00 6.425686478614807129e-01
3.568000000000000000e+03 6.667817687988281250e+01 1.356768369674682617e+00 2.766376137733459473e-01 5.002641677856445312e+00 1.583783745765686035e+00 5.765697956085205078e-01
3.569000000000000000e+03 2.941639328002929688e+01 -1.015834045410156250e+01 5.236977338790893555e-02 -1.066612124443054199e+00 -3.042727112770080566e-01 -2.533901333808898926e-01
3.570000000000000000e+03 3.068931579589843750e+01 -2.565245819091796875e+01 3.975267708301544189e-02 -8.811522126197814941e-01 -2.524198591709136963e-01 -9.795854240655899048e-02
3.571000000000000000e+03 6.388002014160156250e+01 -2.523509216308593750e+01 8.386693894863128662e-02 4.526253700256347656e+00 1.383036136627197266e+00 8.614760637283325195e-02
3.572000000000000000e+03 6.787378692626953125e+01 2.563039016723632812e+01 -5.296317934989929199e-01 6.129170417785644531e+00 1.679861664772033691e+00 3.354544639587402344e+00
3.573000000000000000e+03 7.028931427001953125e+01 2.561301422119140625e+01 -1.570465564727783203e+00 1.037228393554687500e+01 2.640545606613159180e+00 2.222984790802001953e+00
3.574000000000000000e+03 6.857141876220703125e+01 2.708776473999023438e+01 -4.782174229621887207e-01 7.572306632995605469e+00 2.128226757049560547e+00 4.215654850006103516e+00
3.575000000000000000e+03 6.738406372070312500e+01 2.556278228759765625e+01 -3.391835987567901611e-01 5.235321998596191406e+00 1.468841552734375000e+00 3.199236869812011719e+00
3.576000000000000000e+03 6.741004943847656250e+01 2.664164924621582031e+01 -1.333274245262145996e-01 4.718933582305908203e+00 1.375681877136230469e+00 3.524966239929199219e+00
3.577000000000000000e+03 6.684723663330078125e+01 2.549407577514648438e+01 -2.138969451189041138e-01 4.435061454772949219e+00 1.266349434852600098e+00 3.005474805831909180e+00
3.578000000000000000e+03 6.749820709228515625e+01 2.501530075073242188e+01 -4.815630912780761719e-01 5.491584300994873047e+00 1.503006339073181152e+00 3.012004852294921875e+00
3.579000000000000000e+03 7.107271575927734375e+01 2.590919494628906250e+01 -1.696469068527221680e+00 1.157946586608886719e+01 2.964898824691772461e+00 1.416551589965820312e+00
3.580000000000000000e+03 6.807208251953125000e+01 2.506999015808105469e+01 -6.988828182220458984e-01 6.506023406982421875e+00 1.742142200469970703e+00 3.118167877197265625e+00
3.581000000000000000e+03 6.785312652587890625e+01 2.657425117492675781e+01 -2.986132800579071045e-01 5.785285949707031250e+00 1.646001815795898438e+00 3.731732606887817383e+00
3.582000000000000000e+03 7.293695068359375000e+01 2.680280494689941406e+01 -7.873267531394958496e-01 1.238148117065429688e+01 3.478246212005615234e+00 -9.228088855743408203e-01
3.583000000000000000e+03 6.485609436035156250e+01 2.359569168090820312e+01 -8.176635950803756714e-02 2.992601871490478516e+00 8.732506632804870605e-01 1.970190882682800293e+00
3.584000000000000000e+03 6.492412567138671875e+01 2.416196060180664062e+01 -8.691486716270446777e-02 2.841785907745361328e+00 8.264613151550292969e-01 2.049258232116699219e+00
3.585000000000000000e+03 6.697737121582031250e+01 2.496381759643554688e+01 -3.159285485744476318e-01 4.725881099700927734e+00 1.322985768318176270e+00 2.917668342590332031e+00
3.586000000000000000e+03 4.527218246459960938e+01 2.284454345703125000e+01 -6.156823039054870605e-01 1.135891973972320557e-01 -1.506279408931732178e-01 -6.886281371116638184e-01
3.587000000000000000e+03 6.244887542724609375e+01 2.200657272338867188e+01 4.643772915005683899e-02 2.034255981445312500e+00 6.242080926895141602e-01 1.237633228302001953e+00
3.588000000000000000e+03 6.385153198242187500e+01 2.296634864807128906e+01 -2.871112339198589325e-02 2.478409051895141602e+00 7.349093556404113770e-01 1.652459979057312012e+00
3.589000000000000000e+03 5.889698791503906250e+01 2.243809127807617188e+01 -2.206946313381195068e-01 8.511417508125305176e-01 1.891341358423233032e-01 3.598668873310089111e-01
3.590000000000000000e+03 6.038304519653320312e+01 2.182588386535644531e+01 -1.438139751553535461e-02 1.308005690574645996e+00 3.880872726440429688e-01 7.166193127632141113e-01
3.591000000000000000e+03 4.919309997558593750e+01 2.364595031738281250e+01 -8.021786212921142578e-01 1.360170245170593262e-01 -1.998484730720520020e-01 -5.946006178855895996e-01
3.592000000000000000e+03 5.307743072509765625e+01 2.321202850341796875e+01 -6.995536088943481445e-01 2.493031919002532959e-01 -1.350751221179962158e-01 -4.125910401344299316e-01
3.593000000000000000e+03 6.450603485107421875e+01 2.266955757141113281e+01 -3.738253191113471985e-02 2.985698699951171875e+00 8.844948410987854004e-01 1.831185221672058105e+00
3.594000000000000000e+03 6.380729293823242188e+01 2.358884620666503906e+01 -7.058735191822052002e-02 2.225081920623779297e+00 6.463484168052673340e-01 1.614560008049011230e+00
3.595000000000000000e+03 7.159907531738281250e+01 2.545448303222656250e+01 -1.649521112442016602e+00 1.137243366241455078e+01 2.916873693466186523e+00 8.154649138450622559e-01
3.596000000000000000e+03 4.760630416870117188e+01 2.317053985595703125e+01 -7.071195244789123535e-01 1.346164792776107788e-01 -1.717509180307388306e-01 -6.454930901527404785e-01
3.597000000000000000e+03 4.444120788574218750e+01 2.223210716247558594e+01 -5.293209552764892578e-01 1.071625128388404846e-01 -1.266475319862365723e-01 -7.069974541664123535e-01
3.598000000000000000e+03 4.370434570312500000e+01 2.235531044006347656e+01 -5.301616191864013672e-01 9.376130253076553345e-02 -1.309200972318649292e-01 -7.102693915367126465e-01
3.599000000000000000e+03 5.234154510498046875e+01 2.382070541381835938e+01 -8.588587641716003418e-01 1.730105876922607422e-01 -2.057544589042663574e-01 -4.658887684345245361e-01
3.600000000000000000e+03 5.964514541625976562e+01 2.176755523681640625e+01 -4.494205117225646973e-02 1.132322788238525391e+00 3.262142241001129150e-01 5.621863007545471191e-01
3.601000000000000000e+03 7.055505371093750000e+01 1.574988555908203125e+01 -2.680967450141906738e-01 6.710078239440917969e+00 1.932594418525695801e+00 9.960895180702209473e-01
3.602000000000000000e+03 6.963313293457031250e+01 1.633328056335449219e+01 -2.862255275249481201e-01 6.404016971588134766e+00 1.835337400436401367e+00 1.121495962142944336e+00
3.603000000000000000e+03 4.901635742187500000e+01 2.227321243286132812e+01 -5.667046904563903809e-01 1.887744814157485962e-01 -1.133790686726570129e-01 -6.114341616630554199e-01
3.604000000000000000e+03 5.434339904785156250e+01 2.332950210571289062e+01 -7.175565361976623535e-01 2.498689442873001099e-01 -1.403062939643859863e-01 -3.225705623626708984e-01
3.605000000000000000e+03 4.376568603515625000e+01 2.314783668518066406e+01 -6.153095364570617676e-01 9.139080345630645752e-02 -1.571756154298782349e-01 -6.915820240974426270e-01
3.606000000000000000e+03 3.246279907226562500e+01 2.596299171447753906e+01 -3.174795806407928467e-01 -7.258170098066329956e-02 -1.170183867216110229e-01 -4.283623695373535156e-01
3.607000000000000000e+03 3.151873779296875000e+01 2.326604652404785156e+01 -2.230318635702133179e-01 -1.721662133932113647e-01 -1.185594201087951660e-01 -5.057381987571716309e-01
3.608000000000000000e+03 4.602661514282226562e+01 2.267727470397949219e+01 -6.084096431732177734e-01 1.252768188714981079e-01 -1.449398547410964966e-01 -6.816004514694213867e-01
3.609000000000000000e+03 4.678039550781250000e+01 2.251389503479003906e+01 -5.967786908149719238e-01 1.373691409826278687e-01 -1.378228515386581421e-01 -6.703293919563293457e-01
3.610000000000000000e+03 5.642599868774414062e+01 2.256360816955566406e+01 -4.207626879215240479e-01 4.733703136444091797e-01 1.578229106962680817e-02 -5.683093145489692688e-02
3.611000000000000000e+03 3.994549942016601562e+01 2.288537979125976562e+01 -4.821268916130065918e-01 3.010996431112289429e-02 -1.356050819158554077e-01 -6.868199706077575684e-01
3.612000000000000000e+03 5.367485427856445312e+01 2.333349227905273438e+01 -7.221915125846862793e-01 2.306166887283325195e-01 -1.474724560976028442e-01 -3.639490306377410889e-01
3.613000000000000000e+03 5.532439804077148438e+01 2.222096824645996094e+01 -4.041803479194641113e-01 4.375112652778625488e-01 9.999274276196956635e-03 -1.625892817974090576e-01
3.614000000000000000e+03 5.889192962646484375e+01 2.170748710632324219e+01 -8.715290576219558716e-02 9.918022751808166504e-01 2.713948190212249756e-01 4.175661802291870117e-01
3.615000000000000000e+03 5.704219055175781250e+01 2.180451202392578125e+01 -2.306435704231262207e-01 6.562547683715820312e-01 1.276833564043045044e-01 8.260779082775115967e-02
3.616000000000000000e+03 3.162804794311523438e+01 2.571717834472656250e+01 -2.779394090175628662e-01 -9.808363765478134155e-02 -1.128069162368774414e-01 -4.173555374145507812e-01
3.617000000000000000e+03 3.275334930419921875e+01 2.472751426696777344e+01 -3.035305738449096680e-01 -9.632050246000289917e-02 -1.199553236365318298e-01 -4.871913194656372070e-01
3.618000000000000000e+03 7.077799224853515625e+01 2.433142852783203125e+01 -1.550967574119567871e+00 9.787581443786621094e+00 2.470984220504760742e+00 1.589984655380249023e+00
3.619000000000000000e+03 6.179190444946289062e+01 2.197765159606933594e+01 3.474223241209983826e-02 1.740289568901062012e+00 5.325095653533935547e-01 1.059827804565429688e+00
3.620000000000000000e+03 3.965784072875976562e+01 2.527176094055175781e+01 -6.363896727561950684e-01 4.996650665998458862e-02 -1.759269535541534424e-01 -5.886969566345214844e-01
3.621000000000000000e+03 3.866121292114257812e+01 2.404383659362792969e+01 -5.118920207023620605e-01 1.905964314937591553e-02 -1.478497236967086792e-01 -6.303767561912536621e-01
3.622000000000000000e+03 6.110089874267578125e+01 2.190031242370605469e+01 1.085565052926540375e-02 1.520433425903320312e+00 4.593867361545562744e-01 8.823444843292236328e-01
3.623000000000000000e+03 6.889595794677734375e+01 2.036203384399414062e+01 -6.634707450866699219e-01 6.598191261291503906e+00 1.780416131019592285e+00 1.664926886558532715e+00
3.624000000000000000e+03 6.971488189697265625e+01 2.332913780212402344e+01 -1.197769522666931152e+00 8.149037361145019531e+00 2.085380315780639648e+00 2.054184913635253906e+00
3.625000000000000000e+03 3.379837799072265625e+01 3.239526271820068359e+00 1.313747018575668335e-01 -4.331869482994079590e-01 -9.054367244243621826e-02 -5.085947513580322266e-01
3.626000000000000000e+03 3.472369384765625000e+01 7.334587097167968750e+00 1.237131953239440918e-01 -3.281209468841552734e-01 -6.132232770323753357e-02 -6.025660634040832520e-01
3.627000000000000000e+03 3.340723037719726562e+01 2.409285163879394531e+01 -3.138622641563415527e-01 -9.403169900178909302e-02 -1.223681867122650146e-01 -5.275990962982177734e-01
3.628000000000000000e+03 3.710837936401367188e+01 2.343066787719726562e+01 -4.126287102699279785e-01 -2.498803101480007172e-02 -1.312850266695022583e-01 -6.285091042518615723e-01
3.629000000000000000e+03 3.769430541992187500e+01 2.418074798583984375e+01 -4.785199463367462158e-01 2.926626708358526230e-03 -1.426779925823211670e-01 -6.132667064666748047e-01
3.630000000000000000e+03 3.368749237060546875e+01 1.984457588195800781e+01 -1.797442436218261719e-01 -1.978180408477783203e-01 -1.132686883211135864e-01 -6.484373211860656738e-01
3.631000000000000000e+03 6.865330505371093750e+01 1.793969917297363281e+01 -3.596620857715606689e-01 6.135519981384277344e+00 1.732757449150085449e+00 1.369323372840881348e+00
3.632000000000000000e+03 3.527088165283203125e+01 2.114782524108886719e+01 -2.594882547855377197e-01 -1.151609048247337341e-01 -1.123947501182556152e-01 -6.589843630790710449e-01
3.633000000000000000e+03 3.408771896362304688e+01 1.725868225097656250e+01 -9.660645574331283569e-02 -2.394645512104034424e-01 -1.008213013410568237e-01 -6.894048452377319336e-01
3.634000000000000000e+03 4.068199920654296875e+01 2.374330902099609375e+01 -5.708007812500000000e-01 5.001319199800491333e-02 -1.562362760305404663e-01 -6.635963916778564453e-01
3.635000000000000000e+03 3.814446258544921875e+01 2.446794319152832031e+01 -5.111809372901916504e-01 1.489532925188541412e-02 -1.488856822252273560e-01 -6.076028347015380859e-01
3.636000000000000000e+03 3.659389114379882812e+01 1.239932060241699219e+01 6.138008460402488708e-02 -1.727886646986007690e-01 -3.342257440090179443e-02 -6.993577480316162109e-01
3.637000000000000000e+03 3.159181022644042969e+01 2.463843727111816406e+01 -2.564379572868347168e-01 -1.288445442914962769e-01 -1.155847460031509399e-01 -4.592896103858947754e-01
3.638000000000000000e+03 6.979396820068359375e+01 1.499229431152343750e+01 -1.722849607467651367e-01 6.373819828033447266e+00 1.860460400581359863e+00 1.025470972061157227e+00
3.639000000000000000e+03 6.744522094726562500e+01 1.280533218383789062e+01 9.898162633180618286e-02 5.284806728363037109e+00 1.615136504173278809e+00 1.029056072235107422e+00
3.640000000000000000e+03 3.078528022766113281e+01 2.606620979309082031e+01 -2.510641515254974365e-01 -1.053031608462333679e-01 -1.069101914763450623e-01 -3.788543641567230225e-01
3.641000000000000000e+03 6.721680450439453125e+01 6.960704326629638672e+00 2.532728910446166992e-01 5.154574871063232422e+00 1.622354388236999512e+00 7.689718604087829590e-01
3.642000000000000000e+03 6.883028411865234375e+01 7.304531097412109375e+00 1.947599649429321289e-01 5.660308837890625000e+00 1.756520628929138184e+00 7.452637553215026855e-01
3.643000000000000000e+03 6.715808868408203125e+01 3.945616960525512695e+00 2.727078199386596680e-01 5.122714996337890625e+00 1.618626832962036133e+00 6.503593325614929199e-01
3.644000000000000000e+03 3.536454010009765625e+01 1.363100433349609375e+01 1.440397184342145920e-02 -2.358196377754211426e-01 -6.642469763755798340e-02 -7.032830119132995605e-01
3.645000000000000000e+03 6.640554046630859375e+01 1.338060951232910156e+01 1.404927223920822144e-01 4.889926433563232422e+00 1.509125709533691406e+00 1.077089071273803711e+00
3.646000000000000000e+03 6.688658905029296875e+01 1.047851562500000000e+01 2.171616256237030029e-01 5.036567687988281250e+00 1.576118826866149902e+00 9.100050330162048340e-01
3.647000000000000000e+03 6.790848541259765625e+01 7.787596225738525391e+00 2.194267362356185913e-01 5.359008789062500000e+00 1.673530578613281250e+00 7.839219570159912109e-01
3.648000000000000000e+03 3.552125167846679688e+01 1.119327545166015625e+01 7.775754481554031372e-02 -2.473702430725097656e-01 -5.088380724191665649e-02 -6.762198209762573242e-01
3.649000000000000000e+03 3.655490112304687500e+01 1.353924369812011719e+01 2.439893782138824463e-02 -1.730626225471496582e-01 -4.459910467267036438e-02 -7.098461389541625977e-01
3.650000000000000000e+03 3.492310333251953125e+01 -1.403262042999267578e+01 1.240540146827697754e-01 -2.768705785274505615e-01 -4.584496840834617615e-02 -1.943954825401306152e-01
3.651000000000000000e+03 3.292284774780273438e+01 -9.118332862854003906e+00 1.266066431999206543e-01 -5.655869841575622559e-01 -1.316941082477569580e-01 -2.711971998214721680e-01
3.652000000000000000e+03 3.303216552734375000e+01 2.166985130310058594e+01 -2.246644645929336548e-01 -1.696881055831909180e-01 -1.183057725429534912e-01 -5.908181667327880859e-01
3.653000000000000000e+03 3.408891677856445312e+01 2.380934715270996094e+01 -3.256372809410095215e-01 -8.828733116388320923e-02 -1.241773813962936401e-01 -5.558253526687622070e-01
3.654000000000000000e+03 6.879562377929687500e+01 -6.456270217895507812e+00 1.626580059528350830e-01 5.468202590942382812e+00 1.689258217811584473e+00 3.561096787452697754e-01
3.655000000000000000e+03 6.580526733398437500e+01 2.243693768978118896e-01 2.916482090950012207e-01 4.811018943786621094e+00 1.530800104141235352e+00 5.371412038803100586e-01
3.656000000000000000e+03 6.786507415771484375e+01 -4.662414550781250000e+00 1.971307396888732910e-01 5.289393901824951172e+00 1.645957350730895996e+00 4.056802988052368164e-01
3.657000000000000000e+03 6.878630065917968750e+01 -9.194649696350097656e+00 1.427979320287704468e-01 5.465672969818115234e+00 1.682541251182556152e+00 2.981920838356018066e-01
3.658000000000000000e+03 6.623628234863281250e+01 9.770275115966796875e+00 2.607329189777374268e-01 4.833340167999267578e+00 1.528221964836120605e+00 8.830509185791015625e-01
3.659000000000000000e+03 3.391671752929687500e+01 1.911073803901672363e+00 1.412512660026550293e-01 -4.240360260009765625e-01 -8.483542501926422119e-02 -4.843790233135223389e-01
3.660000000000000000e+03 3.514237976074218750e+01 3.410842895507812500e+00 1.624735295772552490e-01 -3.019672334194183350e-01 -4.184811562299728394e-02 -5.161362886428833008e-01
3.661000000000000000e+03 6.633010864257812500e+01 3.032228469848632812e+00 2.955293059349060059e-01 4.903799533843994141e+00 1.559798717498779297e+00 6.189312934875488281e-01
3.662000000000000000e+03 6.792173767089843750e+01 1.072012305259704590e+00 2.344919890165328979e-01 5.312058448791503906e+00 1.663965106010437012e+00 5.495296120643615723e-01
3.663000000000000000e+03 3.260266113281250000e+01 -7.177113056182861328e+00 1.154048442840576172e-01 -6.250175833702087402e-01 -1.528838127851486206e-01 -3.043626546859741211e-01
3.664000000000000000e+03 3.136833381652832031e+01 -6.453020095825195312e+00 9.864094108343124390e-02 -7.815675139427185059e-01 -2.048779726028442383e-01 -3.067072033882141113e-01
3.665000000000000000e+03 3.338284301757812500e+01 -5.960187435150146484e+00 1.295450180768966675e-01 -5.181990265846252441e-01 -1.165962070226669312e-01 -3.260776996612548828e-01
3.666000000000000000e+03 3.394404220581054688e+01 -4.694391250610351562e+00 1.540555804967880249e-01 -4.382594227790832520e-01 -8.526115119457244873e-02 -3.488708138465881348e-01
3.667000000000000000e+03 3.630744934082031250e+01 1.634748840332031250e+01 -7.105934619903564453e-02 -1.560096144676208496e-01 -6.812068819999694824e-02 -7.282503247261047363e-01
3.668000000000000000e+03 6.808126831054687500e+01 -1.327809715270996094e+01 1.166881024837493896e-01 5.301957607269287109e+00 1.625593781471252441e+00 2.267689704895019531e-01
3.669000000000000000e+03 6.782457733154296875e+01 -9.526279449462890625e+00 1.467977464199066162e-01 5.239657878875732422e+00 1.615936756134033203e+00 3.025214076042175293e-01
3.670000000000000000e+03 6.488922882080078125e+01 -8.686449050903320312e+00 2.247854173183441162e-01 4.678371906280517578e+00 1.470947265625000000e+00 3.183385431766510010e-01
3.671000000000000000e+03 6.637628936767578125e+01 4.582783699035644531e+00 3.003739714622497559e-01 4.917413234710693359e+00 1.565336227416992188e+00 6.712934970855712891e-01
3.672000000000000000e+03 3.237382507324218750e+01 -2.183900070190429688e+01 8.129042387008666992e-02 -6.244148612022399902e-01 -1.629373282194137573e-01 -1.181857734918594360e-01
3.673000000000000000e+03 7.087989807128906250e+01 -2.046722221374511719e+01 4.670580849051475525e-02 5.750322341918945312e+00 1.739108443260192871e+00 1.223607286810874939e-01
3.674000000000000000e+03 3.095569610595703125e+01 -2.880393409729003906e+01 2.306530065834522247e-02 -8.182879686355590820e-01 -2.385668158531188965e-01 -7.067751139402389526e-02
3.675000000000000000e+03 2.735347175598144531e+01 -3.581006622314453125e+01 1.706009544432163239e-02 -1.344207406044006348e+00 -3.981442153453826904e-01 4.170632734894752502e-02
3.676000000000000000e+03 3.079314613342285156e+01 -3.500389099121093750e+01 7.465428858995437622e-02 -7.948615550994873047e-01 -2.160621732473373413e-01 1.673834212124347687e-02
3.677000000000000000e+03 6.908066558837890625e+01 2.606929397583007812e+01 -1.091464757919311523e+00 8.649377822875976562e+00 2.267374038696289062e+00 3.390112876892089844e+00
3.678000000000000000e+03 6.945117187500000000e+01 2.596148109436035156e+01 -1.286152839660644531e+00 9.334929466247558594e+00 2.414633035659790039e+00 3.136379718780517578e+00
3.679000000000000000e+03 6.754464721679687500e+01 2.447246742248535156e+01 -5.307883024215698242e-01 5.681155204772949219e+00 1.545110106468200684e+00 2.877332925796508789e+00
3.680000000000000000e+03 7.074333190917968750e+01 2.530059623718261719e+01 -1.644917964935302734e+00 1.055242347717285156e+01 2.672251462936401367e+00 1.749114990234375000e+00
3.681000000000000000e+03 6.653634643554687500e+01 2.473292732238769531e+01 -2.391827851533889771e-01 4.219683170318603516e+00 1.194150090217590332e+00 2.714756250381469727e+00
3.682000000000000000e+03 6.780284881591796875e+01 2.609919929504394531e+01 -3.726183176040649414e-01 5.848768711090087891e+00 1.642845153808593750e+00 3.579503774642944336e+00
3.683000000000000000e+03 7.000549316406250000e+01 2.511491966247558594e+01 -1.463888406753540039e+00 9.540264129638671875e+00 2.422912836074829102e+00 2.372581243515014648e+00
3.684000000000000000e+03 6.812541198730468750e+01 2.441441917419433594e+01 -7.557214498519897461e-01 6.585608959197998047e+00 1.748966217041015625e+00 2.860249996185302734e+00
3.685000000000000000e+03 3.908073806762695312e+01 2.213370323181152344e+01 -4.036815464496612549e-01 3.322692355141043663e-03 -1.201076582074165344e-01 -6.987244486808776855e-01
3.686000000000000000e+03 6.839865875244140625e+01 2.632816886901855469e+01 -6.135753989219665527e-01 7.107579231262207031e+00 1.948201179504394531e+00 3.742522001266479492e+00
3.687000000000000000e+03 4.295976638793945312e+01 2.247120857238769531e+01 -5.263519287109375000e-01 8.099224418401718140e-02 -1.336079090833663940e-01 -7.098678946495056152e-01
3.688000000000000000e+03 4.517726135253906250e+01 2.207916450500488281e+01 -5.210589766502380371e-01 1.200794130563735962e-01 -1.202938705682754517e-01 -7.012670040130615234e-01
3.689000000000000000e+03 6.540890502929687500e+01 2.403451156616210938e+01 -1.277099996805191040e-01 3.294964313507080078e+00 9.501762986183166504e-01 2.223253250122070312e+00
3.690000000000000000e+03 3.579323196411132812e+01 2.438210678100585938e+01 -4.101569950580596924e-01 -3.504038974642753601e-02 -1.335592120885848999e-01 -5.707682967185974121e-01
3.691000000000000000e+03 3.443388748168945312e+01 2.061560440063476562e+01 -2.199589759111404419e-01 -1.565880030393600464e-01 -1.129640936851501465e-01 -6.501439809799194336e-01
3.692000000000000000e+03 6.290295028686523438e+01 2.170867156982421875e+01 6.743444502353668213e-02 2.309194326400756836e+00 7.129886746406555176e-01 1.354795455932617188e+00
3.693000000000000000e+03 6.403136444091796875e+01 2.237297439575195312e+01 -1.967820571735501289e-03 2.770014047622680664e+00 8.304138779640197754e-01 1.682451009750366211e+00
3.694000000000000000e+03 5.243880462646484375e+01 2.313939857482910156e+01 -7.027695775032043457e-01 2.159315794706344604e-01 -1.460514068603515625e-01 -4.494013786315917969e-01
3.695000000000000000e+03 4.989111709594726562e+01 2.365849113464355469e+01 -8.100333213806152344e-01 1.444749683141708374e-01 -1.996675133705139160e-01 -5.728440880775451660e-01
3.696000000000000000e+03 6.647141265869140625e+01 3.615061569213867188e+01 5.935611128807067871e-01 3.672919273376464844e+00 1.279944062232971191e+00 -1.798707008361816406e+00
3.697000000000000000e+03 4.668128204345703125e+01 2.169121551513671875e+01 -4.848015010356903076e-01 1.529158502817153931e-01 -9.956569224596023560e-02 -6.786957383155822754e-01
3.698000000000000000e+03 4.828529739379882812e+01 2.229160690307617188e+01 -5.708028078079223633e-01 1.680245846509933472e-01 -1.208334639668464661e-01 -6.361282467842102051e-01
3.699000000000000000e+03 4.914673995971679688e+01 2.151027870178222656e+01 -4.495394825935363770e-01 2.192879170179367065e-01 -6.907547265291213989e-02 -5.989039540290832520e-01
3.700000000000000000e+03 4.746562194824218750e+01 2.154215621948242188e+01 -4.676933586597442627e-01 1.718575656414031982e-01 -8.875073492527008057e-02 -6.580543518066406250e-01
3.701000000000000000e+03 4.753292846679687500e+01 2.237866592407226562e+01 -5.828619003295898438e-01 1.505627334117889404e-01 -1.296897530555725098e-01 -6.562244892120361328e-01
3.702000000000000000e+03 5.434322357177734375e+01 2.257953643798828125e+01 -5.294507145881652832e-01 3.380424678325653076e-01 -5.742247030138969421e-02 -2.859891653060913086e-01
3.703000000000000000e+03 5.891160202026367188e+01 2.101290893554687500e+01 2.322968281805515289e-02 1.121645689010620117e+00 3.434626162052154541e-01 4.646537005901336670e-01
3.704000000000000000e+03 5.506857299804687500e+01 2.273813056945800781e+01 -5.359447598457336426e-01 3.594950139522552490e-01 -5.293492600321769714e-02 -2.212376147508621216e-01
3.705000000000000000e+03 6.108079147338867188e+01 2.117580032348632812e+01 9.351841360330581665e-02 1.686795592308044434e+00 5.340942144393920898e-01 9.084535837173461914e-01
3.706000000000000000e+03 6.313879013061523438e+01 2.110173034667968750e+01 9.794096648693084717e-02 2.592970132827758789e+00 8.072733283042907715e-01 1.409418702125549316e+00
3.707000000000000000e+03 4.068636322021484375e+01 2.280513572692871094e+01 -4.959155023097991943e-01 4.367442801594734192e-02 -1.356723159551620483e-01 -6.964318156242370605e-01
3.708000000000000000e+03 4.224835586547851562e+01 2.346161079406738281e+01 -6.021001935005187988e-01 7.135561853647232056e-02 -1.592233777046203613e-01 -6.826018691062927246e-01
3.709000000000000000e+03 5.574422454833984375e+01 2.173953056335449219e+01 -2.880313694477081299e-01 5.124488472938537598e-01 6.732524186372756958e-02 -9.495335817337036133e-02
3.710000000000000000e+03 5.673004150390625000e+01 2.003922653198242188e+01 2.930807322263717651e-02 8.504355549812316895e-01 2.639231085777282715e-01 1.343863308429718018e-01
3.711000000000000000e+03 6.699810791015625000e+01 2.448440170288085938e+01 -3.919319510459899902e-01 4.880261898040771484e+00 1.346499085426330566e+00 2.749510049819946289e+00
3.712000000000000000e+03 5.634900283813476562e+01 2.193470954895019531e+01 -3.019878268241882324e-01 5.526283979415893555e-01 7.519218325614929199e-02 -2.989440597593784332e-02
3.713000000000000000e+03 5.758736419677734375e+01 2.065136337280273438e+01 1.194492634385824203e-02 9.435729980468750000e-01 2.866553664207458496e-01 2.465811371803283691e-01
3.714000000000000000e+03 6.980058288574218750e+01 2.148651695251464844e+01 -9.734256863594055176e-01 7.530249595642089844e+00 1.967047214508056641e+00 1.651607275009155273e+00
3.715000000000000000e+03 3.542280197143554688e+01 1.241874122619628906e+01 4.584041982889175415e-02 -2.449880987405776978e-01 -5.974430218338966370e-02 -6.916090250015258789e-01
3.716000000000000000e+03 3.536352157592773438e+01 1.485393619537353516e+01 -2.181011997163295746e-02 -2.207047790288925171e-01 -7.275446504354476929e-02 -7.103872299194335938e-01
3.717000000000000000e+03 5.960679244995117188e+01 2.102077674865722656e+01 4.954897984862327576e-02 1.269079685211181641e+00 3.955886065959930420e-01 5.903155207633972168e-01
3.718000000000000000e+03 6.706912231445312500e+01 1.990001487731933594e+01 -3.148612082004547119e-01 5.295138359069824219e+00 1.494083046913146973e+00 1.762724041938781738e+00
3.719000000000000000e+03 6.683548736572265625e+01 1.917032432556152344e+01 -2.177976518869400024e-01 5.095766067504882812e+00 1.463390469551086426e+00 1.651352286338806152e+00
3.720000000000000000e+03 3.647273635864257812e+01 2.347250175476074219e+01 -3.983023166656494141e-01 -3.597719594836235046e-02 -1.302838474512100220e-01 -6.161471009254455566e-01
3.721000000000000000e+03 3.708893966674804688e+01 2.421642303466796875e+01 -4.550814032554626465e-01 -8.791007101535797119e-03 -1.391617208719253540e-01 -6.024166345596313477e-01
3.722000000000000000e+03 6.183346557617187500e+01 2.060931396484375000e+01 1.448702812194824219e-01 2.112523794174194336e+00 6.772182583808898926e-01 1.086270093917846680e+00
3.723000000000000000e+03 3.930383300781250000e+01 2.381865310668945312e+01 -5.244608521461486816e-01 2.796750888228416443e-02 -1.489479988813400269e-01 -6.472127437591552734e-01
3.724000000000000000e+03 6.919965362548828125e+01 1.706925964355468750e+01 -3.195198178291320801e-01 6.324300289154052734e+00 1.801434159278869629e+00 1.222646474838256836e+00
3.725000000000000000e+03 5.085789108276367188e+01 2.349133491516113281e+01 -7.929569482803344727e-01 1.689814627170562744e-01 -1.871926486492156982e-01 -5.370850563049316406e-01
3.726000000000000000e+03 5.025932693481445312e+01 2.296554946899414062e+01 -6.960667967796325684e-01 1.759022772312164307e-01 -1.560493558645248413e-01 -5.630396008491516113e-01
3.727000000000000000e+03 3.354927444458007812e+01 2.247298812866210938e+01 -2.697254717350006104e-01 -1.304625570774078369e-01 -1.200564056634902954e-01 -5.800256133079528809e-01
3.728000000000000000e+03 3.471248245239257812e+01 1.910517883300781250e+01 -1.705347001552581787e-01 -1.774281114339828491e-01 -1.043888404965400696e-01 -6.836575269699096680e-01
3.729000000000000000e+03 3.563136291503906250e+01 1.846341514587402344e+01 -1.548164188861846924e-01 -1.572779566049575806e-01 -9.362830966711044312e-02 -7.092776894569396973e-01
3.730000000000000000e+03 6.835068511962890625e+01 1.640087318420410156e+01 -1.868825554847717285e-01 5.816675662994384766e+00 1.688938021659851074e+00 1.247790694236755371e+00
3.731000000000000000e+03 6.830229187011718750e+01 1.355562400817871094e+01 1.247270777821540833e-02 5.629526615142822266e+00 1.692599773406982422e+00 1.047990441322326660e+00
3.732000000000000000e+03 6.745513916015625000e+01 1.578275871276855469e+01 -7.113433629274368286e-02 5.348851680755615234e+00 1.583315253257751465e+00 1.262692451477050781e+00
3.733000000000000000e+03 3.287492370605468750e+01 2.323963737487792969e+01 -2.693662345409393311e-01 -1.306192129850387573e-01 -1.199956387281417847e-01 -5.436213612556457520e-01
3.734000000000000000e+03 6.717176055908203125e+01 8.438622474670410156e+00 2.410670965909957886e-01 5.122325897216796875e+00 1.609017968177795410e+00 8.268563151359558105e-01
3.735000000000000000e+03 3.745183181762695312e+01 2.272135162353515625e+01 -3.913571238517761230e-01 -2.670664526522159576e-02 -1.254191249608993530e-01 -6.602287888526916504e-01
3.736000000000000000e+03 3.774708938598632812e+01 2.344029235839843750e+01 -4.445256888866424561e-01 -4.944075830280780792e-03 -1.348409354686737061e-01 -6.417587399482727051e-01
3.737000000000000000e+03 3.457128906250000000e+01 2.470040702819824219e+01 -3.727746605873107910e-01 -5.626925081014633179e-02 -1.287131756544113159e-01 -5.242381691932678223e-01
3.738000000000000000e+03 3.565517044067382812e+01 9.957806587219238281e+00 1.059376075863838196e-01 -2.440571635961532593e-01 -4.143586754798889160e-02 -6.557921171188354492e-01
3.739000000000000000e+03 3.505901718139648438e+01 1.706139755249023438e+01 -9.773302823305130005e-02 -2.006450295448303223e-01 -8.951341360807418823e-02 -7.077264785766601562e-01
3.740000000000000000e+03 6.450178527832031250e+01 -2.482158660888671875e+00 3.028505444526672363e-01 4.523069858551025391e+00 1.447776079177856445e+00 4.399278461933135986e-01
3.741000000000000000e+03 6.675935363769531250e+01 1.189478874206542969e+01 1.802830696105957031e-01 4.991624355316162109e+00 1.551572203636169434e+00 9.830974936485290527e-01
3.742000000000000000e+03 6.526947784423828125e+01 1.153101253509521484e+01 2.653298079967498779e-01 4.479563236236572266e+00 1.423467874526977539e+00 9.492924809455871582e-01
3.743000000000000000e+03 6.642223358154296875e+01 6.096274852752685547e+00 2.922683954238891602e-01 4.922434806823730469e+00 1.564410924911499023e+00 7.287223339080810547e-01
3.744000000000000000e+03 3.519826889038085938e+01 1.782263946533203125e+01 -1.253416240215301514e-01 -1.834204345941543579e-01 -9.262862056493759155e-02 -7.066372036933898926e-01
3.745000000000000000e+03 3.527236175537109375e+01 2.094273567199707031e+00 1.656405776739120483e-01 -2.859904468059539795e-01 -3.610496222972869873e-02 -4.852983951568603516e-01
3.746000000000000000e+03 3.670035552978515625e+01 9.597513675689697266e-01 1.998629868030548096e-01 -1.404510885477066040e-01 1.782357320189476013e-02 -4.564518928527832031e-01
3.747000000000000000e+03 3.170030975341796875e+01 -9.760349273681640625e+00 1.070127636194229126e-01 -7.321001291275024414e-01 -1.875262111425399780e-01 -2.539868950843811035e-01
3.748000000000000000e+03 6.561622619628906250e+01 -1.200072669982910156e+01 1.699982285499572754e-01 4.808091640472412109e+00 1.493426918983459473e+00 2.584564685821533203e-01
3.749000000000000000e+03 6.687107086181640625e+01 -1.359271240234375000e+01 1.318143457174301147e-01 5.046546459197998047e+00 1.553508281707763672e+00 2.326784580945968628e-01
3.750000000000000000e+03 6.608079528808593750e+01 -9.117901802062988281e+00 1.889430582523345947e-01 4.908924102783203125e+00 1.529360055923461914e+00 3.065784871578216553e-01
3.751000000000000000e+03 6.685250854492187500e+01 -7.778792381286621094e+00 1.889885962009429932e-01 5.069174766540527344e+00 1.577448964118957520e+00 3.342202007770538330e-01
3.752000000000000000e+03 3.458726119995117188e+01 -6.486792564392089844e+00 1.507334709167480469e-01 -3.572860956192016602e-01 -6.196579337120056152e-02 -3.171014189720153809e-01
3.753000000000000000e+03 6.372077560424804688e+01 3.576919317245483398e+00 3.788568079471588135e-01 4.210962295532226562e+00 1.376945734024047852e+00 5.965269207954406738e-01
3.754000000000000000e+03 3.625310897827148438e+01 -1.510231113433837891e+01 1.381593346595764160e-01 -8.195075392723083496e-02 1.686257682740688324e-02 -1.773124635219573975e-01
3.755000000000000000e+03 3.511709976196289062e+01 -8.649428367614746094e+00 1.555209457874298096e-01 -2.766548693180084229e-01 -3.634018078446388245e-02 -2.747043371200561523e-01
3.756000000000000000e+03 3.500348281860351562e+01 4.729599952697753906e+00 1.531232297420501709e-01 -3.114327490329742432e-01 -4.749286174774169922e-02 -5.472235083580017090e-01
3.757000000000000000e+03 3.598594665527343750e+01 7.471823692321777344e+00 1.452256739139556885e-01 -2.216084152460098267e-01 -2.291482128202915192e-02 -6.073706746101379395e-01
3.758000000000000000e+03 6.529048919677734375e+01 -4.324356555938720703e+00 2.641948163509368896e-01 4.701386928558349609e+00 1.489674448966979980e+00 4.114781022071838379e-01
3.759000000000000000e+03 6.743521881103515625e+01 -6.232962131500244141e+00 1.921854317188262939e-01 5.189335346221923828e+00 1.614456176757812500e+00 3.672202229499816895e-01
3.760000000000000000e+03 3.471041870117187500e+01 -2.428682518005371094e+01 7.733190804719924927e-02 -2.731536030769348145e-01 -5.874650925397872925e-02 -9.283112734556198120e-02
3.761000000000000000e+03 3.230901718139648438e+01 -2.581311798095703125e+01 5.479084327816963196e-02 -6.370519399642944336e-01 -1.746783405542373657e-01 -8.481433987617492676e-02
3.762000000000000000e+03 6.734127807617187500e+01 2.358189010620117188e+01 -5.126121044158935547e-01 5.489223003387451172e+00 1.492983222007751465e+00 2.580919504165649414e+00
3.763000000000000000e+03 6.700770568847656250e+01 2.319901084899902344e+01 -4.360611438751220703e-01 5.184975147247314453e+00 1.424674272537231445e+00 2.448684215545654297e+00
3.764000000000000000e+03 6.994011688232421875e+01 2.435617256164550781e+01 -1.378048777580261230e+00 8.906240463256835938e+00 2.258457422256469727e+00 2.181234598159790039e+00
3.765000000000000000e+03 7.037718200683593750e+01 2.477041816711425781e+01 -1.526944041252136230e+00 9.704152107238769531e+00 2.453162431716918945e+00 1.938957452774047852e+00
3.766000000000000000e+03 4.294382476806640625e+01 2.161945915222167969e+01 -4.447025060653686523e-01 8.277383446693420410e-02 -1.085785999894142151e-01 -7.247791886329650879e-01
3.767000000000000000e+03 4.437225341796875000e+01 2.147805404663085938e+01 -4.464753568172454834e-01 1.138435602188110352e-01 -9.978954493999481201e-02 -7.182939648628234863e-01
3.768000000000000000e+03 4.506037139892578125e+01 2.134117507934570312e+01 -4.367600679397583008e-01 1.294046491384506226e-01 -9.220661967992782593e-02 -7.080385088920593262e-01
3.769000000000000000e+03 6.535382843017578125e+01 2.349212074279785156e+01 -1.228479519486427307e-01 3.457739114761352539e+00 1.000467300415039062e+00 2.133090734481811523e+00
3.770000000000000000e+03 6.617411041259765625e+01 2.316219329833984375e+01 -2.288699448108673096e-01 4.239350795745849609e+00 1.203144311904907227e+00 2.331991434097290039e+00
3.771000000000000000e+03 6.855795288085937500e+01 2.572824287414550781e+01 -8.174674510955810547e-01 7.345241546630859375e+00 1.958332300186157227e+00 3.387303352355957031e+00
3.772000000000000000e+03 6.344673538208007812e+01 2.208347892761230469e+01 3.246099501848220825e-02 2.504390001296997070e+00 7.610552906990051270e-01 1.504324197769165039e+00
3.773000000000000000e+03 4.220073699951171875e+01 2.259379196166992188e+01 -5.201043486595153809e-01 6.833406537771224976e-02 -1.355310827493667603e-01 -7.062572836875915527e-01
3.774000000000000000e+03 4.370372390747070312e+01 2.072553062438964844e+01 -3.690710961818695068e-01 1.041810885071754456e-01 -7.946699857711791992e-02 -7.291119098663330078e-01
3.775000000000000000e+03 6.486028289794921875e+01 2.225687217712402344e+01 -5.795679986476898193e-02 3.350903749465942383e+00 9.878841042518615723e-01 1.879487633705139160e+00
3.776000000000000000e+03 6.477458190917968750e+01 2.307218170166015625e+01 -7.173004001379013062e-02 3.050383567810058594e+00 8.935960531234741211e-01 1.930628180503845215e+00
3.777000000000000000e+03 6.034791564941406250e+01 2.107583236694335938e+01 7.559952884912490845e-02 1.475764989852905273e+00 4.654093682765960693e-01 7.450552582740783691e-01
3.778000000000000000e+03 5.141950607299804688e+01 2.288307571411132812e+01 -6.767872571945190430e-01 2.023275941610336304e-01 -1.423378884792327881e-01 -5.034924149513244629e-01
3.779000000000000000e+03 5.312220001220703125e+01 2.192456436157226562e+01 -4.452979266643524170e-01 3.345249295234680176e-01 -3.323189914226531982e-02 -3.680737614631652832e-01
3.780000000000000000e+03 6.659404754638671875e+01 2.368791580200195312e+01 -3.043155372142791748e-01 4.626700401306152344e+00 1.296715497970581055e+00 2.546125888824462891e+00
3.781000000000000000e+03 6.923127746582031250e+01 2.224897575378417969e+01 -9.198622107505798340e-01 7.204367637634277344e+00 1.885351657867431641e+00 1.944724917411804199e+00
3.782000000000000000e+03 4.828291702270507812e+01 2.147843742370605469e+01 -4.524681270122528076e-01 1.963794827461242676e-01 -7.682658731937408447e-02 -6.296123862266540527e-01
3.783000000000000000e+03 5.353691101074218750e+01 2.266381263732910156e+01 -5.708992481231689453e-01 2.846053540706634521e-01 -8.588815480470657349e-02 -3.606298863887786865e-01
3.784000000000000000e+03 5.399129867553710938e+01 2.135538101196289062e+01 -3.033823370933532715e-01 4.298841357231140137e-01 3.795053437352180481e-02 -2.677547037601470947e-01
3.785000000000000000e+03 4.297346115112304688e+01 2.074524307250976562e+01 -3.620764315128326416e-01 9.026937931776046753e-02 -8.154211938381195068e-02 -7.368752956390380859e-01
3.786000000000000000e+03 5.680563735961914062e+01 2.067642021179199219e+01 -4.198004677891731262e-02 8.049039840698242188e-01 2.288771867752075195e-01 1.016160994768142700e-01
3.787000000000000000e+03 5.872853851318359375e+01 2.036497879028320312e+01 9.647608548402786255e-02 1.200032353401184082e+00 3.889525234699249268e-01 4.524915516376495361e-01
3.788000000000000000e+03 6.974770355224609375e+01 2.228989028930664062e+01 -1.088978767395019531e+00 7.820836067199707031e+00 2.019557237625122070e+00 1.805536508560180664e+00
3.789000000000000000e+03 6.933885955810546875e+01 2.280165863037109375e+01 -1.051161050796508789e+00 7.592287540435791016e+00 1.962337970733642578e+00 2.066363096237182617e+00
3.790000000000000000e+03 3.432796478271484375e+01 2.292290496826171875e+01 -3.025121986865997314e-01 -1.036823168396949768e-01 -1.218583583831787109e-01 -5.871564149856567383e-01
3.791000000000000000e+03 3.889598464965820312e+01 2.467212295532226562e+01 -5.631341934204101562e-01 3.136166185140609741e-02 -1.595317572355270386e-01 -6.061552166938781738e-01
3.792000000000000000e+03 6.916330718994140625e+01 2.159981155395507812e+01 -8.486340641975402832e-01 7.008014202117919922e+00 1.847813963890075684e+00 1.837422490119934082e+00
3.793000000000000000e+03 5.463554763793945312e+01 2.186053657531738281e+01 -3.635955154895782471e-01 4.215352237224578857e-01 1.738191954791545868e-02 -2.298416197299957275e-01
3.794000000000000000e+03 5.598780822753906250e+01 2.082281494140625000e+01 -1.124090850353240967e-01 6.686381697654724121e-01 1.668687313795089722e-01 -2.356316428631544113e-03
3.795000000000000000e+03 5.524625778198242188e+01 2.123298263549804688e+01 -2.125553488731384277e-01 5.443029999732971191e-01 9.952428936958312988e-02 -1.235068291425704956e-01
3.796000000000000000e+03 5.590587234497070312e+01 1.931117248535156250e+01 9.722266346216201782e-02 8.786460161209106445e-01 2.927606105804443359e-01 4.883509129285812378e-02
3.797000000000000000e+03 3.582524871826171875e+01 2.352964210510253906e+01 -3.742415904998779297e-01 -5.318705365061759949e-02 -1.282285898923873901e-01 -5.994099378585815430e-01
3.798000000000000000e+03 6.652834320068359375e+01 1.742144966125488281e+01 -7.033593952655792236e-02 4.916117191314697266e+00 1.453734397888183594e+00 1.426375150680541992e+00
3.799000000000000000e+03 3.997357940673828125e+01 2.373902511596679688e+01 -5.420599579811096191e-01 3.837077319622039795e-02 -1.511067599058151245e-01 -6.570917963981628418e-01
3.800000000000000000e+03 6.752340698242187500e+01 1.881743240356445312e+01 -2.889024615287780762e-01 5.517457485198974609e+00 1.568566441535949707e+00 1.562838315963745117e+00
3.801000000000000000e+03 6.238928985595703125e+01 2.142272186279296875e+01 8.663868904113769531e-02 2.154412031173706055e+00 6.723152399063110352e-01 1.212574005126953125e+00
3.802000000000000000e+03 3.553693389892578125e+01 2.241959571838378906e+01 -3.206878304481506348e-01 -8.008922636508941650e-02 -1.202331185340881348e-01 -6.342734098434448242e-01
3.803000000000000000e+03 6.827449798583984375e+01 1.890723228454589844e+01 -4.165023565292358398e-01 5.997704982757568359e+00 1.674360752105712891e+00 1.545527935028076172e+00
3.804000000000000000e+03 6.778935241699218750e+01 1.957437896728515625e+01 -4.130808413028717041e-01 5.793785572052001953e+00 1.614211320877075195e+00 1.687545657157897949e+00
3.805000000000000000e+03 5.218432617187500000e+01 2.238164901733398438e+01 -5.664181113243103027e-01 2.501476705074310303e-01 -9.488112479448318481e-02 -4.532593488693237305e-01
3.806000000000000000e+03 3.919355010986328125e+01 2.301394844055175781e+01 -4.659613966941833496e-01 1.634322665631771088e-02 -1.348854601383209229e-01 -6.732900738716125488e-01
3.807000000000000000e+03 4.142417526245117188e+01 2.179624938964843750e+01 -4.325049221515655518e-01 5.328832566738128662e-02 -1.137649714946746826e-01 -7.242058515548706055e-01
3.808000000000000000e+03 5.085030364990234375e+01 2.219167327880859375e+01 -5.423385500907897949e-01 2.296297699213027954e-01 -9.381263703107833862e-02 -5.299065709114074707e-01
3.809000000000000000e+03 3.663288497924804688e+01 2.235774040222167969e+00 1.973117887973785400e-01 -1.496366560459136963e-01 1.430253963917493820e-02 -4.870077371597290039e-01
3.810000000000000000e+03 3.649709320068359375e+01 3.566674709320068359e+00 1.947550624608993530e-01 -1.641125530004501343e-01 9.192748926579952240e-03 -5.175930857658386230e-01
3.811000000000000000e+03 6.110607147216796875e+01 2.043891906738281250e+01 1.569285094738006592e-01 1.875859141349792480e+00 6.098362803459167480e-01 9.330405592918395996e-01
3.812000000000000000e+03 3.477663040161132812e+01 2.200283622741699219e+01 -2.789941728115081787e-01 -1.134932339191436768e-01 -1.177462264895439148e-01 -6.304936408996582031e-01
3.813000000000000000e+03 3.394000625610351562e+01 2.157291603088378906e+01 -2.418698221445083618e-01 -1.495130509138107300e-01 -1.174148619174957275e-01 -6.181016564369201660e-01
3.814000000000000000e+03 3.525385284423828125e+01 1.978833198547363281e+01 -1.992280930280685425e-01 -1.488752067089080811e-01 -1.044309884309768677e-01 -6.843733191490173340e-01
3.815000000000000000e+03 6.818156433105468750e+01 2.180908012390136719e+01 -6.980692744255065918e-01 6.317985534667968750e+00 1.685974955558776855e+00 2.076887845993041992e+00
3.816000000000000000e+03 6.780821228027343750e+01 1.464902496337890625e+01 -2.839546091854572296e-02 5.478299617767333984e+00 1.634971261024475098e+00 1.145901322364807129e+00
3.817000000000000000e+03 6.921555328369140625e+01 1.402131843566894531e+01 -8.525446802377700806e-02 6.033707141876220703e+00 1.784535765647888184e+00 1.043181538581848145e+00
3.818000000000000000e+03 3.644812774658203125e+01 1.778584861755371094e+01 -1.266948431730270386e-01 -1.344186365604400635e-01 -7.833404839038848877e-02 -7.286669015884399414e-01
3.819000000000000000e+03 4.737476730346679688e+01 2.062913513183593750e+01 -3.494858145713806152e-01 1.991208344697952271e-01 -4.510949179530143738e-02 -6.552965641021728516e-01
3.820000000000000000e+03 4.922196578979492188e+01 2.063861083984375000e+01 -3.324152231216430664e-01 2.522844970226287842e-01 -2.403921447694301605e-02 -5.853180885314941406e-01
3.821000000000000000e+03 6.634819030761718750e+01 7.614137649536132812e+00 2.812814116477966309e-01 4.876700878143310547e+00 1.547394752502441406e+00 7.868615984916687012e-01
3.822000000000000000e+03 3.541798019409179688e+01 7.738789319992065430e-01 1.784065663814544678e-01 -2.591255307197570801e-01 -2.421568706631660461e-02 -4.618049561977386475e-01
3.823000000000000000e+03 6.664917755126953125e+01 1.443491363525390625e+01 7.827074825763702393e-02 4.962797164916992188e+00 1.512320399284362793e+00 1.151563644409179688e+00
3.824000000000000000e+03 3.581990432739257812e+01 1.723987579345703125e+01 -1.059458181262016296e-01 -1.685093641281127930e-01 -8.233655244112014771e-02 -7.192786335945129395e-01
3.825000000000000000e+03 3.655021667480468750e+01 1.464361286163330078e+01 -7.436004932969808578e-03 -1.638774424791336060e-01 -5.139403417706489563e-02 -7.215768098831176758e-01
3.826000000000000000e+03 6.586512756347656250e+01 9.034232139587402344e+00 2.954106032848358154e-01 4.719017982482910156e+00 1.504328489303588867e+00 8.405081629753112793e-01
3.827000000000000000e+03 6.467050170898437500e+01 4.403518199920654297e+00 3.593134284019470215e-01 4.444937229156494141e+00 1.441275238990783691e+00 6.397174000740051270e-01
3.828000000000000000e+03 3.581606292724609375e+01 8.716520309448242188e+00 1.274674832820892334e-01 -2.366513460874557495e-01 -3.275515511631965637e-02 -6.315441727638244629e-01
3.829000000000000000e+03 3.778080368041992188e+01 1.349628257751464844e+01 4.129112139344215393e-02 -9.924209117889404297e-02 -1.738528907299041748e-02 -7.166848182678222656e-01
3.830000000000000000e+03 6.900958251953125000e+01 1.577870750427246094e+01 -1.878777742385864258e-01 6.054509639739990234e+00 1.759989619255065918e+00 1.156584739685058594e+00
3.831000000000000000e+03 6.461543273925781250e+01 1.085175395011901855e+00 3.307518661022186279e-01 4.484397411346435547e+00 1.444544792175292969e+00 5.426942110061645508e-01
3.832000000000000000e+03 6.556787872314453125e+01 5.245930671691894531e+00 3.310764729976654053e-01 4.674887657165527344e+00 1.501789212226867676e+00 6.865052580833435059e-01
3.833000000000000000e+03 3.667790985107421875e+01 1.123002624511718750e+01 9.518256038427352905e-02 -1.695199757814407349e-01 -2.230122126638889313e-02 -6.807425618171691895e-01
3.834000000000000000e+03 3.774093627929687500e+01 1.237405967712402344e+01 7.956885546445846558e-02 -1.021972224116325378e-01 -6.788509897887706757e-03 -6.981111168861389160e-01
3.835000000000000000e+03 6.447875213623046875e+01 -1.023783016204833984e+01 2.059785276651382446e-01 4.583758831024169922e+00 1.436921238899230957e+00 2.828980386257171631e-01
3.836000000000000000e+03 3.631743240356445312e+01 4.898327350616455078e+00 1.827006340026855469e-01 -1.890740543603897095e-01 -1.912025269120931625e-03 -5.497815608978271484e-01
3.837000000000000000e+03 3.458345031738281250e+01 8.610856056213378906e+00 1.050768271088600159e-01 -3.313133418560028076e-01 -6.787095218896865845e-02 -6.249421238899230957e-01
3.838000000000000000e+03 3.762859725952148438e+01 1.458597850799560547e+01 6.445259321480989456e-03 -1.029198244214057922e-01 -2.894236892461776733e-02 -7.272765040397644043e-01
3.839000000000000000e+03 3.610242462158203125e+01 1.909600067138671875e+01 -1.865110099315643311e-01 -1.316948086023330688e-01 -9.546174854040145874e-02 -7.084780335426330566e-01
3.840000000000000000e+03 3.518513870239257812e+01 -5.048217773437500000e+00 1.694347411394119263e-01 -2.757910788059234619e-01 -3.190689533948898315e-02 -3.442533016204833984e-01
3.841000000000000000e+03 3.569167327880859375e+01 -3.534507751464843750e+00 1.851765513420104980e-01 -2.172526866197586060e-01 -9.622843004763126373e-03 -3.686895966529846191e-01
3.842000000000000000e+03 6.360143661499023438e+01 -1.652734637260437012e+00 3.328366279602050781e-01 4.301472187042236328e+00 1.390292644500732422e+00 4.468120336532592773e-01
3.843000000000000000e+03 6.550651550292968750e+01 -7.262195110321044922e+00 2.189531028270721436e-01 4.779191017150878906e+00 1.499443173408508301e+00 3.499715030193328857e-01
3.844000000000000000e+03 3.724985122680664062e+01 -1.331575965881347656e+01 1.660021394491195679e-01 6.173436716198921204e-02 6.832095235586166382e-02 -1.875643283128738403e-01
3.845000000000000000e+03 6.466661834716796875e+01 -7.410768270492553711e-01 3.185599744319915771e-01 4.540801048278808594e+00 1.457808256149291992e+00 4.879636764526367188e-01
3.846000000000000000e+03 6.488845062255859375e+01 -5.478528022766113281e+00 2.613399326801300049e-01 4.645804405212402344e+00 1.472143292427062988e+00 3.959297239780426025e-01
3.847000000000000000e+03 6.648857116699218750e+01 -4.355171203613281250e+00 2.327141463756561279e-01 5.001316070556640625e+00 1.570209145545959473e+00 4.177137017250061035e-01
3.848000000000000000e+03 6.424879455566406250e+01 -1.569536590576171875e+01 1.495086103677749634e-01 4.553482532501220703e+00 1.410897374153137207e+00 1.934296339750289917e-01
3.849000000000000000e+03 6.860794830322265625e+01 2.522540092468261719e+01 -8.954086899757385254e-01 7.418404102325439453e+00 1.956898570060729980e+00 3.161463737487792969e+00
3.850000000000000000e+03 6.703485870361328125e+01 2.398881530761718750e+01 -3.879643082618713379e-01 5.051857471466064453e+00 1.399168014526367188e+00 2.671055793762207031e+00
3.851000000000000000e+03 6.826532745361328125e+01 2.236607170104980469e+01 -7.561281323432922363e-01 6.478952884674072266e+00 1.716847419738769531e+00 2.219925165176391602e+00
3.852000000000000000e+03 6.576073455810546875e+01 2.249864006042480469e+01 -1.745087355375289917e-01 4.020512580871582031e+00 1.153801202774047852e+00 2.120021820068359375e+00
3.853000000000000000e+03 6.870088195800781250e+01 2.424638557434082031e+01 -9.682187438011169434e-01 7.282966613769531250e+00 1.894424319267272949e+00 2.759709596633911133e+00
3.854000000000000000e+03 6.892579650878906250e+01 2.558740806579589844e+01 -1.028613924980163574e+00 8.170755386352539062e+00 2.142642498016357422e+00 3.165385484695434570e+00
3.855000000000000000e+03 6.968618011474609375e+01 2.473920822143554688e+01 -1.357321023941040039e+00 8.849941253662109375e+00 2.247786045074462891e+00 2.470796346664428711e+00
3.856000000000000000e+03 6.965457916259765625e+01 2.536826324462890625e+01 -1.371536135673522949e+00 9.329828262329101562e+00 2.387487649917602539e+00 2.700074911117553711e+00
3.857000000000000000e+03 6.866719818115234375e+01 2.364171218872070312e+01 -9.134379625320434570e-01 7.080333709716796875e+00 1.850068807601928711e+00 2.480326414108276367e+00
3.858000000000000000e+03 4.434249877929687500e+01 2.076284027099609375e+01 -3.723039627075195312e-01 1.203237548470497131e-01 -7.559406012296676636e-02 -7.232882380485534668e-01
3.859000000000000000e+03 6.818582916259765625e+01 2.286464309692382812e+01 -7.380639314651489258e-01 6.395875930786132812e+00 1.697343587875366211e+00 2.369471073150634766e+00
3.860000000000000000e+03 4.218922805786132812e+01 2.170425796508789062e+01 -4.388333261013031006e-01 6.906869262456893921e-02 -1.109293848276138306e-01 -7.266718149185180664e-01
3.861000000000000000e+03 4.220018386840820312e+01 2.080632400512695312e+01 -3.588060140609741211e-01 7.022345066070556641e-02 -8.657477051019668579e-02 -7.394213080406188965e-01
3.862000000000000000e+03 6.804920196533203125e+01 2.378226280212402344e+01 -7.268103361129760742e-01 6.368141174316406250e+00 1.692399263381958008e+00 2.607346296310424805e+00
3.863000000000000000e+03 6.374061965942382812e+01 2.143501091003417969e+01 5.414927750825881958e-02 2.866327047348022461e+00 8.761428594589233398e-01 1.548013091087341309e+00
3.864000000000000000e+03 6.433300781250000000e+01 2.179286766052246094e+01 -5.306319799274206161e-03 3.112433910369873047e+00 9.321382641792297363e-01 1.721679806709289551e+00
3.865000000000000000e+03 6.332467651367187500e+01 2.044064712524414062e+01 1.092845723032951355e-01 2.825871944427490234e+00 8.805469274520874023e-01 1.406083941459655762e+00
3.866000000000000000e+03 4.141638183593750000e+01 2.088353538513183594e+01 -3.563633263111114502e-01 5.107632279396057129e-02 -9.158610552549362183e-02 -7.383590340614318848e-01
3.867000000000000000e+03 4.964771652221679688e+01 2.251212120056152344e+01 -6.232380867004394531e-01 1.812637448310852051e-01 -1.325922906398773193e-01 -5.839759707450866699e-01
3.868000000000000000e+03 5.005770492553710938e+01 2.169511413574218750e+01 -4.705571830272674561e-01 2.305769473314285278e-01 -7.199407368898391724e-02 -5.594674348831176758e-01
3.869000000000000000e+03 5.827808380126953125e+01 2.083846664428710938e+01 1.479309238493442535e-02 1.044462680816650391e+00 3.177767395973205566e-01 3.470364511013031006e-01
3.870000000000000000e+03 5.951193237304687500e+01 2.025203704833984375e+01 1.345043927431106567e-01 1.418164253234863281e+00 4.658005833625793457e-01 6.051723957061767578e-01
3.871000000000000000e+03 5.470443344116210938e+01 2.076860618591308594e+01 -1.637950390577316284e-01 5.605543851852416992e-01 1.190278008580207825e-01 -1.602744609117507935e-01
3.872000000000000000e+03 5.586635208129882812e+01 2.010605430603027344e+01 -2.026356011629104614e-02 7.627467513084411621e-01 2.227449566125869751e-01 7.814278826117515564e-03
3.873000000000000000e+03 6.418913269042968750e+01 2.005360794067382812e+01 6.085667014122009277e-02 3.366359949111938477e+00 1.028164982795715332e+00 1.546590089797973633e+00
3.874000000000000000e+03 6.868091583251953125e+01 2.175554656982421875e+01 -7.889056205749511719e-01 6.653601646423339844e+00 1.759408712387084961e+00 2.004489421844482422e+00
3.875000000000000000e+03 6.873294067382812500e+01 2.298295402526855469e+01 -8.971243500709533691e-01 7.001519680023193359e+00 1.831318497657775879e+00 2.266262769699096680e+00
3.876000000000000000e+03 6.251066589355468750e+01 2.081907081604003906e+01 1.263176947832107544e-01 2.329273223876953125e+00 7.366772294044494629e-01 1.235724329948425293e+00
3.877000000000000000e+03 5.748473358154296875e+01 1.986812973022460938e+01 9.670577943325042725e-02 1.052636265754699707e+00 3.448025882244110107e-01 2.615604400634765625e-01
3.878000000000000000e+03 3.651128005981445312e+01 1.969454383850097656e+01 -2.112464308738708496e-01 -1.067678853869438171e-01 -9.540429711341857910e-02 -7.118517756462097168e-01
3.879000000000000000e+03 5.502807998657226562e+01 2.012626457214355469e+01 -5.333142727613449097e-02 6.545521020889282227e-01 1.803662031888961792e-01 -9.289832413196563721e-02
3.880000000000000000e+03 3.844573593139648438e+01 2.323404502868652344e+01 -4.585564732551574707e-01 4.334739875048398972e-03 -1.362665146589279175e-01 -6.547518968582153320e-01
3.881000000000000000e+03 3.988493728637695312e+01 2.199435234069824219e+01 -4.137538373470306396e-01 2.032223343849182129e-02 -1.180294826626777649e-01 -7.103756070137023926e-01
3.882000000000000000e+03 6.032262039184570312e+01 2.030134010314941406e+01 1.537408828735351562e-01 1.633288741111755371e+00 5.361088514328002930e-01 7.671743631362915039e-01
3.883000000000000000e+03 6.698509216308593750e+01 1.670135879516601562e+01 -7.702732086181640625e-02 5.125092506408691406e+00 1.514419674873352051e+00 1.359877347946166992e+00
3.884000000000000000e+03 3.700619506835937500e+01 1.546739292144775391e+01 -3.441730514168739319e-02 -1.350984722375869751e-01 -5.085473507642745972e-02 -7.312695980072021484e-01
3.885000000000000000e+03 3.977509689331054688e+01 2.012989997863769531e+01 -2.827963829040527344e-01 2.675074152648448944e-03 -8.403638750314712524e-02 -7.402487397193908691e-01
3.886000000000000000e+03 4.062752532958984375e+01 2.097067832946777344e+01 -3.533545434474945068e-01 3.116656281054019928e-02 -9.665639698505401611e-02 -7.349960803985595703e-01
3.887000000000000000e+03 4.576130676269531250e+01 2.112061500549316406e+01 -4.144850075244903564e-01 1.440619677305221558e-01 -8.112691342830657959e-02 -6.977159976959228516e-01
3.888000000000000000e+03 5.007814788818359375e+01 1.870975685119628906e+01 -6.517333537340164185e-02 4.034462571144104004e-01 1.014818772673606873e-01 -4.854719042778015137e-01
3.889000000000000000e+03 3.822879028320312500e+01 2.231882095336914062e+01 -3.887927830219268799e-01 -1.560133229941129684e-02 -1.213182285428047180e-01 -6.819902658462524414e-01
3.890000000000000000e+03 6.193962097167968750e+01 1.991020584106445312e+01 1.913439631462097168e-01 2.283466815948486328e+00 7.424432039260864258e-01 1.100106954574584961e+00
3.891000000000000000e+03 3.586787033081054688e+01 2.036716079711914062e+01 -2.371091991662979126e-01 -1.154865771532058716e-01 -1.057787314057350159e-01 -6.859284043312072754e-01
3.892000000000000000e+03 3.790048980712890625e+01 7.826940417289733887e-01 2.342660725116729736e-01 7.104812655597925186e-03 7.241126894950866699e-02 -4.437030851840972900e-01
3.893000000000000000e+03 3.785139083862304688e+01 3.722791194915771484e+00 2.210808098316192627e-01 -2.850325033068656921e-02 5.777326598763465881e-02 -5.140752196311950684e-01
3.894000000000000000e+03 6.779565429687500000e+01 1.731391525268554688e+01 -2.048965096473693848e-01 5.578915596008300781e+00 1.612205743789672852e+00 1.393255352973937988e+00
3.895000000000000000e+03 3.614671325683593750e+01 6.203857898712158203e+00 1.671178936958312988e-01 -2.064038664102554321e-01 -1.178579125553369522e-02 -5.824335813522338867e-01
3.896000000000000000e+03 3.683443832397460938e+01 1.004819297790527344e+01 1.258269101381301880e-01 -1.583398431539535522e-01 -9.753877297043800354e-03 -6.596045494079589844e-01
3.897000000000000000e+03 6.729210662841796875e+01 2.064462471008300781e+01 -4.033620655536651611e-01 5.442421436309814453e+00 1.511717796325683594e+00 1.898799657821655273e+00
3.898000000000000000e+03 6.805399322509765625e+01 2.036270904541015625e+01 -5.188574194908142090e-01 5.995860099792480469e+00 1.643100857734680176e+00 1.791582822799682617e+00
3.899000000000000000e+03 5.836474609375000000e+01 1.958281517028808594e+01 1.692687571048736572e-01 1.258664250373840332e+00 4.283799231052398682e-01 4.143872261047363281e-01
3.900000000000000000e+03 4.592023849487304688e+01 2.189075088500976562e+01 -5.044032931327819824e-01 1.365113556385040283e-01 -1.103675812482833862e-01 -6.923868656158447266e-01
3.901000000000000000e+03 3.619731521606445312e+01 2.283991241455078125e+01 -3.612120449542999268e-01 -5.473613366484642029e-02 -1.247844472527503967e-01 -6.331621408462524414e-01
3.902000000000000000e+03 6.472147369384765625e+01 1.065020561218261719e+01 3.188231885433197021e-01 4.300636291503906250e+00 1.385837793350219727e+00 8.841123580932617188e-01
3.903000000000000000e+03 6.504694366455078125e+01 9.404318809509277344e+00 3.220304548740386963e-01 4.441723823547363281e+00 1.429126262664794922e+00 8.308092951774597168e-01
3.904000000000000000e+03 6.552536773681640625e+01 1.022031307220458984e+01 2.818868160247802734e-01 4.598466396331787109e+00 1.464105963706970215e+00 8.852695226669311523e-01
3.905000000000000000e+03 3.941785430908203125e+01 1.424608898162841797e+01 3.301286697387695312e-02 -1.877783611416816711e-02 4.270508419722318649e-03 -7.211194038391113281e-01
3.906000000000000000e+03 6.250141906738281250e+01 1.030883908271789551e+00 3.877979815006256104e-01 3.968557834625244141e+00 1.306906700134277344e+00 4.888263344764709473e-01
3.907000000000000000e+03 6.455269622802734375e+01 2.805500268936157227e+00 3.508609831333160400e-01 4.435482501983642578e+00 1.435903072357177734e+00 5.904643535614013672e-01
3.908000000000000000e+03 3.777908325195312500e+01 1.128220558166503906e+01 1.106288731098175049e-01 -9.548381716012954712e-02 4.543518181890249252e-03 -6.820834875106811523e-01
3.909000000000000000e+03 6.266493988037109375e+01 -2.633178949356079102e+00 3.434832990169525146e-01 4.100905895233154297e+00 1.333316802978515625e+00 4.088368415832519531e-01
3.910000000000000000e+03 3.564349365234375000e+01 -5.612799525260925293e-01 1.949693411588668823e-01 -2.319660335779190063e-01 -1.109900604933500290e-02 -4.287587404251098633e-01
3.911000000000000000e+03 6.557732391357421875e+01 6.736492633819580078e+00 3.207589089870452881e-01 4.647563457489013672e+00 1.490496635437011719e+00 7.433619499206542969e-01
3.912000000000000000e+03 6.354235076904296875e+01 -8.274638175964355469e+00 2.531813383102416992e-01 4.379873752593994141e+00 1.389916539192199707e+00 3.164317905902862549e-01
3.913000000000000000e+03 6.476953125000000000e+01 5.919581890106201172e+00 3.559091985225677490e-01 4.440249919891357422e+00 1.438847780227661133e+00 6.922657489776611328e-01
3.914000000000000000e+03 6.358374023437500000e+01 1.441616714000701904e-01 3.559814691543579102e-01 4.262268066406250000e+00 1.385474920272827148e+00 4.944453835487365723e-01
3.915000000000000000e+03 3.759457778930664062e+01 5.083703994750976562e+00 2.158472985029220581e-01 -6.192784756422042847e-02 4.617583379149436951e-02 -5.463244915008544922e-01
3.916000000000000000e+03 6.428143310546875000e+01 -1.194191360473632812e+01 1.890747249126434326e-01 4.546717166900634766e+00 1.420737504959106445e+00 2.541925609111785889e-01
3.917000000000000000e+03 3.643952560424804688e+01 -5.518516540527343750e+00 1.879918277263641357e-01 -1.222450882196426392e-01 1.972402073442935944e-02 -3.217256069183349609e-01
3.918000000000000000e+03 3.586321258544921875e+01 -1.992123365402221680e+00 1.902196854352951050e-01 -2.041429728269577026e-01 -4.176986403763294220e-03 -3.979351520538330078e-01
3.919000000000000000e+03 3.696596908569335938e+01 -4.032885551452636719e+00 2.114471495151519775e-01 -5.861045792698860168e-02 4.585100710391998291e-02 -3.488441705703735352e-01
3.920000000000000000e+03 6.611878204345703125e+01 -1.742573738098144531e+01 1.137572228908538818e-01 4.916367053985595703e+00 1.509037256240844727e+00 1.776471436023712158e-01
3.921000000000000000e+03 6.357181167602539062e+01 1.922696352005004883e+00 3.702615499496459961e-01 4.209586143493652344e+00 1.373954415321350098e+00 5.434165000915527344e-01
3.922000000000000000e+03 3.383296585083007812e+01 -7.856139659881591797e+00 1.359390169382095337e-01 -4.535308182239532471e-01 -9.527754038572311401e-02 -2.928284704685211182e-01
3.923000000000000000e+03 3.728260421752929688e+01 -7.576800823211669922e+00 1.971800625324249268e-01 1.187014207243919373e-02 6.271506100893020630e-02 -2.771134674549102783e-01
3.924000000000000000e+03 6.420731353759765625e+01 -1.376051044464111328e+01 1.765387058258056641e-01 4.544838428497314453e+00 1.416413068771362305e+00 2.281240075826644897e-01
3.925000000000000000e+03 6.082475662231445312e+01 -1.748671722412109375e+01 1.680908054113388062e-01 3.944835901260375977e+00 1.233878016471862793e+00 1.599996089935302734e-01
3.926000000000000000e+03 3.859614562988281250e+01 1.507269382476806641e+01 5.996928666718304157e-05 -5.578858777880668640e-02 -1.671858504414558411e-02 -7.331268787384033203e-01
3.927000000000000000e+03 6.419700622558593750e+01 -6.761603832244873047e+00 2.578645348548889160e-01 4.499663829803466797e+00 1.427258491516113281e+00 3.534509837627410889e-01
3.928000000000000000e+03 3.655158233642578125e+01 -2.001154136657714844e+01 1.200096458196640015e-01 7.382820826023817062e-03 3.821773827075958252e-02 -1.176493987441062927e-01
3.929000000000000000e+03 3.726885986328125000e+01 7.629687309265136719e+00 1.689383536577224731e-01 -1.190672591328620911e-01 1.496132649481296539e-02 -6.068309545516967773e-01
3.930000000000000000e+03 6.322347259521484375e+01 -2.283632087707519531e+01 1.036423891782760620e-01 4.383958816528320312e+00 1.346280336380004883e+00 1.104056164622306824e-01
3.931000000000000000e+03 6.751803588867187500e+01 2.397253227233886719e+01 -5.408807992935180664e-01 5.687961101531982422e+00 1.544124007225036621e+00 2.735292911529541016e+00
3.932000000000000000e+03 6.745714569091796875e+01 2.281503677368164062e+01 -5.477592349052429199e-01 5.632715225219726562e+00 1.525486826896667480e+00 2.350566625595092773e+00
3.933000000000000000e+03 6.781303405761718750e+01 2.326707458496093750e+01 -6.535927653312683105e-01 6.046104907989501953e+00 1.617753624916076660e+00 2.480307817459106445e+00
3.934000000000000000e+03 4.386749649047851562e+01 1.986446952819824219e+01 -2.799684107303619385e-01 1.222676411271095276e-01 -4.731023311614990234e-02 -7.306201457977294922e-01
3.935000000000000000e+03 4.305342864990234375e+01 1.810212516784667969e+01 -1.367672681808471680e-01 1.151085421442985535e-01 -6.497618742287158966e-03 -7.316145896911621094e-01
3.936000000000000000e+03 3.982827377319335938e+01 2.107932662963867188e+01 -3.492731750011444092e-01 1.119152177125215530e-02 -1.014244928956031799e-01 -7.280383110046386719e-01
3.937000000000000000e+03 6.524518585205078125e+01 2.286550903320312500e+01 -1.140808463096618652e-01 3.509760856628417969e+00 1.018703937530517578e+00 2.040561437606811523e+00
3.938000000000000000e+03 6.399396896362304688e+01 2.077494430541992188e+01 5.446693673729896545e-02 3.137631893157958984e+00 9.576296210289001465e-01 1.554482698440551758e+00
3.939000000000000000e+03 4.304191589355468750e+01 1.986539459228515625e+01 -2.798012793064117432e-01 9.849933534860610962e-02 -5.439058691263198853e-02 -7.401205301284790039e-01
3.940000000000000000e+03 5.353315353393554688e+01 2.065604782104492188e+01 -2.003688812255859375e-01 4.689536392688751221e-01 8.057542890310287476e-02 -2.825632393360137939e-01
3.941000000000000000e+03 5.167711257934570312e+01 2.155161666870117188e+01 -4.113618731498718262e-01 2.895385622978210449e-01 -3.654698655009269714e-02 -4.667081236839294434e-01
3.942000000000000000e+03 6.653902435302734375e+01 1.850632476806640625e+01 -1.482554972171783447e-01 4.890523433685302734e+00 1.422680377960205078e+00 1.577226877212524414e+00
3.943000000000000000e+03 6.387900924682617188e+01 1.331400012969970703e+01 3.045068681240081787e-01 3.879947185516357422e+00 1.255336284637451172e+00 9.983878135681152344e-01
3.944000000000000000e+03 6.786574554443359375e+01 2.250552177429199219e+01 -6.348515748977661133e-01 6.003448963165283203e+00 1.610579133033752441e+00 2.295380115509033203e+00
3.945000000000000000e+03 6.873036193847656250e+01 2.234269332885742188e+01 -8.210411667823791504e-01 6.804682731628417969e+00 1.795092463493347168e+00 2.055591583251953125e+00
3.946000000000000000e+03 5.938508224487304688e+01 1.942725181579589844e+01 2.209435552358627319e-01 1.562311410903930664e+00 5.349764823913574219e-01 6.120084524154663086e-01
3.947000000000000000e+03 6.715149688720703125e+01 2.228405380249023438e+01 -4.579007327556610107e-01 5.338931083679199219e+00 1.464309096336364746e+00 2.224561929702758789e+00
3.948000000000000000e+03 6.665081024169921875e+01 2.268437385559082031e+01 -3.498106300830841064e-01 4.836945056915283203e+00 1.346140384674072266e+00 2.302580833435058594e+00
3.949000000000000000e+03 6.033226394653320312e+01 1.950228691101074219e+01 2.312481850385665894e-01 1.802561044692993164e+00 6.101427674293518066e-01 7.836517095565795898e-01
3.950000000000000000e+03 6.491347503662109375e+01 2.035016822814941406e+01 -1.916354335844516754e-02 3.766786098480224609e+00 1.124286770820617676e+00 1.690839052200317383e+00
3.951000000000000000e+03 4.222621154785156250e+01 1.991687011718750000e+01 -2.834209501743316650e-01 7.411426305770874023e-02 -6.279200315475463867e-02 -7.456529140472412109e-01
3.952000000000000000e+03 6.747900390625000000e+01 2.135640144348144531e+01 -4.774090349674224854e-01 5.633069515228271484e+00 1.546698212623596191e+00 2.016806364059448242e+00
3.953000000000000000e+03 5.595478820800781250e+01 1.847670936584472656e+01 1.788079291582107544e-01 9.815780520439147949e-01 3.481158018112182617e-01 9.195438772439956665e-02
3.954000000000000000e+03 5.129719161987304688e+01 2.058957862854003906e+01 -2.763063609600067139e-01 3.408161699771881104e-01 1.935294829308986664e-02 -4.642844796180725098e-01
3.955000000000000000e+03 5.230134963989257812e+01 2.023507118225097656e+01 -1.860651671886444092e-01 4.245097935199737549e-01 7.153338938951492310e-02 -3.736607730388641357e-01
3.956000000000000000e+03 4.827997589111328125e+01 2.060958099365234375e+01 -3.389964103698730469e-01 2.293194234371185303e-01 -3.290309011936187744e-02 -6.226313114166259766e-01
3.957000000000000000e+03 4.736282730102539062e+01 1.964870262145996094e+01 -2.378045022487640381e-01 2.320288419723510742e-01 -1.732698758132755756e-03 -6.449657082557678223e-01
3.958000000000000000e+03 4.917424011230468750e+01 1.875275993347167969e+01 -9.418595582246780396e-02 3.497802615165710449e-01 7.667829096317291260e-02 -5.395387411117553711e-01
3.959000000000000000e+03 5.023808670043945312e+01 2.071262931823730469e+01 -3.203035295009613037e-01 2.853119969367980957e-01 -1.049746200442314148e-02 -5.314778089523315430e-01
3.960000000000000000e+03 4.550271224975585938e+01 2.039125061035156250e+01 -3.395981788635253906e-01 1.508707702159881592e-01 -5.661822110414505005e-02 -7.044019103050231934e-01
3.961000000000000000e+03 4.655264663696289062e+01 1.948274612426757812e+01 -2.314461469650268555e-01 2.068819254636764526e-01 -7.369264028966426849e-03 -6.673626899719238281e-01
3.962000000000000000e+03 5.685541534423828125e+01 1.938692474365234375e+01 1.339345127344131470e-01 1.003678321838378906e+00 3.412838578224182129e-01 1.941449791193008423e-01
3.963000000000000000e+03 6.440507507324218750e+01 1.416387081146240234e+01 2.408057004213333130e-01 4.033736228942871094e+00 1.282362461090087891e+00 1.078091263771057129e+00
3.964000000000000000e+03 6.546697998046875000e+01 8.174157142639160156e+00 3.087549507617950439e-01 4.602682113647460938e+00 1.473431110382080078e+00 7.999292016029357910e-01
3.965000000000000000e+03 6.279162216186523438e+01 1.940394401550292969e+01 1.850402206182479858e-01 2.744952440261840820e+00 8.789978027343750000e-01 1.239379644393920898e+00
3.966000000000000000e+03 3.895650482177734375e+01 2.025749015808105469e+01 -2.835646867752075195e-01 -2.037768997251987457e-02 -9.118271619081497192e-02 -7.312497496604919434e-01
3.967000000000000000e+03 3.814703369140625000e+01 2.135938644409179688e+01 -3.340916335582733154e-01 -2.969123050570487976e-02 -1.091348603367805481e-01 -7.043848037719726562e-01
3.968000000000000000e+03 5.815951156616210938e+01 1.865268135070800781e+01 2.413290739059448242e-01 1.359148502349853516e+00 4.801432788372039795e-01 4.145776927471160889e-01
3.969000000000000000e+03 6.636824798583984375e+01 2.018862724304199219e+01 -2.112044245004653931e-01 4.765625000000000000e+00 1.366326212882995605e+00 1.810969471931457520e+00
3.970000000000000000e+03 6.717109680175781250e+01 1.803174209594726562e+01 -1.977990716695785522e-01 5.282791137695312500e+00 1.525497674942016602e+00 1.502361893653869629e+00
3.971000000000000000e+03 3.604067230224609375e+01 2.163634109497070312e+01 -2.949764728546142578e-01 -8.490412682294845581e-02 -1.139641851186752319e-01 -6.652616262435913086e-01
3.972000000000000000e+03 3.705305862426757812e+01 8.852122306823730469e+00 1.528491228818893433e-01 -1.386164277791976929e-01 4.269804805517196655e-03 -6.338784098625183105e-01
3.973000000000000000e+03 3.741659545898437500e+01 6.378541946411132812e+00 1.904835253953933716e-01 -9.740789234638214111e-02 2.792268991470336914e-02 -5.802790522575378418e-01
3.974000000000000000e+03 6.887946319580078125e+01 1.491168880462646484e+01 -1.224899217486381531e-01 5.962600231170654297e+00 1.752033114433288574e+00 1.113645553588867188e+00
3.975000000000000000e+03 6.486344146728515625e+01 1.286526489257812500e+01 2.596968114376068115e-01 4.293155670166015625e+00 1.365855813026428223e+00 1.019381999969482422e+00
3.976000000000000000e+03 6.337912368774414062e+01 1.008429336547851562e+01 3.891623914241790771e-01 3.873522996902465820e+00 1.278805613517761230e+00 8.164356946945190430e-01
3.977000000000000000e+03 6.584120178222656250e+01 1.242322063446044922e+01 2.133192420005798340e-01 4.675977706909179688e+00 1.466789126396179199e+00 1.005815625190734863e+00
3.978000000000000000e+03 6.532946014404296875e+01 1.372865486145019531e+01 1.984586417675018311e-01 4.426083564758300781e+00 1.387362718582153320e+00 1.086760163307189941e+00
3.979000000000000000e+03 3.716003036499023438e+01 1.696543693542480469e+01 -9.616804122924804688e-02 -1.134263947606086731e-01 -6.287833303213119507e-02 -7.358486652374267578e-01
3.980000000000000000e+03 3.945037460327148438e+01 2.299058914184570312e+00 2.687988281250000000e-01 1.546271592378616333e-01 1.270277947187423706e-01 -4.547147452831268311e-01
3.981000000000000000e+03 3.876153945922851562e+01 5.314868927001953125e+00 2.329800575971603394e-01 3.658337518572807312e-02 8.086903393268585205e-02 -5.425445437431335449e-01
3.982000000000000000e+03 3.969486236572265625e+01 1.111991882324218750e+01 1.510214358568191528e-01 3.508282452821731567e-02 5.583127588033676147e-02 -6.629816293716430664e-01
3.983000000000000000e+03 6.423016357421875000e+01 9.758473396301269531e+00 3.520554006099700928e-01 4.150940895080566406e+00 1.350898981094360352e+00 8.285016417503356934e-01
3.984000000000000000e+03 6.290739822387695312e+01 -4.339108943939208984e+00 3.110178411006927490e-01 4.172742366790771484e+00 1.345128059387207031e+00 3.759451508522033691e-01
3.985000000000000000e+03 3.901054382324218750e+01 2.121820449829101562e+01 -3.432085812091827393e-01 -7.444039918482303619e-03 -1.051957905292510986e-01 -7.182557582855224609e-01
3.986000000000000000e+03 3.795877456665039062e+01 -3.155654430389404297e+00 2.315012514591217041e-01 5.548757314682006836e-02 8.609664440155029297e-02 -3.589712083339691162e-01
3.987000000000000000e+03 3.706918716430664062e+01 -2.152195274829864502e-01 2.236410826444625854e-01 -7.279395312070846558e-02 4.525413736701011658e-02 -4.246555566787719727e-01
3.988000000000000000e+03 3.828442764282226562e+01 9.073101997375488281e+00 1.750731021165847778e-01 -4.469018056988716125e-02 3.911487758159637451e-02 -6.307815313339233398e-01
3.989000000000000000e+03 6.233139801025390625e+01 -5.370797634124755859e+00 3.050592541694641113e-01 4.069659709930419922e+00 1.312415719032287598e+00 3.564440310001373291e-01
3.990000000000000000e+03 6.360818099975585938e+01 -3.349034786224365234e+00 3.064564466476440430e-01 4.320232391357421875e+00 1.388006567955017090e+00 4.061728715896606445e-01
3.991000000000000000e+03 6.269076919555664062e+01 2.783541440963745117e+00 4.060455560684204102e-01 3.966892719268798828e+00 1.311881422996520996e+00 5.446434020996093750e-01
3.992000000000000000e+03 6.609110260009765625e+01 -5.848842620849609375e+00 2.277401834726333618e-01 4.898536205291748047e+00 1.537882804870605469e+00 3.728052377700805664e-01
3.993000000000000000e+03 3.786545944213867188e+01 1.604493904113769531e+01 -5.951063707470893860e-02 -9.199709445238113403e-02 -4.545231908559799194e-02 -7.403957247734069824e-01
3.994000000000000000e+03 4.224855041503906250e+01 1.904318809509277344e+01 -2.131711393594741821e-01 7.822629064321517944e-02 -4.048345610499382019e-02 -7.458252906799316406e-01
3.995000000000000000e+03 6.464486694335937500e+01 8.615370750427246094e+00 3.450219631195068359e-01 4.341014385223388672e+00 1.405810832977294922e+00 8.022475242614746094e-01
3.996000000000000000e+03 6.386391830444335938e+01 -4.958894729614257812e+00 2.818122506141662598e-01 4.409906864166259766e+00 1.407515645027160645e+00 3.753231763839721680e-01
3.997000000000000000e+03 6.083241653442382812e+01 -6.268858909606933594e+00 3.231370449066162109e-01 3.794157505035400391e+00 1.235188364982604980e+00 3.011026382446289062e-01
3.998000000000000000e+03 3.937787246704101562e+01 -1.879747962951660156e+01 1.532343477010726929e-01 4.328544437885284424e-01 1.758266389369964600e-01 -1.130157113075256348e-01
3.999000000000000000e+03 3.530575180053710938e+01 -1.705471801757812500e+01 1.183197349309921265e-01 -2.029708921909332275e-01 -2.539534680545330048e-02 -1.597729772329330444e-01
4.000000000000000000e+03 3.810187911987304688e+01 -4.488538742065429688e+00 2.337551116943359375e-01 1.011599078774452209e-01 1.004745066165924072e-01 -3.306021094322204590e-01
4.001000000000000000e+03 6.274194335937500000e+01 -1.368272972106933594e+01 1.931761950254440308e-01 4.273169517517089844e+00 1.339903712272644043e+00 2.185280770063400269e-01
4.002000000000000000e+03 6.718537902832031250e+01 -1.518706130981445312e+01 1.127028986811637878e-01 5.108794212341308594e+00 1.566449165344238281e+00 2.082326263189315796e-01
4.003000000000000000e+03 3.183164024353027344e+01 -8.423227310180664062e+00 9.872694313526153564e-02 -7.159162759780883789e-01 -1.851568073034286499e-01 -2.802367508411407471e-01
4.004000000000000000e+03 3.619789886474609375e+01 -1.109077930450439453e+01 1.578469276428222656e-01 -1.087988540530204773e-01 1.471442170441150665e-02 -2.355116754770278931e-01
4.005000000000000000e+03 3.380261230468750000e+01 -2.092489051818847656e+01 8.806283026933670044e-02 -4.243915975093841553e-01 -1.008986309170722961e-01 -1.261204481124877930e-01
4.006000000000000000e+03 3.943662261962890625e+01 1.574347591400146484e+01 -2.720227651298046112e-02 -1.232524961233139038e-02 -1.185825839638710022e-02 -7.414414882659912109e-01
4.007000000000000000e+03 6.171651077270507812e+01 -9.735088348388671875e+00 2.646097540855407715e-01 4.036620140075683594e+00 1.290368914604187012e+00 2.696292698383331299e-01
4.008000000000000000e+03 6.315007781982421875e+01 -9.993180274963378906e+00 2.384656220674514771e-01 4.312160491943359375e+00 1.365187883377075195e+00 2.818334400653839111e-01
4.009000000000000000e+03 6.161163711547851562e+01 -2.616924285888671875e+01 9.877315163612365723e-02 4.108598232269287109e+00 1.262211441993713379e+00 7.954907417297363281e-02
4.010000000000000000e+03 6.104858398437500000e+01 -2.349945449829101562e+01 1.211849749088287354e-01 4.023322582244873047e+00 1.243352293968200684e+00 1.026296243071556091e-01
4.011000000000000000e+03 6.271203231811523438e+01 -2.034953880310058594e+01 1.319830566644668579e-01 4.285706043243408203e+00 1.325306653976440430e+00 1.382263898849487305e-01
4.012000000000000000e+03 4.013892745971679688e+01 -1.666505050659179688e+01 1.735759675502777100e-01 5.325194001197814941e-01 2.118286043405532837e-01 -1.196921691298484802e-01
4.013000000000000000e+03 3.816629791259765625e+01 -1.591479873657226562e+01 1.569822877645492554e-01 2.188399136066436768e-01 1.127466633915901184e-01 -1.513448208570480347e-01
4.014000000000000000e+03 3.755298614501953125e+01 -1.644894123077392578e+00 2.271550893783569336e-01 -5.880293902009725571e-03 6.638243794441223145e-02 -3.917987048625946045e-01
4.015000000000000000e+03 3.897763061523437500e+01 -1.396418857574462891e+01 1.753993630409240723e-01 3.190656304359436035e-01 1.483394950628280640e-01 -1.673753559589385986e-01
4.016000000000000000e+03 3.788095855712890625e+01 -1.152237033843994141e+01 1.856025606393814087e-01 1.461029648780822754e-01 9.951165318489074707e-02 -2.075670361518859863e-01
4.017000000000000000e+03 6.612306976318359375e+01 -2.957302474975585938e+01 6.148863956332206726e-02 4.914080619812011719e+00 1.492670893669128418e+00 7.602611929178237915e-02
4.018000000000000000e+03 4.308570480346679688e+01 1.898332786560058594e+01 -2.083631753921508789e-01 1.090587228536605835e-01 -2.979133650660514832e-02 -7.387802600860595703e-01
4.019000000000000000e+03 6.530810546875000000e+01 2.173375892639160156e+01 -1.017176955938339233e-01 3.796778440475463867e+00 1.108518242835998535e+00 1.910009741783142090e+00
4.020000000000000000e+03 6.264630508422851562e+01 2.014749908447265625e+01 1.604792326688766479e-01 2.552341938018798828e+00 8.138463497161865234e-01 1.252809166908264160e+00
4.021000000000000000e+03 4.060150527954101562e+01 2.004484748840332031e+01 -2.830798029899597168e-01 2.724886871874332428e-02 -7.674928754568099976e-02 -7.447353601455688477e-01
4.022000000000000000e+03 3.978536224365234375e+01 1.820196914672851562e+01 -1.615509390830993652e-01 -1.334669184871017933e-03 -4.886568337678909302e-02 -7.517027854919433594e-01
4.023000000000000000e+03 6.589975738525390625e+01 2.127098274230957031e+01 -1.688587516546249390e-01 4.298307895660400391e+00 1.238834738731384277e+00 1.937171578407287598e+00
4.024000000000000000e+03 6.659171295166015625e+01 2.094766044616699219e+01 -2.852347791194915771e-01 4.908318042755126953e+00 1.386924982070922852e+00 1.938938379287719727e+00
4.025000000000000000e+03 6.235866165161132812e+01 1.279744434356689453e+01 3.945884108543395996e-01 3.360494852066040039e+00 1.126524925231933594e+00 8.634594678878784180e-01
4.026000000000000000e+03 6.628853607177734375e+01 2.204008483886718750e+01 -2.659990787506103516e-01 4.549999713897705078e+00 1.285200238227844238e+00 2.132794380187988281e+00
4.027000000000000000e+03 6.613579559326171875e+01 1.628622627258300781e+01 2.539919503033161163e-02 4.747085571289062500e+00 1.431745409965515137e+00 1.309899091720581055e+00
4.028000000000000000e+03 6.052337646484375000e+01 1.879273033142089844e+01 2.633902132511138916e-01 1.989921927452087402e+00 6.759936809539794922e-01 8.142609000205993652e-01
4.029000000000000000e+03 4.827738189697265625e+01 1.968685913085937500e+01 -2.283612191677093506e-01 2.629965543746948242e-01 1.039059925824403763e-02 -6.099712848663330078e-01
4.030000000000000000e+03 6.620368194580078125e+01 1.945840835571289062e+01 -1.465749740600585938e-01 4.661180019378662109e+00 1.354381442070007324e+00 1.695718169212341309e+00
4.031000000000000000e+03 5.429863739013671875e+01 2.025811767578125000e+01 -1.119820177555084229e-01 5.749244689941406250e-01 1.388827413320541382e-01 -1.840047240257263184e-01
4.032000000000000000e+03 4.617612838745117188e+01 2.008305358886718750e+01 -2.987440824508666992e-01 1.822121441364288330e-01 -3.495958447456359863e-02 -6.854533553123474121e-01
4.033000000000000000e+03 5.498881149291992188e+01 1.936387825012207031e+01 4.799828305840492249e-02 7.479790449142456055e-01 2.387932091951370239e-01 -5.743683502078056335e-02
4.034000000000000000e+03 5.813162231445312500e+01 1.775536155700683594e+01 3.101708292961120605e-01 1.505880117416381836e+00 5.448152422904968262e-01 4.373893141746520996e-01
4.035000000000000000e+03 4.921474075317382812e+01 1.970888137817382812e+01 -2.086659520864486694e-01 2.970065772533416748e-01 2.650219015777111053e-02 -5.659539699554443359e-01
4.036000000000000000e+03 4.454744720458984375e+01 2.011332130432128906e+01 -3.011035621166229248e-01 1.367535889148712158e-01 -4.930499568581581116e-02 -7.206029891967773438e-01
4.037000000000000000e+03 4.513119125366210938e+01 1.965963554382324219e+01 -2.543147206306457520e-01 1.597851663827896118e-01 -2.835887111723423004e-02 -7.061263322830200195e-01
4.038000000000000000e+03 4.065956115722656250e+01 2.188849449157714844e+01 -4.238169789314270020e-01 3.676525875926017761e-02 -1.161155179142951965e-01 -7.185189723968505859e-01
4.039000000000000000e+03 3.706523895263671875e+01 1.849611091613769531e+01 -1.656118035316467285e-01 -9.944154322147369385e-02 -7.951600104570388794e-02 -7.317410111427307129e-01
4.040000000000000000e+03 6.646395111083984375e+01 1.544473648071289062e+01 4.108811169862747192e-02 4.878267765045166016e+00 1.475806713104248047e+00 1.233949661254882812e+00
4.041000000000000000e+03 3.972726821899414062e+01 1.916069793701171875e+01 -2.144618630409240723e-01 -2.019887091591954231e-03 -6.494452804327011108e-02 -7.490684986114501953e-01
4.042000000000000000e+03 5.112134933471679688e+01 1.956743812561035156e+01 -1.334626227617263794e-01 4.061820507049560547e-01 8.181582391262054443e-02 -4.430703520774841309e-01
4.043000000000000000e+03 5.299564743041992188e+01 1.902133560180664062e+01 -2.910710638388991356e-03 5.808576345443725586e-01 1.733840852975845337e-01 -2.692617774009704590e-01
4.044000000000000000e+03 6.131059265136718750e+01 1.898015785217285156e+01 2.548002898693084717e-01 2.220242977142333984e+00 7.425130009651184082e-01 9.689456820487976074e-01
4.045000000000000000e+03 6.563723754882812500e+01 1.452260494232177734e+01 1.486936062574386597e-01 4.515702247619628906e+00 1.399318695068359375e+00 1.134112596511840820e+00
4.046000000000000000e+03 5.410366439819335938e+01 1.955206489562988281e+01 -2.436454966664314270e-02 6.244349479675292969e-01 1.800211220979690552e-01 -1.778541654348373413e-01
4.047000000000000000e+03 6.498036956787109375e+01 1.952986907958984375e+01 1.177459140308201313e-03 3.929150104522705078e+00 1.179098248481750488e+00 1.601300954818725586e+00
4.048000000000000000e+03 6.435610961914062500e+01 1.196944332122802734e+01 3.105319440364837646e-01 4.131755352020263672e+00 1.332686185836791992e+00 9.456053972244262695e-01
4.049000000000000000e+03 5.920672225952148438e+01 1.855012893676757812e+01 2.710215747356414795e-01 1.656741261482238770e+00 5.783288478851318359e-01 5.988857150077819824e-01
4.050000000000000000e+03 6.385737991333007812e+01 1.104623508453369141e+01 3.525930047035217285e-01 3.993345499038696289e+00 1.303781509399414062e+00 8.796101808547973633e-01
4.051000000000000000e+03 6.339044952392578125e+01 1.238768768310546875e+01 3.559623360633850098e-01 3.764925956726074219e+00 1.236266493797302246e+00 9.254721999168395996e-01
4.052000000000000000e+03 3.863650512695312500e+01 7.799522399902343750e+00 1.988657712936401367e-01 -3.469412680715322495e-03 5.861890688538551331e-02 -5.990049242973327637e-01
4.053000000000000000e+03 4.000951766967773438e+01 1.295637130737304688e+01 1.013163328170776367e-01 3.429689630866050720e-02 4.068396985530853271e-02 -6.957237124443054199e-01
4.054000000000000000e+03 3.928711318969726562e+01 1.710677719116210938e+01 -9.497822821140289307e-02 -2.531344443559646606e-02 -3.608750179409980774e-02 -7.487672567367553711e-01
4.055000000000000000e+03 3.699134445190429688e+01 2.010622406005859375e+01 -2.517624497413635254e-01 -7.825740426778793335e-02 -9.900595247745513916e-02 -7.097707986831665039e-01
4.056000000000000000e+03 4.145016860961914062e+01 1.821729850769042969e+01 -1.589138358831405640e-01 5.715804547071456909e-02 -3.052673488855361938e-02 -7.498871088027954102e-01
4.057000000000000000e+03 3.884235000610351562e+01 1.226990509033203125e+01 1.020504534244537354e-01 -3.744903579354286194e-02 1.938042603433132172e-02 -6.923340559005737305e-01
4.058000000000000000e+03 6.254267120361328125e+01 -8.218126893043518066e-01 3.728475272655487061e-01 4.037462711334228516e+00 1.323093056678771973e+00 4.465003013610839844e-01
4.059000000000000000e+03 6.158519744873046875e+01 -1.878661274909973145e+00 3.743707537651062012e-01 3.849255323410034180e+00 1.267087817192077637e+00 4.015308320522308350e-01
4.060000000000000000e+03 3.878110885620117188e+01 1.132641124725341797e+01 1.222581118345260620e-01 -3.415684401988983154e-02 2.643037959933280945e-02 -6.768441200256347656e-01
4.061000000000000000e+03 6.300930023193359375e+01 4.348977565765380859e+00 4.091604351997375488e-01 4.009038448333740234e+00 1.325459718704223633e+00 5.986640453338623047e-01
4.062000000000000000e+03 6.476324462890625000e+01 7.357524394989013672e+00 3.468075394630432129e-01 4.396836280822753906e+00 1.423093199729919434e+00 7.450438141822814941e-01
4.063000000000000000e+03 3.942594146728515625e+01 -3.006409406661987305e+00 2.597948908805847168e-01 2.332157492637634277e-01 1.479031890630722046e-01 -3.378812074661254883e-01
4.064000000000000000e+03 3.929638290405273438e+01 4.746350049972534180e-01 2.698349058628082275e-01 1.665638238191604614e-01 1.309196203947067261e-01 -4.131932556629180908e-01
4.065000000000000000e+03 3.800508880615234375e+01 2.278768062591552734e+00 2.353871762752532959e-01 1.819509314373135567e-03 7.116200774908065796e-02 -4.801504611968994141e-01
4.066000000000000000e+03 6.391912078857421875e+01 5.118681907653808594e+00 3.861772119998931885e-01 4.230880737304687500e+00 1.385117411613464355e+00 6.480649709701538086e-01
4.067000000000000000e+03 6.139144897460937500e+01 6.354197859764099121e-02 4.059357643127441406e-01 3.748375654220581055e+00 1.246293425559997559e+00 4.316042065620422363e-01
4.068000000000000000e+03 3.729874420166015625e+01 2.124651145935058594e+01 -3.104072809219360352e-01 -5.354643613100051880e-02 -1.091861203312873840e-01 -6.952885389328002930e-01
4.069000000000000000e+03 4.136390686035156250e+01 3.627789974212646484e+00 3.104540705680847168e-01 3.240115642547607422e-01 1.903396844863891602e-01 -4.491286575794219971e-01
4.070000000000000000e+03 3.968189620971679688e+01 5.957983016967773438e+00 2.440264523029327393e-01 1.034202352166175842e-01 1.042340099811553955e-01 -5.440440773963928223e-01
4.071000000000000000e+03 6.214437103271484375e+01 -6.519145011901855469e+00 3.019060492515563965e-01 4.079508781433105469e+00 1.314424395561218262e+00 3.305993974208831787e-01
4.072000000000000000e+03 6.318870544433593750e+01 -6.025829792022705078e+00 2.840897440910339355e-01 4.277938365936279297e+00 1.368608474731445312e+00 3.518729209899902344e-01
4.073000000000000000e+03 6.289400863647460938e+01 -1.179327106475830078e+01 2.120541930198669434e-01 4.282123565673828125e+00 1.348253369331359863e+00 2.434130758047103882e-01
4.074000000000000000e+03 6.020092773437500000e+01 -9.439432144165039062e+00 2.927861511707305908e-01 3.734062671661376953e+00 1.208054661750793457e+00 2.549086809158325195e-01
4.075000000000000000e+03 5.987582778930664062e+01 -1.124742698669433594e+01 2.708929777145385742e-01 3.700511217117309570e+00 1.191421270370483398e+00 2.248588651418685913e-01
4.076000000000000000e+03 3.776542663574218750e+01 -5.963647842407226562e+00 2.159795314073562622e-01 7.003916800022125244e-02 8.580560982227325439e-02 -3.018890321254730225e-01
4.077000000000000000e+03 3.586660385131835938e+01 -7.060508251190185547e+00 1.778833866119384766e-01 -1.762131750583648682e-01 5.010620807297527790e-04 -3.008921742439270020e-01
4.078000000000000000e+03 6.266246032714843750e+01 -1.568349933624267578e+01 1.769955754280090332e-01 4.266882419586181641e+00 1.333163499832153320e+00 1.946812868118286133e-01
4.079000000000000000e+03 6.204832839965820312e+01 -7.993410587310791016e+00 2.805747091770172119e-01 4.076817512512207031e+00 1.307217597961425781e+00 3.036294877529144287e-01
4.080000000000000000e+03 6.052421188354492188e+01 -7.763749122619628906e+00 3.050760924816131592e-01 3.759949922561645508e+00 1.219507813453674316e+00 2.815701961517333984e-01
4.081000000000000000e+03 3.925965881347656250e+01 -1.325704932212829590e+00 2.643161416053771973e-01 1.902287006378173828e-01 1.363634467124938965e-01 -3.784947395324707031e-01
4.082000000000000000e+03 6.474513244628906250e+01 -1.995155906677246094e+01 1.115311309695243835e-01 4.665141105651855469e+00 1.433001756668090820e+00 1.463285833597183228e-01
4.083000000000000000e+03 6.253606414794921875e+01 -2.891370391845703125e+01 7.877030223608016968e-02 4.298625946044921875e+00 1.313218951225280762e+00 5.345263704657554626e-02
4.084000000000000000e+03 2.982905960083007812e+01 -3.232692337036132812e+01 1.117610954679548740e-03 -9.591265320777893066e-01 -2.874026894569396973e-01 -2.756609395146369934e-02
4.085000000000000000e+03 6.825724029541015625e+01 -3.776251983642578125e+01 3.016455844044685364e-02 5.237368583679199219e+00 1.580259919166564941e+00 5.753593519330024719e-03
4.086000000000000000e+03 6.686483001708984375e+01 2.165825462341308594e+01 -3.693873882293701172e-01 5.080716133117675781e+00 1.413398623466491699e+00 2.090863466262817383e+00
4.087000000000000000e+03 6.766344451904296875e+01 2.198156356811523438e+01 -5.661182999610900879e-01 5.824982166290283203e+00 1.577659249305725098e+00 2.158174514770507812e+00
4.088000000000000000e+03 3.862992858886718750e+01 1.662310981750488281e+01 -7.799680531024932861e-02 -5.239764228463172913e-02 -3.911833465099334717e-02 -7.473013997077941895e-01
4.089000000000000000e+03 6.468955230712890625e+01 2.114790725708007812e+01 -1.659164763987064362e-02 3.506009578704833984e+00 1.046825408935546875e+00 1.732399225234985352e+00
4.090000000000000000e+03 6.434168243408203125e+01 1.931118392944335938e+01 8.413464576005935669e-02 3.575628757476806641e+00 1.097929000854492188e+00 1.514847755432128906e+00
4.091000000000000000e+03 4.023614501953125000e+01 1.484900951385498047e+01 2.444829046726226807e-02 2.840635180473327637e-02 1.585639268159866333e-02 -7.277541756629943848e-01
4.092000000000000000e+03 6.565290069580078125e+01 2.040337562561035156e+01 -1.074427664279937744e-01 4.218405246734619141e+00 1.233288645744323730e+00 1.786205649375915527e+00
4.093000000000000000e+03 3.821440505981445312e+01 2.042402839660644531e+01 -2.764168083667755127e-01 -3.657835721969604492e-02 -9.389854967594146729e-02 -7.263708114624023438e-01
4.094000000000000000e+03 5.187878417968750000e+01 1.838115119934082031e+01 3.046208061277866364e-02 5.472713112831115723e-01 1.733200252056121826e-01 -3.451322019100189209e-01
4.095000000000000000e+03 5.016875839233398438e+01 1.969159507751464844e+01 -1.760764122009277344e-01 3.472264111042022705e-01 5.134499445557594299e-02 -5.077599287033081055e-01
4.096000000000000000e+03 6.491722106933593750e+01 1.486282253265380859e+01 1.925081759691238403e-01 4.202311515808105469e+00 1.318445920944213867e+00 1.146402478218078613e+00
4.097000000000000000e+03 6.559325408935546875e+01 1.959020233154296875e+01 -7.175303995609283447e-02 4.263586044311523438e+00 1.257549881935119629e+00 1.661486506462097168e+00
4.098000000000000000e+03 6.450386047363281250e+01 1.861239624023437500e+01 7.940592616796493530e-02 3.757608413696289062e+00 1.151104331016540527e+00 1.439953088760375977e+00
4.099000000000000000e+03 6.207110595703125000e+01 1.915735244750976562e+01 2.297322005033493042e-01 2.491699934005737305e+00 8.164296150207519531e-01 1.108891725540161133e+00
4.100000000000000000e+03 6.349079132080078125e+01 1.972238922119140625e+01 1.244433373212814331e-01 3.060682058334350586e+00 9.555376172065734863e-01 1.384917497634887695e+00
4.101000000000000000e+03 6.299163818359375000e+01 1.856907844543457031e+01 2.120255678892135620e-01 3.003023624420166016e+00 9.645147919654846191e-01 1.217980623245239258e+00
4.102000000000000000e+03 5.704492187500000000e+01 1.859742355346679688e+01 2.081444710493087769e-01 1.164719700813293457e+00 4.118592441082000732e-01 2.483090311288833618e-01
4.103000000000000000e+03 5.904753875732421875e+01 1.771076965332031250e+01 3.243080675601959229e-01 1.737805366516113281e+00 6.186340451240539551e-01 5.704945325851440430e-01
4.104000000000000000e+03 4.827379608154296875e+01 1.873251152038574219e+01 -1.175701320171356201e-01 3.051931262016296387e-01 5.628689751029014587e-02 -5.882067680358886719e-01
4.105000000000000000e+03 4.739277648925781250e+01 1.768587875366210938e+01 -3.491553664207458496e-02 3.133871853351593018e-01 8.354149758815765381e-02 -6.019706726074218750e-01
4.106000000000000000e+03 4.740167999267578125e+01 1.866804504394531250e+01 -1.294224560260772705e-01 2.739032506942749023e-01 4.334423318505287170e-02 -6.258197426795959473e-01
4.107000000000000000e+03 5.322059631347656250e+01 1.987203407287597656e+01 -1.043685972690582275e-01 5.280136466026306152e-01 1.270935237407684326e-01 -2.821059525012969971e-01
4.108000000000000000e+03 3.681101989746093750e+01 2.214126205444335938e+01 -3.439529538154602051e-01 -5.152708664536476135e-02 -1.186440140008926392e-01 -6.646759510040283203e-01
4.109000000000000000e+03 3.654214859008789062e+01 2.085319519042968750e+01 -2.739399373531341553e-01 -8.326760679483413696e-02 -1.071622669696807861e-01 -6.880886554718017578e-01
4.110000000000000000e+03 4.142793655395507812e+01 1.908834648132324219e+01 -2.184964269399642944e-01 5.201923847198486328e-02 -4.994315654039382935e-02 -7.489769458770751953e-01
4.111000000000000000e+03 5.600196075439453125e+01 1.752254295349121094e+01 2.704445719718933105e-01 1.122705817222595215e+00 4.179450869560241699e-01 1.385891288518905640e-01
4.112000000000000000e+03 4.082582473754882812e+01 1.635073089599609375e+01 -4.769705981016159058e-02 3.915652632713317871e-02 -2.562160138040781021e-03 -7.376948595046997070e-01
4.113000000000000000e+03 4.396272277832031250e+01 1.892568206787109375e+01 -1.998042017221450806e-01 1.404418051242828369e-01 -1.780871860682964325e-02 -7.224696278572082520e-01
4.114000000000000000e+03 6.603574371337890625e+01 1.885283088684082031e+01 -9.516010433435440063e-02 4.601517200469970703e+00 1.351907134056091309e+00 1.595526576042175293e+00
4.115000000000000000e+03 4.655554962158203125e+01 1.858840942382812500e+01 -1.384175121784210205e-01 2.360518127679824829e-01 2.929029054939746857e-02 -6.563768982887268066e-01
4.116000000000000000e+03 6.250137710571289062e+01 1.043268394470214844e+01 4.203399717807769775e-01 3.588026762008666992e+00 1.202509999275207520e+00 7.740837931632995605e-01
4.117000000000000000e+03 6.384957885742187500e+01 8.835290908813476562e+00 3.755218088626861572e-01 4.065739154815673828e+00 1.332378268241882324e+00 7.744249105453491211e-01
4.118000000000000000e+03 6.200299835205078125e+01 1.175087451934814453e+01 4.253253042697906494e-01 3.337581634521484375e+00 1.128872156143188477e+00 7.882476449012756348e-01
4.119000000000000000e+03 4.141671371459960938e+01 1.997795486450195312e+01 -2.838560342788696289e-01 4.982294887304306030e-02 -7.020992785692214966e-02 -7.471842169761657715e-01
4.120000000000000000e+03 4.059712982177734375e+01 1.912455177307128906e+01 -2.189990878105163574e-01 2.545639686286449432e-02 -5.806280672550201416e-02 -7.508924603462219238e-01
4.121000000000000000e+03 5.097488021850585938e+01 1.858826637268066406e+01 -2.474144659936428070e-02 4.688149988651275635e-01 1.332220584154129028e-01 -4.205633401870727539e-01
4.122000000000000000e+03 5.492654037475585938e+01 1.852362060546875000e+01 1.363924890756607056e-01 8.440186381340026855e-01 2.941233217716217041e-01 -3.022260405123233795e-02
4.123000000000000000e+03 5.820100402832031250e+01 1.689467620849609375e+01 3.572932481765747070e-01 1.661970376968383789e+00 6.057791113853454590e-01 4.570841193199157715e-01
4.124000000000000000e+03 5.984564971923828125e+01 1.755760383605957031e+01 3.340542912483215332e-01 1.985317826271057129e+00 6.958116292953491211e-01 7.142357826232910156e-01
4.125000000000000000e+03 6.581961059570312500e+01 1.699766159057617188e+01 1.720076426863670349e-02 4.569340705871582031e+00 1.375962495803833008e+00 1.362453579902648926e+00
4.126000000000000000e+03 6.103044509887695312e+01 1.198285102844238281e+01 4.558491408824920654e-01 3.033910989761352539e+00 1.046928048133850098e+00 7.245112061500549316e-01
4.127000000000000000e+03 6.141140747070312500e+01 1.821157836914062500e+01 2.843762040138244629e-01 2.393829584121704102e+00 8.034617304801940918e-01 9.658444523811340332e-01
4.128000000000000000e+03 5.828416442871093750e+01 -1.083455848693847656e+01 2.947179377079010010e-01 3.405223369598388672e+00 1.109982371330261230e+00 2.063210308551788330e-01
4.129000000000000000e+03 6.188173294067382812e+01 -3.718943119049072266e+00 3.374407589435577393e-01 3.949425697326660156e+00 1.286059975624084473e+00 3.774203658103942871e-01
4.130000000000000000e+03 4.204363632202148438e+01 1.454115772247314453e+01 7.165975123643875122e-02 1.300105005502700806e-01 6.050107255578041077e-02 -6.958264708518981934e-01
4.131000000000000000e+03 4.074258804321289062e+01 1.240821266174316406e+01 1.332783252000808716e-01 8.866316080093383789e-02 6.658244878053665161e-02 -6.767034530639648438e-01
4.132000000000000000e+03 3.948072814941406250e+01 9.528660774230957031e+00 1.920673549175262451e-01 3.879415988922119141e-02 6.925845891237258911e-02 -6.300563216209411621e-01
4.133000000000000000e+03 6.402722167968750000e+01 8.011728286743164062e+00 3.733838498592376709e-01 4.147001743316650391e+00 1.356115698814392090e+00 7.559993267059326172e-01
4.134000000000000000e+03 6.240546798706054688e+01 5.083332538604736328e+00 4.331751465797424316e-01 3.834698200225830078e+00 1.280362010002136230e+00 5.971016287803649902e-01
4.135000000000000000e+03 6.320742034912109375e+01 7.346626281738281250e+00 4.075500071048736572e-01 3.948169231414794922e+00 1.306715726852416992e+00 6.934197545051574707e-01
4.136000000000000000e+03 5.765204238891601562e+01 5.027808666229248047e+00 5.223637819290161133e-01 2.679490804672241211e+00 9.605563282966613770e-01 3.504652380943298340e-01
4.137000000000000000e+03 6.520835113525390625e+01 1.599302005767822266e+01 1.334027945995330811e-01 4.286121845245361328e+00 1.325857400894165039e+00 1.243825674057006836e+00
4.138000000000000000e+03 6.557283782958984375e+01 1.524729633331298828e+01 1.325984299182891846e-01 4.481841564178466797e+00 1.384331941604614258e+00 1.187071919441223145e+00
4.139000000000000000e+03 4.242060089111328125e+01 1.852833509445190430e+00 3.356722295284271240e-01 4.949311316013336182e-01 2.491810023784637451e-01 -3.803679049015045166e-01
4.140000000000000000e+03 6.318255615234375000e+01 5.826344490051269531e+00 4.059804975986480713e-01 4.003777980804443359e+00 1.322927594184875488e+00 6.473215222358703613e-01
4.141000000000000000e+03 6.081152343750000000e+01 3.063516855239868164e+00 4.515955150127410889e-01 3.525044441223144531e+00 1.192991971969604492e+00 4.774261415004730225e-01
4.142000000000000000e+03 3.922229766845703125e+01 3.969409227371215820e+00 2.583886981010437012e-01 1.033813506364822388e-01 1.085310205817222595e-01 -4.991147816181182861e-01
4.143000000000000000e+03 3.798186874389648438e+01 1.962104988098144531e+01 -2.251777499914169312e-01 -5.890982225537300110e-02 -8.522626757621765137e-02 -7.319062352180480957e-01
4.144000000000000000e+03 3.793323135375976562e+01 1.766124725341796875e+01 -1.308612972497940063e-01 -7.790394127368927002e-02 -6.262957304716110229e-02 -7.426531314849853516e-01
4.145000000000000000e+03 3.922203445434570312e+01 -6.281044006347656250e+00 2.445381432771682739e-01 2.619056701660156250e-01 1.519331485033035278e-01 -2.831796407699584961e-01
4.146000000000000000e+03 6.142414093017578125e+01 -1.156534576416015625e+01 2.442815303802490234e-01 3.995358943939208984e+00 1.271892070770263672e+00 2.370824813842773438e-01
4.147000000000000000e+03 4.087541580200195312e+01 3.656373023986816406e-01 3.002305626869201660e-01 3.487699925899505615e-01 1.947001665830612183e-01 -3.846320807933807373e-01
4.148000000000000000e+03 3.462377929687500000e+01 -1.117412662506103516e+01 1.404419988393783569e-01 -3.287144601345062256e-01 -5.648173764348030090e-02 -2.421384751796722412e-01
4.149000000000000000e+03 6.125645446777343750e+01 -4.929116249084472656e+00 3.318265974521636963e-01 3.863590955734252930e+00 1.258625268936157227e+00 3.394860923290252686e-01
4.150000000000000000e+03 6.118810272216796875e+01 -1.348256778717041016e+01 2.124994695186614990e-01 3.970124006271362305e+00 1.254787087440490723e+00 2.017214894294738770e-01
4.151000000000000000e+03 3.884816360473632812e+01 -7.986388206481933594e+00 2.169816046953201294e-01 2.326635122299194336e-01 1.348935365676879883e-01 -2.556734383106231689e-01
4.152000000000000000e+03 3.666005325317382812e+01 -9.300169944763183594e+00 1.761577427387237549e-01 -6.287215650081634521e-02 3.398567438125610352e-02 -2.580957412719726562e-01
4.153000000000000000e+03 3.860352325439453125e+01 -2.099434280395507812e+01 1.300961971282958984e-01 3.250509500503540039e-01 1.365441530942916870e-01 -1.018048077821731567e-01
4.154000000000000000e+03 6.075483322143554688e+01 -3.064415216445922852e+00 3.679492771625518799e-01 3.710800409317016602e+00 1.223624944686889648e+00 3.606060743331909180e-01
4.155000000000000000e+03 6.524916839599609375e+01 1.820835876464843750e+01 2.934727631509304047e-02 4.204386234283447266e+00 1.270120024681091309e+00 1.485233426094055176e+00
4.156000000000000000e+03 6.222511672973632812e+01 1.829685020446777344e+01 2.564560770988464355e-01 2.694457292556762695e+00 8.852739930152893066e-01 1.105154991149902344e+00
4.157000000000000000e+03 4.826231002807617188e+01 1.679394531250000000e+01 6.259600073099136353e-02 4.061085581779479980e-01 1.406113654375076294e-01 -5.381210446357727051e-01
4.158000000000000000e+03 6.067201614379882812e+01 1.815313339233398438e+01 3.076495826244354248e-01 2.179800033569335938e+00 7.462348937988281250e-01 8.437644839286804199e-01
4.159000000000000000e+03 6.060521697998046875e+01 1.742573738098144531e+01 3.398067951202392578e-01 2.240414142608642578e+00 7.740663290023803711e-01 8.322134017944335938e-01
4.160000000000000000e+03 5.900801467895507812e+01 1.695131683349609375e+01 3.604238331317901611e-01 1.821111798286437988e+00 6.544606685638427734e-01 5.725461840629577637e-01
4.161000000000000000e+03 5.711445236206054688e+01 1.768219184875488281e+01 2.941479384899139404e-01 1.317474484443664551e+00 4.834867119789123535e-01 2.905717194080352783e-01
4.162000000000000000e+03 6.367534637451171875e+01 1.898213768005371094e+01 1.465671658515930176e-01 3.293224811553955078e+00 1.031937599182128906e+00 1.381585836410522461e+00
4.163000000000000000e+03 4.386100387573242188e+01 1.793151473999023438e+01 -1.134576797485351562e-01 1.602508425712585449e-01 1.403794903308153152e-02 -7.178232669830322266e-01
4.164000000000000000e+03 4.224726104736328125e+01 1.818715858459472656e+01 -1.552865654230117798e-01 8.673925697803497314e-02 -2.056419104337692261e-02 -7.405995726585388184e-01
4.165000000000000000e+03 6.557475280761718750e+01 1.895330810546875000e+01 -3.587690368294715881e-02 4.307358264923095703e+00 1.281444430351257324e+00 1.591008424758911133e+00
4.166000000000000000e+03 6.071614837646484375e+01 1.106117630004882812e+01 4.723572134971618652e-01 3.012488126754760742e+00 1.045453667640686035e+00 6.719101071357727051e-01
4.167000000000000000e+03 4.825745391845703125e+01 1.776653861999511719e+01 -1.769059151411056519e-02 3.545368909835815430e-01 1.010538861155509949e-01 -5.640314817428588867e-01
4.168000000000000000e+03 4.912428665161132812e+01 1.779389190673828125e+01 8.591553778387606144e-04 4.028602838516235352e-01 1.211158335208892822e-01 -5.162500143051147461e-01
4.169000000000000000e+03 4.571034622192382812e+01 1.859742546081542969e+01 -1.552422940731048584e-01 2.034889161586761475e-01 1.447398494929075241e-02 -6.829794645309448242e-01
4.170000000000000000e+03 5.394225692749023438e+01 1.873056221008300781e+01 7.501111924648284912e-02 7.053664326667785645e-01 2.341132611036300659e-01 -1.600517332553863525e-01
4.171000000000000000e+03 4.557645797729492188e+01 1.758016204833984375e+01 -7.016932219266891479e-02 2.250231057405471802e-01 4.645613580942153931e-02 -6.705911159515380859e-01
4.172000000000000000e+03 6.502547454833984375e+01 1.673011016845703125e+01 1.101186573505401611e-01 4.160657405853271484e+00 1.281232714653015137e+00 1.297090053558349609e+00
4.173000000000000000e+03 4.072982406616210938e+01 1.731566047668457031e+01 -1.072668954730033875e-01 2.926499396562576294e-02 -2.340057119727134705e-02 -7.475934028625488281e-01
4.174000000000000000e+03 6.289787292480468750e+01 1.382008838653564453e+01 3.535318970680236816e-01 3.456061601638793945e+00 1.142878055572509766e+00 9.536446332931518555e-01
4.175000000000000000e+03 5.840188980102539062e+01 1.606539154052734375e+01 4.024133682250976562e-01 1.832636356353759766e+00 6.705149412155151367e-01 4.918515384197235107e-01
4.176000000000000000e+03 3.876599884033203125e+01 1.922375679016113281e+01 -2.124067991971969604e-01 -3.707422688603401184e-02 -7.484430819749832153e-02 -7.427070736885070801e-01
4.177000000000000000e+03 3.996820449829101562e+01 1.730076217651367188e+01 -1.072688847780227661e-01 3.779048100113868713e-03 -3.104695118963718414e-02 -7.469407320022583008e-01
4.178000000000000000e+03 6.608889770507812500e+01 1.798914337158203125e+01 -6.046721339225769043e-02 4.674006938934326172e+00 1.384061932563781738e+00 1.484941124916076660e+00
4.179000000000000000e+03 6.552299499511718750e+01 1.761967849731445312e+01 3.131217509508132935e-02 4.361621856689453125e+00 1.317880153656005859e+00 1.414163589477539062e+00
4.180000000000000000e+03 6.360370254516601562e+01 1.473220825195312500e+01 2.833238840103149414e-01 3.662956237792968750e+00 1.183884024620056152e+00 1.078657507896423340e+00
4.181000000000000000e+03 4.068402481079101562e+01 6.880307197570800781e+00 2.635069787502288818e-01 1.825305372476577759e-01 1.338112503290176392e-01 -5.472919344902038574e-01
4.182000000000000000e+03 3.897275924682617188e+01 1.047423744201660156e+01 1.624326556921005249e-01 -7.479561492800712585e-03 4.648592695593833923e-02 -6.573650240898132324e-01
4.183000000000000000e+03 6.161116027832031250e+01 1.076935195922851562e+01 4.487303197383880615e-01 3.291898965835571289e+00 1.122188806533813477e+00 7.265824675559997559e-01
4.184000000000000000e+03 6.001370239257812500e+01 1.831174278259277344e+01 3.011562824249267578e-01 1.908678293228149414e+00 6.629503965377807617e-01 7.354120016098022461e-01
4.185000000000000000e+03 6.203512191772460938e+01 9.447704315185546875e+00 4.428091645240783691e-01 3.498079776763916016e+00 1.182266712188720703e+00 7.101199626922607422e-01
4.186000000000000000e+03 5.970677566528320312e+01 1.678989982604980469e+01 3.710690140724182129e-01 2.073876857757568359e+00 7.334837913513183594e-01 6.827852129936218262e-01
4.187000000000000000e+03 3.988365554809570312e+01 1.206368541717529297e+01 1.301461756229400635e-01 3.942385315895080566e-02 5.087101086974143982e-02 -6.795966625213623047e-01
4.188000000000000000e+03 5.879639816284179688e+01 5.050137042999267578e+00 5.114647746086120605e-01 2.926139831542968750e+00 1.031281471252441406e+00 4.196518659591674805e-01
4.189000000000000000e+03 5.939076995849609375e+01 2.424841403961181641e+00 4.720862805843353271e-01 3.202852249145507812e+00 1.102481603622436523e+00 4.039504230022430420e-01
4.190000000000000000e+03 6.151163864135742188e+01 4.635902404785156250e+00 4.493518471717834473e-01 3.607203960418701172e+00 1.216966748237609863e+00 5.487740039825439453e-01
4.191000000000000000e+03 6.168021392822265625e+01 5.590012073516845703e+00 4.507810771465301514e-01 3.600533485412597656e+00 1.215394377708435059e+00 5.694484114646911621e-01
4.192000000000000000e+03 5.992247772216796875e+01 5.386689186096191406e+00 4.951751232147216797e-01 3.187403917312622070e+00 1.104773759841918945e+00 4.847308397293090820e-01
4.193000000000000000e+03 6.153454208374023438e+01 1.990391612052917480e+00 4.271257817745208740e-01 3.714426517486572266e+00 1.242465734481811523e+00 4.856161475181579590e-01
4.194000000000000000e+03 4.121266174316406250e+01 1.534446525573730469e+01 1.121661718934774399e-02 7.088308036327362061e-02 2.462990954518318176e-02 -7.240000963211059570e-01
4.195000000000000000e+03 5.070078659057617188e+01 1.665072250366210938e+01 1.520884782075881958e-01 5.862011909484863281e-01 2.214868962764739990e-01 -3.776008486747741699e-01
4.196000000000000000e+03 5.951657104492187500e+01 -2.349218368530273438e+00 4.024966955184936523e-01 3.418455123901367188e+00 1.146285533905029297e+00 3.368517160415649414e-01
4.197000000000000000e+03 6.101176071166992188e+01 -1.546197128295898438e+01 1.977937072515487671e-01 3.979398965835571289e+00 1.253157734870910645e+00 1.760077327489852905e-01
4.198000000000000000e+03 5.863483810424804688e+01 -9.051751136779785156e+00 3.102201223373413086e-01 3.432832717895507812e+00 1.122915863990783691e+00 2.245780974626541138e-01
4.199000000000000000e+03 3.882902145385742188e+01 1.810994529724121094e+01 -1.531947851181030273e-01 -4.024626687169075012e-02 -5.803231522440910339e-02 -7.492910027503967285e-01
4.200000000000000000e+03 4.139159774780273438e+01 5.625051498413085938e+00 3.009275794029235840e-01 2.912959754467010498e-01 1.776670664548873901e-01 -4.934246540069580078e-01
4.201000000000000000e+03 5.755761718750000000e+01 -6.852810382843017578e+00 3.554780781269073486e-01 3.160976886749267578e+00 1.054936528205871582e+00 2.191215306520462036e-01
4.202000000000000000e+03 4.149341583251953125e+01 1.157095432281494141e+01 1.804924458265304565e-01 1.509715914726257324e-01 9.943921118974685669e-02 -6.446396112442016602e-01
4.203000000000000000e+03 4.357000350952148438e+01 3.219335556030273438e+00 3.654572665691375732e-01 5.928131937980651855e-01 2.874811291694641113e-01 -3.724245131015777588e-01
4.204000000000000000e+03 4.387408447265625000e+01 1.903630018234252930e+00 3.725127875804901123e-01 6.622229218482971191e-01 3.104207217693328857e-01 -3.370452523231506348e-01
4.205000000000000000e+03 6.236959838867187500e+01 8.000337600708007812e+00 4.329212903976440430e-01 3.684778690338134766e+00 1.235309958457946777e+00 6.847628951072692871e-01
4.206000000000000000e+03 6.087173080444335938e+01 6.126597404479980469e+00 4.727216362953186035e-01 3.376837491989135742e+00 1.154867768287658691e+00 5.495773553848266602e-01
4.207000000000000000e+03 3.838069915771484375e+01 -9.746446609497070312e+00 2.027500569820404053e-01 1.948272436857223511e-01 1.192731931805610657e-01 -2.309918105602264404e-01
4.208000000000000000e+03 6.037683486938476562e+01 -1.057670950889587402e+00 4.095796644687652588e-01 3.574016332626342773e+00 1.195078849792480469e+00 3.850298821926116943e-01
4.209000000000000000e+03 5.902748489379882812e+01 -1.172097995877265930e-01 4.462220668792724609e-01 3.232959270477294922e+00 1.103754401206970215e+00 3.496746718883514404e-01
4.210000000000000000e+03 3.963119506835937500e+01 -1.204733753204345703e+01 2.080954313278198242e-01 3.941330909729003906e-01 1.806685626506805420e-01 -1.818313002586364746e-01
4.211000000000000000e+03 4.012609863281250000e+01 -1.018062210083007812e+01 2.271776646375656128e-01 4.401851892471313477e-01 2.002088576555252075e-01 -1.997489929199218750e-01
4.212000000000000000e+03 4.251223754882812500e+01 -3.169346809387207031e+00 3.208608627319335938e-01 6.355596184730529785e-01 2.869261503219604492e-01 -2.725279331207275391e-01
4.213000000000000000e+03 4.094825744628906250e+01 -3.065461874008178711e+00 2.877875864505767822e-01 4.280979931354522705e-01 2.147656679153442383e-01 -3.103352487087249756e-01
4.214000000000000000e+03 4.246061706542968750e+01 -1.439665555953979492e+00 3.329019546508789062e-01 5.851310491561889648e-01 2.754099071025848389e-01 -3.081034719944000244e-01
4.215000000000000000e+03 5.984049224853515625e+01 -3.023685646057128906e+01 8.969487994909286499e-02 3.796737670898437500e+00 1.165929794311523438e+00 6.014440953731536865e-02
4.216000000000000000e+03 5.436489486694335938e+01 -2.098241996765136719e+01 1.774560809135437012e-01 2.845738410949707031e+00 9.069583415985107422e-01 8.211940526962280273e-02
4.217000000000000000e+03 8.063583374023437500e+00 -4.143891525268554688e+01 -3.093000873923301697e-02 5.677205510437488556e-03 -7.575840689241886139e-03 1.751625910401344299e-02
4.218000000000000000e+03 6.490670776367187500e+01 1.735125732421875000e+01 1.015521287918090820e-01 4.088425159454345703e+00 1.256993174552917480e+00 1.387186646461486816e+00
4.219000000000000000e+03 6.220552444458007812e+01 1.741975975036621094e+01 2.922187149524688721e-01 2.830534458160400391e+00 9.368259310722351074e-01 1.082248806953430176e+00
4.220000000000000000e+03 5.280506134033203125e+01 1.811626434326171875e+01 9.204508364200592041e-02 6.481673717498779297e-01 2.220637351274490356e-01 -2.501638531684875488e-01
4.221000000000000000e+03 4.908142089843750000e+01 1.685083198547363281e+01 8.817630261182785034e-02 4.597964882850646973e-01 1.643918454647064209e-01 -4.883204400539398193e-01
4.222000000000000000e+03 5.378105545043945312e+01 1.782856178283691406e+01 1.576735079288482666e-01 7.800816297531127930e-01 2.813265323638916016e-01 -1.401348710060119629e-01
4.223000000000000000e+03 4.998673629760742188e+01 1.774000930786132812e+01 3.395091742277145386e-02 4.607186913490295410e-01 1.484008729457855225e-01 -4.593510329723358154e-01
4.224000000000000000e+03 6.341195297241210938e+01 1.782727050781250000e+01 2.176254838705062866e-01 3.305743455886840820e+00 1.057010650634765625e+00 1.242433667182922363e+00
4.225000000000000000e+03 6.507038116455078125e+01 1.883045387268066406e+01 9.976143948733806610e-03 4.056120872497558594e+00 1.219829082489013672e+00 1.535147786140441895e+00
4.226000000000000000e+03 6.005968475341796875e+01 1.211284542083740234e+01 4.822955727577209473e-01 2.731773614883422852e+00 9.642207026481628418e-01 6.451256275177001953e-01
4.227000000000000000e+03 6.032461166381835938e+01 1.018903446197509766e+01 4.870615303516387939e-01 2.970948934555053711e+00 1.037403106689453125e+00 6.163084506988525391e-01
4.228000000000000000e+03 5.727630233764648438e+01 1.677934837341308594e+01 3.514023721218109131e-01 1.465111732482910156e+00 5.449542403221130371e-01 3.322127163410186768e-01
4.229000000000000000e+03 5.206386184692382812e+01 1.932156944274902344e+01 -7.648668438196182251e-02 4.823614656925201416e-01 1.217624396085739136e-01 -3.609694838523864746e-01
4.230000000000000000e+03 5.083999633789062500e+01 1.761846923828125000e+01 7.373728603124618530e-02 5.280774235725402832e-01 1.805444061756134033e-01 -3.993045389652252197e-01
4.231000000000000000e+03 4.650162887573242188e+01 1.760213661193847656e+01 -5.229633301496505737e-02 2.738135159015655518e-01 6.645515561103820801e-02 -6.375762224197387695e-01
4.232000000000000000e+03 6.572859954833984375e+01 1.846057319641113281e+01 -4.328727722167968750e-02 4.433402538299560547e+00 1.317034602165222168e+00 1.529774665832519531e+00
4.233000000000000000e+03 6.007188034057617188e+01 1.378230762481689453e+01 4.598000347614288330e-01 2.563382387161254883e+00 9.069547057151794434e-01 6.801957488059997559e-01
4.234000000000000000e+03 6.140005493164062500e+01 1.740711975097656250e+01 3.229869306087493896e-01 2.533186912536621094e+00 8.568521738052368164e-01 9.342641234397888184e-01
4.235000000000000000e+03 4.148908996582031250e+01 1.736556434631347656e+01 -1.025332212448120117e-01 6.437963247299194336e-02 -1.144607551395893097e-02 -7.455460429191589355e-01
4.236000000000000000e+03 4.468442153930664062e+01 1.770975303649902344e+01 -9.181489795446395874e-02 1.906163394451141357e-01 2.964043244719505310e-02 -6.957739591598510742e-01
4.237000000000000000e+03 5.485401535034179688e+01 1.755642509460449219e+01 2.277771234512329102e-01 9.538860917091369629e-01 3.544989824295043945e-01 -3.921383060514926910e-03
4.238000000000000000e+03 5.753588104248046875e+01 1.590345954895019531e+01 4.020046293735504150e-01 1.640712141990661621e+00 6.128150224685668945e-01 3.772262334823608398e-01
4.239000000000000000e+03 4.063970947265625000e+01 1.822116851806640625e+01 -1.594258546829223633e-01 2.661105431616306305e-02 -3.984444215893745422e-02 -7.514957785606384277e-01
4.240000000000000000e+03 6.124047470092773438e+01 1.298234748840332031e+01 4.311704635620117188e-01 3.007374763488769531e+00 1.031563639640808105e+00 7.765675783157348633e-01
4.241000000000000000e+03 6.016523361206054688e+01 1.294602298736572266e+01 4.674471616744995117e-01 2.658936262130737305e+00 9.379149675369262695e-01 6.713069081306457520e-01
4.242000000000000000e+03 6.117211151123046875e+01 9.836316108703613281e+00 4.669288992881774902e-01 3.231129407882690430e+00 1.109417438507080078e+00 6.713342070579528809e-01
4.243000000000000000e+03 3.995807266235351562e+01 1.646385192871093750e+01 -5.740360170602798462e-02 4.219921771436929703e-03 -1.595510356128215790e-02 -7.431381940841674805e-01
4.244000000000000000e+03 6.210752105712890625e+01 1.448805427551269531e+01 3.675701916217803955e-01 3.133198738098144531e+00 1.050230741500854492e+00 9.068138599395751953e-01
4.245000000000000000e+03 4.357918167114257812e+01 1.696049308776855469e+01 -4.839814081788063049e-02 1.597235649824142456e-01 3.339762613177299500e-02 -7.078080177307128906e-01
4.246000000000000000e+03 5.957987594604492188e+01 1.550514316558837891e+01 4.156420826911926270e-01 2.213847875595092773e+00 7.888469696044921875e-01 6.555110812187194824e-01
4.247000000000000000e+03 4.196036911010742188e+01 1.594590282440185547e+01 -8.509676903486251831e-03 1.042969599366188049e-01 2.873618528246879578e-02 -7.192570567131042480e-01
4.248000000000000000e+03 6.212826919555664062e+01 1.581857585906982422e+01 3.329299092292785645e-01 3.026056051254272461e+00 1.007695794105529785e+00 9.751737117767333984e-01
4.249000000000000000e+03 6.163449859619140625e+01 7.057792663574218750e+00 4.581206440925598145e-01 3.533729553222656250e+00 1.197555065155029297e+00 6.171969175338745117e-01
4.250000000000000000e+03 6.035216522216796875e+01 4.264134883880615234e+00 4.675653576850891113e-01 3.346184253692626953e+00 1.144124865531921387e+00 4.765225648880004883e-01
4.251000000000000000e+03 6.018422698974609375e+01 6.841033458709716797e+00 4.936265647411346436e-01 3.149581432342529297e+00 1.092962384223937988e+00 5.290500521659851074e-01
4.252000000000000000e+03 6.005858993530273438e+01 -4.388586044311523438e+00 3.608159124851226807e-01 3.592353343963623047e+00 1.185950756072998047e+00 3.179375231266021729e-01
4.253000000000000000e+03 6.362551498413085938e+01 1.628135681152343750e+01 2.426124662160873413e-01 3.572909355163574219e+00 1.144656538963317871e+00 1.173973083496093750e+00
4.254000000000000000e+03 5.866655349731445312e+01 6.058094024658203125e+00 5.217613577842712402e-01 2.858841657638549805e+00 1.014180898666381836e+00 4.287874102592468262e-01
4.255000000000000000e+03 4.344945144653320312e+01 9.086031913757324219e+00 2.951701283454895020e-01 3.701531291007995605e-01 1.995969861745834351e-01 -5.301145911216735840e-01
4.256000000000000000e+03 4.209404754638671875e+01 4.636940002441406250e+00 3.235311508178710938e-01 3.785139322280883789e-01 2.106135189533233643e-01 -4.553905725479125977e-01
4.257000000000000000e+03 4.295789337158203125e+01 1.650684928894042969e+01 -2.495835535228252411e-02 1.412647813558578491e-01 3.489192947745323181e-02 -7.140868306159973145e-01
4.258000000000000000e+03 4.136416625976562500e+01 1.346039772033691406e+01 1.073539406061172485e-01 1.150476858019828796e-01 6.672048568725585938e-02 -6.892848014831542969e-01
4.259000000000000000e+03 5.507714080810546875e+01 -1.209068870544433594e+01 2.899207174777984619e-01 2.834002733230590820e+00 9.371770024299621582e-01 1.191694214940071106e-01
4.260000000000000000e+03 4.241906738281250000e+01 2.565613985061645508e-01 3.388448953628540039e-01 5.331200361251831055e-01 2.615894675254821777e-01 -3.442414700984954834e-01
4.261000000000000000e+03 5.915237808227539062e+01 -1.519206619262695312e+01 2.180139273405075073e-01 3.589214086532592773e+00 1.142168402671813965e+00 1.655980348587036133e-01
4.262000000000000000e+03 5.954073333740234375e+01 -1.316211986541748047e+01 2.458810210227966309e-01 3.654940128326416016e+00 1.170246362686157227e+00 1.946633160114288330e-01
4.263000000000000000e+03 4.093085861206054688e+01 -4.787530422210693359e+00 2.815493941307067871e-01 4.593864679336547852e-01 2.222807556390762329e-01 -2.761665582656860352e-01
4.264000000000000000e+03 4.408733367919921875e+01 -3.241944789886474609e+00 3.508121669292449951e-01 8.467193245887756348e-01 3.592594563961029053e-01 -2.309406101703643799e-01
4.265000000000000000e+03 6.086801910400390625e+01 7.620170593261718750e+00 4.760214984416961670e-01 3.295932054519653320e+00 1.131586074829101562e+00 5.844682455062866211e-01
4.266000000000000000e+03 5.817613601684570312e+01 -1.594508886337280273e+00 4.325572848320007324e-01 3.107616186141967773e+00 1.062052011489868164e+00 2.931059002876281738e-01
4.267000000000000000e+03 5.743917083740234375e+01 6.422613263130187988e-01 4.756059050559997559e-01 2.882678270339965820e+00 1.007485270500183105e+00 2.931360304355621338e-01
4.268000000000000000e+03 4.250371551513671875e+01 3.126913309097290039e+00 3.439684212207794189e-01 4.731444120407104492e-01 2.451338469982147217e-01 -4.052851796150207520e-01
4.269000000000000000e+03 4.078286361694335938e+01 -6.539440631866455078e+00 2.626283764839172363e-01 4.733542203903198242e-01 2.207947820425033569e-01 -2.507593929767608643e-01
4.270000000000000000e+03 4.089859771728515625e+01 -1.459945774078369141e+01 1.973486542701721191e-01 6.125462651252746582e-01 2.429684847593307495e-01 -1.329977214336395264e-01
4.271000000000000000e+03 4.195450592041015625e+01 -1.058653354644775391e+01 2.529374063014984131e-01 7.107251882553100586e-01 2.890987694263458252e-01 -1.713656187057495117e-01
4.272000000000000000e+03 6.291381072998046875e+01 1.704697799682617188e+01 2.621253430843353271e-01 3.171153306961059570e+00 1.029983520507812500e+00 1.143919706344604492e+00
4.273000000000000000e+03 6.467942047119140625e+01 1.795288658142089844e+01 8.742385357618331909e-02 3.966153383255004883e+00 1.216073155403137207e+00 1.403740286827087402e+00
4.274000000000000000e+03 4.978221893310546875e+01 1.585115432739257812e+01 1.804601252079010010e-01 5.689641237258911133e-01 2.248272746801376343e-01 -4.156849086284637451e-01
4.275000000000000000e+03 5.152732849121093750e+01 1.645301818847656250e+01 1.967943906784057617e-01 6.807143688201904297e-01 2.632526159286499023e-01 -3.057064414024353027e-01
4.276000000000000000e+03 5.628376770019531250e+01 1.470423984527587891e+01 4.391694068908691406e-01 1.547033905982971191e+00 5.958610177040100098e-01 2.502324581146240234e-01
4.277000000000000000e+03 5.867095565795898438e+01 1.524621486663818359e+01 4.354294240474700928e-01 1.999716401100158691e+00 7.305437326431274414e-01 5.253834724426269531e-01
4.278000000000000000e+03 5.780241775512695312e+01 1.504983997344970703e+01 4.435771703720092773e-01 1.819712281227111816e+00 6.789868474006652832e-01 4.186774790287017822e-01
4.279000000000000000e+03 5.812200546264648438e+01 7.384596347808837891e+00 5.342926383018493652e-01 2.628270626068115234e+00 9.487690329551696777e-01 4.104981720447540283e-01
4.280000000000000000e+03 5.627420425415039062e+01 1.655051040649414062e+01 3.444778621196746826e-01 1.292299270629882812e+00 4.910331666469573975e-01 1.991509497165679932e-01
4.281000000000000000e+03 5.670392608642578125e+01 1.568602848052978516e+01 4.038170576095581055e-01 1.502498149871826172e+00 5.718945264816284180e-01 2.749656736850738525e-01
4.282000000000000000e+03 5.170742416381835938e+01 1.742496871948242188e+01 1.182530969381332397e-01 6.135122776031494141e-01 2.195295989513397217e-01 -3.247132003307342529e-01
4.283000000000000000e+03 4.742166519165039062e+01 1.665576934814453125e+01 5.319742485880851746e-02 3.587563633918762207e-01 1.235861405730247498e-01 -5.751289129257202148e-01
4.284000000000000000e+03 4.650016021728515625e+01 1.651140785217285156e+01 4.464364051818847656e-02 3.196175694465637207e-01 1.092783659696578979e-01 -6.102406978607177734e-01
4.285000000000000000e+03 5.456975555419921875e+01 1.653180503845214844e+01 2.952173650264739990e-01 1.031810522079467773e+00 3.981083631515502930e-01 1.653268584050238132e-03
4.286000000000000000e+03 4.294240570068359375e+01 1.728425979614257812e+01 -8.577045053243637085e-02 1.204342246055603027e-01 1.039913203567266464e-02 -7.217399477958679199e-01
4.287000000000000000e+03 4.275254058837890625e+01 1.557130432128906250e+01 1.965634338557720184e-02 1.443266570568084717e-01 4.919489845633506775e-02 -7.019663453102111816e-01
4.288000000000000000e+03 6.068089294433593750e+01 8.957337379455566406e+00 4.864543974399566650e-01 3.156495571136474609e+00 1.092885017395019531e+00 6.096366643905639648e-01
4.289000000000000000e+03 6.287016677856445312e+01 1.537507057189941406e+01 3.137575089931488037e-01 3.333379983901977539e+00 1.094141244888305664e+00 1.037746548652648926e+00
4.290000000000000000e+03 4.559600448608398438e+01 1.511840629577636719e+01 1.141841411590576172e-01 3.143222033977508545e-01 1.285519003868103027e-01 -6.122055053710937500e-01
4.291000000000000000e+03 5.922727203369140625e+01 1.627279663085937500e+01 3.984443843364715576e-01 2.011938571929931641e+00 7.231149077415466309e-01 6.155621409416198730e-01
4.292000000000000000e+03 6.112244415283203125e+01 1.397112560272216797e+01 4.208768308162689209e-01 2.882251977920532227e+00 9.909386038780212402e-01 8.011924624443054199e-01
4.293000000000000000e+03 4.437283325195312500e+01 1.647797012329101562e+01 3.083675110246986151e-04 2.074572592973709106e-01 6.232969090342521667e-02 -6.824442148208618164e-01
4.294000000000000000e+03 4.544342422485351562e+01 1.635344123840332031e+01 2.937890589237213135e-02 2.643496394157409668e-01 8.811856806278228760e-02 -6.496596336364746094e-01
4.295000000000000000e+03 6.135819244384765625e+01 1.661224937438964844e+01 3.568676114082336426e-01 2.632378339767456055e+00 8.967737555503845215e-01 9.154282212257385254e-01
4.296000000000000000e+03 6.431948852539062500e+01 1.696968460083007812e+01 1.761732548475265503e-01 3.836284875869750977e+00 1.203737497329711914e+00 1.273095250129699707e+00
4.297000000000000000e+03 6.404293060302734375e+01 1.767322349548339844e+01 1.570348888635635376e-01 3.630553483963012695e+00 1.136276483535766602e+00 1.287156105041503906e+00
4.298000000000000000e+03 5.946908569335937500e+01 6.245637893676757812e+00 5.076748132705688477e-01 3.021400451660156250e+00 1.058722496032714844e+00 4.775393009185791016e-01
4.299000000000000000e+03 5.775888061523437500e+01 2.218940496444702148e+00 4.930970966815948486e-01 2.872480869293212891e+00 1.009673357009887695e+00 3.239796161651611328e-01
4.300000000000000000e+03 6.076654434204101562e+01 1.485595226287841797e+01 4.145047962665557861e-01 2.656385421752929688e+00 9.212670922279357910e-01 7.977697849273681641e-01
4.301000000000000000e+03 6.048831176757812500e+01 1.660293388366699219e+01 3.707699179649353027e-01 2.315111637115478516e+00 8.057644963264465332e-01 8.030714988708496094e-01
4.302000000000000000e+03 5.770080184936523438e+01 3.709043502807617188e+00 5.117669701576232910e-01 2.776626825332641602e+00 9.865181446075439453e-01 3.413745760917663574e-01
4.303000000000000000e+03 4.138045501708984375e+01 9.092028617858886719e+00 2.448183298110961914e-01 2.065417468547821045e-01 1.354080289602279663e-01 -5.865516066551208496e-01
4.304000000000000000e+03 4.195834350585937500e+01 7.595339298248291016e+00 2.899979650974273682e-01 2.880218029022216797e-01 1.734059303998947144e-01 -5.315762758255004883e-01
4.305000000000000000e+03 4.288253021240234375e+01 3.969201087951660156e+00 3.380253612995147705e-01 4.785844683647155762e-01 2.449829429388046265e-01 -4.166760146617889404e-01
4.306000000000000000e+03 4.431788253784179688e+01 4.094048023223876953e+00 3.692407906055450439e-01 6.372642517089843750e-01 3.019515275955200195e-01 -3.718535304069519043e-01
4.307000000000000000e+03 4.223685455322265625e+01 1.281555747985839844e+01 1.534490287303924561e-01 1.804462522268295288e-01 1.001685857772827148e-01 -6.567957997322082520e-01
4.308000000000000000e+03 4.251978302001953125e+01 -4.937679767608642578e+00 3.057900965213775635e-01 6.764615774154663086e-01 2.946754992008209229e-01 -2.412754446268081665e-01
4.309000000000000000e+03 5.606035995483398438e+01 -6.188161373138427734e+00 3.769901692867279053e-01 2.871695756912231445e+00 9.746057391166687012e-01 1.779737919569015503e-01
4.310000000000000000e+03 4.152391815185546875e+01 -1.257902145385742188e+01 2.218470424413681030e-01 6.694486737251281738e-01 2.673887014389038086e-01 -1.512135267257690430e-01
4.311000000000000000e+03 4.392418670654296875e+01 2.260792851448059082e-01 3.706909418106079102e-01 7.277683615684509277e-01 3.295378088951110840e-01 -2.990830838680267334e-01
4.312000000000000000e+03 4.532989501953125000e+01 1.965298533439636230e+00 4.036035835742950439e-01 8.311190605163574219e-01 3.704167902469635010e-01 -2.880995869636535645e-01
4.313000000000000000e+03 4.550270080566406250e+01 3.652474880218505859e+00 4.024448692798614502e-01 7.834404110908508301e-01 3.557655811309814453e-01 -3.163848817348480225e-01
4.314000000000000000e+03 5.813121795654296875e+01 -5.265941143035888672e+00 3.742823898792266846e-01 3.230542421340942383e+00 1.081447482109069824e+00 2.489278316497802734e-01
4.315000000000000000e+03 5.699705886840820312e+01 -8.573122024536132812e+00 3.298901319503784180e-01 3.099685430526733398e+00 1.028872728347778320e+00 1.829964667558670044e-01
4.316000000000000000e+03 4.003366851806640625e+01 8.269163131713867188e+00 2.233898043632507324e-01 9.888063371181488037e-02 9.668113291263580322e-02 -5.933320522308349609e-01
4.317000000000000000e+03 4.209832382202148438e+01 -1.741959762573242188e+01 1.813362389802932739e-01 8.298215270042419434e-01 3.033473491668701172e-01 -9.418427944183349609e-02
4.318000000000000000e+03 4.783757781982421875e+01 -1.118154239654541016e+01 2.968964278697967529e-01 1.615360260009765625e+00 5.736770033836364746e-01 -4.866936057806015015e-02
4.319000000000000000e+03 6.255874633789062500e+01 -1.789403724670410156e+01 1.484920680522918701e-01 4.246385574340820312e+00 1.318463325500488281e+00 1.630856841802597046e-01
4.320000000000000000e+03 5.437947845458984375e+01 -1.465509510040283203e+01 2.563555240631103516e-01 2.772817373275756836e+00 9.087519049644470215e-01 1.021496132016181946e-01
4.321000000000000000e+03 5.455030822753906250e+01 -5.423036098480224609e+00 3.960650265216827393e-01 2.557414293289184570e+00 8.860437870025634766e-01 1.320203989744186401e-01
4.322000000000000000e+03 3.868015289306640625e+01 6.506038665771484375e+00 2.198036015033721924e-01 1.588757336139678955e-02 7.070735096931457520e-02 -5.698151588439941406e-01
4.323000000000000000e+03 5.578327178955078125e+01 -1.349608612060546875e+01 2.641985118389129639e-01 2.996520996093750000e+00 9.782158732414245605e-01 1.310125291347503662e-01
4.324000000000000000e+03 2.756389999389648438e+01 -4.122550964355468750e+01 1.820917278528213501e-01 -1.384369850158691406e+00 -3.606834411621093750e-01 2.447012998163700104e-02
4.325000000000000000e+03 2.498424720764160156e+01 -3.110465049743652344e+01 -5.585069209337234497e-02 -1.728923082351684570e+00 -5.354321599006652832e-01 -1.077958196401596069e-01
4.326000000000000000e+03 4.374163818359375000e+01 1.515307235717773438e+01 6.562450528144836426e-02 2.096161842346191406e-01 8.257220685482025146e-02 -6.699452996253967285e-01
4.327000000000000000e+03 6.220195007324218750e+01 1.662196350097656250e+01 3.213681578636169434e-01 2.987829208374023438e+00 9.927592277526855469e-01 1.016384959220886230e+00
4.328000000000000000e+03 5.054524230957031250e+01 1.568136215209960938e+01 2.209521830081939697e-01 6.463472247123718262e-01 2.601898312568664551e-01 -3.525612652301788330e-01
4.329000000000000000e+03 5.260930252075195312e+01 1.717123031616210938e+01 1.736984997987747192e-01 7.222054004669189453e-01 2.687711715698242188e-01 -2.330045253038406372e-01
4.330000000000000000e+03 5.948766708374023438e+01 1.050168228149414062e+01 5.103642344474792480e-01 2.709332466125488281e+00 9.659090042114257812e-01 5.623279213905334473e-01
4.331000000000000000e+03 5.355848312377929688e+01 1.687294197082519531e+01 2.331115901470184326e-01 8.506794571876525879e-01 3.251373171806335449e-01 -1.275233179330825806e-01
4.332000000000000000e+03 4.836839675903320312e+01 1.582247066497802734e+01 1.449332833290100098e-01 4.682758152484893799e-01 1.839627325534820557e-01 -5.023200511932373047e-01
4.333000000000000000e+03 4.905708312988281250e+01 1.597202491760253906e+01 1.538494080305099487e-01 5.053939223289489746e-01 1.977729946374893188e-01 -4.637133181095123291e-01
4.334000000000000000e+03 5.802726745605468750e+01 1.421055221557617188e+01 4.692659378051757812e-01 1.970470070838928223e+00 7.319208383560180664e-01 4.434489011764526367e-01
4.335000000000000000e+03 5.925588607788085938e+01 1.290142917633056641e+01 4.883311390876770020e-01 2.429418563842773438e+00 8.753249049186706543e-01 5.846176743507385254e-01
4.336000000000000000e+03 5.982129287719726562e+01 1.129995822906494141e+01 4.924847781658172607e-01 2.743654727935791016e+00 9.708418846130371094e-01 6.091914176940917969e-01
4.337000000000000000e+03 5.944549179077148438e+01 8.611068725585937500e+00 5.194637179374694824e-01 2.864111661911010742e+00 1.015072584152221680e+00 5.217448472976684570e-01
4.338000000000000000e+03 5.907996368408203125e+01 9.702214241027832031e+00 5.160772800445556641e-01 2.674852848052978516e+00 9.572790861129760742e-01 5.046930909156799316e-01
4.339000000000000000e+03 4.158454895019531250e+01 1.656464958190917969e+01 -4.782287403941154480e-02 7.923334091901779175e-02 9.423139505088329315e-03 -7.350006103515625000e-01
4.340000000000000000e+03 6.135970687866210938e+01 1.585712242126464844e+01 3.658882379531860352e-01 2.705330848693847656e+00 9.213656783103942871e-01 9.047935605049133301e-01
4.341000000000000000e+03 5.527575302124023438e+01 -3.904524326324462891e+00 4.153724014759063721e-01 2.643622636795043945e+00 9.176985621452331543e-01 1.624927967786788940e-01
4.342000000000000000e+03 6.012745285034179688e+01 8.146306991577148438e+00 4.969492852687835693e-01 3.050798654556274414e+00 1.064324378967285156e+00 5.539724826812744141e-01
4.343000000000000000e+03 5.769909286499023438e+01 6.280781269073486328e+00 5.378354191780090332e-01 2.603919982910156250e+00 9.425265789031982422e-01 3.673731684684753418e-01
4.344000000000000000e+03 4.295267105102539062e+01 1.394878387451171875e+01 1.188900247216224670e-01 1.973351240158081055e-01 9.486754238605499268e-02 -6.636711359024047852e-01
4.345000000000000000e+03 4.663721084594726562e+01 1.539350318908691406e+01 1.227421909570693970e-01 3.740722537040710449e-01 1.490443348884582520e-01 -5.779342055320739746e-01
4.346000000000000000e+03 4.859242248535156250e+01 1.428575992584228516e+01 2.467639446258544922e-01 5.786687731742858887e-01 2.476298213005065918e-01 -4.461760520935058594e-01
4.347000000000000000e+03 5.904477691650390625e+01 3.833841562271118164e+00 4.923386275768280029e-01 3.035907506942749023e+00 1.058473825454711914e+00 4.102480113506317139e-01
4.348000000000000000e+03 4.305311965942382812e+01 1.224428653717041016e+01 1.860843747854232788e-01 2.452692389488220215e-01 1.294060796499252319e-01 -6.271103024482727051e-01
4.349000000000000000e+03 6.158831787109375000e+01 1.518945026397705078e+01 3.806605339050292969e-01 2.885218620300292969e+00 9.797637462615966797e-01 8.984378576278686523e-01
4.350000000000000000e+03 4.361360549926757812e+01 5.492752552032470703e+00 3.564566671848297119e-01 4.993131756782531738e-01 2.567309439182281494e-01 -4.317028820514678955e-01
4.351000000000000000e+03 4.324834442138671875e+01 7.831123828887939453e+00 3.167773187160491943e-01 3.938112854957580566e-01 2.131765782833099365e-01 -5.037464499473571777e-01
4.352000000000000000e+03 5.615772247314453125e+01 2.533948421478271484e+00 5.094861388206481934e-01 2.515365600585937500e+00 9.074555039405822754e-01 2.373716384172439575e-01
4.353000000000000000e+03 5.741696548461914062e+01 -3.089262008666992188e+00 4.155456125736236572e-01 3.020579576492309570e+00 1.030837535858154297e+00 2.468895912170410156e-01
4.354000000000000000e+03 4.342868804931640625e+01 4.658981800079345703e+00 3.483013808727264404e-01 5.027006268501281738e-01 2.553006112575531006e-01 -4.154486060142517090e-01
4.355000000000000000e+03 4.399034118652343750e+01 -1.487260103225708008e+00 3.608581721782684326e-01 7.866222858428955078e-01 3.442441225051879883e-01 -2.651897966861724854e-01
4.356000000000000000e+03 4.535611343383789062e+01 2.292544245719909668e-01 3.950816094875335693e-01 9.013322591781616211e-01 3.889241516590118408e-01 -2.519308626651763916e-01
4.357000000000000000e+03 4.673687744140625000e+01 1.844827532768249512e+00 4.334774017333984375e-01 1.018954038619995117e+00 4.357294440269470215e-01 -2.300675660371780396e-01
4.358000000000000000e+03 4.690989685058593750e+01 3.518887042999267578e+00 4.302470982074737549e-01 9.724743366241455078e-01 4.208164215087890625e-01 -2.570283114910125732e-01
4.359000000000000000e+03 4.524794769287109375e+01 1.187892818450927734e+01 2.628014385700225830e-01 4.180795252323150635e-01 2.042642831802368164e-01 -5.352409482002258301e-01
4.360000000000000000e+03 4.587225341796875000e+01 -5.050002098083496094e+00 3.559978604316711426e-01 1.149970293045043945e+00 4.517904520034790039e-01 -1.515373140573501587e-01
4.361000000000000000e+03 5.427393722534179688e+01 1.734854817390441895e+00 5.046603083610534668e-01 2.206698894500732422e+00 8.134077191352844238e-01 1.387983560562133789e-01
4.362000000000000000e+03 5.538566589355468750e+01 -7.803041934967041016e+00 3.551252484321594238e-01 2.787461280822753906e+00 9.427759647369384766e-01 1.510712951421737671e-01
4.363000000000000000e+03 5.384799194335937500e+01 -1.016675853729248047e+01 3.204910755157470703e-01 2.561495780944824219e+00 8.645960688591003418e-01 9.078130871057510376e-02
4.364000000000000000e+03 4.243930053710937500e+01 -6.755139350891113281e+00 2.890990674495697021e-01 7.056938409805297852e-01 2.984378635883331299e-01 -2.121935188770294189e-01
4.365000000000000000e+03 5.988141632080078125e+01 -1.887446975708007812e+01 1.826266199350357056e-01 3.778123140335083008e+00 1.188224911689758301e+00 1.406791657209396362e-01
4.366000000000000000e+03 5.725519943237304688e+01 -1.458264064788818359e+01 2.430122196674346924e-01 3.265472650527954102e+00 1.052545428276062012e+00 1.565276980400085449e-01
4.367000000000000000e+03 5.756471252441406250e+01 -1.781290817260742188e+01 2.054754793643951416e-01 3.381006717681884766e+00 1.075944662094116211e+00 1.288584321737289429e-01
4.368000000000000000e+03 4.239339447021484375e+01 6.276840686798095703e+00 3.167203068733215332e-01 3.609814047813415527e-01 2.033105045557022095e-01 -4.840826094150543213e-01
4.369000000000000000e+03 4.282505416870117188e+01 5.289642810821533203e+00 3.356839716434478760e-01 4.237081706523895264e-01 2.278176397085189819e-01 -4.477735161781311035e-01
4.370000000000000000e+03 5.664030456542968750e+01 -1.040896987915039062e+01 3.074724674224853516e-01 3.093194484710693359e+00 1.020200133323669434e+00 1.603291630744934082e-01
4.371000000000000000e+03 5.355373764038085938e+01 -1.263460540771484375e+01 2.864356935024261475e-01 2.556052446365356445e+00 8.527464270591735840e-01 9.143840521574020386e-02
4.372000000000000000e+03 4.398662185668945312e+01 -1.819257545471191406e+01 1.924962103366851807e-01 1.111724138259887695e+00 3.912661075592041016e-01 -5.572313815355300903e-02
4.373000000000000000e+03 5.384125900268554688e+01 -6.897672176361083984e+00 3.728329241275787354e-01 2.476421117782592773e+00 8.547762036323547363e-01 1.068337336182594299e-01
4.374000000000000000e+03 5.671939849853515625e+01 -4.618969917297363281e+00 3.968109190464019775e-01 2.937549352645874023e+00 1.000308156013488770e+00 2.127853333950042725e-01
4.375000000000000000e+03 4.417497634887695312e+01 -6.909697532653808594e+00 3.116422891616821289e-01 9.546970725059509277e-01 3.799018263816833496e-01 -1.720237433910369873e-01
4.376000000000000000e+03 6.061269378662109375e+01 -2.092300033569335938e+01 1.425535231828689575e-01 3.915876626968383789e+00 1.217529058456420898e+00 1.162924468517303467e-01
4.377000000000000000e+03 5.699652481079101562e+01 1.486395359039306641e+01 4.433306157588958740e-01 1.664623260498046875e+00 6.323861479759216309e-01 3.236477673053741455e-01
4.378000000000000000e+03 5.850023651123046875e+01 1.264237976074218750e+01 5.005361437797546387e-01 2.277840375900268555e+00 8.335129618644714355e-01 4.983560144901275635e-01
4.379000000000000000e+03 5.037961578369140625e+01 1.469282245635986328e+01 2.825808823108673096e-01 7.038704752922058105e-01 2.959353923797607422e-01 -3.282125294208526611e-01
4.380000000000000000e+03 5.132604980468750000e+01 1.548244953155517578e+01 2.585320770740509033e-01 7.342522144317626953e-01 2.978352904319763184e-01 -2.914980947971343994e-01
4.381000000000000000e+03 4.681105804443359375e+01 1.431092357635498047e+01 1.942674815654754639e-01 4.343774616718292236e-01 1.885934919118881226e-01 -5.358409285545349121e-01
4.382000000000000000e+03 4.959939193725585938e+01 1.495226860046386719e+01 2.373091876506805420e-01 6.229087114334106445e-01 2.580653727054595947e-01 -3.933189511299133301e-01
4.383000000000000000e+03 5.238660812377929688e+01 1.618940544128417969e+01 2.451443970203399658e-01 7.922905683517456055e-01 3.112305104732513428e-01 -2.197772115468978882e-01
4.384000000000000000e+03 5.870978164672851562e+01 8.842649459838867188e+00 5.240507721900939941e-01 2.660071372985839844e+00 9.552366733551025391e-01 4.732111394405364990e-01
4.385000000000000000e+03 5.636035156250000000e+01 3.882268190383911133e+00 5.234552025794982910e-01 2.495189428329467773e+00 9.055933356285095215e-01 2.571292221546173096e-01
4.386000000000000000e+03 5.563514328002929688e+01 1.478333950042724609e+01 4.236774444580078125e-01 1.391988873481750488e+00 5.446999073028564453e-01 1.724788546562194824e-01
4.387000000000000000e+03 5.351187896728515625e+01 1.334372425079345703e+01 4.349421262741088867e-01 1.206268310546875000e+00 4.923631548881530762e-01 -3.002999909222126007e-02
4.388000000000000000e+03 4.883919143676757812e+01 1.520247173309326172e+01 1.938927918672561646e-01 5.377746820449829102e-01 2.195002436637878418e-01 -4.546161890029907227e-01
4.389000000000000000e+03 5.413941955566406250e+01 1.551766109466552734e+01 3.524533510208129883e-01 1.087355732917785645e+00 4.319427311420440674e-01 -1.833825744688510895e-02
4.390000000000000000e+03 5.544014358520507812e+01 1.599393558502197266e+01 3.575494289398193359e-01 1.217835426330566406e+00 4.726154506206512451e-01 1.163768097758293152e-01
4.391000000000000000e+03 5.911835098266601562e+01 1.362250518798828125e+01 4.766305983066558838e-01 2.331986665725708008e+00 8.425851464271545410e-01 5.844830870628356934e-01
4.392000000000000000e+03 4.375635910034179688e+01 1.332255363464355469e+01 1.630531549453735352e-01 2.563138604164123535e-01 1.258101016283035278e-01 -6.304466128349304199e-01
4.393000000000000000e+03 5.950987243652343750e+01 7.452747344970703125e+00 5.053439736366271973e-01 2.934353828430175781e+00 1.031909346580505371e+00 4.992030262947082520e-01
4.394000000000000000e+03 4.600223541259765625e+01 1.411278247833251953e+01 1.784336566925048828e-01 3.799811005592346191e-01 1.675244271755218506e-01 -5.715907812118530273e-01
4.395000000000000000e+03 4.458216857910156250e+01 1.438561058044433594e+01 1.250461786985397339e-01 2.781587243080139160e-01 1.209614723920822144e-01 -6.307467222213745117e-01
4.396000000000000000e+03 5.891674804687500000e+01 6.827465534210205078e+00 5.184512734413146973e-01 2.858581542968750000e+00 1.013109803199768066e+00 4.548357427120208740e-01
4.397000000000000000e+03 4.222419738769531250e+01 1.660377883911132812e+01 -3.924022242426872253e-02 1.088476255536079407e-01 2.088221907615661621e-02 -7.264766693115234375e-01
4.398000000000000000e+03 4.757395553588867188e+01 1.554962635040283203e+01 1.367882341146469116e-01 4.258826673030853271e-01 1.688012629747390747e-01 -5.360039472579956055e-01
4.399000000000000000e+03 5.578369522094726562e+01 1.161886811256408691e+00 4.962135553359985352e-01 2.509028434753417969e+00 9.015725851058959961e-01 2.155575603246688843e-01
4.400000000000000000e+03 5.673170852661132812e+01 -8.861416578292846680e-01 4.591056406497955322e-01 2.808279514312744141e+00 9.802155494689941406e-01 2.432637512683868408e-01
4.401000000000000000e+03 4.445729446411132812e+01 7.715728282928466797e+00 3.535883426666259766e-01 5.159490108489990234e-01 2.608611881732940674e-01 -4.595093727111816406e-01
4.402000000000000000e+03 4.344655990600585938e+01 6.546724319458007812e+00 3.414295911788940430e-01 4.535710811614990234e-01 2.385001927614212036e-01 -4.642781317234039307e-01
4.403000000000000000e+03 4.560292816162109375e+01 6.459999561309814453e+00 4.033533930778503418e-01 7.010795474052429199e-01 3.313298821449279785e-01 -3.769709765911102295e-01
4.404000000000000000e+03 4.402777099609375000e+01 1.011912631988525391e+01 2.879714667797088623e-01 3.821587264537811279e-01 2.010390609502792358e-01 -5.406044721603393555e-01
4.405000000000000000e+03 4.243781661987304688e+01 1.106871318817138672e+01 2.139156907796859741e-01 2.350614964962005615e-01 1.346931606531143188e-01 -6.146091222763061523e-01
4.406000000000000000e+03 4.545038604736328125e+01 -1.477690696716308594e+00 3.862323760986328125e-01 9.762237668037414551e-01 4.087368249893188477e-01 -2.203623652458190918e-01
4.407000000000000000e+03 4.453226089477539062e+01 6.531854629516601562e+00 3.715673387050628662e-01 5.658074021339416504e-01 2.812124192714691162e-01 -4.217972755432128906e-01
4.408000000000000000e+03 4.407128524780273438e+01 -8.865900039672851562e+00 2.929652631282806396e-01 9.814819097518920898e-01 3.823341429233551025e-01 -1.485616266727447510e-01
4.409000000000000000e+03 5.319174194335937500e+01 -8.280577659606933594e+00 3.645258843898773193e-01 2.408063411712646484e+00 8.317767977714538574e-01 8.174470067024230957e-02
4.410000000000000000e+03 5.294628906250000000e+01 -1.098752212524414062e+01 3.084343671798706055e-01 2.426984786987304688e+00 8.206257820129394531e-01 8.038534969091415405e-02
4.411000000000000000e+03 4.580400466918945312e+01 -1.327438068389892578e+01 2.601896524429321289e-01 1.332136511802673340e+00 4.776978492736816406e-01 -7.018507272005081177e-02
4.412000000000000000e+03 4.784431076049804688e+01 -9.085455894470214844e+00 3.250126540660858154e-01 1.565124154090881348e+00 5.670410394668579102e-01 -5.654546245932579041e-02
4.413000000000000000e+03 5.482136154174804688e+01 -1.846082115173339844e+01 2.123987227678298950e-01 2.900716543197631836e+00 9.339346289634704590e-01 8.801843971014022827e-02
4.414000000000000000e+03 4.417068862915039062e+01 -5.041102409362792969e+00 3.318828642368316650e-01 9.075663089752197266e-01 3.718347549438476562e-01 -1.964706480503082275e-01
4.415000000000000000e+03 5.600542068481445312e+01 -2.389116525650024414e+00 4.394875168800354004e-01 2.721238374710083008e+00 9.482177495956420898e-01 2.015441507101058960e-01
4.416000000000000000e+03 5.456607818603515625e+01 -1.679507851600646973e+00 4.600148797035217285e-01 2.425868034362792969e+00 8.657648563385009766e-01 1.492224633693695068e-01
4.417000000000000000e+03 7.967279434204101562e+00 4.130954360961914062e+01 1.696437357168179005e-05 -1.158194390882272273e-05 1.614728830645617563e-06 -1.115084669436328113e-04
4.418000000000000000e+03 4.939802551269531250e+01 1.407628345489501953e+01 2.902239263057708740e-01 6.658120751380920410e-01 2.868108153343200684e-01 -3.810473084449768066e-01
4.419000000000000000e+03 5.113658905029296875e+01 1.453870105743408203e+01 3.140276968479156494e-01 7.904444336891174316e-01 3.313416242599487305e-01 -2.735579013824462891e-01
4.420000000000000000e+03 5.326978683471679688e+01 1.586944770812988281e+01 3.037603199481964111e-01 9.287115931510925293e-01 3.697415888309478760e-01 -1.154921278357505798e-01
4.421000000000000000e+03 5.213145065307617188e+01 1.520264911651611328e+01 3.101102411746978760e-01 8.617534041404724121e-01 3.515591025352478027e-01 -2.062966376543045044e-01
4.422000000000000000e+03 5.602036285400390625e+01 1.534976482391357422e+01 4.073486030101776123e-01 1.411756515502929688e+00 5.457315444946289062e-01 2.067981064319610596e-01
4.423000000000000000e+03 5.742455291748046875e+01 1.056869506835937500e+01 5.305759906768798828e-01 2.212787866592407227e+00 8.230091929435729980e-01 3.877806365489959717e-01
4.424000000000000000e+03 5.717942810058593750e+01 1.402361869812011719e+01 4.748702645301818848e-01 1.801434516906738281e+00 6.828914284706115723e-01 3.550535738468170166e-01
4.425000000000000000e+03 5.984496307373046875e+01 1.462684535980224609e+01 4.464716315269470215e-01 2.424049377441406250e+00 8.611562848091125488e-01 6.805705428123474121e-01
4.426000000000000000e+03 4.770260238647460938e+01 1.432709217071533203e+01 2.195822298526763916e-01 4.971852004528045654e-01 2.150302380323410034e-01 -4.945920705795288086e-01
4.427000000000000000e+03 5.648687362670898438e+01 5.179518699645996094e+00 5.384938120841979980e-01 2.441830396652221680e+00 8.940972685813903809e-01 2.812322080135345459e-01
4.428000000000000000e+03 5.892654800415039062e+01 1.151041793823242188e+01 5.056983828544616699e-01 2.466827630996704102e+00 8.917577862739562988e-01 5.300855040550231934e-01
4.429000000000000000e+03 4.462495422363281250e+01 1.102845191955566406e+01 2.844431698322296143e-01 3.999034166336059570e-01 2.053039819002151489e-01 -5.367586016654968262e-01
4.430000000000000000e+03 4.384811782836914062e+01 1.166623115539550781e+01 2.324976921081542969e-01 3.213852941989898682e-01 1.661648899316787720e-01 -5.804620385169982910e-01
4.431000000000000000e+03 5.885638046264648438e+01 8.058318138122558594e+00 5.188263058662414551e-01 2.731961011886596680e+00 9.752361774444580078e-01 4.780174195766448975e-01
4.432000000000000000e+03 4.717862701416015625e+01 1.274012756347656250e+01 2.822641134262084961e-01 5.361128449440002441e-01 2.455130815505981445e-01 -4.788230359554290771e-01
4.433000000000000000e+03 4.448213958740234375e+01 8.773128509521484375e+00 3.324278593063354492e-01 4.877771437168121338e-01 2.460614889860153198e-01 -4.810233712196350098e-01
4.434000000000000000e+03 4.764785766601562500e+01 -4.876574993133544922e+00 3.785753846168518066e-01 1.416785001754760742e+00 5.386080741882324219e-01 -9.787987172603607178e-02
4.435000000000000000e+03 5.183256530761718750e+01 1.429106140136718750e+01 3.476571142673492432e-01 9.012362360954284668e-01 3.746680021286010742e-01 -2.053939253091812134e-01
4.436000000000000000e+03 4.818089675903320312e+01 5.609139919281005859e+00 4.590336680412292480e-01 1.040789127349853516e+00 4.499468207359313965e-01 -2.338960468769073486e-01
4.437000000000000000e+03 4.690189743041992188e+01 5.125845432281494141e+00 4.343933463096618652e-01 9.043716192245483398e-01 4.016294777393341064e-01 -2.901475131511688232e-01
4.438000000000000000e+03 5.826142120361328125e+01 1.005888366699218750e+01 5.319277644157409668e-01 2.472913503646850586e+00 9.014523625373840332e-01 4.640150070190429688e-01
4.439000000000000000e+03 5.239900207519531250e+01 -1.531700611114501953e+01 2.555417418479919434e-01 2.457556009292602539e+00 8.139293193817138672e-01 6.398417055606842041e-02
4.440000000000000000e+03 4.661734390258789062e+01 7.537015438079833984e+00 4.065352082252502441e-01 7.427283525466918945e-01 3.447790741920471191e-01 -3.611381351947784424e-01
4.441000000000000000e+03 4.141080093383789062e+01 -1.963886260986328125e+01 1.600555926561355591e-01 7.541027069091796875e-01 2.742474973201751709e-01 -8.700828254222869873e-02
4.442000000000000000e+03 4.252172470092773438e+01 9.864026069641113281e+00 2.594035863876342773e-01 2.717579603195190430e-01 1.593484580516815186e-01 -5.741901397705078125e-01
4.443000000000000000e+03 4.539717483520507812e+01 8.829124450683593750e+00 3.579832613468170166e-01 5.706360340118408203e-01 2.785857915878295898e-01 -4.416852593421936035e-01
4.444000000000000000e+03 4.595161437988281250e+01 -9.003711700439453125e+00 3.157527148723602295e-01 1.265917420387268066e+00 4.745010435581207275e-01 -1.029355153441429138e-01
4.445000000000000000e+03 4.387656021118164062e+01 -1.092265319824218750e+01 2.714793384075164795e-01 1.001762628555297852e+00 3.819725811481475830e-01 -1.276368349790573120e-01
4.446000000000000000e+03 4.660816955566406250e+01 6.446080207824707031e+00 4.213005304336547852e-01 7.987652420997619629e-01 3.660197257995605469e-01 -3.364762663841247559e-01
4.447000000000000000e+03 4.566566848754882812e+01 5.145438194274902344e+00 4.005818665027618408e-01 7.466279268264770508e-01 3.441629409790039062e-01 -3.458075225353240967e-01
4.448000000000000000e+03 5.454035186767578125e+01 -9.073781013488769531e+00 3.434081673622131348e-01 2.693807840347290039e+00 9.111647605895996094e-01 1.199274361133575439e-01
4.449000000000000000e+03 5.669747161865234375e+01 -1.931624984741210938e+01 1.958421021699905396e-01 3.229798555374145508e+00 1.027692198753356934e+00 1.213358938694000244e-01
4.450000000000000000e+03 5.827673721313476562e+01 -1.944632530212402344e+01 1.854934990406036377e-01 3.540341138839721680e+00 1.117750406265258789e+00 1.216932386159896851e-01
4.451000000000000000e+03 4.673426055908203125e+01 2.114119976758956909e-01 4.164980947971343994e-01 1.076109290122985840e+00 4.477821886539459229e-01 -2.030958533287048340e-01
4.452000000000000000e+03 4.563836669921875000e+01 -3.228208541870117188e+00 3.786299526691436768e-01 1.066774129867553711e+00 4.336212277412414551e-01 -1.828056424856185913e-01
4.453000000000000000e+03 4.589014053344726562e+01 -1.882805442810058594e+01 2.009681612253189087e-01 1.438432097434997559e+00 4.918200969696044922e-01 -3.484908118844032288e-02
4.454000000000000000e+03 5.762388229370117188e+01 1.219989776611328125e+01 5.091813802719116211e-01 2.098360300064086914e+00 7.822625041007995605e-01 4.066548347473144531e-01
4.455000000000000000e+03 5.912364196777343750e+01 1.222294521331787109e+01 5.015406608581542969e-01 2.454717874526977539e+00 8.868775367736816406e-01 5.555073618888854980e-01
4.456000000000000000e+03 4.864082336425781250e+01 1.320908832550048828e+01 3.092942237854003906e-01 6.407547593116760254e-01 2.850146889686584473e-01 -4.086771011352539062e-01
4.457000000000000000e+03 5.027482223510742188e+01 9.130172729492187500e+00 4.702759087085723877e-01 1.093371272087097168e+00 4.690941572189331055e-01 -1.937999278306961060e-01
4.458000000000000000e+03 5.465259933471679688e+01 1.418653869628906250e+01 4.248440563678741455e-01 1.298833012580871582e+00 5.171031355857849121e-01 6.392647325992584229e-02
4.459000000000000000e+03 5.653239059448242188e+01 9.001421928405761719e+00 5.401264429092407227e-01 2.127820968627929688e+00 8.003841638565063477e-01 2.977677881717681885e-01
4.460000000000000000e+03 5.013899993896484375e+01 1.383959102630615234e+01 3.285159170627593994e-01 7.476438879966735840e-01 3.228479325771331787e-01 -3.204150497913360596e-01
4.461000000000000000e+03 5.132692718505859375e+01 1.368176841735839844e+01 3.609144091606140137e-01 8.821783661842346191e-01 3.729278445243835449e-01 -2.335204780101776123e-01
4.462000000000000000e+03 5.380146026611328125e+01 1.447394657135009766e+01 3.899181485176086426e-01 1.134275317192077637e+00 4.572580456733703613e-01 -2.807817235589027405e-02
4.463000000000000000e+03 5.493967819213867188e+01 1.513365745544433594e+01 3.867467343807220459e-01 1.232181668281555176e+00 4.856785237789154053e-01 7.261228561401367188e-02
4.464000000000000000e+03 5.868979644775390625e+01 1.080778408050537109e+01 5.170309543609619141e-01 2.496101617813110352e+00 9.039397835731506348e-01 4.920384287834167480e-01
4.465000000000000000e+03 5.735273742675781250e+01 1.314869594573974609e+01 4.928124547004699707e-01 1.922368764877319336e+00 7.245543599128723145e-01 3.764022290706634521e-01
4.466000000000000000e+03 5.634191513061523438e+01 1.392193412780761719e+01 4.671427607536315918e-01 1.637155532836914062e+00 6.312894821166992188e-01 2.695782184600830078e-01
4.467000000000000000e+03 4.788773727416992188e+01 1.312079238891601562e+01 2.901465296745300293e-01 5.844524502754211426e-01 2.623796761035919189e-01 -4.428687989711761475e-01
4.468000000000000000e+03 5.805183029174804688e+01 1.133458995819091797e+01 5.214454531669616699e-01 2.275591135025024414e+00 8.391109704971313477e-01 4.425664544105529785e-01
4.469000000000000000e+03 5.033753967285156250e+01 -2.872147321701049805e+00 4.360190629959106445e-01 1.767762303352355957e+00 6.611344218254089355e-01 -1.683604344725608826e-02
4.470000000000000000e+03 4.523604965209960938e+01 1.347426319122314453e+01 1.977270096540451050e-01 3.559909760951995850e-01 1.661153882741928101e-01 -5.827265977859497070e-01
4.471000000000000000e+03 4.557503890991210938e+01 7.709434986114501953e+00 3.824061155319213867e-01 6.346443891525268555e-01 3.051151335239410400e-01 -4.092815220355987549e-01
4.472000000000000000e+03 4.450684356689453125e+01 1.261640453338623047e+01 2.122620642185211182e-01 3.323501944541931152e-01 1.633836776018142700e-01 -5.858888626098632812e-01
4.473000000000000000e+03 5.295901489257812500e+01 1.482922935485839844e+01 3.570460081100463867e-01 9.988013505935668945e-01 4.067542254924774170e-01 -1.134005412459373474e-01
4.474000000000000000e+03 5.786255645751953125e+01 9.127384185791015625e+00 5.334979295730590820e-01 2.445401906967163086e+00 8.936699628829956055e-01 4.197898805141448975e-01
4.475000000000000000e+03 4.326532363891601562e+01 1.068834877014160156e+01 2.656686604022979736e-01 3.199551701545715332e-01 1.756871491670608521e-01 -5.730686187744140625e-01
4.476000000000000000e+03 4.682472229003906250e+01 -1.408272147178649902e+00 4.121502637863159180e-01 1.152318716049194336e+00 4.693406820297241211e-01 -1.690528094768524170e-01
4.477000000000000000e+03 5.728781509399414062e+01 8.176133155822753906e+00 5.402681827545166016e-01 2.391097307205200195e+00 8.794096708297729492e-01 3.576653003692626953e-01
4.478000000000000000e+03 5.659464645385742188e+01 6.457481384277343750e+00 5.425411462783813477e-01 2.376281976699829102e+00 8.756468892097473145e-01 2.982516884803771973e-01
4.479000000000000000e+03 4.744189071655273438e+01 6.819620132446289062e+00 4.350067973136901855e-01 8.678334355354309082e-01 3.908520638942718506e-01 -3.022840321063995361e-01
4.480000000000000000e+03 4.710337829589843750e+01 8.540806770324707031e+00 4.049526751041412354e-01 7.439623475074768066e-01 3.446744978427886963e-01 -3.614724278450012207e-01
4.481000000000000000e+03 5.055860519409179688e+01 2.218144685029983521e-01 4.760362207889556885e-01 1.668268799781799316e+00 6.432914733886718750e-01 -3.054289333522319794e-02
4.482000000000000000e+03 5.891784667968750000e+01 1.441768360137939453e+01 4.616219997406005859e-01 2.170306682586669922e+00 7.895785570144653320e-01 5.567507147789001465e-01
4.483000000000000000e+03 5.823299789428710938e+01 1.339802932739257812e+01 4.863534867763519287e-01 2.115567684173583984e+00 7.805762887001037598e-01 4.608424007892608643e-01
4.484000000000000000e+03 5.473330307006835938e+01 2.993942022323608398e+00 5.167979598045349121e-01 2.215866327285766602e+00 8.197993040084838867e-01 1.632754057645797729e-01
4.485000000000000000e+03 5.522735595703125000e+01 -2.363161891698837280e-01 4.834782183170318604e-01 2.483819723129272461e+00 8.901894092559814453e-01 1.852164119482040405e-01
4.486000000000000000e+03 5.076757049560546875e+01 1.554771423339843750e+00 4.878318309783935547e-01 1.634511709213256836e+00 6.367030739784240723e-01 -4.259774833917617798e-02
4.487000000000000000e+03 5.383286285400390625e+01 -3.154805898666381836e+00 4.388952553272247314e-01 2.343114614486694336e+00 8.346030116081237793e-01 1.118788048624992371e-01
4.488000000000000000e+03 5.646540069580078125e+01 7.599157333374023438e+00 5.502393245697021484e-01 2.282180786132812500e+00 8.497260212898254395e-01 2.953519523143768311e-01
4.489000000000000000e+03 5.225317382812500000e+01 1.118111848831176758e+00 4.986205399036407471e-01 1.877898335456848145e+00 7.129556536674499512e-01 3.569286316633224487e-02
4.490000000000000000e+03 5.225790786743164062e+01 -6.139739513397216797e+00 3.875635266304016113e-01 2.180845260620117188e+00 7.705225944519042969e-01 5.574031174182891846e-02
4.491000000000000000e+03 4.481421279907226562e+01 9.589238166809082031e+00 3.184691667556762695e-01 4.769454300403594971e-01 2.386243790388107300e-01 -4.939217567443847656e-01
4.492000000000000000e+03 5.547350692749023438e+01 6.595736026763916016e+00 5.435306429862976074e-01 2.128934860229492188e+00 8.017396330833435059e-01 2.133965045213699341e-01
4.493000000000000000e+03 5.182881927490234375e+01 -1.310390090942382812e+01 2.820546627044677734e-01 2.295701026916503906e+00 7.733267545700073242e-01 5.061013996601104736e-02
4.494000000000000000e+03 5.160477828979492188e+01 -3.821644306182861328e+00 4.261786341667175293e-01 1.983958005905151367e+00 7.230409979820251465e-01 3.054013475775718689e-02
4.495000000000000000e+03 5.255424499511718750e+01 -1.781602478027343750e+01 2.199790477752685547e-01 2.527081489562988281e+00 8.241181373596191406e-01 6.442634016275405884e-02
4.496000000000000000e+03 4.344130325317382812e+01 -2.038759994506835938e+01 1.695998758077621460e-01 1.075063347816467285e+00 3.733989596366882324e-01 -4.808420315384864807e-02
4.497000000000000000e+03 4.790489959716796875e+01 -1.931260299682617188e+01 2.059479355812072754e-01 1.753977417945861816e+00 5.879776477813720703e-01 -1.525947079062461853e-02
4.498000000000000000e+03 4.612487792968750000e+01 -1.523175716400146484e+01 2.338491529226303101e-01 1.401709079742431641e+00 4.906674921512603760e-01 -5.666000396013259888e-02
4.499000000000000000e+03 5.546406555175781250e+01 1.305458068847656250e+01 4.868476092815399170e-01 1.563197851181030273e+00 6.150136590003967285e-01 1.778505146503448486e-01
4.500000000000000000e+03 5.194456481933593750e+01 1.284602069854736328e+01 4.154109954833984375e-01 1.049336075782775879e+00 4.394241273403167725e-01 -1.500893831253051758e-01
4.501000000000000000e+03 5.450158309936523438e+01 1.317940711975097656e+01 4.643202722072601318e-01 1.380266904830932617e+00 5.533761382102966309e-01 7.425306737422943115e-02
4.502000000000000000e+03 5.641998291015625000e+01 1.302252292633056641e+01 4.946480989456176758e-01 1.752719998359680176e+00 6.742104291915893555e-01 2.857446074485778809e-01
4.503000000000000000e+03 5.550025177001953125e+01 1.397888469696044922e+01 4.526669383049011230e-01 1.462968945503234863e+00 5.746907591819763184e-01 1.695100963115692139e-01
4.504000000000000000e+03 4.540553665161132812e+01 1.031925010681152344e+01 3.154742121696472168e-01 4.899281263351440430e-01 2.416207045316696167e-01 -4.915828406810760498e-01
4.505000000000000000e+03 4.618546295166015625e+01 9.434223175048828125e+00 3.633835315704345703e-01 6.152314543724060059e-01 2.935844957828521729e-01 -4.271975159645080566e-01
4.506000000000000000e+03 5.440090179443359375e+01 6.927134037017822266e+00 5.417314767837524414e-01 1.916416525840759277e+00 7.374444007873535156e-01 1.328719705343246460e-01
4.507000000000000000e+03 5.646671676635742188e+01 1.093223190307617188e+01 5.228390693664550781e-01 1.960052251815795898e+00 7.448673844337463379e-01 2.866751551628112793e-01
4.508000000000000000e+03 5.258819198608398438e+01 1.374148368835449219e+01 3.956050276756286621e-01 1.048676013946533203e+00 4.332843124866485596e-01 -1.190869510173797607e-01
4.509000000000000000e+03 5.705831146240234375e+01 9.652596473693847656e+00 5.416585803031921387e-01 2.202264070510864258e+00 8.231768012046813965e-01 3.397382199764251709e-01
4.510000000000000000e+03 5.558187103271484375e+01 7.616660118103027344e+00 5.498661398887634277e-01 2.081578493118286133e+00 7.894334197044372559e-01 2.180390655994415283e-01
4.511000000000000000e+03 5.506856536865234375e+01 4.237131118774414062e+00 5.383818149566650391e-01 2.207859516143798828e+00 8.238723874092102051e-01 1.845678538084030151e-01
4.512000000000000000e+03 5.314950561523437500e+01 -9.693597555160522461e-01 4.743978679180145264e-01 2.132159948348999023e+00 7.819673418998718262e-01 8.869034051895141602e-02
4.513000000000000000e+03 4.589388656616210938e+01 1.267964649200439453e+01 2.518684267997741699e-01 4.404840171337127686e-01 2.077057361602783203e-01 -5.350942611694335938e-01
4.514000000000000000e+03 5.033844757080078125e+01 6.005890369415283203e+00 5.001239180564880371e-01 1.295274376869201660e+00 5.386195182800292969e-01 -1.273594796657562256e-01
4.515000000000000000e+03 5.177948379516601562e+01 3.355635881423950195e+00 5.048680901527404785e-01 1.684681415557861328e+00 6.568648815155029297e-01 -5.039365030825138092e-03
4.516000000000000000e+03 4.987454223632812500e+01 -7.171741485595703125e+00 3.661003410816192627e-01 1.816145777702331543e+00 6.546738147735595703e-01 -1.215442456305027008e-02
4.517000000000000000e+03 5.304264068603515625e+01 -4.641577243804931641e+00 4.073278307914733887e-01 2.255304098129272461e+00 7.987895607948303223e-01 8.073313534259796143e-02
4.518000000000000000e+03 5.547922515869140625e+01 1.207455158233642578e+01 5.085116624832153320e-01 1.653247237205505371e+00 6.485276222229003906e-01 1.907674074172973633e-01
4.519000000000000000e+03 5.545403289794921875e+01 1.106376075744628906e+01 5.198923945426940918e-01 1.737574100494384766e+00 6.772399544715881348e-01 2.000987231731414795e-01
4.520000000000000000e+03 4.601140594482421875e+01 1.111425399780273438e+01 3.152755200862884521e-01 5.157415866851806641e-01 2.493051439523696899e-01 -4.874523282051086426e-01
4.521000000000000000e+03 4.895671081542968750e+01 4.270594120025634766e+00 4.728018343448638916e-01 1.208110332489013672e+00 5.042736530303955078e-01 -1.783218532800674438e-01
4.522000000000000000e+03 4.913297271728515625e+01 6.701739788055419922e+00 4.770099520683288574e-01 1.107451319694519043e+00 4.753383696079254150e-01 -2.077077925205230713e-01
4.523000000000000000e+03 4.967107772827148438e+01 -9.223188400268554688e+00 3.301897346973419189e-01 1.845534801483154297e+00 6.527173519134521484e-01 -1.019660942256450653e-02
4.524000000000000000e+03 5.275561141967773438e+01 -9.623238563537597656e+00 3.301352858543395996e-01 2.360147237777709961e+00 8.070847392082214355e-01 7.582484930753707886e-02
4.525000000000000000e+03 5.219056701660156250e+01 -2.035707283020019531e+01 1.932760626077651978e-01 2.507525444030761719e+00 8.102403879165649414e-01 4.694825410842895508e-02
4.526000000000000000e+03 4.813388061523437500e+01 -1.521086692810058594e+01 2.417133748531341553e-01 1.734667181968688965e+00 5.929141640663146973e-01 -1.798669993877410889e-02
4.527000000000000000e+03 3.397359085083007812e+01 -2.630320549011230469e+01 7.093835622072219849e-02 -3.762275874614715576e-01 -9.158676862716674805e-02 -7.873976975679397583e-02
4.528000000000000000e+03 4.001840591430664062e+01 -2.438272094726562500e+01 1.286519318819046021e-01 5.730606913566589355e-01 2.105137854814529419e-01 -5.462551116943359375e-02
4.529000000000000000e+03 4.628263854980468750e+01 -1.695985221862792969e+01 2.222134768962860107e-01 1.474733710289001465e+00 5.090841650962829590e-01 -4.353047162294387817e-02
4.530000000000000000e+03 4.940211105346679688e+01 2.744331657886505127e-01 4.624084234237670898e-01 1.464095234870910645e+00 5.779510736465454102e-01 -9.497096389532089233e-02
4.531000000000000000e+03 4.811830902099609375e+01 -1.332443475723266602e+00 4.344124794006347656e-01 1.334952950477600098e+00 5.308096408843994141e-01 -1.204255968332290649e-01
4.532000000000000000e+03 4.792326736450195312e+01 -6.930408000946044922e+00 3.562480211257934570e-01 1.511514544486999512e+00 5.603287816047668457e-01 -7.126271724700927734e-02
4.533000000000000000e+03 4.785625076293945312e+01 1.211496639251708984e+01 3.333293199539184570e-01 6.439626216888427734e-01 2.931875884532928467e-01 -4.149814248085021973e-01
4.534000000000000000e+03 4.828866958618164062e+01 1.052343273162841797e+01 3.937706947326660156e-01 7.766718268394470215e-01 3.511327803134918213e-01 -3.522592186927795410e-01
4.535000000000000000e+03 4.935672378540039062e+01 2.976783037185668945e+00 4.874095320701599121e-01 1.354145407676696777e+00 5.524664521217346191e-01 -1.285771727561950684e-01
4.536000000000000000e+03 5.386098861694335938e+01 4.701309680938720703e+00 5.396691560745239258e-01 1.965311527252197266e+00 7.514941692352294922e-01 1.137592270970344543e-01
4.537000000000000000e+03 5.415100860595703125e+01 5.831471443176269531e+00 5.400933623313903809e-01 1.941469669342041016e+00 7.444689273834228516e-01 1.215213760733604431e-01
4.538000000000000000e+03 5.349439239501953125e+01 1.215431594848632812e+01 4.685875177383422852e-01 1.304312825202941895e+00 5.318701267242431641e-01 -9.050220251083374023e-03
4.539000000000000000e+03 5.653424072265625000e+01 1.200966835021972656e+01 5.147725939750671387e-01 1.884065151214599609e+00 7.196513414382934570e-01 2.940939962863922119e-01
4.540000000000000000e+03 4.682527160644531250e+01 1.031442070007324219e+01 3.603656888008117676e-01 6.340003013610839844e-01 2.983097732067108154e-01 -4.220343828201293945e-01
4.541000000000000000e+03 5.530542755126953125e+01 5.446908950805664062e+00 5.469311475753784180e-01 2.184822320938110352e+00 8.195260763168334961e-01 2.028604596853256226e-01
4.542000000000000000e+03 5.191116333007812500e+01 6.777537345886230469e+00 5.180864930152893066e-01 1.491231083869934082e+00 6.027953028678894043e-01 -4.078429564833641052e-02
4.543000000000000000e+03 5.007001495361328125e+01 1.208800792694091797e+01 3.907068073749542236e-01 8.729256987571716309e-01 3.790897727012634277e-01 -2.751349210739135742e-01
4.544000000000000000e+03 5.373963165283203125e+01 4.220875203609466553e-01 4.924923181533813477e-01 2.175721645355224609e+00 8.004642128944396973e-01 1.127441450953483582e-01
4.545000000000000000e+03 5.346332931518554688e+01 3.556565046310424805e+00 5.277876257896423340e-01 1.953706979751586914e+00 7.444483637809753418e-01 9.283848851919174194e-02
4.546000000000000000e+03 4.871926879882812500e+01 8.725124359130859375e+00 4.386047720909118652e-01 9.350740313529968262e-01 4.121036231517791748e-01 -2.831797897815704346e-01
4.547000000000000000e+03 4.927528381347656250e+01 9.829718589782714844e+00 4.342636764049530029e-01 9.321062564849853516e-01 4.099109768867492676e-01 -2.727244198322296143e-01
4.548000000000000000e+03 4.811198425292968750e+01 7.680310249328613281e+00 4.412366747856140137e-01 9.108752608299255371e-01 4.056335687637329102e-01 -2.929396629333496094e-01
4.549000000000000000e+03 4.654627227783203125e+01 1.341916847229003906e+01 2.414261996746063232e-01 4.571839272975921631e-01 2.095830440521240234e-01 -5.224338769912719727e-01
4.550000000000000000e+03 5.367794036865234375e+01 8.403519630432128906e+00 5.386358499526977539e-01 1.676205992698669434e+00 6.644525527954101562e-01 6.757578998804092407e-02
4.551000000000000000e+03 4.773339080810546875e+01 9.514904975891113281e+00 4.035399556159973145e-01 7.649494409561157227e-01 3.505468368530273438e-01 -3.555057048797607422e-01
4.552000000000000000e+03 5.465689849853515625e+01 7.973796844482421875e+00 5.448728203773498535e-01 1.886705279350280762e+00 7.294734716415405273e-01 1.492391079664230347e-01
4.553000000000000000e+03 5.625286483764648438e+01 9.885596275329589844e+00 5.379619002342224121e-01 2.019092798233032227e+00 7.671163678169250488e-01 2.762598991394042969e-01
4.554000000000000000e+03 3.273479461669921875e+01 -2.766840171813964844e+01 4.579205065965652466e-02 -5.658257007598876953e-01 -1.560100913047790527e-01 -6.433332711458206177e-02
4.555000000000000000e+03 3.791326904296875000e+01 -2.944122886657714844e+01 9.037721902132034302e-02 2.576481997966766357e-01 1.044076234102249146e-01 -4.628425091505050659e-02
4.556000000000000000e+03 5.283978652954101562e+01 2.414728879928588867e+00 5.080240368843078613e-01 1.902513504028320312e+00 7.231612801551818848e-01 6.083498522639274597e-02
4.557000000000000000e+03 4.599051284790039062e+01 -6.973209381103515625e+00 3.322772979736328125e-01 1.213940024375915527e+00 4.638652205467224121e-01 -1.254197806119918823e-01
4.558000000000000000e+03 5.059228897094726562e+01 -5.341401576995849609e+00 3.936640024185180664e-01 1.866415023803710938e+00 6.780236959457397461e-01 5.477657541632652283e-04
4.559000000000000000e+03 5.143235015869140625e+01 -1.120643806457519531e+01 3.064485788345336914e-01 2.187771081924438477e+00 7.482659220695495605e-01 4.295058175921440125e-02
4.560000000000000000e+03 5.853551864624023438e+01 -2.147323417663574219e+01 1.597977280616760254e-01 3.560892343521118164e+00 1.116207003593444824e+00 1.063583344221115112e-01
4.561000000000000000e+03 5.116836166381835938e+01 -1.613004326820373535e+00 4.518849551677703857e-01 1.835440516471862793e+00 6.861976385116577148e-01 3.844376653432846069e-03
4.562000000000000000e+03 4.925381469726562500e+01 -1.828238606452941895e+00 4.326665103435516357e-01 1.537212610244750977e+00 5.909637212753295898e-01 -8.046531677246093750e-02
4.563000000000000000e+03 3.776772689819335938e+01 -2.324857330322265625e+01 1.097100004553794861e-01 2.172717750072479248e-01 9.809453040361404419e-02 -8.990518003702163696e-02
4.564000000000000000e+03 5.134534072875976562e+01 -9.422094345092773438e+00 3.366130888462066650e-01 2.128046512603759766e+00 7.393978834152221680e-01 4.508271068334579468e-02
4.565000000000000000e+03 4.914158248901367188e+01 1.245030307769775391e+01 3.492865562438964844e-01 7.447477579116821289e-01 3.282102942466735840e-01 -3.486520349979400635e-01
4.566000000000000000e+03 5.377486038208007812e+01 1.105367469787597656e+01 5.015223026275634766e-01 1.453094601631164551e+00 5.863850712776184082e-01 3.945450857281684875e-02
4.567000000000000000e+03 5.063270568847656250e+01 3.035261631011962891e+00 4.950034022331237793e-01 1.529302120208740234e+00 6.072916388511657715e-01 -6.618928909301757812e-02
4.568000000000000000e+03 4.660009002685546875e+01 1.193341350555419922e+01 2.980092763900756836e-01 5.282205939292907715e-01 2.478689700365066528e-01 -4.802625477313995361e-01
4.569000000000000000e+03 5.104758834838867188e+01 1.224033260345458984e+01 4.130632281303405762e-01 9.809865355491638184e-01 4.182149469852447510e-01 -2.085770964622497559e-01
4.570000000000000000e+03 5.532033920288085938e+01 1.001073360443115234e+01 5.308470129966735840e-01 1.831767916679382324e+00 7.087845206260681152e-01 1.990701407194137573e-01
4.571000000000000000e+03 5.025993728637695312e+01 4.552540779113769531e+00 4.919159710407257080e-01 1.362339496612548828e+00 5.562766194343566895e-01 -1.054649129509925842e-01
4.572000000000000000e+03 5.080080413818359375e+01 7.304302692413330078e+00 5.045666098594665527e-01 1.279247045516967773e+00 5.351440906524658203e-01 -1.220174431800842285e-01
4.573000000000000000e+03 5.143764114379882812e+01 4.492804527282714844e+00 5.065827369689941406e-01 1.547464728355407715e+00 6.162142157554626465e-01 -4.893406480550765991e-02
4.574000000000000000e+03 5.334717559814453125e+01 7.362541675567626953e+00 5.338012576103210449e-01 1.697848916053771973e+00 6.694950461387634277e-01 5.514987558126449585e-02
4.575000000000000000e+03 5.500926971435546875e+01 8.977541923522949219e+00 5.464359521865844727e-01 1.873572468757629395e+00 7.260025143623352051e-01 1.767480075359344482e-01
4.576000000000000000e+03 5.000130081176757812e+01 -8.148928284645080566e-01 4.519841372966766357e-01 1.612377882003784180e+00 6.193085908889770508e-01 -5.417216196656227112e-02
4.577000000000000000e+03 5.179577636718750000e+01 -2.994509339332580566e-01 4.736246764659881592e-01 1.871746301651000977e+00 7.036112546920776367e-01 1.641420088708400726e-02
4.578000000000000000e+03 4.837429428100585938e+01 -2.676827907562255859e+00 4.088659286499023438e-01 1.420915842056274414e+00 5.489345192909240723e-01 -1.027190536260604858e-01
4.579000000000000000e+03 4.921825790405273438e+01 -4.118448734283447266e+00 4.037387073040008545e-01 1.613085627555847168e+00 6.050472855567932129e-01 -5.232878401875495911e-02
4.580000000000000000e+03 5.448468399047851562e+01 1.215465068817138672e+01 4.902744591236114502e-01 1.478132128715515137e+00 5.905219912528991699e-01 9.531479328870773315e-02
4.581000000000000000e+03 5.252987670898437500e+01 1.183015632629394531e+01 4.603736102581024170e-01 1.197379827499389648e+00 4.973260462284088135e-01 -7.934955507516860962e-02
4.582000000000000000e+03 4.980330276489257812e+01 1.096315479278564453e+01 4.213989377021789551e-01 9.205933809280395508e-01 4.025976955890655518e-01 -2.628966271877288818e-01
4.583000000000000000e+03 4.973785018920898438e+01 7.956727027893066406e+00 4.797548651695251465e-01 1.105862975120544434e+00 4.756853282451629639e-01 -1.964042186737060547e-01
4.584000000000000000e+03 4.874856185913085938e+01 1.157358646392822266e+01 3.706701993942260742e-01 7.522420287132263184e-01 3.368736803531646729e-01 -3.556579649448394775e-01
4.585000000000000000e+03 5.303235244750976562e+01 6.289147377014160156e+00 5.318918824195861816e-01 1.721731305122375488e+00 6.760869622230529785e-01 4.347620159387588501e-02
4.586000000000000000e+03 5.874054718017578125e+01 -2.400656318664550781e+01 1.255637407302856445e-01 3.601609945297241211e+00 1.118152141571044922e+00 8.990143239498138428e-02
4.587000000000000000e+03 4.937339782714843750e+01 1.635382533073425293e+00 4.638839066028594971e-01 1.390998721122741699e+00 5.564647912979125977e-01 -1.152469590306282043e-01
4.588000000000000000e+03 5.026438522338867188e+01 -1.753765487670898438e+01 2.233361154794692993e-01 2.116554021835327148e+00 7.019670605659484863e-01 2.172567322850227356e-02
4.589000000000000000e+03 4.794593429565429688e+01 -1.321553707122802734e+01 2.787810266017913818e-01 1.676762223243713379e+00 5.866630077362060547e-01 -3.096936829388141632e-02
4.590000000000000000e+03 4.994535827636718750e+01 -1.323037338256835938e+01 2.829092741012573242e-01 2.002294540405273438e+00 6.855611801147460938e-01 6.119328085333108902e-03
4.591000000000000000e+03 5.001595687866210938e+01 -1.980559158325195312e+01 2.075504958629608154e-01 2.119214296340942383e+00 6.980294585227966309e-01 2.143418416380882263e-02
4.592000000000000000e+03 4.244665145874023438e+01 -2.543074607849121094e+01 1.483799964189529419e-01 9.570642113685607910e-01 3.316332697868347168e-01 -3.990055993199348450e-02
4.593000000000000000e+03 4.512741088867187500e+01 -2.334679222106933594e+01 1.598729342222213745e-01 1.372692823410034180e+00 4.597697556018829346e-01 -9.472214616835117340e-03
4.594000000000000000e+03 5.229508590698242188e+01 7.870409011840820312e+00 5.245162248611450195e-01 1.479596257209777832e+00 6.012337207794189453e-01 -2.721909433603286743e-02
4.595000000000000000e+03 5.273053359985351562e+01 5.203791141510009766e+00 5.260311365127563477e-01 1.740490078926086426e+00 6.799563765525817871e-01 3.258946910500526428e-02
4.596000000000000000e+03 5.437741088867187500e+01 1.035156440734863281e+01 5.177704095840454102e-01 1.617735028266906738e+00 6.406516432762145996e-01 1.028505936264991760e-01
4.597000000000000000e+03 5.400882339477539062e+01 9.444676399230957031e+00 5.309835076332092285e-01 1.638559341430664062e+00 6.508628726005554199e-01 8.210303634405136108e-02
4.598000000000000000e+03 5.269881439208984375e+01 8.883192062377929688e+00 5.256395339965820312e-01 1.472784399986267090e+00 5.995271801948547363e-01 -8.966109715402126312e-03
4.599000000000000000e+03 5.160134124755859375e+01 1.118686580657958984e+01 4.543412923812866211e-01 1.117548704147338867e+00 4.715670049190521240e-01 -1.463693529367446899e-01
4.600000000000000000e+03 4.586312103271484375e+01 -1.110984230041503906e+01 2.850365936756134033e-01 1.296426892280578613e+00 4.744390547275543213e-01 -8.591276407241821289e-02
4.601000000000000000e+03 5.240945816040039062e+01 4.166752338409423828e+00 5.232447385787963867e-01 1.761559009552001953e+00 6.854411363601684570e-01 2.609134465456008911e-02
4.602000000000000000e+03 5.398823928833007812e+01 -2.367331695556640625e+01 1.748386621475219727e-01 2.829133033752441406e+00 9.011915326118469238e-01 6.625092774629592896e-02
4.603000000000000000e+03 5.455017089843750000e+01 1.118773078918457031e+01 5.092459917068481445e-01 1.576890707015991211e+00 6.258409619331359863e-01 1.137961372733116150e-01
4.604000000000000000e+03 5.300666427612304688e+01 1.076420021057128906e+01 4.917061626911163330e-01 1.372721552848815918e+00 5.593283176422119141e-01 -1.506434008479118347e-02
4.605000000000000000e+03 5.083893966674804688e+01 1.026841163635253906e+01 4.583582580089569092e-01 1.086626052856445312e+00 4.634952843189239502e-01 -1.817533522844314575e-01
4.606000000000000000e+03 5.126959609985351562e+01 8.458000183105468750e+00 5.054074525833129883e-01 1.272168755531311035e+00 5.332728624343872070e-01 -1.087436825037002563e-01
4.607000000000000000e+03 5.307294082641601562e+01 9.818919181823730469e+00 5.175855159759521484e-01 1.457834482192993164e+00 5.926259756088256836e-01 6.522451061755418777e-03
4.608000000000000000e+03 5.176378631591796875e+01 9.487535476684570312e+00 4.988009631633758545e-01 1.273962259292602539e+00 5.318289399147033691e-01 -9.412264823913574219e-02
4.609000000000000000e+03 5.158872604370117188e+01 5.638160705566406250e+00 5.173658132553100586e-01 1.518266916275024414e+00 6.106898188591003418e-01 -4.865691438317298889e-02
4.610000000000000000e+03 5.230546188354492188e+01 1.031629276275634766e+01 4.893543720245361328e-01 1.288815617561340332e+00 5.334510207176208496e-01 -7.024155557155609131e-02
4.611000000000000000e+03 3.283789825439453125e+01 -2.179137468338012695e+00 1.276309788227081299e-01 -5.658764839172363281e-01 -1.314736455678939819e-01 -3.938588201999664307e-01
4.612000000000000000e+03 2.707073020935058594e+01 -2.302558898925781250e+01 3.613869845867156982e-02 -1.490046858787536621e+00 -4.361724555492401123e-01 -1.216675639152526855e-01
4.613000000000000000e+03 4.750029373168945312e+01 -2.142372322082519531e+01 1.858010888099670410e-01 1.714643955230712891e+00 5.701335072517395020e-01 -9.744235314428806305e-03
4.614000000000000000e+03 4.955625152587890625e+01 -2.206058502197265625e+01 1.747042089700698853e-01 2.077374935150146484e+00 6.756237149238586426e-01 1.127927098423242569e-02
4.615000000000000000e+03 1.819454002380371094e+01 -4.124052810668945312e+01 1.323451101779937744e-01 -1.111739873886108398e+00 -2.938184440135955811e-01 -1.708098202943801880e-01
4.616000000000000000e+03 4.546671676635742188e+01 -2.095351028442382812e+01 1.775065064430236816e-01 1.378799080848693848e+00 4.668916761875152588e-01 -2.154368720948696136e-02
4.617000000000000000e+03 3.913596725463867188e+01 -2.690415000915527344e+01 1.061493307352066040e-01 4.615322947502136230e-01 1.703044921159744263e-01 -5.440625548362731934e-02
4.618000000000000000e+03 5.625756454467773438e+01 -2.732762718200683594e+01 1.149140745401382446e-01 3.203303098678588867e+00 9.954651594161987305e-01 6.552253663539886475e-02
4.619000000000000000e+03 5.907186889648437500e+01 -2.694777488708496094e+01 1.131753623485565186e-01 3.689398050308227539e+00 1.140771985054016113e+00 8.243941515684127808e-02
4.620000000000000000e+03 7.001909732818603516e+00 3.629850387573242188e+01 -3.914210174116306007e-05 1.614225475350394845e-04 3.668413773993961513e-05 9.792839409783482552e-05
4.621000000000000000e+03 7.710924148559570312e+00 3.456569671630859375e+01 7.175988866947591305e-05 -1.803635677788406610e-04 -3.258110518800094724e-05 -1.252427609870210290e-04
4.622000000000000000e+03 3.686367416381835938e+01 -2.552548599243164062e+01 1.038969010114669800e-01 8.120685815811157227e-02 5.553112924098968506e-02 -7.302018254995346069e-02
4.623000000000000000e+03 3.574769592285156250e+01 -2.769075393676757812e+01 7.989492267370223999e-02 -1.020437031984329224e-01 -6.644633598625659943e-03 -5.319055169820785522e-02
4.624000000000000000e+03 6.156898021697998047e+00 3.837636184692382812e+01 6.984120409470051527e-05 -1.472646690672263503e-04 -2.322703949175775051e-05 -1.037634228850947693e-05
4.625000000000000000e+03 5.338671493530273438e+01 -2.670326995849609375e+01 1.229034513235092163e-01 2.735654830932617188e+00 8.575674295425415039e-01 5.092578008770942688e-02
4.626000000000000000e+03 3.619286727905273438e+01 -3.180503082275390625e+01 7.630489766597747803e-02 -2.915094420313835144e-02 1.414618548005819321e-02 -2.144055627286434174e-02
4.627000000000000000e+03 5.767535400390625000e+01 -3.535415649414062500e+01 8.120273053646087646e-02 3.497120857238769531e+00 1.073497056961059570e+00 3.435338661074638367e-02
4.628000000000000000e+03 5.378467941284179688e+01 -3.561291122436523438e+01 1.071332171559333801e-01 2.870264291763305664e+00 8.932192325592041016e-01 2.324717864394187927e-02
4.629000000000000000e+03 4.240200042724609375e+01 -3.639115142822265625e+01 1.065802127122879028e-01 9.793452024459838867e-01 3.257776200771331787e-01 8.035834878683090210e-03
4.630000000000000000e+03 4.666189193725585938e+01 -4.069306182861328125e+01 1.141253039240837097e-01 1.732944726943969727e+00 5.541210174560546875e-01 -1.889726496301591396e-03
4.631000000000000000e+03 3.880400848388671875e+01 -3.442304229736328125e+01 1.030996441841125488e-01 4.198151826858520508e-01 1.568744480609893799e-01 -4.459869582206010818e-03
4.632000000000000000e+03 3.578681564331054688e+01 -3.678737640380859375e+01 9.901694208383560181e-02 -1.865796931087970734e-02 2.410769090056419373e-02 5.480666644871234894e-03
4.633000000000000000e+03 6.427449798583984375e+01 -3.650197219848632812e+01 5.293080583214759827e-02 4.549584388732910156e+00 1.380754590034484863e+00 3.327031433582305908e-02
4.634000000000000000e+03 6.133146667480468750e+01 -3.380909729003906250e+01 6.913182139396667480e-02 4.088337898254394531e+00 1.247240900993347168e+00 3.732101246714591980e-02
4.635000000000000000e+03 6.404473876953125000e+01 -3.151233482360839844e+01 6.754982471466064453e-02 4.590106010437011719e+00 1.397296667098999023e+00 5.932337045669555664e-02
4.636000000000000000e+03 4.711539840698242188e+01 -2.356358909606933594e+01 1.563747674226760864e-01 1.642794728279113770e+00 5.397508740425109863e-01 -9.554446674883365631e-03
4.637000000000000000e+03 4.887243652343750000e+01 -2.418499755859375000e+01 1.602184176445007324e-01 2.010576963424682617e+00 6.512385606765747070e-01 6.844324059784412384e-03
4.638000000000000000e+03 3.559138107299804688e+01 -2.212222480773925781e+01 1.035324856638908386e-01 -1.485848426818847656e-01 -1.351570803672075272e-02 -1.086572110652923584e-01
4.639000000000000000e+03 4.509130477905273438e+01 -2.613404464721679688e+01 1.501561850309371948e-01 1.406810998916625977e+00 4.670901596546173096e-01 -1.587144844233989716e-02
4.640000000000000000e+03 5.169540023803710938e+01 -2.287605285644531250e+01 1.724595725536346436e-01 2.441648244857788086e+00 7.842323780059814453e-01 4.164997860789299011e-02
4.641000000000000000e+03 5.668495559692382812e+01 -3.111105346679687500e+01 1.045373901724815369e-01 3.309869527816772461e+00 1.024322032928466797e+00 6.025231257081031799e-02
4.642000000000000000e+03 4.933195495605468750e+01 -2.774415206909179688e+01 1.441541910171508789e-01 2.061527013778686523e+00 6.617043614387512207e-01 1.531076524406671524e-02
4.643000000000000000e+03 4.470951843261718750e+01 -2.933432960510253906e+01 1.415628343820571899e-01 1.331757903099060059e+00 4.419962167739868164e-01 -3.790365764871239662e-03
4.644000000000000000e+03 4.054610061645507812e+01 -3.124706268310546875e+01 1.103354617953300476e-01 7.237130999565124512e-01 2.502145767211914062e-01 -1.253229286521673203e-02
4.645000000000000000e+03 4.788609313964843750e+01 -3.052405548095703125e+01 1.409570276737213135e-01 1.856674671173095703e+00 5.992895364761352539e-01 -4.773756023496389389e-03
4.646000000000000000e+03 5.084561920166015625e+01 -3.176512145996093750e+01 1.053249686956405640e-01 2.348451375961303711e+00 7.361328601837158203e-01 1.805891981348395348e-03
4.647000000000000000e+03 4.699572753906250000e+01 -3.391698837280273438e+01 1.023566871881484985e-01 1.655360817909240723e+00 5.273152589797973633e-01 -8.324971422553062439e-03
4.648000000000000000e+03 5.361635208129882812e+01 -3.181388092041015625e+01 1.069031953811645508e-01 2.841364383697509766e+00 8.844802379608154297e-01 2.965045161545276642e-02
4.649000000000000000e+03 6.695218658447265625e+01 3.295720672607421875e+01 7.808539867401123047e-01 1.442599177360534668e+00 6.670359969139099121e-01 -1.819691658020019531e+00
4.650000000000000000e+03 6.835625457763671875e+01 3.285430526733398438e+01 1.876907825469970703e+00 5.072262287139892578e+00 2.084751129150390625e+00 -4.467458248138427734e+00
4.651000000000000000e+03 6.813489532470703125e+01 3.288410568237304688e+01 1.760044217109680176e+00 4.043096542358398438e+00 1.740942239761352539e+00 -3.874818086624145508e+00
4.652000000000000000e+03 6.858560943603515625e+01 3.287865447998046875e+01 1.813763141632080078e+00 6.202656745910644531e+00 2.404926061630249023e+00 -4.940058708190917969e+00
4.653000000000000000e+03 6.920091247558593750e+01 3.272082519531250000e+01 1.497373819351196289e+00 1.057298851013183594e+01 3.621108770370483398e+00 -5.979669570922851562e+00
4.654000000000000000e+03 6.976333618164062500e+01 3.256360626220703125e+01 4.265740811824798584e-01 1.585666847229003906e+01 4.884972572326660156e+00 -5.338260173797607422e+00
4.655000000000000000e+03 7.002252197265625000e+01 3.286949157714843750e+01 -2.664873600006103516e-01 1.639090347290039062e+01 4.837325096130371094e+00 -3.788534879684448242e+00
4.656000000000000000e+03 6.978961181640625000e+01 3.297987365722656250e+01 -7.391946017742156982e-02 1.455318737030029297e+01 4.343780517578125000e+00 -4.458036422729492188e+00
4.657000000000000000e+03 7.117846679687500000e+01 3.203179550170898438e+01 3.944520473480224609e+00 1.890416717529296875e+01 6.854606151580810547e+00 2.357293844223022461e+00
4.658000000000000000e+03 7.152125549316406250e+01 3.263887786865234375e+01 1.947459936141967773e+00 1.689046096801757812e+01 5.651376724243164062e+00 1.821269869804382324e+00
4.659000000000000000e+03 7.157572937011718750e+01 3.230953216552734375e+01 3.082235336303710938e+00 1.694973564147949219e+01 6.009591102600097656e+00 2.278081178665161133e+00
4.660000000000000000e+03 7.176923370361328125e+01 3.181336975097656250e+01 5.565933227539062500e+00 1.610023117065429688e+01 6.499849319458007812e+00 2.436939954757690430e+00
4.661000000000000000e+03 7.154238128662109375e+01 3.121093750000000000e+01 8.624911308288574219e+00 1.633932113647460938e+01 7.489269733428955078e+00 1.457285046577453613e+00
4.662000000000000000e+03 7.202116394042968750e+01 3.106505775451660156e+01 7.261239051818847656e+00 1.455164813995361328e+01 6.543866157531738281e+00 6.933152079582214355e-01
4.663000000000000000e+03 7.099602508544921875e+01 2.917519569396972656e+01 8.579964041709899902e-01 1.857098007202148438e+01 5.828692913055419922e+00 -6.526885032653808594e-01
4.664000000000000000e+03 7.020983886718750000e+01 2.924883079528808594e+01 -5.092493891716003418e-01 1.923657226562500000e+01 5.618196964263916016e+00 3.301555633544921875e+00
4.665000000000000000e+03 7.001293945312500000e+01 2.920395278930664062e+01 -5.064034461975097656e-01 1.798873138427734375e+01 5.244698047637939453e+00 4.449182510375976562e+00
4.666000000000000000e+03 6.907206726074218750e+01 2.882863044738769531e+01 5.914124250411987305e-01 9.573776245117187500e+00 3.049556732177734375e+00 5.990361690521240234e+00
4.667000000000000000e+03 6.796503448486328125e+01 2.925187683105468750e+01 7.534546256065368652e-01 2.524497985839843750e+00 9.833858013153076172e-01 3.548182010650634766e+00
4.668000000000000000e+03 6.797374725341796875e+01 2.887138175964355469e+01 8.918961882591247559e-01 3.368386983871459961e+00 1.278084993362426758e+00 4.076738357543945312e+00
4.669000000000000000e+03 6.795112609863281250e+01 2.904986000061035156e+01 7.466407418251037598e-01 2.920448303222656250e+00 1.100126743316650391e+00 3.789575576782226562e+00
4.670000000000000000e+03 6.758303833007812500e+01 2.901814270019531250e+01 3.158288300037384033e-01 2.141506671905517578e+00 7.372006177902221680e-01 2.981120347976684570e+00
4.671000000000000000e+03 6.736737823486328125e+01 2.898808479309082031e+01 3.835235163569450378e-02 1.811243176460266113e+00 5.548786520957946777e-01 2.652510881423950195e+00
4.672000000000000000e+03 7.802758789062500000e+01 4.168841934204101562e+01 -3.650358021259307861e-01 9.765037536621093750e+00 2.820000410079956055e+00 1.024551242589950562e-01
4.673000000000000000e+03 1.265654444694519043e+00 2.700555801391601562e+00 -9.349794709123671055e-06 1.444483859813772142e-05 1.528513053017377388e-06 7.197440936579369009e-07
4.674000000000000000e+03 4.227579879760742188e+01 3.526357269287109375e+01 -2.885569073259830475e-02 -1.757777296006679535e-02 -1.393003854900598526e-02 3.338381648063659668e-02
4.675000000000000000e+03 3.873810958862304688e+01 3.637197494506835938e+01 -1.490284339524805546e-03 -1.397461444139480591e-02 -4.639469552785158157e-03 1.012404635548591614e-02
4.676000000000000000e+03 3.638410949707031250e+01 3.676887512207031250e+01 -5.549732304643839598e-05 -1.704867463558912277e-03 -5.281094345264136791e-04 8.895895443856716156e-04
4.677000000000000000e+03 3.256271362304687500e+01 3.711363983154296875e+01 2.259146189317107201e-03 9.373682405566796660e-05 7.058648625388741493e-04 -1.935298903845250607e-03
4.678000000000000000e+03 3.193767547607421875e+01 3.718758010864257812e+01 1.683423062786459923e-03 1.136377337388694286e-03 8.459401433356106281e-04 -1.536771538667380810e-03
4.679000000000000000e+03 1.930563354492187500e+01 3.823036193847656250e+01 -2.215341737610287964e-05 -1.078656525351107121e-03 -3.302429686300456524e-04 -5.089137121103703976e-04
4.680000000000000000e+03 2.355525398254394531e+01 -3.878379440307617188e+01 1.406859308481216431e-01 -1.903578162193298340e+00 -5.288676619529724121e-01 1.300469189882278442e-01
4.681000000000000000e+03 2.430694818496704102e+00 2.672802686691284180e+00 3.375614323886111379e-05 1.534155853732954711e-05 1.472931126045295969e-05 -1.984176833502715454e-06
4.682000000000000000e+03 1.063002014160156250e+01 -3.654396820068359375e+01 5.027629807591438293e-02 -2.951945364475250244e-02 6.227053701877593994e-03 -1.294931047596037388e-03
4.683000000000000000e+03 1.880572700500488281e+01 3.829276275634765625e+01 3.440243890509009361e-04 1.198832411319017410e-03 4.628570168279111385e-04 9.224457608070224524e-05
4.684000000000000000e+03 1.948652839660644531e+01 4.005574417114257812e+01 -5.087571917101740837e-04 4.356311401352286339e-04 -2.193781801906879991e-05 7.580877863802015781e-04
4.685000000000000000e+03 4.937671661376953125e+01 3.701865768432617188e+01 9.897266514599323273e-03 -1.521235555410385132e-01 -4.266788810491561890e-02 2.167141586542129517e-01
4.686000000000000000e+03 4.380325317382812500e+01 3.611919784545898438e+01 -3.285329043865203857e-02 -4.680004715919494629e-02 -2.389600127935409546e-02 6.591311842203140259e-02
4.687000000000000000e+03 3.266662979125976562e+01 3.816107559204101562e+01 -1.602876698598265648e-03 2.327623369637876749e-04 -4.110342997591942549e-04 -7.197998929768800735e-04
4.688000000000000000e+03 6.708966827392578125e+01 2.870301628112792969e+01 -9.516898542642593384e-02 1.733430385589599609e+00 4.914784133434295654e-01 2.552581310272216797e+00
4.689000000000000000e+03 1.254175758361816406e+01 -3.332803249359130859e+00 4.555213963612914085e-04 2.445193822495639324e-04 2.100122364936396480e-04 -1.296292466577142477e-04
4.690000000000000000e+03 1.967461967468261719e+01 3.876762771606445312e+01 -1.509124878793954849e-03 -4.395474679768085480e-04 -5.846017156727612019e-04 -3.925333730876445770e-04
4.691000000000000000e+03 6.746348571777343750e+01 3.266875457763671875e+01 1.177200436592102051e+00 1.857232451438903809e+00 9.103298783302307129e-01 -2.270521879196166992e+00
4.692000000000000000e+03 6.777445220947265625e+01 2.904133605957031250e+01 5.519075989723205566e-01 2.588541030883789062e+00 9.421345591545104980e-01 3.391426086425781250e+00
4.693000000000000000e+03 6.762691497802734375e+01 2.880838775634765625e+01 4.665547311305999756e-01 2.647277355194091797e+00 9.341496229171752930e-01 3.280992031097412109e+00
4.694000000000000000e+03 6.754795837402343750e+01 2.846586036682128906e+01 3.769212067127227783e-01 3.093429803848266602e+00 1.041105270385742188e+00 3.545455217361450195e+00
4.695000000000000000e+03 6.803557586669921875e+01 2.864908790588378906e+01 7.590216398239135742e-01 4.190661907196044922e+00 1.484905004501342773e+00 4.301846504211425781e+00
4.696000000000000000e+03 6.874706268310546875e+01 2.866902732849121094e+01 7.453241944313049316e-01 7.571624279022216797e+00 2.495084524154663086e+00 5.554924011230468750e+00
4.697000000000000000e+03 6.951554107666015625e+01 2.845523452758789062e+01 -4.694833159446716309e-01 1.239199542999267578e+01 3.576753616333007812e+00 5.158415317535400391e+00
4.698000000000000000e+03 7.028866577148437500e+01 2.860381698608398438e+01 -1.159673213958740234e+00 1.642944335937500000e+01 4.580931186676025391e+00 2.951349020004272461e+00
4.699000000000000000e+03 7.028819274902343750e+01 2.897578620910644531e+01 -7.678863406181335449e-01 1.816967391967773438e+01 5.220536231994628906e+00 2.939957380294799805e+00
4.700000000000000000e+03 6.882828521728515625e+01 3.338297271728515625e+01 9.816026687622070312e-01 8.156265258789062500e+00 2.741360425949096680e+00 -4.845559597015380859e+00
4.701000000000000000e+03 6.742870330810546875e+01 3.311014175415039062e+01 1.225273013114929199e+00 2.546669006347656250e+00 1.131582617759704590e+00 -2.680259227752685547e+00
4.702000000000000000e+03 6.772299957275390625e+01 3.330248641967773438e+01 1.394733905792236328e+00 3.591634988784790039e+00 1.495910644531250000e+00 -3.319153547286987305e+00
4.703000000000000000e+03 2.229961395263671875e+01 -3.068340873718261719e+01 -5.001314356923103333e-02 -2.322403669357299805e+00 -7.117250561714172363e-01 -1.349008083343505859e-01
4.704000000000000000e+03 7.045800781250000000e+01 3.280087280273437500e+01 -2.314088493585586548e-01 1.812048339843750000e+01 5.366722106933593750e+00 -1.769652009010314941e+00
4.705000000000000000e+03 7.016616058349609375e+01 3.312168121337890625e+01 -5.176721811294555664e-01 1.606802940368652344e+01 4.665106773376464844e+00 -3.036961317062377930e+00
4.706000000000000000e+03 6.899540710449218750e+01 3.275680923461914062e+01 1.756225824356079102e+00 8.884582519531250000e+00 3.192242622375488281e+00 -5.737758159637451172e+00
4.707000000000000000e+03 7.209286499023437500e+01 2.968264579772949219e+01 4.137135028839111328e+00 1.499987506866455078e+01 5.741103172302246094e+00 -2.102519273757934570e+00
4.708000000000000000e+03 7.166986846923828125e+01 2.922551727294921875e+01 2.293902635574340820e+00 1.652833366394042969e+01 5.646671295166015625e+00 -1.970896959304809570e+00
4.709000000000000000e+03 7.102649688720703125e+01 2.888557815551757812e+01 1.304459124803543091e-01 1.751231575012207031e+01 5.292828559875488281e+00 -1.454096883535385132e-01
4.710000000000000000e+03 5.471902847290039062e+00 -3.315317916870117188e+01 7.474049460142850876e-03 -1.023802673444151878e-03 1.935074105858802795e-03 8.021336980164051056e-03
4.711000000000000000e+03 5.869856643676757812e+01 3.662857437133789062e+01 2.661350667476654053e-01 2.450307086110115051e-02 8.719144016504287720e-02 3.974744081497192383e-01
4.712000000000000000e+03 7.234442138671875000e+01 -3.570800781250000000e+01 -2.494917716830968857e-03 5.899585723876953125e+00 1.769127368927001953e+00 3.135565668344497681e-02
4.713000000000000000e+03 6.189931869506835938e+01 3.615236663818359375e+01 3.699567914009094238e-01 5.609307885169982910e-01 2.792662680149078369e-01 -3.722026199102401733e-02
4.714000000000000000e+03 6.637600708007812500e+01 2.755878448486328125e+01 -1.279371231794357300e-01 2.189384937286376953e+00 6.184343695640563965e-01 2.533798694610595703e+00
4.715000000000000000e+03 6.893182373046875000e+01 2.854614257812500000e+01 3.923062980175018311e-01 8.752857208251953125e+00 2.743548870086669922e+00 5.578279018402099609e+00
4.716000000000000000e+03 6.884417724609375000e+01 2.805653572082519531e+01 -1.185345947742462158e-01 8.441761016845703125e+00 2.496967792510986328e+00 5.005271434783935547e+00
4.717000000000000000e+03 6.776638031005859375e+01 2.864692687988281250e+01 6.295216083526611328e-01 3.459474802017211914e+00 1.226698875427246094e+00 3.771823406219482422e+00
4.718000000000000000e+03 6.931377410888671875e+01 2.760004997253417969e+01 -8.381960988044738770e-01 1.026575660705566406e+01 2.828268289566040039e+00 4.439801692962646484e+00
4.719000000000000000e+03 7.190814971923828125e+01 2.943593788146972656e+01 3.289829492568969727e+00 1.566489887237548828e+01 5.686418533325195312e+00 -2.204591274261474609e+00
4.720000000000000000e+03 7.253246307373046875e+01 2.956631469726562500e+01 3.665052890777587891e+00 1.389788913726806641e+01 5.268882751464843750e+00 -1.956103920936584473e+00
4.721000000000000000e+03 3.285141944885253906e+00 -3.789768218994140625e+00 -2.752887085080146790e-04 -5.744615918956696987e-05 -9.982046321965754032e-05 1.234789524460211396e-04
4.722000000000000000e+03 4.768160343170166016e+00 -3.059316825866699219e+01 4.650236573070287704e-03 2.749091072473675013e-04 1.477543730288743973e-03 3.964771982282400131e-03
4.723000000000000000e+03 5.224485874176025391e+00 -3.340953588485717773e+00 1.444717927370220423e-04 1.290230284212157130e-04 8.204844925785437226e-05 1.988961012102663517e-04
4.724000000000000000e+03 1.133799934387207031e+01 -2.619577026367187500e+01 -3.533887793309986591e-04 -8.018428343348205090e-04 -3.465694899205118418e-04 -2.820904192049056292e-04
4.725000000000000000e+03 1.104218196868896484e+01 -4.321408748626708984e+00 -7.823248597560450435e-05 -7.460063352482393384e-05 -4.584993803291581571e-05 -9.657547343522310257e-05
4.726000000000000000e+03 7.063980865478515625e+01 2.861347198486328125e+01 -9.532253146171569824e-01 1.689048004150390625e+01 4.781176567077636719e+00 1.683425784111022949e+00
4.727000000000000000e+03 7.086960601806640625e+01 2.864040946960449219e+01 -6.145204305648803711e-01 1.697443389892578125e+01 4.907974243164062500e+00 7.581359744071960449e-01
4.728000000000000000e+03 7.219390106201171875e+01 3.330866622924804688e+01 9.138993620872497559e-01 1.449899101257324219e+01 4.623867034912109375e+00 1.683306336402893066e+00
4.729000000000000000e+03 6.994521331787109375e+01 3.335104370117187500e+01 -5.141100287437438965e-01 1.428009414672851562e+01 4.129795074462890625e+00 -3.615142822265625000e+00
4.730000000000000000e+03 7.019536590576171875e+01 3.365692520141601562e+01 -8.068621754646301270e-01 1.414056110382080078e+01 4.000109672546386719e+00 -2.721923112869262695e+00
4.731000000000000000e+03 6.850620269775390625e+01 2.795936775207519531e+01 6.786885857582092285e-02 6.942409515380859375e+00 2.103083610534667969e+00 4.742705821990966797e+00
4.732000000000000000e+03 6.083106231689453125e+01 3.637990570068359375e+01 3.578464984893798828e-01 3.884109556674957275e-01 2.238772362470626831e-01 1.265602856874465942e-01
4.733000000000000000e+03 6.813694763183593750e+01 3.404516983032226562e+01 8.560628294944763184e-01 5.817714214324951172e+00 2.002133131027221680e+00 -3.727208614349365234e+00
4.734000000000000000e+03 6.836040496826171875e+01 3.366103363037109375e+01 1.045494198799133301e+00 6.440231323242187500e+00 2.245717525482177734e+00 -4.130610942840576172e+00
4.735000000000000000e+03 6.699266052246093750e+01 2.785666275024414062e+01 9.106257557868957520e-02 2.766492128372192383e+00 8.572664260864257812e-01 3.026216745376586914e+00
4.736000000000000000e+03 6.896952056884765625e+01 3.398946762084960938e+01 2.680762112140655518e-01 8.943773269653320312e+00 2.763554811477661133e+00 -4.237974166870117188e+00
4.737000000000000000e+03 6.087344360351562500e+01 3.548157501220703125e+01 6.145262345671653748e-02 2.109828144311904907e-01 8.173063397407531738e-02 1.771625429391860962e-01
4.738000000000000000e+03 1.063506793975830078e+01 2.033892250061035156e+01 -8.281076588900759816e-05 -4.704075308836763725e-06 -2.625445267767645419e-05 -5.163030073163099587e-05
4.739000000000000000e+03 1.058992576599121094e+01 2.382713890075683594e+01 -1.554120390210300684e-04 -8.380014151043724269e-06 -4.913761586067266762e-05 3.061701136175543070e-05
4.740000000000000000e+03 6.689204406738281250e+01 3.550421905517578125e+01 6.245095729827880859e-01 4.169859886169433594e+00 1.438310861587524414e+00 -2.205633878707885742e+00
4.741000000000000000e+03 7.114699554443359375e+01 3.370658874511718750e+01 -6.971112489700317383e-01 1.535521697998046875e+01 4.397431850433349609e+00 -2.757565677165985107e-01
4.742000000000000000e+03 6.788096618652343750e+01 3.384648895263671875e+01 1.143084287643432617e+00 4.685851573944091797e+00 1.748680710792541504e+00 -3.592284679412841797e+00
4.743000000000000000e+03 1.166998767852783203e+01 3.502325439453125000e+01 -3.931282844860106707e-04 7.959241338539868593e-05 -9.406076424056664109e-05 -1.760406594257801771e-04
4.744000000000000000e+03 7.158716201782226562e+00 -2.949012565612792969e+01 4.598002415150403976e-03 6.755596841685473919e-04 1.582068740390241146e-03 1.303012832067906857e-03
4.745000000000000000e+03 6.747029876708984375e+01 2.766578102111816406e+01 1.938409954309463501e-01 3.970737695693969727e+00 1.249373555183410645e+00 3.690675735473632812e+00
4.746000000000000000e+03 7.189851379394531250e+01 2.899543380737304688e+01 1.844359278678894043e+00 1.567087173461914062e+01 5.254569530487060547e+00 -1.912794947624206543e+00
4.747000000000000000e+03 7.285732269287109375e+01 2.903854560852050781e+01 2.315261602401733398e+00 1.330842590332031250e+01 4.687106132507324219e+00 -1.970377683639526367e+00
4.748000000000000000e+03 7.275600433349609375e+01 3.094227790832519531e+01 5.532456874847412109e+00 1.267519092559814453e+01 5.462294101715087891e+00 2.384912222623825073e-01
4.749000000000000000e+03 7.209955596923828125e+01 3.190185737609863281e+01 4.975686073303222656e+00 1.499216461181640625e+01 5.990355014801025391e+00 2.239697933197021484e+00
4.750000000000000000e+03 7.231374359130859375e+01 3.183452606201171875e+01 4.914594650268554688e+00 1.415260314941406250e+01 5.720159053802490234e+00 2.001825094223022461e+00
4.751000000000000000e+03 3.661261796951293945e+00 6.235443592071533203e+00 3.718317384482361376e-05 2.293780562467873096e-05 1.803629311325494200e-05 -2.812000093399547040e-05
4.752000000000000000e+03 2.327860450744628906e+01 -3.166653060913085938e+01 -1.322283893823623657e-01 -2.123825311660766602e+00 -6.768161058425903320e-01 -1.352407038211822510e-01
4.753000000000000000e+03 2.493085098266601562e+01 -3.301519393920898438e+01 -9.211568534374237061e-02 -1.699932575225830078e+00 -5.376144647598266602e-01 -5.648500844836235046e-02
4.754000000000000000e+03 2.376290130615234375e+01 -3.238636779785156250e+01 -1.470973491668701172e-01 -2.023790359497070312e+00 -6.512663364410400391e-01 -1.193090081214904785e-01
4.755000000000000000e+03 6.648352813720703125e+01 3.464797592163085938e+01 8.652347922325134277e-01 2.995034694671630859e+00 1.158080816268920898e+00 -1.999705314636230469e+00
4.756000000000000000e+03 7.056105041503906250e+01 2.779066658020019531e+01 -1.507090330123901367e+00 1.422010612487792969e+01 3.813904762268066406e+00 2.137408494949340820e+00
4.757000000000000000e+03 7.329543304443359375e+01 3.090050697326660156e+01 4.524691104888916016e+00 1.190734767913818359e+01 4.929611682891845703e+00 6.115560978651046753e-02
4.758000000000000000e+03 7.370987701416015625e+01 3.578738403320312500e+01 -7.389437556266784668e-01 1.142790031433105469e+01 3.206686973571777344e+00 1.289217591285705566e+00
4.759000000000000000e+03 8.046344757080078125e+00 -2.641317939758300781e+01 7.104703108780086040e-04 -1.203385996632277966e-03 -1.478746999055147171e-04 4.450839187484234571e-04
4.760000000000000000e+03 7.045696735382080078e+00 -1.945692443847656250e+01 6.704936386086046696e-04 7.587677828269079328e-05 2.239111345261335373e-04 7.581920945085585117e-04
4.761000000000000000e+03 7.073196411132812500e+01 3.425242614746093750e+01 -1.110980033874511719e+00 1.394229030609130859e+01 3.849393129348754883e+00 -1.263421058654785156e+00
4.762000000000000000e+03 6.892235565185546875e+01 2.709020996093750000e+01 -7.286993265151977539e-01 8.694188117980957031e+00 2.389646530151367188e+00 4.190035343170166016e+00
4.763000000000000000e+03 7.267854309082031250e+01 3.164010047912597656e+01 4.822595119476318359e+00 1.318744182586669922e+01 5.403011322021484375e+00 1.457937002182006836e+00
4.764000000000000000e+03 7.246345520019531250e+01 3.170249748229980469e+01 5.064900398254394531e+00 1.369818305969238281e+01 5.628924846649169922e+00 1.734929084777832031e+00
4.765000000000000000e+03 7.252817535400390625e+01 3.205217361450195312e+01 4.209319114685058594e+00 1.376640605926513672e+01 5.392717361450195312e+00 2.044843912124633789e+00
4.766000000000000000e+03 6.796877861022949219e+00 -2.749345016479492188e+01 2.355311531573534012e-03 -3.402056245249696076e-05 6.963872583582997322e-04 1.064336975105106831e-03
4.767000000000000000e+03 8.645234107971191406e+00 2.852902603149414062e+01 1.831346889957785606e-04 3.110133911832235754e-05 6.427081098081544042e-05 6.410147761926054955e-05
4.768000000000000000e+03 6.153156280517578125e+00 2.944308853149414062e+01 1.318334543611854315e-04 5.162454908713698387e-05 5.503739885170944035e-05 -3.776074436245835386e-06
4.769000000000000000e+03 6.534197235107421875e+01 3.515079116821289062e+01 6.659689545631408691e-01 1.785051226615905762e+00 7.353060841560363770e-01 -1.227399110794067383e+00
4.770000000000000000e+03 6.787821960449218750e+01 2.740898895263671875e+01 3.430411592125892639e-02 5.265765666961669922e+00 1.590021014213562012e+00 4.058744430541992188e+00
4.771000000000000000e+03 6.822451019287109375e+01 2.705231857299804688e+01 -2.823802828788757324e-01 6.438731193542480469e+00 1.846905231475830078e+00 4.074499130249023438e+00
4.772000000000000000e+03 7.175010681152343750e+01 3.424575042724609375e+01 -7.631455659866333008e-01 1.413339710235595703e+01 4.011075496673583984e+00 4.087541401386260986e-01
4.773000000000000000e+03 2.729380798339843750e+01 3.021364784240722656e+01 -1.276497840881347656e-01 -5.495147779583930969e-02 -5.478037893772125244e-02 -1.348387151956558228e-01
4.774000000000000000e+03 7.302284240722656250e+01 2.844859123229980469e+01 1.125979781150817871e+00 1.301023101806640625e+01 4.240863323211669922e+00 -1.798041820526123047e+00
4.775000000000000000e+03 7.281016540527343750e+01 2.811839294433593750e+01 5.634979605674743652e-01 1.330750942230224609e+01 4.161302089691162109e+00 -1.602625727653503418e+00
4.776000000000000000e+03 7.488434600830078125e+01 3.187914085388183594e+01 2.342036724090576172e+00 1.011292362213134766e+01 3.736487865447998047e+00 1.022189259529113770e+00
4.777000000000000000e+03 1.015027332305908203e+01 -6.266392707824707031e+00 -2.331333780603017658e-05 2.061359991785138845e-04 5.484679786604829133e-05 1.890389830805361271e-05
4.778000000000000000e+03 8.169966697692871094e+00 -1.544356346130371094e+01 2.414106274954974651e-04 -1.638951798668131232e-04 2.325463356100954115e-05 -9.417298133485019207e-04
4.779000000000000000e+03 7.267116546630859375e+01 3.186141586303710938e+01 4.338716983795166016e+00 1.336962604522705078e+01 5.312502861022949219e+00 1.791122913360595703e+00
4.780000000000000000e+03 7.301234436035156250e+01 3.196987342834472656e+01 3.992123603820800781e+00 1.270878601074218750e+01 5.010272502899169922e+00 1.663405776023864746e+00
4.781000000000000000e+03 2.922133445739746094e+01 -2.565530776977539062e+01 1.563734374940395355e-02 -1.129278898239135742e+00 -3.340924680233001709e-01 -1.005970910191535950e-01
4.782000000000000000e+03 7.307693481445312500e+01 2.788377761840820312e+01 3.681955039501190186e-01 1.270662689208984375e+01 3.922446727752685547e+00 -1.535051345825195312e+00
4.783000000000000000e+03 6.854172515869140625e+01 2.667806816101074219e+01 -6.069310307502746582e-01 7.551929950714111328e+00 2.083499670028686523e+00 3.968271255493164062e+00
4.784000000000000000e+03 7.418263435363769531e+00 2.894074058532714844e+01 -1.296369155170395970e-04 -5.920334660913795233e-05 -5.665207936544902623e-05 -3.425221439101733267e-05
4.785000000000000000e+03 7.349884796142578125e+01 3.199454498291015625e+01 3.547218799591064453e+00 1.188477706909179688e+01 4.629598617553710938e+00 1.520411849021911621e+00
4.786000000000000000e+03 7.286799621582031250e+01 3.439860916137695312e+01 -2.334622591733932495e-01 1.284075355529785156e+01 3.782187461853027344e+00 1.448087930679321289e+00
4.787000000000000000e+03 6.756134033203125000e+01 2.702906417846679688e+01 -2.809060923755168915e-02 4.804440498352050781e+00 1.432904958724975586e+00 3.725329399108886719e+00
4.788000000000000000e+03 6.885891723632812500e+01 2.662110900878906250e+01 -8.298746347427368164e-01 8.317012786865234375e+00 2.246141195297241211e+00 3.857963323593139648e+00
4.789000000000000000e+03 6.731941986083984375e+01 2.612652206420898438e+01 -2.180100530385971069e-01 4.878538608551025391e+00 1.398158550262451172e+00 3.368492603302001953e+00
4.790000000000000000e+03 2.985940170288085938e+01 -2.707551193237304688e+01 3.400218486785888672e-02 -9.979061484336853027e-01 -2.891711890697479248e-01 -7.967746257781982422e-02
4.791000000000000000e+03 6.818988037109375000e+01 2.592531394958496094e+01 -6.125991940498352051e-01 6.706387519836425781e+00 1.828136563301086426e+00 3.535069227218627930e+00
4.792000000000000000e+03 6.873081207275390625e+01 2.617939376831054688e+01 -8.402473330497741699e-01 7.854984760284423828e+00 2.104421138763427734e+00 3.579631328582763672e+00
4.793000000000000000e+03 6.822925567626953125e+01 2.663469886779785156e+01 -4.296605885028839111e-01 6.661923885345458984e+00 1.869679093360900879e+00 3.882178306579589844e+00
4.794000000000000000e+03 7.431529998779296875e+01 2.482098007202148438e+01 -9.682156443595886230e-01 1.043693065643310547e+01 2.840614557266235352e+00 -9.095646739006042480e-01
4.795000000000000000e+03 2.739073181152343750e+01 2.872183227539062500e+01 -1.411079019308090210e-01 -9.026174992322921753e-02 -6.941089779138565063e-02 -1.924516856670379639e-01
4.796000000000000000e+03 7.970060348510742188e+00 -7.572429180145263672e+00 -1.650822523515671492e-04 -2.412116155028343201e-04 -1.218881589011289179e-04 -4.113308386877179146e-04
4.797000000000000000e+03 8.939373016357421875e+00 -7.444473743438720703e+00 2.618588405312038958e-05 2.789997379295527935e-04 9.155568113783374429e-05 2.873179037123918533e-04
4.798000000000000000e+03 3.743403625488281250e+01 2.647767639160156250e+01 -5.798783302307128906e-01 3.205940499901771545e-02 -1.643456667661666870e-01 -4.950122237205505371e-01
4.799000000000000000e+03 6.502227306365966797e+00 9.284074783325195312e+00 3.259700315538793802e-05 3.270501110819168389e-05 1.959060318768024445e-05 -6.346604641294106841e-05
4.800000000000000000e+03 6.615840911865234375e+01 2.423516845703125000e+01 -2.150021642446517944e-01 3.977264642715454102e+00 1.128678798675537109e+00 2.500274419784545898e+00
4.801000000000000000e+03 6.579125976562500000e+01 2.368545532226562500e+01 -1.723699569702148438e-01 3.742580175399780273e+00 1.071063041687011719e+00 2.280713319778442383e+00
4.802000000000000000e+03 7.215734863281250000e+01 2.498776054382324219e+01 -1.543172121047973633e+00 1.103380393981933594e+01 2.847189664840698242e+00 3.651678562164306641e-01
4.803000000000000000e+03 7.327285003662109375e+01 2.491032981872558594e+01 -1.247885942459106445e+00 1.084140300750732422e+01 2.878055095672607422e+00 -4.389272928237915039e-01
4.804000000000000000e+03 3.318556976318359375e+01 -1.655104064941406250e+01 9.807733446359634399e-02 -5.217965841293334961e-01 -1.271157711744308472e-01 -1.723033338785171509e-01
4.805000000000000000e+03 3.456767272949218750e+01 -1.267525672912597656e+01 1.251814067363739014e-01 -3.445015549659729004e-01 -6.579604744911193848e-02 -2.141481339931488037e-01
4.806000000000000000e+03 5.790833282470703125e+01 -1.268061065673828125e+01 2.723116874694824219e-01 3.361280679702758789e+00 1.090077757835388184e+00 1.809579133987426758e-01
4.807000000000000000e+03 5.644957351684570312e+01 -1.214012527465820312e+01 2.849220633506774902e-01 3.105053424835205078e+00 1.016992688179016113e+00 1.519450247287750244e-01
4.808000000000000000e+03 3.995516586303710938e+01 2.614637565612792969e+01 -7.077475190162658691e-01 5.976840853691101074e-02 -1.943937242031097412e-01 -5.389226675033569336e-01
4.809000000000000000e+03 4.187356567382812500e+01 2.596322441101074219e+01 -8.100202083587646484e-01 7.682016491889953613e-02 -2.199600040912628174e-01 -5.640064477920532227e-01
4.810000000000000000e+03 4.359611129760742188e+01 -1.309610366821289062e+01 2.429562360048294067e-01 1.000797510147094727e+00 3.731261491775512695e-01 -1.105405837297439575e-01
4.811000000000000000e+03 3.584576797485351562e+01 -1.274294090270996094e+01 1.488192975521087646e-01 -1.227045580744743347e-01 7.834423333406448364e-03 -2.204695194959640503e-01
4.812000000000000000e+03 6.929350280761718750e+01 2.547367286682128906e+01 -1.190144777297973633e+00 8.748155593872070312e+00 2.267403364181518555e+00 2.978527545928955078e+00
4.813000000000000000e+03 3.383366394042968750e+01 2.548621940612792969e+01 -3.670042455196380615e-01 -5.340901017189025879e-02 -1.261239796876907349e-01 -4.810302555561065674e-01
4.814000000000000000e+03 3.842828369140625000e+01 2.507699584960937500e+01 -5.598756670951843262e-01 2.940044365823268890e-02 -1.591425538063049316e-01 -5.838772058486938477e-01
4.815000000000000000e+03 4.098821258544921875e+01 2.492324638366699219e+01 -6.701030731201171875e-01 6.143477931618690491e-02 -1.826004981994628906e-01 -6.180568337440490723e-01
4.816000000000000000e+03 6.898451995849609375e+01 2.473808097839355469e+01 -1.049055457115173340e+00 7.772327899932861328e+00 2.016981840133666992e+00 2.787989377975463867e+00
4.817000000000000000e+03 6.936347961425781250e+01 2.505514144897460938e+01 -1.251105785369873047e+00 8.632622718811035156e+00 2.214455127716064453e+00 2.771688461303710938e+00
4.818000000000000000e+03 7.140353393554687500e+01 1.880619812011718750e+01 -6.838046312332153320e-01 7.658332347869873047e+00 2.092358350753784180e+00 9.436148405075073242e-01
4.819000000000000000e+03 6.919812011718750000e+01 2.386479187011718750e+01 -1.129278898239135742e+00 7.861938476562500000e+00 2.019797801971435547e+00 2.379894256591796875e+00
4.820000000000000000e+03 3.936021804809570312e+01 2.449907875061035156e+01 -5.699899792671203613e-01 3.652039170265197754e-02 -1.600408703088760376e-01 -6.208944320678710938e-01
4.821000000000000000e+03 6.434659576416015625e+01 2.310558128356933594e+01 -5.194240808486938477e-02 2.735107421875000000e+00 8.049495220184326172e-01 1.795771002769470215e+00
4.822000000000000000e+03 7.039710998535156250e+01 1.383999156951904297e+01 -1.224770992994308472e-01 6.485068321228027344e+00 1.908777356147766113e+00 9.339639544486999512e-01
4.823000000000000000e+03 7.058660888671875000e+01 1.273869132995605469e+01 -5.184106528759002686e-02 6.473741054534912109e+00 1.926570057868957520e+00 8.758533596992492676e-01
4.824000000000000000e+03 5.505806350708007812e+01 -1.041071605682373047e+01 3.176942169666290283e-01 2.782773256301879883e+00 9.301402568817138672e-01 1.266289800405502319e-01
4.825000000000000000e+03 3.234627532958984375e+01 -5.443334579467773438e+00 1.223055571317672729e-01 -6.464416384696960449e-01 -1.572408229112625122e-01 -3.305326998233795166e-01
4.826000000000000000e+03 4.143625640869140625e+01 2.271428680419921875e+01 -5.082640051841735840e-01 5.617577210068702698e-02 -1.356264650821685791e-01 -7.025967240333557129e-01
4.827000000000000000e+03 6.995812988281250000e+01 1.433785152435302734e+01 -1.399892866611480713e-01 6.359578609466552734e+00 1.865876793861389160e+00 9.954202771186828613e-01
4.828000000000000000e+03 3.281121826171875000e+01 -4.472756862640380859e+00 1.307933032512664795e-01 -5.794557929039001465e-01 -1.345987468957901001e-01 -3.521214127540588379e-01
4.829000000000000000e+03 6.905859375000000000e+01 -1.617561817169189453e+00 1.895115077495574951e-01 5.567071914672851562e+00 1.726975083351135254e+00 4.704606235027313232e-01
4.830000000000000000e+03 6.811647033691406250e+01 2.116512680053710938e+01 -5.990634560585021973e-01 6.171846866607666016e+00 1.671834945678710938e+00 1.917625069618225098e+00
4.831000000000000000e+03 6.759522247314453125e+01 1.126843070983886719e+01 1.527396291494369507e-01 5.314843177795410156e+00 1.640274882316589355e+00 9.465571641921997070e-01
4.832000000000000000e+03 3.423490905761718750e+01 -3.378034353256225586e+00 1.556637287139892578e-01 -4.000989496707916260e-01 -7.333056628704071045e-02 -3.748711943626403809e-01
4.833000000000000000e+03 6.876076507568359375e+01 2.117704582214355469e+01 -7.362986803054809570e-01 6.673495292663574219e+00 1.781158924102783203e+00 1.848296999931335449e+00
4.834000000000000000e+03 4.652346801757812500e+01 2.082265663146972656e+01 -3.769741654396057129e-01 1.697191745042800903e-01 -6.217649579048156738e-02 -6.797551512718200684e-01
4.835000000000000000e+03 6.908915710449218750e+01 1.935057830810546875e+01 -5.664094686508178711e-01 6.576226234436035156e+00 1.802945017814636230e+00 1.465979814529418945e+00
4.836000000000000000e+03 6.728432464599609375e+01 5.447082996368408203e+00 2.659451961517333984e-01 5.173845291137695312e+00 1.631937146186828613e+00 7.071447372436523438e-01
4.837000000000000000e+03 6.441543579101562500e+01 -3.995691537857055664e+00 2.793354392051696777e-01 4.508209705352783203e+00 1.436263442039489746e+00 4.093798398971557617e-01
4.838000000000000000e+03 6.391436767578125000e+01 1.832929611206054688e+01 1.550202965736389160e-01 3.468977689743041992e+00 1.087199449539184570e+00 1.370380520820617676e+00
4.839000000000000000e+03 4.585346984863281250e+01 1.942569160461425781e+01 -2.263767570257186890e-01 1.907576769590377808e-01 -1.068572141230106354e-02 -6.851909756660461426e-01
4.840000000000000000e+03 5.623829650878906250e+01 2.139660263061523438e+01 -1.753634512424468994e-01 6.297007799148559570e-01 1.363011896610260010e-01 -5.530296824872493744e-03
4.841000000000000000e+03 3.728812789916992188e+01 1.932220268249511719e+01 -2.052044719457626343e-01 -8.118782192468643188e-02 -8.591768890619277954e-02 -7.281589508056640625e-01
4.842000000000000000e+03 6.294630813598632812e+01 1.141931915283203125e+01 3.908178806304931641e-01 3.658975362777709961e+00 1.214937925338745117e+00 8.508694767951965332e-01
4.843000000000000000e+03 4.989421081542968750e+01 1.678578186035156250e+01 1.186645999550819397e-01 5.141983032226562500e-01 1.898588687181472778e-01 -4.360853135585784912e-01
4.844000000000000000e+03 3.758443069458007812e+01 2.037324714660644531e+01 -2.656321823596954346e-01 -6.456916034221649170e-02 -9.906040132045745850e-02 -7.136629223823547363e-01
4.845000000000000000e+03 5.746117019653320312e+01 2.137316131591796875e+01 -1.308846026659011841e-01 7.835761904716491699e-01 1.958074867725372314e-01 1.815160810947418213e-01
4.846000000000000000e+03 6.398477172851562500e+01 6.605004310607910156e+00 3.792877495288848877e-01 4.204846382141113281e+00 1.375240206718444824e+00 6.958690881729125977e-01
4.847000000000000000e+03 6.241669845581054688e+01 6.474874019622802734e+00 4.286714494228363037e-01 3.747507095336914062e+00 1.252853512763977051e+00 6.343849301338195801e-01
4.848000000000000000e+03 4.484919357299804688e+01 1.877400588989257812e+01 -1.800841540098190308e-01 1.718696206808090210e-01 -2.464361721649765968e-03 -7.038544416427612305e-01
4.849000000000000000e+03 4.223020172119140625e+01 1.736245346069335938e+01 -9.482818841934204102e-02 1.009910479187965393e-01 1.848859013989567757e-03 -7.357541918754577637e-01
4.850000000000000000e+03 4.820051956176757812e+01 3.205087423324584961e+00 4.615039229393005371e-01 1.135544061660766602e+00 4.791144132614135742e-01 -1.905378699302673340e-01
4.851000000000000000e+03 6.294067382812500000e+01 9.041205406188964844e+00 4.113047719001770020e-01 3.794242143630981445e+00 1.261664032936096191e+00 7.471243739128112793e-01
4.852000000000000000e+03 6.050899887084960938e+01 1.572298145294189453e+01 3.981062471866607666e-01 2.453957557678222656e+00 8.556191325187683105e-01 7.863138318061828613e-01
4.853000000000000000e+03 3.796104049682617188e+01 1.019834518432617188e+01 1.463682949542999268e-01 -7.791944593191146851e-02 2.053465694189071655e-02 -6.589228510856628418e-01
4.854000000000000000e+03 6.433033752441406250e+01 1.551562690734863281e+01 2.159769088029861450e-01 3.943289041519165039e+00 1.247779726982116699e+00 1.161488413810729980e+00
4.855000000000000000e+03 4.456661224365234375e+01 5.328265190124511719e+00 3.794679045677185059e-01 6.246048808097839355e-01 3.012218177318572998e-01 -3.901247084140777588e-01
4.856000000000000000e+03 5.002848815917968750e+01 1.306318092346191406e+01 3.537010550498962402e-01 7.947098612785339355e-01 3.445232808589935303e-01 -3.085513710975646973e-01
4.857000000000000000e+03 4.738557815551757812e+01 1.121431827545166016e+01 3.515352904796600342e-01 6.394312381744384766e-01 2.972899675369262695e-01 -4.189531505107879639e-01
4.858000000000000000e+03 5.589590454101562500e+01 8.431291580200195312e+00 5.466601848602294922e-01 2.085196018218994141e+00 7.895568609237670898e-01 2.474996596574783325e-01
4.859000000000000000e+03 4.057865524291992188e+01 1.037430763244628906e+01 1.938441246747970581e-01 1.100197955965995789e-01 9.115917235612869263e-02 -6.350459456443786621e-01
4.860000000000000000e+03 1.426702117919921875e+01 1.252673983573913574e+00 -1.673425140324980021e-05 -6.978432338655693457e-07 -5.229628186498302966e-06 -1.150130447058472782e-05
4.861000000000000000e+03 1.462149238586425781e+01 1.164639949798583984e+00 3.406955147511325777e-05 -4.799160819857206661e-07 1.007689115795074031e-05 -5.824391791975358501e-06
4.862000000000000000e+03 1.332876110076904297e+01 1.093653082847595215e+00 -5.715703991882037371e-06 -1.096273354050936177e-05 -5.003530986869009212e-06 -5.281396170175867155e-06
4.863000000000000000e+03 1.406522464752197266e+01 3.572364747524261475e-01 -4.378440280561335385e-06 -6.814414064137963578e-06 -3.357856257935054600e-06 -9.417614137419150211e-07
4.864000000000000000e+03 1.336003494262695312e+01 3.511472940444946289e-01 2.208106479884008877e-06 1.077451452147215605e-05 3.894786459568422288e-06 2.370735955992131494e-06
4.865000000000000000e+03 1.476313018798828125e+01 5.016638040542602539e-01 2.028695007538772188e-06 3.442587740210001357e-06 1.641384869799367152e-06 1.526906885374046396e-06
4.866000000000000000e+03 1.414069938659667969e+01 9.322270154953002930e-01 2.142648372682742774e-05 -5.738086656492669135e-06 4.706518666353076696e-06 8.255360626208130270e-06
4.867000000000000000e+03 1.384797477722167969e+01 1.187353014945983887e+00 5.361805961001664400e-06 7.728468517598230392e-06 3.927082161681028083e-06 5.301332748786080629e-06
4.868000000000000000e+03 1.112969017028808594e+01 3.708996772766113281e-01 -2.965522526210406795e-06 -1.055337179423077032e-05 -4.055668341607088223e-06 1.548838099552085623e-06
4.869000000000000000e+03 1.113907623291015625e+01 1.110847473144531250e+00 9.526664143777452409e-06 7.841305887268390507e-06 5.210391009313752875e-06 -4.435359642229741439e-06
4.870000000000000000e+03 1.263169097900390625e+01 3.451149165630340576e-01 -2.236576847280957736e-06 -1.300528401770861819e-05 -4.572558282234240323e-06 -3.700661181937903166e-07
4.871000000000000000e+03 1.037880802154541016e+01 3.837110698223114014e-01 3.399367187739699148e-06 8.198056093533523381e-06 3.479227189018274657e-06 -1.319481498285313137e-06
4.872000000000000000e+03 1.188065242767333984e+01 3.580341637134552002e-01 2.503400082787266001e-06 1.265684841200709343e-05 4.548074684862513095e-06 -9.422301445738412440e-07
4.873000000000000000e+03 1.264514160156250000e+01 1.084993243217468262e+00 4.818106845050351694e-06 1.072361646947683766e-05 4.662517312681302428e-06 3.495502198802569183e-07
4.874000000000000000e+03 1.038616180419921875e+01 1.123693704605102539e+00 -1.052324569172924384e-05 -6.757212304364657030e-06 -5.184137535252375528e-06 3.299093805253505707e-06
4.875000000000000000e+03 1.189207077026367188e+01 1.097947120666503906e+00 -6.693386694678338245e-06 -9.814523764362093061e-06 -4.952373274136334658e-06 3.613060243878862821e-06
4.876000000000000000e+03 9.625078201293945312e+00 3.871397972106933594e-01 -3.534068582666805014e-06 -6.816261247877264395e-06 -3.105099040112691000e-06 4.660149386381817749e-07
4.877000000000000000e+03 8.868724822998046875e+00 3.828192353248596191e-01 3.500691718727466650e-06 6.738613592460751534e-06 3.071791525144362822e-06 2.296958427905337885e-07
4.878000000000000000e+03 9.644926071166992188e+00 1.127139806747436523e+00 1.112502013711491600e-05 6.612563083763234317e-06 5.321275239111855626e-06 -1.479758566347300075e-06
4.879000000000000000e+03 8.112174034118652344e+00 3.804100155830383301e-01 -3.427293449931312352e-06 -7.214039214886724949e-06 -3.192399844920146279e-06 -6.179591309773968533e-07
4.880000000000000000e+03 7.356014251708984375e+00 3.793691694736480713e-01 3.411344096093671396e-06 7.623725196026498452e-06 3.310520696686580777e-06 7.126330956452875398e-07
4.881000000000000000e+03 5.843623161315917969e+00 3.767499327659606934e-01 3.072282197535969317e-06 6.073251825000625104e-06 2.743660161286243238e-06 -1.818167874034770648e-07
4.882000000000000000e+03 5.088051319122314453e+00 3.757717311382293701e-01 -2.193133468608721159e-06 -3.393409770069411024e-06 -1.675962948866072111e-06 1.515244434813212138e-06
4.883000000000000000e+03 3.576755046844482422e+00 3.680583238601684570e-01 -3.106014219156350009e-06 3.107812744929105975e-06 5.396044167049751650e-10 2.646595476107904688e-06
4.884000000000000000e+03 2.822042465209960938e+00 3.613462746143341064e-01 4.746088507090462372e-06 -3.653651674540014938e-06 3.277310725025017746e-07 -1.468449113417591434e-06
4.885000000000000000e+03 2.068703651428222656e+00 3.577998280525207520e-01 -3.563442533049965277e-06 2.441932792862644419e-06 -3.364528993188287131e-07 8.293838504869199824e-07
4.886000000000000000e+03 2.358754634857177734e+00 1.097799897193908691e+00 1.215118845721008256e-05 2.645906249654217390e-07 3.724733687704429030e-06 1.353247057522821706e-06
4.887000000000000000e+03 1.327708005905151367e+00 3.658417165279388428e-01 1.452310129934630822e-07 -2.986263098136987537e-06 -8.523096539647667669e-07 -3.517060576996300370e-06
4.888000000000000000e+03 1.644779324531555176e+00 1.105841755867004395e+00 -6.462680630647810176e-06 -5.464338300953386351e-06 -3.578105634005623870e-06 -1.184654365715687163e-06
4.889000000000000000e+03 6.509408354759216309e-01 3.937322795391082764e-01 1.260044336959253997e-05 1.093537866836413741e-05 7.060746611387003213e-06 1.400888322677928954e-05
4.890000000000000000e+03 3.482567369937896729e-01 9.569563269615173340e-01 -1.930986218212638050e-05 -1.233848615811439231e-05 -9.494504411122761667e-06 -4.256413831171812490e-06
4.891000000000000000e+03 3.085073232650756836e+00 1.101346254348754883e+00 -1.353754487354308367e-05 8.782640747995174024e-07 -3.797784074777155183e-06 1.220942294821725227e-06
4.892000000000000000e+03 3.812765598297119141e+00 1.108058333396911621e+00 1.112713107431773096e-05 9.148654953605728224e-07 3.612599130065063946e-06 -4.390681169752497226e-06
4.893000000000000000e+03 4.332499980926513672e+00 3.732680678367614746e-01 2.836869953171117231e-06 -2.492557769073755480e-07 7.762842528791225050e-07 -2.577216946519911289e-06
4.894000000000000000e+03 5.998572826385498047e+00 1.116749882698059082e+00 -7.595013812533579767e-06 -6.672734343737829477e-06 -4.280324446881422773e-06 2.232014139735838398e-06
4.895000000000000000e+03 6.600036144256591797e+00 3.784387111663818359e-01 -3.180614612574572675e-06 -7.356009973591426387e-06 -3.160987262162961997e-06 -4.511394706696592038e-07
4.896000000000000000e+03 8.186062812805175781e+00 1.120409965515136719e+00 9.705198863230179995e-06 7.136538897611899301e-06 5.052521373727358878e-06 3.975666231781360693e-07
4.897000000000000000e+03 8.915593147277832031e+00 1.122819185256958008e+00 -1.026173413265496492e-05 -6.762404609617078677e-06 -5.107241577206877992e-06 7.191315631871475489e-08
4.898000000000000000e+03 7.456923484802246094e+00 1.119369149208068848e+00 -9.169703844236209989e-06 -7.352232842094963416e-06 -4.956581051374087110e-06 -8.981311339084641077e-08
4.899000000000000000e+03 6.727965354919433594e+00 1.118438720703125000e+00 8.632224307802971452e-06 7.305249710043426603e-06 4.781241841556038707e-06 -6.747204679413698614e-07
4.900000000000000000e+03 5.270021438598632812e+00 1.115771770477294922e+00 6.872875474073225632e-06 5.639280516334110871e-06 3.753646751647465862e-06 -3.838354587060166523e-06
4.901000000000000000e+03 4.541490077972412109e+00 1.113268017768859863e+00 -7.661447853024583310e-06 -3.747333721548784524e-06 -3.422634563321480528e-06 5.273413080431055278e-06
4.902000000000000000e+03 9.950323700904846191e-01 1.133732318878173828e+00 -4.281784185877768323e-06 1.698117921478115022e-05 3.809818736044690013e-06 -5.201793555897893384e-06
4.903000000000000000e+03 7.951600551605224609e+00 -3.791473805904388428e-01 9.189783668261952698e-06 8.014345803530886769e-05 2.679997123777866364e-05 1.667801939220225904e-06
4.904000000000000000e+03 8.812386512756347656e+00 -1.121279358863830566e+00 2.731988752202596515e-05 6.505115743493661284e-05 2.771131221379619092e-05 -1.053791402227943763e-05
4.905000000000000000e+03 9.587816238403320312e+00 -3.863115906715393066e-01 1.505346426711184904e-05 5.115971362101845443e-05 1.986395363928750157e-05 -1.223876552103320137e-05
4.906000000000000000e+03 7.132064342498779297e+00 -3.779651820659637451e-01 2.513891786293243058e-06 -6.089024100219830871e-05 -1.751290437823627144e-05 -1.680513196333777159e-05
4.907000000000000000e+03 6.306247234344482422e+00 -3.772793114185333252e-01 -1.037286710925400257e-05 1.202699058922007680e-05 4.962370780958735850e-07 4.180296309641562402e-05
4.908000000000000000e+03 5.442752361297607422e+00 -3.835102021694183350e-01 -3.521272446960210800e-05 3.617898255470208824e-05 2.898780735449690837e-07 -3.170942363794893026e-05
4.909000000000000000e+03 4.552286148071289062e+00 -3.399353623390197754e-01 1.461251122236717492e-05 -6.078353908378630877e-05 -1.385130781272891909e-05 6.766075784980785102e-06
4.910000000000000000e+03 4.371328830718994141e+00 -8.708365559577941895e-01 1.535519259050488472e-04 1.540011435281485319e-04 9.226592374034225941e-05 1.570036693010479212e-04
4.911000000000000000e+03 2.785328388214111328e+00 -7.796061038970947266e-01 -9.235789912054315209e-05 -7.380542956525459886e-05 -4.984899715054780245e-05 1.486428081989288330e-04
4.912000000000000000e+03 1.180722951889038086e+00 -3.608860373497009277e-01 -8.841324597597122192e-05 9.591683920007199049e-05 2.251077376058674417e-06 -9.863195373327471316e-06
4.913000000000000000e+03 4.099212884902954102e-01 -5.526853203773498535e-01 -3.010024011018685997e-05 -8.507791790179908276e-05 -3.455344631220214069e-05 -5.013251211494207382e-05
4.914000000000000000e+03 7.477942705154418945e-01 -1.100885987281799316e+00 3.570027183741331100e-04 1.390878314850851893e-04 1.488271664129570127e-04 1.604283606866374612e-04
4.915000000000000000e+03 9.597747802734375000e+00 -1.126311540603637695e+00 -3.325274883536621928e-05 -4.941219231113791466e-05 -2.479948307154700160e-05 2.488766040187329054e-05
4.916000000000000000e+03 8.026608467102050781e+00 -1.119147419929504395e+00 -1.566078935866244137e-05 -8.201102173188701272e-05 -2.930154187197331339e-05 -6.781949196010828018e-06
4.917000000000000000e+03 7.239610195159912109e+00 -1.117965221405029297e+00 3.415952733121230267e-06 1.036679241224192083e-04 3.212516094208694994e-05 2.504485382814891636e-05
4.918000000000000000e+03 6.446331024169921875e+00 -1.117279291152954102e+00 -8.284769137389957905e-06 -1.486156979808583856e-04 -4.707014159066602588e-05 -2.072784627671353519e-05
4.919000000000000000e+03 5.615375041961669922e+00 -1.123510241508483887e+00 9.375915396958589554e-05 1.655662345001474023e-04 7.779761654091998935e-05 1.172905399471346755e-06
4.920000000000000000e+03 4.879715442657470703e+00 -1.221276640892028809e+00 -2.231300750281661749e-04 -3.401286085136234760e-04 -1.689776108833029866e-04 -1.198587124235928059e-04
4.921000000000000000e+03 4.223337173461914062e+00 -1.290901184082031250e+00 4.330193041823804379e-05 2.446248836349695921e-04 8.637804421596229076e-05 3.076711072935722768e-05
4.922000000000000000e+03 3.489140987396240234e+00 -1.263193726539611816e+00 -1.055989341693930328e-04 -8.498730312567204237e-05 -5.717587191611528397e-05 6.519580347230657935e-05
4.923000000000000000e+03 2.723763942718505859e+00 -1.258556365966796875e+00 2.551728102844208479e-04 -9.286415297538042068e-05 4.869259646511636674e-05 -9.774048521649092436e-05
4.924000000000000000e+03 1.357383847236633301e+00 -1.202877521514892578e+00 -2.925471926573663950e-04 -3.078661102335900068e-04 -1.801239995984360576e-04 -1.014591907733120024e-04
4.925000000000000000e+03 8.769917488098144531e+00 -3.812793791294097900e-01 -8.926012924348469824e-06 -7.491707219742238522e-05 -2.515292544558178633e-05 7.050548902043374255e-06
4.926000000000000000e+03 3.581377506256103516e+00 -7.854385375976562500e-01 5.842436075909063220e-05 -6.358544487738981843e-05 -1.548325599287636578e-06 -1.125567796407267451e-04
4.927000000000000000e+03 3.695749998092651367e+00 -2.822447717189788818e-01 -4.634638025891035795e-05 6.041679080226458609e-05 4.221122708258917555e-06 1.381281344947637990e-05
4.928000000000000000e+03 2.864297151565551758e+00 -2.810497581958770752e-01 -9.833602234721183777e-06 -3.815758464043028653e-05 -1.439735660824226215e-05 -2.272052915941458195e-05
4.929000000000000000e+03 1.994235515594482422e+00 -3.319245874881744385e-01 -5.052738561062142253e-05 -1.132774013967718929e-05 -1.855653863458428532e-05 3.928508886019699275e-05
4.930000000000000000e+03 1.981270551681518555e+00 -1.274680376052856445e+00 -2.301030326634645462e-04 2.994779788423329592e-04 2.081248567264992744e-05 7.542494131485000253e-05
4.931000000000000000e+03 1.973554253578186035e+00 -8.466050028800964355e-01 3.190529241692274809e-04 1.365727221127599478e-04 1.366876967949792743e-04 -1.887364196591079235e-04
4.932000000000000000e+03 1.332448291778564453e+01 -3.621845245361328125e-01 -7.930050196591764688e-05 1.959993969649076462e-04 3.500967068248428404e-05 7.161881057982100174e-06
4.933000000000000000e+03 1.426397991180419922e+01 -1.317608714103698730e+00 2.229364035883918405e-04 6.975303404033184052e-05 8.780683128861710429e-05 1.764121989253908396e-04
4.934000000000000000e+03 1.327361392974853516e+01 -1.248556852340698242e+00 -1.827191445045173168e-04 -1.153132416220614687e-05 -5.827513814438134432e-05 -8.249747043009847403e-05
4.935000000000000000e+03 1.480296707153320312e+01 -1.047354817390441895e+00 -2.260565379401668906e-04 -1.449905394110828638e-04 -1.113141261157579720e-04 -1.350943202851340175e-04
4.936000000000000000e+03 1.356446647644042969e+01 -7.579438090324401855e-01 3.616106405388563871e-04 8.160724974004551768e-05 1.329653605353087187e-04 1.194391588796861470e-04
4.937000000000000000e+03 1.393659019470214844e+01 -3.302382230758666992e-01 -7.177460793172940612e-05 -1.923819654621183872e-04 -7.924697274575009942e-05 -4.546151467366144061e-05
4.938000000000000000e+03 1.449034786224365234e+01 -4.399540424346923828e-01 2.713266294449567795e-04 2.082419523503631353e-04 1.438705658074468374e-04 2.229863312095403671e-04
4.939000000000000000e+03 1.380024147033691406e+01 -1.352263331413269043e+00 -9.503828914603218436e-05 8.237042493419721723e-05 -3.800358626904198900e-06 -1.547409556224010885e-05
4.940000000000000000e+03 1.402595424652099609e+01 -9.610455632209777832e-01 -5.409246659837663174e-04 -9.910545486491173506e-05 -1.920090435305610299e-04 -2.027511218329891562e-04
4.941000000000000000e+03 1.185737037658691406e+01 -1.162281751632690430e+00 4.523888128460384905e-05 -5.513623909791931510e-05 -2.969208026115666144e-06 -3.621374708018265665e-05
4.942000000000000000e+03 1.112013435363769531e+01 -4.102526009082794189e-01 1.837279523897450417e-05 -1.910661740112118423e-05 -2.201467310669613653e-07 -1.266959498025244102e-05
4.943000000000000000e+03 1.261753940582275391e+01 -4.348734915256500244e-01 -7.596954674227163196e-06 -1.269476633751764894e-04 -4.036338214064016938e-05 -4.565177732729353011e-05
4.944000000000000000e+03 1.037124824523925781e+01 -3.971002995967864990e-01 -1.520754449302330613e-05 -1.899025301099754870e-05 -1.025933943310519680e-05 1.383837479806970805e-05
4.945000000000000000e+03 1.036389350891113281e+01 -1.137082934379577637e+00 4.292083394830115139e-05 2.362534360145218670e-05 1.996385435631964356e-05 -4.149316737311892211e-05
4.946000000000000000e+03 1.260408973693847656e+01 -1.174751639366149902e+00 1.950048135768156499e-05 4.515628825174644589e-05 1.939702997333370149e-05 5.790441355202347040e-05
4.947000000000000000e+03 1.111074829101562500e+01 -1.150200366973876953e+00 -5.760329804616048932e-05 1.959371002158150077e-05 -1.140287622547475621e-05 4.132368121645413339e-05
4.948000000000000000e+03 1.186878871917724609e+01 -4.223687946796417236e-01 -1.296642039960715920e-05 5.791299190605059266e-05 1.348397199762985110e-05 1.565310594742186368e-05
4.949000000000000000e+03 6.977350616455078125e+01 3.085501098632812500e+01 3.089221763610839844e+01 6.242054939270019531e+00 1.114028167724609375e+01 1.198550033569335938e+01
4.950000000000000000e+03 6.977747344970703125e+01 3.083595085144042969e+01 2.808081054687500000e+01 1.844096183776855469e+01 1.395653152465820312e+01 2.288450813293457031e+01
4.951000000000000000e+03 6.978507995605468750e+01 3.081802749633789062e+01 2.568043899536132812e+01 3.029425811767578125e+01 1.679240989685058594e+01 2.663279724121093750e+01
4.952000000000000000e+03 6.979602813720703125e+01 3.080192947387695312e+01 2.178257369995117188e+01 4.240861511230468750e+01 1.925735664367675781e+01 2.766247367858886719e+01
4.953000000000000000e+03 6.980989074707031250e+01 3.078826904296875000e+01 1.847524070739746094e+01 5.349969100952148438e+01 2.159247970581054688e+01 2.570988464355468750e+01
4.954000000000000000e+03 6.982615661621093750e+01 3.077756881713867188e+01 1.533079051971435547e+01 6.292351150512695312e+01 2.347629165649414062e+01 2.135009384155273438e+01
4.955000000000000000e+03 6.984419250488281250e+01 3.077024078369140625e+01 1.381726074218750000e+01 6.975344085693359375e+01 2.507121086120605469e+01 1.523272228240966797e+01
4.956000000000000000e+03 6.986331176757812500e+01 3.076656341552734375e+01 1.395205974578857422e+01 7.353454589843750000e+01 2.624598121643066406e+01 8.084206581115722656e+00
4.957000000000000000e+03 6.988278198242187500e+01 3.076667976379394531e+01 1.611189270019531250e+01 7.415430450439453125e+01 2.707985877990722656e+01 1.112314701080322266e+00
4.958000000000000000e+03 6.990185546875000000e+01 3.077058410644531250e+01 2.005257987976074219e+01 7.198773956298828125e+01 2.761209487915039062e+01 -4.892234802246093750e+00
4.959000000000000000e+03 6.991979980468750000e+01 3.077812576293945312e+01 2.512564468383789062e+01 6.778997039794921875e+01 2.787468338012695312e+01 -9.101735115051269531e+00
4.960000000000000000e+03 6.993593597412109375e+01 3.078901672363281250e+01 3.062981986999511719e+01 6.245749282836914062e+01 2.792619323730468750e+01 -1.120758724212646484e+01
4.961000000000000000e+03 6.994964599609375000e+01 3.080284309387207031e+01 3.587772369384765625e+01 5.709851455688476562e+01 2.789287185668945312e+01 -1.116138267517089844e+01
4.962000000000000000e+03 6.996039581298828125e+01 3.081907081604003906e+01 4.022431945800781250e+01 5.234099960327148438e+01 2.776959609985351562e+01 -9.308467864990234375e+00
4.963000000000000000e+03 6.996778869628906250e+01 3.083708190917968750e+01 4.326054000854492188e+01 4.892829513549804688e+01 2.765665054321289062e+01 -6.132619380950927734e+00
4.964000000000000000e+03 6.997152709960937500e+01 3.085618782043457031e+01 4.481509017944335938e+01 4.716139984130859375e+01 2.759294700622558594e+01 -2.143392562866210938e+00
4.965000000000000000e+03 6.997147369384765625e+01 3.087565612792968750e+01 4.478371047973632812e+01 4.719156646728515625e+01 2.759258460998535156e+01 2.081779479980468750e+00
4.966000000000000000e+03 6.996763610839843750e+01 3.089474296569824219e+01 4.316470336914062500e+01 4.899156951904296875e+01 2.764688110351562500e+01 6.039375782012939453e+00
4.967000000000000000e+03 6.996015167236328125e+01 3.091271591186523438e+01 4.011901855468750000e+01 5.244744491577148438e+01 2.776993942260742188e+01 9.138268470764160156e+00
4.968000000000000000e+03 6.994931793212890625e+01 3.092888832092285156e+01 3.575951385498046875e+01 5.718911743164062500e+01 2.788458824157714844e+01 1.091863536834716797e+01
4.969000000000000000e+03 6.993553924560546875e+01 3.094264030456542969e+01 3.059891128540039062e+01 6.255622482299804688e+01 2.794654083251953125e+01 1.086790275573730469e+01
4.970000000000000000e+03 6.991934204101562500e+01 3.095344924926757812e+01 2.516431808471679688e+01 6.782651519775390625e+01 2.789724922180175781e+01 8.694786071777343750e+00
4.971000000000000000e+03 6.990135955810546875e+01 3.096089553833007812e+01 2.023543357849121094e+01 7.198148345947265625e+01 2.766507339477539062e+01 4.419416904449462891e+00
4.972000000000000000e+03 6.988226318359375000e+01 3.096470069885253906e+01 1.645618247985839844e+01 7.408094024658203125e+01 2.716113662719726562e+01 -1.618770480155944824e+00
4.973000000000000000e+03 6.986279296875000000e+01 3.096471405029296875e+01 1.443245983123779297e+01 7.337151336669921875e+01 2.634119224548339844e+01 -8.599884986877441406e+00
4.974000000000000000e+03 6.984369659423828125e+01 3.096093750000000000e+01 1.449323749542236328e+01 6.952036285400390625e+01 2.520408058166503906e+01 -1.572049522399902344e+01
4.975000000000000000e+03 6.982569885253906250e+01 3.095351600646972656e+01 1.611316299438476562e+01 6.260414123535156250e+01 2.361519050598144531e+01 -2.177580451965332031e+01
4.976000000000000000e+03 6.980949401855468750e+01 3.094273185729980469e+01 1.936772537231445312e+01 5.311471557617187500e+01 2.174473190307617188e+01 -2.604261970520019531e+01
4.977000000000000000e+03 6.979569244384765625e+01 3.092899894714355469e+01 2.278083229064941406e+01 4.203553390502929688e+01 1.944491004943847656e+01 -2.786520004272460938e+01
4.978000000000000000e+03 6.978482818603515625e+01 3.091284179687500000e+01 2.660642242431640625e+01 2.982111740112304688e+01 1.692826271057128906e+01 -2.674217033386230469e+01
4.979000000000000000e+03 6.977732086181640625e+01 3.089487838745117188e+01 2.901192092895507812e+01 1.816582679748535156e+01 1.415332412719726562e+01 -2.287010002136230469e+01
4.980000000000000000e+03 6.977346038818359375e+01 3.087579917907714844e+01 3.166522216796875000e+01 6.039857387542724609e+00 1.131152343750000000e+01 -1.180434608459472656e+01
