# el_label, x, y, sXX, sYY, sZZ, sXY
1.000000000000000000e+00 1.270214080810546875e+01 -7.747905701398849487e-02 -6.243273735046386719e+00 -2.470319986343383789e+00 -2.614078044891357422e+00 -2.645254135131835938e+00
2.000000000000000000e+00 1.250386047363281250e+01 -9.487348794937133789e-02 -2.180126667022705078e+00 9.433145523071289062e-01 -3.710436522960662842e-01 7.837158441543579102e-01
3.000000000000000000e+00 1.230558109283447266e+01 -1.122679188847541809e-01 -3.495140790939331055e+00 -3.859784305095672607e-01 -1.164335846900939941e+00 -7.123445160686969757e-03
4.000000000000000000e+00 1.210730171203613281e+01 -1.296623647212982178e-01 -3.648488044738769531e+00 2.680747210979461670e-01 -1.014123916625976562e+00 7.149143517017364502e-02
5.000000000000000000e+00 1.271291065216064453e+01 -1.348819136619567871e-01 8.871762275695800781e+00 -2.488770961761474609e+00 1.914897322654724121e+00 1.901660919189453125e+00
6.000000000000000000e+00 1.252181148529052734e+01 -1.905449181795120239e-01 1.298737525939941406e+00 4.054460227489471436e-01 5.112550854682922363e-01 1.402974486351013184e+00
7.000000000000000000e+00 1.233071231842041016e+01 -2.462079077959060669e-01 1.072429180145263672e+00 8.556259870529174805e-01 5.784165263175964355e-01 1.906645059585571289e+00
8.000000000000000000e+00 1.213961315155029297e+01 -3.018709123134613037e-01 -7.105545997619628906e-01 1.734182238578796387e-01 -1.611409187316894531e-01 1.323130965232849121e+00
9.000000000000000000e+00 1.273465061187744141e+01 -1.890896707773208618e-01 1.362924957275390625e+01 2.537628412246704102e+00 4.850063323974609375e+00 9.083897590637207031e+00
1.000000000000000000e+01 1.255804443359375000e+01 -2.808911800384521484e-01 6.877773761749267578e+00 1.556425094604492188e+00 2.530259609222412109e+00 5.082845687866210938e+00
1.100000000000000000e+01 1.238143730163574219e+01 -3.726927042007446289e-01 3.205601692199707031e+00 2.185616493225097656e+00 1.617365479469299316e+00 3.941729545593261719e+00
1.200000000000000000e+01 1.220483112335205078e+01 -4.644941985607147217e-01 2.364748239517211914e+00 1.695841193199157715e+00 1.218176841735839844e+00 3.763780832290649414e+00
1.300000000000000000e+01 1.276652717590332031e+01 -2.380279749631881714e-01 1.495294380187988281e+01 9.514421463012695312e+00 7.340209484100341797e+00 1.446102905273437500e+01
1.400000000000000000e+01 1.261117172241210938e+01 -3.624550402164459229e-01 7.984964370727539062e+00 5.915792942047119141e+00 4.170227050781250000e+00 9.163953781127929688e+00
1.500000000000000000e+01 1.245581722259521484e+01 -4.868820607662200928e-01 5.320083141326904297e+00 4.835671901702880859e+00 3.046726465225219727e+00 7.084454536437988281e+00
1.600000000000000000e+01 1.230046176910400391e+01 -6.113091111183166504e-01 3.348206043243408203e+00 4.218092441558837891e+00 2.269889593124389648e+00 5.732121467590332031e+00
1.700000000000000000e+01 1.280732154846191406e+01 -2.798241078853607178e-01 1.256582164764404297e+01 1.822682952880859375e+01 9.237794876098632812e+00 1.771413803100585938e+01
1.800000000000000000e+01 1.267916202545166016e+01 -4.321152269840240479e-01 7.659142971038818359e+00 1.173887157440185547e+01 5.819404125213623047e+00 1.208331203460693359e+01
1.900000000000000000e+01 1.255100345611572266e+01 -5.844063758850097656e-01 4.775969505310058594e+00 9.206440925598144531e+00 4.194723129272460938e+00 9.347443580627441406e+00
2.000000000000000000e+01 1.242284393310546875e+01 -7.366974949836730957e-01 3.446261405944824219e+00 7.956690788269042969e+00 3.420885801315307617e+00 7.851386070251464844e+00
2.100000000000000000e+01 1.285547161102294922e+01 -3.128786385059356689e-01 9.393280982971191406e+00 2.719668388366699219e+01 1.097698974609375000e+01 1.823555374145507812e+01
2.200000000000000000e+01 1.275941371917724609e+01 -4.872061014175415039e-01 5.400435447692871094e+00 1.828648948669433594e+01 7.106077194213867188e+00 1.306342315673828125e+01
2.300000000000000000e+01 1.266335487365722656e+01 -6.615335941314697266e-01 3.473871469497680664e+00 1.450693798065185547e+01 5.394242763519287109e+00 1.048146915435791016e+01
2.400000000000000000e+01 1.256729602813720703e+01 -8.358610868453979492e-01 1.971305131912231445e+00 1.223861312866210938e+01 4.262975692749023438e+00 8.627518653869628906e+00
2.500000000000000000e+01 1.290913677215576172e+01 -3.359266519546508789e-01 5.804875373840332031e+00 3.521926116943359375e+01 1.230724143981933594e+01 1.607000350952148438e+01
2.600000000000000000e+01 1.284885406494140625e+01 -5.256195068359375000e-01 3.213739395141601562e+00 2.468475723266601562e+01 8.369548797607421875e+00 1.219289779663085938e+01
2.700000000000000000e+01 1.278857135772705078e+01 -7.153123021125793457e-01 1.265785098075866699e+00 1.967239952087402344e+01 6.281455516815185547e+00 9.831604003906250000e+00
2.800000000000000000e+01 1.272828960418701172e+01 -9.050051569938659668e-01 3.129466772079467773e-01 1.684634399414062500e+01 5.147787094116210938e+00 8.267804145812988281e+00
2.900000000000000000e+01 1.296626091003417969e+01 -3.480862081050872803e-01 3.808973073959350586e+00 4.155063247680664062e+01 1.360788154602050781e+01 1.185826969146728516e+01
3.000000000000000000e+01 1.294406223297119141e+01 -5.458853840827941895e-01 1.127457261085510254e+00 2.978278160095214844e+01 9.273072242736816406e+00 9.593044281005859375e+00
3.100000000000000000e+01 1.292186260223388672e+01 -7.436845898628234863e-01 -3.462014794349670410e-01 2.433188438415527344e+01 7.195704460144042969e+00 7.841248035430908203e+00
3.200000000000000000e+01 1.289966297149658203e+01 -9.414837956428527832e-01 -1.417573332786560059e+00 2.063190460205078125e+01 5.764299392700195312e+00 6.447835445404052734e+00
3.300000000000000000e+01 1.302466011047363281e+01 -3.488919734954833984e-01 3.135755538940429688e+00 4.510211944580078125e+01 1.447136211395263672e+01 6.664875507354736328e+00
3.400000000000000000e+01 1.304139328002929688e+01 -5.472283363342285156e-01 5.965912342071533203e-01 3.359708404541015625e+01 1.025810241699218750e+01 5.835842132568359375e+00
3.500000000000000000e+01 1.305812644958496094e+01 -7.455647587776184082e-01 -1.422718524932861328e+00 2.725500297546386719e+01 7.749685287475585938e+00 4.786617279052734375e+00
3.600000000000000000e+01 1.307486057281494141e+01 -9.439011216163635254e-01 -2.217090845108032227e+00 2.355704879760742188e+01 6.401987552642822266e+00 3.800782918930053711e+00
3.700000000000000000e+01 1.308209800720214844e+01 -3.383131325244903564e-01 5.338205337524414062e+00 4.646609115600585938e+01 1.554128932952880859e+01 1.305973649024963379e+00
3.800000000000000000e+01 1.313712406158447266e+01 -5.295969247817993164e-01 7.090330719947814941e-01 3.505730438232421875e+01 1.072990036010742188e+01 1.839680671691894531e+00
3.900000000000000000e+01 1.319215011596679688e+01 -7.208807468414306641e-01 -6.967043876647949219e-01 2.900735282897949219e+01 8.493194580078125000e+00 1.192530870437622070e+00
4.000000000000000000e+01 1.324717617034912109e+01 -9.121645689010620117e-01 -2.332825660705566406e+00 2.453372764587402344e+01 6.660270214080810547e+00 7.666020393371582031e-01
4.100000000000000000e+01 1.313637828826904297e+01 -3.167544901371002197e-01 7.732269763946533203e+00 4.518755340576171875e+01 1.587594699859619141e+01 -3.042327642440795898e+00
4.200000000000000000e+01 1.322759056091308594e+01 -4.936658740043640137e-01 3.598585128784179688e+00 3.511258316040039062e+01 1.161334991455078125e+01 -1.866543412208557129e+00
4.300000000000000000e+01 1.331880283355712891e+01 -6.705772280693054199e-01 3.806309401988983154e-02 2.868518066406250000e+01 8.616972923278808594e+00 -2.012614965438842773e+00
4.400000000000000000e+01 1.341001510620117188e+01 -8.474886417388916016e-01 -4.902694523334503174e-01 2.450430297851562500e+01 7.204209804534912109e+00 -2.326092004776000977e+00
4.500000000000000000e+01 1.318542289733886719e+01 -2.850410044193267822e-01 1.306386661529541016e+01 4.312791442871093750e+01 1.685753440856933594e+01 -5.582434177398681641e+00
4.600000000000000000e+01 1.330933094024658203e+01 -4.408100843429565430e-01 5.678779125213623047e+00 3.310797500610351562e+01 1.163602542877197266e+01 -4.850008010864257812e+00
4.700000000000000000e+01 1.343323993682861328e+01 -5.965791940689086914e-01 3.646994352340698242e+00 2.740431785583496094e+01 9.315393447875976562e+00 -4.157150268554687500e+00
4.800000000000000000e+01 1.355714797973632812e+01 -7.523482441902160645e-01 3.587477207183837891e-01 2.296477508544921875e+01 6.997056961059570312e+00 -4.576922893524169922e+00
4.900000000000000000e+01 1.322735404968261719e+01 -2.443863153457641602e-01 1.673357391357421875e+01 3.931972122192382812e+01 1.681598854064941406e+01 -6.967749118804931641e+00
5.000000000000000000e+01 1.337921810150146484e+01 -3.730522692203521729e-01 1.018570518493652344e+01 3.108601760864257812e+01 1.238151741027832031e+01 -5.648692131042480469e+00
5.100000000000000000e+01 1.353108119964599609e+01 -5.017182230949401855e-01 5.739810943603515625e+00 2.462776374816894531e+01 9.110272407531738281e+00 -5.868721008300781250e+00
5.200000000000000000e+01 1.368294334411621094e+01 -6.303841471672058105e-01 4.168901443481445312e+00 2.103466796875000000e+01 7.561070919036865234e+00 -4.974782466888427734e+00
5.300000000000000000e+01 1.326056957244873047e+01 -1.963461339473724365e-01 2.114419746398925781e+01 3.694778060913085938e+01 1.742759323120117188e+01 -6.067543029785156250e+00
5.400000000000000000e+01 1.343457603454589844e+01 -2.929852902889251709e-01 1.340100860595703125e+01 2.765818023681640625e+01 1.231775665283203125e+01 -5.713917255401611328e+00
5.500000000000000000e+01 1.360858249664306641e+01 -3.896244168281555176e-01 9.099443435668945312e+00 2.269616317749023438e+01 9.538681983947753906e+00 -5.106822490692138672e+00
5.600000000000000000e+01 1.378258800506591797e+01 -4.862635731697082520e-01 6.112513542175292969e+00 1.781198310852050781e+01 7.177349090576171875e+00 -5.322976112365722656e+00
5.700000000000000000e+01 1.328379631042480469e+01 -1.427587866783142090e-01 2.418828964233398438e+01 3.429714584350585938e+01 1.754563140869140625e+01 -4.052379608154296875e+00
5.800000000000000000e+01 1.347328758239746094e+01 -2.036730498075485229e-01 1.620019912719726562e+01 2.555607986450195312e+01 1.252688407897949219e+01 -4.034859657287597656e+00
5.900000000000000000e+01 1.366277790069580078e+01 -2.645873129367828369e-01 1.159432888031005859e+01 2.025036048889160156e+01 9.553406715393066406e+00 -3.580017089843750000e+00
6.000000000000000000e+01 1.385226917266845703e+01 -3.255015611648559570e-01 7.983318805694580078e+00 1.604737663269042969e+01 7.209208488464355469e+00 -3.675194263458251953e+00
6.100000000000000000e+01 1.329614639282226562e+01 -8.567494153976440430e-02 2.557434844970703125e+01 3.249996948242187500e+01 1.742229461669921875e+01 -1.448511838912963867e+00
6.200000000000000000e+01 1.349386978149414062e+01 -1.085333079099655151e-01 1.797509765625000000e+01 2.467867660522460938e+01 1.279613208770751953e+01 -1.225973963737487793e+00
6.300000000000000000e+01 1.369159412384033203e+01 -1.313916742801666260e-01 1.288629341125488281e+01 1.841129493713378906e+01 9.389276504516601562e+00 -1.289630293846130371e+00
6.400000000000000000e+01 1.388931846618652344e+01 -1.542500257492065430e-01 9.435806274414062500e+00 1.542298698425292969e+01 7.457637786865234375e+00 -1.052077174186706543e+00
6.500000000000000000e+01 1.329714679718017578e+01 -2.727900072932243347e-02 2.600477409362792969e+01 3.344558334350585938e+01 1.783510780334472656e+01 1.719482779502868652e+00
6.600000000000000000e+01 1.349553775787353516e+01 -1.120673306286334991e-02 1.787181472778320312e+01 2.348541450500488281e+01 1.240716838836669922e+01 1.752532601356506348e+00
6.700000000000000000e+01 1.369392871856689453e+01 4.865533672273159027e-03 1.313603973388671875e+01 1.946880340576171875e+01 9.781453132629394531e+00 1.489252209663391113e+00
6.800000000000000000e+01 1.389231967926025391e+01 2.093779854476451874e-02 9.504952430725097656e+00 1.398601055145263672e+01 7.047288894653320312e+00 1.702461957931518555e+00
6.900000000000000000e+01 1.328675937652587891e+01 3.019439987838268280e-02 2.406691932678222656e+01 3.344796371459960938e+01 1.725446510314941406e+01 4.843255996704101562e+00
7.000000000000000000e+01 1.347822570800781250e+01 8.458226919174194336e-02 1.675229644775390625e+01 2.585025596618652344e+01 1.278076553344726562e+01 4.182642936706542969e+00
7.100000000000000000e+01 1.366969203948974609e+01 1.389701366424560547e-01 1.169854831695556641e+01 1.935695838928222656e+01 9.316652297973632812e+00 4.319258213043212891e+00
7.200000000000000000e+01 1.386115741729736328e+01 1.933580040931701660e-01 8.951866149902343750e+00 1.631356430053710938e+01 7.579629421234130859e+00 3.634087562561035156e+00
7.300000000000000000e+01 1.326538181304931641e+01 8.454590290784835815e-02 2.172692871093750000e+01 3.647714996337890625e+01 1.746122360229492188e+01 6.617638587951660156e+00
7.400000000000000000e+01 1.344259643554687500e+01 1.751681119203567505e-01 1.353139305114746094e+01 2.731271553039550781e+01 1.225323295593261719e+01 6.388833522796630859e+00
7.500000000000000000e+01 1.361981010437011719e+01 2.657903134822845459e-01 9.817596435546875000e+00 2.218963813781738281e+01 9.602169990539550781e+00 5.500348567962646484e+00
7.600000000000000000e+01 1.379702472686767578e+01 3.564125001430511475e-01 6.450004577636718750e+00 1.760368156433105469e+01 7.216105461120605469e+00 5.605527877807617188e+00
7.700000000000000000e+01 1.323383140563964844e+01 1.336956322193145752e-01 1.716907691955566406e+01 3.925344467163085938e+01 1.692675590515136719e+01 7.746581554412841797e+00
7.800000000000000000e+01 1.339001274108886719e+01 2.570843398571014404e-01 1.043382740020751953e+01 3.033219909667968750e+01 1.222980785369873047e+01 6.599730491638183594e+00
7.900000000000000000e+01 1.354619407653808594e+01 3.804730176925659180e-01 6.310931682586669922e+00 2.456389236450195312e+01 9.262447357177734375e+00 6.121577739715576172e+00
8.000000000000000000e+01 1.370237541198730469e+01 5.038617253303527832e-01 4.313473701477050781e+00 2.025444412231445312e+01 7.370375156402587891e+00 5.778702259063720703e+00
8.100000000000000000e+01 1.319331645965576172e+01 1.757627725601196289e-01 1.280278682708740234e+01 4.232133865356445312e+01 1.653723716735839844e+01 6.971263885498046875e+00
8.200000000000000000e+01 1.332248783111572266e+01 3.271962404251098633e-01 6.408835411071777344e+00 3.312097167968750000e+01 1.185894203186035156e+01 5.468864440917968750e+00
8.300000000000000000e+01 1.345165920257568359e+01 4.786297082901000977e-01 3.309152603149414062e+00 2.689887237548828125e+01 9.062407493591308594e+00 5.205222129821777344e+00
8.400000000000000000e+01 1.358083057403564453e+01 6.300631761550903320e-01 1.467163920402526855e+00 2.282106018066406250e+01 7.286467075347900391e+00 4.722043991088867188e+00
8.500000000000000000e+01 1.314538764953613281e+01 2.091375440359115601e-01 8.431137084960937500e+00 4.527802658081054688e+01 1.611274909973144531e+01 4.227491378784179688e+00
8.600000000000000000e+01 1.324260616302490234e+01 3.828208446502685547e-01 2.890694618225097656e+00 3.475463485717773438e+01 1.129359912872314453e+01 3.117136955261230469e+00
8.700000000000000000e+01 1.333982467651367188e+01 5.565041899681091309e-01 7.910635471343994141e-01 2.873930740356445312e+01 8.859111785888671875e+00 2.679083108901977539e+00
8.800000000000000000e+01 1.343704319000244141e+01 7.301874756813049316e-01 -1.226294875144958496e+00 2.438080406188964844e+01 6.946352958679199219e+00 2.976601362228393555e+00
8.900000000000000000e+01 1.309187889099121094e+01 2.325427979230880737e-01 4.364376544952392578e+00 4.631073379516601562e+01 1.520253276824951172e+01 1.831949800252914429e-01
9.000000000000000000e+01 1.315342330932617188e+01 4.218296110630035400e-01 1.049791216850280762e+00 3.533935165405273438e+01 1.091674327850341797e+01 -7.200592160224914551e-01
9.100000000000000000e+01 1.321496868133544922e+01 6.111164093017578125e-01 -1.572216510772705078e+00 2.900045013427734375e+01 8.228469848632812500e+00 -2.783052623271942139e-01
9.200000000000000000e+01 1.327651405334472656e+01 8.004031777381896973e-01 -2.032939910888671875e+00 2.491204643249511719e+01 6.863731861114501953e+00 1.770062954165041447e-03
9.300000000000000000e+01 1.303483581542968750e+01 2.450828701257705688e-01 2.913183689117431641e+00 4.567533874511718750e+01 1.457655620574951172e+01 -5.129821300506591797e+00
9.400000000000000000e+01 1.305835247039794922e+01 4.427297115325927734e-01 -4.543502926826477051e-01 3.377891540527343750e+01 9.997368812561035156e+00 -4.774331569671630859e+00
9.500000000000000000e+01 1.308187007904052734e+01 6.403765678405761719e-01 -1.574263811111450195e+00 2.776815223693847656e+01 7.858166217803955078e+00 -3.810830831527709961e+00
9.600000000000000000e+01 1.310538673400878906e+01 8.380233645439147949e-01 -3.039808034896850586e+00 2.375624656677246094e+01 6.214931488037109375e+00 -3.092534303665161133e+00
9.700000000000000000e+01 1.297644329071044922e+01 2.462778687477111816e-01 2.434220552444458008e+00 4.211009216308593750e+01 1.336329460144042969e+01 -1.059495449066162109e+01
9.800000000000000000e+01 1.296103191375732422e+01 4.447213709354400635e-01 5.189784765243530273e-01 3.052656936645507812e+01 9.313664436340332031e+00 -8.551403999328613281e+00
9.900000000000000000e+01 1.294562149047851562e+01 6.431648731231689453e-01 -1.359394311904907227e+00 2.467595672607421875e+01 6.994968891143798828e+00 -7.044768333435058594e+00
1.000000000000000000e+02 1.293021011352539062e+01 8.416084051132202148e-01 -2.005734920501708984e+00 2.122555732727050781e+01 5.765946865081787109e+00 -5.760640144348144531e+00
1.010000000000000000e+02 1.291893577575683594e+01 2.360821068286895752e-01 4.597072601318359375e+00 3.631536483764648438e+01 1.227373123168945312e+01 -1.495094490051269531e+01
1.020000000000000000e+02 1.286518669128417969e+01 4.277284145355224609e-01 1.952668905258178711e+00 2.531208610534667969e+01 8.179427146911621094e+00 -1.145733928680419922e+01
1.030000000000000000e+02 1.281143665313720703e+01 6.193747520446777344e-01 4.901593327522277832e-01 2.036259460449218750e+01 6.255825996398925781e+00 -9.201804161071777344e+00
1.040000000000000000e+02 1.275768661499023438e+01 8.110211491584777832e-01 -7.341836690902709961e-01 1.726260566711425781e+01 4.958526611328125000e+00 -7.659554004669189453e+00
1.050000000000000000e+02 1.286451339721679688e+01 2.148857116699218750e-01 7.710160732269287109e+00 2.824695777893066406e+01 1.078713512420654297e+01 -1.755891990661621094e+01
1.060000000000000000e+02 1.277448177337646484e+01 3.924011290073394775e-01 4.326532840728759766e+00 1.913467788696289062e+01 7.038362979888916016e+00 -1.257098770141601562e+01
1.070000000000000000e+02 1.268445110321044922e+01 5.699165463447570801e-01 2.358962297439575195e+00 1.508440494537353516e+01 5.233010292053222656e+00 -1.006702232360839844e+01
1.080000000000000000e+02 1.259441947937011719e+01 7.474319934844970703e-01 1.185627698898315430e+00 1.271837520599365234e+01 4.171200752258300781e+00 -8.317823410034179688e+00
1.090000000000000000e+02 1.281525802612304688e+01 1.834998428821563721e-01 1.099823570251464844e+01 1.935077476501464844e+01 9.104702949523925781e+00 -1.739950370788574219e+01
1.100000000000000000e+02 1.269239139556884766e+01 3.400913178920745850e-01 6.446218490600585938e+00 1.244315242767333984e+01 5.666811466217041016e+00 -1.189506530761718750e+01
1.110000000000000000e+02 1.256952381134033203e+01 4.966828227043151855e-01 3.915435075759887695e+00 9.746895790100097656e+00 4.098699092864990234e+00 -9.168687820434570312e+00
1.120000000000000000e+02 1.244665622711181641e+01 6.532742977142333984e-01 2.463540315628051758e+00 8.480556488037109375e+00 3.283228874206542969e+00 -7.687490463256835938e+00
1.130000000000000000e+02 1.277305698394775391e+01 1.431255042552947998e-01 1.342381954193115234e+01 1.046807003021240234e+01 7.167566776275634766e+00 -1.450959396362304688e+01
1.140000000000000000e+02 1.262205505371093750e+01 2.728007733821868896e-01 7.014746665954589844e+00 6.407990932464599609e+00 4.026821136474609375e+00 -9.226444244384765625e+00
1.150000000000000000e+02 1.247105216979980469e+01 4.024760723114013672e-01 4.494816780090332031e+00 5.281438827514648438e+00 2.932876825332641602e+00 -7.040643692016601562e+00
1.160000000000000000e+02 1.232005023956298828e+01 5.321513414382934570e-01 2.649923801422119141e+00 4.595923423767089844e+00 2.173754215240478516e+00 -5.668499946594238281e+00
1.170000000000000000e+02 1.273952293395996094e+01 9.530773758888244629e-02 1.247437858581542969e+01 3.071696281433105469e+00 4.663822650909423828e+00 -9.316953659057617188e+00
1.180000000000000000e+02 1.256616401672363281e+01 1.931044906377792358e-01 5.974920272827148438e+00 1.910444974899291992e+00 2.365609645843505859e+00 -5.272409439086914062e+00
1.190000000000000000e+02 1.239280605316162109e+01 2.909012436866760254e-01 2.683645009994506836e+00 2.272888660430908203e+00 1.486960053443908691e+00 -3.985048294067382812e+00
1.200000000000000000e+02 1.221944713592529297e+01 3.886980116367340088e-01 1.785567164421081543e+00 2.204462289810180664e+00 1.197008848190307617e+00 -3.669301986694335938e+00
1.210000000000000000e+02 1.271593952178955078e+01 4.187637567520141602e-02 8.077386856079101562e+00 -2.300534009933471680e+00 1.733055830001831055e+00 -2.241125822067260742e+00
1.220000000000000000e+02 1.252685832977294922e+01 1.040522232651710510e-01 6.526545286178588867e-01 3.915438055992126465e-01 3.132595121860504150e-01 -1.360109686851501465e+00
1.230000000000000000e+02 1.233777809143066406e+01 1.662280708551406860e-01 3.490010797977447510e-01 1.010446071624755859e+00 4.078341424465179443e-01 -2.037503957748413086e+00
1.240000000000000000e+02 1.214869689941406250e+01 2.284039258956909180e-01 -9.326069355010986328e-01 2.850183248519897461e-01 -1.942765861749649048e-01 -1.203925490379333496e+00
1.250000000000000000e+02 1.270320892333984375e+01 -1.512392237782478333e-02 -6.778771400451660156e+00 -2.806542873382568359e+00 -2.875594139099121094e+00 2.853446960449218750e+00
1.260000000000000000e+02 1.250564193725585938e+01 9.051729924976825714e-03 -2.884132623672485352e+00 1.095128774642944336e+00 -5.367010831832885742e-01 -6.635339856147766113e-01
1.270000000000000000e+02 1.230807399749755859e+01 3.322738036513328552e-02 -4.207111358642578125e+00 -4.769219756126403809e-01 -1.405210018157958984e+00 1.260779500007629395e-01
1.280000000000000000e+02 1.211050701141357422e+01 5.740303173661231995e-02 -4.498153686523437500e+00 2.978137135505676270e-01 -1.260102033615112305e+00 1.502390671521425247e-02
1.290000000000000000e+02 8.792276382446289062e+00 -1.167916417121887207e+00 -1.823966145515441895e+00 1.321357302367687225e-02 -5.432257652282714844e-01 -2.871751785278320312e-01
1.300000000000000000e+02 9.398172378540039062e+00 -1.172453403472900391e+00 -1.780637145042419434e+00 2.225635498762130737e-01 -4.674220681190490723e-01 -3.855083882808685303e-02
1.310000000000000000e+02 9.089824676513671875e+00 -5.192208886146545410e-01 -3.307579040527343750e+00 -1.053062975406646729e-01 -1.023865580558776855e+00 -3.022904396057128906e-01
1.320000000000000000e+02 9.666388511657714844e+00 -1.641615778207778931e-01 -4.459969997406005859e+00 1.486180443316698074e-02 -1.333532452583312988e+00 -9.555350989103317261e-02
1.330000000000000000e+02 7.298613548278808594e+00 -3.140239715576171875e-01 -2.691956996917724609e+00 1.699401587247848511e-01 -7.566050887107849121e-01 -2.949004769325256348e-01
1.340000000000000000e+02 5.384653568267822266e+00 -7.673456072807312012e-01 -1.413616776466369629e+00 -4.454560577869415283e-02 -4.374487102031707764e-01 -4.112263917922973633e-01
1.350000000000000000e+02 3.754105329513549805e+00 -7.626587748527526855e-01 -7.684713602066040039e-01 -4.043056070804595947e-02 -2.426705807447433472e-01 -3.280538022518157959e-01
1.360000000000000000e+02 2.231851100921630859e+00 -7.514009475708007812e-01 -3.160691857337951660e-01 -4.660256206989288330e-02 -1.088015288114547729e-01 -2.050675749778747559e-01
1.370000000000000000e+02 1.115219712257385254e+00 -3.931185603141784668e-01 -5.181241407990455627e-02 -2.955405972898006439e-02 -2.440994232892990112e-02 -3.986221179366111755e-02
1.380000000000000000e+02 6.982961297035217285e-01 -1.133118510246276855e+00 -6.384443491697311401e-02 -8.111295849084854126e-02 -4.348721727728843689e-02 -8.109999448060989380e-02
1.390000000000000000e+02 3.944364786148071289e-01 -5.622841119766235352e-01 -5.652145482599735260e-04 -9.439146961085498333e-04 -4.527387791313230991e-04 -5.945779266767203808e-04
1.400000000000000000e+02 9.797907829284667969e+00 -1.166986942291259766e+00 -1.555546283721923828e+00 1.893374323844909668e-01 -4.098626673221588135e-01 -2.819773554801940918e-02
1.410000000000000000e+02 7.914412975311279297e+00 -1.147911906242370605e+00 -1.759681105613708496e+00 1.430312693119049072e-01 -4.849949777126312256e-01 -4.968735873699188232e-01
1.420000000000000000e+02 7.024985313415527344e+00 -1.197934508323669434e+00 -1.696274280548095703e+00 -2.446665801107883453e-02 -5.162222981452941895e-01 -5.338652729988098145e-01
1.430000000000000000e+02 6.212792396545410156e+00 -1.251646041870117188e+00 -1.354861974716186523e+00 -1.933484710752964020e-02 -4.122590422630310059e-01 -5.556989908218383789e-01
1.440000000000000000e+02 5.400334358215332031e+00 -1.259836196899414062e+00 -1.121347904205322266e+00 -2.726682648062705994e-02 -3.445844054222106934e-01 -5.717335343360900879e-01
1.450000000000000000e+02 4.576454162597656250e+00 -1.257448673248291016e+00 -8.948505520820617676e-01 -5.711184069514274597e-02 -2.855887115001678467e-01 -5.522789955139160156e-01
1.460000000000000000e+02 3.748802185058593750e+00 -1.256605744361877441e+00 -6.588304638862609863e-01 -6.537482142448425293e-02 -2.172615826129913330e-01 -4.853172302246093750e-01
1.470000000000000000e+02 2.927757740020751953e+00 -1.257380962371826172e+00 -4.561919867992401123e-01 -9.015616774559020996e-02 -1.639044433832168579e-01 -4.129879474639892578e-01
1.480000000000000000e+02 2.130639791488647461e+00 -1.247333526611328125e+00 -2.724910676479339600e-01 -1.206100434064865112e-01 -1.179303303360939026e-01 -2.939812541007995605e-01
1.490000000000000000e+02 9.794595718383789062e+00 -3.952375054359436035e-01 -3.450348854064941406e+00 1.387044489383697510e-01 -9.934933185577392578e-01 -1.300090998411178589e-01
1.500000000000000000e+02 9.680077552795410156e+00 -1.386812329292297363e+00 -1.322101950645446777e+00 2.607307136058807373e-01 -3.184113800525665283e-01 1.500509381294250488e-01
1.510000000000000000e+02 9.847338676452636719e+00 -7.803363800048828125e-01 -2.492310762405395508e+00 1.654274016618728638e-01 -6.980650424957275391e-01 -1.900012493133544922e-01
1.520000000000000000e+02 9.562716484069824219e+00 -8.831204175949096680e-01 -2.348492860794067383e+00 1.857496052980422974e-01 -6.488229632377624512e-01 -1.221334189176559448e-01
1.530000000000000000e+02 8.539065361022949219e+00 -3.068402111530303955e-01 -3.451013803482055664e+00 3.593907505273818970e-02 -1.024522423744201660e+00 -8.219177275896072388e-02
1.540000000000000000e+02 7.918247699737548828e+00 -2.129523158073425293e-01 -3.353540182113647461e+00 -8.895654231309890747e-02 -1.032749056816101074e+00 -1.214057859033346176e-02
1.550000000000000000e+02 6.747647762298583984e+00 -5.814039111137390137e-01 -2.182220458984375000e+00 -7.856783270835876465e-02 -6.782364845275878906e-01 -2.819468677043914795e-01
1.560000000000000000e+02 5.397459506988525391e+00 -2.675093710422515869e-01 -1.720892310142517090e+00 4.591883625835180283e-03 -5.148901343345642090e-01 -1.589985489845275879e-01
1.570000000000000000e+02 4.579801559448242188e+00 -2.672394812107086182e-01 -1.257329940795898438e+00 -1.815129816532135010e-02 -3.826443552970886230e-01 -1.390953510999679565e-01
1.580000000000000000e+02 3.752862215042114258e+00 -2.660530507564544678e-01 -8.393046855926513672e-01 7.378449197858572006e-03 -2.495778799057006836e-01 -1.259312033653259277e-01
1.590000000000000000e+02 2.183188438415527344e+00 -2.640674412250518799e-01 -2.173797786235809326e-01 1.943264715373516083e-02 -5.938414111733436584e-02 -8.066475391387939453e-02
1.600000000000000000e+02 1.673663020133972168e+00 -5.815052986145019531e-01 -1.697928011417388916e-01 -4.072554036974906921e-02 -6.315550208091735840e-02 -8.136530965566635132e-02
1.610000000000000000e+02 1.382611513137817383e+00 -1.199178218841552734e+00 -1.093786209821701050e-01 -1.110248416662216187e-01 -6.612104177474975586e-02 -1.807831674814224243e-01
1.620000000000000000e+02 9.834257125854492188e+00 -5.863048434257507324e-01 -2.863012313842773438e+00 1.029973551630973816e-01 -8.280044794082641602e-01 -2.450721114873886108e-01
1.630000000000000000e+02 9.518382072448730469e+00 -6.302185654640197754e-01 -2.798688411712646484e+00 2.113937586545944214e-01 -7.761883735656738281e-01 -2.290980219841003418e-01
1.640000000000000000e+02 9.836214065551757812e+00 -9.652822613716125488e-01 -1.863028287887573242e+00 2.003898024559020996e-01 -4.987915456295013428e-01 -1.751701580360531807e-03
1.650000000000000000e+02 2.937737464904785156e+00 -2.643228471279144287e-01 -4.936063885688781738e-01 -2.999892644584178925e-02 -1.570816040039062500e-01 -8.768981695175170898e-02
1.660000000000000000e+02 4.575905799865722656e+00 -7.646881937980651855e-01 -1.084152579307556152e+00 -9.240767918527126312e-03 -3.280180096626281738e-01 -3.778369426727294922e-01
1.670000000000000000e+02 6.160501480102539062e+00 -2.672097980976104736e-01 -2.223989963531494141e+00 -1.411722227931022644e-02 -6.714321970939636230e-01 -1.715263575315475464e-01
1.680000000000000000e+02 7.921147346496582031e+00 -6.008641719818115234e-01 -2.741199254989624023e+00 3.396278619766235352e-02 -8.121709227561950684e-01 -3.878839015960693359e-01
1.690000000000000000e+02 6.127362251281738281e+00 -7.588558793067932129e-01 -1.645589351654052734e+00 1.467622630298137665e-02 -4.892739355564117432e-01 -4.426831901073455811e-01
1.700000000000000000e+02 2.950727224349975586e+00 -7.617038488388061523e-01 -4.872551858425140381e-01 -3.830909356474876404e-02 -1.576692759990692139e-01 -2.780059576034545898e-01
1.710000000000000000e+02 1.133969402313232422e+01 1.111052989959716797e+00 -1.882116049528121948e-01 1.891551852226257324e+00 5.110020637512207031e-01 -2.150608062744140625e+00
1.720000000000000000e+02 1.047304916381835938e+01 1.129872441291809082e+00 -1.457073688507080078e+00 6.227941513061523438e-01 -2.502838969230651855e-01 -5.529664754867553711e-01
1.730000000000000000e+02 1.271997737884521484e+01 1.034719944000244141e+00 -1.317856431007385254e+00 1.554559040069580078e+01 4.268320083618164062e+00 -6.209249496459960938e+00
1.740000000000000000e+02 1.271657752990722656e+01 1.308074474334716797e+00 -2.022887706756591797e+00 1.414789104461669922e+01 3.637501001358032227e+00 -4.761335849761962891e+00
1.750000000000000000e+02 1.425709438323974609e+01 -2.816000580787658691e-01 4.198885917663574219e+00 9.098803520202636719e+00 3.989306926727294922e+00 -6.095943450927734375e-01
1.760000000000000000e+02 1.203622150421142578e+01 -5.791940689086914062e-01 1.602222204208374023e+00 1.629952073097229004e+00 9.696522951126098633e-01 3.212198257446289062e+00
1.770000000000000000e+02 1.127213001251220703e+01 -1.433351933956146240e-01 -4.823998451232910156e+00 7.112888991832733154e-02 -1.425860881805419922e+00 8.385802060365676880e-02
1.780000000000000000e+02 1.009984207153320312e+01 -1.267212480306625366e-01 -4.696900367736816406e+00 5.796972196549177170e-03 -1.407330989837646484e+00 -2.883011661469936371e-02
1.790000000000000000e+02 1.228734874725341797e+01 -8.928116559982299805e-01 2.185555696487426758e+00 6.936347007751464844e+00 2.736570835113525391e+00 6.576044559478759766e+00
1.800000000000000000e+02 1.308233165740966797e+01 -1.414906501770019531e+00 -3.129480361938476562e+00 1.765431213378906250e+01 4.357449531555175781e+00 2.524553298950195312e+00
1.810000000000000000e+02 1.433146286010742188e+01 2.241044938564300537e-01 5.432650089263916016e+00 7.026740550994873047e+00 3.737817049026489258e+00 2.787507057189941406e+00
1.820000000000000000e+02 1.358777904510498047e+01 9.022396802902221680e-01 -1.328423261642456055e+00 2.070436286926269531e+01 5.812781810760498047e+00 2.889816522598266602e+00
1.830000000000000000e+02 1.010089397430419922e+01 1.264916956424713135e-01 -5.304219245910644531e+00 -1.534262001514434814e-01 -1.637293577194213867e+00 1.324458122253417969e-01
1.840000000000000000e+02 1.030113124847412109e+01 1.299512684345245361e-01 -5.288712978363037109e+00 5.409897118806838989e-02 -1.570384144783020020e+00 2.132812291383743286e-01
1.850000000000000000e+02 1.191424083709716797e+01 7.877466082572937012e-02 -4.749887943267822266e+00 -1.634900420904159546e-01 -1.474013328552246094e+00 9.213390201330184937e-02
1.860000000000000000e+02 1.407372093200683594e+01 2.266641408205032349e-01 5.712067127227783203e+00 1.158796882629394531e+01 5.190010547637939453e+00 3.943024635314941406e+00
1.870000000000000000e+02 1.407518959045410156e+01 8.400101065635681152e-01 7.716755270957946777e-01 1.345355987548828125e+01 4.267570495605468750e+00 5.683566570281982422e+00
1.880000000000000000e+02 1.374212741851806641e+01 7.804766893386840820e-01 3.950230181217193604e-01 1.878712081909179688e+01 5.754642963409423828e+00 5.094569206237792969e+00
1.890000000000000000e+02 1.311549186706542969e+01 1.056517839431762695e+00 -3.212058305740356445e+00 2.083229827880859375e+01 5.286072254180908203e+00 -2.429381370544433594e+00
1.900000000000000000e+02 1.215746688842773438e+01 6.833348274230957031e-01 1.612817406654357910e+00 4.080456733703613281e+00 1.707982301712036133e+00 -4.944029808044433594e+00
1.910000000000000000e+02 1.195851325988769531e+01 2.844633460044860840e-01 -1.618311524391174316e+00 5.350723266601562500e-01 -3.249717354774475098e-01 -1.093236327171325684e+00
1.920000000000000000e+02 1.189284896850585938e+01 -1.734501421451568604e-01 -3.894955635070800781e+00 -2.686440050601959229e-01 -1.249079823493957520e+00 1.315138489007949829e-01
1.930000000000000000e+02 1.153750324249267578e+01 -1.153354525566101074e+00 5.896544456481933594e-01 2.519050598144531250e+00 9.326115250587463379e-01 2.921233654022216797e+00
1.940000000000000000e+02 1.188640689849853516e+01 -7.451079487800598145e-01 1.356112241744995117e+00 2.156560659408569336e+00 1.053801894187927246e+00 3.262109279632568359e+00
1.950000000000000000e+02 1.074354839324951172e+01 -9.895744323730468750e-01 -1.105616927146911621e+00 5.136975049972534180e-01 -1.775758266448974609e-01 7.443845868110656738e-01
1.960000000000000000e+02 1.030071067810058594e+01 -1.280025541782379150e-01 -4.788007259368896484e+00 -5.426984652876853943e-02 -1.452683210372924805e+00 -7.260109484195709229e-02
1.970000000000000000e+02 1.009209728240966797e+01 -1.393493533134460449e+00 -8.904073834419250488e-01 9.004746079444885254e-01 3.020165255293250084e-03 4.701977968215942383e-01
1.980000000000000000e+02 1.010226821899414062e+01 -1.177831292152404785e+00 -1.404243826866149902e+00 4.816425442695617676e-01 -2.767803668975830078e-01 2.273495793342590332e-01
1.990000000000000000e+02 1.049640464782714844e+01 -1.335053741931915283e-01 -4.925980091094970703e+00 5.974279716610908508e-02 -1.459871172904968262e+00 -7.052040100097656250e-02
2.000000000000000000e+02 1.011015415191650391e+01 -5.420914292335510254e-01 -2.874129533767700195e+00 4.023323766887187958e-03 -8.610318899154663086e-01 -1.993777453899383545e-01
2.010000000000000000e+02 1.308801651000976562e+01 -1.163226723670959473e+00 -2.933935642242431641e+00 2.036952972412109375e+01 5.230678081512451172e+00 2.832396030426025391e+00
2.020000000000000000e+02 1.245398521423339844e+01 -1.019471406936645508e+00 1.280835747718811035e+00 1.042602157592773438e+01 3.512057065963745117e+00 7.343660354614257812e+00
2.030000000000000000e+02 1.209828376770019531e+01 -1.424358606338500977e+00 4.281203448772430420e-01 7.231396675109863281e+00 2.297855138778686523e+00 5.113786220550537109e+00
2.040000000000000000e+02 1.189537239074707031e+01 -1.420010566711425781e+00 6.462455987930297852e-01 5.462572574615478516e+00 1.832645416259765625e+00 4.535151004791259766e+00
2.050000000000000000e+02 1.112634468078613281e+01 -1.153108000755310059e+00 -6.047513708472251892e-02 1.434989690780639648e+00 4.123543500900268555e-01 1.697373509407043457e+00
2.060000000000000000e+02 1.109907150268554688e+01 -1.396192669868469238e+00 1.519518345594406128e-01 1.846323847770690918e+00 5.994827151298522949e-01 1.961471796035766602e+00
2.070000000000000000e+02 1.029732799530029297e+01 -1.394488811492919922e+00 -7.344815731048583984e-01 6.983050107955932617e-01 -1.085297670215368271e-02 7.032868862152099609e-01
2.080000000000000000e+02 1.395901775360107422e+01 -6.137053966522216797e-01 4.127239227294921875e+00 1.553161334991455078e+01 5.897655963897705078e+00 -5.101690769195556641e+00
2.090000000000000000e+02 1.356001663208007812e+01 -1.199051141738891602e+00 -2.718345165252685547e+00 1.899593544006347656e+01 4.883277416229248047e+00 -2.422057867050170898e+00
2.100000000000000000e+02 1.011041164398193359e+01 1.391122221946716309e+00 -1.233967423439025879e+00 6.915613412857055664e-01 -1.627218127250671387e-01 -4.547295868396759033e-01
2.110000000000000000e+02 1.098560142517089844e+01 1.044596314430236816e+00 -1.099123120307922363e+00 9.257552623748779297e-01 -5.201034247875213623e-02 -1.106426000595092773e+00
2.120000000000000000e+02 1.112592315673828125e+01 1.347850561141967773e+00 -2.584685683250427246e-01 1.924924969673156738e+00 4.999369382858276367e-01 -1.952600717544555664e+00
2.130000000000000000e+02 1.266357803344726562e+01 -1.440868496894836426e+00 -1.562001347541809082e+00 1.363433837890625000e+01 3.621701240539550781e+00 5.090459823608398438e+00
2.140000000000000000e+02 1.329841327667236328e+01 -1.112286567687988281e+00 -2.906223773956298828e+00 2.166421508789062500e+01 5.627397537231445312e+00 4.124086499214172363e-01
2.150000000000000000e+02 1.369111347198486328e+01 -9.222715497016906738e-01 5.618053674697875977e-01 1.959107589721679688e+01 6.045864582061767578e+00 -4.378856182098388672e+00
2.160000000000000000e+02 1.146752643585205078e+01 -1.640377193689346313e-01 -4.538817405700683594e+00 6.931937485933303833e-02 -1.340849518775939941e+00 2.008560746908187866e-01
2.170000000000000000e+02 1.265741157531738281e+01 -1.110337853431701660e+00 -5.738943219184875488e-01 1.459002494812011719e+01 4.204839229583740234e+00 6.885416984558105469e+00
2.180000000000000000e+02 1.403867435455322266e+01 -4.142121970653533936e-01 5.132398605346679688e+00 1.311816883087158203e+01 5.475170135498046875e+00 -3.614869594573974609e+00
2.190000000000000000e+02 1.387385177612304688e+01 6.167423129081726074e-01 2.331511259078979492e+00 1.672486495971679688e+01 5.716912746429443359e+00 5.563906669616699219e+00
2.200000000000000000e+02 1.398771476745605469e+01 4.256128072738647461e-01 5.459417343139648438e+00 1.391326236724853516e+01 5.811803817749023438e+00 5.039903163909912109e+00
2.210000000000000000e+02 1.330112457275390625e+01 1.028877377510070801e+00 -3.531621694564819336e+00 2.173810768127441406e+01 5.461946010589599609e+00 -7.626223564147949219e-02
2.220000000000000000e+02 1.291913032531738281e+01 1.059669733047485352e+00 -2.718569278717041016e+00 1.868755340576171875e+01 4.790695667266845703e+00 -4.696584224700927734e+00
2.230000000000000000e+02 1.176158523559570312e+01 3.245297968387603760e-01 -2.198159456253051758e+00 1.648945808410644531e-01 -6.099794507026672363e-01 -7.576347589492797852e-01
2.240000000000000000e+02 1.203154468536376953e+01 4.920250475406646729e-01 6.673551201820373535e-01 1.523884534835815430e+00 6.573718786239624023e-01 -2.877809286117553711e+00
2.250000000000000000e+02 1.410937595367431641e+01 1.622647419571876526e-02 7.000593662261962891e+00 1.168587684631347656e+01 5.605941295623779297e+00 8.847937583923339844e-01
2.260000000000000000e+02 1.409142971038818359e+01 -1.970011889934539795e-01 6.509286880493164062e+00 1.046810054779052734e+01 5.093215942382812500e+00 -1.168784499168395996e+00
2.270000000000000000e+02 1.251828765869140625e+01 9.802343845367431641e-01 4.342707619071006775e-02 1.160226154327392578e+01 3.493706703186035156e+00 -6.797236442565917969e+00
2.280000000000000000e+02 1.404690074920654297e+01 6.737037897109985352e-01 2.759007930755615234e+00 1.387631130218505859e+01 4.990595817565917969e+00 5.010078907012939453e+00
2.290000000000000000e+02 1.229647827148437500e+01 1.306524515151977539e+00 -4.246427416801452637e-01 8.929694175720214844e+00 2.551515340805053711e+00 -5.273059368133544922e+00
2.300000000000000000e+02 1.292029762268066406e+01 1.314311027526855469e+00 -2.883506059646606445e+00 1.664580917358398438e+01 4.128690719604492188e+00 -3.388519048690795898e+00
2.310000000000000000e+02 1.232822322845458984e+01 8.571017384529113770e-01 1.271959543228149414e+00 7.778707981109619141e+00 2.715200185775756836e+00 -6.473256111145019531e+00
2.320000000000000000e+02 1.420296287536621094e+01 -4.767924845218658447e-01 2.778249740600585938e+00 1.005509376525878906e+01 3.850003004074096680e+00 -4.355403900146484375e+00
2.330000000000000000e+02 1.343882274627685547e+01 -1.404935836791992188e+00 -3.171346187591552734e+00 1.765120697021484375e+01 4.343958377838134766e+00 -1.069825410842895508e+00
2.340000000000000000e+02 1.419235992431640625e+01 7.191114425659179688e-01 1.441890835762023926e+00 1.123319816589355469e+01 3.802526712417602539e+00 5.135680198669433594e+00
2.350000000000000000e+02 1.386508274078369141e+01 -1.103891253471374512e+00 -1.264569282531738281e+00 1.517797183990478516e+01 4.174020767211914062e+00 -4.203176975250244141e+00
2.360000000000000000e+02 1.401221656799316406e+01 -9.590637087821960449e-01 1.803460836410522461e+00 1.486611843109130859e+01 5.000873565673828125e+00 -5.750077247619628906e+00
2.370000000000000000e+02 1.373357391357421875e+01 -1.240285873413085938e+00 -2.060456991195678711e+00 1.724416732788085938e+01 4.555113315582275391e+00 -3.462873458862304688e+00
2.380000000000000000e+02 1.327362442016601562e+01 -1.423275947570800781e+00 -3.405877590179443359e+00 1.851276016235351562e+01 4.532064914703369141e+00 6.568216681480407715e-01
2.390000000000000000e+02 1.434202766418457031e+01 -5.189204812049865723e-01 1.824605226516723633e+00 7.484099864959716797e+00 2.792611598968505859e+00 -2.219123601913452148e+00
2.400000000000000000e+02 1.425740718841552734e+01 -6.581892371177673340e-01 3.096601963043212891e+00 1.126796054840087891e+01 4.309368610382080078e+00 -4.614168643951416016e+00
2.410000000000000000e+02 1.427559185028076172e+01 5.665959715843200684e-01 2.758526563644409180e+00 9.511316299438476562e+00 3.680953025817871094e+00 3.648696899414062500e+00
2.420000000000000000e+02 1.439193725585937500e+01 -1.822738349437713623e-01 4.219249248504638672e+00 7.734813213348388672e+00 3.586218595504760742e+00 -1.018488883972167969e+00
2.430000000000000000e+02 1.439094066619873047e+01 -3.516882359981536865e-01 1.450356483459472656e+00 5.271188735961914062e+00 2.016463518142700195e+00 -3.029359340667724609e+00
2.440000000000000000e+02 1.383773708343505859e+01 -7.777122855186462402e-01 1.072056174278259277e+00 1.675922393798828125e+01 5.349384307861328125e+00 -5.625771045684814453e+00
2.450000000000000000e+02 1.363084793090820312e+01 1.193380594253540039e+00 -2.951203823089599609e+00 1.817770576477050781e+01 4.567950725555419922e+00 2.995654821395874023e+00
2.460000000000000000e+02 1.311843109130859375e+01 1.308244585990905762e+00 -3.685218095779418945e+00 1.834651947021484375e+01 4.398390293121337891e+00 -1.990769267082214355e+00
2.470000000000000000e+02 1.195421028137207031e+01 -1.011441469192504883e+00 1.417721271514892578e+00 4.159040451049804688e+00 1.673028588294982910e+00 4.422197818756103516e+00
2.480000000000000000e+02 1.213817024230957031e+01 -1.201817631721496582e+00 1.067245721817016602e+00 6.948380470275878906e+00 2.404687881469726562e+00 5.592771053314208984e+00
2.490000000000000000e+02 1.193308258056640625e+01 -4.025687873363494873e-01 -6.820976138114929199e-01 5.435032248497009277e-01 -4.157832264900207520e-02 1.557886719703674316e+00
2.500000000000000000e+02 1.169505882263183594e+01 -1.412128090858459473e+00 6.355128288269042969e-01 4.055532455444335938e+00 1.407313585281372070e+00 3.660599708557128906e+00
2.510000000000000000e+02 1.130001926422119141e+01 -1.396496534347534180e+00 3.720282018184661865e-01 2.616966247558593750e+00 8.966982960700988770e-01 2.523049354553222656e+00
2.520000000000000000e+02 1.248569869995117188e+01 -1.454922080039978027e+00 -6.974819898605346680e-01 1.092369937896728516e+01 3.067865133285522461e+00 5.469715118408203125e+00
2.530000000000000000e+02 1.133728504180908203e+01 -1.141985177993774414e+00 2.778215408325195312e-01 1.810842752456665039e+00 6.265993118286132812e-01 2.240618705749511719e+00
2.540000000000000000e+02 1.069738864898681641e+01 -1.401133298873901367e+00 -2.602878510951995850e-01 1.095768928527832031e+00 2.506443262100219727e-01 1.171844363212585449e+00
2.550000000000000000e+02 1.286377239227294922e+01 -1.416853666305541992e+00 -2.537280321121215820e+00 1.606439399719238281e+01 4.058134078979492188e+00 4.127423763275146484e+00
2.560000000000000000e+02 1.088859939575195312e+01 -1.233038008213043213e-01 -5.006021976470947266e+00 3.754641488194465637e-02 -1.490542650222778320e+00 9.818867780268192291e-03
2.570000000000000000e+02 1.119651699066162109e+01 -3.619988262653350830e-01 -3.332601308822631836e+00 1.089540868997573853e-01 -9.670941829681396484e-01 2.344695776700973511e-01
2.580000000000000000e+02 1.009954929351806641e+01 3.420401513576507568e-01 -4.375188350677490234e+00 -1.258166134357452393e-01 -1.350301504135131836e+00 2.225034981966018677e-01
2.590000000000000000e+02 1.131056213378906250e+01 1.323266625404357910e-01 -5.220282077789306641e+00 6.086334586143493652e-02 -1.547825574874877930e+00 1.380739510059356689e-01
2.600000000000000000e+02 1.133855724334716797e+01 4.273333549499511719e-01 -2.725630044937133789e+00 1.607310771942138672e-01 -7.694696784019470215e-01 -4.405743181705474854e-01
2.610000000000000000e+02 1.092264175415039062e+01 1.323947668075561523e+00 -5.121395587921142578e-01 1.444389104843139648e+00 2.796748280525207520e-01 -1.451973915100097656e+00
2.620000000000000000e+02 1.204217338562011719e+01 1.149969816207885742e+00 3.712197840213775635e-01 5.762500286102294922e+00 1.840116024017333984e+00 -4.726177692413330078e+00
2.630000000000000000e+02 1.171738815307617188e+01 1.367557406425476074e+00 1.205868050456047058e-01 4.354622840881347656e+00 1.342562794685363770e+00 -3.596756458282470703e+00
2.640000000000000000e+02 1.030767631530761719e+01 1.381714105606079102e+00 -1.147238850593566895e+00 7.835609316825866699e-01 -1.091033741831779480e-01 -5.448426008224487305e-01
2.650000000000000000e+02 1.071337318420410156e+01 1.328172445297241211e+00 -8.528472781181335449e-01 1.074991941452026367e+00 6.664338707923889160e-02 -1.053586244583129883e+00
2.660000000000000000e+02 1.115561676025390625e+01 1.099928259849548340e+00 -4.321791231632232666e-01 1.464967131614685059e+00 3.098363876342773438e-01 -1.748358249664306641e+00
2.670000000000000000e+02 1.152083778381347656e+01 1.361661314964294434e+00 5.120054259896278381e-02 3.336779117584228516e+00 1.016393899917602539e+00 -2.948029518127441406e+00
2.680000000000000000e+02 1.219087409973144531e+01 1.046199917793273926e+00 6.839011907577514648e-01 7.206917285919189453e+00 2.367245674133300781e+00 -5.672513961791992188e+00
2.690000000000000000e+02 1.250517845153808594e+01 1.290636420249938965e+00 -1.012587070465087891e+00 1.139210033416748047e+01 3.113854169845581055e+00 -5.486505508422851562e+00
2.700000000000000000e+02 1.034648513793945312e+01 -9.498104453086853027e-01 -1.659425377845764160e+00 3.604165911674499512e-01 -3.897026181221008301e-01 2.661654055118560791e-01
2.710000000000000000e+02 1.011160087585449219e+01 -9.619688391685485840e-01 -1.788527011871337891e+00 2.127466350793838501e-01 -4.727341234683990479e-01 -1.199612743221223354e-03
2.720000000000000000e+02 1.049792957305908203e+01 -1.398352742195129395e+00 -4.745458364486694336e-01 9.459533691406250000e-01 1.414222717285156250e-01 8.848326802253723145e-01
2.730000000000000000e+02 1.050337886810302734e+01 1.368869245052337646e-01 -5.311145782470703125e+00 -3.093730658292770386e-02 -1.602624893188476562e+00 1.813336312770843506e-01
2.740000000000000000e+02 1.009469509124755859e+01 5.529730319976806641e-01 -3.479895114898681641e+00 1.146756857633590698e-01 -1.009565830230712891e+00 3.189069330692291260e-01
2.750000000000000000e+02 1.027700710296630859e+01 5.690618753433227539e-01 -3.479085922241210938e+00 -8.048970252275466919e-03 -1.046140432357788086e+00 1.834223568439483643e-01
2.760000000000000000e+02 1.161029148101806641e+01 5.651388764381408691e-01 -1.333813071250915527e+00 7.099453210830688477e-01 -1.871603131294250488e-01 -1.391756296157836914e+00
2.770000000000000000e+02 1.138295650482177734e+01 -4.094273149967193604e-01 -2.941732883453369141e+00 1.658442318439483643e-01 -8.327665925025939941e-01 2.814201712608337402e-01
2.780000000000000000e+02 1.032021236419677734e+01 -1.173582196235656738e+00 -1.087939977645874023e+00 6.040301322937011719e-01 -1.451729387044906616e-01 4.795135259628295898e-01
2.790000000000000000e+02 1.178249835968017578e+01 -9.540779590606689453e-01 1.071495056152343750e+00 2.622670173645019531e+00 1.108249664306640625e+00 3.511857748031616211e+00
2.800000000000000000e+02 1.112985134124755859e+01 -9.107989072799682617e-01 -6.763966679573059082e-01 7.803366780281066895e-01 3.118200227618217468e-02 1.212810277938842773e+00
2.810000000000000000e+02 1.090641212463378906e+01 1.437107622623443604e-01 -5.304957389831542969e+00 2.040896937251091003e-02 -1.585364460945129395e+00 1.671392321586608887e-01
2.820000000000000000e+02 1.049806308746337891e+01 3.874160349369049072e-01 -4.096035957336425781e+00 4.084594920277595520e-02 -1.216557025909423828e+00 1.685420125722885132e-01
2.830000000000000000e+02 1.070543861389160156e+01 1.441940367221832275e-01 -5.314813137054443359e+00 5.169658455997705460e-03 -1.592893123626708984e+00 1.925497800111770630e-01
2.840000000000000000e+02 1.110830402374267578e+01 1.406600922346115112e-01 -5.272714614868164062e+00 -2.729532681405544281e-02 -1.590003013610839844e+00 1.608639955520629883e-01
2.850000000000000000e+02 1.028783607482910156e+01 1.163983464241027832e+00 -1.497080445289611816e+00 5.410192608833312988e-01 -2.868183553218841553e-01 -4.023934900760650635e-01
2.860000000000000000e+02 1.135482692718505859e+01 8.549318909645080566e-01 -8.089678287506103516e-01 1.090532898902893066e+00 8.446953445672988892e-02 -1.597369790077209473e+00
2.870000000000000000e+02 1.201708602905273438e+01 8.623221516609191895e-01 1.128338575363159180e+00 3.955100297927856445e+00 1.525031685829162598e+00 -4.495540142059326172e+00
2.880000000000000000e+02 1.089773464202880859e+01 -1.399765491485595703e+00 -4.159212857484817505e-02 1.468713402748107910e+00 4.281364083290100098e-01 1.552854418754577637e+00
2.890000000000000000e+02 1.136116695404052734e+01 -6.288017034530639648e-01 -9.883995652198791504e-01 4.405239522457122803e-01 -1.643626838922500610e-01 1.032764554023742676e+00
2.900000000000000000e+02 1.103739166259765625e+01 -2.984971106052398682e-01 -3.954558134078979492e+00 6.255425512790679932e-02 -1.167601108551025391e+00 9.327582269906997681e-02
2.910000000000000000e+02 1.106258487701416016e+01 -5.283117890357971191e-01 -2.500852823257446289e+00 2.368522435426712036e-01 -6.792001724243164062e-01 3.199441730976104736e-01
2.920000000000000000e+02 1.155439758300781250e+01 3.608322143554687500e-01 -2.525022268295288086e+00 3.330276310443878174e-01 -6.575983762741088867e-01 -5.789521932601928711e-01
2.930000000000000000e+02 1.091786861419677734e+01 4.352931678295135498e-01 -3.526833057403564453e+00 8.399735391139984131e-02 -1.032850742340087891e+00 -5.293091014027595520e-02
2.940000000000000000e+02 1.112351799011230469e+01 4.405815303325653076e-01 -3.056705951690673828e+00 2.322394847869873047e-01 -8.473399281501770020e-01 -3.051440417766571045e-01
2.950000000000000000e+02 1.046465969085693359e+01 6.093435287475585938e-01 -3.271883487701416016e+00 1.315889060497283936e-01 -9.420883655548095703e-01 2.761105075478553772e-02
2.960000000000000000e+02 1.192478847503662109e+01 1.026018738746643066e+00 5.955576300621032715e-01 4.463582038879394531e+00 1.517741918563842773e+00 -4.287051677703857422e+00
2.970000000000000000e+02 1.114488601684570312e+01 8.696909546852111816e-01 -1.238475918769836426e+00 8.057166337966918945e-01 -1.298277825117111206e-01 -1.111503958702087402e+00
2.980000000000000000e+02 1.143687629699707031e+01 6.492673754692077637e-01 -1.467294931411743164e+00 7.848218083381652832e-01 -2.047419250011444092e-01 -1.201792001724243164e+00
2.990000000000000000e+02 1.042233753204345703e+01 9.438005089759826660e-01 -1.925246715545654297e+00 4.047356545925140381e-01 -4.561533331871032715e-01 -2.736384570598602295e-01
3.000000000000000000e+02 1.009141540527343750e+01 7.606493830680847168e-01 -3.037249803543090820e+00 8.519095182418823242e-02 -8.856176137924194336e-01 1.587648689746856689e-01
3.010000000000000000e+02 1.010122776031494141e+01 -3.371290862560272217e-01 -4.039772510528564453e+00 -1.486756205558776855e-01 -1.256534337997436523e+00 -2.791706472635269165e-02
3.020000000000000000e+02 1.076114654541015625e+01 -5.498200058937072754e-01 -2.753013849258422852e+00 1.434240490198135376e-01 -7.828769683837890625e-01 1.378871798515319824e-01
3.030000000000000000e+02 1.159561252593994141e+01 -8.866388797760009766e-01 4.079355299472808838e-01 1.571411609649658203e+00 5.938041210174560547e-01 2.405359029769897461e+00
3.040000000000000000e+02 1.167283439636230469e+01 -1.910627782344818115e-01 -4.143077850341796875e+00 6.087829545140266418e-02 -1.224659919738769531e+00 2.908645868301391602e-01
3.050000000000000000e+02 1.010280609130859375e+01 1.178552508354187012e+00 -1.696883440017700195e+00 5.535839200019836426e-01 -3.429898619651794434e-01 -1.806114315986633301e-01
3.060000000000000000e+02 1.009447956085205078e+01 9.686031341552734375e-01 -2.122653722763061523e+00 2.831388711929321289e-01 -5.518544316291809082e-01 -1.136050093919038773e-02
3.070000000000000000e+02 1.050710678100585938e+01 1.363328099250793457e+00 -1.018839240074157715e+00 9.462133049964904785e-01 -2.178777568042278290e-02 -7.994366288185119629e-01
3.080000000000000000e+02 1.132367134094238281e+01 1.355676770210266113e+00 -1.421944517642259598e-02 2.512368440628051758e+00 7.494447231292724609e-01 -2.475290298461914062e+00
3.090000000000000000e+02 1.153262042999267578e+01 1.136403560638427734e+00 1.275217831134796143e-01 2.593686819076538086e+00 8.163625597953796387e-01 -2.879310131072998047e+00
3.100000000000000000e+02 1.161173343658447266e+01 7.348663806915283203e-01 -2.214937359094619751e-01 1.374865055084228516e+00 3.460114002227783203e-01 -2.181352615356445312e+00
3.110000000000000000e+02 1.026432228088378906e+01 9.607321023941040039e-01 -2.097024917602539062e+00 3.198332786560058594e-01 -5.331575274467468262e-01 -1.733641475439071655e-01
3.120000000000000000e+02 1.029527854919433594e+01 3.575806319713592529e-01 -4.334168910980224609e+00 5.451524630188941956e-04 -1.300087094306945801e+00 1.606766134500503540e-01
3.130000000000000000e+02 1.070955085754394531e+01 4.343308806419372559e-01 -3.754534721374511719e+00 9.606506675481796265e-02 -1.097540855407714844e+00 1.713662222027778625e-02
3.140000000000000000e+02 1.029919242858886719e+01 -3.283594846725463867e-01 -3.966426134109497070e+00 1.519269775599241257e-02 -1.185369968414306641e+00 -7.545577734708786011e-02
3.150000000000000000e+02 1.067942905426025391e+01 -3.612443208694458008e-01 -3.651952505111694336e+00 8.188924938440322876e-02 -1.071018934249877930e+00 -4.741080477833747864e-02
3.160000000000000000e+02 1.011693477630615234e+01 -7.479391694068908691e-01 -2.405729055404663086e+00 1.118084266781806946e-01 -6.881762146949768066e-01 -4.928079992532730103e-02
3.170000000000000000e+02 1.037780666351318359e+01 -7.131887674331665039e-01 -2.314660310745239258e+00 1.374417990446090698e-01 -6.531655788421630859e-01 3.522880002856254578e-02
3.180000000000000000e+02 1.047951221466064453e+01 -3.600403368473052979e-01 -3.662543535232543945e+00 1.145449839532375336e-02 -1.095326662063598633e+00 -4.772219434380531311e-02
3.190000000000000000e+02 1.069165611267089844e+01 -1.334817707538604736e-01 -5.000444412231445312e+00 -4.971022251993417740e-03 -1.501624584197998047e+00 -2.459203079342842102e-02
3.200000000000000000e+02 1.108168792724609375e+01 -1.252788454294204712e-01 -4.955676078796386719e+00 -2.369529008865356445e-02 -1.493811488151550293e+00 1.828080415725708008e-02
3.210000000000000000e+02 1.156362915039062500e+01 -4.775133728981018066e-01 -1.520619273185729980e+00 3.525236546993255615e-01 -3.504287004470825195e-01 8.151944875717163086e-01
3.220000000000000000e+02 1.052414035797119141e+01 -1.179267644882202148e+00 -9.179956912994384766e-01 6.446810960769653320e-01 -8.199437707662582397e-02 6.889723539352416992e-01
3.230000000000000000e+02 1.072149562835693359e+01 -1.185355186462402344e+00 -6.747597455978393555e-01 8.557464480400085449e-01 5.429601669311523438e-02 9.387081861495971680e-01
3.240000000000000000e+02 1.149790954589843750e+01 -1.402825474739074707e+00 6.209846138954162598e-01 3.116046428680419922e+00 1.121109366416931152e+00 3.112877130508422852e+00
3.250000000000000000e+02 1.172929668426513672e+01 -1.180597305297851562e+00 8.948473930358886719e-01 3.370661973953247070e+00 1.279652833938598633e+00 3.667194843292236328e+00
3.260000000000000000e+02 1.229858970642089844e+01 -1.433934450149536133e+00 -1.165402755141258240e-01 9.415400505065917969e+00 2.789658069610595703e+00 5.351964473724365234e+00
3.270000000000000000e+02 1.255599594116210938e+01 -1.294014334678649902e+00 -6.099333763122558594e-01 1.269867324829101562e+01 3.626621961593627930e+00 6.044191837310791016e+00
3.280000000000000000e+02 1.287089920043945312e+01 -1.162314414978027344e+00 -1.895361781120300293e+00 1.779612922668457031e+01 4.770230293273925781e+00 5.409618854522705078e+00
3.290000000000000000e+02 1.360111618041992188e+01 -1.340289831161499023e+00 -2.702578544616699219e+00 1.726519584655761719e+01 4.368785381317138672e+00 -1.890888571739196777e+00
3.300000000000000000e+02 1.350595188140869141e+01 -1.029212832450866699e+00 -1.964048981666564941e+00 2.098750495910644531e+01 5.707036495208740234e+00 -2.401979446411132812e+00
3.310000000000000000e+02 1.413905525207519531e+01 -7.984909415245056152e-01 7.636361718177795410e-01 1.174001312255859375e+01 3.751094579696655273e+00 -5.447618484497070312e+00
3.320000000000000000e+02 1.436091899871826172e+01 1.219405420124530792e-02 3.678217649459838867e+00 5.881686687469482422e+00 2.867971181869506836e+00 2.201260566711425781e+00
3.330000000000000000e+02 1.431386470794677734e+01 4.085355997085571289e-01 3.912702560424804688e+00 7.819630622863769531e+00 3.519699811935424805e+00 3.371174812316894531e+00
3.340000000000000000e+02 1.392221546173095703e+01 9.560306668281555176e-01 -1.094759851694107056e-01 1.545157527923583984e+01 4.602629661560058594e+00 4.209194183349609375e+00
3.350000000000000000e+02 1.377111530303955078e+01 1.083085179328918457e+00 -2.857839822769165039e+00 1.694151306152343750e+01 4.225101947784423828e+00 3.669666051864624023e+00
3.360000000000000000e+02 1.348000240325927734e+01 1.259595274925231934e+00 -3.562060832977294922e+00 1.846610260009765625e+01 4.471212387084960938e+00 1.106461405754089355e+00
3.370000000000000000e+02 1.330581665039062500e+01 1.287065744400024414e+00 -3.472997665405273438e+00 1.845516204833984375e+01 4.494649410247802734e+00 -2.917443811893463135e-01
3.380000000000000000e+02 1.172681427001953125e+01 -6.110355257987976074e-01 -1.031073089689016342e-02 8.046676516532897949e-01 2.383070737123489380e-01 1.836786150932312012e+00
3.390000000000000000e+02 1.210186767578125000e+01 1.349821567535400391e+00 2.938275039196014404e-02 6.899225234985351562e+00 2.078582286834716797e+00 -4.835535526275634766e+00
3.400000000000000000e+02 1.191107749938964844e+01 1.367790460586547852e+00 7.695271074771881104e-02 5.482844829559326172e+00 1.667939305305480957e+00 -4.134528160095214844e+00
3.410000000000000000e+02 1.189361953735351562e+01 1.182669758796691895e+00 3.145401477813720703e-01 4.859501361846923828e+00 1.552212357521057129e+00 -4.128079414367675781e+00
3.420000000000000000e+02 1.151418590545654297e+01 1.141363605856895447e-01 -5.119490623474121094e+00 -2.444337122142314911e-02 -1.543180227279663086e+00 9.643287211656570435e-02
3.430000000000000000e+02 1.171672916412353516e+01 9.641020745038986206e-02 -4.948223114013671875e+00 7.931731641292572021e-02 -1.460671782493591309e+00 6.307675689458847046e-02
3.440000000000000000e+02 1.202868080139160156e+01 -8.613921403884887695e-01 1.950504899024963379e+00 3.778423786163330078e+00 1.718678593635559082e+00 4.675184726715087891e+00
3.450000000000000000e+02 1.215635490417480469e+01 -7.363055348396301270e-01 2.658017396926879883e+00 3.768032789230346680e+00 1.927814960479736328e+00 5.192166805267333984e+00
3.460000000000000000e+02 1.348358631134033203e+01 1.058460950851440430e+00 -2.989843845367431641e+00 2.034495353698730469e+01 5.206532478332519531e+00 1.727574229240417480e+00
3.470000000000000000e+02 1.414392471313476562e+01 4.975802600383758545e-01 3.624248981475830078e+00 1.168736171722412109e+01 4.593483448028564453e+00 4.861024856567382812e+00
3.480000000000000000e+02 1.337172317504882812e+01 -1.274931669235229492e+00 -3.204153537750244141e+00 1.948315238952636719e+01 4.883699893951416016e+00 -3.059753179550170898e-01
3.490000000000000000e+02 1.235445880889892578e+01 -1.222279191017150879e+00 5.075396895408630371e-01 9.530063629150390625e+00 3.011281013488769531e+00 6.332854270935058594e+00
3.500000000000000000e+02 1.034549808502197266e+01 -5.069555044174194336e-01 -3.258406400680541992e+00 1.542337611317634583e-02 -9.728949069976806641e-01 4.575450904667377472e-03
3.510000000000000000e+02 1.055954360961914062e+01 -9.612079262733459473e-01 -1.359939217567443848e+00 4.735744595527648926e-01 -2.659094035625457764e-01 4.702568054199218750e-01
3.520000000000000000e+02 1.093558788299560547e+01 -4.280757308006286621e-01 -3.211225509643554688e+00 1.027169674634933472e-01 -9.325525760650634766e-01 7.596484571695327759e-02
3.530000000000000000e+02 1.062198066711425781e+01 -7.367452979087829590e-01 -2.085567235946655273e+00 1.953369230031967163e-01 -5.670691132545471191e-01 2.959114015102386475e-01
3.540000000000000000e+02 1.065803623199462891e+01 1.052844285964965820e+00 -1.453288674354553223e+00 6.949983835220336914e-01 -2.274870723485946655e-01 -6.647102832794189453e-01
3.550000000000000000e+02 1.082783412933349609e+01 8.709461688995361328e-01 -1.703652143478393555e+00 5.638543963432312012e-01 -3.419393301010131836e-01 -6.552395224571228027e-01
3.560000000000000000e+02 1.087810420989990234e+01 -2.982583343982696533e-01 -3.983621120452880859e+00 2.192559093236923218e-02 -1.188508629798889160e+00 8.278380148112773895e-03
3.570000000000000000e+02 1.192649650573730469e+01 -1.203401088714599609e+00 1.095639467239379883e+00 4.629195213317871094e+00 1.717450380325317383e+00 4.522816658020019531e+00
3.580000000000000000e+02 1.212643623352050781e+01 -1.003847002983093262e+00 1.768333792686462402e+00 5.827730178833007812e+00 2.278819084167480469e+00 5.644675254821777344e+00
3.590000000000000000e+02 1.156292343139648438e+01 9.204151034355163574e-01 1.213032100349664688e-02 1.905394196510314941e+00 5.752573609352111816e-01 -2.451728582382202148e+00
3.600000000000000000e+02 1.172203063964843750e+01 1.162757158279418945e+00 2.188905775547027588e-01 3.755041599273681641e+00 1.192179679870605469e+00 -3.535590171813964844e+00
3.610000000000000000e+02 1.181826877593994141e+01 5.498356819152832031e-01 -2.122398465871810913e-01 1.391785264015197754e+00 3.538636267185211182e-01 -2.259209632873535156e+00
3.620000000000000000e+02 1.101796054840087891e+01 6.679471731185913086e-01 -2.188871622085571289e+00 3.669067621231079102e-01 -5.465894341468811035e-01 -5.492334961891174316e-01
3.630000000000000000e+02 1.092026805877685547e+01 -1.174838781356811523e+00 -3.765422403812408447e-01 9.685766696929931641e-01 1.776103228330612183e-01 1.278179407119750977e+00
3.640000000000000000e+02 1.137386512756347656e+01 -8.721406459808349609e-01 -2.064004093408584595e-01 1.174377799034118652e+00 2.903932034969329834e-01 1.751078128814697266e+00
3.650000000000000000e+02 1.065545368194580078e+01 6.954248547554016113e-01 -2.617158174514770508e+00 2.093806862831115723e-01 -7.223332524299621582e-01 -1.300471276044845581e-01
3.660000000000000000e+02 1.025991630554199219e+01 7.660470008850097656e-01 -2.749118328094482422e+00 2.349638342857360840e-01 -7.542463541030883789e-01 1.047967001795768738e-01
3.670000000000000000e+02 1.041886901855468750e+01 7.863220572471618652e-01 -2.508706808090209961e+00 1.565884649753570557e-01 -7.056355476379394531e-01 -1.924798451364040375e-02
3.680000000000000000e+02 1.081981563568115234e+01 -8.258734941482543945e-01 -1.546572446823120117e+00 4.308916926383972168e-01 -3.347042202949523926e-01 5.768541097640991211e-01
3.690000000000000000e+02 1.093075275421142578e+01 -6.693387031555175781e-01 -1.776044130325317383e+00 3.398823738098144531e-01 -4.308485090732574463e-01 5.193967819213867188e-01
3.700000000000000000e+02 1.181434154510498047e+01 7.675662636756896973e-01 3.829529583454132080e-01 2.277487277984619141e+00 7.981321215629577637e-01 -3.081180334091186523e+00
3.710000000000000000e+02 1.175545597076416016e+01 9.661997556686401367e-01 6.178485155105590820e-01 3.063285589218139648e+00 1.104340195655822754e+00 -3.487135410308837891e+00
3.720000000000000000e+02 1.054964828491210938e+01 8.695764541625976562e-01 -2.022265195846557617e+00 3.413836359977722168e-01 -5.042644739151000977e-01 -3.349418342113494873e-01
3.730000000000000000e+02 1.112780475616455078e+01 -6.844008564949035645e-01 -1.446734189987182617e+00 4.520669579505920410e-01 -2.984001636505126953e-01 7.094033360481262207e-01
3.740000000000000000e+02 1.091956901550292969e+01 -9.671261906623840332e-01 -9.087155461311340332e-01 7.435865998268127441e-01 -4.953868687152862549e-02 9.332843422889709473e-01
3.750000000000000000e+02 2.023848342895507812e+01 3.811461639404296875e+01 -1.300240308046340942e-01 4.851848125457763672e+00 1.416547298431396484e+00 -1.259890556335449219e+00
3.760000000000000000e+02 2.119184494018554688e+01 3.540740203857421875e+01 7.643504738807678223e-01 9.902235984802246094e+00 3.199975967407226562e+00 -9.747577309608459473e-01
3.770000000000000000e+02 2.025682449340820312e+01 4.049651718139648438e+01 -1.961474865674972534e-02 4.994183540344238281e+00 1.492370605468750000e+00 -3.752061724662780762e-01
3.780000000000000000e+02 2.262150573730468750e+01 3.703831863403320312e+01 1.453676819801330566e-01 7.781203269958496094e+00 2.377971410751342773e+00 9.602424502372741699e-02
3.790000000000000000e+02 2.282637786865234375e+01 3.231888961791992188e+01 1.085705235600471497e-01 8.511312484741210938e+00 2.585964918136596680e+00 -2.649235129356384277e-01
3.800000000000000000e+02 2.110128021240234375e+01 2.557763290405273438e+01 -1.540498458780348301e-03 8.304327964782714844e+00 2.490836381912231445e+00 -1.267075724899768829e-02
3.810000000000000000e+02 2.229685974121093750e+01 1.569350910186767578e+01 5.379677750170230865e-03 8.245089530944824219e+00 2.475140810012817383e+00 1.660050824284553528e-02
3.820000000000000000e+02 2.105296516418457031e+01 7.590249538421630859e+00 1.476363744586706161e-02 8.530264854431152344e+00 2.563508510589599609e+00 5.687716603279113770e-02
3.830000000000000000e+02 2.082506752014160156e+01 2.037354469299316406e+00 4.125468805432319641e-02 8.124095916748046875e+00 2.449605226516723633e+00 6.344915032386779785e-01
3.840000000000000000e+02 2.048898124694824219e+01 -3.467216253280639648e+00 3.694688901305198669e-02 7.716148853302001953e+00 2.325928688049316406e+00 4.894118309020996094e-01
3.850000000000000000e+02 2.149302291870117188e+01 -1.196126747131347656e+01 3.131124749779701233e-02 7.858949184417724609e+00 2.367078065872192383e+00 3.030671179294586182e-01
3.860000000000000000e+02 1.979606819152832031e+01 -1.723141098022460938e+01 1.174802705645561218e-02 6.981038093566894531e+00 2.097835779190063477e+00 5.111666321754455566e-01
3.870000000000000000e+02 2.721778869628906250e+01 -2.708744812011718750e+01 1.688442565500736237e-02 7.344882488250732422e+00 2.208529949188232422e+00 1.313368976116180420e-01
3.880000000000000000e+02 3.792610931396484375e+01 -3.360642242431640625e+01 -1.385918408632278442e-01 7.528564929962158203e+00 2.216991901397705078e+00 -4.857214912772178650e-02
3.890000000000000000e+02 4.230551147460937500e+01 -4.077307128906250000e+01 -1.778789758682250977e-01 7.602758407592773438e+00 2.227463960647583008e+00 -1.024183630943298340e-02
3.900000000000000000e+02 4.716968917846679688e+01 -4.051707077026367188e+01 -1.421642750501632690e-01 7.665851593017578125e+00 2.257106065750122070e+00 -1.469257101416587830e-02
3.910000000000000000e+02 5.219547271728515625e+01 -4.043608474731445312e+01 -1.134391278028488159e-01 7.715013504028320312e+00 2.280472278594970703e+00 -1.108576171100139618e-02
3.920000000000000000e+02 5.660955429077148438e+01 -3.682028198242187500e+01 -8.032497018575668335e-02 7.750728130340576172e+00 2.301120996475219727e+00 -3.043396212160587311e-02
3.930000000000000000e+02 5.696813964843750000e+01 -3.071645355224609375e+01 -7.345921546220779419e-02 7.749619960784912109e+00 2.302848339080810547e+00 -6.603278964757919312e-02
3.940000000000000000e+02 5.755671691894531250e+01 -2.586933708190917969e+01 -5.233495682477951050e-02 7.755589485168457031e+00 2.310976266860961914e+00 -7.589310407638549805e-02
3.950000000000000000e+02 6.006593322753906250e+01 -7.567361354827880859e+00 1.246681436896324158e-02 7.745633125305175781e+00 2.327430009841918945e+00 -9.594426304101943970e-02
3.960000000000000000e+02 6.037379074096679688e+01 -1.295674085617065430e+00 2.545962855219841003e-02 7.738362312316894531e+00 2.329146623611450195e+00 -8.710731565952301025e-02
3.970000000000000000e+02 5.889774703979492188e+01 5.134188532829284668e-01 3.094494715332984924e-02 7.738482475280761719e+00 2.330828189849853516e+00 -8.483610302209854126e-02
3.980000000000000000e+02 5.855167007446289062e+01 1.075642108917236328e+01 4.333749413490295410e-02 7.731365680694580078e+00 2.332410812377929688e+00 -5.595423653721809387e-02
3.990000000000000000e+02 5.556085205078125000e+01 1.646424865722656250e+01 5.531862378120422363e-02 7.748120307922363281e+00 2.341031789779663086e+00 -3.194752708077430725e-02
4.000000000000000000e+02 5.678411483764648438e+01 2.300330924987792969e+01 4.174298048019409180e-02 7.747564792633056641e+00 2.336792230606079102e+00 -1.366972737014293671e-02
4.010000000000000000e+02 5.518247985839843750e+01 3.443706893920898438e+01 1.552662905305624008e-02 7.772220611572265625e+00 2.336324214935302734e+00 4.646148532629013062e-03
4.020000000000000000e+02 5.759366607666015625e+01 4.089602279663085938e+01 2.004861831665039062e-03 7.762367248535156250e+00 2.329311609268188477e+00 4.721822217106819153e-03
4.030000000000000000e+02 5.266400146484375000e+01 4.047833633422851562e+01 4.117368080187588930e-04 7.801175117492675781e+00 2.340476036071777344e+00 -3.169190604239702225e-03
4.040000000000000000e+02 5.333278274536132812e+01 3.309875488281250000e+01 1.313388347625732422e-02 7.785548686981201172e+00 2.339604616165161133e+00 2.406602725386619568e-03
4.050000000000000000e+02 5.095485687255859375e+01 2.575378608703613281e+01 5.095366761088371277e-02 7.784679412841796875e+00 2.350689888000488281e+00 2.150417538359761238e-03
4.060000000000000000e+02 4.882511901855468750e+01 1.626473808288574219e+01 7.375162094831466675e-02 7.786732673645019531e+00 2.358145236968994141e+00 -2.613421715795993805e-02
4.070000000000000000e+02 4.579861068725585938e+01 1.003911113739013672e+01 9.047834575176239014e-02 7.792039871215820312e+00 2.364755392074584961e+00 -3.837389871478080750e-02
4.080000000000000000e+02 5.037269210815429688e+01 4.491301536560058594e+00 6.271331757307052612e-02 7.750367641448974609e+00 2.343924283981323242e+00 -6.985919922590255737e-02
4.090000000000000000e+02 5.046251296997070312e+01 -1.265941739082336426e+00 4.463791102170944214e-02 7.744099140167236328e+00 2.336621046066284180e+00 -8.385456353425979614e-02
4.100000000000000000e+02 5.376918792724609375e+01 -1.112863159179687500e+01 -3.199465805664658546e-03 7.731806755065917969e+00 2.318582296371459961e+00 -9.870886802673339844e-02
4.110000000000000000e+02 5.067022323608398438e+01 -1.912504959106445312e+01 -4.453760012984275818e-02 7.710250854492187500e+00 2.299714088439941406e+00 -9.016647189855575562e-02
4.120000000000000000e+02 5.038460540771484375e+01 -2.835466957092285156e+01 -8.960125595331192017e-02 7.693395137786865234e+00 2.281138181686401367e+00 -7.755417376756668091e-02
4.130000000000000000e+02 5.295714950561523438e+01 -3.275794219970703125e+01 -9.272315353155136108e-02 7.717303752899169922e+00 2.287374258041381836e+00 -5.651935189962387085e-02
4.140000000000000000e+02 5.226387023925781250e+01 -3.643524551391601562e+01 -1.004350408911705017e-01 7.719651699066162109e+00 2.285764932632446289e+00 -3.449830412864685059e-02
4.150000000000000000e+02 5.899780273437500000e+01 -3.302316284179687500e+01 -5.544745549559593201e-02 7.768089294433593750e+00 2.313792467117309570e+00 -4.642608016729354858e-02
4.160000000000000000e+02 2.017998504638671875e+01 -1.313241958618164062e+01 7.828289270401000977e-02 8.056907653808593750e+00 2.440557241439819336e+00 2.964645028114318848e-01
4.170000000000000000e+02 1.969027137756347656e+01 -1.858166313171386719e+01 -7.218696177005767822e-02 6.809473991394042969e+00 2.021186113357543945e+00 3.718824386596679688e-01
4.180000000000000000e+02 1.960013961791992188e+01 -2.400445747375488281e+01 -1.369721293449401855e-01 6.884681701660156250e+00 2.024312973022460938e+00 1.363442540168762207e-01
4.190000000000000000e+02 3.087944984436035156e+01 -2.958271217346191406e+01 -3.540417179465293884e-02 7.357522964477539062e+00 2.196635484695434570e+00 1.793738454580307007e-02
4.200000000000000000e+02 4.191462326049804688e+01 -3.730262374877929688e+01 -1.636108458042144775e-01 7.603461742401123047e+00 2.231955289840698242e+00 -3.188809752464294434e-02
4.210000000000000000e+02 1.964974975585937500e+01 -2.128822517395019531e+01 2.106877788901329041e-02 7.212388992309570312e+00 2.170037269592285156e+00 1.814380884170532227e-01
4.220000000000000000e+02 1.962705993652343750e+01 -2.264585304260253906e+01 6.005685031414031982e-02 7.086395263671875000e+00 2.143935680389404297e+00 2.494270801544189453e-01
4.230000000000000000e+02 1.981773376464843750e+01 -3.237012481689453125e+01 -1.342232823371887207e-01 7.711019992828369141e+00 2.273038864135742188e+00 1.051595062017440796e-01
4.240000000000000000e+02 3.257299804687500000e+01 -4.065194320678710938e+01 -2.898831963539123535e-01 7.406140327453613281e+00 2.134877204895019531e+00 -3.540209308266639709e-02
4.250000000000000000e+02 1.970997047424316406e+01 -2.953100967407226562e+01 -9.281045198440551758e-02 7.420615196228027344e+00 2.198341369628906250e+00 4.271539300680160522e-02
4.260000000000000000e+02 1.984358215332031250e+01 -3.383821487426757812e+01 4.646179378032684326e-01 8.079608917236328125e+00 2.563268184661865234e+00 3.347665965557098389e-01
4.270000000000000000e+02 1.834484863281250000e+01 -3.827018737792968750e+01 -1.928489208221435547e-01 4.113691329956054688e+00 1.176252722740173340e+00 1.388459205627441406e+00
4.280000000000000000e+02 1.972983551025390625e+01 -3.534495544433593750e+01 -8.569095283746719360e-03 7.988767623901367188e+00 2.394059419631958008e+00 6.781327128410339355e-01
4.290000000000000000e+02 1.932859039306640625e+01 -3.688064575195312500e+01 9.028931856155395508e-01 6.789816856384277344e+00 2.307812929153442383e+00 8.079516291618347168e-01
4.300000000000000000e+02 1.685286903381347656e+01 -3.838454818725585938e+01 -3.531405925750732422e-01 1.497907161712646484e+00 3.434299528598785400e-01 -5.345281958580017090e-01
4.310000000000000000e+02 1.537549018859863281e+01 -3.939077758789062500e+01 -6.261072754859924316e-01 3.524917602539062500e+00 8.696430921554565430e-01 -9.078001379966735840e-01
4.320000000000000000e+02 1.474078083038330078e+01 -3.652487182617187500e+01 1.542674303054809570e+00 6.951587677001953125e+00 2.548278570175170898e+00 -2.154896259307861328e+00
4.330000000000000000e+02 1.324176883697509766e+01 -3.603910064697265625e+01 1.452379465103149414e+00 7.571191787719726562e+00 2.707071304321289062e+00 -4.256930947303771973e-01
4.340000000000000000e+02 1.378779315948486328e+01 -3.444147491455078125e+01 1.084484696388244629e+00 9.280851364135742188e+00 3.109600782394409180e+00 -4.141915142536163330e-01
4.350000000000000000e+02 1.430515861511230469e+01 -3.170637702941894531e+01 3.196374699473381042e-02 7.183960437774658203e+00 2.164777278900146484e+00 1.943004727363586426e-01
4.360000000000000000e+02 1.324777317047119141e+01 -2.636184501647949219e+01 -7.633619755506515503e-02 6.815432071685791016e+00 2.021728754043579102e+00 5.850328505039215088e-02
4.370000000000000000e+02 1.841966748237609863e+00 -1.755434608459472656e+01 1.955891959369182587e-02 -1.617048144340515137e+00 -4.792467653751373291e-01 3.433844074606895447e-02
4.380000000000000000e+02 6.393713951110839844e-01 -2.331391906738281250e+01 -1.160867046564817429e-02 -2.448751688003540039e+00 -7.381080985069274902e-01 2.086521498858928680e-02
4.390000000000000000e+02 6.472437381744384766e-01 -2.472223472595214844e+01 1.119589712470769882e-02 -2.419721364974975586e+00 -7.225576043128967285e-01 2.318739891052246094e-02
4.400000000000000000e+02 6.680296063423156738e-01 -3.036427497863769531e+01 3.905424475669860840e-02 -2.252900600433349609e+00 -6.641539335250854492e-01 4.350105673074722290e-02
4.410000000000000000e+02 1.248951053619384766e+01 -4.160272216796875000e+01 -9.663569927215576172e-01 4.446517467498779297e+00 1.044048190116882324e+00 -2.417758107185363770e-01
4.420000000000000000e+02 1.281736946105957031e+01 -3.129163169860839844e+01 -2.568571567535400391e-01 6.839105606079101562e+00 1.974674463272094727e+00 1.616419255733489990e-01
4.430000000000000000e+02 1.153187561035156250e+01 -3.070778465270996094e+01 -5.450791493058204651e-02 5.928318500518798828e+00 1.762143135070800781e+00 -2.024655342102050781e-01
4.440000000000000000e+02 1.446938991546630859e+01 -2.905013656616210938e+01 8.466099947690963745e-02 7.550948619842529297e+00 2.290682792663574219e+00 1.430430822074413300e-02
4.450000000000000000e+02 1.446361351013183594e+01 -2.771255683898925781e+01 -7.995167374610900879e-02 7.639985561370849609e+00 2.268010139465332031e+00 2.246684394776821136e-02
4.460000000000000000e+02 1.295377540588378906e+01 -1.946048545837402344e+01 2.892648987472057343e-02 6.752089977264404297e+00 2.034305095672607422e+00 2.353785000741481781e-02
4.470000000000000000e+02 1.745558023452758789e+00 -1.059328651428222656e+01 4.467971995472908020e-02 -1.570396900177001953e+00 -4.577151834964752197e-01 -1.478452235460281372e-01
4.480000000000000000e+02 6.173491477966308594e-01 -1.769187355041503906e+01 -1.030166447162628174e-02 -2.563399076461791992e+00 -7.721102237701416016e-01 2.209004387259483337e-02
4.490000000000000000e+02 1.439951038360595703e+01 -1.943178558349609375e+01 -1.823330298066139221e-02 7.882112026214599609e+00 2.359163522720336914e+00 -2.092187292873859406e-02
4.500000000000000000e+02 1.336249923706054688e+01 -1.091271781921386719e+01 6.561900675296783447e-02 7.535055637359619141e+00 2.280202388763427734e+00 1.766490340232849121e-01
4.510000000000000000e+02 3.780097484588623047e+00 -2.009927988052368164e+00 -4.809959828853607178e-01 -1.305183470249176025e-01 -1.834543049335479736e-01 -6.581037640571594238e-01
4.520000000000000000e+02 5.851120352745056152e-01 -1.065463638305664062e+01 1.799804717302322388e-02 -2.406764984130859375e+00 -7.166300415992736816e-01 -3.908862173557281494e-02
4.530000000000000000e+02 1.450199222564697266e+01 4.445995688438415527e-01 4.207339763641357422e+00 5.128792285919189453e+00 2.800839662551879883e+00 2.429064512252807617e+00
4.540000000000000000e+02 1.457679080963134766e+01 -3.964251577854156494e-01 2.569929122924804688e+00 3.708786964416503906e+00 1.883614778518676758e+00 -2.521839141845703125e+00
4.550000000000000000e+02 1.438102912902832031e+01 8.467735052108764648e-01 1.186137199401855469e+00 9.043747901916503906e+00 3.068965435028076172e+00 4.598567485809326172e+00
4.560000000000000000e+02 1.442507457733154297e+01 9.684019088745117188e+00 1.159747410565614700e-02 8.975084304809570312e+00 2.696004629135131836e+00 -6.074348464608192444e-02
4.570000000000000000e+02 1.295998668670654297e+01 1.802268409729003906e+01 1.007131189107894897e-01 7.340519905090332031e+00 2.232369899749755859e+00 1.570123732089996338e-01
4.580000000000000000e+02 6.275726556777954102e-01 1.903434371948242188e+01 9.106460493057966232e-04 -3.124309539794921875e+00 -9.370196461677551270e-01 -2.268276922404766083e-02
4.590000000000000000e+02 1.807444214820861816e+00 1.592046070098876953e+01 2.631345018744468689e-02 -2.084294080734252930e+00 -6.173941493034362793e-01 2.014673501253128052e-02
4.600000000000000000e+02 5.920866131782531738e-01 1.479106903076171875e+01 5.168993026018142700e-03 -3.104711055755615234e+00 -9.298626780509948730e-01 2.539477543905377388e-03
4.610000000000000000e+02 1.578596115112304688e+00 8.996842384338378906e+00 6.355530768632888794e-02 -1.782734632492065430e+00 -5.157538056373596191e-01 2.899311780929565430e-01
4.620000000000000000e+02 9.523400306701660156e+00 2.296730279922485352e+00 -3.666588366031646729e-01 9.780774712562561035e-01 1.834255903959274292e-01 -3.012260198593139648e-01
4.630000000000000000e+02 1.029818058013916016e+01 1.704209923744201660e+00 -5.662404894828796387e-01 1.200117111206054688e+00 1.901629865169525146e-01 -7.718107104301452637e-01
4.640000000000000000e+02 1.598944282531738281e+01 3.311587142944335938e+01 4.094766676425933838e-01 6.369390964508056641e+00 2.033660411834716797e+00 1.523278117179870605e+00
4.650000000000000000e+02 1.725611114501953125e+01 3.682814788818359375e+01 2.602746188640594482e-01 4.609787464141845703e+00 1.461018562316894531e+00 1.435833096504211426e+00
4.660000000000000000e+02 1.907387542724609375e+01 3.913700866699218750e+01 3.532105088233947754e-01 3.606097221374511719e+00 1.187792301177978516e+00 -3.081061542034149170e-01
4.670000000000000000e+02 1.519353771209716797e+01 2.902587318420410156e+01 2.606476843357086182e-01 8.107816696166992188e+00 2.510539293289184570e+00 1.177028656005859375e+00
4.680000000000000000e+02 1.565823554992675781e+01 3.176267051696777344e+01 4.890210330486297607e-01 7.221065998077392578e+00 2.313026189804077148e+00 1.523795247077941895e+00
4.690000000000000000e+02 9.971405982971191406e+00 3.133007812500000000e+01 1.730535477399826050e-01 3.646090030670166016e+00 1.145743131637573242e+00 -1.779081523418426514e-01
4.700000000000000000e+02 2.023092031478881836e+00 3.008425521850585938e+01 1.806726120412349701e-02 -1.426144242286682129e+00 -4.224230945110321045e-01 -2.198083400726318359e-01
4.710000000000000000e+02 6.590005755424499512e-01 2.608815956115722656e+01 6.739530246704816818e-03 -2.759711503982543945e+00 -8.258916139602661133e-01 -6.704564392566680908e-02
4.720000000000000000e+02 1.975255727767944336e+00 2.578578758239746094e+01 1.771334372460842133e-02 -1.765607953071594238e+00 -5.243684053421020508e-01 -1.480493992567062378e-01
4.730000000000000000e+02 1.346266460418701172e+01 2.356857872009277344e+01 1.607066094875335693e-01 7.512555599212646484e+00 2.301978826522827148e+00 3.541314303874969482e-01
4.740000000000000000e+02 1.457431316375732422e+01 2.214549064636230469e+01 1.271617561578750610e-01 8.842085838317871094e+00 2.690774202346801758e+00 4.519765675067901611e-01
4.750000000000000000e+02 1.357255363464355469e+01 2.492669296264648438e+01 1.107622310519218445e-01 7.470840930938720703e+00 2.274481058120727539e+00 4.914775788784027100e-01
4.760000000000000000e+02 1.274494552612304688e+01 3.307001495361328125e+01 1.633456647396087646e-01 4.889884948730468750e+00 1.515969157218933105e+00 2.676173746585845947e-01
4.770000000000000000e+02 1.164614796638488770e+00 2.142595291137695312e+00 -8.772695809602737427e-02 -3.151434957981109619e-01 -1.208611354231834412e-01 2.743866741657257080e-01
4.780000000000000000e+02 5.023573637008666992e-01 6.376650810241699219e+00 5.928200203925371170e-03 -1.776717305183410645e+00 -5.312367081642150879e-01 1.568610519170761108e-01
4.790000000000000000e+02 5.109842777252197266e+00 2.630297183990478516e+00 -5.010547637939453125e-01 -9.014253318309783936e-02 -1.773591786623001099e-01 8.955160975456237793e-01
4.800000000000000000e+02 1.459603881835937500e+01 -7.025133609771728516e+00 4.612716659903526306e-02 9.489998817443847656e+00 2.860837697982788086e+00 1.052303910255432129e-01
4.810000000000000000e+02 1.461511325836181641e+01 -8.361028671264648438e+00 -2.834508568048477173e-02 9.042326927185058594e+00 2.704194545745849609e+00 6.870255619287490845e-02
4.820000000000000000e+02 1.445101642608642578e+01 -1.802171897888183594e+01 2.499506808817386627e-02 7.926209449768066406e+00 2.385361433029174805e+00 -1.274731382727622986e-02
4.830000000000000000e+02 1.453205871582031250e+01 -4.344365119934082031e+00 -8.096657693386077881e-04 1.053271770477294922e+01 3.159572362899780273e+00 1.466105878353118896e-01
4.840000000000000000e+02 1.021165657043457031e+01 -1.901266694068908691e+00 -1.375892460346221924e-01 1.228144288063049316e+00 3.271665275096893311e-01 9.765530824661254883e-01
4.850000000000000000e+02 1.225081253051757812e+01 -1.063387870788574219e+01 1.279439330101013184e-01 6.491065502166748047e+00 1.985702872276306152e+00 2.918055951595306396e-01
4.860000000000000000e+02 6.682458519935607910e-01 -3.176677894592285156e+01 -3.622180595993995667e-02 -2.181727886199951172e+00 -6.653849482536315918e-01 3.400215506553649902e-02
4.870000000000000000e+02 9.382861256599426270e-01 -3.728691101074218750e+01 -4.908503219485282898e-02 -1.438205718994140625e+00 -4.461872279644012451e-01 1.498259603977203369e-01
4.880000000000000000e+02 9.519010543823242188e+00 -3.939875793457031250e+01 -4.965884983539581299e-01 3.348184823989868164e+00 8.554789423942565918e-01 3.987217843532562256e-01
4.890000000000000000e+02 3.228181123733520508e+00 -3.779220962524414062e+01 -2.996636787429451942e-03 -2.156521379947662354e-01 -6.559463590383529663e-02 3.020790517330169678e-01
4.900000000000000000e+02 6.208299255371093750e+01 -4.038375091552734375e+01 -5.196110531687736511e-02 7.801023006439208984e+00 2.324718475341796875e+00 -9.798081591725349426e-03
4.910000000000000000e+02 6.703621673583984375e+01 -2.979201698303222656e+01 -2.206611447036266327e-02 7.829439640045166016e+00 2.342211961746215820e+00 -4.901660978794097900e-02
4.920000000000000000e+02 6.610454559326171875e+01 -2.433358192443847656e+01 -2.157513238489627838e-02 7.807767868041992188e+00 2.335857868194580078e+00 -6.815451383590698242e-02
4.930000000000000000e+02 6.475180816650390625e+01 -1.769926261901855469e+01 -1.589479111135005951e-02 7.781513690948486328e+00 2.329685688018798828e+00 -8.409905433654785156e-02
4.940000000000000000e+02 6.377291870117187500e+01 -8.204012870788574219e+00 7.782256230711936951e-03 7.753979206085205078e+00 2.328528404235839844e+00 -8.963698148727416992e-02
4.950000000000000000e+02 6.757287597656250000e+01 -5.643210411071777344e+00 7.934267632663249969e-03 7.752398014068603516e+00 2.328099727630615234e+00 -7.628718763589859009e-02
4.960000000000000000e+02 6.457467651367187500e+01 5.367861270904541016e+00 2.419110015034675598e-02 7.723246097564697266e+00 2.324231147766113281e+00 -6.487918645143508911e-02
4.970000000000000000e+02 6.717130279541015625e+01 1.234763622283935547e+01 1.728814281523227692e-02 7.700930118560791016e+00 2.315465450286865234e+00 -4.413093626499176025e-02
4.980000000000000000e+02 6.246717453002929688e+01 1.966721153259277344e+01 2.946432679891586304e-02 7.715958595275878906e+00 2.323626995086669922e+00 -2.620556019246578217e-02
4.990000000000000000e+02 6.566548156738281250e+01 2.256644439697265625e+01 1.922572590410709381e-02 7.697393417358398438e+00 2.314985752105712891e+00 -1.837450079619884491e-02
5.000000000000000000e+02 6.154117965698242188e+01 3.426425170898437500e+01 9.834653697907924652e-03 7.727063655853271484e+00 2.321069478988647461e+00 -4.509189166128635406e-03
5.010000000000000000e+02 6.236357116699218750e+01 4.096971893310546875e+01 3.601642791181802750e-03 7.724285125732421875e+00 2.318366050720214844e+00 -3.597326576709747314e-03
5.020000000000000000e+02 6.068455123901367188e+01 -3.635382080078125000e+01 -6.115546450018882751e-02 7.789040565490722656e+00 2.318365573883056641e+00 -3.289018943905830383e-02
5.030000000000000000e+02 7.175534057617187500e+01 -4.077969360351562500e+01 -1.197917945683002472e-02 7.892260074615478516e+00 2.364084243774414062e+00 -5.379584617912769318e-03
5.040000000000000000e+02 7.163751983642578125e+01 -3.005992507934570312e+01 -1.585424691438674927e-02 7.865917682647705078e+00 2.355019092559814453e+00 -3.789103031158447266e-02
5.050000000000000000e+02 7.089794921875000000e+01 -2.332535171508789062e+01 -8.607604540884494781e-03 7.835173606872558594e+00 2.347969770431518555e+00 -5.328154936432838440e-02
5.060000000000000000e+02 7.306645202636718750e+01 -1.736424255371093750e+01 -1.610520994290709496e-04 7.823006153106689453e+00 2.346853494644165039e+00 -5.159067735075950623e-02
5.070000000000000000e+02 7.139373779296875000e+01 -9.482554435729980469e+00 7.549542351625859737e-04 7.772184371948242188e+00 2.331881761550903320e+00 -6.265807896852493286e-02
5.080000000000000000e+02 7.029631805419921875e+01 -3.997867107391357422e+00 5.046715959906578064e-03 7.746443271636962891e+00 2.325447082519531250e+00 -6.356454640626907349e-02
5.090000000000000000e+02 7.284992980957031250e+01 4.337417125701904297e+00 5.442416761070489883e-03 7.704631805419921875e+00 2.313022375106811523e+00 -4.124865680932998657e-02
5.100000000000000000e+02 7.236467742919921875e+01 1.161185646057128906e+01 8.131393231451511383e-03 7.678456306457519531e+00 2.305976390838623047e+00 -3.338895365595817566e-02
5.110000000000000000e+02 7.221053314208984375e+01 1.802276420593261719e+01 6.192766129970550537e-03 7.663092613220214844e+00 2.300785541534423828e+00 -1.992309466004371643e-02
5.120000000000000000e+02 7.154918670654296875e+01 2.638125038146972656e+01 5.571557674556970596e-03 7.656282901763916016e+00 2.298556327819824219e+00 -9.013396687805652618e-03
5.130000000000000000e+02 7.214566802978515625e+01 3.020669364929199219e+01 3.571469802409410477e-03 7.648410797119140625e+00 2.295594692230224609e+00 -4.625916481018066406e-03
5.140000000000000000e+02 7.231711578369140625e+01 3.571262359619140625e+01 -2.326424728380516171e-04 7.645487308502197266e+00 2.293576240539550781e+00 -3.191415453329682350e-03
5.150000000000000000e+02 6.988295745849609375e+01 3.706962966918945312e+01 2.934776013717055321e-03 7.663058757781982422e+00 2.299798011779785156e+00 7.963109965203329921e-05
5.160000000000000000e+02 6.710129547119140625e+01 -3.674031829833984375e+01 -3.252259641885757446e-02 7.835885524749755859e+00 2.341008901596069336e+00 -2.545692957937717438e-02
5.170000000000000000e+02 7.795001983642578125e+01 -4.162072753906250000e+01 3.936188761144876480e-03 7.973263263702392578e+00 2.393159866333007812e+00 1.160142244771122932e-03
5.180000000000000000e+02 7.799839019775390625e+01 -3.688656997680664062e+01 8.166608749888837337e-04 7.965486526489257812e+00 2.389890909194946289e+00 -2.530181547626852989e-03
5.190000000000000000e+02 7.932648468017578125e+01 -3.340236663818359375e+01 1.148927258327603340e-03 7.973909854888916016e+00 2.392517566680908203e+00 -3.562500467523932457e-03
5.200000000000000000e+02 7.780876922607421875e+01 -3.060150909423828125e+01 -1.436649006791412830e-03 7.939610481262207031e+00 2.381452083587646484e+00 -1.167824119329452515e-02
5.210000000000000000e+02 7.928646087646484375e+01 -2.642358779907226562e+01 -3.950508253183215857e-04 7.935055255889892578e+00 2.380398035049438477e+00 -5.908631253987550735e-03
5.220000000000000000e+02 7.793581390380859375e+01 -2.351002883911132812e+01 8.829312282614409924e-04 7.899048328399658203e+00 2.369979381561279297e+00 -1.554694026708602905e-02
5.230000000000000000e+02 7.801264190673828125e+01 -1.657754135131835938e+01 -1.766972127370536327e-03 7.846696853637695312e+00 2.353478908538818359e+00 -1.803226955235004425e-02
5.240000000000000000e+02 7.798084259033203125e+01 -9.647929191589355469e+00 5.800134968012571335e-04 7.789438724517822266e+00 2.337005615234375000e+00 -1.871345750987529755e-02
5.250000000000000000e+02 7.800369262695312500e+01 -2.669355869293212891e+00 4.889388219453394413e-04 7.732721328735351562e+00 2.319963216781616211e+00 -1.734186522662639618e-02
5.260000000000000000e+02 7.799395751953125000e+01 4.319278717041015625e+00 1.698644191492348909e-04 7.683508872985839844e+00 2.305103540420532227e+00 -1.406043954193592072e-02
5.270000000000000000e+02 7.799660491943359375e+01 1.128028202056884766e+01 1.368590863421559334e-03 7.644723892211914062e+00 2.293827772140502930e+00 -1.078131143003702164e-02
5.280000000000000000e+02 7.783578491210937500e+01 1.966052055358886719e+01 1.459296909160912037e-03 7.616317272186279297e+00 2.285332918167114258e+00 -6.458447314798831940e-03
5.290000000000000000e+02 7.612041473388671875e+01 2.273699951171875000e+01 1.146619091741740704e-03 7.624622344970703125e+00 2.287730693817138672e+00 -7.029844913631677628e-03
5.300000000000000000e+02 7.929137420654296875e+01 3.206012344360351562e+01 1.346815610304474831e-03 7.585819244384765625e+00 2.276149749755859375e+00 -8.924525463953614235e-04
5.310000000000000000e+02 7.739027404785156250e+01 3.839834594726562500e+01 3.900532145053148270e-03 7.600502490997314453e+00 2.281320810317993164e+00 2.122698584571480751e-03
5.320000000000000000e+02 7.923118591308593750e+01 3.751717758178710938e+01 1.106928219087421894e-03 7.587098598480224609e+00 2.276461601257324219e+00 5.583830061368644238e-04
5.330000000000000000e+02 4.242814254760742188e+01 4.045027160644531250e+01 -3.691079467535018921e-02 7.882424354553222656e+00 2.353654146194458008e+00 -2.023663371801376343e-03
5.340000000000000000e+02 4.375944137573242188e+01 3.008243179321289062e+01 4.336925968527793884e-02 7.842336177825927734e+00 2.365711688995361328e+00 3.715878352522850037e-02
5.350000000000000000e+02 4.493608856201171875e+01 2.066689682006835938e+01 8.269244432449340820e-02 7.816943645477294922e+00 2.369890928268432617e+00 -6.433183327317237854e-03
5.360000000000000000e+02 4.111822509765625000e+01 1.707587432861328125e+01 1.024442687630653381e-01 7.842528343200683594e+00 2.383491754531860352e+00 -4.630515817552804947e-03
5.370000000000000000e+02 4.084731674194335938e+01 9.958255767822265625e+00 1.056140139698982239e-01 7.820637702941894531e+00 2.377875566482543945e+00 -2.307718805968761444e-02
5.380000000000000000e+02 4.383897781372070312e+01 2.092156887054443359e+00 7.625220715999603271e-02 7.774504184722900391e+00 2.355226993560791016e+00 -5.689004808664321899e-02
5.390000000000000000e+02 4.241789627075195312e+01 -1.982754111289978027e+00 5.568148195743560791e-02 7.756599903106689453e+00 2.343684434890747070e+00 -6.129110977053642273e-02
5.400000000000000000e+02 4.544613265991210938e+01 -9.863080978393554688e+00 1.100363582372665405e-02 7.717390537261962891e+00 2.318518161773681641e+00 -7.817361503839492798e-02
5.410000000000000000e+02 4.048484039306640625e+01 -1.665359497070312500e+01 -3.858839347958564758e-02 7.659257888793945312e+00 2.286201000213623047e+00 -4.600653797388076782e-02
5.420000000000000000e+02 4.580438995361328125e+01 -3.044851684570312500e+01 -1.115839034318923950e-01 7.636988639831542969e+00 2.257621288299560547e+00 -6.823986768722534180e-02
5.430000000000000000e+02 3.738859558105468750e+01 4.059831237792968750e+01 -9.637312591075897217e-02 7.937654018402099609e+00 2.352384328842163086e+00 4.947574809193611145e-02
5.440000000000000000e+02 4.211915969848632812e+01 3.626034927368164062e+01 -2.020894922316074371e-02 7.887566566467285156e+00 2.360207319259643555e+00 4.640657827258110046e-02
5.450000000000000000e+02 3.662955474853515625e+01 3.033888435363769531e+01 7.273434847593307495e-02 7.871358871459960938e+00 2.383227825164794922e+00 2.926262095570564270e-02
5.460000000000000000e+02 3.802824783325195312e+01 2.661702919006347656e+01 8.840048313140869141e-02 7.871204376220703125e+00 2.387881517410278320e+00 1.619768328964710236e-02
5.470000000000000000e+02 3.567854690551757812e+01 1.605056381225585938e+01 1.040149480104446411e-01 7.926431655883789062e+00 2.409133911132812500e+00 7.034060545265674591e-03
5.480000000000000000e+02 3.548779296875000000e+01 1.242276096343994141e+01 1.150437146425247192e-01 7.916774749755859375e+00 2.409545660018920898e+00 1.321142725646495819e-02
5.490000000000000000e+02 3.507456970214843750e+01 7.069663405418395996e-01 7.734463363885879517e-02 7.825705051422119141e+00 2.370914936065673828e+00 -8.285083808004856110e-03
5.500000000000000000e+02 3.650012969970703125e+01 -1.527212500572204590e+00 5.474943667650222778e-02 7.793524742126464844e+00 2.354482173919677734e+00 -2.085446938872337341e-02
5.510000000000000000e+02 3.468865203857421875e+01 -9.195734977722167969e+00 1.441373489797115326e-02 7.718459129333496094e+00 2.319861888885498047e+00 1.915892772376537323e-02
5.520000000000000000e+02 3.432268524169921875e+01 -1.615351104736328125e+01 -6.349388044327497482e-03 7.613557815551757812e+00 2.282162427902221680e+00 1.961600966751575470e-02
5.530000000000000000e+02 3.725074005126953125e+01 -2.286127090454101562e+01 -6.929784268140792847e-02 7.579286098480224609e+00 2.252996444702148438e+00 -7.885062135756015778e-03
5.540000000000000000e+02 3.580216598510742188e+01 -2.676952171325683594e+01 -8.680384606122970581e-02 7.510773181915283203e+00 2.227190732955932617e+00 -1.010259706526994705e-02
5.550000000000000000e+02 3.240100479125976562e+01 4.094252777099609375e+01 -1.764367967844009399e-01 7.930283069610595703e+00 2.326153993606567383e+00 7.654503919184207916e-03
5.560000000000000000e+02 3.149923706054687500e+01 3.815158081054687500e+01 -1.230790838599205017e-01 7.929522037506103516e+00 2.341932773590087891e+00 1.334616094827651978e-01
5.570000000000000000e+02 2.923805999755859375e+01 3.365606689453125000e+01 1.448444128036499023e-01 7.883167266845703125e+00 2.408403635025024414e+00 6.968708336353302002e-02
5.580000000000000000e+02 2.854990577697753906e+01 2.528916168212890625e+01 8.780375868082046509e-02 8.089669227600097656e+00 2.453241825103759766e+00 -4.445776715874671936e-02
5.590000000000000000e+02 2.715634727478027344e+01 1.925955390930175781e+01 4.725998267531394958e-02 8.128596305847167969e+00 2.452756881713867188e+00 -2.935488708317279816e-03
5.600000000000000000e+02 2.771335029602050781e+01 1.098696899414062500e+01 9.829019755125045776e-02 8.104412078857421875e+00 2.460810899734497070e+00 8.491032570600509644e-02
5.610000000000000000e+02 2.749572372436523438e+01 5.189907550811767578e+00 1.539096087217330933e-01 8.021868705749511719e+00 2.452733516693115234e+00 8.663947880268096924e-02
5.620000000000000000e+02 2.825125503540039062e+01 -5.724913597106933594e+00 -1.915846392512321472e-02 7.800346374511718750e+00 2.334356307983398438e+00 1.280877143144607544e-01
5.630000000000000000e+02 2.885619354248046875e+01 -1.118871307373046875e+01 2.511114627122879028e-02 7.648040294647216797e+00 2.301945447921752930e+00 1.160887554287910461e-01
5.640000000000000000e+02 2.584874534606933594e+01 -1.810170936584472656e+01 -6.007707491517066956e-02 7.490544795989990234e+00 2.229140281677246094e+00 1.207979470491409302e-01
5.650000000000000000e+02 2.677696990966796875e+01 -1.496465301513671875e+01 1.037867087870836258e-02 7.572700500488281250e+00 2.274923801422119141e+00 1.193698272109031677e-01
5.660000000000000000e+02 1.708491325378417969e+01 3.790667724609375000e+01 -3.888471424579620361e-01 3.769389390945434570e+00 1.014162659645080566e+00 1.011467695236206055e+00
5.670000000000000000e+02 2.366873741149902344e+00 3.674098205566406250e+01 -2.017929218709468842e-02 -7.055202722549438477e-01 -2.177098691463470459e-01 -2.660906314849853516e-01
5.680000000000000000e+02 6.656601428985595703e-01 3.316446304321289062e+01 -1.699710264801979065e-02 -1.944188356399536133e+00 -5.883556008338928223e-01 -8.853410184383392334e-02
5.690000000000000000e+02 2.057557582855224609e+00 4.164063262939453125e+01 -2.510364055633544922e-01 -6.722706556320190430e-01 -2.769921123981475830e-01 -7.118937373161315918e-02
5.700000000000000000e+02 2.168527030944824219e+01 -5.075109004974365234e+00 -1.355707049369812012e-01 7.691527843475341797e+00 2.266787290573120117e+00 2.558720409870147705e-01
5.710000000000000000e+02 2.062982368469238281e+01 -7.076444625854492188e-01 -1.440639141947031021e-02 7.725713253021240234e+00 2.313391923904418945e+00 3.258022069931030273e-01
5.720000000000000000e+02 1.099646663665771484e+01 3.731776809692382812e+01 -3.387243449687957764e-01 3.522050619125366211e+00 9.549978971481323242e-01 -1.682455837726593018e-01
5.730000000000000000e+02 3.929744720458984375e+01 2.929477691650390625e+01 6.482347846031188965e-02 7.878913402557373047e+00 2.383121013641357422e+00 4.198767989873886108e-02
5.740000000000000000e+02 5.768512344360351562e+01 3.199963760375976562e+01 1.591515168547630310e-02 7.752549171447753906e+00 2.330539226531982422e+00 -2.308542374521493912e-03
5.750000000000000000e+02 5.976790237426757812e+01 2.667612648010253906e+01 2.607681415975093842e-02 7.735811233520507812e+00 2.328566312789916992e+00 -7.111546117812395096e-03
5.760000000000000000e+02 2.647393035888671875e+01 2.560756492614746094e+01 6.960601359605789185e-02 8.171067237854003906e+00 2.472201824188232422e+00 -8.811896294355392456e-02
5.770000000000000000e+02 3.509487152099609375e+01 2.503297805786132812e+01 1.074130907654762268e-01 7.907512187957763672e+00 2.404477596282958984e+00 7.999556255526840687e-04
5.780000000000000000e+02 4.197104644775390625e+01 2.380000495910644531e+01 8.101712912321090698e-02 7.843803405761718750e+00 2.377446174621582031e+00 7.373194675892591476e-03
5.790000000000000000e+02 4.877666854858398438e+01 2.515303802490234375e+01 4.918683692812919617e-02 7.806427478790283203e+00 2.356684207916259766e+00 4.215608816593885422e-03
5.800000000000000000e+02 7.931181335449218750e+01 2.928766441345214844e+01 1.309341751039028168e-03 7.587856769561767578e+00 2.276749849319458008e+00 -9.261373779736459255e-04
5.810000000000000000e+02 2.117887115478515625e+01 2.973509979248046875e+01 2.516728267073631287e-02 8.470557212829589844e+00 2.548717498779296875e+00 -5.282135680317878723e-02
5.820000000000000000e+02 7.927526855468750000e+01 2.377097511291503906e+01 1.163384411484003067e-03 7.594331741333007812e+00 2.278648614883422852e+00 -1.908042002469301224e-03
5.830000000000000000e+02 7.280808258056640625e+01 2.462375831604003906e+01 4.430405329912900925e-03 7.648321151733398438e+00 2.295825481414794922e+00 -9.684007614850997925e-03
5.840000000000000000e+02 6.636916351318359375e+01 2.556902122497558594e+01 1.547818630933761597e-02 7.692257881164550781e+00 2.312320709228515625e+00 -1.309041399508714676e-02
5.850000000000000000e+02 6.081273651123046875e+01 1.801225471496582031e+01 3.256822004914283752e-02 7.724509239196777344e+00 2.327123165130615234e+00 -3.299092128872871399e-02
5.860000000000000000e+02 4.633942413330078125e+01 1.951635932922363281e+01 7.738240808248519897e-02 7.811677932739257812e+00 2.366718053817749023e+00 -5.466959439218044281e-03
5.870000000000000000e+02 3.273206329345703125e+01 1.855477905273437500e+01 9.019851684570312500e-02 8.001173019409179688e+00 2.427411556243896484e+00 5.663242191076278687e-03
5.880000000000000000e+02 2.602907943725585938e+01 1.925077056884765625e+01 3.092958033084869385e-02 8.163227081298828125e+00 2.458246946334838867e+00 -7.778113940730690956e-04
5.890000000000000000e+02 2.114907264709472656e+01 2.834820365905761719e+01 -3.436555853113532066e-03 8.392251014709472656e+00 2.516644477844238281e+00 -2.659515477716922760e-02
5.900000000000000000e+02 2.630444145202636719e+01 1.249667739868164062e+01 6.434921920299530029e-02 8.161614418029785156e+00 2.467788934707641602e+00 7.190653681755065918e-02
5.910000000000000000e+02 4.289228820800781250e+01 8.850878715515136719e+00 9.884933382272720337e-02 7.808715820312500000e+00 2.372269392013549805e+00 -3.390740230679512024e-02
5.920000000000000000e+02 5.552449417114257812e+01 1.292160034179687500e+01 5.641683191061019897e-02 7.744213104248046875e+00 2.340188980102539062e+00 -4.532484337687492371e-02
5.930000000000000000e+02 4.741144180297851562e+01 8.935745239257812500e+00 8.098848909139633179e-02 7.770672798156738281e+00 2.355498552322387695e+00 -5.069462582468986511e-02
5.940000000000000000e+02 6.558908843994140625e+01 1.364050483703613281e+01 2.459954842925071716e-02 7.705346107482910156e+00 2.318983554840087891e+00 -4.086496680974960327e-02
5.950000000000000000e+02 7.249248504638671875e+01 1.671911239624023438e+01 8.599037304520606995e-03 7.663656234741210938e+00 2.301676511764526367e+00 -2.342607267200946808e-02
5.960000000000000000e+02 7.930878448486328125e+01 1.676848602294921875e+01 -6.579750915989279747e-04 7.611538410186767578e+00 2.283264160156250000e+00 -2.723977202549576759e-03
5.970000000000000000e+02 2.105280113220214844e+01 1.728538894653320312e+01 1.675531617365777493e-03 8.245965957641601562e+00 2.474292516708374023e+00 2.649613423272967339e-03
5.980000000000000000e+02 2.745462608337402344e+01 3.748382568359375000e+00 1.347087621688842773e-01 7.990253448486328125e+00 2.437488794326782227e+00 8.013761788606643677e-02
5.990000000000000000e+02 3.376658630371093750e+01 3.010359287261962891e+00 1.016222685575485229e-01 7.858347892761230469e+00 2.387990951538085938e+00 6.421150639653205872e-03
6.000000000000000000e+02 4.043080902099609375e+01 6.386641979217529297e+00 1.017778441309928894e-01 7.812620162963867188e+00 2.374319314956665039e+00 -3.303500637412071228e-02
6.010000000000000000e+02 5.991813659667968750e+01 3.786722898483276367e+00 3.472346439957618713e-02 7.734399318695068359e+00 2.330736875534057617e+00 -7.512138783931732178e-02
6.020000000000000000e+02 4.602038192749023438e+01 3.415496110916137695e+00 7.437212765216827393e-02 7.769788265228271484e+00 2.353248119354248047e+00 -6.276568025350570679e-02
6.030000000000000000e+02 6.607073211669921875e+01 1.084656047821044922e+01 2.319563180208206177e-02 7.707726955413818359e+00 2.319276809692382812e+00 -4.736090078949928284e-02
6.040000000000000000e+02 7.249250793457031250e+01 7.217035293579101562e+00 6.741996388882398605e-03 7.693962574005126953e+00 2.310211420059204102e+00 -3.843872621655464172e-02
6.050000000000000000e+02 7.933114624023437500e+01 8.411207199096679688e+00 -5.957326502539217472e-04 7.650160312652587891e+00 2.294869422912597656e+00 -4.485059529542922974e-03
6.060000000000000000e+02 2.231392478942871094e+01 8.759225845336914062e+00 3.637194260954856873e-02 8.391241073608398438e+00 2.528283834457397461e+00 1.001054272055625916e-01
6.070000000000000000e+02 2.693605422973632812e+01 -2.995017766952514648e+00 -9.802731685340404510e-03 7.867155075073242188e+00 2.357205629348754883e+00 1.259408444166183472e-01
6.080000000000000000e+02 3.458796310424804688e+01 -2.970499038696289062e+00 3.877242282032966614e-02 7.794651508331298828e+00 2.350027084350585938e+00 9.382224525325000286e-04
6.090000000000000000e+02 4.113250350952148438e+01 -2.353109836578369141e+00 5.795069783926010132e-02 7.762079238891601562e+00 2.346009016036987305e+00 -5.270649492740631104e-02
6.100000000000000000e+02 5.870433807373046875e+01 -1.124553680419921875e+00 2.589139714837074280e-02 7.736267089843750000e+00 2.328647613525390625e+00 -8.783949166536331177e-02
6.110000000000000000e+02 4.972726440429687500e+01 -2.714146852493286133e+00 3.829824924468994141e-02 7.738221168518066406e+00 2.332955837249755859e+00 -8.821132034063339233e-02
6.120000000000000000e+02 6.444864654541015625e+01 1.927968740463256836e+00 1.862536557018756866e-02 7.728272914886474609e+00 2.324069499969482422e+00 -7.465547323226928711e-02
6.130000000000000000e+02 7.286392211914062500e+01 1.660843729972839355e+00 5.250979680567979813e-03 7.717704772949218750e+00 2.316886663436889648e+00 -4.462167993187904358e-02
6.140000000000000000e+02 7.932740783691406250e+01 2.833254337310791016e+00 -3.691430320031940937e-04 7.686818122863769531e+00 2.305934667587280273e+00 -5.617700982838869095e-03
6.150000000000000000e+02 2.205758094787597656e+01 1.773187994956970215e+00 -2.781032398343086243e-02 8.159590721130371094e+00 2.439534187316894531e+00 2.470289915800094604e-01
6.160000000000000000e+02 2.031949806213378906e+01 -7.597689628601074219e+00 -1.387156639248132706e-02 7.561947345733642578e+00 2.264422655105590820e+00 1.203066557645797729e-01
6.170000000000000000e+02 2.022204017639160156e+01 -1.174916267395019531e+01 -2.034904807806015015e-02 7.753196716308593750e+00 2.319854259490966797e+00 2.592407166957855225e-01
6.180000000000000000e+02 3.613162231445312500e+01 -1.559507465362548828e+01 -8.476772345602512360e-03 7.634627819061279297e+00 2.287845373153686523e+00 -1.806772314012050629e-03
6.190000000000000000e+02 4.374809265136718750e+01 -1.645979881286621094e+01 -3.194146603345870972e-02 7.676856994628906250e+00 2.293474674224853516e+00 -6.969566643238067627e-02
6.200000000000000000e+02 5.480173492431640625e+01 -2.016036033630371094e+01 -3.908729925751686096e-02 7.731436729431152344e+00 2.307704687118530273e+00 -9.638014435768127441e-02
6.210000000000000000e+02 5.150304794311523438e+01 -1.697112464904785156e+01 -1.647514477372169495e-02 7.716829299926757812e+00 2.310106277465820312e+00 -9.608695656061172485e-02
6.220000000000000000e+02 6.183343887329101562e+01 -9.696967124938964844e+00 6.154840346425771713e-03 7.752841949462890625e+00 2.327698945999145508e+00 -9.411989152431488037e-02
6.230000000000000000e+02 7.274622344970703125e+01 -1.247138595581054688e+01 -7.369184459093958139e-05 7.794840335845947266e+00 2.338430166244506836e+00 -5.511700734496116638e-02
6.240000000000000000e+02 7.932815551757812500e+01 -1.250038051605224609e+01 -9.425501921214163303e-04 7.817897796630859375e+00 2.345086574554443359e+00 -6.926663219928741455e-03
6.250000000000000000e+02 7.933127593994140625e+01 -5.533732891082763672e+00 1.417466501152375713e-05 7.755072116851806641e+00 2.326525926589965820e+00 -6.739550270140171051e-03
6.260000000000000000e+02 7.286660766601562500e+01 -5.270803928375244141e+00 2.318824641406536102e-03 7.752175807952880859e+00 2.326348304748535156e+00 -5.321145430207252502e-02
6.270000000000000000e+02 6.567589569091796875e+01 -6.807315349578857422e+00 8.525981567800045013e-03 7.753501892089843750e+00 2.328608274459838867e+00 -8.378441631793975830e-02
6.280000000000000000e+02 4.340535736083984375e+01 -5.722253322601318359e+00 2.958613075315952301e-02 7.734716892242431641e+00 2.329290866851806641e+00 -7.036571949720382690e-02
6.290000000000000000e+02 3.477831649780273438e+01 -1.081985092163085938e+01 -5.854412447661161423e-03 7.690018653869628906e+00 2.305249214172363281e+00 4.607510287314653397e-03
6.300000000000000000e+02 2.695335006713867188e+01 -1.008456611633300781e+01 1.604693569242954254e-02 7.676801681518554688e+00 2.307854652404785156e+00 1.699942052364349365e-01
6.310000000000000000e+02 4.149676132202148438e+01 -2.663209724426269531e+01 -8.004160970449447632e-02 7.591940879821777344e+00 2.253569841384887695e+00 -6.219874694943428040e-02
6.320000000000000000e+02 5.710570907592773438e+01 -2.309417343139648438e+01 -4.373112693428993225e-02 7.742390155792236328e+00 2.309597730636596680e+00 -9.059047698974609375e-02
6.330000000000000000e+02 6.597592163085937500e+01 -1.932487297058105469e+01 -1.075524557381868362e-02 7.791187763214111328e+00 2.334129810333251953e+00 -7.933499664068222046e-02
6.340000000000000000e+02 7.245240020751953125e+01 -1.850952529907226562e+01 -6.495564710348844528e-03 7.825898170471191406e+00 2.345820903778076172e+00 -5.253386870026588440e-02
6.350000000000000000e+02 7.931903076171875000e+01 -2.223826026916503906e+01 1.174153992906212807e-03 7.903384685516357422e+00 2.371367692947387695e+00 -6.041952408850193024e-03
6.360000000000000000e+02 2.146163177490234375e+01 -3.077311515808105469e+01 -4.492859542369842529e-02 7.431794166564941406e+00 2.216059684753417969e+00 1.447196751832962036e-01
6.370000000000000000e+02 3.068421745300292969e+01 -3.246374130249023438e+01 -3.524271771311759949e-02 7.338161945343017578e+00 2.190875768661499023e+00 -1.876760832965373993e-02
6.380000000000000000e+02 3.759044647216796875e+01 -3.723108291625976562e+01 -1.955870836973190308e-01 7.510924816131591797e+00 2.194601297378540039e+00 -4.837942123413085938e-02
6.390000000000000000e+02 6.547139739990234375e+01 -3.196590805053710938e+01 -3.524098917841911316e-02 7.819977760314941406e+00 2.335421085357666016e+00 -4.478426650166511536e-02
6.400000000000000000e+02 7.301318359375000000e+01 -3.227495574951171875e+01 -1.173992641270160675e-02 7.883982181549072266e+00 2.361672639846801758e+00 -3.022115863859653473e-02
6.410000000000000000e+02 7.278011322021484375e+01 -2.332538795471191406e+01 -6.037931423634290695e-03 7.850266456604003906e+00 2.353268623352050781e+00 -4.569420218467712402e-02
6.420000000000000000e+02 6.711048889160156250e+01 -2.628748321533203125e+01 -1.807623729109764099e-02 7.820608139038085938e+00 2.340759515762329102e+00 -5.991389229893684387e-02
6.430000000000000000e+02 3.034775161743164062e+01 -2.431727600097656250e+01 -6.525070220232009888e-02 7.464526653289794922e+00 2.219782829284667969e+00 7.969909161329269409e-02
6.440000000000000000e+02 1.960888862609863281e+01 -2.537361526489257812e+01 6.071250513195991516e-02 7.104286193847656250e+00 2.149499654769897461e+00 7.996316254138946533e-02
6.450000000000000000e+02 2.389740753173828125e+01 -3.820698928833007812e+01 -3.513149917125701904e-01 6.901656150817871094e+00 1.965102314949035645e+00 -1.004273593425750732e-01
6.460000000000000000e+02 1.334277820587158203e+01 -1.659696578979492188e+01 2.422561496496200562e-02 7.160854339599609375e+00 2.155524015426635742e+00 3.341136500239372253e-02
6.470000000000000000e+02 1.330629348754882812e+01 -2.373827934265136719e+01 -3.941900283098220825e-02 6.964335918426513672e+00 2.077475070953369141e+00 2.848923392593860626e-02
6.480000000000000000e+02 1.334824466705322266e+01 1.242947196960449219e+01 4.952263087034225464e-02 7.744142055511474609e+00 2.338099479675292969e+00 -6.731289625167846680e-02
6.490000000000000000e+02 1.312461090087890625e+01 9.920779228210449219e+00 1.188031956553459167e-01 7.703965187072753906e+00 2.346830368041992188e+00 -2.740106284618377686e-01
6.500000000000000000e+02 1.306338882446289062e+01 1.943567466735839844e+01 1.166840419173240662e-01 7.418225765228271484e+00 2.260472774505615234e+00 1.968303173780441284e-01
6.510000000000000000e+02 1.443758010864257812e+01 1.937191963195800781e+01 8.935820311307907104e-02 8.774672508239746094e+00 2.659209251403808594e+00 1.595425903797149658e-01
6.520000000000000000e+02 1.449480819702148438e+01 2.076073455810546875e+01 4.836272820830345154e-02 8.863258361816406250e+00 2.673486232757568359e+00 2.956502437591552734e-01
6.530000000000000000e+02 1.330573844909667969e+01 1.117215919494628906e+01 3.109459951519966125e-02 7.806329727172851562e+00 2.351227283477783203e+00 -1.416068077087402344e-01
6.540000000000000000e+02 2.124425315856933594e+01 3.395946502685546875e+01 6.530360132455825806e-02 9.166057586669921875e+00 2.769408226013183594e+00 -2.696377336978912354e-01
6.550000000000000000e+02 2.120845985412597656e+01 3.112878990173339844e+01 -2.848959062248468399e-03 8.583918571472167969e+00 2.574320793151855469e+00 -6.818947941064834595e-02
6.560000000000000000e+02 2.108706092834472656e+01 2.419510841369628906e+01 4.370841197669506073e-03 8.278559684753417969e+00 2.484879255294799805e+00 -1.139025017619132996e-02
6.570000000000000000e+02 2.238995170593261719e+01 2.393407440185546875e+01 3.388901241123676300e-03 8.260993003845214844e+00 2.479314565658569336e+00 -2.302642166614532471e-02
6.580000000000000000e+02 2.106970024108886719e+01 2.143049430847167969e+01 1.763983862474560738e-03 8.249584197998046875e+00 2.475404262542724609e+00 -4.926358349621295929e-03
6.590000000000000000e+02 2.105685424804687500e+01 1.866675376892089844e+01 5.556607502512633801e-04 8.242125511169433594e+00 2.472804546356201172e+00 -1.945960684679448605e-04
6.600000000000000000e+02 2.105114364624023438e+01 1.590401458740234375e+01 1.675825769780203700e-04 8.254076957702636719e+00 2.476273298263549805e+00 4.460257478058338165e-03
6.610000000000000000e+02 2.105303955078125000e+01 1.452254390716552734e+01 2.698478056117892265e-03 8.268856048583984375e+00 2.481466293334960938e+00 7.782324217259883881e-03
6.620000000000000000e+02 2.105473327636718750e+01 1.313821506500244141e+01 3.482478205114603043e-04 8.289963722229003906e+00 2.487093687057495117e+00 1.107982546091079712e-02
6.630000000000000000e+02 2.105937576293945312e+01 1.036568546295166016e+01 2.652511466294527054e-03 8.364750862121582031e+00 2.510221004486083984e+00 2.370086498558521271e-02
6.640000000000000000e+02 2.105787467956542969e+01 8.977867126464843750e+00 7.114999461919069290e-03 8.428277969360351562e+00 2.530617713928222656e+00 3.427882120013237000e-02
6.650000000000000000e+02 2.104257392883300781e+01 6.202932834625244141e+00 2.687517553567886353e-02 8.697059631347656250e+00 2.617180347442626953e+00 1.021351069211959839e-01
6.660000000000000000e+02 2.101994323730468750e+01 4.813382625579833984e+00 1.416650116443634033e-01 8.997116088867187500e+00 2.741634368896484375e+00 2.707722187042236328e-01
6.670000000000000000e+02 2.070238304138183594e+01 6.625952720642089844e-01 -7.886771857738494873e-02 7.594607830047607422e+00 2.254721879959106445e+00 4.907357394695281982e-01
6.680000000000000000e+02 2.033561134338378906e+01 -6.221136569976806641e+00 -6.570107489824295044e-02 7.256490707397460938e+00 2.157236814498901367e+00 2.155712544918060303e-01
6.690000000000000000e+02 2.027476882934570312e+01 -1.036407470703125000e+01 3.878711536526679993e-02 7.898833274841308594e+00 2.381286144256591797e+00 2.526253759860992432e-01
6.700000000000000000e+02 1.994852828979492188e+01 -1.588060569763183594e+01 4.065931774675846100e-03 7.407380580902099609e+00 2.223433971405029297e+00 6.362711787223815918e-01
6.710000000000000000e+02 2.009991073608398438e+01 -1.451383304595947266e+01 1.932746469974517822e-01 8.096464157104492188e+00 2.486921787261962891e+00 5.301615595817565918e-01
6.720000000000000000e+02 1.964578628540039062e+01 -1.993312072753906250e+01 -4.316605255007743835e-02 6.822042942047119141e+00 2.033663034439086914e+00 2.058669775724411011e-01
6.730000000000000000e+02 2.099943923950195312e+01 -2.519758033752441406e+01 -1.270796656608581543e-01 7.170956611633300781e+00 2.113162994384765625e+00 1.666164547204971313e-01
6.740000000000000000e+02 2.243356704711914062e+01 -2.369377708435058594e+01 -9.817823022603988647e-02 7.239343166351318359e+00 2.142349481582641602e+00 1.467077732086181641e-01
6.750000000000000000e+02 1.966217041015625000e+01 -2.814102172851562500e+01 8.549442887306213379e-02 7.322048664093017578e+00 2.222262859344482422e+00 6.604228168725967407e-02
6.760000000000000000e+02 2.129454612731933594e+01 -2.933352279663085938e+01 1.028165966272354126e-01 7.405377388000488281e+00 2.252458333969116211e+00 1.931043118238449097e-01
6.770000000000000000e+02 2.481339263916015625e+01 -3.009954452514648438e+01 8.002960681915283203e-02 7.211256027221679688e+00 2.187385797500610352e+00 1.559486389160156250e-01
6.780000000000000000e+02 1.443530464172363281e+01 -3.037704658508300781e+01 -1.472594738006591797e-01 7.373198032379150391e+00 2.167781591415405273e+00 1.110849902033805847e-01
6.790000000000000000e+02 1.448790645599365234e+01 -2.635033416748046875e+01 4.773991927504539490e-02 7.705639362335205078e+00 2.326013803482055664e+00 -7.884328253567218781e-03
6.800000000000000000e+02 1.450788593292236328e+01 -2.498139381408691406e+01 -4.610840976238250732e-02 7.742757320404052734e+00 2.308994531631469727e+00 -1.188747398555278778e-02
6.810000000000000000e+02 1.446685504913330078e+01 -2.223831748962402344e+01 -2.760668098926544189e-02 7.813504219055175781e+00 2.335769176483154297e+00 -1.406240835785865784e-02
6.820000000000000000e+02 1.441146850585937500e+01 -2.084481811523437500e+01 1.876007765531539917e-02 7.850086688995361328e+00 2.360653877258300781e+00 -1.769458316266536713e-02
6.830000000000000000e+02 1.451568984985351562e+01 -1.664548873901367188e+01 -3.628941252827644348e-02 7.975645542144775391e+00 2.381806850433349609e+00 -2.630037441849708557e-02
6.840000000000000000e+02 1.443493270874023438e+01 -1.391996574401855469e+01 -3.808093257248401642e-03 8.058946609497070312e+00 2.416541576385498047e+00 -1.526382192969322205e-02
6.850000000000000000e+02 1.451814651489257812e+01 -1.106596183776855469e+01 -3.087470680475234985e-02 8.381587028503417969e+00 2.505213737487792969e+00 5.989529192447662354e-02
6.860000000000000000e+02 1.394558238983154297e+01 -2.198280572891235352e+00 -2.146876573562622070e+00 1.230947589874267578e+01 3.048779726028442383e+00 -1.772136807441711426e+00
6.870000000000000000e+02 1.191466331481933594e+01 1.622394800186157227e+00 -1.061586514115333557e-01 6.042493820190429688e+00 1.780900597572326660e+00 -4.052589893341064453e+00
6.880000000000000000e+02 1.212140750885009766e+01 1.614034771919250488e+00 -4.994869530200958252e-01 7.631046772003173828e+00 2.139467954635620117e+00 -4.326818466186523438e+00
6.890000000000000000e+02 1.456285095214843750e+01 6.882600784301757812e+00 -8.559203892946243286e-02 9.829097747802734375e+00 2.923051834106445312e+00 -1.499387770891189575e-01
6.900000000000000000e+02 1.445495986938476562e+01 8.264242172241210938e+00 7.851413637399673462e-02 9.288536071777343750e+00 2.810115098953247070e+00 -1.460656672716140747e-01
6.910000000000000000e+02 1.451934814453125000e+01 1.243836975097656250e+01 -2.739008702337741852e-02 8.643351554870605469e+00 2.584788560867309570e+00 1.071164105087518692e-02
6.920000000000000000e+02 1.448609733581542969e+01 1.380722999572753906e+01 3.845985978841781616e-02 8.563490867614746094e+00 2.580585241317749023e+00 2.462779544293880463e-02
6.930000000000000000e+02 1.442053318023681641e+01 1.519078826904296875e+01 -1.589436642825603485e-02 8.537476539611816406e+00 2.556474447250366211e+00 4.688299074769020081e-02
6.940000000000000000e+02 1.440305805206298828e+01 1.798001861572265625e+01 -3.848568769171833992e-03 8.592343330383300781e+00 2.576548337936401367e+00 7.579196989536285400e-02
6.950000000000000000e+02 1.478501701354980469e+01 2.489587974548339844e+01 6.915009021759033203e-02 8.389822959899902344e+00 2.537692070007324219e+00 6.434938907623291016e-01
6.960000000000000000e+02 1.367842388153076172e+01 2.629138183593750000e+01 2.373177111148834229e-01 7.302847385406494141e+00 2.262049436569213867e+00 6.258207559585571289e-01
6.970000000000000000e+02 1.378799152374267578e+01 2.765680503845214844e+01 3.175101280212402344e-01 7.100790500640869141e+00 2.225490093231201172e+00 6.522203087806701660e-01
6.980000000000000000e+02 1.501816749572753906e+01 2.765318870544433594e+01 2.632691860198974609e-01 8.478235244750976562e+00 2.622451305389404297e+00 9.524681568145751953e-01
6.990000000000000000e+02 1.540654659271240234e+01 3.039585304260253906e+01 3.547490835189819336e-01 7.692186355590820312e+00 2.414080619812011719e+00 1.334874987602233887e+00
7.000000000000000000e+02 1.693807411193847656e+01 3.575083160400390625e+01 7.408335208892822266e-01 5.610345363616943359e+00 1.905353665351867676e+00 1.670822381973266602e+00
7.010000000000000000e+02 9.565934181213378906e+00 1.755553007125854492e+00 -1.010280609130859375e+00 5.878524780273437500e-01 -1.267284154891967773e-01 -1.140570342540740967e-01
7.020000000000000000e+02 8.102130889892578125e+00 1.815406084060668945e+00 -1.185614943504333496e+00 1.559775322675704956e-01 -3.088912069797515869e-01 5.692778825759887695e-01
7.030000000000000000e+02 8.879331588745117188e+00 2.394803047180175781e+00 -4.414435327053070068e-01 6.186522245407104492e-01 5.316260457038879395e-02 1.055839806795120239e-01
7.040000000000000000e+02 7.338790893554687500e+00 1.836776375770568848e+00 -1.237157583236694336e+00 9.160289913415908813e-02 -3.436664044857025146e-01 7.056081295013427734e-01
7.050000000000000000e+02 5.037504673004150391e+00 1.877294540405273438e+00 -8.463999032974243164e-01 -6.371157616376876831e-02 -2.730334401130676270e-01 7.896691560745239258e-01
7.060000000000000000e+02 2.305944204330444336e+00 4.381233215332031250e+00 -1.922889787238091230e-04 -6.943981647491455078e-01 -2.083771377801895142e-01 6.796842813491821289e-01
7.070000000000000000e+02 4.270400524139404297e+00 1.903220415115356445e+00 -6.748706698417663574e-01 -1.097062453627586365e-01 -2.353730648756027222e-01 7.497934103012084961e-01
7.080000000000000000e+02 3.499331235885620117e+00 1.946322917938232422e+00 -5.075681209564208984e-01 -1.522951424121856689e-01 -1.979589760303497314e-01 6.792784333229064941e-01
7.090000000000000000e+02 1.943031668663024902e+00 2.079757928848266602e+00 -2.044411599636077881e-01 -2.763027548789978027e-01 -1.442231833934783936e-01 4.350022673606872559e-01
7.100000000000000000e+02 1.052242374420166016e+01 1.685653924942016602e+00 -4.256748855113983154e-01 1.447531104087829590e+00 3.065568506717681885e-01 -1.067616343498229980e+00
7.110000000000000000e+02 1.073442840576171875e+01 1.664108872413635254e+00 -2.563260495662689209e-01 1.729346871376037598e+00 4.419062435626983643e-01 -1.452300786972045898e+00
7.120000000000000000e+02 1.112336826324462891e+01 1.641994833946228027e+00 -1.292729973793029785e-01 2.703137874603271484e+00 7.721594572067260742e-01 -2.229246616363525391e+00
7.130000000000000000e+02 1.093093013763427734e+01 1.628875374794006348e+00 -2.769627571105957031e-01 2.033489227294921875e+00 5.269579291343688965e-01 -1.722157955169677734e+00
7.140000000000000000e+02 1.232652664184570312e+01 1.589561939239501953e+00 -1.016863107681274414e+00 9.679141998291015625e+00 2.598683595657348633e+00 -4.556729316711425781e+00
7.150000000000000000e+02 1.372052764892578125e+01 1.385035753250122070e+00 -3.253988504409790039e+00 1.643673324584960938e+01 3.954823732376098633e+00 2.886301994323730469e+00
7.160000000000000000e+02 1.464327907562255859e+01 9.769380688667297363e-01 -5.093382596969604492e-01 5.218417167663574219e+00 1.412723660469055176e+00 4.134683609008789062e+00
7.170000000000000000e+02 1.444914054870605469e+01 6.183295249938964844e-01 4.626082479953765869e-01 7.451983928680419922e+00 2.374377727508544922e+00 3.599426746368408203e+00
7.180000000000000000e+02 1.461030673980712891e+01 3.573603183031082153e-02 2.676836967468261719e+00 1.510368108749389648e+00 1.256161570549011230e+00 5.576219558715820312e-01
7.190000000000000000e+02 1.455436515808105469e+01 2.504200041294097900e-01 4.626896858215332031e+00 3.467001438140869141e+00 2.428169488906860352e+00 2.395289182662963867e+00
7.200000000000000000e+02 1.383475589752197266e+01 -1.472559571266174316e+00 -2.332782506942749023e+00 1.517529869079589844e+01 3.852755069732666016e+00 -3.362606287002563477e+00
7.210000000000000000e+02 1.305770874023437500e+01 -1.659462928771972656e+00 -3.135272979736328125e+00 1.576985549926757812e+01 3.790374755859375000e+00 2.452087163925170898e+00
7.220000000000000000e+02 1.169245433807373047e+01 -1.706976771354675293e+00 3.803396522998809814e-01 5.064668655395507812e+00 1.633502483367919922e+00 3.654086589813232422e+00
7.230000000000000000e+02 1.106099605560302734e+01 -1.708994865417480469e+00 3.060981333255767822e-01 2.500340461730957031e+00 8.419315814971923828e-01 2.184255123138427734e+00
7.240000000000000000e+02 1.066705417633056641e+01 -1.675924777984619141e+00 -7.568451017141342163e-02 1.451171517372131348e+00 4.126461148262023926e-01 1.377430558204650879e+00
7.250000000000000000e+02 1.028217887878417969e+01 -1.647739410400390625e+00 -3.899164199829101562e-01 1.239014148712158203e+00 2.547293007373809814e-01 8.151279091835021973e-01
7.260000000000000000e+02 1.086031150817871094e+01 -1.703613758087158203e+00 1.359549313783645630e-01 2.023026704788208008e+00 6.476945281028747559e-01 1.791151642799377441e+00
7.270000000000000000e+02 7.894454002380371094e+00 -1.812070488929748535e+00 -1.045037031173706055e+00 2.035193592309951782e-01 -2.524553239345550537e-01 -4.949471652507781982e-01
7.280000000000000000e+02 9.422040939331054688e+00 -1.770931363105773926e+00 -7.504948377609252930e-01 4.862621128559112549e-01 -7.926981896162033081e-02 2.328318059444427490e-01
7.290000000000000000e+02 8.686389923095703125e+00 -1.778874158859252930e+00 -9.241863489151000977e-01 2.921025753021240234e-01 -1.896251440048217773e-01 -2.914326190948486328e-01
7.300000000000000000e+02 7.082018375396728516e+00 -1.853209137916564941e+00 -9.843144416809082031e-01 6.890358775854110718e-02 -2.746232450008392334e-01 -6.178073287010192871e-01
7.310000000000000000e+02 5.437490463256835938e+00 -1.928719401359558105e+00 -7.795239686965942383e-01 -2.427380904555320740e-02 -2.411393374204635620e-01 -7.046796679496765137e-01
7.320000000000000000e+02 2.949019670486450195e+00 -2.067855119705200195e+00 -3.296616673469543457e-01 -1.900252103805541992e-01 -1.559060662984848022e-01 -5.612747073173522949e-01
7.330000000000000000e+02 3.897654771804809570e+00 -3.025321722030639648e+00 -2.191133797168731689e-01 -1.854464709758758545e-01 -1.213679537177085876e-01 -7.674079537391662598e-01
7.340000000000000000e+02 4.610221385955810547e+00 -1.964339971542358398e+00 -6.381273865699768066e-01 -7.555903494358062744e-02 -2.141059339046478271e-01 -6.994001865386962891e-01
7.350000000000000000e+02 1.275066494941711426e+00 -2.171919107437133789e+00 -9.646670520305633545e-02 -2.954509854316711426e-01 -1.175753101706504822e-01 -2.876212000846862793e-01
7.360000000000000000e+02 4.254518449306488037e-01 -2.198052406311035156e+00 -1.779783144593238831e-02 -2.696803808212280273e-01 -8.624345809221267700e-02 -1.042990088462829590e-01
7.370000000000000000e+02 2.104674816131591797e+00 -4.163832473754882812e+01 -2.663220167160034180e-01 -7.864461541175842285e-01 -3.158304691314697266e-01 7.456971704959869385e-02
7.380000000000000000e+02 4.783720970153808594e+00 -3.659837722778320312e+01 1.478597521781921387e-01 5.639134645462036133e-01 2.135319560766220093e-01 2.897930741310119629e-01
7.390000000000000000e+02 1.165251731872558594e+00 -3.864318084716796875e+01 1.107893884181976318e-01 -1.150633692741394043e+00 -3.119533061981201172e-01 2.364931404590606689e-01
7.400000000000000000e+02 7.128795385360717773e-01 -3.455297088623046875e+01 -5.350393801927566528e-02 -1.908324599266052246e+00 -5.885485410690307617e-01 6.923886388540267944e-02
7.410000000000000000e+02 6.776670217514038086e-01 -3.316460800170898438e+01 6.430474668741226196e-02 -2.057101964950561523e+00 -5.978391766548156738e-01 8.304128050804138184e-02
7.420000000000000000e+02 6.679117679595947266e-01 -2.895705795288085938e+01 -2.607842162251472473e-02 -2.311526298522949219e+00 -7.012813687324523926e-01 1.966446265578269958e-02
7.430000000000000000e+02 6.642975211143493652e-01 -2.754551696777343750e+01 2.046404592692852020e-02 -2.351088285446166992e+00 -6.991872787475585938e-01 3.204778581857681274e-02
7.440000000000000000e+02 6.567494273185729980e-01 -2.613287544250488281e+01 -1.254459377378225327e-02 -2.392155408859252930e+00 -7.214100360870361328e-01 1.903194375336170197e-02
7.450000000000000000e+02 6.332892775535583496e-01 -2.190793991088867188e+01 1.000793371349573135e-02 -2.476721048355102539e+00 -7.400138974189758301e-01 2.469810284674167633e-02
7.460000000000000000e+02 6.270335912704467773e-01 -2.050310707092285156e+01 -1.165280863642692566e-02 -2.507529973983764648e+00 -7.557548284530639648e-01 2.430377714335918427e-02
7.470000000000000000e+02 1.875100612640380859e+00 -2.033179664611816406e+01 1.438954379409551620e-02 -1.558850049972534180e+00 -4.633381366729736328e-01 4.152223840355873108e-02
7.480000000000000000e+02 6.130970716476440430e-01 -1.628583526611328125e+01 1.275315601378679276e-02 -2.580795288085937500e+00 -7.704126238822937012e-01 2.049877494573593140e-02
7.490000000000000000e+02 6.067705750465393066e-01 -1.487969589233398438e+01 -6.885098293423652649e-03 -2.586048841476440430e+00 -7.778801918029785156e-01 1.257445476949214935e-02
7.500000000000000000e+02 5.998488068580627441e-01 -1.347303485870361328e+01 1.638745144009590149e-02 -2.568026781082153320e+00 -7.654917836189270020e-01 2.382984384894371033e-03
7.510000000000000000e+02 1.788806438446044922e+00 -1.338873195648193359e+01 1.915756799280643463e-02 -1.652266860008239746e+00 -4.899327754974365234e-01 -3.583993017673492432e-02
7.520000000000000000e+02 5.772936344146728516e-01 -9.242156028747558594e+00 1.217723730951547623e-02 -2.232047557830810547e+00 -6.659611463546752930e-01 -7.423169910907745361e-02
7.530000000000000000e+02 5.651773810386657715e-01 -7.827910423278808594e+00 1.917017623782157898e-02 -1.967019915580749512e+00 -5.843549370765686035e-01 -1.116776540875434875e-01
7.540000000000000000e+02 4.105835437774658203e+00 -4.008029937744140625e+00 2.753787860274314880e-02 -1.952455639839172363e-01 -5.031230673193931580e-02 -7.625110149383544922e-01
7.550000000000000000e+02 7.491551208496093750e+01 -4.015736389160156250e+01 -4.666922148317098618e-03 7.927221298217773438e+00 2.376766204833984375e+00 -8.071688003838062286e-03
7.560000000000000000e+02 1.249773883819580078e+01 -3.977556610107421875e+01 -9.133509397506713867e-01 5.143098831176757812e+00 1.268924355506896973e+00 -1.646668910980224609e-01
7.570000000000000000e+02 7.505131530761718750e+01 4.045281219482421875e+01 -5.816277116537094116e-04 7.613152980804443359e+00 2.283771514892578125e+00 -2.509322250261902809e-03
7.580000000000000000e+02 7.911705780029296875e+01 4.011473846435546875e+01 1.010977430269122124e-03 7.592515945434570312e+00 2.278058052062988281e+00 2.275636419653892517e-03
7.590000000000000000e+02 7.916920471191406250e+01 3.882830047607421875e+01 -7.729186472715809941e-05 7.589126586914062500e+00 2.276714801788330078e+00 1.431944314390420914e-03
7.600000000000000000e+02 7.929966735839843750e+01 3.482626342773437500e+01 8.186972700059413910e-04 7.585620403289794922e+00 2.275931596755981445e+00 -1.060964859789237380e-04
7.610000000000000000e+02 7.783847045898437500e+01 3.345872879028320312e+01 1.863461919128894806e-03 7.598548889160156250e+00 2.280123710632324219e+00 -2.086266409605741501e-03
7.620000000000000000e+02 7.929161071777343750e+01 3.344708251953125000e+01 -6.886571063660085201e-04 7.585400104522705078e+00 2.275413513183593750e+00 1.996907849388662726e-05
7.630000000000000000e+02 7.929934692382812500e+01 3.067406082153320312e+01 -1.323335804045200348e-03 7.586894035339355469e+00 2.275671243667602539e+00 -6.142619531601667404e-04
7.640000000000000000e+02 7.656660461425781250e+01 2.790161132812500000e+01 -6.002326263114809990e-04 7.613123416900634766e+00 2.283756971359252930e+00 -3.069764235988259315e-03
7.650000000000000000e+02 7.933332061767578125e+01 2.652749824523925781e+01 1.316261477768421173e-03 7.590198040008544922e+00 2.277454376220703125e+00 -1.198849640786647797e-03
7.660000000000000000e+02 7.664283752441406250e+01 2.555630493164062500e+01 1.169755938462913036e-03 7.615989208221435547e+00 2.285147666931152344e+00 -4.266346339136362076e-03
7.670000000000000000e+02 7.931333923339843750e+01 2.514969444274902344e+01 -8.913270430639386177e-04 7.592029094696044922e+00 2.277341365814208984e+00 -1.196494209580123425e-03
7.680000000000000000e+02 7.925939941406250000e+01 2.097740554809570312e+01 1.053293701261281967e-03 7.599699497222900391e+00 2.280225992202758789e+00 -2.216921187937259674e-03
7.690000000000000000e+02 7.927698516845703125e+01 1.956897544860839844e+01 -6.391998613253235817e-04 7.603110790252685547e+00 2.280741453170776367e+00 -2.244806149974465370e-03
7.700000000000000000e+02 7.929457092285156250e+01 1.816628265380859375e+01 8.876253850758075714e-04 7.607010364532470703e+00 2.282369375228881836e+00 -2.817077096551656723e-03
7.710000000000000000e+02 7.932431030273437500e+01 1.398067951202392578e+01 -6.714037153869867325e-04 7.622133731842041016e+00 2.286438703536987305e+00 -3.290924476459622383e-03
7.720000000000000000e+02 7.932843780517578125e+01 1.258688545227050781e+01 9.583344217389822006e-04 7.628215789794921875e+00 2.288752317428588867e+00 -3.912016749382019043e-03
7.730000000000000000e+02 7.933087921142578125e+01 1.119474792480468750e+01 -6.817212561145424843e-04 7.635033130645751953e+00 2.290305376052856445e+00 -3.876136615872383118e-03
7.740000000000000000e+02 7.932958984375000000e+01 7.018192291259765625e+00 8.117830730043351650e-04 7.658438205718994141e+00 2.297775030136108398e+00 -5.020550452172756195e-03
7.750000000000000000e+02 7.932846832275390625e+01 5.623668193817138672e+00 -4.687096225097775459e-04 7.667452335357666016e+00 2.300095081329345703e+00 -5.080608651041984558e-03
7.760000000000000000e+02 7.932727813720703125e+01 4.228941440582275391e+00 6.725781713612377644e-04 7.676793575286865234e+00 2.303239822387695312e+00 -5.572963505983352661e-03
7.770000000000000000e+02 7.932750701904296875e+01 4.474033415317535400e-02 -3.039284783881157637e-04 7.708111763000488281e+00 2.312342405319213867e+00 -6.090889219194650650e-03
7.780000000000000000e+02 7.932952880859375000e+01 -1.349772572517395020e+00 4.100672085769474506e-04 7.719255924224853516e+00 2.315899848937988281e+00 -6.437744013965129852e-03
7.790000000000000000e+02 7.800412750244140625e+01 -4.064990043640136719e+00 2.671443508006632328e-04 7.743983268737792969e+00 2.323275089263916016e+00 -1.745962351560592651e-02
7.800000000000000000e+02 7.933168029785156250e+01 -4.138889312744140625e+00 2.153498062398284674e-04 7.742783546447753906e+00 2.322899818420410156e+00 -6.701760459691286087e-03
7.810000000000000000e+02 7.932493591308593750e+01 -8.320620536804199219e+00 3.013731911778450012e-04 7.779983043670654297e+00 2.334085226058959961e+00 -6.994559429585933685e-03
7.820000000000000000e+02 7.798325347900390625e+01 -1.104146003723144531e+01 -6.835926906205713749e-04 7.800610065460205078e+00 2.339977979660034180e+00 -1.860356517136096954e-02
7.830000000000000000e+02 7.932417297363281250e+01 -1.110824489593505859e+01 6.780991097912192345e-04 7.805288791656494141e+00 2.341789960861206055e+00 -7.108171004801988602e-03
7.840000000000000000e+02 7.933213806152343750e+01 -1.528039646148681641e+01 -1.398947439156472683e-03 7.843378067016601562e+00 2.352593660354614258e+00 -6.808092817664146423e-03
7.850000000000000000e+02 7.800384521484375000e+01 -1.796686363220214844e+01 1.268365187570452690e-03 7.857954502105712891e+00 2.357766866683959961e+00 -1.759086176753044128e-02
7.860000000000000000e+02 7.933108520507812500e+01 -1.806458091735839844e+01 -1.643752329982817173e-03 7.868232727050781250e+00 2.359976768493652344e+00 -6.587934214621782303e-03
7.870000000000000000e+02 7.931023406982421875e+01 -2.363202476501464844e+01 -1.044715754687786102e-03 7.914390087127685547e+00 2.374003648757934570e+00 -6.211567204445600510e-03
7.880000000000000000e+02 7.789965057373046875e+01 -2.490638732910156250e+01 -1.710493583232164383e-03 7.908234596252441406e+00 2.371957302093505859e+00 -1.648610830307006836e-02
7.890000000000000000e+02 7.929886627197265625e+01 -2.502635765075683594e+01 5.454352940432727337e-04 7.924969673156738281e+00 2.377654552459716797e+00 -5.612669978290796280e-03
7.900000000000000000e+02 7.927067565917968750e+01 -2.923087120056152344e+01 7.646701851626858115e-05 7.953138828277587891e+00 2.385964632034301758e+00 -5.055784713476896286e-03
7.910000000000000000e+02 7.784745788574218750e+01 -3.200601577758789062e+01 -1.235802308656275272e-03 7.948112010955810547e+00 2.384063005447387695e+00 -1.063170563429594040e-02
7.920000000000000000e+02 7.929255676269531250e+01 -3.202172470092773438e+01 -7.490418502129614353e-04 7.967737674713134766e+00 2.390096426010131836e+00 -3.295583650469779968e-03
7.930000000000000000e+02 7.937596893310546875e+01 -3.610113906860351562e+01 3.046148223802447319e-03 7.980435371398925781e+00 2.395044565200805664e+00 -1.527154934592545033e-03
7.940000000000000000e+02 7.927369689941406250e+01 -3.740774917602539062e+01 -4.037682898342609406e-03 7.979757308959960938e+00 2.392715930938720703e+00 1.102702459320425987e-03
7.950000000000000000e+02 7.902700042724609375e+01 -3.869483566284179688e+01 2.278695348650217056e-03 7.977952957153320312e+00 2.394069433212280273e+00 7.529120775870978832e-04
7.960000000000000000e+02 7.863745117187500000e+01 -4.004031753540039062e+01 -3.182767424732446671e-03 7.974787235260009766e+00 2.391481399536132812e+00 2.927529858425259590e-03
7.970000000000000000e+02 6.547749996185302734e+00 3.873112869262695312e+01 -2.939302325248718262e-01 1.591651678085327148e+00 3.893164396286010742e-01 -1.818503141403198242e-01
7.980000000000000000e+02 2.766674232482910156e+01 4.134865188598632812e+01 -4.147393703460693359e-01 7.924744129180908203e+00 2.253001451492309570e+00 1.126878112554550171e-01
7.990000000000000000e+02 6.707611083984375000e+01 4.089736175537109375e+01 2.906144130975008011e-03 7.687757015228271484e+00 2.307199001312255859e+00 2.425938379019498825e-03
8.000000000000000000e+02 3.879084587097167969e-01 2.188276290893554688e+00 -1.790379174053668976e-02 -2.746123373508453369e-01 -8.775483816862106323e-02 8.929311484098434448e-02
8.010000000000000000e+02 2.831312417984008789e+00 2.995917320251464844e+00 -1.927072703838348389e-01 -3.697855770587921143e-01 -1.687478572130203247e-01 7.290591001510620117e-01
8.020000000000000000e+02 2.883376836776733398e+00 5.203577995300292969e+00 6.741099804639816284e-02 -7.018586993217468262e-01 -1.903343051671981812e-01 7.393532395362854004e-01
8.030000000000000000e+02 5.243881940841674805e-01 9.185503959655761719e+00 1.545526552945375443e-02 -2.545367717742919922e+00 -7.589737176895141602e-01 8.604598045349121094e-02
8.040000000000000000e+02 5.674630403518676758e-01 1.198510074615478516e+01 7.300959434360265732e-03 -2.934535503387451172e+00 -8.781703710556030273e-01 3.593273088335990906e-02
8.050000000000000000e+02 1.721655964851379395e+00 1.173718357086181641e+01 4.416818171739578247e-02 -1.991777420043945312e+00 -5.842827558517456055e-01 1.474191397428512573e-01
8.060000000000000000e+02 6.029530763626098633e-01 1.620178794860839844e+01 4.473294131457805634e-03 -3.134750127792358398e+00 -9.390830993652343750e-01 -8.846938610076904297e-03
8.070000000000000000e+02 1.847105860710144043e+00 1.733934211730957031e+01 1.069349050521850586e-02 -2.071740627288818359e+00 -6.183141469955444336e-01 3.402860602363944054e-04
8.080000000000000000e+02 6.158832907676696777e-01 1.761733818054199219e+01 3.509476780891418457e-03 -3.138113260269165039e+00 -9.403811693191528320e-01 -1.794564537703990936e-02
8.090000000000000000e+02 6.373815536499023438e-01 2.185661125183105469e+01 2.114893868565559387e-03 -3.042831897735595703e+00 -9.122150540351867676e-01 -3.782750666141510010e-02
8.100000000000000000e+02 6.421987414360046387e-01 2.326399993896484375e+01 5.153806880116462708e-03 -2.970829725265502930e+00 -8.897027373313903809e-01 -4.681804403662681580e-02
8.110000000000000000e+02 1.929688215255737305e+00 2.297199630737304688e+01 1.139264926314353943e-02 -1.925203323364257812e+00 -5.741432309150695801e-01 -9.670745581388473511e-02
8.120000000000000000e+02 6.497672796249389648e-01 2.467272567749023438e+01 2.839541994035243988e-03 -2.877335309982299805e+00 -8.623487353324890137e-01 -5.543527379631996155e-02
8.130000000000000000e+02 6.723656654357910156e-01 2.892583847045898438e+01 6.859200540930032730e-03 -2.471352577209472656e+00 -7.393479943275451660e-01 -8.159115165472030640e-02
8.140000000000000000e+02 6.733628511428833008e-01 3.034458351135253906e+01 -6.424881983548402786e-03 -2.312050342559814453e+00 -6.955425143241882324e-01 -7.964961230754852295e-02
8.150000000000000000e+02 3.382443666458129883e+00 2.985811996459960938e+01 1.144777238368988037e-02 -5.421969294548034668e-01 -1.592247486114501953e-01 -2.984943389892578125e-01
8.160000000000000000e+02 6.693239212036132812e-01 3.175772285461425781e+01 1.680079847574234009e-02 -2.132655382156372070e+00 -6.347563862800598145e-01 -9.557116031646728516e-02
8.170000000000000000e+02 7.242957353591918945e-01 3.594204330444335938e+01 -1.614114828407764435e-02 -1.506736397743225098e+00 -4.568632543087005615e-01 -1.112766042351722717e-01
8.180000000000000000e+02 8.440936207771301270e-01 3.730830383300781250e+01 4.057425260543823242e-02 -1.256447315216064453e+00 -3.647619187831878662e-01 -1.498014777898788452e-01
8.190000000000000000e+02 1.056601047515869141e+00 3.866502761840820312e+01 -2.686595544219017029e-03 -1.010315179824829102e+00 -3.039005398750305176e-01 -1.663166284561157227e-01
8.200000000000000000e+02 1.401003956794738770e+00 4.006290435791015625e+01 5.576295033097267151e-02 -7.722804546356201172e-01 -2.149552404880523682e-01 -2.139138877391815186e-01
8.210000000000000000e+02 2.057806015014648438e+01 -2.084770679473876953e+00 1.085628122091293335e-01 8.047776222229003906e+00 2.446901798248291016e+00 3.859307169914245605e-01
8.220000000000000000e+02 1.400558757781982422e+01 -1.431186437606811523e+00 -1.672262787818908691e+00 1.244400787353515625e+01 3.231523513793945312e+00 -3.662652254104614258e+00
8.230000000000000000e+02 1.441283512115478516e+01 -1.067577123641967773e+00 7.834634184837341309e-01 9.468686103820800781e+00 3.075644731521606445e+00 -5.112963676452636719e+00
8.240000000000000000e+02 1.388564777374267578e+01 1.314071774482727051e+00 -2.586935997009277344e+00 1.512317371368408203e+01 3.760871171951293945e+00 3.868319272994995117e+00
8.250000000000000000e+02 1.392163467407226562e+01 -1.745431423187255859e+00 -2.521243095397949219e+00 1.276714992523193359e+01 3.073771953582763672e+00 -2.659321546554565430e+00
8.260000000000000000e+02 1.448113822937011719e+01 -7.872369289398193359e-01 -1.094227075576782227e+00 6.741443157196044922e+00 1.694164752960205078e+00 -4.076822757720947266e+00
8.270000000000000000e+02 1.461548900604248047e+01 -1.740130335092544556e-01 -5.427738279104232788e-02 -8.005817532539367676e-01 -2.564577460289001465e-01 -3.130972087383270264e-01
8.280000000000000000e+02 1.422156810760498047e+01 -1.341710329055786133e+00 -8.867134451866149902e-01 1.031609916687011719e+01 2.828815937042236328e+00 -4.698786735534667969e+00
8.290000000000000000e+02 1.494567584991455078e+01 1.190165877342224121e+00 -1.034771323204040527e+00 2.048247814178466797e+00 3.040429353713989258e-01 1.805981993675231934e+00
8.300000000000000000e+02 1.469619083404541016e+01 2.864024639129638672e+00 -1.299727559089660645e-01 1.043892955780029297e+01 3.092687129974365234e+00 5.337224602699279785e-01
8.310000000000000000e+02 1.406361865997314453e+01 1.230901598930358887e+00 -2.876287937164306641e+00 1.290092563629150391e+01 3.007391214370727539e+00 4.145954132080078125e+00
8.320000000000000000e+02 1.225622653961181641e+01 -1.709462761878967285e+00 -6.368290185928344727e-01 8.896051406860351562e+00 2.477766752243041992e+00 4.440421581268310547e+00
8.330000000000000000e+02 1.147770690917968750e+01 -1.735967516899108887e+00 4.067364335060119629e-01 4.065312862396240234e+00 1.341614842414855957e+00 3.105955123901367188e+00
8.340000000000000000e+02 1.046948337554931641e+01 -1.677636742591857910e+00 -2.619334161281585693e-01 1.183306932449340820e+00 2.764120399951934814e-01 1.190301060676574707e+00
8.350000000000000000e+02 8.304656028747558594e+00 -3.827886104583740234e+00 3.668639361858367920e-01 1.089657664299011230e+00 4.369564950466156006e-01 2.754081040620803833e-02
8.360000000000000000e+02 1.374094104766845703e+01 -3.370720386505126953e+00 -1.018584251403808594e+00 1.034419631958007812e+01 2.797683477401733398e+00 -5.133160352706909180e-01
8.370000000000000000e+02 1.206764411926269531e+01 -1.673230886459350586e+00 -1.743250899016857147e-02 7.141498088836669922e+00 2.137219667434692383e+00 4.584843635559082031e+00
8.380000000000000000e+02 1.306785011291503906e+01 -1.881090998649597168e+00 -2.941301107406616211e+00 1.440013599395751953e+01 3.437650442123413086e+00 1.713431477546691895e+00
8.390000000000000000e+02 1.114367580413818359e+01 -1.993068933486938477e+00 2.815179526805877686e-01 3.181608915328979492e+00 1.038938045501708984e+00 2.455899953842163086e+00
8.400000000000000000e+02 1.323990726470947266e+01 -1.672160148620605469e+00 -3.251718997955322266e+00 1.591000747680664062e+01 3.797486543655395508e+00 8.542018532752990723e-01
8.410000000000000000e+02 8.852064132690429688e+00 1.786026358604431152e+00 -1.162104487419128418e+00 2.540022730827331543e-01 -2.724306881427764893e-01 2.732418775558471680e-01
8.420000000000000000e+02 1.133481407165527344e+01 1.656646370887756348e+00 -5.537644401192665100e-02 3.236873388290405273e+00 9.544490575790405273e-01 -2.654118537902832031e+00
8.430000000000000000e+02 1.171889591217041016e+01 1.603028774261474609e+00 -6.273416429758071899e-02 5.080719470977783203e+00 1.505395531654357910e+00 -3.556037187576293945e+00
8.440000000000000000e+02 1.102468395233154297e+01 1.874359607696533203e+00 2.464354224503040314e-02 2.894925117492675781e+00 8.758706450462341309e-01 -2.129931926727294922e+00
8.450000000000000000e+02 1.309692478179931641e+01 1.702468514442443848e+00 -3.176398515701293945e+00 1.483890819549560547e+01 3.498752832412719727e+00 -1.359298706054687500e+00
8.460000000000000000e+02 1.286542797088623047e+01 1.650448918342590332e+00 -2.799618482589721680e+00 1.393616962432861328e+01 3.340965270996093750e+00 -2.809275865554809570e+00
8.470000000000000000e+02 1.454781818389892578e+01 5.524202823638916016e+00 1.138128936290740967e-01 1.049097347259521484e+01 3.181435823440551758e+00 -1.916115880012512207e-01
8.480000000000000000e+02 5.803750991821289062e+00 1.862713336944580078e+00 -1.002914547920227051e+00 -4.197558760643005371e-02 -3.134670555591583252e-01 8.050077557563781738e-01
8.490000000000000000e+02 6.571022987365722656e+00 1.851524472236633301e+00 -1.118555903434753418e+00 1.963365823030471802e-02 -3.296766877174377441e-01 7.679646611213684082e-01
8.500000000000000000e+02 1.522354722023010254e+00 7.643655300140380859e+00 7.132304459810256958e-02 -1.588519215583801270e+00 -4.551588594913482666e-01 3.701705634593963623e-01
8.510000000000000000e+02 5.189566612243652344e+00 3.385334968566894531e+00 -1.981348544359207153e-01 -7.083529233932495117e-02 -8.069103956222534180e-02 9.112763404846191406e-01
8.520000000000000000e+02 1.231667637825012207e+00 3.438790559768676758e+00 -4.187860339879989624e-02 -6.346566677093505859e-01 -2.029605805873870850e-01 4.075529277324676514e-01
8.530000000000000000e+02 2.722451686859130859e+00 2.008423089981079102e+00 -3.424075245857238770e-01 -2.231582552194595337e-01 -1.696697324514389038e-01 5.757241249084472656e-01
8.540000000000000000e+02 2.040245532989501953e+00 3.233049869537353516e+00 -9.763409197330474854e-02 -5.256933569908142090e-01 -1.869982331991195679e-01 5.904282331466674805e-01
8.550000000000000000e+02 7.393820285797119141e+00 2.528025865554809570e+00 -5.732377171516418457e-01 2.218626290559768677e-01 -1.054125353693962097e-01 6.724417209625244141e-01
8.560000000000000000e+02 6.625416278839111328e+00 2.566092967987060547e+00 -6.045830845832824707e-01 8.928760886192321777e-02 -1.545886546373367310e-01 8.066785931587219238e-01
8.570000000000000000e+02 8.153639793395996094e+00 2.473062515258789062e+00 -5.665658116340637207e-01 3.984566032886505127e-01 -5.043277144432067871e-02 4.345975518226623535e-01
8.580000000000000000e+02 8.026232719421386719e+00 -3.142865419387817383e+00 4.466335475444793701e-02 6.658067703247070312e-01 2.131410241127014160e-01 -2.108774334192276001e-01
8.590000000000000000e+02 7.138922214508056641e+00 -2.582705736160278320e+00 -4.364633858203887939e-01 1.945222914218902588e-01 -7.258232682943344116e-02 -5.784159898757934570e-01
8.600000000000000000e+02 8.625980377197265625e+00 -2.362886190414428711e+00 -3.520724475383758545e-01 5.853646397590637207e-01 6.998765468597412109e-02 -1.043984070420265198e-01
8.610000000000000000e+02 7.909205913543701172e+00 -2.460321187973022461e+00 -4.135704934597015381e-01 3.631158471107482910e-01 -1.513639651238918304e-02 -4.128174781799316406e-01
8.620000000000000000e+02 6.261988639831542969e+00 -1.893441319465637207e+00 -9.399163722991943359e-01 -1.729743555188179016e-02 -2.871641516685485840e-01 -7.083185911178588867e-01
8.630000000000000000e+02 6.342333316802978516e+00 -2.703044891357421875e+00 -3.817763030529022217e-01 8.688486367464065552e-02 -8.846743404865264893e-02 -7.003790140151977539e-01
8.640000000000000000e+02 4.714867115020751953e+00 -2.904018163681030273e+00 -2.813265621662139893e-01 -8.786647021770477295e-02 -1.107579097151756287e-01 -7.840816378593444824e-01
8.650000000000000000e+02 1.723469972610473633e+00 -9.185581207275390625e+00 8.120708912611007690e-02 -1.469445228576660156e+00 -4.164714515209197998e-01 -2.248606085777282715e-01
8.660000000000000000e+02 2.116850376129150391e+00 -2.127221345901489258e+00 -1.973068714141845703e-01 -2.533713579177856445e-01 -1.352034658193588257e-01 -4.454993307590484619e-01
8.670000000000000000e+02 5.429179668426513672e-01 -6.413726806640625000e+00 7.507440634071826935e-03 -1.612244606018066406e+00 -4.814211428165435791e-01 -1.429243534803390503e-01
8.680000000000000000e+02 3.394377946853637695e+00 -4.354713916778564453e+00 5.529248714447021484e-02 -3.546648621559143066e-01 -8.981171250343322754e-02 -7.359074354171752930e-01
8.690000000000000000e+02 4.558853805065155029e-01 -3.597060441970825195e+00 -9.510112926363945007e-03 -6.983805894851684570e-01 -2.123672068119049072e-01 -1.504734456539154053e-01
8.700000000000000000e+02 2.233387947082519531e+01 -2.107275962829589844e+01 -1.242208033800125122e-01 7.288194656372070312e+00 2.149192094802856445e+00 2.080011069774627686e-01
8.710000000000000000e+02 1.694961738586425781e+01 4.137197494506835938e+01 -6.252762675285339355e-02 4.224199295043945312e+00 1.248501539230346680e+00 1.583952754735946655e-01
8.720000000000000000e+02 1.890325927734375000e+01 3.797984313964843750e+01 5.607876926660537720e-02 1.787620902061462402e+00 5.531098842620849609e-01 -1.820675283670425415e-01
8.730000000000000000e+02 1.514202785491943359e+01 3.702775192260742188e+01 -1.604929566383361816e-01 4.983678817749023438e+00 1.446955800056457520e+00 3.768114447593688965e-01
8.740000000000000000e+02 1.563372230529785156e+01 -3.736412811279296875e+01 6.914460659027099609e-01 2.223610877990722656e+00 8.745170831680297852e-01 -1.819507360458374023e+00
8.750000000000000000e+02 2.084230613708496094e+01 3.679625320434570312e+01 7.704076170921325684e-01 7.906631469726562500e+00 2.603111743927001953e+00 -1.522174715995788574e+00
8.760000000000000000e+02 1.675589752197265625e+01 -4.132633209228515625e+01 -8.023250848054885864e-02 3.883904457092285156e+00 1.141101598739624023e+00 -9.876552224159240723e-02
8.770000000000000000e+02 2.486479568481445312e+01 3.522848892211914062e+01 3.211713731288909912e-01 7.916991710662841797e+00 2.471448898315429688e+00 -3.102206625044345856e-03
8.780000000000000000e+02 1.406999015808105469e+01 -3.305396270751953125e+01 -2.141312807798385620e-01 7.783271789550781250e+00 2.270742177963256836e+00 4.575436711311340332e-01
8.790000000000000000e+02 2.267978668212890625e+01 -1.355697536468505859e+01 1.144340485334396362e-01 7.601896762847900391e+00 2.314899206161499023e+00 2.260520756244659424e-01
8.800000000000000000e+02 1.489074420928955078e+01 2.627435874938964844e+01 1.062304899096488953e-01 8.464169502258300781e+00 2.571119785308837891e+00 7.234733700752258301e-01
8.810000000000000000e+02 1.495849227905273438e+01 3.480208969116210938e+01 1.912322789430618286e-01 5.386580467224121094e+00 1.673343777656555176e+00 7.709420323371887207e-01
8.820000000000000000e+02 2.039227485656738281e+01 -4.845757961273193359e+00 -6.828493624925613403e-02 7.283262729644775391e+00 2.164493322372436523e+00 3.930937945842742920e-01
8.830000000000000000e+02 2.181930923461914062e+01 -2.320011138916015625e+00 9.643958508968353271e-02 7.701386928558349609e+00 2.339348077774047852e+00 3.406865298748016357e-01
8.840000000000000000e+02 1.239851856231689453e+01 -3.258955764770507812e+01 1.344920992851257324e-01 7.028102874755859375e+00 2.148778438568115234e+00 -5.428853631019592285e-01
8.850000000000000000e+02 1.467615222930908203e+01 2.352170372009277344e+01 7.541278004646301270e-02 8.621258735656738281e+00 2.609001636505126953e+00 5.984299778938293457e-01
8.860000000000000000e+02 1.421595001220703125e+01 3.179201507568359375e+01 3.826205134391784668e-01 6.052586078643798828e+00 1.930562019348144531e+00 7.252438664436340332e-01
8.870000000000000000e+02 1.334102058410644531e+01 2.220562362670898438e+01 1.779961884021759033e-01 7.514412879943847656e+00 2.307722806930541992e+00 3.056517243385314941e-01
8.880000000000000000e+02 2.201852035522460938e+01 -1.866746902465820312e+01 -1.680896133184432983e-01 7.381328582763671875e+00 2.163971662521362305e+00 2.821576893329620361e-01
8.890000000000000000e+02 2.094679260253906250e+01 3.422251224517822266e+00 1.412366181612014771e-01 8.789122581481933594e+00 2.679107666015625000e+00 5.421586036682128906e-01
8.900000000000000000e+02 2.227210998535156250e+01 5.967516899108886719e+00 1.458683907985687256e-01 8.522994995117187500e+00 2.600659132003784180e+00 2.469817698001861572e-01
8.910000000000000000e+02 2.133752822875976562e+01 -1.473835945129394531e+01 1.531850397586822510e-01 7.542410373687744141e+00 2.308678627014160156e+00 2.659195959568023682e-01
8.920000000000000000e+02 2.119330978393554688e+01 -1.609521675109863281e+01 1.386250928044319153e-02 7.534784793853759766e+00 2.264594316482543945e+00 2.624443173408508301e-01
8.930000000000000000e+02 2.174896621704101562e+01 -3.699900865554809570e+00 -1.397199183702468872e-02 7.703730583190917969e+00 2.306927680969238281e+00 2.241725176572799683e-01
8.940000000000000000e+02 1.962878036499023438e+01 -2.675487518310546875e+01 -8.078202605247497559e-02 7.213379859924316406e+00 2.139779329299926758e+00 4.470434039831161499e-02
8.950000000000000000e+02 2.100310897827148438e+01 -1.738683891296386719e+01 -1.308017969131469727e-01 7.322937488555908203e+00 2.157640695571899414e+00 3.414328992366790771e-01
8.960000000000000000e+02 1.391677951812744141e+01 2.902735328674316406e+01 3.618818819522857666e-01 6.917180061340332031e+00 2.183718442916870117e+00 7.001948356628417969e-01
8.970000000000000000e+02 1.406239032745361328e+01 3.040103721618652344e+01 3.728896677494049072e-01 6.583513736724853516e+00 2.086920976638793945e+00 8.065354228019714355e-01
8.980000000000000000e+02 2.088637924194335938e+01 -1.865271186828613281e+01 -1.180284917354583740e-01 7.174848556518554688e+00 2.117045879364013672e+00 3.001326620578765869e-01
8.990000000000000000e+02 2.170211601257324219e+01 -3.571748352050781250e+01 4.278776943683624268e-01 7.004871368408203125e+00 2.229824781417846680e+00 2.195931077003479004e-01
9.000000000000000000e+02 2.030816268920898438e+01 -8.978806495666503906e+00 5.735638365149497986e-02 7.858164787292480469e+00 2.374656438827514648e+00 1.552730798721313477e-01
9.010000000000000000e+02 2.161608123779296875e+01 -7.809908390045166016e+00 -8.819878101348876953e-03 7.652413368225097656e+00 2.293077945709228516e+00 3.075163960456848145e-01
9.020000000000000000e+02 2.215180587768554688e+01 3.167054414749145508e+00 1.901734769344329834e-01 8.283741950988769531e+00 2.542174577713012695e+00 2.346297204494476318e-01
9.030000000000000000e+02 2.097956657409667969e+01 -2.253470230102539062e+01 -5.998683720827102661e-02 7.136457443237304688e+00 2.122941255569458008e+00 1.158799454569816589e-01
9.040000000000000000e+02 2.094568824768066406e+01 -2.122230720520019531e+01 3.284847363829612732e-02 7.062669754028320312e+00 2.128655433654785156e+00 2.860222458839416504e-01
9.050000000000000000e+02 1.159930992126464844e+01 1.961581802368164062e+01 1.815293878316879272e-01 6.052151203155517578e+00 1.870104193687438965e+00 1.486702561378479004e-01
9.060000000000000000e+02 1.643447303771972656e+01 3.446910858154296875e+01 4.155755937099456787e-01 5.681184768676757812e+00 1.829028010368347168e+00 1.434559464454650879e+00
9.070000000000000000e+02 1.439280033111572266e+01 3.325896072387695312e+01 1.493314504623413086e-01 5.714037418365478516e+00 1.759010672569274902e+00 6.921256184577941895e-01
9.080000000000000000e+02 1.594048213958740234e+01 3.613859939575195312e+01 2.140844166278839111e-01 4.503172397613525391e+00 1.415177106857299805e+00 6.100005507469177246e-01
9.090000000000000000e+02 2.297818756103515625e+01 -5.273785591125488281e+00 -9.579427540302276611e-02 7.764528274536132812e+00 2.300620317459106445e+00 2.405029386281967163e-01
9.100000000000000000e+02 2.196403312683105469e+01 4.017771184444427490e-01 -1.223605871200561523e-01 8.079398155212402344e+00 2.387111186981201172e+00 3.550218641757965088e-01
9.110000000000000000e+02 1.179016399383544922e+01 -2.756972122192382812e+01 -7.644535601139068604e-02 5.785354614257812500e+00 1.712672829627990723e+00 1.032835468649864197e-01
9.120000000000000000e+02 2.123308372497558594e+01 3.253647994995117188e+01 7.890937477350234985e-02 8.781234741210937500e+00 2.658043146133422852e+00 -1.470161080360412598e-01
9.130000000000000000e+02 2.290472221374511719e+01 3.381809234619140625e+01 4.499376416206359863e-01 8.546755790710449219e+00 2.699008226394653320e+00 -5.667165517807006836e-01
9.140000000000000000e+02 1.976677513122558594e+01 -3.093694686889648438e+01 1.458054780960083008e-01 7.549134254455566406e+00 2.308481931686401367e+00 1.056902930140495300e-01
9.150000000000000000e+02 2.229924583435058594e+01 7.362368583679199219e+00 4.982070624828338623e-02 8.451046943664550781e+00 2.550260305404663086e+00 1.449382305145263672e-01
9.160000000000000000e+02 2.104952621459960938e+01 -2.656530380249023438e+01 5.093838274478912354e-02 7.258244514465332031e+00 2.192754745483398438e+00 1.610168963670730591e-01
9.170000000000000000e+02 2.539665412902832031e+01 2.734262466430664062e+01 8.172848820686340332e-02 8.212591171264648438e+00 2.488295793533325195e+00 -1.249454841017723083e-01
9.180000000000000000e+02 1.321026325225830078e+01 -2.240581321716308594e+01 2.833442389965057373e-02 6.898431301116943359e+00 2.078029870986938477e+00 1.869244314730167389e-02
9.190000000000000000e+02 1.215342140197753906e+01 -2.509496307373046875e+01 -4.540208354592323303e-02 6.116943359375000000e+00 1.821462392807006836e+00 8.470756560564041138e-02
9.200000000000000000e+02 2.115187072753906250e+01 -2.794507980346679688e+01 -7.818935066461563110e-02 7.312472820281982422e+00 2.170284986495971680e+00 1.194338575005531311e-01
9.210000000000000000e+02 2.098967742919921875e+01 -2.385694694519042969e+01 -4.147484898567199707e-02 7.254656314849853516e+00 2.163954496383666992e+00 1.880384534597396851e-01
9.220000000000000000e+02 2.164211273193359375e+01 -6.442473888397216797e+00 -1.265092045068740845e-01 7.661402225494384766e+00 2.260468006134033203e+00 3.048641979694366455e-01
9.230000000000000000e+02 2.359310722351074219e+01 1.275805282592773438e+01 2.519648708403110504e-02 8.249642372131347656e+00 2.482451677322387695e+00 5.313775315880775452e-02
9.240000000000000000e+02 2.112288665771484375e+01 2.696201324462890625e+01 9.478265419602394104e-03 8.341711044311523438e+00 2.505356788635253906e+00 -2.350153401494026184e-02
9.250000000000000000e+02 2.249236297607421875e+01 2.668547439575195312e+01 6.677915342152118683e-03 8.307412147521972656e+00 2.494227170944213867e+00 -4.958660528063774109e-02
9.260000000000000000e+02 2.163603782653808594e+01 -3.229846572875976562e+01 2.554188370704650879e-01 7.521842002868652344e+00 2.333178281784057617e+00 3.562087416648864746e-01
9.270000000000000000e+02 2.154562187194824219e+01 -1.057193470001220703e+01 6.043073162436485291e-02 7.721336364746093750e+00 2.334530115127563477e+00 2.141198962926864624e-01
9.280000000000000000e+02 2.105704689025878906e+01 1.175224494934082031e+01 4.322332795709371567e-03 8.321139335632324219e+00 2.497638702392578125e+00 1.614613272249698639e-02
9.290000000000000000e+02 1.450385570526123047e+01 1.107735252380371094e+01 3.927855938673019409e-02 8.767112731933593750e+00 2.641917467117309570e+00 -4.904916044324636459e-03
9.300000000000000000e+02 2.242930221557617188e+01 2.530740928649902344e+01 1.670428551733493805e-02 8.282145500183105469e+00 2.489655017852783203e+00 -4.377310723066329956e-02
9.310000000000000000e+02 2.266080665588378906e+01 2.945754051208496094e+01 2.126205340027809143e-02 8.392015457153320312e+00 2.523983240127563477e+00 -1.052970588207244873e-01
9.320000000000000000e+02 2.440926170349121094e+01 3.201203536987304688e+01 2.637557685375213623e-01 8.266586303710937500e+00 2.559102535247802734e+00 -3.186226189136505127e-01
9.330000000000000000e+02 1.287862110137939453e+01 1.655887413024902344e+01 2.654045820236206055e-02 7.214988231658935547e+00 2.172458648681640625e+00 8.344256877899169922e-02
9.340000000000000000e+02 1.438642024993896484e+01 1.658386421203613281e+01 2.510491386055946350e-02 8.547634124755859375e+00 2.571821689605712891e+00 5.577270314097404480e-02
9.350000000000000000e+02 2.106226348876953125e+01 2.004810142517089844e+01 8.730839472264051437e-04 8.243710517883300781e+00 2.473375082015991211e+00 -1.290211919695138931e-03
9.360000000000000000e+02 2.107783126831054688e+01 2.281293487548828125e+01 -3.041570598725229502e-04 8.260998725891113281e+00 2.478208303451538086e+00 -5.554741714149713516e-03
9.370000000000000000e+02 2.236384582519531250e+01 2.256043815612792969e+01 8.814097382128238678e-03 8.246666908264160156e+00 2.476644277572631836e+00 -2.102558128535747528e-02
9.380000000000000000e+02 2.234098625183105469e+01 2.118287658691406250e+01 3.381274174898862839e-03 8.237215995788574219e+00 2.472179174423217773e+00 -8.055367507040500641e-03
9.390000000000000000e+02 2.230684089660644531e+01 1.843621063232421875e+01 3.857127856463193893e-03 8.232576370239257812e+00 2.470930099487304688e+00 3.565077669918537140e-03
9.400000000000000000e+02 2.229842758178710938e+01 1.706489562988281250e+01 5.547097418457269669e-03 8.235500335693359375e+00 2.472314357757568359e+00 7.068475708365440369e-03
9.410000000000000000e+02 2.232046508789062500e+01 1.980689048767089844e+01 5.752750206738710403e-03 8.232297897338867188e+00 2.471415042877197266e+00 -5.844081752002239227e-03
9.420000000000000000e+02 2.360848426818847656e+01 2.093634986877441406e+01 1.452642027288675308e-02 8.217905044555664062e+00 2.469729423522949219e+00 -1.842426136136054993e-02
9.430000000000000000e+02 2.230325126647949219e+01 1.432001113891601562e+01 7.410698104649782181e-03 8.257499694824218750e+00 2.479473114013671875e+00 2.256735786795616150e-02
9.440000000000000000e+02 2.230739021301269531e+01 1.293642616271972656e+01 8.705530315637588501e-03 8.277815818786621094e+00 2.485956430435180664e+00 3.495689854025840759e-02
9.450000000000000000e+02 1.087868213653564453e+01 -2.304168891906738281e+01 1.097991503775119781e-02 5.195104122161865234e+00 1.561825156211853027e+00 6.685926765203475952e-02
9.460000000000000000e+02 1.301002693176269531e+01 1.509543323516845703e+01 7.035154104232788086e-02 7.306959152221679688e+00 2.213193178176879883e+00 2.162581682205200195e-02
9.470000000000000000e+02 1.450293350219726562e+01 -2.361531639099121094e+01 3.614431992173194885e-02 7.776951313018798828e+00 2.343928575515747070e+00 -1.544821355491876602e-02
9.480000000000000000e+02 1.329008293151855469e+01 7.988447666168212891e+00 4.638792946934700012e-02 8.096477508544921875e+00 2.442859649658203125e+00 -3.766331672668457031e-01
9.490000000000000000e+02 1.220265197753906250e+01 -1.636913490295410156e+01 1.573000103235244751e-02 6.268795967102050781e+00 1.885357856750488281e+00 8.329223841428756714e-02
9.500000000000000000e+02 1.454509449005126953e+01 -1.529389381408691406e+01 2.512010373175144196e-02 8.006022453308105469e+00 2.409342765808105469e+00 -3.678238391876220703e-02
9.510000000000000000e+02 1.328210926055908203e+01 -1.430993652343750000e+01 4.130291566252708435e-02 7.174067497253417969e+00 2.164611101150512695e+00 9.110777825117111206e-02
9.520000000000000000e+02 1.095161724090576172e+01 2.306108951568603516e+00 -4.872007295489311218e-02 3.215430021286010742e+00 9.500129818916320801e-01 -1.886341333389282227e+00
9.530000000000000000e+02 1.349439716339111328e+01 -1.538052940368652344e+01 -2.953766845166683197e-02 7.385249614715576172e+00 2.206713438034057617e+00 5.042089894413948059e-02
9.540000000000000000e+02 1.459807491302490234e+01 4.167770385742187500e+00 -2.284649759531021118e-01 1.098450660705566406e+01 3.226812362670898438e+00 -4.812242090702056885e-02
9.550000000000000000e+02 1.424120330810546875e+01 1.072584390640258789e+00 -5.195372104644775391e-01 1.116156578063964844e+01 3.192608594894409180e+00 4.130210399627685547e+00
9.560000000000000000e+02 1.485235118865966797e+01 -1.319577097892761230e+00 1.838271766901016235e-01 2.698657035827636719e+00 8.647452592849731445e-01 -2.181393623352050781e+00
9.570000000000000000e+02 1.353858089447021484e+01 -9.643667221069335938e+00 2.289754711091518402e-02 7.800627708435058594e+00 2.347057580947875977e+00 2.514919042587280273e-01
9.580000000000000000e+02 1.361343193054199219e+01 -8.418532371520996094e+00 6.334467977285385132e-02 8.106833457946777344e+00 2.451053619384765625e+00 3.292782306671142578e-01
9.590000000000000000e+02 1.458658313751220703e+01 -9.704230308532714844e+00 3.360558673739433289e-02 8.683166503906250000e+00 2.615031719207763672e+00 6.212732940912246704e-02
9.600000000000000000e+02 1.461189079284667969e+01 -3.021311759948730469e+00 -4.089981615543365479e-01 9.935328483581542969e+00 2.857898950576782227e+00 -5.813165307044982910e-01
9.610000000000000000e+02 1.347566032409667969e+01 -1.946586608886718750e+00 -3.100502490997314453e+00 1.450673198699951172e+01 3.421868801116943359e+00 -4.431307315826416016e-01
9.620000000000000000e+02 1.255998420715332031e+01 -7.453228473663330078e+00 1.881757229566574097e-01 7.026810646057128906e+00 2.164495944976806641e+00 6.503691673278808594e-01
9.630000000000000000e+02 1.451321506500244141e+01 -5.694409370422363281e+00 -5.885356571525335312e-03 1.003091907501220703e+01 3.007510185241699219e+00 1.492369025945663452e-01
9.640000000000000000e+02 1.440012168884277344e+01 -1.248650455474853516e+01 5.238580331206321716e-02 8.164905548095703125e+00 2.465187549591064453e+00 3.195375949144363403e-02
9.650000000000000000e+02 1.314976596832275391e+01 -1.795520782470703125e+01 -2.003756165504455566e-02 6.934348583221435547e+00 2.074293375015258789e+00 1.620139554142951965e-02
9.660000000000000000e+02 1.326321697235107422e+01 1.372216987609863281e+01 1.575208269059658051e-02 7.580567359924316406e+00 2.278895854949951172e+00 -2.653366327285766602e-02
9.670000000000000000e+02 1.094577312469482422e+01 1.144679641723632812e+01 1.944577395915985107e-01 5.466926574707031250e+00 1.698415279388427734e+00 -1.386751085519790649e-01
9.680000000000000000e+02 2.231267356872558594e+01 1.154807281494140625e+01 1.407091319561004639e-02 8.304296493530273438e+00 2.495510101318359375e+00 4.766694828867912292e-02
9.690000000000000000e+02 2.231857109069824219e+01 1.015651512145996094e+01 1.702369004487991333e-02 8.340843200683593750e+00 2.507360219955444336e+00 6.777278333902359009e-02
9.700000000000000000e+02 7.736045837402343750e+01 -3.782528686523437500e+01 -4.777676891535520554e-03 7.958618164062500000e+00 2.386152267456054688e+00 -1.239138073287904263e-03
9.710000000000000000e+02 7.936535644531250000e+01 -3.476353073120117188e+01 -3.331216517835855484e-03 7.978023052215576172e+00 2.392407655715942383e+00 -1.121981185860931873e-03
9.720000000000000000e+02 7.927626800537109375e+01 -2.782644271850585938e+01 -2.912433119490742683e-04 7.944561004638671875e+00 2.383280754089355469e+00 -5.028466228395700455e-03
9.730000000000000000e+02 7.783589172363281250e+01 3.206946945190429688e+01 -1.110840472392737865e-03 7.600174903869628906e+00 2.279719114303588867e+00 -8.722974453121423721e-04
9.740000000000000000e+02 7.929320526123046875e+01 3.618821716308593750e+01 -6.800880073569715023e-04 7.586096763610839844e+00 2.275624990463256836e+00 2.435070637147873640e-04
9.750000000000000000e+02 7.932568359375000000e+01 -2.084652709960937500e+01 -1.542545156553387642e-03 7.892005920410156250e+00 2.367138862609863281e+00 -6.417547352612018585e-03
9.760000000000000000e+02 7.786634063720703125e+01 -2.631410217285156250e+01 1.420823100488632917e-04 7.916869640350341797e+00 2.375103473663330078e+00 -1.447148062288761139e-02
9.770000000000000000e+02 7.927426910400390625e+01 -3.063054656982421875e+01 -5.585026810877025127e-04 7.961249828338623047e+00 2.388207435607910156e+00 -4.358140751719474792e-03
9.780000000000000000e+02 7.808181762695312500e+01 -3.468994522094726562e+01 -5.935904337093234062e-04 7.960299968719482422e+00 2.387912034988403320e+00 -6.629114504903554916e-03
9.790000000000000000e+02 7.794377899169921875e+01 -3.337897872924804688e+01 -2.492509782314300537e-03 7.953942775726318359e+00 2.385435104370117188e+00 -6.632519420236349106e-03
9.800000000000000000e+02 7.514933013916015625e+01 -3.736759185791015625e+01 -7.124426309019327164e-03 7.929148674011230469e+00 2.376607179641723633e+00 -1.538628060370683670e-02
9.810000000000000000e+02 7.642313385009765625e+01 -3.890097427368164062e+01 -1.721114269457757473e-03 7.957614421844482422e+00 2.386767864227294922e+00 -5.979218054562807083e-03
9.820000000000000000e+02 7.777002716064453125e+01 2.110391426086425781e+01 1.483761006966233253e-04 7.613469600677490234e+00 2.284085273742675781e+00 -5.171273369342088699e-03
9.830000000000000000e+02 7.925362396240234375e+01 2.238248252868652344e+01 -9.254796314053237438e-04 7.596938610076904297e+00 2.278803825378417969e+00 -1.666225376538932323e-03
9.840000000000000000e+02 7.798132324218750000e+01 1.405883598327636719e+01 1.407836913131177425e-03 7.632967948913574219e+00 2.290312767028808594e+00 -9.275711141526699066e-03
9.850000000000000000e+02 7.931836700439453125e+01 1.537399196624755859e+01 9.436280233785510063e-04 7.616478443145751953e+00 2.285226583480834961e+00 -3.336492693051695824e-03
9.860000000000000000e+02 7.786430358886718750e+01 3.068882751464843750e+01 1.381161855533719063e-03 7.599796772003173828e+00 2.280353307723999023e+00 -1.746907713823020458e-03
9.870000000000000000e+02 7.796908569335937500e+01 2.794929885864257812e+01 1.172173302620649338e-03 7.601181030273437500e+00 2.280705928802490234e+00 -2.543635433539748192e-03
9.880000000000000000e+02 7.932704162597656250e+01 2.790480995178222656e+01 -1.209358801133930683e-03 7.588950634002685547e+00 2.276322364807128906e+00 -6.765406578779220581e-04
9.890000000000000000e+02 7.794765472412109375e+01 2.530674171447753906e+01 1.781255239620804787e-03 7.604769706726074219e+00 2.281965255737304688e+00 -3.454534802585840225e-03
9.900000000000000000e+02 7.779937744140625000e+01 2.396924781799316406e+01 -3.353496140334755182e-04 7.607822418212890625e+00 2.282246112823486328e+00 -3.522479906678199768e-03
9.910000000000000000e+02 7.789151763916015625e+01 1.824336814880371094e+01 -1.246144674951210618e-04 7.619779109954833984e+00 2.285896301269531250e+00 -6.424038670957088470e-03
9.920000000000000000e+02 7.796341705322265625e+01 1.544904613494873047e+01 -3.506282882881350815e-05 7.628129959106445312e+00 2.288428306579589844e+00 -7.779551669955253601e-03
9.930000000000000000e+02 7.793440246582031250e+01 1.684242248535156250e+01 1.404221518896520138e-03 7.623411655426025391e+00 2.287444829940795898e+00 -7.791125681251287460e-03
9.940000000000000000e+02 7.799151611328125000e+01 1.266765213012695312e+01 -4.977601565769873559e-05 7.638882160186767578e+00 2.291649818420410156e+00 -9.312406182289123535e-03
9.950000000000000000e+02 7.665969848632812500e+01 1.135025024414062500e+01 9.807053720578551292e-04 7.654357433319091797e+00 2.296601295471191406e+00 -1.581809669733047485e-02
9.960000000000000000e+02 7.799906921386718750e+01 8.504704475402832031e+00 1.278984593227505684e-03 7.658588886260986328e+00 2.297960281372070312e+00 -1.224963739514350891e-02
9.970000000000000000e+02 7.933198547363281250e+01 9.803028106689453125e+00 9.276556083932518959e-04 7.642218589782714844e+00 2.292943954467773438e+00 -4.457550123333930969e-03
9.980000000000000000e+02 7.791268157958984375e+01 2.931050491333007812e+01 -7.260566926561295986e-04 7.600349903106689453e+00 2.279887199401855469e+00 -1.673538936302065849e-03
9.990000000000000000e+02 7.667136383056640625e+01 7.191442489624023438e+00 2.036056946963071823e-03 7.673421859741210938e+00 2.302637338638305664e+00 -2.026293426752090454e-02
1.000000000000000000e+03 7.799543762207031250e+01 1.244665235280990601e-01 7.337495917454361916e-04 7.711852550506591797e+00 2.313776016235351562e+00 -1.647178642451763153e-02
1.001000000000000000e+03 7.932729339599609375e+01 1.438418507575988770e+00 5.620827432721853256e-04 7.697154521942138672e+00 2.309314966201782227e+00 -6.073327735066413879e-03
1.002000000000000000e+03 7.933108520507812500e+01 -1.389063739776611328e+01 1.136274542659521103e-03 7.830776214599609375e+00 2.349573850631713867e+00 -7.061232812702655792e-03
1.003000000000000000e+03 7.932859802246093750e+01 -6.927287101745605469e+00 -4.251692371326498687e-05 7.767338752746582031e+00 2.330188989639282227e+00 -6.892889272421598434e-03
1.004000000000000000e+03 7.932926177978515625e+01 -1.945604705810546875e+01 1.512687536887824535e-03 7.880265235900878906e+00 2.364533424377441406e+00 -6.475768983364105225e-03
1.005000000000000000e+03 7.759754180908203125e+01 3.721394348144531250e+01 -9.562560007907450199e-04 7.599647045135498047e+00 2.279607295989990234e+00 8.898315718397498131e-04
1.006000000000000000e+03 7.799919128417968750e+01 9.893675804138183594e+00 -3.843993545160628855e-05 7.651736259460449219e+00 2.295509338378906250e+00 -1.091988198459148407e-02
1.007000000000000000e+03 7.668762207031250000e+01 1.847339272499084473e-01 9.717478533275425434e-04 7.715838909149169922e+00 2.315043210983276367e+00 -2.489932812750339508e-02
1.008000000000000000e+03 7.799479675292968750e+01 2.918129920959472656e+00 9.492096141912043095e-04 7.692382335662841797e+00 2.307999610900878906e+00 -1.524522900581359863e-02
1.009000000000000000e+03 7.799967956542968750e+01 -1.272123932838439941e+00 1.987149444175884128e-04 7.722479343414306641e+00 2.316803455352783203e+00 -1.656031422317028046e-02
1.010000000000000000e+03 7.933114624023437500e+01 -2.744507074356079102e+00 -1.782808540156111121e-04 7.730980873107910156e+00 2.319240808486938477e+00 -6.450716871768236160e-03
1.011000000000000000e+03 7.798590087890625000e+01 -8.251051902770996094e+00 -2.081523853121325374e-04 7.777505874633789062e+00 2.333189249038696289e+00 -1.850589364767074585e-02
1.012000000000000000e+03 7.800231933593750000e+01 -5.462201595306396484e+00 1.800423051463440061e-04 7.754765987396240234e+00 2.326483726501464844e+00 -1.803057454526424408e-02
1.013000000000000000e+03 7.932327270507812500e+01 -9.715090751647949219e+00 -4.427922540344297886e-04 7.792480945587158203e+00 2.337611436843872070e+00 -6.989843677729368210e-03
1.014000000000000000e+03 7.800800323486328125e+01 -1.381340217590332031e+01 -1.237913151271641254e-03 7.823789596557617188e+00 2.346765518188476562e+00 -1.838729716837406158e-02
1.015000000000000000e+03 7.799570465087890625e+01 -1.243100833892822266e+01 9.109085658565163612e-04 7.812530517578125000e+00 2.344032526016235352e+00 -1.874015294015407562e-02
1.016000000000000000e+03 7.933257293701171875e+01 -1.667211914062500000e+01 1.425720984116196632e-03 7.855993270874023438e+00 2.357225656509399414e+00 -6.837270222604274750e-03
1.017000000000000000e+03 7.799425506591796875e+01 -1.935296821594238281e+01 -2.030742121860384941e-03 7.868786334991455078e+00 2.360026597976684570e+00 -1.754270866513252258e-02
1.018000000000000000e+03 1.504583001136779785e+00 -4.005070877075195312e+01 -3.298800066113471985e-02 -8.882941007614135742e-01 -2.763846218585968018e-01 2.426376193761825562e-01
1.019000000000000000e+03 2.019309759140014648e+00 2.865068244934082031e+01 2.246304182335734367e-03 -1.544902563095092773e+00 -4.627968668937683105e-01 -1.963251382112503052e-01
1.020000000000000000e+03 6.670246720314025879e-01 2.750629234313964844e+01 -2.745523815974593163e-04 -2.623936653137207031e+00 -7.872633934020996094e-01 -7.274943590164184570e-02
1.021000000000000000e+03 2.889291763305664062e+00 3.790570831298828125e+01 3.466903418302536011e-02 -4.028185009956359863e-01 -1.104448363184928894e-01 -3.179301023483276367e-01
1.022000000000000000e+03 6.757754087448120117e-01 3.455957031250000000e+01 2.779694087803363800e-02 -1.732972860336303711e+00 -5.115527510643005371e-01 -1.103346496820449829e-01
1.023000000000000000e+03 7.926627397537231445e-01 -3.592799758911132812e+01 9.726331382989883423e-02 -1.686322212219238281e+00 -4.767176508903503418e-01 1.478734314441680908e-01
1.024000000000000000e+03 2.019433498382568359e+00 -3.287236022949218750e+01 -1.109852455556392670e-03 -1.195774197578430176e+00 -3.590652048587799072e-01 1.264135390520095825e-01
1.025000000000000000e+03 3.372512340545654297e+00 2.839595222473144531e+01 4.652033746242523193e-02 -6.185991764068603516e-01 -1.716236621141433716e-01 -2.832831740379333496e-01
1.026000000000000000e+03 3.285086870193481445e+00 2.549569129943847656e+01 6.160585954785346985e-02 -7.733116745948791504e-01 -2.135117501020431519e-01 -1.983228027820587158e-01
1.027000000000000000e+03 2.008390426635742188e+00 3.150049972534179688e+01 6.657776422798633575e-03 -1.329582810401916504e+00 -3.968775272369384766e-01 -2.209435850381851196e-01
1.028000000000000000e+03 1.988937497138977051e+00 3.289426422119140625e+01 2.463320083916187286e-02 -1.214063525199890137e+00 -3.568291068077087402e-01 -2.556055188179016113e-01
1.029000000000000000e+03 5.147323608398437500e+00 3.783821487426757812e+01 -1.149363517761230469e-01 7.017635703086853027e-01 1.760481745004653931e-01 -1.348458528518676758e-01
1.030000000000000000e+03 3.693220138549804688e+00 3.912707901000976562e+01 -5.648763105273246765e-02 -2.934086024761199951e-01 -1.049688681960105896e-01 -1.726147383451461792e-01
1.031000000000000000e+03 2.017122745513916016e+00 -3.013026428222656250e+01 -2.343741990625858307e-02 -1.291995048522949219e+00 -3.946297168731689453e-01 6.154281646013259888e-02
1.032000000000000000e+03 1.999639749526977539e+00 -2.732195091247558594e+01 -1.087103039026260376e-02 -1.377510905265808105e+00 -4.165145754814147949e-01 4.003945738077163696e-02
1.033000000000000000e+03 1.896313548088073730e+00 -2.171951484680175781e+01 -1.781000569462776184e-02 -1.525520563125610352e+00 -4.629991650581359863e-01 4.011411964893341064e-02
1.034000000000000000e+03 6.340172290802001953e-01 2.044746017456054688e+01 4.926041699945926666e-03 -3.093280076980590820e+00 -9.265061616897583008e-01 -3.025276213884353638e-02
1.035000000000000000e+03 5.816680192947387695e-01 1.338660049438476562e+01 7.939929142594337463e-03 -3.041358709335327148e+00 -9.100256562232971191e-01 1.740777119994163513e-02
1.036000000000000000e+03 5.098910927772521973e-01 7.786276340484619141e+00 1.624545082449913025e-02 -2.211461544036865234e+00 -6.585648059844970703e-01 1.272822171449661255e-01
1.037000000000000000e+03 2.645229101181030273e+00 -3.663579177856445312e+01 1.222198531031608582e-01 -5.653948187828063965e-01 -1.329524964094161987e-01 3.159339725971221924e-01
1.038000000000000000e+03 4.055896759033203125e+00 -3.903383255004882812e+01 7.433763705193996429e-03 2.118176594376564026e-02 8.584658615291118622e-03 1.963289529085159302e-01
1.039000000000000000e+03 3.544982194900512695e+00 -3.491780471801757812e+01 1.000472977757453918e-01 -1.308542639017105103e-01 -9.242092259228229523e-03 2.824111878871917725e-01
1.040000000000000000e+03 2.094038486480712891e+00 -3.418598937988281250e+01 8.346969634294509888e-02 -1.045430421829223633e+00 -2.885882258415222168e-01 2.153343111276626587e-01
1.041000000000000000e+03 2.009520292282104492e+00 -3.151277160644531250e+01 7.278180867433547974e-02 -1.245422601699829102e+00 -3.517922163009643555e-01 1.188108995556831360e-01
1.042000000000000000e+03 3.354845046997070312e+00 -2.708652305603027344e+01 4.157429188489913940e-02 -3.575744330883026123e-01 -9.480004012584686279e-02 6.987817585468292236e-02
1.043000000000000000e+03 1.916807651519775391e+00 -2.310950660705566406e+01 1.337021403014659882e-02 -1.488040685653686523e+00 -4.424011409282684326e-01 4.083195701241493225e-02
1.044000000000000000e+03 1.973523855209350586e+00 -2.590973854064941406e+01 2.330708876252174377e-02 -1.403893470764160156e+00 -4.141758978366851807e-01 4.576486721634864807e-02
1.045000000000000000e+03 6.210772395133972168e-01 -1.909772491455078125e+01 1.189357135444879532e-02 -2.537273645401000977e+00 -7.576140165328979492e-01 2.578530088067054749e-02
1.046000000000000000e+03 1.856021404266357422e+00 -1.894319152832031250e+01 -1.187086012214422226e-02 -1.591616392135620117e+00 -4.810461699962615967e-01 3.861255943775177002e-02
1.047000000000000000e+03 1.825448393821716309e+00 -1.616718101501464844e+01 -2.269214717671275139e-03 -1.640715599060058594e+00 -4.928954243659973145e-01 2.071821317076683044e-02
1.048000000000000000e+03 2.950867176055908203e+00 -1.331577587127685547e+01 8.539871871471405029e-02 -7.978014945983886719e-01 -2.137208431959152222e-01 -5.180634558200836182e-02
1.049000000000000000e+03 5.919944643974304199e-01 -1.206511592864990234e+01 4.220907867420464754e-04 -2.513192653656005859e+00 -7.538311481475830078e-01 -1.769847050309181213e-02
1.050000000000000000e+03 1.766190052032470703e+00 -1.199400138854980469e+01 5.255305767059326172e-02 -1.629855751991271973e+00 -4.731908142566680908e-01 -8.002610504627227783e-02
1.051000000000000000e+03 1.641908526420593262e+00 -6.331867218017578125e+00 6.115832552313804626e-02 -1.124779582023620605e+00 -3.190863728523254395e-01 -4.157363176345825195e-01
1.052000000000000000e+03 3.082543611526489258e+00 -3.208718061447143555e+00 -1.385227888822555542e-01 -3.370303809642791748e-01 -1.426659524440765381e-01 -7.051511406898498535e-01
1.053000000000000000e+03 1.365058779716491699e+00 -3.525863647460937500e+00 -1.967088878154754639e-02 -5.906227827072143555e-01 -1.830881088972091675e-01 -4.180242717266082764e-01
1.054000000000000000e+03 5.024566054344177246e-01 -5.002687931060791016e+00 6.168610882014036179e-03 -1.180015325546264648e+00 -3.521540164947509766e-01 -1.590890884399414062e-01
1.055000000000000000e+03 4.659960865974426270e-01 4.965780735015869141e+00 4.944801330566406250e-03 -1.283474683761596680e+00 -3.835589885711669922e-01 1.687097251415252686e-01
1.056000000000000000e+03 3.415972948074340820e+00 4.552457809448242188e+00 3.871692717075347900e-02 -4.506523311138153076e-01 -1.235806271433830261e-01 8.408507108688354492e-01
1.057000000000000000e+03 1.655861616134643555e+00 1.035905933380126953e+01 5.890564620494842529e-02 -1.915962100028991699e+00 -5.571169257164001465e-01 2.165448665618896484e-01
1.058000000000000000e+03 5.467995405197143555e-01 1.058426189422607422e+01 9.329600259661674500e-03 -2.775470256805419922e+00 -8.298422098159790039e-01 5.567607656121253967e-02
1.059000000000000000e+03 1.760551571846008301e+00 1.311903953552246094e+01 3.477234020829200745e-02 -2.038454771041870117e+00 -6.011047363281250000e-01 9.955261647701263428e-02
1.060000000000000000e+03 1.905422687530517578e+00 2.018053627014160156e+01 1.554610393941402435e-02 -2.019778490066528320e+00 -6.012697219848632812e-01 -4.755543917417526245e-02
1.061000000000000000e+03 1.884821057319641113e+00 1.876418495178222656e+01 1.826748624444007874e-02 -2.047366857528686523e+00 -6.087297797203063965e-01 -2.322149462997913361e-02
1.062000000000000000e+03 1.949761271476745605e+00 2.436833763122558594e+01 2.438285015523433685e-02 -1.852190971374511719e+00 -5.483424663543701172e-01 -1.223474517464637756e-01
1.063000000000000000e+03 1.020253086090087891e+01 -2.469148159027099609e+00 1.952648907899856567e-01 1.897186279296875000e+00 6.277353763580322266e-01 1.248988628387451172e+00
1.064000000000000000e+03 1.247837734222412109e+01 -1.726185560226440430e+00 -1.217092633247375488e+00 1.091234207153320312e+01 2.908574819564819336e+00 4.513341903686523438e+00
1.065000000000000000e+03 9.241552352905273438e+00 -2.317780494689941406e+00 -1.631060838699340820e-01 8.902674317359924316e-01 2.181484103202819824e-01 2.231249362230300903e-01
1.066000000000000000e+03 1.165025424957275391e+01 1.854704976081848145e+00 -1.942239999771118164e-01 5.104628086090087891e+00 1.473121166229248047e+00 -3.250689268112182617e+00
1.067000000000000000e+03 1.453173351287841797e+01 -5.972025990486145020e-01 1.754115462303161621e+00 3.739335536956787109e+00 1.648035287857055664e+00 -2.116023778915405273e+00
1.068000000000000000e+03 1.496897792816162109e+01 1.310044825077056885e-01 1.544016718864440918e+00 -6.223804950714111328e+00 -1.403936386108398438e+00 -3.109041154384613037e-01
1.069000000000000000e+03 1.365421485900878906e+01 -1.560121178627014160e+00 -2.908580541610717773e+00 1.562467861175537109e+01 3.814829587936401367e+00 -2.010480403900146484e+00
1.070000000000000000e+03 1.477088260650634766e+01 -7.367096543312072754e-01 -1.843461990356445312e+00 -8.051335811614990234e-01 -7.945786714553833008e-01 -1.916027188301086426e+00
1.071000000000000000e+03 1.256309318542480469e+01 1.739359498023986816e+00 -1.888025760650634766e+00 1.164398193359375000e+01 2.926786661148071289e+00 -3.636358261108398438e+00
1.072000000000000000e+03 1.334169864654541016e+01 1.625708818435668945e+00 -3.531810760498046875e+00 1.567720031738281250e+01 3.643616914749145508e+00 5.164223164319992065e-02
1.073000000000000000e+03 1.004569721221923828e+01 1.729401826858520508e+00 -6.702009439468383789e-01 8.849855661392211914e-01 6.443540006875991821e-02 -5.015140175819396973e-01
1.074000000000000000e+03 9.649071693420410156e+00 2.874112367630004883e+00 6.764163076877593994e-02 1.546078324317932129e+00 4.841159880161285400e-01 -5.509576797485351562e-01
1.075000000000000000e+03 5.863404273986816406e+00 2.593980073928833008e+00 -5.608671307563781738e-01 -5.581357050687074661e-03 -1.699345409870147705e-01 8.723816871643066406e-01
1.076000000000000000e+03 3.771223306655883789e+00 3.597013473510742188e+00 -1.267767250537872314e-01 -2.929887771606445312e-01 -1.259296387434005737e-01 8.739620447158813477e-01
1.077000000000000000e+03 3.064126491546630859e+00 3.886127948760986328e+00 -4.801613837480545044e-02 -4.558444023132324219e-01 -1.511581540107727051e-01 8.109247088432312012e-01
1.078000000000000000e+03 3.603346586227416992e+00 2.810904741287231445e+00 -3.021126091480255127e-01 -2.467754781246185303e-01 -1.646664291620254517e-01 8.178595900535583496e-01
1.079000000000000000e+03 4.359857559204101562e+00 2.695767641067504883e+00 -4.126259982585906982e-01 -1.548585444688796997e-01 -1.702453643083572388e-01 8.686533570289611816e-01
1.080000000000000000e+03 6.684208869934082031e+00 3.308692216873168945e+00 -1.576773822307586670e-01 2.247511297464370728e-01 2.012212760746479034e-02 7.542723417282104492e-01
1.081000000000000000e+03 7.465338230133056641e+00 3.255732059478759766e+00 -1.122511178255081177e-01 4.447931647300720215e-01 9.976261109113693237e-02 5.595793128013610840e-01
1.082000000000000000e+03 8.995333671569824219e+00 3.063600063323974609e+00 1.965186372399330139e-02 1.155989885330200195e+00 3.526925444602966309e-01 -1.408665478229522705e-01
1.083000000000000000e+03 1.013412570953369141e+01 2.634585142135620117e+00 2.838387712836265564e-02 1.996994376182556152e+00 6.076135039329528809e-01 -9.487159252166748047e-01
1.084000000000000000e+03 7.597902774810791016e+00 4.834886074066162109e+00 4.385573267936706543e-01 1.082737207412719727e+00 4.563883543014526367e-01 3.110496699810028076e-01
1.085000000000000000e+03 6.514197349548339844e+00 -3.569426536560058594e+00 1.844829693436622620e-02 2.593601644039154053e-01 8.334254473447799683e-02 -6.127427220344543457e-01
1.086000000000000000e+03 2.545869827270507812e+00 -4.752367973327636719e+00 5.785028263926506042e-02 -6.033125519752502441e-01 -1.636386662721633911e-01 -6.371014714241027832e-01
1.087000000000000000e+03 3.961257696151733398e+00 -7.801011085510253906e+00 2.735932767391204834e-01 -2.085063010454177856e-01 1.952609233558177948e-02 -4.409027099609375000e-01
1.088000000000000000e+03 7.298814296722412109e+00 -3.359111547470092773e+00 3.693790733814239502e-02 4.465917646884918213e-01 1.450589001178741455e-01 -4.467797279357910156e-01
1.089000000000000000e+03 1.172671985626220703e+01 -3.494701862335205078e+00 -3.571960628032684326e-01 6.290596961975097656e+00 1.780020236968994141e+00 1.876893877983093262e+00
1.090000000000000000e+03 5.530835151672363281e+00 -2.806822776794433594e+00 -3.606180250644683838e-01 -2.439268492162227631e-02 -1.155032068490982056e-01 -7.898557782173156738e-01
1.091000000000000000e+03 4.883976936340332031e+00 -3.874486923217773438e+00 9.596358053386211395e-03 -9.011603146791458130e-02 -2.415590360760688782e-02 -7.936635613441467285e-01
1.092000000000000000e+03 5.696302890777587891e+00 -3.728941440582275391e+00 3.024178743362426758e-02 1.182074546813964844e-01 4.453477263450622559e-02 -7.250514030456542969e-01
1.093000000000000000e+03 2.248408079147338867e+00 -3.399662494659423828e+00 -7.637946307659149170e-02 -4.582829177379608154e-01 -1.603987216949462891e-01 -5.838867425918579102e-01
1.094000000000000000e+03 1.515267491340637207e+00 -4.911757469177246094e+00 2.511313371360301971e-02 -8.849688768386840820e-01 -2.579567134380340576e-01 -4.484798908233642578e-01
1.095000000000000000e+03 1.283394145965576172e+01 -5.299648761749267578e+00 -4.448070377111434937e-02 7.865020275115966797e+00 2.346161842346191406e+00 7.904075980186462402e-01
1.096000000000000000e+03 1.391700077056884766e+01 3.017194032669067383e+00 -1.159195542335510254e+00 1.079460430145263672e+01 2.890622615814208984e+00 8.181742429733276367e-01
1.097000000000000000e+03 4.119274616241455078e-01 3.570077657699584961e+00 -1.472380291670560837e-02 -7.316979765892028809e-01 -2.239265292882919312e-01 1.517412960529327393e-01
1.098000000000000000e+03 1.447426223754882812e+01 -2.005004882812500000e+00 -1.230709195137023926e+00 8.479060173034667969e+00 2.174505472183227539e+00 -2.390527486801147461e+00
1.099000000000000000e+03 1.254423809051513672e+01 2.765994834899902344e+01 3.220939636230468750e-01 6.053260803222656250e+00 1.912606358528137207e+00 4.023549556732177734e-01
1.100000000000000000e+03 5.859073638916015625e+00 2.496515655517578125e+01 1.357349455356597900e-01 1.128110051155090332e+00 3.791534900665283203e-01 -1.929288208484649658e-01
1.101000000000000000e+03 1.306971073150634766e+01 -1.225222301483154297e+01 4.524216800928115845e-02 7.117673873901367188e+00 2.148874759674072266e+00 1.465519219636917114e-01
1.102000000000000000e+03 1.189060688018798828e+01 -1.772879028320312500e+01 4.406778514385223389e-02 6.051010608673095703e+00 1.828523397445678711e+00 5.096531286835670471e-02
1.103000000000000000e+03 2.322193717956542969e+01 1.732010841369628906e-01 -2.481511607766151428e-02 8.026781082153320312e+00 2.400589704513549805e+00 2.713036537170410156e-01
1.104000000000000000e+03 2.188724708557128906e+01 -9.540707468986511230e-01 -7.705004885792732239e-03 7.906414031982421875e+00 2.369612693786621094e+00 4.528907239437103271e-01
1.105000000000000000e+03 2.308371353149414062e+01 -2.532824039459228516e+00 -2.099033445119857788e-02 7.834793090820312500e+00 2.344140768051147461e+00 2.569689154624938965e-01
1.106000000000000000e+03 2.218554878234863281e+01 -1.760650062561035156e+01 -9.239546209573745728e-02 7.439710140228271484e+00 2.204194307327270508e+00 1.992328464984893799e-01
1.107000000000000000e+03 2.089571189880371094e+01 -1.992961883544921875e+01 -1.294743865728378296e-01 7.207509040832519531e+00 2.123410224914550781e+00 3.286846578121185303e-01
1.108000000000000000e+03 2.238573265075683594e+01 -2.501250839233398438e+01 -2.469610422849655151e-02 7.319713592529296875e+00 2.188505172729492188e+00 2.049526274204254150e-01
1.109000000000000000e+03 1.409874343872070312e+01 3.833187103271484375e+01 -4.717110097408294678e-01 4.490773200988769531e+00 1.205718636512756348e+00 2.690340876579284668e-01
1.110000000000000000e+03 1.372671985626220703e+01 3.558535766601562500e+01 -1.406364589929580688e-01 4.726213932037353516e+00 1.375673174858093262e+00 3.584663867950439453e-01
1.111000000000000000e+03 2.275253105163574219e+01 -1.216152191162109375e+01 1.454764157533645630e-01 7.635352134704589844e+00 2.334248542785644531e+00 2.931552529335021973e-01
1.112000000000000000e+03 2.142905044555664062e+01 -1.335067272186279297e+01 1.939596086740493774e-01 7.703117847442626953e+00 2.369123220443725586e+00 3.962021470069885254e-01
1.113000000000000000e+03 2.217753791809082031e+01 -1.982514190673828125e+01 -7.197969406843185425e-02 7.270665168762207031e+00 2.159605741500854492e+00 2.674161493778228760e-01
1.114000000000000000e+03 2.177010154724121094e+01 -3.393125152587890625e+01 2.315149456262588501e-01 7.275059700012207031e+00 2.251972436904907227e+00 2.491591870784759521e-01
1.115000000000000000e+03 2.347671508789062500e+01 -3.205942916870117188e+01 1.613217741250991821e-01 7.207883834838867188e+00 2.210761785507202148e+00 1.721925586462020874e-01
1.116000000000000000e+03 1.223250961303710938e+01 2.367601776123046875e+01 1.875058412551879883e-01 6.395804405212402344e+00 1.974992990493774414e+00 2.579096555709838867e-01
1.117000000000000000e+03 7.572947502136230469e+00 -3.185308074951171875e+01 2.511205077171325684e-01 2.545095443725585938e+00 8.388648033142089844e-01 8.876509964466094971e-02
1.118000000000000000e+03 1.317490196228027344e+01 -3.012763404846191406e+01 1.501529291272163391e-02 6.782548427581787109e+00 2.039268970489501953e+00 8.733357489109039307e-02
1.119000000000000000e+03 2.158747673034667969e+01 -9.186253547668457031e+00 7.271454483270645142e-02 7.680821418762207031e+00 2.326060771942138672e+00 2.662709355354309082e-01
1.120000000000000000e+03 2.292613220214843750e+01 -8.012530326843261719e+00 -1.909397169947624207e-02 7.704026222229003906e+00 2.305479764938354492e+00 2.952679991722106934e-01
1.121000000000000000e+03 2.339198684692382812e+01 2.932260513305664062e+00 1.240654289722442627e-01 8.157144546508789062e+00 2.484362840652465820e+00 1.581358313560485840e-01
1.122000000000000000e+03 1.320306777954101562e+01 2.082599258422851562e+01 1.862756311893463135e-01 7.497552394866943359e+00 2.305148363113403320e+00 2.338405400514602661e-01
1.123000000000000000e+03 1.144237899780273438e+01 1.816608428955078125e+01 1.226949989795684814e-01 5.975389003753662109e+00 1.829425215721130371e+00 1.110905781388282776e-01
1.124000000000000000e+03 2.465894508361816406e+01 3.354412078857421875e+01 4.448745846748352051e-01 7.900603294372558594e+00 2.503643274307250977e+00 -2.210112959146499634e-01
1.125000000000000000e+03 2.274453353881835938e+01 3.086763000488281250e+01 9.997159242630004883e-02 8.464484214782714844e+00 2.569336891174316406e+00 -2.023829221725463867e-01
1.126000000000000000e+03 2.359912681579589844e+01 1.136797237396240234e+01 2.898296900093555450e-02 8.267761230468750000e+00 2.489023447036743164e+00 7.418953627347946167e-02
1.127000000000000000e+03 1.134758186340332031e+01 1.672885513305664062e+01 1.204237118363380432e-01 5.940378665924072266e+00 1.818240761756896973e+00 5.953509733080863953e-02
1.128000000000000000e+03 2.426367187500000000e+01 3.054830932617187500e+01 1.074662730097770691e-01 8.277818679809570312e+00 2.515585422515869141e+00 -1.778030991554260254e-01
1.129000000000000000e+03 2.257236289978027344e+01 2.806902503967285156e+01 3.601581230759620667e-02 8.352462768554687500e+00 2.516543626785278320e+00 -9.168769419193267822e-02
1.130000000000000000e+03 1.206994628906250000e+01 -2.630301475524902344e+01 1.660342328250408173e-02 6.084655284881591797e+00 1.830377697944641113e+00 2.554569020867347717e-02
1.131000000000000000e+03 1.331615734100341797e+01 -2.504124832153320312e+01 4.031871631741523743e-02 6.936321735382080078e+00 2.092992067337036133e+00 1.585138775408267975e-02
1.132000000000000000e+03 1.157063388824462891e+01 -1.922492408752441406e+01 -1.942810788750648499e-02 5.714415073394775391e+00 1.708496093750000000e+00 6.151534616947174072e-02
1.133000000000000000e+03 1.213181686401367188e+01 -2.390493774414062500e+01 1.484341546893119812e-02 6.152431964874267578e+00 1.850182652473449707e+00 4.043189063668251038e-02
1.134000000000000000e+03 1.193587589263916016e+01 1.028356552124023438e+01 1.569321900606155396e-01 6.404232501983642578e+00 1.968349456787109375e+00 -2.623740136623382568e-01
1.135000000000000000e+03 2.374494171142578125e+01 2.501674842834472656e+01 1.768201962113380432e-02 8.244333267211914062e+00 2.478604555130004883e+00 -4.732592403888702393e-02
1.136000000000000000e+03 2.368707847595214844e+01 2.366369438171386719e+01 2.268436178565025330e-02 8.234210968017578125e+00 2.477068662643432617e+00 -4.522632807493209839e-02
1.137000000000000000e+03 2.489909362792968750e+01 1.537361145019531250e+01 2.568763121962547302e-02 8.197705268859863281e+00 2.467017889022827148e+00 3.595840930938720703e-02
1.138000000000000000e+03 2.358029174804687500e+01 1.957248878479003906e+01 1.020875293761491776e-02 8.214355468750000000e+00 2.467369079589843750e+00 -2.048827940598130226e-03
1.139000000000000000e+03 2.358800697326660156e+01 1.414189815521240234e+01 1.649905182421207428e-02 8.236138343811035156e+00 2.475791215896606445e+00 3.996104747056961060e-02
1.140000000000000000e+03 2.364569473266601562e+01 2.230594253540039062e+01 1.193116046488285065e-02 8.223099708557128906e+00 2.470509290695190430e+00 -2.074838988482952118e-02
1.141000000000000000e+03 2.356900596618652344e+01 1.821994781494140625e+01 1.349534559994935989e-02 8.213720321655273438e+00 2.468164920806884766e+00 2.652018330991268158e-03
1.142000000000000000e+03 2.356861686706542969e+01 1.686515045166015625e+01 1.151451468467712402e-02 8.219103813171386719e+00 2.469185352325439453e+00 1.682632602751255035e-02
1.143000000000000000e+03 1.170838260650634766e+01 -2.146094703674316406e+01 2.430928638204932213e-03 5.826951026916503906e+00 1.748814582824707031e+00 4.701595008373260498e-02
1.144000000000000000e+03 1.248480987548828125e+01 -9.507007598876953125e+00 1.518553197383880615e-01 6.855913639068603516e+00 2.102330684661865234e+00 3.844485878944396973e-01
1.145000000000000000e+03 1.352378082275390625e+01 -4.396049022674560547e+00 -3.241607844829559326e-01 9.032701492309570312e+00 2.612562417984008789e+00 2.992336452007293701e-01
1.146000000000000000e+03 1.219034481048583984e+01 -2.265456199645996094e+00 -9.181552529335021973e-01 8.436601638793945312e+00 2.255533933639526367e+00 3.204566478729248047e+00
1.147000000000000000e+03 1.260864067077636719e+01 -8.447719573974609375e+00 1.254501193761825562e-01 7.035421848297119141e+00 2.148261547088623047e+00 4.993317425251007080e-01
1.148000000000000000e+03 1.259197330474853516e+01 -1.518943119049072266e+01 1.638636179268360138e-02 6.528911113739013672e+00 1.963589191436767578e+00 8.479732275009155273e-02
1.149000000000000000e+03 1.345760822296142578e+01 5.685346126556396484e+00 -2.582239359617233276e-02 8.797061920166015625e+00 2.631371974945068359e+00 -5.566127300262451172e-01
1.150000000000000000e+03 1.351118087768554688e+01 6.822478771209716797e+00 1.248798891901969910e-01 8.720130920410156250e+00 2.653503179550170898e+00 -4.904193878173828125e-01
1.151000000000000000e+03 1.299710083007812500e+01 -2.099069213867187500e+01 -3.531997278332710266e-02 6.748680591583251953e+00 2.014008283615112305e+00 1.854332350194454193e-02
1.152000000000000000e+03 1.162320899963378906e+01 9.382947921752929688e+00 2.796002626419067383e-01 6.118052482604980469e+00 1.919295907020568848e+00 -3.561792373657226562e-01
1.153000000000000000e+03 1.260938453674316406e+01 8.893100738525390625e+00 1.949427127838134766e-01 7.253221988677978516e+00 2.234449386596679688e+00 -3.517504930496215820e-01
1.154000000000000000e+03 2.384696769714355469e+01 2.637182235717773438e+01 4.222898557782173157e-02 8.265376091003417969e+00 2.492281675338745117e+00 -8.729886263608932495e-02
1.155000000000000000e+03 2.399011611938476562e+01 2.773948860168457031e+01 4.223920404911041260e-02 8.265045166015625000e+00 2.492185354232788086e+00 -9.549842029809951782e-02
1.156000000000000000e+03 1.175964260101318359e+01 1.467145156860351562e+01 8.233708888292312622e-02 6.287838459014892578e+00 1.911052703857421875e+00 5.143732763826847076e-03
1.157000000000000000e+03 2.359115600585937500e+01 8.556290626525878906e+00 6.574425846338272095e-02 8.308097839355468750e+00 2.512152671813964844e+00 1.344858556985855103e-01
1.158000000000000000e+03 2.356864166259765625e+01 7.146156787872314453e+00 1.273151785135269165e-01 8.325345993041992188e+00 2.535798311233520508e+00 1.932069212198257446e-01
1.159000000000000000e+03 2.414729309082031250e+01 2.912743377685546875e+01 9.571843594312667847e-02 8.303394317626953125e+00 2.519733905792236328e+00 -1.762443333864212036e-01
1.160000000000000000e+03 1.211522674560546875e+01 1.352410507202148438e+01 9.011894464492797852e-02 6.664966106414794922e+00 2.026525497436523438e+00 -3.949518874287605286e-02
1.161000000000000000e+03 2.294920539855957031e+01 -6.641103744506835938e+00 -7.636805623769760132e-02 7.736163139343261719e+00 2.297938585281372070e+00 2.819432318210601807e-01
1.162000000000000000e+03 2.222555923461914062e+01 4.569905281066894531e+00 2.426963597536087036e-01 8.403138160705566406e+00 2.593750238418579102e+00 2.881732583045959473e-01
1.163000000000000000e+03 7.362847900390625000e+01 -3.770901870727539062e+01 -9.643140248954296112e-03 7.903820037841796875e+00 2.368252992630004883e+00 -1.184277236461639404e-02
1.164000000000000000e+03 7.544860839843750000e+01 -3.528779220581054688e+01 -9.153679013252258301e-03 7.925404548645019531e+00 2.374875307083129883e+00 -1.589713245630264282e-02
1.165000000000000000e+03 7.720475006103515625e+01 -3.603454971313476562e+01 -4.995952825993299484e-03 7.951262474060058594e+00 2.383879899978637695e+00 -6.377784069627523422e-03
1.166000000000000000e+03 7.528697204589843750e+01 -2.183764839172363281e+01 -4.406044259667396545e-03 7.864438056945800781e+00 2.358009576797485352e+00 -3.490889817476272583e-02
1.167000000000000000e+03 7.781439971923828125e+01 -2.917640876770019531e+01 -9.330411558039486408e-04 7.933476924896240234e+00 2.379763126373291016e+00 -1.246721763163805008e-02
1.168000000000000000e+03 7.527549743652343750e+01 1.551061916351318359e+01 2.591875148937106133e-03 7.648794651031494141e+00 2.295415878295898438e+00 -1.620321162045001984e-02
1.169000000000000000e+03 7.661911773681640625e+01 1.549125671386718750e+01 2.323794178664684296e-03 7.638491630554199219e+00 2.292244672775268555e+00 -1.328362803906202316e-02
1.170000000000000000e+03 7.785739898681640625e+01 3.482598876953125000e+01 2.970383793581277132e-04 7.596657752990722656e+00 2.279086589813232422e+00 4.639774560928344727e-04
1.171000000000000000e+03 7.629332733154296875e+01 3.205373764038085938e+01 1.096082502044737339e-03 7.612709999084472656e+00 2.284141778945922852e+00 -2.514318330213427544e-03
1.172000000000000000e+03 7.796411895751953125e+01 -2.211841201782226562e+01 -2.081040060147643089e-03 7.889409542083740234e+00 2.366198539733886719e+00 -1.717823371291160583e-02
1.173000000000000000e+03 7.657292938232421875e+01 -2.336714553833007812e+01 -3.353520529344677925e-03 7.884697914123535156e+00 2.364403247833251953e+00 -2.646477334201335907e-02
1.174000000000000000e+03 7.631584930419921875e+01 -3.060256004333496094e+01 -3.357825567945837975e-03 7.922973632812500000e+00 2.375884771347045898e+00 -1.785751245915889740e-02
1.175000000000000000e+03 7.783888244628906250e+01 -2.774150085449218750e+01 -1.670519355684518814e-03 7.925164222717285156e+00 2.377048015594482422e+00 -1.510325353592634201e-02
1.176000000000000000e+03 7.637168884277343750e+01 -2.912964439392089844e+01 -3.797607030719518661e-03 7.914048194885253906e+00 2.373075246810913086e+00 -2.201111614704132080e-02
1.177000000000000000e+03 7.643236541748046875e+01 -2.765914344787597656e+01 -1.141798216849565506e-03 7.907761096954345703e+00 2.371985673904418945e+00 -2.091890759766101837e-02
1.178000000000000000e+03 7.650047302246093750e+01 -2.477080726623535156e+01 2.971731883008033037e-04 7.892690658569335938e+00 2.367896318435668945e+00 -2.359448745846748352e-02
1.179000000000000000e+03 7.507326507568359375e+01 -2.461751174926757812e+01 -5.777153186500072479e-03 7.877747535705566406e+00 2.361591100692749023e+00 -3.421165049076080322e-02
1.180000000000000000e+03 7.633505249023437500e+01 -3.207315826416015625e+01 -3.122732043266296387e-03 7.926146507263183594e+00 2.376907110214233398e+00 -1.551688089966773987e-02
1.181000000000000000e+03 7.677937316894531250e+01 -3.484644317626953125e+01 -4.613555502146482468e-03 7.944762706756591797e+00 2.382044792175292969e+00 -8.968866430222988129e-03
1.182000000000000000e+03 7.358777618408203125e+01 -2.888471984863281250e+01 -9.809968993067741394e-03 7.881740570068359375e+00 2.361579179763793945e+00 -3.473928943276405334e-02
1.183000000000000000e+03 7.773003387451171875e+01 2.256136322021484375e+01 1.241593854501843452e-03 7.610432147979736328e+00 2.283502101898193359e+00 -4.885746166110038757e-03
1.184000000000000000e+03 7.641044616699218750e+01 1.968086814880371094e+01 9.018524433486163616e-04 7.628679275512695312e+00 2.288874387741088867e+00 -9.094168432056903839e-03
1.185000000000000000e+03 7.456591033935546875e+01 2.256797218322753906e+01 4.161859862506389618e-03 7.636927127838134766e+00 2.292326688766479492e+00 -1.104742661118507385e-02
1.186000000000000000e+03 7.628305816650390625e+01 2.114965057373046875e+01 2.670739311724901199e-03 7.626276016235351562e+00 2.288684129714965820e+00 -9.131762199103832245e-03
1.187000000000000000e+03 7.665679931640625000e+01 1.273066139221191406e+01 2.306049922481179237e-03 7.648127555847167969e+00 2.295130014419555664e+00 -1.568744890391826630e-02
1.188000000000000000e+03 7.530473327636718750e+01 8.652223587036132812e+00 3.484799759462475777e-03 7.673608779907226562e+00 2.303128004074096680e+00 -2.555964514613151550e-02
1.189000000000000000e+03 7.664618682861328125e+01 1.411088848114013672e+01 1.068052486516535282e-03 7.643461227416992188e+00 2.293358802795410156e+00 -1.330589409917593002e-02
1.190000000000000000e+03 7.623551177978515625e+01 2.429767227172851562e+01 1.812774688005447388e-03 7.621035575866699219e+00 2.286854505538940430e+00 -6.602987647056579590e-03
1.191000000000000000e+03 7.801059722900390625e+01 2.662172889709472656e+01 -6.707910797558724880e-04 7.602605819702148438e+00 2.280580520629882812e+00 -2.020088490098714828e-03
1.192000000000000000e+03 7.673719787597656250e+01 2.666168022155761719e+01 1.769248046912252903e-03 7.612824440002441406e+00 2.284378051757812500e+00 -4.168440122157335281e-03
1.193000000000000000e+03 7.798313903808593750e+01 -2.073411750793457031e+01 1.346982782706618309e-03 7.879111289978027344e+00 2.364137411117553711e+00 -1.661154441535472870e-02
1.194000000000000000e+03 7.662271881103515625e+01 -2.198483657836914062e+01 1.051035826094448566e-03 7.875762462615966797e+00 2.363044023513793945e+00 -2.516862377524375916e-02
1.195000000000000000e+03 7.547967529296875000e+01 -1.507845211029052734e+01 1.057576271705329418e-03 7.821166515350341797e+00 2.346667289733886719e+00 -3.735323995351791382e-02
1.196000000000000000e+03 7.535475158691406250e+01 -8.170761108398437500e+00 2.126491162925958633e-04 7.772948741912841797e+00 2.331948518753051758e+00 -3.845194727182388306e-02
1.197000000000000000e+03 7.801336669921875000e+01 -1.519254684448242188e+01 1.147501170635223389e-03 7.835440158843994141e+00 2.350976228713989258e+00 -1.834450289607048035e-02
1.198000000000000000e+03 7.539450836181640625e+01 -1.166984438896179199e+00 1.850089174695312977e-03 7.727624416351318359e+00 2.318842411041259766e+00 -3.402005508542060852e-02
1.199000000000000000e+03 7.667834472656250000e+01 -6.803674697875976562e+00 2.250126417493447661e-04 7.764743804931640625e+00 2.329490661621093750e+00 -2.863517962396144867e-02
1.200000000000000000e+03 7.799633789062500000e+01 5.716624259948730469e+00 1.125956652685999870e-03 7.674525260925292969e+00 2.302695512771606445e+00 -1.375455874949693680e-02
1.201000000000000000e+03 7.535445404052734375e+01 5.842767238616943359e+00 3.150618867948651314e-03 7.686926841735839844e+00 2.307023286819458008e+00 -2.848073095083236694e-02
1.202000000000000000e+03 7.789363861083984375e+01 3.608829116821289062e+01 1.190760638564825058e-03 7.597380161285400391e+00 2.279571294784545898e+00 8.096349774859845638e-04
1.203000000000000000e+03 7.799774169921875000e+01 7.112259864807128906e+00 4.911951691610738635e-05 7.666633605957031250e+00 2.300004959106445312e+00 -1.252891775220632553e-02
1.204000000000000000e+03 7.667716217041015625e+01 5.794031620025634766e+00 1.127270516008138657e-03 7.681452274322509766e+00 2.304773807525634766e+00 -2.075764164328575134e-02
1.205000000000000000e+03 7.669502258300781250e+01 -2.610611438751220703e+00 8.600920555181801319e-04 7.734914302825927734e+00 2.320732355117797852e+00 -2.650995366275310516e-02
1.206000000000000000e+03 7.665660858154296875e+01 -9.605429649353027344e+00 -3.570936678443104029e-04 7.785827636718750000e+00 2.335641145706176758e+00 -2.910212427377700806e-02
1.207000000000000000e+03 7.672888183593750000e+01 -1.649325180053710938e+01 9.069296065717935562e-04 7.838339328765869141e+00 2.351773738861083984e+00 -2.796315588057041168e-02
1.208000000000000000e+03 7.634165954589843750e+01 3.349120712280273438e+01 -4.514383326750248671e-04 7.613698005676269531e+00 2.283973932266235352e+00 -1.047305529937148094e-03
1.209000000000000000e+03 7.357284545898437500e+01 3.417569351196289062e+01 1.892056898213922977e-03 7.633177757263183594e+00 2.290520906448364258e+00 -1.929830177687108517e-04
1.210000000000000000e+03 7.650205993652343750e+01 1.826533126831054688e+01 2.393514383584260941e-03 7.631094932556152344e+00 2.290046691894531250e+00 -1.106476038694381714e-02
1.211000000000000000e+03 7.666321563720703125e+01 9.969280242919921875e+00 2.241536742076277733e-03 7.659801006317138672e+00 2.298612833023071289e+00 -1.800374127924442291e-02
1.212000000000000000e+03 7.799556732177734375e+01 1.519057750701904297e+00 1.973972393898293376e-04 7.702268600463867188e+00 2.310739755630493164e+00 -1.542435307055711746e-02
1.213000000000000000e+03 7.669058227539062500e+01 -1.212339639663696289e+00 1.120700268074870110e-03 7.724558830261230469e+00 2.317703962326049805e+00 -2.637236565351486206e-02
1.214000000000000000e+03 7.672901916503906250e+01 -1.512207317352294922e+01 -1.830770401284098625e-03 7.827889442443847656e+00 2.347817659378051758e+00 -2.840547077357769012e-02
1.215000000000000000e+03 7.799552917480468750e+01 -6.856907367706298828e+00 3.776516823563724756e-04 7.766479969024658203e+00 2.330057382583618164e+00 -1.820640638470649719e-02
1.216000000000000000e+03 7.666371154785156250e+01 -8.202190399169921875e+00 6.595175364054739475e-04 7.775979518890380859e+00 2.332991600036621094e+00 -2.888048626482486725e-02
1.217000000000000000e+03 7.668223571777343750e+01 4.390959262847900391e+00 1.803302206099033356e-03 7.688978672027587891e+00 2.307234525680541992e+00 -2.261194214224815369e-02
1.218000000000000000e+03 7.668803405761718750e+01 2.982719659805297852e+00 1.120056142099201679e-03 7.697912216186523438e+00 2.309709548950195312e+00 -2.295509912073612213e-02
1.219000000000000000e+03 7.669018554687500000e+01 -5.407258033752441406e+00 7.642007549293339252e-04 7.755100250244140625e+00 2.326759338378906250e+00 -2.783915959298610687e-02
1.220000000000000000e+03 7.669504547119140625e+01 -4.008092880249023438e+00 7.185514550656080246e-04 7.744201183319091797e+00 2.323475837707519531e+00 -2.765873447060585022e-02
1.221000000000000000e+03 7.668612670898437500e+01 -1.239057159423828125e+01 -9.775373619049787521e-04 7.807027339935302734e+00 2.341814994812011719e+00 -2.879920043051242828e-02
1.222000000000000000e+03 7.671138000488281250e+01 -1.376043701171875000e+01 1.053556799888610840e-03 7.817786216735839844e+00 2.345651865005493164e+00 -2.880163118243217468e-02
1.223000000000000000e+03 7.666393280029296875e+01 -1.100373840332031250e+01 7.418894674628973007e-04 7.797087192535400391e+00 2.339348793029785156e+00 -2.924776077270507812e-02
1.224000000000000000e+03 7.664890289306640625e+01 -2.061659049987792969e+01 -2.962299389764666557e-03 7.867482662200927734e+00 2.359356164932250977e+00 -2.699115499854087830e-02
1.225000000000000000e+03 7.670357513427734375e+01 -1.787685012817382812e+01 -2.560119843110442162e-03 7.848441123962402344e+00 2.353764295578002930e+00 -2.781764976680278778e-02
1.226000000000000000e+03 7.667073822021484375e+01 -1.925273513793945312e+01 1.001587719656527042e-03 7.858005046844482422e+00 2.357702016830444336e+00 -2.676288411021232605e-02
1.227000000000000000e+03 2.330459785461425781e+01 1.539322972297668457e+00 1.492014061659574509e-02 8.130841255187988281e+00 2.443728446960449219e+00 1.895372569561004639e-01
1.228000000000000000e+03 2.352910041809082031e+01 5.739811420440673828e+00 1.974890828132629395e-01 8.256143569946289062e+00 2.536089897155761719e+00 2.074699252843856812e-01
1.229000000000000000e+03 4.575264930725097656e+00 3.394165802001953125e+01 1.765540055930614471e-02 3.316951990127563477e-01 1.048051789402961731e-01 -3.369998931884765625e-01
1.230000000000000000e+03 3.269060611724853516e+00 3.515155792236328125e+01 -1.836325041949748993e-02 -3.569321334362030029e-01 -1.125886142253875732e-01 -3.185546994209289551e-01
1.231000000000000000e+03 3.352349281311035156e+00 3.129622650146484375e+01 3.492562845349311829e-02 -4.771264195442199707e-01 -1.326602399349212646e-01 -3.178330957889556885e-01
1.232000000000000000e+03 2.000388145446777344e+00 2.721534347534179688e+01 2.502583339810371399e-02 -1.656968593597412109e+00 -4.895828366279602051e-01 -1.839363723993301392e-01
1.233000000000000000e+03 8.787463188171386719e+00 3.933905792236328125e+01 -3.805879056453704834e-01 2.383733034133911133e+00 6.009435653686523438e-01 -2.157729268074035645e-01
1.234000000000000000e+03 3.249777793884277344e+00 2.407952690124511719e+01 4.057748988270759583e-02 -8.474426269531250000e-01 -2.420595437288284302e-01 -1.531144678592681885e-01
1.235000000000000000e+03 1.995286107063293457e+00 3.424175262451171875e+01 -1.366864517331123352e-02 -1.088150501251220703e+00 -3.305457234382629395e-01 -2.419935315847396851e-01
1.236000000000000000e+03 4.216712474822998047e+00 3.692079544067382812e+01 -1.804015017114579678e-03 -1.037458050996065140e-02 -3.653578460216522217e-03 -2.782037258148193359e-01
1.237000000000000000e+03 3.278131008148193359e+00 3.399392318725585938e+01 1.898586750030517578e-02 -4.222255349159240723e-01 -1.209719032049179077e-01 -3.529825806617736816e-01
1.238000000000000000e+03 4.688018321990966797e+00 3.117150306701660156e+01 1.823012158274650574e-02 3.571366965770721436e-01 1.126100420951843262e-01 -3.761597275733947754e-01
1.239000000000000000e+03 3.306969165802001953e+00 3.268960189819335938e+01 2.678235061466693878e-02 -4.583562612533569336e-01 -1.294721812009811401e-01 -3.144715726375579834e-01
1.240000000000000000e+03 5.075924396514892578e+00 4.054539489746093750e+01 -2.516790330410003662e-01 6.413632631301879883e-01 1.169052720069885254e-01 2.593372017145156860e-02
1.241000000000000000e+03 4.703499317169189453e+00 -3.470413589477539062e+01 8.657453209161758423e-02 6.339968442916870117e-01 2.161713987588882446e-01 2.499256581068038940e-01
1.242000000000000000e+03 3.400064229965209961e+00 -3.381779861450195312e+01 4.742198437452316284e-02 -2.742118835449218750e-01 -6.803696602582931519e-02 2.101958394050598145e-01
1.243000000000000000e+03 3.404419898986816406e+00 -2.991449165344238281e+01 6.479869782924652100e-02 -3.129148483276367188e-01 -7.443484663963317871e-02 1.367763429880142212e-01
1.244000000000000000e+03 2.015506982803344727e+00 -2.873270034790039062e+01 3.531399741768836975e-02 -1.323791980743408203e+00 -3.865433931350708008e-01 8.140343427658081055e-02
1.245000000000000000e+03 1.916363477706909180e+00 2.158072471618652344e+01 2.338379435241222382e-02 -1.980316638946533203e+00 -5.870798826217651367e-01 -7.631201297044754028e-02
1.246000000000000000e+03 3.064272642135620117e+00 -1.877740287780761719e+01 2.377920411527156830e-02 -6.705566644668579102e-01 -1.940332502126693726e-01 4.835312813520431519e-02
1.247000000000000000e+03 2.914212703704833984e+00 -1.194118022918701172e+01 8.501942455768585205e-02 -8.153516650199890137e-01 -2.190996706485748291e-01 -1.204956322908401489e-01
1.248000000000000000e+03 1.697112321853637695e+00 -7.763607501983642578e+00 7.575351744890213013e-02 -1.326915979385375977e+00 -3.753487467765808105e-01 -3.300003409385681152e-01
1.249000000000000000e+03 3.073945999145507812e+00 1.707091331481933594e+01 4.230816289782524109e-02 -1.040192246437072754e+00 -2.993652224540710449e-01 2.569217048585414886e-02
1.250000000000000000e+03 2.975291013717651367e+00 1.285191631317138672e+01 9.404379874467849731e-02 -1.089580059051513672e+00 -2.986608743667602539e-01 1.623715907335281372e-01
1.251000000000000000e+03 3.104886531829833984e+00 -2.014756011962890625e+01 -1.543619576841592789e-02 -6.287854313850402832e-01 -1.932664960622787476e-01 5.256165191531181335e-02
1.252000000000000000e+03 1.808875799179077148e+00 -1.477908611297607422e+01 3.263098374009132385e-02 -1.655475139617919922e+00 -4.868532419204711914e-01 -2.683850179892033339e-04
1.253000000000000000e+03 5.908195495605468750e+00 -4.701076030731201172e+00 2.944263517856597900e-01 3.446999788284301758e-01 1.917379051446914673e-01 -5.782800316810607910e-01
1.254000000000000000e+03 2.652801513671875000e+00 8.771493911743164062e+00 1.452739685773849487e-01 -1.108547210693359375e+00 -2.889819741249084473e-01 4.308828115463256836e-01
1.255000000000000000e+03 1.524531126022338867e+00 6.225388526916503906e+00 5.177266150712966919e-02 -1.282361388206481934e+00 -3.691765964031219482e-01 4.725877940654754639e-01
1.256000000000000000e+03 1.781539320945739746e+00 1.451202774047851562e+01 2.933668904006481171e-02 -2.076781034469604492e+00 -6.142332553863525391e-01 5.983821675181388855e-02
1.257000000000000000e+03 2.996689081192016602e+00 1.565494918823242188e+01 4.450563713908195496e-02 -1.069709300994873047e+00 -3.075610995292663574e-01 5.770274251699447632e-02
1.258000000000000000e+03 2.799402236938476562e+00 1.009335517883300781e+01 1.442394852638244629e-01 -1.082554817199707031e+00 -2.814946174621582031e-01 3.317566514015197754e-01
1.259000000000000000e+03 2.824361085891723633e+00 -7.731822490692138672e+00 1.978442072868347168e-01 -7.508816123008728027e-01 -1.659112274646759033e-01 -4.327988326549530029e-01
1.260000000000000000e+03 3.395482778549194336e+00 -2.850857543945312500e+01 9.177189320325851440e-03 -3.519499003887176514e-01 -1.028318181633949280e-01 6.172255799174308777e-02
1.261000000000000000e+03 3.149137496948242188e+00 -2.151874923706054688e+01 1.521539315581321716e-02 -5.768858790397644043e-01 -1.685011386871337891e-01 5.619784444570541382e-02
1.262000000000000000e+03 3.194308042526245117e+00 -2.289087677001953125e+01 -2.617673017084598541e-02 -5.371111631393432617e-01 -1.689863651990890503e-01 4.901446029543876648e-02
1.263000000000000000e+03 3.011898994445800781e+00 -1.604751777648925781e+01 4.566045850515365601e-02 -7.411453127861022949e-01 -2.086454480886459351e-01 2.247255295515060425e-02
1.264000000000000000e+03 2.882140159606933594e+00 -1.055760383605957031e+01 1.376316398382186890e-01 -8.151052594184875488e-01 -2.032420933246612549e-01 -2.036211192607879639e-01
1.265000000000000000e+03 2.851005554199218750e+00 -9.161235809326171875e+00 1.420151442289352417e-01 -7.971422672271728516e-01 -1.965381354093551636e-01 -3.091194033622741699e-01
1.266000000000000000e+03 3.204484224319458008e+00 2.132821846008300781e+01 3.571263700723648071e-02 -9.217994809150695801e-01 -2.658260464668273926e-01 -8.894154429435729980e-02
1.267000000000000000e+03 2.278285026550292969e+00 -3.544602966308593750e+01 -4.630655981600284576e-03 -8.696780204772949219e-01 -2.622926235198974609e-01 2.024945020675659180e-01
1.268000000000000000e+03 1.943225145339965820e+00 -2.450534248352050781e+01 -1.906284689903259277e-02 -1.453230381011962891e+00 -4.416879713535308838e-01 3.361095488071441650e-02
1.269000000000000000e+03 3.302021503448486328e+00 -2.566905021667480469e+01 -1.616810820996761322e-02 -4.283566474914550781e-01 -1.333574354648590088e-01 4.705877974629402161e-02
1.270000000000000000e+03 4.642533302307128906e+00 -2.540173912048339844e+01 3.120763413608074188e-02 5.830577015876770020e-01 1.842796057462692261e-01 6.817001104354858398e-02
1.271000000000000000e+03 2.985879421234130859e+00 -1.468435096740722656e+01 3.376675769686698914e-02 -7.661863565444946289e-01 -2.197258770465850830e-01 -9.196329861879348755e-03
1.272000000000000000e+03 2.922823905944824219e+00 1.146623325347900391e+01 1.168801933526992798e-01 -1.072342991828918457e+00 -2.866388559341430664e-01 2.458546608686447144e-01
1.273000000000000000e+03 4.245345592498779297e+00 1.263057613372802734e+01 1.847824305295944214e-01 -6.675720959901809692e-02 3.540756553411483765e-02 1.915451437234878540e-01
1.274000000000000000e+03 2.973230361938476562e+00 1.424935054779052734e+01 7.673331350088119507e-02 -1.081033229827880859e+00 -3.012899756431579590e-01 8.638824522495269775e-02
1.275000000000000000e+03 3.182470083236694336e+00 1.993449974060058594e+01 5.810356512665748596e-02 -9.546509981155395508e-01 -2.689642310142517090e-01 -5.953835695981979370e-02
1.276000000000000000e+03 3.225606441497802734e+00 2.269786262512207031e+01 4.735092818737030029e-02 -8.919990062713623047e-01 -2.533944249153137207e-01 -1.200455203652381897e-01
1.277000000000000000e+03 3.148533344268798828e+00 1.850555419921875000e+01 3.956482559442520142e-02 -9.980490207672119141e-01 -2.875452637672424316e-01 -1.022172626107931137e-02
1.278000000000000000e+03 2.302445793151855469e+01 -3.903758764266967773e+00 -4.648445546627044678e-02 7.767796039581298828e+00 2.316393375396728516e+00 2.358052134513854980e-01
1.279000000000000000e+03 2.250532341003417969e+01 -1.637769699096679688e+01 -2.210134081542491913e-02 7.466270923614501953e+00 2.233250856399536133e+00 1.921241432428359985e-01
1.280000000000000000e+03 2.261608505249023438e+01 -1.496176624298095703e+01 9.540670365095138550e-02 7.555067062377929688e+00 2.295142173767089844e+00 2.253402471542358398e-01
1.281000000000000000e+03 2.483752250671386719e+01 3.711277389526367188e+01 8.587764948606491089e-02 7.715661048889160156e+00 2.340461730957031250e+00 3.321870416402816772e-02
1.282000000000000000e+03 2.282588386535644531e+01 -1.077689743041992188e+01 5.205572023987770081e-02 7.718483924865722656e+00 2.331161975860595703e+00 2.795302569866180420e-01
1.283000000000000000e+03 2.262216377258300781e+01 -2.767546272277832031e+01 4.930930212140083313e-02 7.343170166015625000e+00 2.217743873596191406e+00 2.144151777029037476e-01
1.284000000000000000e+03 2.242660140991210938e+01 -2.633685874938964844e+01 -1.009329408407211304e-01 7.285086631774902344e+00 2.155246257781982422e+00 1.771047711372375488e-01
1.285000000000000000e+03 1.057031631469726562e+01 2.132818603515625000e+01 2.155689448118209839e-01 5.146893978118896484e+00 1.608738899230957031e+00 9.367447346448898315e-02
1.286000000000000000e+03 2.453483581542968750e+01 -2.862540626525878906e+01 4.200374335050582886e-02 7.362284660339355469e+00 2.221286535263061523e+00 2.252282947301864624e-01
1.287000000000000000e+03 1.127181720733642578e+01 -3.559373092651367188e+01 7.578315138816833496e-01 4.503838062286376953e+00 1.578500866889953613e+00 3.943227231502532959e-01
1.288000000000000000e+03 7.122825145721435547e+00 -3.587311935424804688e+01 9.198580682277679443e-02 2.377764463424682617e+00 7.409250736236572266e-01 4.514789581298828125e-01
1.289000000000000000e+03 2.388487625122070312e+01 -3.379569625854492188e+01 2.095456719398498535e-01 7.138197422027587891e+00 2.204323053359985352e+00 1.480807512998580933e-01
1.290000000000000000e+03 1.188806629180908203e+01 -1.178694057464599609e+01 1.275074928998947144e-01 6.119446277618408203e+00 1.874086141586303711e+00 2.305145114660263062e-01
1.291000000000000000e+03 2.406766319274902344e+01 -3.582989501953125000e+01 1.653946489095687866e-01 7.024239063262939453e+00 2.156890153884887695e+00 -6.343318521976470947e-02
1.292000000000000000e+03 2.121497726440429688e+01 -3.770416259765625000e+01 -1.091672480106353760e-01 6.985904216766357422e+00 2.063021183013916016e+00 -9.551145881414413452e-02
1.293000000000000000e+03 1.270493888854980469e+01 3.034093666076660156e+01 3.643040955066680908e-01 5.541541099548339844e+00 1.771753549575805664e+00 3.364731967449188232e-01
1.294000000000000000e+03 1.262783145904541016e+01 2.900177764892578125e+01 3.496104776859283447e-01 5.824191093444824219e+00 1.852140545845031738e+00 3.967411518096923828e-01
1.295000000000000000e+03 1.454891395568847656e+01 -3.790108108520507812e+01 -9.564467668533325195e-01 6.265132427215576172e+00 1.592605710029602051e+00 -1.327561974525451660e+00
1.296000000000000000e+03 1.135982990264892578e+01 -1.290997600555419922e+01 1.246995255351066589e-01 5.680623054504394531e+00 1.741596817970275879e+00 1.987527310848236084e-01
1.297000000000000000e+03 1.245657062530517578e+01 -1.350416660308837891e+01 8.348240703344345093e-02 6.591867923736572266e+00 2.002604961395263672e+00 1.127142533659934998e-01
1.298000000000000000e+03 1.983913993835449219e+01 -3.990665817260742188e+01 -7.000679969787597656e-01 5.444122791290283203e+00 1.423216462135314941e+00 4.203722178936004639e-01
1.299000000000000000e+03 2.312316703796386719e+01 -4.098773574829101562e+01 -5.920647382736206055e-01 6.645415306091308594e+00 1.816005229949951172e+00 -2.847003750503063202e-02
1.300000000000000000e+03 2.437272834777832031e+01 3.916264724731445312e+01 -3.228876590728759766e-01 7.512022018432617188e+00 2.156740188598632812e+00 5.601239204406738281e-02
1.301000000000000000e+03 2.750094413757324219e+01 3.674494171142578125e+01 2.827328443527221680e-02 7.795162200927734375e+00 2.347030639648437500e+00 1.619794964790344238e-01
1.302000000000000000e+03 5.368316173553466797e+00 -4.048261260986328125e+01 -3.728468716144561768e-01 1.412224531173706055e+00 3.118132948875427246e-01 -3.163041546940803528e-02
1.303000000000000000e+03 5.846234321594238281e+00 -3.753741455078125000e+01 -1.156165450811386108e-01 1.505072593688964844e+00 4.168368279933929443e-01 9.911307692527770996e-02
1.304000000000000000e+03 1.354607868194580078e+01 1.494736671447753906e+00 -3.466584920883178711e+00 1.667547416687011719e+01 3.962666511535644531e+00 1.767178773880004883e+00
1.305000000000000000e+03 1.183555412292480469e+01 -1.927967548370361328e+00 -7.781302928924560547e-02 6.291085243225097656e+00 1.863981604576110840e+00 3.698569059371948242e+00
1.306000000000000000e+03 1.295427131652832031e+01 3.637533426284790039e+00 -1.049525499343872070e+00 8.998254776000976562e+00 2.384618997573852539e+00 -7.282249927520751953e-01
1.307000000000000000e+03 1.069395732879638672e+01 -1.997588396072387695e+00 2.097661942243576050e-01 2.085382699966430664e+00 6.885446906089782715e-01 1.722383260726928711e+00
1.308000000000000000e+03 1.131834602355957031e+01 -3.216092348098754883e+00 -4.047526419162750244e-02 5.154197692871093750e+00 1.534116744995117188e+00 2.046034812927246094e+00
1.309000000000000000e+03 1.214260292053222656e+01 1.919462203979492188e+00 -9.513356089591979980e-01 8.039513587951660156e+00 2.126453399658203125e+00 -3.700798749923706055e+00
1.310000000000000000e+03 1.042371749877929688e+01 -2.045553207397460938e+00 1.435241252183914185e-01 1.900419354438781738e+00 6.131830215454101562e-01 1.318160295486450195e+00
1.311000000000000000e+03 8.670511245727539062e+00 -2.965929746627807617e+00 9.269667416810989380e-02 9.527207612991333008e-01 3.136252164840698242e-01 3.975797072052955627e-02
1.312000000000000000e+03 1.053061389923095703e+01 -2.748671054840087891e+00 2.701694667339324951e-01 2.785582065582275391e+00 9.167254567146301270e-01 1.563189983367919922e+00
1.313000000000000000e+03 1.155420780181884766e+01 2.426598548889160156e+00 -4.633164405822753906e-01 5.514420986175537109e+00 1.515331387519836426e+00 -2.613028526306152344e+00
1.314000000000000000e+03 1.055307865142822266e+01 2.062047958374023438e+00 -1.136365383863449097e-01 2.136561632156372070e+00 6.068775057792663574e-01 -1.400340199470520020e+00
1.315000000000000000e+03 1.045182609558105469e+01 2.376602888107299805e+00 -9.212177246809005737e-02 2.345717906951904297e+00 6.760787963867187500e-01 -1.331124424934387207e+00
1.316000000000000000e+03 1.237891960144042969e+01 7.548008441925048828e+00 2.535092234611511230e-01 6.941846847534179688e+00 2.158606767654418945e+00 -6.160203814506530762e-01
1.317000000000000000e+03 1.139135074615478516e+01 5.494952201843261719e+00 2.511790394783020020e-01 5.587086200714111328e+00 1.751479625701904297e+00 -9.375159740447998047e-01
1.318000000000000000e+03 5.125394344329833984e+00 5.882020950317382812e+00 3.404614329338073730e-01 8.909211307764053345e-02 1.288660615682601929e-01 7.240821123123168945e-01
1.319000000000000000e+03 5.924087524414062500e+00 3.344839572906494141e+00 -1.996538490056991577e-01 6.077054142951965332e-02 -4.166499152779579163e-02 8.687831163406372070e-01
1.320000000000000000e+03 3.914601564407348633e+00 4.871419429779052734e+00 9.252993017435073853e-02 -3.626472353935241699e-01 -8.103518933057785034e-02 8.598750829696655273e-01
1.321000000000000000e+03 4.476232051849365234e+00 3.456523180007934570e+00 -1.723518669605255127e-01 -1.834908574819564819e-01 -1.067528203129768372e-01 9.136251807212829590e-01
1.322000000000000000e+03 7.538481712341308594e+00 4.022202014923095703e+00 2.426941245794296265e-01 7.321413159370422363e-01 2.924506366252899170e-01 4.296799302101135254e-01
1.323000000000000000e+03 8.246316909790039062e+00 3.181589603424072266e+00 -2.946496242657303810e-03 7.558537721633911133e-01 2.258721888065338135e-01 2.746465802192687988e-01
1.324000000000000000e+03 6.731968879699707031e+00 4.088831424713134766e+00 1.547312289476394653e-01 4.166583418846130371e-01 1.714168637990951538e-01 6.636603474617004395e-01
1.325000000000000000e+03 4.543920516967773438e+00 4.959671497344970703e+00 1.556963473558425903e-01 -1.737190186977386475e-01 -5.406802985817193985e-03 8.506603837013244629e-01
1.326000000000000000e+03 3.655777454376220703e+00 5.573332309722900391e+00 1.724246740341186523e-01 -4.861093759536743164e-01 -9.410540759563446045e-02 7.954137921333312988e-01
1.327000000000000000e+03 1.416798114776611328e+00 4.789616107940673828e+00 1.153175346553325653e-02 -9.699810743331909180e-01 -2.875348031520843506e-01 4.892602562904357910e-01
1.328000000000000000e+03 1.349532508850097656e+01 1.917951583862304688e+00 -2.927426099777221680e+00 1.409565925598144531e+01 3.350469827651977539e+00 7.898576259613037109e-01
1.329000000000000000e+03 1.367834186553955078e+01 4.012884616851806641e+00 -3.762848079204559326e-01 9.710033416748046875e+00 2.800124406814575195e+00 -2.511017322540283203e-01
1.330000000000000000e+03 1.248559856414794922e+01 5.922175407409667969e+00 9.124414622783660889e-02 7.246505737304687500e+00 2.201324939727783203e+00 -7.688012719154357910e-01
1.331000000000000000e+03 7.608690261840820312e+00 -4.160807609558105469e+00 3.817916214466094971e-01 8.912611603736877441e-01 3.819158375263214111e-01 -2.163313031196594238e-01
1.332000000000000000e+03 6.792582035064697266e+00 -4.528964519500732422e+00 3.785473406314849854e-01 5.852918028831481934e-01 2.891517281532287598e-01 -4.212863445281982422e-01
1.333000000000000000e+03 4.153264999389648438e+00 -5.016711711883544922e+00 1.466644853353500366e-01 -2.214772105216979980e-01 -2.244381792843341827e-02 -7.098135948181152344e-01
1.334000000000000000e+03 2.780372619628906250e+00 -6.232165813446044922e+00 1.339499056339263916e-01 -6.880162358283996582e-01 -1.662199050188064575e-01 -5.774239301681518555e-01
1.335000000000000000e+03 1.189424133300781250e+01 -5.854429244995117188e+00 2.083982974290847778e-01 6.289409160614013672e+00 1.949342250823974609e+00 9.148837327957153320e-01
1.336000000000000000e+03 8.365759849548339844e+00 3.930191278457641602e+00 3.050763309001922607e-01 1.187920570373535156e+00 4.478990435600280762e-01 9.481240063905715942e-02
1.337000000000000000e+03 9.764220237731933594e+00 -2.760821580886840820e+00 2.766881585121154785e-01 1.647356748580932617e+00 5.772134661674499512e-01 8.349995613098144531e-01
1.338000000000000000e+03 1.032367706298828125e+01 -3.288324594497680664e+00 3.305569291114807129e-01 2.889716148376464844e+00 9.660819768905639648e-01 1.253313422203063965e+00
1.339000000000000000e+03 1.304116916656494141e+01 4.796342849731445312e+00 -2.027486115694046021e-01 8.499141693115234375e+00 2.488918066024780273e+00 -7.137981057167053223e-01
1.340000000000000000e+03 1.092438602447509766e+01 3.228797435760498047e+00 3.247172757983207703e-02 4.019679069519042969e+00 1.215645194053649902e+00 -1.630587100982666016e+00
1.341000000000000000e+03 1.235321807861328125e+01 2.500160598754882812e+01 2.431299388408660889e-01 6.346693515777587891e+00 1.976947069168090820e+00 3.194518983364105225e-01
1.342000000000000000e+03 1.168849945068359375e+01 -7.616767883300781250e+00 2.729872465133666992e-01 6.000064373016357422e+00 1.881915450096130371e+00 6.817182898521423340e-01
1.343000000000000000e+03 2.288404655456542969e+01 -2.903731727600097656e+01 -1.748881675302982330e-02 7.308884143829345703e+00 2.187418460845947266e+00 1.698536127805709839e-01
1.344000000000000000e+03 2.314963912963867188e+01 -1.175115823745727539e+00 -4.212608095258474350e-03 7.899908542633056641e+00 2.368708848953247070e+00 2.715416252613067627e-01
1.345000000000000000e+03 2.457835197448730469e+01 1.333873391151428223e+00 5.037936195731163025e-02 8.043264389038085938e+00 2.428093194961547852e+00 1.529828906059265137e-01
1.346000000000000000e+03 2.426990890502929688e+01 -6.811589717864990234e+00 -5.276130884885787964e-02 7.760162830352783203e+00 2.312220335006713867e+00 2.477167248725891113e-01
1.347000000000000000e+03 2.559589576721191406e+01 -5.566748619079589844e+00 -5.134794488549232483e-02 7.807412147521972656e+00 2.326819419860839844e+00 1.961063742637634277e-01
1.348000000000000000e+03 2.522716331481933594e+01 -3.153723335266113281e+01 1.027769297361373901e-01 7.240471839904785156e+00 2.202974557876586914e+00 1.703995913267135620e-01
1.349000000000000000e+03 2.375670814514160156e+01 -2.493519973754882812e+01 -1.090061143040657043e-01 7.331790924072265625e+00 2.166835308074951172e+00 1.596664637327194214e-01
1.350000000000000000e+03 2.242719841003417969e+01 -2.236939811706542969e+01 -4.128710180521011353e-02 7.272107601165771484e+00 2.169246196746826172e+00 2.455912679433822632e-01
1.351000000000000000e+03 1.108353710174560547e+01 1.331213760375976562e+01 1.283752024173736572e-01 5.613365173339843750e+00 1.722522139549255371e+00 -4.182846471667289734e-02
1.352000000000000000e+03 2.301312828063964844e+01 -1.831707000732421875e+01 -7.841776311397552490e-02 7.421198844909667969e+00 2.202834367752075195e+00 2.054458856582641602e-01
1.353000000000000000e+03 2.384119415283203125e+01 -1.652798652648925781e+01 -5.005721468478441238e-03 7.501165866851806641e+00 2.248848199844360352e+00 1.624455600976943970e-01
1.354000000000000000e+03 2.411696243286132812e+01 -1.099647045135498047e+01 9.444935619831085205e-02 7.631376266479492188e+00 2.317747592926025391e+00 2.595972716808319092e-01
1.355000000000000000e+03 2.288671875000000000e+01 -9.392943382263183594e+00 4.274227097630500793e-02 7.676710605621337891e+00 2.315835714340209961e+00 2.703177928924560547e-01
1.356000000000000000e+03 2.345947837829589844e+01 -1.951127052307128906e+01 -1.357425153255462646e-01 7.416419506072998047e+00 2.184203147888183594e+00 1.822121292352676392e-01
1.357000000000000000e+03 2.442376136779785156e+01 -1.363282322883605957e+00 -2.083979547023773193e-02 7.929103374481201172e+00 2.372479200363159180e+00 2.005977630615234375e-01
1.358000000000000000e+03 7.637548446655273438e+00 5.683554172515869141e+00 5.584314465522766113e-01 1.356702685356140137e+00 5.745402574539184570e-01 2.379170209169387817e-01
1.359000000000000000e+03 1.118832969665527344e+01 -1.029119682312011719e+01 2.497632503509521484e-01 5.500373363494873047e+00 1.725041031837463379e+00 3.523117899894714355e-01
1.360000000000000000e+03 1.080606651306152344e+01 -1.131160354614257812e+01 1.981318742036819458e-01 5.159624099731445312e+00 1.607326745986938477e+00 2.668959796428680420e-01
1.361000000000000000e+03 2.428194808959960938e+01 -5.438748359680175781e+00 -6.063451990485191345e-02 7.787246227264404297e+00 2.317983627319335938e+00 2.295433580875396729e-01
1.362000000000000000e+03 7.747716426849365234e+00 2.131464004516601562e+01 1.446309089660644531e-01 2.678947687149047852e+00 8.470735549926757812e-01 -1.985589042305946350e-02
1.363000000000000000e+03 1.088302803039550781e+01 1.553330135345458984e+01 1.019014567136764526e-01 5.600616931915283203e+00 1.710755586624145508e+00 4.518513754010200500e-02
1.364000000000000000e+03 1.208479118347167969e+01 2.234757804870605469e+01 2.248502075672149658e-01 6.383274555206298828e+00 1.982437372207641602e+00 1.948662102222442627e-01
1.365000000000000000e+03 1.187929344177246094e+01 2.100015830993652344e+01 1.951329261064529419e-01 6.239067077636718750e+00 1.930259943008422852e+00 1.914298683404922485e-01
1.366000000000000000e+03 2.834232521057128906e+01 2.919237136840820312e+01 1.691092103719711304e-01 7.989741325378417969e+00 2.447655200958251953e+00 -1.057606115937232971e-01
1.367000000000000000e+03 2.492303466796875000e+01 1.121582984924316406e+01 5.836214870214462280e-02 8.217469215393066406e+00 2.482749462127685547e+00 8.998679369688034058e-02
1.368000000000000000e+03 2.360118293762207031e+01 9.967350006103515625e+00 5.028660222887992859e-02 8.290083885192871094e+00 2.502111196517944336e+00 1.026273071765899658e-01
1.369000000000000000e+03 2.581088256835937500e+01 3.023165512084960938e+01 1.904659271240234375e-01 8.141438484191894531e+00 2.499571323394775391e+00 -2.118474096059799194e-01
1.370000000000000000e+03 2.357686424255371094e+01 1.550877952575683594e+01 1.633395254611968994e-02 8.224195480346679688e+00 2.472158908843994141e+00 2.392781153321266174e-02
1.371000000000000000e+03 5.980537891387939453e+00 -2.510792922973632812e+01 -2.690527029335498810e-02 1.564693212509155273e+00 4.613363742828369141e-01 6.859898567199707031e-02
1.372000000000000000e+03 2.486874389648437500e+01 1.671903991699218750e+01 2.637270651757717133e-02 8.191212654113769531e+00 2.465275764465332031e+00 1.784132793545722961e-02
1.373000000000000000e+03 2.492013931274414062e+01 1.400265216827392578e+01 3.526080027222633362e-02 8.201630592346191406e+00 2.471067428588867188e+00 4.764056205749511719e-02
1.374000000000000000e+03 2.620162200927734375e+01 1.666837310791015625e+01 3.541309759020805359e-02 8.162960052490234375e+00 2.459511995315551758e+00 2.622414752840995789e-02
1.375000000000000000e+03 2.491320228576660156e+01 9.804764747619628906e+00 7.234983891248703003e-02 8.218849182128906250e+00 2.487359523773193359e+00 1.132916286587715149e-01
1.376000000000000000e+03 2.492568397521972656e+01 1.261188697814941406e+01 3.955717012286186218e-02 8.209161758422851562e+00 2.474615573883056641e+00 6.824631243944168091e-02
1.377000000000000000e+03 2.572299766540527344e+01 2.876849937438964844e+01 1.180076971650123596e-01 8.142819404602050781e+00 2.478248119354248047e+00 -1.231595352292060852e-01
1.378000000000000000e+03 2.485483741760253906e+01 2.071319961547851562e+01 2.186314202845096588e-02 8.189436912536621094e+00 2.463389873504638672e+00 -1.272300723940134048e-02
1.379000000000000000e+03 2.483924674987792969e+01 1.805015373229980469e+01 2.021813392639160156e-02 8.191803932189941406e+00 2.463606595993041992e+00 1.038301736116409302e-02
1.380000000000000000e+03 2.619428634643554688e+01 2.182505989074707031e+01 4.144925996661186218e-02 8.153907775878906250e+00 2.458607196807861328e+00 -2.508740127086639404e-02
1.381000000000000000e+03 2.503356933593750000e+01 2.472381591796875000e+01 4.447682201862335205e-02 8.206851959228515625e+00 2.475398540496826172e+00 -7.165192067623138428e-02
1.382000000000000000e+03 5.307173728942871094e+00 -1.711219596862792969e+01 1.567391678690910339e-02 1.022274494171142578e+00 3.113845288753509521e-01 6.069561466574668884e-02
1.383000000000000000e+03 1.093069744110107422e+01 -2.053499603271484375e+01 2.445164881646633148e-02 5.271240234375000000e+00 1.588707566261291504e+00 2.689911983907222748e-02
1.384000000000000000e+03 2.491887855529785156e+01 2.206363105773925781e+01 2.766736596822738647e-02 8.197453498840332031e+00 2.467536449432373047e+00 -3.749113902449607849e-02
1.385000000000000000e+03 2.497726249694824219e+01 2.340077590942382812e+01 2.748589776456356049e-02 8.198877334594726562e+00 2.467909097671508789e+00 -3.624355792999267578e-02
1.386000000000000000e+03 2.489447402954101562e+01 8.379053115844726562e+00 1.129247844219207764e-01 8.220131874084472656e+00 2.499917030334472656e+00 1.486258357763290405e-01
1.387000000000000000e+03 2.592919349670410156e+01 3.157595062255859375e+01 2.682931423187255859e-01 7.990362167358398438e+00 2.477596521377563477e+00 -1.732833236455917358e-01
1.388000000000000000e+03 2.474986648559570312e+01 4.121119499206542969e+00 1.708644628524780273e-01 8.105012893676757812e+00 2.482763290405273438e+00 1.328151226043701172e-01
1.389000000000000000e+03 1.212295627593994141e+01 1.131562614440917969e+01 1.611720472574234009e-01 6.651942253112792969e+00 2.043934345245361328e+00 -2.135929763317108154e-01
1.390000000000000000e+03 1.189538955688476562e+01 8.205657958984375000e+00 2.292595207691192627e-01 6.435280799865722656e+00 1.999362111091613770e+00 -5.118008255958557129e-01
1.391000000000000000e+03 1.219239997863769531e+01 1.240764904022216797e+01 8.290007710456848145e-02 6.707174777984619141e+00 2.037022590637207031e+00 -1.134161353111267090e-01
1.392000000000000000e+03 5.397061347961425781e+00 1.070160007476806641e+01 3.140739798545837402e-01 7.001914978027343750e-01 3.042796552181243896e-01 2.727941870689392090e-01
1.393000000000000000e+03 1.141893577575683594e+01 -9.263804435729980469e+00 2.724777460098266602e-01 5.703402042388916016e+00 1.792763948440551758e+00 4.582277238368988037e-01
1.394000000000000000e+03 2.368115615844726562e+01 -2.608791732788085938e+01 -7.438895292580127716e-03 7.356537818908691406e+00 2.204729795455932617e+00 2.041472047567367554e-01
1.395000000000000000e+03 1.131542682647705078e+01 2.769038963317871094e+01 2.837267816066741943e-01 5.056879997253417969e+00 1.602182030677795410e+00 1.803149580955505371e-01
1.396000000000000000e+03 7.529639434814453125e+01 1.415045928955078125e+01 3.703355090692639351e-03 7.652493476867675781e+00 2.296859025955200195e+00 -1.940073072910308838e-02
1.397000000000000000e+03 7.539609527587890625e+01 2.275084108114242554e-01 2.156407572329044342e-03 7.718096733093261719e+00 2.316076040267944336e+00 -3.385486826300621033e-02
1.398000000000000000e+03 7.411903381347656250e+01 -5.318407535552978516e+00 2.048837486654520035e-03 7.754568099975585938e+00 2.326985120773315430e+00 -4.480794817209243774e-02
1.399000000000000000e+03 7.405899810791015625e+01 -8.142376899719238281e+00 1.202414161525666714e-03 7.772205352783203125e+00 2.332022428512573242e+00 -4.661720618605613708e-02
1.400000000000000000e+03 7.537627410888671875e+01 -6.763127803802490234e+00 1.114952843636274338e-03 7.764464855194091797e+00 2.329674005508422852e+00 -3.758575767278671265e-02
1.401000000000000000e+03 7.539947509765625000e+01 -2.563153505325317383e+00 1.608655671589076519e-03 7.735418796539306641e+00 2.321108102798461914e+00 -3.581825271248817444e-02
1.402000000000000000e+03 7.412208557128906250e+01 -3.918511390686035156e+00 2.068799687549471855e-03 7.744622230529785156e+00 2.324007272720336914e+00 -4.486684873700141907e-02
1.403000000000000000e+03 7.535585021972656250e+01 -1.099599361419677734e+01 -6.156204617582261562e-04 7.792543888092041016e+00 2.337578535079956055e+00 -3.846107795834541321e-02
1.404000000000000000e+03 7.538954162597656250e+01 -1.238461208343505859e+01 7.427379605360329151e-04 7.803043365478515625e+00 2.341135978698730469e+00 -3.842381015419960022e-02
1.405000000000000000e+03 7.534434509277343750e+01 -9.586462974548339844e+00 7.429907564073801041e-04 7.783836364746093750e+00 2.335373878479003906e+00 -3.861887753009796143e-02
1.406000000000000000e+03 7.668978881835937500e+01 1.579897880554199219e+00 1.479425933212041855e-03 7.706152915954589844e+00 2.312289714813232422e+00 -2.470793761312961578e-02
1.407000000000000000e+03 7.540522003173828125e+01 1.619830489158630371e+00 2.168765524402260780e-03 7.710755348205566406e+00 2.313877344131469727e+00 -3.156588971614837646e-02
1.408000000000000000e+03 7.532107543945312500e+01 7.251052379608154297e+00 2.460272749885916710e-03 7.680891990661621094e+00 2.305005550384521484e+00 -2.617788501083850861e-02
1.409000000000000000e+03 7.274146270751953125e+01 3.233195495605468750e+01 2.473156433552503586e-03 7.640821933746337891e+00 2.292988538742065430e+00 -5.025998223572969437e-03
1.410000000000000000e+03 7.638755035400390625e+01 3.492503356933593750e+01 3.344872035086154938e-03 7.612297058105468750e+00 2.284692525863647461e+00 -3.788741538301110268e-03
1.411000000000000000e+03 7.636554718017578125e+01 3.065313339233398438e+01 -3.575772279873490334e-04 7.613888263702392578e+00 2.284059286117553711e+00 -1.739069819450378418e-03
1.412000000000000000e+03 7.430712127685546875e+01 -1.635884475708007812e+01 9.002574370242655277e-04 7.822876453399658203e+00 2.347132921218872070e+00 -4.454055801033973694e-02
1.413000000000000000e+03 7.414855957031250000e+01 3.022678375244140625e+00 3.723475849255919456e-03 7.706950187683105469e+00 2.313202142715454102e+00 -3.678831085562705994e-02
1.414000000000000000e+03 7.540595245361328125e+01 3.019567966461181641e+00 2.642880892381072044e-03 7.701928615570068359e+00 2.311371326446533203e+00 -3.134005889296531677e-02
1.415000000000000000e+03 7.666710662841796875e+01 8.583654403686523438e+00 1.008582767099142075e-03 7.667007446289062500e+00 2.300404787063598633e+00 -1.835954561829566956e-02
1.416000000000000000e+03 7.529661560058593750e+01 1.003663063049316406e+01 2.478819573298096657e-03 7.668641567230224609e+00 2.301336050033569336e+00 -2.284573577344417572e-02
1.417000000000000000e+03 7.542709350585937500e+01 -1.778698348999023438e+01 4.207244492135941982e-04 7.839507102966308594e+00 2.351978302001953125e+00 -3.627578914165496826e-02
1.418000000000000000e+03 7.533019256591796875e+01 -1.914976882934570312e+01 -3.814971540123224258e-03 7.848142147064208984e+00 2.353298187255859375e+00 -3.654319047927856445e-02
1.419000000000000000e+03 7.548899078369140625e+01 -1.642088890075683594e+01 -2.968867542222142220e-03 7.830457687377929688e+00 2.348246812820434570e+00 -3.707553818821907043e-02
1.420000000000000000e+03 7.529203033447265625e+01 1.141453742980957031e+01 3.645436605438590050e-03 7.662181854248046875e+00 2.299748182296752930e+00 -2.250801958143711090e-02
1.421000000000000000e+03 7.385015106201171875e+01 1.010693550109863281e+01 5.502386949956417084e-03 7.675300121307373047e+00 2.304240703582763672e+00 -3.001777455210685730e-02
1.422000000000000000e+03 7.496035766601562500e+01 -2.906156539916992188e+01 -3.429935546591877937e-03 7.899299144744873047e+00 2.368760824203491211e+00 -2.499318495392799377e-02
1.423000000000000000e+03 7.388871002197265625e+01 -2.297337532043457031e+01 -5.465710535645484924e-03 7.859728336334228516e+00 2.356278896331787109e+00 -4.120121896266937256e-02
1.424000000000000000e+03 7.657115173339843750e+01 1.687502098083496094e+01 9.810611372813582420e-04 7.634882450103759766e+00 2.290759086608886719e+00 -1.112095639109611511e-02
1.425000000000000000e+03 7.511703491210937500e+01 1.823352432250976562e+01 2.321769483387470245e-03 7.642537117004394531e+00 2.293457508087158203e+00 -1.363674923777580261e-02
1.426000000000000000e+03 7.483215332031250000e+01 2.104713630676269531e+01 2.337198937311768532e-03 7.638206005096435547e+00 2.292162895202636719e+00 -1.109512522816658020e-02
1.427000000000000000e+03 7.500081634521484375e+01 1.961886215209960938e+01 3.914083354175090790e-03 7.639407634735107422e+00 2.292996406555175781e+00 -1.350197196006774902e-02
1.428000000000000000e+03 7.385025787353515625e+01 1.683804321289062500e+01 4.430460277944803238e-03 7.654854774475097656e+00 2.297785520553588867e+00 -1.805918291211128235e-02
1.429000000000000000e+03 7.295389556884765625e+01 -2.529860496520996094e+01 -8.401458151638507843e-03 7.862598896026611328e+00 2.356259346008300781e+00 -3.963339701294898987e-02
1.430000000000000000e+03 7.645709991455078125e+01 -2.620067787170410156e+01 -3.402289934456348419e-03 7.900325775146484375e+00 2.369076967239379883e+00 -2.477036789059638977e-02
1.431000000000000000e+03 7.522861480712890625e+01 -2.319006347656250000e+01 5.578756681643426418e-04 7.870421409606933594e+00 2.361293792724609375e+00 -3.250401839613914490e-02
1.432000000000000000e+03 7.346605682373046875e+01 2.776513481140136719e+01 3.155016573145985603e-03 7.639917373657226562e+00 2.292921781539916992e+00 -6.354946177452802658e-03
1.433000000000000000e+03 7.647480010986328125e+01 2.926956939697265625e+01 2.133287955075502396e-03 7.613273620605468750e+00 2.284621953964233398e+00 -3.198125632479786873e-03
1.434000000000000000e+03 7.507170104980468750e+01 2.917647171020507812e+01 6.954683922231197357e-04 7.625607967376708984e+00 2.287890911102294922e+00 -3.211608622223138809e-03
1.435000000000000000e+03 7.492359924316406250e+01 -3.381800842285156250e+01 -5.028732586652040482e-03 7.914811611175537109e+00 2.372934818267822266e+00 -1.676462218165397644e-02
1.436000000000000000e+03 7.404868316650390625e+01 -3.605653762817382812e+01 -6.247532553970813751e-03 7.909547328948974609e+00 2.370990037918090820e+00 -1.419269852340221405e-02
1.437000000000000000e+03 7.486963653564453125e+01 3.357300567626953125e+01 1.635611639358103275e-03 7.625380516052246094e+00 2.288104772567749023e+00 -2.539816079661250114e-03
1.438000000000000000e+03 7.648543548583984375e+01 -3.350469970703125000e+01 -4.103615414351224899e-03 7.935541629791259766e+00 2.379431486129760742e+00 -1.473308820277452469e-02
1.439000000000000000e+03 7.479332733154296875e+01 -3.058697509765625000e+01 -6.728037726134061813e-03 7.900539398193359375e+00 2.368143320083618164e+00 -2.699285745620727539e-02
1.440000000000000000e+03 1.310993480682373047e+01 -2.773229598999023438e+01 3.642999753355979919e-02 6.726791858673095703e+00 2.028966426849365234e+00 4.321597516536712646e-02
1.441000000000000000e+03 2.346993637084960938e+01 4.336160659790039062e+00 2.125895023345947266e-01 8.220005035400390625e+00 2.529778480529785156e+00 1.761675029993057251e-01
1.442000000000000000e+03 2.481594085693359375e+01 5.532845973968505859e+00 1.875864267349243164e-01 8.156279563903808594e+00 2.503159761428833008e+00 1.527479439973831177e-01
1.443000000000000000e+03 1.326409339904785156e+01 2.974933862686157227e+00 -1.567712664604187012e+00 1.060564231872558594e+01 2.711378812789916992e+00 -4.603874683380126953e-01
1.444000000000000000e+03 1.364264011383056641e+01 -2.132054805755615234e+00 -2.662630558013916016e+00 1.327243518829345703e+01 3.182941198348999023e+00 -9.856461882591247559e-01
1.445000000000000000e+03 1.279488372802734375e+01 -2.381472110748291016e+00 -2.069411516189575195e+00 1.137998104095458984e+01 2.793170690536499023e+00 1.956993341445922852e+00
1.446000000000000000e+03 3.035483837127685547e+00 -1.741007041931152344e+01 -1.901292824186384678e-03 -7.057360410690307617e-01 -2.122911959886550903e-01 3.855232521891593933e-02
1.447000000000000000e+03 4.131641864776611328e+00 -1.460085582733154297e+01 1.012787744402885437e-01 7.515191286802291870e-02 5.292920768260955811e-02 6.203920202096924186e-05
1.448000000000000000e+03 4.540804386138916016e+00 2.244234275817871094e+01 6.802177429199218750e-02 1.362975239753723145e-01 6.129578873515129089e-02 -1.189422756433486938e-01
1.449000000000000000e+03 4.193139076232910156e+00 -1.725938224792480469e+01 4.591837152838706970e-02 1.651942133903503418e-01 6.333377957344055176e-02 4.743448644876480103e-02
1.450000000000000000e+03 4.168291568756103516e+00 -1.592921829223632812e+01 3.207253292202949524e-02 1.329655945301055908e-01 4.951144009828567505e-02 2.916096150875091553e-02
1.451000000000000000e+03 4.815853595733642578e+00 -2.828748130798339844e+01 6.971660256385803223e-02 7.362180948257446289e-01 2.417804151773452759e-01 8.983633667230606079e-02
1.452000000000000000e+03 3.246576070785522461e+00 -2.427073669433593750e+01 1.926858909428119659e-02 -4.745998084545135498e-01 -1.365993618965148926e-01 5.684114620089530945e-02
1.453000000000000000e+03 4.475526809692382812e+00 -2.264282798767089844e+01 1.609977148473262787e-02 4.261370897293090820e-01 1.326710581779479980e-01 7.433044910430908203e-02
1.454000000000000000e+03 5.834093570709228516e+00 2.360225296020507812e+01 1.221686154603958130e-01 1.137388586997985840e+00 3.778671622276306152e-01 -1.307589411735534668e-01
1.455000000000000000e+03 5.950441837310791016e+00 2.638575935363769531e+01 1.282833516597747803e-01 1.180635690689086914e+00 3.926757276058197021e-01 -2.372105419635772705e-01
1.456000000000000000e+03 3.331132888793945312e+00 2.693759536743164062e+01 4.280552268028259277e-02 -7.053056955337524414e-01 -1.987500488758087158e-01 -2.302952706813812256e-01
1.457000000000000000e+03 4.754981040954589844e+00 2.967903900146484375e+01 6.726431101560592651e-02 3.387871384620666504e-01 1.218154355883598328e-01 -3.553901314735412598e-01
1.458000000000000000e+03 4.382997035980224609e+00 -2.129451942443847656e+01 -1.826667040586471558e-02 3.335677981376647949e-01 9.459033608436584473e-02 5.866669863462448120e-02
1.459000000000000000e+03 4.233100414276123047e+00 -1.859918022155761719e+01 -8.268600329756736755e-03 2.164880484342575073e-01 6.246583536267280579e-02 5.413464456796646118e-02
1.460000000000000000e+03 4.439147472381591797e+00 1.825380897521972656e+01 8.355859667062759399e-02 1.003733947873115540e-01 5.517959594726562500e-02 -3.276376053690910339e-03
1.461000000000000000e+03 4.458424091339111328e+00 1.971468734741210938e+01 8.303172141313552856e-02 1.152920275926589966e-01 5.949712544679641724e-02 -3.525065630674362183e-02
1.462000000000000000e+03 4.305325031280517578e+00 1.679577636718750000e+01 6.074742600321769714e-02 -2.023538947105407715e-02 1.215361058712005615e-02 3.290957584977149963e-02
1.463000000000000000e+03 4.561697483062744141e+00 -2.400614929199218750e+01 -3.317884728312492371e-02 4.958099126815795898e-01 1.387893259525299072e-01 5.681198462843894958e-02
1.464000000000000000e+03 4.582268714904785156e+00 2.522069931030273438e+01 7.654800266027450562e-02 1.917463093996047974e-01 8.048829436302185059e-02 -1.996960639953613281e-01
1.465000000000000000e+03 4.549418926239013672e+00 2.381499862670898438e+01 9.446431696414947510e-02 1.672058105468750000e-01 7.850103825330734253e-02 -1.683104783296585083e-01
1.466000000000000000e+03 4.139461517333984375e+00 1.405438423156738281e+01 1.157314479351043701e-01 -1.609745323657989502e-01 -1.357292570173740387e-02 1.250184625387191772e-01
1.467000000000000000e+03 3.999731540679931641e+00 -1.056280994415283203e+01 1.890168637037277222e-01 -1.013635545969009399e-01 2.629599161446094513e-02 -2.071849554777145386e-01
1.468000000000000000e+03 3.966568708419799805e+00 -9.197118759155273438e+00 2.609534859657287598e-01 -1.552702039480209351e-01 3.170497715473175049e-02 -3.175746500492095947e-01
1.469000000000000000e+03 4.082235813140869141e+00 -1.326173686981201172e+01 1.051199957728385925e-01 1.803255267441272736e-02 3.694576397538185120e-02 -5.572947114706039429e-02
1.470000000000000000e+03 5.160932064056396484e+00 3.581767654418945312e+01 -6.761397421360015869e-02 7.142793536186218262e-01 1.939996033906936646e-01 -2.654822766780853271e-01
1.471000000000000000e+03 3.553003787994384766e+00 3.607653427124023438e+01 1.440687570720911026e-02 -1.499282717704772949e-01 -4.065642133355140686e-02 -3.230314552783966064e-01
1.472000000000000000e+03 3.369000196456909180e+00 -3.129488754272460938e+01 9.022844606079161167e-04 -3.031273484230041504e-01 -9.066751599311828613e-02 1.087663099169731140e-01
1.473000000000000000e+03 4.854257106781005859e+00 -2.974564552307128906e+01 4.179408401250839233e-02 6.927216053009033203e-01 2.203547060489654541e-01 6.329380720853805542e-02
1.474000000000000000e+03 4.036841869354248047e+00 -1.191642093658447266e+01 1.755636334419250488e-01 -4.089988768100738525e-02 4.039912298321723938e-02 -1.198746562004089355e-01
1.475000000000000000e+03 4.190732002258300781e+00 1.117486095428466797e+01 2.010131180286407471e-01 -1.372663080692291260e-01 1.912404224276542664e-02 2.785962820053100586e-01
1.476000000000000000e+03 5.077647209167480469e+00 -4.891507625579833984e+00 2.169060707092285156e-01 4.547986015677452087e-02 7.871577888727188110e-02 -6.977079510688781738e-01
1.477000000000000000e+03 6.152562618255615234e+00 2.956295394897460938e+01 9.396551549434661865e-02 1.304130673408508301e+00 4.194288551807403564e-01 -3.236864507198333740e-01
1.478000000000000000e+03 4.324842453002929688e+00 3.517048645019531250e+01 -2.500781416893005371e-02 1.912408620119094849e-01 4.986991360783576965e-02 -3.577611148357391357e-01
1.479000000000000000e+03 4.680896759033203125e+00 -3.355228805541992188e+01 2.194990217685699463e-01 6.493157744407653809e-01 2.606444358825683594e-01 2.049945145845413208e-01
1.480000000000000000e+03 4.770094871520996094e+00 -3.118177604675292969e+01 1.219846457242965698e-01 6.072053909301757812e-01 2.187570184469223022e-01 1.693996638059616089e-01
1.481000000000000000e+03 3.333893775939941406e+00 -3.261393356323242188e+01 1.483092457056045532e-01 -2.994509935379028320e-01 -4.534252732992172241e-02 1.780818700790405273e-01
1.482000000000000000e+03 2.520494699478149414e+00 7.525640487670898438e+00 1.514143198728561401e-01 -1.066752314567565918e+00 -2.746013998985290527e-01 5.276226997375488281e-01
1.483000000000000000e+03 3.765330076217651367e+00 8.434851646423339844e+00 2.551813423633575439e-01 -4.429402649402618408e-01 -5.632768198847770691e-02 5.216395854949951172e-01
1.484000000000000000e+03 5.242267608642578125e+00 4.163195133209228516e+00 4.217454046010971069e-02 -1.918160729110240936e-02 6.897879298776388168e-03 8.810215592384338379e-01
1.485000000000000000e+03 2.431119537353515625e+01 -4.074804306030273438e+00 -6.342029571533203125e-02 7.831157207489013672e+00 2.330321073532104492e+00 2.079976350069046021e-01
1.486000000000000000e+03 2.436054992675781250e+01 -2.713715314865112305e+00 -2.773524448275566101e-02 7.856805801391601562e+00 2.348721027374267578e+00 1.993589848279953003e-01
1.487000000000000000e+03 3.969510793685913086e+00 -3.580490493774414062e+01 7.631444185972213745e-02 1.811963766813278198e-01 7.725324481725692749e-02 2.519374489784240723e-01
1.488000000000000000e+03 5.875585079193115234e+00 -3.510369110107421875e+01 1.144939735531806946e-01 1.372208476066589355e+00 4.460107386112213135e-01 1.563064754009246826e-01
1.489000000000000000e+03 7.311875820159912109e+00 3.698782730102539062e+01 -1.978528499603271484e-01 1.799805998802185059e+00 4.805859327316284180e-01 -3.142391443252563477e-01
1.490000000000000000e+03 2.403083801269531250e+01 -1.777135658264160156e+01 -9.169463068246841431e-02 7.476685047149658203e+00 2.215497016906738281e+00 1.539692729711532593e-01
1.491000000000000000e+03 2.398652076721191406e+01 -1.235458469390869141e+01 8.004429936408996582e-02 7.622669219970703125e+00 2.310814142227172852e+00 2.171232849359512329e-01
1.492000000000000000e+03 2.421017074584960938e+01 -9.607427597045898438e+00 2.037571929395198822e-02 7.697730064392089844e+00 2.315431594848632812e+00 2.624183297157287598e-01
1.493000000000000000e+03 2.449592018127441406e+01 -2.231895923614501953e-02 1.130316313356161118e-02 7.989629268646240234e+00 2.400279760360717773e+00 1.688810288906097412e-01
1.494000000000000000e+03 2.486344909667968750e+01 6.952739715576171875e+00 1.560357511043548584e-01 8.178194999694824219e+00 2.500269174575805664e+00 1.599763631820678711e-01
1.495000000000000000e+03 2.466704177856445312e+01 2.718087673187255859e+00 1.138153672218322754e-01 8.094884872436523438e+00 2.462610244750976562e+00 1.225464195013046265e-01
1.496000000000000000e+03 2.589433097839355469e+01 1.142714858055114746e+00 6.558862328529357910e-02 7.998679161071777344e+00 2.419280290603637695e+00 1.032154783606529236e-01
1.497000000000000000e+03 1.201544952392578125e+01 -2.269671249389648438e+01 -2.976738475263118744e-02 6.088978290557861328e+00 1.817763328552246094e+00 4.545399174094200134e-02
1.498000000000000000e+03 2.392446136474609375e+01 -1.512239837646484375e+01 3.253752738237380981e-02 7.522813796997070312e+00 2.266605377197265625e+00 1.515356004238128662e-01
1.499000000000000000e+03 2.388347434997558594e+01 -1.371248149871826172e+01 1.142991706728935242e-01 7.567876815795898438e+00 2.304652690887451172e+00 2.153972685337066650e-01
1.500000000000000000e+03 1.234100246429443359e+01 3.433791351318359375e+01 1.988786086440086365e-02 4.438282489776611328e+00 1.337451100349426270e+00 6.120322272181510925e-02
1.501000000000000000e+03 1.081802368164062500e+01 2.259757614135742188e+01 2.040271908044815063e-01 5.242760181427001953e+00 1.634036183357238770e+00 1.220463216304779053e-01
1.502000000000000000e+03 1.082622718811035156e+01 1.406974220275878906e+01 1.358993351459503174e-01 5.362687110900878906e+00 1.649575829505920410e+00 -1.473857555538415909e-03
1.503000000000000000e+03 2.403810310363769531e+01 -2.727915954589843750e+01 -4.212989658117294312e-02 7.296689510345458984e+00 2.176367759704589844e+00 1.871098577976226807e-01
1.504000000000000000e+03 7.729598999023437500e+01 3.955493927001953125e+01 -1.316265668720006943e-03 7.598791122436523438e+00 2.279242515563964844e+00 2.233840059489011765e-03
1.505000000000000000e+03 7.546812438964843750e+01 3.861452484130859375e+01 3.520382335409522057e-03 7.617338657379150391e+00 2.286257743835449219e+00 -7.655486115254461765e-04
1.506000000000000000e+03 2.680694389343261719e+01 -3.541049575805664062e+01 -4.630968719720840454e-02 7.115349292755126953e+00 2.120712041854858398e+00 -8.319175988435745239e-02
1.507000000000000000e+03 1.169559764862060547e+01 -1.466724491119384766e+01 4.264660552144050598e-02 5.888210773468017578e+00 1.779257178306579590e+00 1.172903552651405334e-01
1.508000000000000000e+03 1.133594799041748047e+01 3.146916580200195312e+01 2.597249150276184082e-01 4.377572059631347656e+00 1.391189098358154297e+00 2.331338636577129364e-02
1.509000000000000000e+03 7.426043987274169922e+00 -2.622935104370117188e+01 -2.086701244115829468e-02 2.594646215438842773e+00 7.721337676048278809e-01 5.730646848678588867e-02
1.510000000000000000e+03 1.276051998138427734e+01 3.168378639221191406e+01 2.402040660381317139e-01 5.325798511505126953e+00 1.669800877571105957e+00 3.203151524066925049e-01
1.511000000000000000e+03 5.820296764373779297e+00 3.257043838500976562e+01 -1.492375042289495468e-02 1.029830932617187500e+00 3.044721484184265137e-01 -3.969809114933013916e-01
1.512000000000000000e+03 7.467109203338623047e+00 -1.598864936828613281e+01 1.108520627021789551e-01 2.587337970733642578e+00 8.094570040702819824e-01 5.111282318830490112e-02
1.513000000000000000e+03 8.492126464843750000e+00 1.608315849304199219e+01 1.456986367702484131e-01 3.399914503097534180e+00 1.063683986663818359e+00 7.130612432956695557e-02
1.514000000000000000e+03 9.933566093444824219e+00 1.699396896362304688e+01 1.374271214008331299e-01 4.693231105804443359e+00 1.449197530746459961e+00 8.924434334039688110e-02
1.515000000000000000e+03 1.245658206939697266e+01 2.633193016052246094e+01 2.465014755725860596e-01 6.229234218597412109e+00 1.942720651626586914e+00 3.768589794635772705e-01
1.516000000000000000e+03 1.098526954650878906e+01 2.386410140991210938e+01 2.587050795555114746e-01 5.308685302734375000e+00 1.670217156410217285e+00 1.295416802167892456e-01
1.517000000000000000e+03 9.553593635559082031e+00 -3.495404052734375000e+01 3.674983680248260498e-01 4.068926334381103516e+00 1.330927371978759766e+00 8.956911414861679077e-02
1.518000000000000000e+03 1.190960979461669922e+01 -3.399764633178710938e+01 9.810099601745605469e-01 5.424844264984130859e+00 1.921756148338317871e+00 -6.429839134216308594e-01
1.519000000000000000e+03 1.662087821960449219e+01 3.937617492675781250e+01 -2.254408597946166992e-01 3.994757175445556641e+00 1.130794882774353027e+00 5.538922548294067383e-01
1.520000000000000000e+03 2.325040245056152344e+01 4.136046981811523438e+01 -5.021930932998657227e-01 6.936150550842285156e+00 1.930187344551086426e+00 -5.199366435408592224e-02
1.521000000000000000e+03 2.186398124694824219e+01 3.873855209350585938e+01 -4.924981594085693359e-01 7.353666782379150391e+00 2.058350563049316406e+00 -5.028099417686462402e-01
1.522000000000000000e+03 2.962654304504394531e+01 -3.582762145996093750e+01 -1.752769649028778076e-01 7.245676040649414062e+00 2.121119737625122070e+00 -9.954480826854705811e-02
1.523000000000000000e+03 1.369584369659423828e+01 -1.839719057083129883e+00 -2.826527357101440430e+00 1.427875709533691406e+01 3.435668945312500000e+00 -1.859565734863281250e+00
1.524000000000000000e+03 1.317514610290527344e+01 -2.145403623580932617e+00 -2.806470155715942383e+00 1.337823772430419922e+01 3.171530246734619141e+00 8.710104823112487793e-01
1.525000000000000000e+03 1.247312450408935547e+01 2.056402206420898438e+00 -1.701109051704406738e+00 1.002101707458496094e+01 2.495972156524658203e+00 -3.084127426147460938e+00
1.526000000000000000e+03 1.299608993530273438e+01 2.248116254806518555e+00 -2.434677600860595703e+00 1.204834556579589844e+01 2.884100437164306641e+00 -1.280628442764282227e+00
1.527000000000000000e+03 1.140050601959228516e+01 -2.151025772094726562e+00 1.681326329708099365e-01 4.398193836212158203e+00 1.369897842407226562e+00 2.829571723937988281e+00
1.528000000000000000e+03 1.258488845825195312e+01 -2.067786693572998047e+00 -1.899324417114257812e+00 1.124111461639404297e+01 2.802537202835083008e+00 3.045596837997436523e+00
1.529000000000000000e+03 1.276343250274658203e+01 -4.136327266693115234e+00 -7.055070996284484863e-01 8.382827758789062500e+00 2.303196430206298828e+00 9.188087582588195801e-01
1.530000000000000000e+03 1.190943050384521484e+01 3.718287229537963867e+00 -5.403905510902404785e-01 6.764575481414794922e+00 1.867255449295043945e+00 -1.502697229385375977e+00
1.531000000000000000e+03 1.073500823974609375e+01 2.615103483200073242e+00 1.760129630565643311e-02 3.053795337677001953e+00 9.214189648628234863e-01 -1.676114439964294434e+00
1.532000000000000000e+03 1.176603794097900391e+01 -2.291859626770019531e+00 -2.812306880950927734e-01 6.248421669006347656e+00 1.790157318115234375e+00 3.096933126449584961e+00
1.533000000000000000e+03 1.119254112243652344e+01 -2.558140516281127930e+00 1.250698417425155640e-01 4.238839149475097656e+00 1.309172749519348145e+00 2.405314445495605469e+00
1.534000000000000000e+03 1.087584590911865234e+01 -2.301671028137207031e+00 2.504392266273498535e-01 2.963211536407470703e+00 9.640952348709106445e-01 2.033865213394165039e+00
1.535000000000000000e+03 1.251031017303466797e+01 -3.324864149093627930e+00 -1.033081412315368652e+00 8.626040458679199219e+00 2.277887582778930664e+00 1.518081068992614746e+00
1.536000000000000000e+03 1.160137557983398438e+01 -2.772198200225830078e+00 -2.422981858253479004e-01 5.854847431182861328e+00 1.683764815330505371e+00 2.516741275787353516e+00
1.537000000000000000e+03 1.313238048553466797e+01 -2.976508855819702148e+00 -1.434053182601928711e+00 1.038152980804443359e+01 2.684242963790893555e+00 5.040840506553649902e-01
1.538000000000000000e+03 1.217420101165771484e+01 -4.765877246856689453e+00 -1.845937669277191162e-01 6.976850509643554688e+00 2.037677049636840820e+00 1.087687611579895020e+00
1.539000000000000000e+03 1.243532752990722656e+01 4.208890914916992188e+00 -3.783304393291473389e-01 7.742166519165039062e+00 2.209150791168212891e+00 -1.074518084526062012e+00
1.540000000000000000e+03 1.339591121673583984e+01 2.344387531280517578e+00 -2.408237218856811523e+00 1.236230659484863281e+01 2.986220836639404297e+00 1.307641267776489258e-01
1.541000000000000000e+03 1.277637386322021484e+01 2.782252311706542969e+00 -1.675691246986389160e+00 9.836790084838867188e+00 2.448329687118530273e+00 -1.385711669921875000e+00
1.542000000000000000e+03 3.946225881576538086e+00 4.263905048370361328e+00 1.636783778667449951e-02 -3.147092461585998535e-01 -8.950241655111312866e-02 8.823276162147521973e-01
1.543000000000000000e+03 4.565491676330566406e+00 4.199903011322021484e+00 1.631199382245540619e-02 -1.823109239339828491e-01 -4.979968070983886719e-02 9.002953171730041504e-01
1.544000000000000000e+03 5.964496135711669922e+00 4.131953239440917969e+00 9.547439962625503540e-02 1.641349047422409058e-01 7.788278907537460327e-02 8.036857247352600098e-01
1.545000000000000000e+03 5.961885929107666016e+00 4.970285892486572266e+00 2.940430641174316406e-01 3.039706349372863770e-01 1.794041097164154053e-01 7.167674303054809570e-01
1.546000000000000000e+03 3.493639230728149414e+00 7.338476657867431641e+00 2.473144978284835815e-01 -5.540454983711242676e-01 -9.201931208372116089e-02 6.156837344169616699e-01
1.547000000000000000e+03 5.228305339813232422e+00 4.984954357147216797e+00 2.243274003267288208e-01 3.737739473581314087e-02 7.851143926382064819e-02 8.101655840873718262e-01
1.548000000000000000e+03 6.754460811614990234e+00 4.917355060577392578e+00 3.746277987957000732e-01 6.123813390731811523e-01 2.961027324199676514e-01 5.649118423461914062e-01
1.549000000000000000e+03 5.707861900329589844e+00 -5.626514911651611328e+00 4.248945713043212891e-01 3.669383227825164795e-01 2.375498712062835693e-01 -5.165064334869384766e-01
1.550000000000000000e+03 4.023487567901611328e+00 -6.318977355957031250e+00 2.865963280200958252e-01 -2.201831787824630737e-01 1.992394588887691498e-02 -6.096280217170715332e-01
1.551000000000000000e+03 6.714190959930419922e+00 -6.148887634277343750e+00 5.196149349212646484e-01 9.689494371414184570e-01 4.465693235397338867e-01 -2.750023603439331055e-01
1.552000000000000000e+03 7.330702781677246094e+00 -5.400411605834960938e+00 5.367941260337829590e-01 1.114348530769348145e+00 4.953427910804748535e-01 -1.937097907066345215e-01
1.553000000000000000e+03 8.666578292846679688e+00 -5.544643878936767578e+00 6.042342185974121094e-01 2.136426687240600586e+00 8.221982717514038086e-01 2.622041404247283936e-01
1.554000000000000000e+03 8.477477073669433594e+00 4.726807594299316406e+00 5.126205086708068848e-01 1.611342906951904297e+00 6.371890306472778320e-01 -3.671257942914962769e-02
1.555000000000000000e+03 1.257459068298339844e+01 6.737476825714111328e+00 1.766113042831420898e-01 7.229941368103027344e+00 2.221965789794921875e+00 -6.475669145584106445e-01
1.556000000000000000e+03 1.178334331512451172e+01 4.630392551422119141e+00 1.764298230409622192e-02 6.337168216705322266e+00 1.906443357467651367e+00 -1.134858727455139160e+00
1.557000000000000000e+03 1.334887886047363281e+01 -6.110763072967529297e+00 5.550500750541687012e-02 8.322266578674316406e+00 2.513331413269042969e+00 6.044271588325500488e-01
1.558000000000000000e+03 1.356108474731445312e+01 -7.227081775665283203e+00 4.404896125197410583e-02 8.354281425476074219e+00 2.519499301910400391e+00 4.456582367420196533e-01
1.559000000000000000e+03 8.627382278442382812e+00 -6.506749153137207031e+00 6.336669921875000000e-01 2.426254272460937500e+00 9.179763793945312500e-01 2.492386847734451294e-01
1.560000000000000000e+03 9.263262748718261719e+00 -3.956886529922485352e+00 4.935284554958343506e-01 2.044848680496215820e+00 7.615131139755249023e-01 5.638464689254760742e-01
1.561000000000000000e+03 8.096427917480468750e+00 -4.900324344635009766e+00 5.660431385040283203e-01 1.460284948348999023e+00 6.078984141349792480e-01 5.769667401909828186e-02
1.562000000000000000e+03 9.207573890686035156e+00 3.777161359786987305e+00 3.756287097930908203e-01 1.838346004486083984e+00 6.641924381256103516e-01 -3.507673740386962891e-01
1.563000000000000000e+03 1.045084476470947266e+01 3.026920080184936523e+00 1.366861015558242798e-01 3.010606050491333008e+00 9.441876411437988281e-01 -1.309128522872924805e+00
1.564000000000000000e+03 1.337793922424316406e+01 -2.437418699264526367e+00 -2.487472057342529297e+00 1.242814636230468750e+01 2.982202291488647461e+00 -1.757026091217994690e-02
1.565000000000000000e+03 1.065408420562744141e+01 9.610765457153320312e+00 3.233061134815216064e-01 5.048169136047363281e+00 1.611442565917968750e+00 -2.932093739509582520e-01
1.566000000000000000e+03 8.583615303039550781e+00 5.576788425445556641e+00 5.885059833526611328e-01 2.122940063476562500e+00 8.134337663650512695e-01 -1.391643732786178589e-01
1.567000000000000000e+03 1.230479431152343750e+01 -6.577236175537109375e+00 1.396927088499069214e-01 6.752899169921875000e+00 2.067777633666992188e+00 8.055146336555480957e-01
1.568000000000000000e+03 9.155202865600585938e+00 -7.592684745788574219e+00 5.706168413162231445e-01 3.264061927795410156e+00 1.150403618812561035e+00 3.700378239154815674e-01
1.569000000000000000e+03 1.071079826354980469e+01 -1.403341197967529297e+01 1.305661052465438843e-01 5.186728477478027344e+00 1.595188379287719727e+00 1.274990886449813843e-01
1.570000000000000000e+03 2.691598320007324219e+01 -5.660117626190185547e+00 -2.067789621651172638e-02 7.798830509185791016e+00 2.333445787429809570e+00 1.630070805549621582e-01
1.571000000000000000e+03 3.406599283218383789e+00 6.431591033935546875e+00 1.875795274972915649e-01 -6.135514974594116211e-01 -1.277915835380554199e-01 7.113011479377746582e-01
1.572000000000000000e+03 2.525866746902465820e+00 6.265079498291015625e+00 1.154449284076690674e-01 -8.976602554321289062e-01 -2.346646040678024292e-01 6.441847681999206543e-01
1.573000000000000000e+03 1.103647232055664062e+01 1.241152858734130859e+01 2.045979648828506470e-01 5.644522666931152344e+00 1.754736185073852539e+00 -1.103361994028091431e-01
1.574000000000000000e+03 2.644570732116699219e+01 -2.594991493225097656e+01 -3.334400802850723267e-02 7.352034568786621094e+00 2.195607185363769531e+00 1.469257622957229614e-01
1.575000000000000000e+03 2.573103141784667969e+01 -2.185679626464843750e+01 -6.447702646255493164e-02 7.440310001373291016e+00 2.212749958038330078e+00 1.848281472921371460e-01
1.576000000000000000e+03 2.607184219360351562e+01 3.924365758895874023e+00 1.498574018478393555e-01 8.053651809692382812e+00 2.461052656173706055e+00 1.001004204154014587e-01
1.577000000000000000e+03 1.135342502593994141e+01 2.897194862365722656e+01 3.113216459751129150e-01 4.859884738922119141e+00 1.551361918449401855e+00 1.263384371995925903e-01
1.578000000000000000e+03 2.495123863220214844e+01 -1.701994895935058594e+01 -3.810440003871917725e-02 7.520486831665039062e+00 2.244714736938476562e+00 1.376222223043441772e-01
1.579000000000000000e+03 2.471496391296386719e+01 -1.895348358154296875e+01 -7.675682008266448975e-02 7.470564365386962891e+00 2.218142271041870117e+00 1.735280007123947144e-01
1.580000000000000000e+03 2.425559234619140625e+01 -8.202904701232910156e+00 -5.903430748730897903e-03 7.714619636535644531e+00 2.312614917755126953e+00 2.586372494697570801e-01
1.581000000000000000e+03 2.559816169738769531e+01 -6.949171066284179688e+00 -2.415013685822486877e-02 7.760161399841308594e+00 2.320803403854370117e+00 2.137358933687210083e-01
1.582000000000000000e+03 1.038680934906005859e+01 -1.882036972045898438e+01 1.254540681838989258e-02 4.811920166015625000e+00 1.447339653968811035e+00 6.167610734701156616e-02
1.583000000000000000e+03 1.070105648040771484e+01 -2.208503723144531250e+01 -5.255679413676261902e-02 5.022087574005126953e+00 1.490859270095825195e+00 4.901748150587081909e-02
1.584000000000000000e+03 1.164743614196777344e+01 -8.369293212890625000e+00 2.842476963996887207e-01 5.927174568176269531e+00 1.863426685333251953e+00 5.743401050567626953e-01
1.585000000000000000e+03 1.022284126281738281e+01 -9.948001861572265625e+00 3.472982048988342285e-01 4.594176292419433594e+00 1.482442378997802734e+00 3.571583032608032227e-01
1.586000000000000000e+03 2.314565467834472656e+01 -3.048936271667480469e+01 1.241983622312545776e-01 7.396597862243652344e+00 2.256238937377929688e+00 2.916047573089599609e-01
1.587000000000000000e+03 2.529402923583984375e+01 -2.665539360046386719e+01 -2.448351494967937469e-02 7.382033348083496094e+00 2.207264900207519531e+00 1.917788833379745483e-01
1.588000000000000000e+03 8.088103294372558594e+00 -3.420925140380859375e+01 3.601746261119842529e-01 2.651089906692504883e+00 9.033793807029724121e-01 1.852231621742248535e-01
1.589000000000000000e+03 8.457187652587890625e+00 -3.052593612670898438e+01 1.442188471555709839e-01 3.321054220199584961e+00 1.039581894874572754e+00 -5.480270832777023315e-03
1.590000000000000000e+03 2.934693717956542969e+01 2.752410697937011719e+01 1.291375458240509033e-01 8.014000892639160156e+00 2.442941665649414062e+00 -3.681621327996253967e-02
1.591000000000000000e+03 2.647278976440429688e+01 3.296891784667968750e+01 2.627449333667755127e-01 7.991105079650878906e+00 2.476155042648315430e+00 -7.530093938112258911e-02
1.592000000000000000e+03 2.543449020385742188e+01 -1.127264595031738281e+01 4.573555290699005127e-02 7.642884731292724609e+00 2.306586027145385742e+00 2.012233436107635498e-01
1.593000000000000000e+03 1.018311119079589844e+01 2.008302879333496094e+01 1.759710162878036499e-01 4.810068607330322266e+00 1.495811820030212402e+00 1.042064204812049866e-01
1.594000000000000000e+03 2.517387962341308594e+01 2.601947784423828125e+01 4.953229427337646484e-02 8.196103096008300781e+00 2.473690509796142578e+00 -7.239341735839843750e-02
1.595000000000000000e+03 1.125197887420654297e+01 8.664809226989746094e+00 3.713524341583251953e-01 5.764197349548339844e+00 1.840664982795715332e+00 -4.088867306709289551e-01
1.596000000000000000e+03 1.081854248046875000e+01 1.049640369415283203e+01 2.891187369823455811e-01 5.291142940521240234e+00 1.674078464508056641e+00 -2.180708497762680054e-01
1.597000000000000000e+03 2.482484817504882812e+01 1.937521171569824219e+01 2.339262701570987701e-02 8.189615249633789062e+00 2.463902235031127930e+00 -7.148067001253366470e-03
1.598000000000000000e+03 2.629209899902343750e+01 2.317460823059082031e+01 4.693765565752983093e-02 8.164733886718750000e+00 2.463501453399658203e+00 -6.100561097264289856e-02
1.599000000000000000e+03 2.611314201354980469e+01 1.797941589355468750e+01 3.730863332748413086e-02 8.158751487731933594e+00 2.458817958831787109e+00 7.156860549002885818e-03
1.600000000000000000e+03 2.605923843383789062e+01 2.051463508605957031e+01 3.450109064579010010e-02 8.165013313293457031e+00 2.459854125976562500e+00 -2.014741115272045135e-02
1.601000000000000000e+03 7.509264373779296875e+01 -2.759710693359375000e+01 -6.116081960499286652e-03 7.892966747283935547e+00 2.366055250167846680e+00 -3.120095282793045044e-02
1.602000000000000000e+03 2.762881851196289062e+01 9.549902915954589844e+00 1.141023486852645874e-01 8.083842277526855469e+00 2.459383487701416016e+00 9.455009549856185913e-02
1.603000000000000000e+03 2.629108238220214844e+01 1.109152603149414062e+01 7.552912086248397827e-02 8.156525611877441406e+00 2.469616413116455078e+00 9.106604754924774170e-02
1.604000000000000000e+03 2.717528724670410156e+01 2.809704017639160156e+01 1.203873828053474426e-01 8.131195068359375000e+00 2.475474596023559570e+00 -1.141585186123847961e-01
1.605000000000000000e+03 2.625892257690429688e+01 1.530329513549804688e+01 4.433366656303405762e-02 8.159764289855957031e+00 2.461229324340820312e+00 3.546290472149848938e-02
1.606000000000000000e+03 2.629300498962402344e+01 1.390379333496093750e+01 4.857334494590759277e-02 8.161163330078125000e+00 2.462921142578125000e+00 5.586094036698341370e-02
1.607000000000000000e+03 2.621893119812011719e+01 8.222428321838378906e+00 1.299621164798736572e-01 8.125565528869628906e+00 2.476658344268798828e+00 1.245585456490516663e-01
1.608000000000000000e+03 2.675779342651367188e+01 2.682437324523925781e+01 9.304890781641006470e-02 8.123759269714355469e+00 2.465042352676391602e+00 -8.113179355859756470e-02
1.609000000000000000e+03 7.312179565429687500e+01 2.216302299499511719e+01 4.540078807622194290e-03 7.650657653808593750e+00 2.296559333801269531e+00 -1.232793740928173065e-02
1.610000000000000000e+03 7.473083496093750000e+01 2.514459228515625000e+01 3.015493741258978844e-03 7.631830692291259766e+00 2.290453910827636719e+00 -7.217306178063154221e-03
1.611000000000000000e+03 7.530124664306640625e+01 -2.049775886535644531e+01 1.700617285678163171e-04 7.855575084686279297e+00 2.356723546981811523e+00 -3.466179594397544861e-02
1.612000000000000000e+03 7.271640014648437500e+01 -2.099820137023925781e+01 -6.645139306783676147e-03 7.839796543121337891e+00 2.349945306777954102e+00 -4.884888231754302979e-02
1.613000000000000000e+03 7.529460906982421875e+01 1.278886032104492188e+01 2.488839672878384590e-03 7.657910346984863281e+00 2.298119783401489258e+00 -1.939743943512439728e-02
1.614000000000000000e+03 7.393654632568359375e+01 1.552605152130126953e+01 5.582369863986968994e-03 7.657614707946777344e+00 2.298959255218505859e+00 -2.207200974225997925e-02
1.615000000000000000e+03 7.521119689941406250e+01 1.687215995788574219e+01 3.642808645963668823e-03 7.644886493682861328e+00 2.294558763504028320e+00 -1.614852249622344971e-02
1.616000000000000000e+03 7.386687469482421875e+01 8.707825660705566406e+00 4.170013591647148132e-03 7.682034492492675781e+00 2.305861473083496094e+00 -3.043994680047035217e-02
1.617000000000000000e+03 7.319977569580078125e+01 2.602765464782714844e+01 4.172412212938070297e-03 7.644042015075683594e+00 2.294464349746704102e+00 -9.642751887440681458e-03
1.618000000000000000e+03 7.557783508300781250e+01 2.629577255249023438e+01 1.087371492758393288e-03 7.624624729156494141e+00 2.287713527679443359e+00 -5.814207717776298523e-03
1.619000000000000000e+03 7.543576049804687500e+01 -1.374252605438232422e+01 -1.546403276734054089e-03 7.811837196350097656e+00 2.343087196350097656e+00 -3.755419701337814331e-02
1.620000000000000000e+03 7.425641632080078125e+01 -1.507831859588623047e+01 -2.533406717702746391e-03 7.815437316894531250e+00 2.343871116638183594e+00 -4.471523314714431763e-02
1.621000000000000000e+03 7.410217285156250000e+01 2.617120742797851562e-01 3.288288367912173271e-03 7.721957206726074219e+00 2.317573547363281250e+00 -4.009163007140159607e-02
1.622000000000000000e+03 7.538788604736328125e+01 4.431304931640625000e+00 2.459239447489380836e-03 7.694855690002441406e+00 2.309194326400756836e+00 -2.898067794740200043e-02
1.623000000000000000e+03 7.413454437255859375e+01 1.640340447425842285e+00 3.586548846215009689e-03 7.713165283203125000e+00 2.315025568008422852e+00 -3.987105190753936768e-02
1.624000000000000000e+03 7.403704833984375000e+01 -9.576570510864257812e+00 1.625592085474636406e-05 7.779573440551757812e+00 2.333876848220825195e+00 -4.730474948883056641e-02
1.625000000000000000e+03 7.539492034912109375e+01 -5.362446784973144531e+00 9.680446237325668335e-04 7.753869056701660156e+00 2.326451063156127930e+00 -3.740955889225006104e-02
1.626000000000000000e+03 7.409288787841796875e+01 -6.723731040954589844e+00 1.103475107811391354e-03 7.761728286743164062e+00 2.328849554061889648e+00 -4.650132730603218079e-02
1.627000000000000000e+03 7.386029052734375000e+01 1.149113750457763672e+01 4.737664014101028442e-03 7.671297550201416016e+00 2.302810430526733398e+00 -2.619768679141998291e-02
1.628000000000000000e+03 7.540212249755859375e+01 -3.961260318756103516e+00 1.555830123834311962e-03 7.745521068572998047e+00 2.324123144149780273e+00 -3.596454858779907227e-02
1.629000000000000000e+03 7.410617065429687500e+01 -2.524536848068237305e+00 2.815586747601628304e-03 7.737588405609130859e+00 2.322121143341064453e+00 -4.279759526252746582e-02
1.630000000000000000e+03 7.408384704589843750e+01 -1.241273880004882812e+01 -1.137215411290526390e-03 7.797815799713134766e+00 2.339003562927246094e+00 -4.656525328755378723e-02
1.631000000000000000e+03 7.410957336425781250e+01 4.420878887176513672e+00 4.252472426742315292e-03 7.699151039123535156e+00 2.311021089553833008e+00 -3.665858134627342224e-02
1.632000000000000000e+03 7.418498229980468750e+01 -1.765435218811035156e+01 -5.059360526502132416e-03 7.830908775329589844e+00 2.347754955291748047e+00 -4.482933133840560913e-02
1.633000000000000000e+03 7.388270568847656250e+01 -1.903057098388671875e+01 -8.002496906556189060e-05 7.837418556213378906e+00 2.351201534271240234e+00 -4.452957957983016968e-02
1.634000000000000000e+03 7.370928192138671875e+01 1.815441131591796875e+01 4.919071216136217117e-03 7.652362823486328125e+00 2.297184467315673828e+00 -1.820973493158817291e-02
1.635000000000000000e+03 7.374759674072265625e+01 -2.422338676452636719e+01 -1.027193735353648663e-03 7.864893436431884766e+00 2.359159946441650391e+00 -3.981295600533485413e-02
1.636000000000000000e+03 7.290032196044921875e+01 -2.717555999755859375e+01 -1.031033135950565338e-02 7.867362499237060547e+00 2.357115745544433594e+00 -3.849066048860549927e-02
1.637000000000000000e+03 7.503937530517578125e+01 -2.611394882202148438e+01 -1.537424861453473568e-03 7.884026527404785156e+00 2.364746809005737305e+00 -2.966824546456336975e-02
1.638000000000000000e+03 7.508238983154296875e+01 2.768573570251464844e+01 2.562735928222537041e-03 7.625812053680419922e+00 2.288512468338012695e+00 -5.188186187297105789e-03
1.639000000000000000e+03 7.375869750976562500e+01 2.952503013610839844e+01 2.242567017674446106e-03 7.635295867919921875e+00 2.291261434555053711e+00 -6.100406870245933533e-03
1.640000000000000000e+03 7.392555999755859375e+01 2.392755699157714844e+01 3.078436944633722305e-03 7.640874385833740234e+00 2.293185710906982422e+00 -1.005469914525747299e-02
1.641000000000000000e+03 7.416107940673828125e+01 -1.377150344848632812e+01 5.126771866343915462e-04 7.807328701019287109e+00 2.342352390289306641e+00 -4.628606513142585754e-02
1.642000000000000000e+03 7.393026733398437500e+01 7.275523662567138672e+00 5.128075368702411652e-03 7.686375617980957031e+00 2.307451009750366211e+00 -3.324362263083457947e-02
1.643000000000000000e+03 7.389287567138671875e+01 -2.041768836975097656e+01 -5.537802819162607193e-03 7.845089912414550781e+00 2.351865530014038086e+00 -4.516280069947242737e-02
1.644000000000000000e+03 7.458658599853515625e+01 3.199614524841308594e+01 -4.618572347681038082e-05 7.628099441528320312e+00 2.288415908813476562e+00 -1.516556134447455406e-03
1.645000000000000000e+03 7.323664093017578125e+01 -3.045290374755859375e+01 -6.387385539710521698e-03 7.885819435119628906e+00 2.363829612731933594e+00 -2.860537730157375336e-02
1.646000000000000000e+03 7.473300933837890625e+01 -3.219723129272460938e+01 -7.699602283537387848e-03 7.911576747894287109e+00 2.371163129806518555e+00 -2.143880538642406464e-02
1.647000000000000000e+03 7.391985321044921875e+01 1.420656204223632812e+01 4.210771992802619934e-03 7.662249565124511719e+00 2.299938201904296875e+00 -2.177779190242290497e-02
1.648000000000000000e+03 7.339634704589843750e+01 2.083470153808593750e+01 5.835007876157760620e-03 7.649204254150390625e+00 2.296511888504028320e+00 -1.545085199177265167e-02
1.649000000000000000e+03 7.359121704101562500e+01 1.949593734741210938e+01 4.323638975620269775e-03 7.651414871215820312e+00 2.296721458435058594e+00 -1.559311151504516602e-02
1.650000000000000000e+03 2.520115280151367188e+01 -1.260399627685546875e+01 9.070339798927307129e-02 7.583857059478759766e+00 2.302368164062500000e+00 2.006115019321441650e-01
1.651000000000000000e+03 1.028621673583984375e+01 -1.230233383178710938e+01 1.845162659883499146e-01 4.784210205078125000e+00 1.490617871284484863e+00 1.902578771114349365e-01
1.652000000000000000e+03 7.480468750000000000e+01 3.048723030090332031e+01 3.206195775419473648e-03 7.625897884368896484e+00 2.288731336593627930e+00 -3.324490040540695190e-03
1.653000000000000000e+03 6.378067016601562500e+00 -2.963235855102539062e+01 1.214016303420066833e-01 1.858157753944396973e+00 5.938677787780761719e-01 1.108018234372138977e-01
1.654000000000000000e+03 8.627139091491699219e+00 3.141738891601562500e+01 1.119984015822410583e-01 2.795319557189941406e+00 8.721954226493835449e-01 -3.108633756637573242e-01
1.655000000000000000e+03 6.098556041717529297e+00 -2.655160140991210938e+01 3.884007781744003296e-02 1.693768262863159180e+00 5.197824835777282715e-01 6.661695986986160278e-02
1.656000000000000000e+03 4.736633300781250000e+00 2.815873718261718750e+01 7.272491604089736938e-02 3.107139766216278076e-01 1.150316670536994934e-01 -2.911249697208404541e-01
1.657000000000000000e+03 1.100526618957519531e+01 -2.519738197326660156e+01 -3.172061173245310783e-03 5.364064216613769531e+00 1.608267664909362793e+00 3.592279925942420959e-02
1.658000000000000000e+03 1.102756023406982422e+01 -2.621528434753417969e+01 -2.592344395816326141e-02 5.278335571289062500e+00 1.575723648071289062e+00 1.007270812988281250e-01
1.659000000000000000e+03 6.234449863433837891e+00 -1.073083209991455078e+01 3.141824305057525635e-01 1.371197462081909180e+00 5.056139826774597168e-01 -7.886132597923278809e-02
1.660000000000000000e+03 5.111760139465332031e+00 -1.061999225616455078e+01 2.850332856178283691e-01 6.236616969108581543e-01 2.726084887981414795e-01 -1.468648612499237061e-01
1.661000000000000000e+03 9.990427970886230469e+00 2.658053207397460938e+01 2.651305794715881348e-01 4.188977718353271484e+00 1.336232423782348633e+00 1.330717094242572784e-02
1.662000000000000000e+03 1.122926616668701172e+01 2.641822814941406250e+01 2.879893183708190918e-01 5.198062896728515625e+00 1.645815730094909668e+00 1.760416477918624878e-01
1.663000000000000000e+03 5.765247344970703125e+00 -2.234411239624023438e+01 -2.575984410941600800e-02 1.369455814361572266e+00 4.031087756156921387e-01 6.387173384428024292e-02
1.664000000000000000e+03 7.282204627990722656e+00 -1.695633506774902344e+01 1.601554639637470245e-02 2.389359235763549805e+00 7.216123938560485840e-01 7.016859948635101318e-02
1.665000000000000000e+03 5.299228668212890625e+00 -1.582126426696777344e+01 9.426317363977432251e-02 9.626920819282531738e-01 3.170865774154663086e-01 4.642022028565406799e-02
1.666000000000000000e+03 5.259292125701904297e+00 -1.453376865386962891e+01 9.935731440782546997e-02 9.080200195312500000e-01 3.022131919860839844e-01 1.405610889196395874e-02
1.667000000000000000e+03 7.321709632873535156e+00 1.504061985015869141e+01 2.011398673057556152e-01 2.527520418167114258e+00 8.185980916023254395e-01 2.155385725200176239e-02
1.668000000000000000e+03 7.343885421752929688e+00 1.613540458679199219e+01 1.577465534210205078e-01 2.464250087738037109e+00 7.865990400314331055e-01 5.112486332654953003e-02
1.669000000000000000e+03 8.589079856872558594e+00 1.719696807861328125e+01 1.424919366836547852e-01 3.471590280532836914e+00 1.084224581718444824e+00 4.887352883815765381e-02
1.670000000000000000e+03 4.299013614654541016e+00 -1.994560050964355469e+01 2.389251627027988434e-02 2.804033756256103516e-01 9.128876775503158569e-02 5.581453815102577209e-02
1.671000000000000000e+03 9.045233726501464844e+00 -2.712252044677734375e+01 -4.104183055460453033e-03 3.755779743194580078e+00 1.125502705574035645e+00 4.022642970085144043e-02
1.672000000000000000e+03 4.508860588073730469e+00 2.109403038024902344e+01 8.427997678518295288e-02 1.155349835753440857e-01 5.994448810815811157e-02 -7.981410622596740723e-02
1.673000000000000000e+03 4.139081954956054688e+00 1.541692352294921875e+01 8.555880934000015259e-02 -1.767727881669998169e-01 -2.736419439315795898e-02 6.601657718420028687e-02
1.674000000000000000e+03 4.730370044708251953e+00 -2.683244132995605469e+01 -2.515613159630447626e-04 6.325306892395019531e-01 1.896837353706359863e-01 5.796550586819648743e-02
1.675000000000000000e+03 9.858027458190917969e+00 -2.545217323303222656e+01 -3.378714993596076965e-02 4.379011154174804688e+00 1.303567171096801758e+00 5.090351775288581848e-02
1.676000000000000000e+03 6.124486923217773438e+00 2.791491317749023438e+01 1.349281221628189087e-01 1.309630513191223145e+00 4.333675801753997803e-01 -2.962069809436798096e-01
1.677000000000000000e+03 4.653015136718750000e+00 2.666673088073730469e+01 1.023694053292274475e-01 2.614793777465820312e-01 1.091546341776847839e-01 -2.534936666488647461e-01
1.678000000000000000e+03 9.434506416320800781e+00 -9.662489891052246094e+00 4.234856069087982178e-01 3.886687755584716797e+00 1.293052077293395996e+00 3.059500455856323242e-01
1.679000000000000000e+03 6.935664176940917969e+00 3.292638778686523438e+01 -1.693115569651126862e-02 1.744606614112854004e+00 5.183026194572448730e-01 -3.776841163635253906e-01
1.680000000000000000e+03 4.601802349090576172e+00 3.258939743041992188e+01 3.889651596546173096e-02 3.829264640808105469e-01 1.265469044446945190e-01 -3.681627810001373291e-01
1.681000000000000000e+03 6.068654060363769531e+00 1.706134414672851562e+01 8.131476491689682007e-02 1.348909139633178711e+00 4.290671646595001221e-01 2.498031780123710632e-02
1.682000000000000000e+03 5.251171112060546875e+00 1.401006603240966797e+01 1.667698621749877930e-01 6.953084468841552734e-01 2.586235105991363525e-01 1.309960931539535522e-01
1.683000000000000000e+03 5.209084033966064453e+00 1.522197914123535156e+01 1.051849275827407837e-01 6.353838443756103516e-01 2.221706211566925049e-01 1.147420778870582581e-01
1.684000000000000000e+03 5.600557327270507812e+00 -2.102652359008789062e+01 3.445780277252197266e-02 1.263917803764343262e+00 3.895126879215240479e-01 7.361277192831039429e-02
1.685000000000000000e+03 5.352074146270751953e+00 -1.841243743896484375e+01 2.902405522763729095e-02 1.062003493309020996e+00 3.273082673549652100e-01 5.350643396377563477e-02
1.686000000000000000e+03 5.902901172637939453e+00 2.221846961975097656e+01 1.234311982989311218e-01 1.232357859611511230e+00 4.067367315292358398e-01 -8.687257021665573120e-02
1.687000000000000000e+03 5.740760803222656250e+00 1.819738960266113281e+01 1.138115227222442627e-01 1.132566809654235840e+00 3.739134967327117920e-01 7.974737090989947319e-04
1.688000000000000000e+03 6.247969627380371094e+00 3.513728713989257812e+01 -9.404434263706207275e-02 1.269500494003295898e+00 3.526368439197540283e-01 -3.593635261058807373e-01
1.689000000000000000e+03 6.248508453369140625e+00 -2.804325866699218750e+01 2.733379043638706207e-02 1.719286084175109863e+00 5.239859819412231445e-01 3.938959166407585144e-02
1.690000000000000000e+03 4.583149909973144531e+00 -3.247370529174804688e+01 7.189957052469253540e-02 5.819260478019714355e-01 1.961476802825927734e-01 1.740931868553161621e-01
1.691000000000000000e+03 9.652539253234863281e+00 -3.129375839233398438e+01 1.871737539768218994e-01 4.117587089538574219e+00 1.291428208351135254e+00 2.131232991814613342e-02
1.692000000000000000e+03 2.559754562377929688e+01 -8.376467704772949219e+00 -1.134368032217025757e-02 7.728408336639404297e+00 2.315119504928588867e+00 2.213739603757858276e-01
1.693000000000000000e+03 6.080562591552734375e+00 1.172222042083740234e+01 2.760417461395263672e-01 1.198540210723876953e+00 4.423745870590209961e-01 1.847099661827087402e-01
1.694000000000000000e+03 3.955764055252075195e+00 9.771227836608886719e+00 2.578324377536773682e-01 -3.172090649604797363e-01 -1.781299337744712830e-02 3.848267495632171631e-01
1.695000000000000000e+03 5.079784870147705078e+00 9.391581535339355469e+00 3.472255170345306396e-01 3.628519177436828613e-01 2.130232304334640503e-01 3.854641914367675781e-01
1.696000000000000000e+03 4.860844135284423828e+00 8.121907234191894531e+00 3.796570897102355957e-01 1.406700462102890015e-01 1.560981422662734985e-01 5.128300189971923828e-01
1.697000000000000000e+03 5.148979663848876953e+00 -1.192347812652587891e+01 1.925601065158843994e-01 7.317944765090942383e-01 2.773063778877258301e-01 -8.946692198514938354e-02
1.698000000000000000e+03 2.380996704101562500e+01 -2.078600883483886719e+01 -7.670710235834121704e-02 7.381247043609619141e+00 2.191361904144287109e+00 2.228763550519943237e-01
1.699000000000000000e+03 5.267939567565917969e+00 -6.700860023498535156e+00 4.145142436027526855e-01 3.371659517288208008e-01 2.255040556192398071e-01 -4.687342047691345215e-01
1.700000000000000000e+03 5.103258132934570312e+00 -8.002630233764648438e+00 3.877526819705963135e-01 4.023327827453613281e-01 2.370256334543228149e-01 -3.676415383815765381e-01
1.701000000000000000e+03 6.204967498779296875e+00 -8.261747360229492188e+00 4.582012295722961426e-01 1.064272165298461914e+00 4.567420184612274170e-01 -1.987227499485015869e-01
1.702000000000000000e+03 2.579629516601562500e+01 -2.013535648584365845e-01 1.994761638343334198e-02 7.959947586059570312e+00 2.393968582153320312e+00 1.306769400835037231e-01
1.703000000000000000e+03 1.114484596252441406e+01 -2.881546783447265625e+01 -3.654585778713226318e-02 5.508390903472900391e+00 1.641553521156311035e+00 -2.595535293221473694e-02
1.704000000000000000e+03 1.318282127380371094e+01 -2.900738906860351562e+01 -1.410276293754577637e-01 6.727249622344970703e+00 1.975866556167602539e+00 1.088701412081718445e-01
1.705000000000000000e+03 1.105494976043701172e+01 -1.594782161712646484e+01 4.119068756699562073e-02 5.363324642181396484e+00 1.621354579925537109e+00 7.344452291727066040e-02
1.706000000000000000e+03 2.556419372558593750e+01 -9.841644287109375000e+00 4.387950897216796875e-02 7.667481422424316406e+00 2.313408136367797852e+00 2.261717468500137329e-01
1.707000000000000000e+03 9.820228576660156250e+00 -2.229262351989746094e+01 -1.584183238446712494e-02 4.345062732696533203e+00 1.298766255378723145e+00 3.836135193705558777e-02
1.708000000000000000e+03 1.095510959625244141e+01 -2.411691856384277344e+01 -3.385226428508758545e-02 5.259827136993408203e+00 1.567792415618896484e+00 7.141563296318054199e-02
1.709000000000000000e+03 9.738893508911132812e+00 -2.325825691223144531e+01 -2.111412025988101959e-02 4.296374320983886719e+00 1.282577991485595703e+00 4.559522122144699097e-02
1.710000000000000000e+03 2.617977142333984375e+01 6.778975963592529297e+00 1.605861186981201172e-01 8.107700347900390625e+00 2.480486154556274414e+00 1.280756741762161255e-01
1.711000000000000000e+03 2.400514411926269531e+01 -2.360317420959472656e+01 -5.121703073382377625e-02 7.368772983551025391e+00 2.195266723632812500e+00 2.240991741418838501e-01
1.712000000000000000e+03 7.235473632812500000e+00 2.605226325988769531e+01 1.793755441904067993e-01 2.110472917556762695e+00 6.869545578956604004e-01 -1.960084438323974609e-01
1.713000000000000000e+03 1.065956974029541016e+01 -1.738901901245117188e+01 4.035842791199684143e-02 5.047290325164794922e+00 1.526294708251953125e+00 7.517378032207489014e-02
1.714000000000000000e+03 2.560851097106933594e+01 -4.211018085479736328e+00 -3.746272623538970947e-02 7.833650588989257812e+00 2.338856220245361328e+00 1.780833601951599121e-01
1.715000000000000000e+03 2.564620590209960938e+01 -2.865558862686157227e+00 -3.662593290209770203e-02 7.882125854492187500e+00 2.353649854660034180e+00 1.627997905015945435e-01
1.716000000000000000e+03 9.502884864807128906e+00 1.911910247802734375e+01 1.996807456016540527e-01 4.324110031127929688e+00 1.357137203216552734e+00 4.598051309585571289e-02
1.717000000000000000e+03 2.496822166442871094e+01 -1.380956363677978516e+01 5.118898674845695496e-02 7.567294597625732422e+00 2.285545110702514648e+00 1.533634066581726074e-01
1.718000000000000000e+03 1.022602748870849609e+01 1.467053794860839844e+01 1.378977894783020020e-01 5.055619716644287109e+00 1.558055281639099121e+00 -2.215855056419968605e-03
1.719000000000000000e+03 2.599066352844238281e+01 2.520021915435791016e+00 1.093963161110877991e-01 8.017997741699218750e+00 2.438218355178833008e+00 1.020492389798164368e-01
1.720000000000000000e+03 2.613543319702148438e+01 5.347941875457763672e+00 1.675701737403869629e-01 8.065526962280273438e+00 2.469929218292236328e+00 1.166619285941123962e-01
1.721000000000000000e+03 1.002560901641845703e+01 3.014354324340820312e+01 2.487394660711288452e-01 3.754931688308715820e+00 1.201101303100585938e+00 -1.195216402411460876e-01
1.722000000000000000e+03 2.593945121765136719e+01 -2.785528945922851562e+01 2.358803898096084595e-02 7.292973995208740234e+00 2.194968700408935547e+00 1.998436301946640015e-01
1.723000000000000000e+03 9.557888984680175781e+00 2.291672325134277344e+01 2.460132539272308350e-01 4.178586483001708984e+00 1.327379941940307617e+00 2.450733073055744171e-02
1.724000000000000000e+03 1.123899936676025391e+01 3.261799240112304688e+01 8.267212659120559692e-02 4.137957572937011719e+00 1.266188859939575195e+00 -7.564432173967361450e-02
1.725000000000000000e+03 7.479592323303222656e+00 2.974530029296875000e+01 1.470486819744110107e-01 2.147273063659667969e+00 6.882964968681335449e-01 -3.169289827346801758e-01
1.726000000000000000e+03 7.169997406005859375e+01 4.064187622070312500e+01 6.526916695293039083e-05 7.649378299713134766e+00 2.294832944869995117e+00 -2.974339528009295464e-03
1.727000000000000000e+03 7.464765930175781250e+01 3.681352996826171875e+01 3.751036478206515312e-03 7.625892639160156250e+00 2.288892984390258789e+00 -3.507248125970363617e-03
1.728000000000000000e+03 2.776308631896972656e+01 3.902340316772460938e+01 -2.362517714500427246e-01 7.788807392120361328e+00 2.265766620635986328e+00 1.509635448455810547e-01
1.729000000000000000e+03 1.239504718780517578e+01 3.254399538040161133e+00 -9.660528898239135742e-01 8.270761489868164062e+00 2.191412687301635742e+00 -1.668908238410949707e+00
1.730000000000000000e+03 1.281811904907226562e+01 -1.870367765426635742e+00 -2.451283454895019531e+00 1.331309223175048828e+01 3.258542776107788086e+00 2.736443519592285156e+00
1.731000000000000000e+03 1.239804649353027344e+01 -2.655990839004516602e+00 -1.208491206169128418e+00 8.971937179565429688e+00 2.329033851623535156e+00 2.322376251220703125e+00
1.732000000000000000e+03 9.848395347595214844e+00 -3.339128017425537109e+00 3.759263753890991211e-01 2.132586479187011719e+00 7.525538206100463867e-01 9.868291616439819336e-01
1.733000000000000000e+03 9.321768760681152344e+00 -3.401365518569946289e+00 3.722915351390838623e-01 1.771908879280090332e+00 6.432601213455200195e-01 5.815610289573669434e-01
1.734000000000000000e+03 8.578727722167968750e+00 6.446062088012695312e+00 6.146613359451293945e-01 2.420382261276245117e+00 9.105131030082702637e-01 -1.191264167428016663e-01
1.735000000000000000e+03 1.041989231109619141e+01 3.955374956130981445e+00 3.179427087306976318e-01 3.565279960632324219e+00 1.164966821670532227e+00 -1.044016122817993164e+00
1.736000000000000000e+03 1.218261528015136719e+01 -3.822314262390136719e+00 -5.803789496421813965e-01 7.406254768371582031e+00 2.047762632369995117e+00 1.568889021873474121e+00
1.737000000000000000e+03 5.842635631561279297e+00 6.851153850555419922e+00 4.769004285335540771e-01 5.592759847640991211e-01 3.108529150485992432e-01 5.370262861251831055e-01
1.738000000000000000e+03 5.909702777862548828e+00 5.872934341430664062e+00 4.140539765357971191e-01 4.091523587703704834e-01 2.469619065523147583e-01 6.402093768119812012e-01
1.739000000000000000e+03 8.815925598144531250e+00 -4.459581375122070312e+00 5.605623126029968262e-01 1.866747260093688965e+00 7.281928658485412598e-01 3.352597951889038086e-01
1.740000000000000000e+03 8.556980133056640625e+00 -8.345201492309570312e+00 5.215305089950561523e-01 2.760295629501342773e+00 9.845477938652038574e-01 2.012895494699478149e-01
1.741000000000000000e+03 9.929072380065917969e+00 -4.030613422393798828e+00 4.633253514766693115e-01 2.886445522308349609e+00 1.004931211471557617e+00 9.505034685134887695e-01
1.742000000000000000e+03 9.958268165588378906e+00 3.463660240173339844e+00 2.590897381305694580e-01 2.513424158096313477e+00 8.317542076110839844e-01 -8.571878671646118164e-01
1.743000000000000000e+03 1.111153984069824219e+01 2.804054260253906250e+00 -7.958791404962539673e-02 4.169693946838378906e+00 1.227031826972961426e+00 -1.946063160896301270e+00
1.744000000000000000e+03 6.751276493072509766e+00 5.793697357177734375e+00 4.874978959560394287e-01 8.618010878562927246e-01 4.047896862030029297e-01 4.622933566570281982e-01
1.745000000000000000e+03 1.142838382720947266e+01 3.366343736648559570e+00 -2.692471742630004883e-01 5.684124469757080078e+00 1.624463200569152832e+00 -1.845532178878784180e+00
1.746000000000000000e+03 6.370151519775390625e+00 -7.142034053802490234e+00 5.349612236022949219e-01 9.865421652793884277e-01 4.564509987831115723e-01 -2.684069573879241943e-01
1.747000000000000000e+03 8.037241935729980469e+00 -6.030847072601318359e+00 6.123600602149963379e-01 1.821599602699279785e+00 7.301878929138183594e-01 9.608711302280426025e-02
1.748000000000000000e+03 1.306411838531494141e+01 -3.467032670974731445e+00 -1.121195197105407715e+00 9.558438301086425781e+00 2.531172752380371094e+00 7.528452277183532715e-01
1.749000000000000000e+03 9.377226829528808594e+00 4.565902233123779297e+00 4.826485514640808105e-01 2.435823440551757812e+00 8.755415678024291992e-01 -4.503466486930847168e-01
1.750000000000000000e+03 1.166541385650634766e+01 6.090350151062011719e+00 2.560430169105529785e-01 5.993330955505371094e+00 1.874812245368957520e+00 -8.224056363105773926e-01
1.751000000000000000e+03 1.141739082336425781e+01 -5.206436634063720703e+00 2.102484405040740967e-01 5.616017818450927734e+00 1.747879862785339355e+00 1.053531885147094727e+00
1.752000000000000000e+03 9.869827270507812500e+00 -5.813017845153808594e+00 5.313919782638549805e-01 3.559331655502319336e+00 1.227217078208923340e+00 6.757935881614685059e-01
1.753000000000000000e+03 7.231903076171875000e+00 1.396033477783203125e+01 2.312526553869247437e-01 2.386227130889892578e+00 7.852439284324645996e-01 4.518017545342445374e-02
1.754000000000000000e+03 1.014402103424072266e+01 1.344173812866210938e+01 1.812632828950881958e-01 4.732589721679687500e+00 1.474155902862548828e+00 -6.021722033619880676e-02
1.755000000000000000e+03 1.169100093841552734e+01 7.225281238555908203e+00 2.887620031833648682e-01 6.062047481536865234e+00 1.905242800712585449e+00 -6.211146712303161621e-01
1.756000000000000000e+03 7.271146774291992188e+00 1.724758911132812500e+01 9.115099906921386719e-02 2.378706455230712891e+00 7.409572601318359375e-01 3.153823688626289368e-02
1.757000000000000000e+03 1.004563236236572266e+01 1.815876579284667969e+01 1.625801175832748413e-01 4.770919799804687500e+00 1.480049967765808105e+00 8.443321287631988525e-02
1.758000000000000000e+03 1.105320453643798828e+01 -6.203599452972412109e+00 3.414423763751983643e-01 5.133066177368164062e+00 1.642352581024169922e+00 8.300766944885253906e-01
1.759000000000000000e+03 9.713271141052246094e+00 9.683756828308105469e+00 4.405340850353240967e-01 4.124546051025390625e+00 1.369524121284484863e+00 -1.909504830837249756e-01
1.760000000000000000e+03 8.831151008605957031e+00 9.683816909790039062e+00 4.780483543872833252e-01 3.312664270401000977e+00 1.137213826179504395e+00 -1.205317452549934387e-01
1.761000000000000000e+03 9.501414299011230469e+00 1.407544708251953125e+01 1.988323479890823364e-01 4.241338253021240234e+00 1.332051157951354980e+00 -3.477203845977783203e-02
1.762000000000000000e+03 9.711922645568847656e+00 2.412877655029296875e+01 2.171828895807266235e-01 4.223677635192871094e+00 1.332258224487304688e+00 3.987200930714607239e-02
1.763000000000000000e+03 1.111656379699707031e+01 2.514119720458984375e+01 2.414073646068572998e-01 5.276506900787353516e+00 1.655374169349670410e+00 1.676100641489028931e-01
1.764000000000000000e+03 9.028964042663574219e+00 -1.430089569091796875e+01 1.488018929958343506e-01 3.735414266586303711e+00 1.165264844894409180e+00 1.250919550657272339e-01
1.765000000000000000e+03 9.833322525024414062e+00 -1.079895114898681641e+01 3.127895295619964600e-01 4.298549652099609375e+00 1.383401870727539062e+00 2.697057425975799561e-01
1.766000000000000000e+03 2.823658180236816406e+01 -7.125332832336425781e+00 1.118256550398655236e-04 7.758858203887939453e+00 2.327691078186035156e+00 1.428223997354507446e-01
1.767000000000000000e+03 2.691487693786621094e+01 -4.315315723419189453e+00 -3.425297141075134277e-02 7.842302799224853516e+00 2.342414855957031250e+00 1.462614387273788452e-01
1.768000000000000000e+03 9.977604866027832031e+00 -1.520895767211914062e+01 6.680718064308166504e-02 4.554242610931396484e+00 1.386314988136291504e+00 1.128578409552574158e-01
1.769000000000000000e+03 8.311185836791992188e+00 2.323611640930175781e+01 1.942459046840667725e-01 3.132629632949829102e+00 9.980626702308654785e-01 -4.393391683697700500e-02
1.770000000000000000e+03 2.683062744140625000e+01 -1.702271842956542969e+01 -3.677317872643470764e-02 7.541606903076171875e+00 2.251450061798095703e+00 1.105093881487846375e-01
1.771000000000000000e+03 1.218416023254394531e+01 5.218799591064453125e+00 5.284872651100158691e-02 6.925989627838134766e+00 2.093651533126831055e+00 -9.280914664268493652e-01
1.772000000000000000e+03 1.182092475891113281e+01 6.688712120056152344e+00 2.486373335123062134e-01 6.215589523315429688e+00 1.939267992973327637e+00 -7.390263676643371582e-01
1.773000000000000000e+03 7.408384799957275391e+00 -1.799711036682128906e+01 3.324797749519348145e-02 2.530625104904174805e+00 7.691619396209716797e-01 7.923018932342529297e-02
1.774000000000000000e+03 8.554164886474609375e+00 -1.871118736267089844e+01 3.755094110965728760e-02 3.424979448318481445e+00 1.038759112358093262e+00 9.460456669330596924e-02
1.775000000000000000e+03 7.089817047119140625e+01 -2.538103866577148438e+01 -1.111036259680986404e-02 7.843859672546386719e+00 2.349824905395507812e+00 -4.817913472652435303e-02
1.776000000000000000e+03 6.904262542724609375e+01 -3.125349617004394531e+01 -2.330826409161090851e-02 7.847068309783935547e+00 2.347127914428710938e+00 -4.015643894672393799e-02
1.777000000000000000e+03 7.111055755615234375e+01 -3.205201339721679688e+01 -1.105893775820732117e-02 7.868654251098632812e+00 2.357278585433959961e+00 -3.066324070096015930e-02
1.778000000000000000e+03 7.316268157958984375e+01 -3.438047027587890625e+01 -1.288292184472084045e-02 7.898897647857666016e+00 2.365804433822631836e+00 -2.163223549723625183e-02
1.779000000000000000e+03 2.540717506408691406e+01 -2.029289054870605469e+01 -1.063567772507667542e-01 7.441857337951660156e+00 2.200650215148925781e+00 1.325574070215225220e-01
1.780000000000000000e+03 2.812349700927734375e+01 1.972201156616210938e+01 5.531840771436691284e-02 8.117765426635742188e+00 2.451925277709960938e+00 -5.769018549472093582e-03
1.781000000000000000e+03 6.000096797943115234e+00 3.117170715332031250e+01 6.672856211662292480e-02 1.137988924980163574e+00 3.614152371883392334e-01 -3.858845829963684082e-01
1.782000000000000000e+03 2.713058471679687500e+01 -3.863709867000579834e-01 3.778391703963279724e-02 7.931315422058105469e+00 2.390729904174804688e+00 8.880372345447540283e-02
1.783000000000000000e+03 2.751806259155273438e+01 6.632368087768554688e+00 1.516321301460266113e-01 8.037631034851074219e+00 2.456779003143310547e+00 9.952513128519058228e-02
1.784000000000000000e+03 2.625964355468750000e+01 9.670386314392089844e+00 1.034442558884620667e-01 8.153334617614746094e+00 2.477033853530883789e+00 1.138388216495513916e-01
1.785000000000000000e+03 2.773006820678710938e+01 1.241437435150146484e+01 7.865432649850845337e-02 8.108829498291015625e+00 2.456245183944702148e+00 7.042425870895385742e-02
1.786000000000000000e+03 2.742899703979492188e+01 2.461622428894042969e+01 7.904864102602005005e-02 8.099218368530273438e+00 2.453480005264282227e+00 -8.069054782390594482e-02
1.787000000000000000e+03 2.916173744201660156e+01 2.267612266540527344e+01 7.046978175640106201e-02 8.084731101989746094e+00 2.446560382843017578e+00 -3.900456055998802185e-02
1.788000000000000000e+03 7.147665405273437500e+01 2.478072547912597656e+01 6.433887872844934464e-03 7.657813549041748047e+00 2.299274206161499023e+00 -1.316281128674745560e-02
1.789000000000000000e+03 2.637653350830078125e+01 -1.303935527801513672e+01 3.373991698026657104e-02 7.600234508514404297e+00 2.290192365646362305e+00 1.436261683702468872e-01
1.790000000000000000e+03 2.679523277282714844e+01 -1.165958023071289062e+01 5.498036369681358337e-02 7.620743274688720703e+00 2.302717208862304688e+00 1.690571904182434082e-01
1.791000000000000000e+03 7.030898284912109375e+01 1.673383903503417969e+01 1.217362191528081894e-02 7.676529407501220703e+00 2.306610822677612305e+00 -2.592010796070098877e-02
1.792000000000000000e+03 7.264765167236328125e+01 1.556869506835937500e+01 6.616528611630201340e-03 7.666437149047851562e+00 2.301916122436523438e+00 -2.310590632259845734e-02
1.793000000000000000e+03 7.051115417480468750e+01 1.037832355499267578e+01 1.078592892736196518e-02 7.690194129943847656e+00 2.310293912887573242e+00 -4.115075245499610901e-02
1.794000000000000000e+03 7.230837249755859375e+01 8.729413032531738281e+00 7.716640830039978027e-03 7.687421321868896484e+00 2.308541536331176758e+00 -3.729784861207008362e-02
1.795000000000000000e+03 7.322173309326171875e+01 -1.633036994934082031e+01 -3.936258144676685333e-03 7.818255424499511719e+00 2.344295740127563477e+00 -5.009778589010238647e-02
1.796000000000000000e+03 7.282832336425781250e+01 -6.671085834503173828e+00 2.285681432113051414e-03 7.762074470520019531e+00 2.329308032989501953e+00 -5.299463868141174316e-02
1.797000000000000000e+03 7.272450256347656250e+01 -9.551299095153808594e+00 9.309690794907510281e-04 7.778298377990722656e+00 2.333768844604492188e+00 -5.495674163103103638e-02
1.798000000000000000e+03 7.404247283935546875e+01 -1.100738430023193359e+01 5.286243977025151253e-04 7.790113449096679688e+00 2.337192535400390625e+00 -4.733381792902946472e-02
1.799000000000000000e+03 7.159178924560546875e+01 4.146991729736328125e+00 8.042196743190288544e-03 7.708074092864990234e+00 2.314834833145141602e+00 -4.776973277330398560e-02
1.800000000000000000e+03 7.270980072021484375e+01 -1.101947975158691406e+01 -4.672012873925268650e-04 7.784680366516113281e+00 2.335263967514038086e+00 -5.523915216326713562e-02
1.801000000000000000e+03 7.280025482177734375e+01 -2.503983259201049805e+00 3.620500909164547920e-03 7.737168312072753906e+00 2.322236537933349609e+00 -5.138705298304557800e-02
1.802000000000000000e+03 7.285149383544921875e+01 -3.885097980499267578e+00 3.419252578169107437e-03 7.746205806732177734e+00 2.324887514114379883e+00 -5.088958889245986938e-02
1.803000000000000000e+03 7.409272766113281250e+01 -1.128555417060852051e+00 2.889177994802594185e-03 7.728316307067871094e+00 2.319361686706542969e+00 -4.266534373164176941e-02
1.804000000000000000e+03 7.275893402099609375e+01 -1.098058223724365234e+00 4.645294975489377975e-03 7.731169700622558594e+00 2.320744514465332031e+00 -4.866523668169975281e-02
1.805000000000000000e+03 7.276942443847656250e+01 3.059365451335906982e-01 4.599456209689378738e-03 7.722630977630615234e+00 2.318169116973876953e+00 -4.824928939342498779e-02
1.806000000000000000e+03 5.926828384399414062e+00 3.382162475585937500e+01 2.253950759768486023e-02 1.190069913864135742e+00 3.637828230857849121e-01 -3.720757067203521729e-01
1.807000000000000000e+03 7.402703857421875000e+01 5.838946819305419922e+00 4.290484357625246048e-03 7.693372249603271484e+00 2.309298753738403320e+00 -3.405951708555221558e-02
1.808000000000000000e+03 7.388504028320312500e+01 1.286697196960449219e+01 5.477493628859519958e-03 7.665522575378417969e+00 2.301300048828125000e+00 -2.567888610064983368e-02
1.809000000000000000e+03 7.227336120605468750e+01 1.019797420501708984e+01 6.707799155265092850e-03 7.684822082519531250e+00 2.307458877563476562e+00 -3.358768671751022339e-02
1.810000000000000000e+03 7.172884368896484375e+01 2.819338798522949219e+01 5.249102134257555008e-03 7.653782367706298828e+00 2.297709465026855469e+00 -8.783404715359210968e-03
1.811000000000000000e+03 7.193029785156250000e+01 -2.637611389160156250e+01 -6.153606809675693512e-03 7.857895851135253906e+00 2.355522632598876953e+00 -4.552184417843818665e-02
1.812000000000000000e+03 7.389466094970703125e+01 -2.755009269714355469e+01 -3.552258713170886040e-03 7.881387710571289062e+00 2.363350629806518555e+00 -3.120714053511619568e-02
1.813000000000000000e+03 2.979792785644531250e+01 2.578610420227050781e+01 1.035281345248222351e-01 8.024990081787109375e+00 2.438555240631103516e+00 -6.323337554931640625e-02
1.814000000000000000e+03 6.439099311828613281e+00 -1.575592517852783203e+01 7.917038351297378540e-02 1.856438755989074707e+00 5.806827545166015625e-01 5.378423631191253662e-02
1.815000000000000000e+03 9.322255134582519531e+00 2.174687576293945312e+01 1.856548935174942017e-01 3.977383613586425781e+00 1.248911499977111816e+00 2.139428816735744476e-02
1.816000000000000000e+03 1.009392929077148438e+01 -2.645276260375976562e+01 -1.182531705126166344e-03 4.673475265502929688e+00 1.401687741279602051e+00 1.864687539637088776e-02
1.817000000000000000e+03 2.509912872314453125e+01 -1.493559169769287109e+01 3.545246645808219910e-02 7.555087566375732422e+00 2.277162075042724609e+00 1.555228680372238159e-01
1.818000000000000000e+03 6.178704261779785156e+00 -9.477941513061523438e+00 4.187617599964141846e-01 1.250368952751159668e+00 5.007392168045043945e-01 -1.319800615310668945e-01
1.819000000000000000e+03 5.078165054321289062e+00 -9.310899734497070312e+00 3.337354362010955811e-01 4.868730306625366211e-01 2.461825460195541382e-01 -2.516683340072631836e-01
1.820000000000000000e+03 9.468735694885253906e+00 -1.735571098327636719e+01 4.796141758561134338e-02 4.196709632873535156e+00 1.273401260375976562e+00 7.113370299339294434e-02
1.821000000000000000e+03 7.232612609863281250e+00 -2.337398719787597656e+01 -3.692406788468360901e-02 2.494821548461914062e+00 7.373692393302917480e-01 7.364781200885772705e-02
1.822000000000000000e+03 5.889038085937500000e+00 -2.370264244079589844e+01 1.294844411313533783e-02 1.479809999465942383e+00 4.478275477886199951e-01 8.479111641645431519e-02
1.823000000000000000e+03 5.369825839996337891e+00 1.638162231445312500e+01 1.272348314523696899e-01 8.071341514587402344e-01 2.803106904029846191e-01 4.220270365476608276e-02
1.824000000000000000e+03 8.733735084533691406e+00 2.688976097106933594e+01 2.526396811008453369e-01 3.257816076278686523e+00 1.053136706352233887e+00 -1.384591460227966309e-01
1.825000000000000000e+03 6.300435543060302734e+00 1.612143898010253906e+01 1.651089787483215332e-01 1.631819844245910645e+00 5.390786528587341309e-01 1.909076422452926636e-02
1.826000000000000000e+03 6.258960723876953125e+00 1.511194610595703125e+01 1.775601059198379517e-01 1.552780747413635254e+00 5.191022753715515137e-01 6.446062773466110229e-02
1.827000000000000000e+03 5.497169494628906250e+00 1.275797748565673828e+01 2.248504459857940674e-01 8.720450997352600098e-01 3.290686607360839844e-01 1.750667542219161987e-01
1.828000000000000000e+03 5.452334403991699219e+00 -1.971660232543945312e+01 -1.094670034945011139e-02 1.120674848556518555e+00 3.329184353351593018e-01 5.461382493376731873e-02
1.829000000000000000e+03 8.939253807067871094e+00 -1.954009246826171875e+01 -1.185886468738317490e-02 3.792610168457031250e+00 1.134225368499755859e+00 6.057741865515708923e-02
1.830000000000000000e+03 6.415657997131347656e+00 -1.447585868835449219e+01 1.542246937751770020e-01 1.804946899414062500e+00 5.877514481544494629e-01 4.231235012412071228e-02
1.831000000000000000e+03 7.980887889862060547e+00 8.958638191223144531e+00 5.189208984375000000e-01 2.492780208587646484e+00 9.035103917121887207e-01 4.997534304857254028e-02
1.832000000000000000e+03 9.767130851745605469e+00 1.154673004150390625e+01 2.919279336929321289e-01 4.324745655059814453e+00 1.385002017021179199e+00 -9.428152441978454590e-02
1.833000000000000000e+03 4.923153877258300781e+00 6.925288677215576172e+00 3.836551904678344727e-01 6.739181280136108398e-02 1.353141069412231445e-01 6.401383280754089355e-01
1.834000000000000000e+03 6.081584930419921875e+00 8.909924507141113281e+00 4.495140016078948975e-01 1.019407272338867188e+00 4.406763613224029541e-01 3.367290198802947998e-01
1.835000000000000000e+03 2.471611595153808594e+01 -2.551236724853515625e+01 -3.121678903698921204e-02 7.304789543151855469e+00 2.182071924209594727e+00 1.895664185285568237e-01
1.836000000000000000e+03 7.598355770111083984e+00 -6.673184394836425781e+00 6.335724592208862305e-01 1.689467549324035645e+00 6.969119906425476074e-01 -6.875818595290184021e-03
1.837000000000000000e+03 5.192506790161132812e+00 -1.322930240631103516e+01 1.913641542196273804e-01 8.209382295608520508e-01 3.036907315254211426e-01 -3.101708367466926575e-02
1.838000000000000000e+03 6.283285140991210938e+00 -1.320584964752197266e+01 1.855520755052566528e-01 1.640717267990112305e+00 5.478808283805847168e-01 3.204780444502830505e-02
1.839000000000000000e+03 8.723322868347167969e+00 1.055568027496337891e+01 4.104963243007659912e-01 3.299231290817260742e+00 1.112918257713317871e+00 -5.453674867749214172e-02
1.840000000000000000e+03 6.950303554534912109e+00 1.010773563385009766e+01 4.805143475532531738e-01 1.900894761085510254e+00 7.144227623939514160e-01 1.534760743379592896e-01
1.841000000000000000e+03 2.691786003112792969e+01 -8.505769729614257812e+00 1.148989051580429077e-02 7.717928886413574219e+00 2.318825721740722656e+00 1.873261779546737671e-01
1.842000000000000000e+03 2.865800857543945312e+01 -2.600680351257324219e+01 -3.644015640020370483e-02 7.400079250335693359e+00 2.209091663360595703e+00 1.178459003567695618e-01
1.843000000000000000e+03 9.846388816833496094e+00 2.536282920837402344e+01 2.584456503391265869e-01 4.238147735595703125e+00 1.348978042602539062e+00 4.282528243493288755e-04
1.844000000000000000e+03 2.700953674316406250e+01 -1.687366604804992676e+00 -4.900914500467479229e-04 7.905299663543701172e+00 2.371443033218383789e+00 1.122008338570594788e-01
1.845000000000000000e+03 2.571154785156250000e+01 -1.528508901596069336e+00 -1.521348371170461178e-03 7.914519786834716797e+00 2.373899459838867188e+00 1.400579661130905151e-01
1.846000000000000000e+03 1.094178771972656250e+01 -3.198216819763183594e+01 4.072159230709075928e-01 4.951206207275390625e+00 1.607526540756225586e+00 -2.996296882629394531e-01
1.847000000000000000e+03 9.814499855041503906e+00 -2.005596542358398438e+01 1.115611754357814789e-02 4.405938148498535156e+00 1.325128316879272461e+00 8.820551633834838867e-02
1.848000000000000000e+03 2.587627601623535156e+01 -2.486906623840332031e+01 -5.527245998382568359e-02 7.424930095672607422e+00 2.210897207260131836e+00 1.958782970905303955e-01
1.849000000000000000e+03 2.767980957031250000e+01 2.303845787048339844e+01 6.908788532018661499e-02 8.104124069213867188e+00 2.451963663101196289e+00 -3.191044554114341736e-02
1.850000000000000000e+03 6.784760284423828125e+01 2.836977577209472656e+01 1.120806764811277390e-02 7.682117462158203125e+00 2.307997703552246094e+00 -1.019257213920354843e-02
1.851000000000000000e+03 2.626732063293457031e+01 -3.317575073242187500e+01 1.193021163344383240e-01 7.153949737548828125e+00 2.181975603103637695e+00 4.178997874259948730e-02
1.852000000000000000e+03 2.637822723388671875e+01 -3.035943984985351562e+01 9.625110030174255371e-02 7.293294429779052734e+00 2.216863632202148438e+00 1.600234210491180420e-01
1.853000000000000000e+03 1.095473194122314453e+01 3.367208099365234375e+01 -2.522508380934596062e-03 3.845860481262207031e+00 1.153001427650451660e+00 -1.162680163979530334e-01
1.854000000000000000e+03 7.392678070068359375e+01 -2.170024490356445312e+01 -1.109635573811829090e-03 7.853769779205322266e+00 2.355798006057739258e+00 -4.071610793471336365e-02
1.855000000000000000e+03 2.756838035583496094e+01 1.673326301574707031e+01 5.260680615901947021e-02 8.123325347900390625e+00 2.452779769897460938e+00 1.850349269807338715e-02
1.856000000000000000e+03 7.303171539306640625e+01 -1.517197799682617188e+01 -1.645203738007694483e-04 7.810507774353027344e+00 2.343102931976318359e+00 -5.257204174995422363e-02
1.857000000000000000e+03 1.011178970336914062e+01 2.775717544555664062e+01 2.643175423145294189e-01 4.130482673645019531e+00 1.318440079689025879e+00 -7.263304200023412704e-03
1.858000000000000000e+03 2.755422973632812500e+01 8.085089683532714844e+00 1.408369094133377075e-01 8.069784164428710938e+00 2.463186264038085938e+00 1.031558215618133545e-01
1.859000000000000000e+03 6.759130477905273438e+00 -3.347697448730468750e+01 1.735152155160903931e-01 2.049100399017333984e+00 6.667847037315368652e-01 2.335597276687622070e-01
1.860000000000000000e+03 7.104962158203125000e+01 7.011928558349609375e+00 1.040042750537395477e-02 7.699225902557373047e+00 2.312887907028198242e+00 -4.542894288897514343e-02
1.861000000000000000e+03 7.088023376464843750e+01 1.967699432373046875e+01 9.868394583463668823e-03 7.668878078460693359e+00 2.303623914718627930e+00 -1.910465210676193237e-02
1.862000000000000000e+03 7.150196838378906250e+01 1.599625587463378906e+01 7.764805573970079422e-03 7.672502994537353516e+00 2.304080247879028320e+00 -2.711804397404193878e-02
1.863000000000000000e+03 7.248990631103515625e+01 1.433973121643066406e+01 6.900988984853029251e-03 7.669140815734863281e+00 2.302812576293945312e+00 -2.754632756114006042e-02
1.864000000000000000e+03 1.071612071990966797e+01 -2.714783096313476562e+01 -5.686377733945846558e-02 5.112248897552490234e+00 1.516615509986877441e+00 3.527270630002021790e-02
1.865000000000000000e+03 1.135583305358886719e+01 -3.872625112533569336e+00 -8.822017908096313477e-02 5.482615947723388672e+00 1.618318796157836914e+00 1.631813168525695801e+00
1.866000000000000000e+03 1.069470691680908203e+01 -3.411873817443847656e+00 2.206729799509048462e-01 3.910875082015991211e+00 1.239464402198791504e+00 1.674243688583374023e+00
1.867000000000000000e+03 1.099147129058837891e+01 3.664464950561523438e+00 -1.227908022701740265e-02 4.510149478912353516e+00 1.349361181259155273e+00 -1.460839033126831055e+00
1.868000000000000000e+03 1.244484996795654297e+01 2.529243230819702148e+00 -1.534760832786560059e+00 9.408760070800781250e+00 2.362199783325195312e+00 -2.294325113296508789e+00
1.869000000000000000e+03 5.867484092712402344e+00 7.883503913879394531e+00 4.843107461929321289e-01 7.079032659530639648e-01 3.576641976833343506e-01 4.542751908302307129e-01
1.870000000000000000e+03 1.034323406219482422e+01 5.143033027648925781e+00 4.367746710777282715e-01 3.914397239685058594e+00 1.305351614952087402e+00 -8.161948323249816895e-01
1.871000000000000000e+03 6.750854969024658203e+00 6.706837177276611328e+00 5.527144074440002441e-01 1.061554551124572754e+00 4.842807054519653320e-01 3.938274681568145752e-01
1.872000000000000000e+03 1.100731563568115234e+01 -4.567913055419921875e+00 2.198949009180068970e-01 4.832207202911376953e+00 1.515630602836608887e+00 1.250675559043884277e+00
1.873000000000000000e+03 1.167789745330810547e+01 -4.280218124389648438e+00 -1.658784449100494385e-01 6.204450607299804688e+00 1.811571717262268066e+00 1.425083637237548828e+00
1.874000000000000000e+03 1.017491626739501953e+01 4.498143196105957031e+00 4.378678500652313232e-01 3.370520353317260742e+00 1.142516374588012695e+00 -8.602213263511657715e-01
1.875000000000000000e+03 1.080382251739501953e+01 4.399722099304199219e+00 2.622790634632110596e-01 4.619432449340820312e+00 1.464513421058654785e+00 -1.096608161926269531e+00
1.876000000000000000e+03 8.340804100036621094e+00 -6.986196517944335938e+00 6.029361486434936523e-01 2.297962903976440430e+00 8.702697157859802246e-01 1.612654626369476318e-01
1.877000000000000000e+03 7.659302711486816406e+00 6.550215721130371094e+00 6.094662547111511230e-01 1.670740604400634766e+00 6.840620636940002441e-01 1.499613523483276367e-01
1.878000000000000000e+03 1.073925685882568359e+01 8.170584678649902344e+00 4.032032489776611328e-01 5.034141540527343750e+00 1.631203413009643555e+00 -4.522759616374969482e-01
1.879000000000000000e+03 8.478734016418457031e+00 1.262351894378662109e+01 2.586270272731781006e-01 3.298721075057983398e+00 1.067204475402832031e+00 -1.666554063558578491e-02
1.880000000000000000e+03 1.127178859710693359e+01 7.698359012603759766e+00 4.000584185123443604e-01 5.592222213745117188e+00 1.797684192657470703e+00 -5.793351531028747559e-01
1.881000000000000000e+03 7.390687942504882812e+00 -7.511538982391357422e+00 5.699754357337951660e-01 1.708976507186889648e+00 6.836856007575988770e-01 -2.341799251735210419e-02
1.882000000000000000e+03 1.064943408966064453e+01 -7.185387134552001953e+00 4.131357669830322266e-01 4.690851211547851562e+00 1.531195998191833496e+00 6.401206851005554199e-01
1.883000000000000000e+03 1.045156860351562500e+01 -3.788521051406860352e+00 3.065367341041564941e-01 3.600796699523925781e+00 1.172199964523315430e+00 1.256531119346618652e+00
1.884000000000000000e+03 1.020438480377197266e+01 -4.776118755340576172e+00 4.543762207031250000e-01 3.613816738128662109e+00 1.220457911491394043e+00 9.087974429130554199e-01
1.885000000000000000e+03 6.273656845092773438e+00 1.409313964843750000e+01 1.658943593502044678e-01 1.514058113098144531e+00 5.039857029914855957e-01 1.166450902819633484e-01
1.886000000000000000e+03 6.739323616027832031e+00 1.107393264770507812e+01 3.216581642627716064e-01 1.693513154983520508e+00 6.045513749122619629e-01 1.708555817604064941e-01
1.887000000000000000e+03 8.181786537170410156e+00 -1.514945220947265625e+01 1.145623922348022461e-01 3.086335420608520508e+00 9.602693319320678711e-01 9.196767956018447876e-02
1.888000000000000000e+03 7.472195625305175781e+00 -1.422077274322509766e+01 1.391056627035140991e-01 2.553030729293823242e+00 8.076409101486206055e-01 5.981959030032157898e-02
1.889000000000000000e+03 8.398599624633789062e+00 1.497977828979492188e+01 2.164618819952011108e-01 3.342934370040893555e+00 1.067818880081176758e+00 9.188894182443618774e-02
1.890000000000000000e+03 9.680683135986328125e+00 1.591936016082763672e+01 1.565504819154739380e-01 4.465153217315673828e+00 1.386511087417602539e+00 6.418856978416442871e-02
1.891000000000000000e+03 9.520253181457519531e+00 5.381024837493896484e+00 5.803443193435668945e-01 2.957188606262207031e+00 1.061259865760803223e+00 -4.701457619667053223e-01
1.892000000000000000e+03 1.125911140441894531e+01 6.843150138854980469e+00 3.817565143108367920e-01 5.441576957702636719e+00 1.747000098228454590e+00 -7.032789587974548340e-01
1.893000000000000000e+03 1.141872024536132812e+01 -6.898133754730224609e+00 3.210148215293884277e-01 5.691217422485351562e+00 1.803669571876525879e+00 7.197715640068054199e-01
1.894000000000000000e+03 8.540792465209960938e+00 2.568031883239746094e+01 2.117227166891098022e-01 3.156254768371582031e+00 1.010393261909484863e+00 -8.900526165962219238e-02
1.895000000000000000e+03 7.830405235290527344e+00 8.225019454956054688e+00 5.711391568183898926e-01 2.234668254852294922e+00 8.417422771453857422e-01 7.060042023658752441e-02
1.896000000000000000e+03 2.737912940979003906e+01 2.325618028640747070e+00 1.059873327612876892e-01 7.979385852813720703e+00 2.425611972808837891e+00 7.100646942853927612e-02
1.897000000000000000e+03 9.205121040344238281e+00 -1.160855960845947266e+01 2.747803330421447754e-01 3.772282361984252930e+00 1.214118838310241699e+00 1.867847144603729248e-01
1.898000000000000000e+03 8.090834617614746094e+00 -9.680296897888183594e+00 4.405880272388458252e-01 2.581532239913940430e+00 9.066361188888549805e-01 1.304240375757217407e-01
1.899000000000000000e+03 2.814270019531250000e+01 -1.238597202301025391e+01 1.617217250168323517e-02 7.632190227508544922e+00 2.294508695602416992e+00 1.214687377214431763e-01
1.900000000000000000e+03 1.038443088531494141e+01 -9.058105468750000000e+00 3.847694098949432373e-01 4.709755420684814453e+00 1.528357386589050293e+00 4.499938189983367920e-01
1.901000000000000000e+03 4.393137454986572266e+00 5.779718399047851562e+00 2.619483768939971924e-01 -1.905323565006256104e-01 2.142480574548244476e-02 7.898481488227844238e-01
1.902000000000000000e+03 9.747148513793945312e+00 1.058980178833007812e+01 3.309114575386047363e-01 4.233934402465820312e+00 1.369453787803649902e+00 -1.345860064029693604e-01
1.903000000000000000e+03 7.269780731201171875e+01 5.741623401641845703e+00 6.749475840479135513e-03 7.698194503784179688e+00 2.311483144760131836e+00 -4.112627357244491577e-02
1.904000000000000000e+03 8.844837188720703125e+00 1.826647186279296875e+01 1.290651410818099976e-01 3.624665260314941406e+00 1.126119136810302734e+00 4.695233702659606934e-02
1.905000000000000000e+03 7.277074432373046875e+01 -8.095088958740234375e+00 1.043910393491387367e-03 7.767866611480712891e+00 2.330673217773437500e+00 -5.487241223454475403e-02
1.906000000000000000e+03 8.532580375671386719e+00 -2.326007080078125000e+01 1.471254695206880569e-02 3.441835641860961914e+00 1.036964416503906250e+00 4.342003911733627319e-02
1.907000000000000000e+03 9.754629135131835938e+00 -2.434999465942382812e+01 5.711863748729228973e-03 4.349329471588134766e+00 1.306512475013732910e+00 3.249090909957885742e-02
1.908000000000000000e+03 6.885597705841064453e+00 1.935572624206542969e+01 1.239139884710311890e-01 2.023802518844604492e+00 6.443149447441101074e-01 3.878086281474679708e-04
1.909000000000000000e+03 8.922960281372070312e+00 2.070998382568359375e+01 1.621066182851791382e-01 3.707442522048950195e+00 1.160864710807800293e+00 2.513237483799457550e-02
1.910000000000000000e+03 7.292070770263671875e+01 2.988668680191040039e+00 5.345501936972141266e-03 7.709554195404052734e+00 2.314469814300537109e+00 -4.436740651726722717e-02
1.911000000000000000e+03 2.779991912841796875e+01 -1.801153182983398438e+01 -4.478394985198974609e-02 7.523332595825195312e+00 2.243564605712890625e+00 1.026562154293060303e-01
1.912000000000000000e+03 3.122725105285644531e+01 -1.689643669128417969e+01 -4.332553222775459290e-02 7.586118698120117188e+00 2.262838125228881836e+00 4.993919283151626587e-02
1.913000000000000000e+03 2.821053695678710938e+01 -3.106190443038940430e+00 -8.662003092467784882e-03 7.861658096313476562e+00 2.355898857116699219e+00 1.014420837163925171e-01
1.914000000000000000e+03 2.823192596435546875e+01 -2.028635406494140625e+01 -4.841037467122077942e-02 7.490274906158447266e+00 2.232559204101562500e+00 1.139840781688690186e-01
1.915000000000000000e+03 7.146369934082031250e+01 -1.977314186096191406e+01 -3.326013684272766113e-03 7.826053142547607422e+00 2.346818208694458008e+00 -5.751017108559608459e-02
1.916000000000000000e+03 7.189686584472656250e+01 -2.431597328186035156e+01 -5.768620409071445465e-03 7.849332809448242188e+00 2.353069305419921875e+00 -4.869373142719268799e-02
1.917000000000000000e+03 6.787339019775390625e+01 5.096041679382324219e+00 1.443547382950782776e-02 7.713701725006103516e+00 2.318441152572631836e+00 -5.922866240143775940e-02
1.918000000000000000e+03 7.164402008056640625e+01 -5.218357563018798828e+00 3.863824065774679184e-03 7.753453731536865234e+00 2.327195405960083008e+00 -5.811956897377967834e-02
1.919000000000000000e+03 6.790353298187255859e+00 -2.068252563476562500e+01 -5.259095341898500919e-04 2.120045423507690430e+00 6.358558535575866699e-01 6.884466856718063354e-02
1.920000000000000000e+03 9.421545028686523438e+00 -1.858249664306640625e+01 1.645010896027088165e-02 4.215308666229248047e+00 1.269527673721313477e+00 7.692124694585800171e-02
1.921000000000000000e+03 7.281121826171875000e+01 2.342737388610839844e+01 6.023968569934368134e-03 7.650092601776123047e+00 2.296834945678710938e+00 -1.289035379886627197e-02
1.922000000000000000e+03 7.174787902832031250e+01 -2.217970466613769531e+01 -4.316655453294515610e-03 7.840468406677246094e+00 2.350845575332641602e+00 -5.120725929737091064e-02
1.923000000000000000e+03 7.227509307861328125e+01 -1.664205551147460938e+01 -2.670084591954946518e-03 7.814238548278808594e+00 2.343470573425292969e+00 -5.576329305768013000e-02
1.924000000000000000e+03 7.130364227294921875e+01 -1.741089630126953125e+01 -3.701189998537302017e-03 7.813618659973144531e+00 2.342975139617919922e+00 -6.128713488578796387e-02
1.925000000000000000e+03 7.242029571533203125e+01 1.300145530700683594e+01 7.445429451763629913e-03 7.674154281616210938e+00 2.304479837417602539e+00 -2.804989553987979889e-02
1.926000000000000000e+03 7.088584136962890625e+01 1.183063220977783203e+01 1.096633821725845337e-02 7.685933113098144531e+00 2.309069871902465820e+00 -3.431107848882675171e-02
1.927000000000000000e+03 7.134802246093750000e+01 -1.100676631927490234e+01 2.387902495684102178e-04 7.782723426818847656e+00 2.334888696670532227e+00 -6.282048672437667847e-02
1.928000000000000000e+03 7.065096282958984375e+01 1.815443229675292969e+01 1.006221398711204529e-02 7.672616958618164062e+00 2.304803848266601562e+00 -2.462778985500335693e-02
1.929000000000000000e+03 7.145915985107421875e+01 -2.532618522644042969e+00 5.169651936739683151e-03 7.739998817443847656e+00 2.323550701141357422e+00 -5.643384531140327454e-02
1.930000000000000000e+03 6.266375064849853516e+00 -1.197266864776611328e+01 2.715220451354980469e-01 1.485195636749267578e+00 5.270153284072875977e-01 -3.321593627333641052e-03
1.931000000000000000e+03 7.397727489471435547e+00 -1.085699081420898438e+01 3.671233355998992920e-01 2.281086444854736328e+00 7.944629788398742676e-01 5.660750344395637512e-02
1.932000000000000000e+03 7.129332065582275391e+00 2.471900939941406250e+01 1.783568412065505981e-01 2.085829734802246094e+00 6.792559623718261719e-01 -1.464035063982009888e-01
1.933000000000000000e+03 7.079525947570800781e+00 2.345138931274414062e+01 1.529879271984100342e-01 2.076246500015258789e+00 6.687703728675842285e-01 -1.263754665851593018e-01
1.934000000000000000e+03 7.200281620025634766e+00 2.042214775085449219e+01 1.514347642660140991e-01 2.278418302536010742e+00 7.289559245109558105e-01 -4.504058882594108582e-02
1.935000000000000000e+03 7.285282135009765625e+01 -1.386919212341308594e+01 -2.037276746705174446e-03 7.802099704742431641e+00 2.340018749237060547e+00 -5.342570692300796509e-02
1.936000000000000000e+03 7.089783477783203125e+01 1.316369247436523438e+01 1.080565154552459717e-02 7.681341648101806641e+00 2.307644128799438477e+00 -3.407618030905723572e-02
1.937000000000000000e+03 6.348665714263916016e+00 -1.700266647338867188e+01 5.294474586844444275e-02 1.784259080886840820e+00 5.511611700057983398e-01 5.355729162693023682e-02
1.938000000000000000e+03 6.405649662017822266e+00 -1.822027206420898438e+01 -1.325291767716407776e-02 1.807312965393066406e+00 5.382180213928222656e-01 5.068767443299293518e-02
1.939000000000000000e+03 7.285284996032714844e+00 -2.481365966796875000e+01 9.795272722840309143e-03 2.543709993362426758e+00 7.660515904426574707e-01 7.315366715192794800e-02
1.940000000000000000e+03 7.703676223754882812e+00 -2.771420288085937500e+01 4.399803653359413147e-02 2.861864805221557617e+00 8.717588782310485840e-01 5.329308658838272095e-02
1.941000000000000000e+03 2.822093963623046875e+01 -1.004422187805175781e+01 2.299112640321254730e-02 7.681793689727783203e+00 2.311435461044311523e+00 1.502081453800201416e-01
1.942000000000000000e+03 7.846982479095458984e+00 1.886378479003906250e+01 1.614894568920135498e-01 2.933163881301879883e+00 9.283959865570068359e-01 3.148974850773811340e-02
1.943000000000000000e+03 9.046454429626464844e+00 -1.612444686889648438e+01 7.499552518129348755e-02 3.848212242126464844e+00 1.176962375640869141e+00 7.337610423564910889e-02
1.944000000000000000e+03 6.561350822448730469e+00 -1.944312858581542969e+01 4.164247214794158936e-02 1.961955308914184570e+00 6.010793447494506836e-01 6.705295294523239136e-02
1.945000000000000000e+03 7.608619213104248047e+00 -1.910386466979980469e+01 2.134924288839101791e-03 2.713629007339477539e+00 8.147292137145996094e-01 8.346399664878845215e-02
1.946000000000000000e+03 2.962408447265625000e+01 2.425510597229003906e+01 9.595101326704025269e-02 8.025734901428222656e+00 2.436505794525146484e+00 -4.327272996306419373e-02
1.947000000000000000e+03 8.621098518371582031e+00 -1.255744838714599609e+01 2.397913038730621338e-01 3.369287252426147461e+00 1.082723498344421387e+00 1.273168623447418213e-01
1.948000000000000000e+03 8.681916236877441406e+00 -2.584350776672363281e+01 6.586502306163311005e-03 3.518112897872924805e+00 1.057409763336181641e+00 5.276914685964584351e-02
1.949000000000000000e+03 7.708885669708251953e+00 7.413196563720703125e+00 6.182743310928344727e-01 1.956011176109313965e+00 7.722856402397155762e-01 9.870397299528121948e-02
1.950000000000000000e+03 7.194880676269531250e+01 2.056144905090332031e+01 6.110616493970155716e-03 7.662215709686279297e+00 2.300498008728027344e+00 -1.651274785399436951e-02
1.951000000000000000e+03 7.363694667816162109e+00 1.070925617218017578e+01 4.124656617641448975e-01 2.303899288177490234e+00 8.149095177650451660e-01 9.651593118906021118e-02
1.952000000000000000e+03 6.312156200408935547e+00 1.033287048339843750e+01 4.210766851902008057e-01 1.363315343856811523e+00 5.353175997734069824e-01 2.063449025154113770e-01
1.953000000000000000e+03 2.935043525695800781e+01 -1.006332111358642578e+01 6.324326153844594955e-03 7.688006401062011719e+00 2.308299303054809570e+00 1.093568801879882812e-01
1.954000000000000000e+03 7.012375640869140625e+01 -1.842078971862792969e+01 -8.271914906799793243e-03 7.811408519744873047e+00 2.340940952301025391e+00 -6.398433446884155273e-02
1.955000000000000000e+03 8.951183319091796875e+00 3.263130950927734375e+01 -8.772082219365984201e-05 2.862989902496337891e+00 8.588706254959106445e-01 -3.247352838516235352e-01
1.956000000000000000e+03 7.301946640014648438e+00 3.137106132507324219e+01 6.631679087877273560e-02 1.982463955879211426e+00 6.146342158317565918e-01 -3.503193855285644531e-01
1.957000000000000000e+03 7.225901794433593750e+01 -2.845144653320312500e+01 -5.646068137139081955e-03 7.867684841156005859e+00 2.358611583709716797e+00 -3.800391778349876404e-02
1.958000000000000000e+03 7.514064788818359375e+00 1.142630195617675781e+01 3.186697065830230713e-01 2.441601276397705078e+00 8.280812501907348633e-01 6.455269455909729004e-02
1.959000000000000000e+03 6.989505767822265625e+01 2.645335388183593750e+01 8.925230242311954498e-03 7.668224334716796875e+00 2.303144931793212891e+00 -1.186514925211668015e-02
1.960000000000000000e+03 7.096797180175781250e+01 -2.767926979064941406e+01 -1.516744308173656464e-02 7.852846622467041016e+00 2.351303815841674805e+00 -4.388963058590888977e-02
1.961000000000000000e+03 3.038095283508300781e+01 1.884878277778625488e+00 9.603717178106307983e-02 7.905071735382080078e+00 2.400332689285278320e+00 3.245841711759567261e-02
1.962000000000000000e+03 2.872273063659667969e+01 1.846279144287109375e+01 6.122358515858650208e-02 8.086780548095703125e+00 2.444401264190673828e+00 7.854144787415862083e-04
1.963000000000000000e+03 2.740501976013183594e+01 1.808495712280273438e+01 4.439391195774078369e-02 8.135187149047851562e+00 2.453874111175537109e+00 1.299405191093683243e-02
1.964000000000000000e+03 7.156491851806640625e+01 1.774259686470031738e+00 6.145908962935209274e-03 7.718329906463623047e+00 2.317342758178710938e+00 -5.262384191155433655e-02
1.965000000000000000e+03 2.588080787658691406e+01 -1.418506240844726562e+01 4.725805297493934631e-02 7.551832199096679688e+00 2.279726982116699219e+00 1.452325731515884399e-01
1.966000000000000000e+03 2.718000030517578125e+01 2.030517005920410156e+01 4.645175859332084656e-02 8.123805999755859375e+00 2.451077461242675781e+00 -1.447184197604656219e-02
1.967000000000000000e+03 7.157595825195312500e+01 -6.585484027862548828e+00 2.259997650980949402e-03 7.757932186126708984e+00 2.328057765960693359e+00 -6.098783016204833984e-02
1.968000000000000000e+03 2.682838249206542969e+01 -1.931011390686035156e+01 -8.630475401878356934e-02 7.520514011383056641e+00 2.230262756347656250e+00 1.247398927807807922e-01
1.969000000000000000e+03 2.923758697509765625e+01 1.088653087615966797e+01 1.054927706718444824e-01 8.042771339416503906e+00 2.444479227066040039e+00 6.761457026004791260e-02
1.970000000000000000e+03 2.768205833435058594e+01 1.385855197906494141e+01 6.866107881069183350e-02 8.116127014160156250e+00 2.455436468124389648e+00 5.227252840995788574e-02
1.971000000000000000e+03 2.869994354248046875e+01 6.976540684700012207e-01 7.109734416007995605e-02 7.923201084136962891e+00 2.398289442062377930e+00 5.506899952888488770e-02
1.972000000000000000e+03 2.726427650451660156e+01 9.422384500503540039e-01 6.597303599119186401e-02 7.952664852142333984e+00 2.405591249465942383e+00 8.329038321971893311e-02
1.973000000000000000e+03 6.031105041503906250e+00 3.650543975830078125e+01 -1.568623185157775879e-01 1.303224802017211914e+00 3.439087271690368652e-01 -2.873363196849822998e-01
1.974000000000000000e+03 1.000363445281982422e+01 3.238260650634765625e+01 8.516556024551391602e-02 3.529193639755249023e+00 1.084307789802551270e+00 -2.049007415771484375e-01
1.975000000000000000e+03 8.974581718444824219e+00 2.887911033630371094e+01 2.190724611282348633e-01 3.167939901351928711e+00 1.016103744506835938e+00 -1.744200885295867920e-01
1.976000000000000000e+03 7.179750061035156250e+01 -1.546512126922607422e+01 -3.159568877890706062e-03 7.806612014770507812e+00 2.341035842895507812e+00 -5.888407677412033081e-02
1.977000000000000000e+03 3.027878570556640625e+01 1.539127922058105469e+01 8.268900215625762939e-02 8.043376922607421875e+00 2.437819719314575195e+00 3.593227639794349670e-02
1.978000000000000000e+03 7.025129699707031250e+01 -2.114807701110839844e+01 -1.181501150131225586e-02 7.823208332061767578e+00 2.343418121337890625e+00 -6.124073266983032227e-02
1.979000000000000000e+03 7.164334869384765625e+01 2.186924171447753906e+01 8.163094520568847656e-03 7.660473346710205078e+00 2.300590991973876953e+00 -1.710724085569381714e-02
1.980000000000000000e+03 2.899115180969238281e+01 9.416793823242187500e+00 1.290425509214401245e-01 8.036149978637695312e+00 2.449557781219482422e+00 7.918893545866012573e-02
1.981000000000000000e+03 2.922994422912597656e+01 1.239160442352294922e+01 9.594880789518356323e-02 8.059940338134765625e+00 2.446766853332519531e+00 5.976387858390808105e-02
1.982000000000000000e+03 9.419842720031738281e+00 1.495098495483398438e+01 1.792123913764953613e-01 4.184160232543945312e+00 1.309011816978454590e+00 1.452636346220970154e-02
1.983000000000000000e+03 1.018372821807861328e+01 -2.146224212646484375e+01 -3.368905931711196899e-02 4.648303508758544922e+00 1.384384393692016602e+00 7.158470898866653442e-02
1.984000000000000000e+03 8.279477119445800781e+00 -2.137293052673339844e+01 7.486361544579267502e-03 3.280193090438842773e+00 9.863038063049316406e-01 5.793574079871177673e-02
1.985000000000000000e+03 3.016290092468261719e+01 7.886226177215576172e+00 1.357150375843048096e-01 7.986703395843505859e+00 2.436725616455078125e+00 6.098912656307220459e-02
1.986000000000000000e+03 2.895151710510253906e+01 1.689291954040527344e+01 6.492695212364196777e-02 8.087203979492187500e+00 2.445639371871948242e+00 2.464946918189525604e-02
1.987000000000000000e+03 2.877856254577636719e+01 2.096303939819335938e+01 6.600598245859146118e-02 8.074356079101562500e+00 2.442108631134033203e+00 -1.470266003161668777e-02
1.988000000000000000e+03 7.001107025146484375e+01 -2.926876640319824219e+01 -1.168782729655504227e-02 7.850949764251708984e+00 2.351778507232666016e+00 -4.331990703940391541e-02
1.989000000000000000e+03 8.985645294189453125e+00 2.791792106628417969e+01 2.026148438453674316e-01 3.287418365478515625e+00 1.047009944915771484e+00 -1.312042325735092163e-01
1.990000000000000000e+03 8.731675148010253906e+00 3.003476905822753906e+01 1.691981852054595947e-01 2.977543830871582031e+00 9.440225958824157715e-01 -2.256649732589721680e-01
1.991000000000000000e+03 3.132964897155761719e+01 2.585195541381835938e+01 1.144026666879653931e-01 7.968813419342041016e+00 2.424964904785156250e+00 -2.283641882240772247e-02
1.992000000000000000e+03 8.170991897583007812e+00 -1.355006313323974609e+01 1.844080239534378052e-01 3.086952209472656250e+00 9.814080595970153809e-01 8.899332582950592041e-02
1.993000000000000000e+03 2.743598937988281250e+01 -2.344845008850097656e+01 -4.777390137314796448e-02 7.452998638153076172e+00 2.221567392349243164e+00 1.449628919363021851e-01
1.994000000000000000e+03 9.027239799499511719e+00 3.738209152221679688e+01 -3.001570105552673340e-01 2.698518037796020508e+00 7.195082902908325195e-01 -2.467306852340698242e-01
1.995000000000000000e+03 2.901981925964355469e+01 1.388718223571777344e+01 7.984144240617752075e-02 8.075264930725097656e+00 2.446532011032104492e+00 4.818505421280860901e-02
1.996000000000000000e+03 2.763739776611328125e+01 1.530467128753662109e+01 5.691716074943542480e-02 8.121188163757324219e+00 2.453431606292724609e+00 3.957702592015266418e-02
1.997000000000000000e+03 2.887061882019042969e+01 6.533274173736572266e+00 1.460119485855102539e-01 7.999900341033935547e+00 2.443773746490478516e+00 7.374195754528045654e-02
1.998000000000000000e+03 2.891190147399902344e+01 3.597929000854492188e+00 1.271038204431533813e-01 7.956494808197021484e+00 2.425079584121704102e+00 5.386814475059509277e-02
1.999000000000000000e+03 2.890923309326171875e+01 5.079507350921630859e+00 1.395393013954162598e-01 7.970188617706298828e+00 2.432918310165405273e+00 6.643809378147125244e-02
2.000000000000000000e+03 8.588988304138183594e+00 -3.669387054443359375e+01 2.143371850252151489e-01 2.776452541351318359e+00 8.972369432449340820e-01 3.353739678859710693e-01
2.001000000000000000e+03 1.108181476593017578e+01 4.927301406860351562e+00 2.789503931999206543e-01 5.050658226013183594e+00 1.598882555961608887e+00 -1.025605678558349609e+00
2.002000000000000000e+03 1.063440895080566406e+01 5.745282649993896484e+00 4.369692802429199219e-01 4.459138393402099609e+00 1.468832373619079590e+00 -7.804567217826843262e-01
2.003000000000000000e+03 1.029042816162109375e+01 -6.494365692138671875e+00 5.003070235252380371e-01 4.214116573333740234e+00 1.414327025413513184e+00 6.808732748031616211e-01
2.004000000000000000e+03 6.807432651519775391e+00 7.624013423919677734e+00 5.600157976150512695e-01 1.331521034240722656e+00 5.674610137939453125e-01 2.997725307941436768e-01
2.005000000000000000e+03 9.390623092651367188e+00 -5.113315582275390625e+00 5.854626893997192383e-01 2.697145462036132812e+00 9.847824573516845703e-01 5.830826759338378906e-01
2.006000000000000000e+03 9.350938796997070312e+00 6.581069946289062500e+00 6.015639901161193848e-01 3.160071134567260742e+00 1.128490567207336426e+00 -3.594605326652526855e-01
2.007000000000000000e+03 7.254467010498046875e+00 -8.514180183410644531e+00 5.167516469955444336e-01 1.823738694190979004e+00 7.021471261978149414e-01 -2.293513715267181396e-02
2.008000000000000000e+03 9.363111495971679688e+00 -8.264450073242187500e+00 4.942539930343627930e-01 3.555613040924072266e+00 1.214960098266601562e+00 3.350090384483337402e-01
2.009000000000000000e+03 1.099917602539062500e+01 -7.911954402923583984e+00 3.630503714084625244e-01 5.212217330932617188e+00 1.672580361366271973e+00 5.614819526672363281e-01
2.010000000000000000e+03 9.487980842590332031e+00 7.970389366149902344e+00 5.659135580062866211e-01 3.666951894760131836e+00 1.269859671592712402e+00 -3.006613552570343018e-01
2.011000000000000000e+03 8.082090377807617188e+00 9.639766693115234375e+00 4.785401225090026855e-01 2.702721118927001953e+00 9.543784260749816895e-01 2.138761430978775024e-02
2.012000000000000000e+03 9.881470680236816406e+00 6.066525936126708984e+00 5.154592990875244141e-01 3.554774999618530273e+00 1.221070289611816406e+00 -5.108246803283691406e-01
2.013000000000000000e+03 8.583564758300781250e+00 1.153148651123046875e+01 3.053990900516510010e-01 3.276823282241821289e+00 1.074666738510131836e+00 -2.182560600340366364e-02
2.014000000000000000e+03 7.137557220458984375e+01 -1.099833130836486816e+00 5.810943432152271271e-03 7.731637954711914062e+00 2.321234703063964844e+00 -5.725959688425064087e-02
2.015000000000000000e+03 6.939028930664062500e+01 -4.742222785949707031e+00 7.098277099430561066e-03 7.749635696411132812e+00 2.327020168304443359e+00 -6.775688380002975464e-02
2.016000000000000000e+03 9.484384536743164062e+00 -8.966541290283203125e+00 4.313622415065765381e-01 3.735680818557739258e+00 1.250112891197204590e+00 3.182750642299652100e-01
2.017000000000000000e+03 7.220539569854736328e+00 9.170539855957031250e+00 4.690472185611724854e-01 1.876864314079284668e+00 7.037734389305114746e-01 1.645203679800033569e-01
2.018000000000000000e+03 7.443433284759521484e+00 -1.209725093841552734e+01 2.655568420886993408e-01 2.403274059295654297e+00 8.006492257118225098e-01 6.054591387510299683e-02
2.019000000000000000e+03 9.101878166198730469e+00 -1.024127292633056641e+01 3.860990405082702637e-01 3.647206544876098633e+00 1.209991693496704102e+00 2.406459301710128784e-01
2.020000000000000000e+03 7.030554962158203125e+01 -6.417856693267822266e+00 4.108373541384935379e-03 7.758353233337402344e+00 2.328738451004028320e+00 -6.497443467378616333e-02
2.021000000000000000e+03 7.158291625976562500e+01 -3.883182287216186523e+00 4.098640289157629013e-03 7.744256973266601562e+00 2.324506521224975586e+00 -5.893021821975708008e-02
2.022000000000000000e+03 7.138298797607421875e+01 5.516013145446777344e+00 7.414769381284713745e-03 7.705210685729980469e+00 2.313787698745727539e+00 -4.549077898263931274e-02
2.023000000000000000e+03 7.031726837158203125e+01 3.810525178909301758e+00 8.168661035597324371e-03 7.715236186981201172e+00 2.317021608352661133e+00 -5.291066318750381470e-02
2.024000000000000000e+03 6.968996047973632812e+00 8.469331741333007812e+00 5.502995848655700684e-01 1.603530287742614746e+00 6.461489796638488770e-01 2.158199846744537354e-01
2.025000000000000000e+03 8.553648948669433594e+00 7.293277263641357422e+00 6.123240590095520020e-01 2.668379068374633789e+00 9.842109680175781250e-01 -8.407772332429885864e-02
2.026000000000000000e+03 8.098150253295898438e+00 3.368751907348632812e+01 2.243639202788472176e-03 2.371433496475219727e+00 7.121031284332275391e-01 -3.677282631397247314e-01
2.027000000000000000e+03 9.804945945739746094e+00 3.328272247314453125e+01 -8.473143912851810455e-03 3.291117668151855469e+00 9.847933650016784668e-01 -2.877161800861358643e-01
2.028000000000000000e+03 7.218639850616455078e+00 -9.631143569946289062e+00 4.259833395481109619e-01 1.960334420204162598e+00 7.158953547477722168e-01 1.956734107807278633e-03
2.029000000000000000e+03 6.998343658447265625e+01 -2.421893119812011719e+01 -1.133634708821773529e-02 7.834382534027099609e+00 2.346913814544677734e+00 -5.744050815701484680e-02
2.030000000000000000e+03 6.845526123046875000e+01 -2.799576950073242188e+01 -2.138099633157253265e-02 7.834496498107910156e+00 2.343934535980224609e+00 -5.077334120869636536e-02
2.031000000000000000e+03 7.002742767333984375e+01 -9.348878860473632812e+00 2.204695949330925941e-03 7.771250724792480469e+00 2.332036495208740234e+00 -6.851125508546829224e-02
2.032000000000000000e+03 6.995463562011718750e+01 -1.094376850128173828e+01 -3.120079054497182369e-04 7.775300979614257812e+00 2.332496643066406250e+00 -7.002610713243484497e-02
2.033000000000000000e+03 7.049851226806640625e+01 -1.598747825622558594e+01 -3.278088290244340897e-03 7.802105903625488281e+00 2.339648485183715820e+00 -6.529388576745986938e-02
2.034000000000000000e+03 6.979831695556640625e+01 3.376501798629760742e-01 9.375941939651966095e-03 7.726543426513671875e+00 2.320775747299194336e+00 -6.151826679706573486e-02
2.035000000000000000e+03 7.174798583984375000e+01 2.921308755874633789e+00 6.714285816997289658e-03 7.713340759277343750e+00 2.316016435623168945e+00 -4.788191244006156921e-02
2.036000000000000000e+03 6.924707794189453125e+01 1.780620002746582031e+01 1.102143619209527969e-02 7.682129859924316406e+00 2.307945489883422852e+00 -2.667644992470741272e-02
2.037000000000000000e+03 3.065714073181152344e+01 -1.901744461059570312e+01 -3.803612291812896729e-02 7.550171852111816406e+00 2.253640651702880859e+00 6.508491188287734985e-02
2.038000000000000000e+03 3.009794998168945312e+01 -1.193187904357910156e+01 3.129805438220500946e-03 7.654613971710205078e+00 2.297323226928710938e+00 8.756136894226074219e-02
2.039000000000000000e+03 7.147553253173828125e+01 -8.002017974853515625e+00 2.237551845610141754e-03 7.767644882202148438e+00 2.330964803695678711e+00 -6.072384864091873169e-02
2.040000000000000000e+03 6.876462554931640625e+01 -7.564829826354980469e+00 4.716330207884311676e-03 7.761178493499755859e+00 2.329768419265747070e+00 -7.316698879003524780e-02
2.041000000000000000e+03 7.058649444580078125e+01 8.678245544433593750e+00 9.924959391355514526e-03 7.696768760681152344e+00 2.312008142471313477e+00 -4.230702668428421021e-02
2.042000000000000000e+03 7.006276702880859375e+01 -1.433882236480712891e+01 -3.065490163862705231e-03 7.792685508728027344e+00 2.336885929107666016e+00 -6.794396787881851196e-02
2.043000000000000000e+03 7.136317443847656250e+01 -1.254847621917724609e+01 -1.478349091485142708e-03 7.788722515106201172e+00 2.336173295974731445e+00 -6.231527775526046753e-02
2.044000000000000000e+03 3.046163368225097656e+01 3.486855506896972656e+00 1.164552345871925354e-01 7.916855812072753906e+00 2.409993410110473633e+00 4.008774831891059875e-02
2.045000000000000000e+03 5.864343643188476562e+00 2.085807418823242188e+01 1.163011267781257629e-01 1.229508638381958008e+00 4.037429392337799072e-01 -4.762425646185874939e-02
2.046000000000000000e+03 7.954671382904052734e+00 -2.022001266479492188e+01 3.528397530317306519e-02 3.033482551574707031e+00 9.206299781799316406e-01 8.244788646697998047e-02
2.047000000000000000e+03 8.748633384704589844e+00 -8.949321746826171875e+00 4.726457297801971436e-01 3.125870227813720703e+00 1.079554796218872070e+00 2.076775580644607544e-01
2.048000000000000000e+03 3.040545272827148438e+01 1.706459617614746094e+01 7.817127555608749390e-02 8.049155235290527344e+00 2.438197851181030273e+00 1.305854972451925278e-02
2.049000000000000000e+03 3.026106834411621094e+01 9.207557678222656250e+00 1.275802999734878540e-01 7.998138427734375000e+00 2.437715768814086914e+00 6.615777313709259033e-02
2.050000000000000000e+03 3.166034317016601562e+01 1.172310161590576172e+01 1.092406511306762695e-01 7.983547687530517578e+00 2.427836418151855469e+00 4.348982125520706177e-02
2.051000000000000000e+03 2.961734008789062500e+01 -5.762848377227783203e+00 5.603563506156206131e-03 7.789992332458496094e+00 2.338678836822509766e+00 9.633430838584899902e-02
2.052000000000000000e+03 2.952155494689941406e+01 -2.132682085037231445e+00 1.989712379872798920e-02 7.865508556365966797e+00 2.365621805191040039e+00 6.637711077928543091e-02
2.053000000000000000e+03 7.095453643798828125e+01 1.461430454254150391e+01 1.063225418329238892e-02 7.678755283355712891e+00 2.306816339492797852e+00 -2.893379144370555878e-02
2.054000000000000000e+03 6.964501953125000000e+01 1.258922672271728516e+01 1.091450173407793045e-02 7.689042568206787109e+00 2.309987068176269531e+00 -3.782701864838600159e-02
2.055000000000000000e+03 7.120458126068115234e+00 2.223225593566894531e+01 1.636121869087219238e-01 2.165858507156372070e+00 6.988412141799926758e-01 -9.126691520214080811e-02
2.056000000000000000e+03 7.072428226470947266e+00 -2.196794319152832031e+01 2.794144675135612488e-02 2.370798826217651367e+00 7.196220755577087402e-01 9.633985906839370728e-02
2.057000000000000000e+03 2.820100402832031250e+01 -8.569397926330566406e+00 -1.490665483288466930e-03 7.721428394317626953e+00 2.315981388092041016e+00 1.418803036212921143e-01
2.058000000000000000e+03 7.921321868896484375e+00 1.028196907043457031e+01 4.521504342555999756e-01 2.615596294403076172e+00 9.203240275382995605e-01 2.042937837541103363e-02
2.059000000000000000e+03 7.489116191864013672e+00 9.771179199218750000e+00 4.526273608207702637e-01 2.157192468643188477e+00 7.829459309577941895e-01 8.604411780834197998e-02
2.060000000000000000e+03 3.112047195434570312e+01 2.384233474731445312e+01 8.949735015630722046e-02 8.027571678161621094e+00 2.435120820999145508e+00 -2.907258644700050354e-02
2.061000000000000000e+03 2.748167991638183594e+01 -2.190282249450683594e+01 -1.105551496148109436e-01 7.477770805358886719e+00 2.210164785385131836e+00 1.110208779573440552e-01
2.062000000000000000e+03 7.297001361846923828e+00 -1.320482444763183594e+01 2.159373313188552856e-01 2.340644121170043945e+00 7.669744491577148438e-01 5.915294960141181946e-02
2.063000000000000000e+03 7.132077789306640625e+01 4.184572696685791016e-01 7.158666849136352539e-03 7.725954055786132812e+00 2.319933652877807617e+00 -5.363376811146736145e-02
2.064000000000000000e+03 6.794328308105468750e+01 -2.318314170837402344e+01 -1.286486443132162094e-02 7.815706253051757812e+00 2.340852499008178711e+00 -6.486840546131134033e-02
2.065000000000000000e+03 2.691760444641113281e+01 -7.049794197082519531e+00 -2.483711577951908112e-02 7.768607616424560547e+00 2.323131084442138672e+00 1.749649941921234131e-01
2.066000000000000000e+03 2.829795455932617188e+01 -1.868457555770874023e+00 2.254127711057662964e-02 7.881298065185546875e+00 2.371151685714721680e+00 8.099892735481262207e-02
2.067000000000000000e+03 2.989575958251953125e+01 -1.014556884765625000e+00 4.705186933279037476e-02 7.877765655517578125e+00 2.377445220947265625e+00 4.822225496172904968e-02
2.068000000000000000e+03 9.909322738647460938e+00 -2.813497543334960938e+01 3.530186787247657776e-02 4.439375400543212891e+00 1.342403173446655273e+00 3.602389013394713402e-03
2.069000000000000000e+03 1.036703586578369141e+01 -3.003303718566894531e+01 1.163241416215896606e-01 4.724303245544433594e+00 1.452188134193420410e+00 -1.040870770812034607e-01
2.070000000000000000e+03 1.030635356903076172e+01 -3.338674545288085938e+01 4.833299219608306885e-01 4.373801231384277344e+00 1.457139253616333008e+00 1.337061971426010132e-01
2.071000000000000000e+03 2.748052787780761719e+01 2.152453994750976562e+01 4.843528196215629578e-02 8.134281158447265625e+00 2.454814910888671875e+00 -3.267370536923408508e-02
2.072000000000000000e+03 2.942828941345214844e+01 -1.334130859375000000e+01 1.558836363255977631e-02 7.611434459686279297e+00 2.288106679916381836e+00 8.914048224687576294e-02
2.073000000000000000e+03 3.038962364196777344e+01 5.063260555267333984e+00 1.347444355487823486e-01 7.938982486724853516e+00 2.422118186950683594e+00 4.274450615048408508e-02
2.074000000000000000e+03 9.194112777709960938e+00 -2.935022926330566406e+01 7.092050462961196899e-02 4.002685070037841797e+00 1.222081661224365234e+00 4.801845550537109375e-02
2.075000000000000000e+03 3.066827392578125000e+01 2.206577682495117188e+01 8.787313848733901978e-02 8.017118453979492188e+00 2.431497573852539062e+00 -1.787503808736801147e-02
2.076000000000000000e+03 2.866405105590820312e+01 -1.471510601043701172e+01 -4.717228002846240997e-03 7.596265316009521484e+00 2.277464389801025391e+00 9.323133528232574463e-02
2.077000000000000000e+03 3.067438316345214844e+01 -1.424396228790283203e+01 -1.066690497100353241e-02 7.618233680725097656e+00 2.282269954681396484e+00 6.446392834186553955e-02
2.078000000000000000e+03 7.025502777099609375e+01 2.198242378234863281e+01 9.942761622369289398e-03 7.669212341308593750e+00 2.303746700286865234e+00 -1.571318879723548889e-02
2.079000000000000000e+03 6.947886657714843750e+01 2.062334823608398438e+01 9.552551433444023132e-03 7.676486968994140625e+00 2.305811882019042969e+00 -2.136914990842342377e-02
2.080000000000000000e+03 6.961352539062500000e+01 -2.275433349609375000e+01 -9.083398617804050446e-03 7.827176094055175781e+00 2.345427751541137695e+00 -5.934339761734008789e-02
2.081000000000000000e+03 9.823667526245117188e+00 1.255401515960693359e+01 2.149595916271209717e-01 4.425324440002441406e+00 1.392085194587707520e+00 -4.232674092054367065e-02
2.082000000000000000e+03 7.182640552520751953e+00 1.232159328460693359e+01 2.607965767383575439e-01 2.210263967514038086e+00 7.413181066513061523e-01 9.685478359460830688e-02
2.083000000000000000e+03 7.007276916503906250e+01 2.472734832763671875e+01 6.943630985915660858e-03 7.668775081634521484e+00 2.302715539932250977e+00 -1.214763894677162170e-02
2.084000000000000000e+03 7.033274078369140625e+01 2.327052879333496094e+01 8.836159482598304749e-03 7.666957855224609375e+00 2.302738189697265625e+00 -1.614967733621597290e-02
2.085000000000000000e+03 8.412047386169433594e+00 -1.069693470001220703e+01 3.686854839324951172e-01 3.028975963592529297e+00 1.019298434257507324e+00 1.454809010028839111e-01
2.086000000000000000e+03 2.958012771606445312e+01 -4.380586147308349609e+00 -2.913789823651313782e-03 7.823109626770019531e+00 2.346058845520019531e+00 8.587501198053359985e-02
2.087000000000000000e+03 2.898641395568847656e+01 1.536696052551269531e+01 7.082982361316680908e-02 8.084500312805175781e+00 2.446599006652832031e+00 3.185521438717842102e-02
2.088000000000000000e+03 6.993738555908203125e+01 -1.261488056182861328e+01 -1.224481849931180477e-03 7.785978317260742188e+00 2.335426092147827148e+00 -6.974956393241882324e-02
2.089000000000000000e+03 6.973680114746093750e+01 -2.655904197692871094e+01 -1.120393257588148117e-02 7.840755462646484375e+00 2.348865509033203125e+00 -5.253997072577476501e-02
2.090000000000000000e+03 6.834236145019531250e+01 1.383800029754638672e+01 1.733333431184291840e-02 7.692625045776367188e+00 2.312987565994262695e+00 -3.608781471848487854e-02
2.091000000000000000e+03 2.887786102294921875e+01 7.970037937164306641e+00 1.366738677024841309e-01 8.016494750976562500e+00 2.445950508117675781e+00 8.232698589563369751e-02
2.092000000000000000e+03 8.386153221130371094e+00 1.380859184265136719e+01 2.162055075168609619e-01 3.315268516540527344e+00 1.059442162513732910e+00 5.629167333245277405e-02
2.093000000000000000e+03 2.570574378967285156e+01 -2.347516250610351562e+01 -9.321368485689163208e-02 7.369799613952636719e+00 2.182975769042968750e+00 1.439932733774185181e-01
2.094000000000000000e+03 1.052037143707275391e+01 3.580382919311523438e+01 -2.108767926692962646e-01 3.438287496566772461e+00 9.682232141494750977e-01 -1.758258342742919922e-01
2.095000000000000000e+03 8.178501129150390625e+00 2.215369224548339844e+01 2.094954103231430054e-01 3.083816289901733398e+00 9.879935383796691895e-01 -1.424334943294525146e-02
2.096000000000000000e+03 7.085736083984375000e+01 -3.454204177856445312e+01 -1.973743177950382233e-02 7.868528366088867188e+00 2.354637145996093750e+00 -2.792858332395553589e-02
2.097000000000000000e+03 6.864737701416015625e+01 2.436829185485839844e+01 1.209428347647190094e-02 7.678269386291503906e+00 2.307109117507934570e+00 -1.461901236325502396e-02
2.098000000000000000e+03 7.155595397949218750e+01 2.331824111938476562e+01 6.202654913067817688e-03 7.659884929656982422e+00 2.299826145172119141e+00 -1.275143213570117950e-02
2.099000000000000000e+03 8.969929695129394531e+00 -6.991264343261718750e+00 5.911227464675903320e-01 2.946625947952270508e+00 1.061324596405029297e+00 3.487820625305175781e-01
2.100000000000000000e+03 1.095870780944824219e+01 6.318230152130126953e+00 3.598002195358276367e-01 5.002442359924316406e+00 1.608672738075256348e+00 -7.442848086357116699e-01
2.101000000000000000e+03 9.186562538146972656e+00 -6.147899150848388672e+00 6.144564151763916016e-01 2.844701528549194336e+00 1.037747383117675781e+00 4.556230604648590088e-01
2.102000000000000000e+03 9.824256896972656250e+00 7.031371593475341797e+00 5.303789377212524414e-01 3.826109647750854492e+00 1.306946635246276855e+00 -4.413785040378570557e-01
2.103000000000000000e+03 9.274919509887695312e+00 7.243019104003906250e+00 5.841206312179565430e-01 3.225861310958862305e+00 1.142994642257690430e+00 -2.744894623756408691e-01
2.104000000000000000e+03 8.668462753295898438e+00 8.096723556518554688e+00 5.757541656494140625e-01 2.908243894577026367e+00 1.045199394226074219e+00 -8.262400329113006592e-02
2.105000000000000000e+03 1.024162769317626953e+01 -8.198034286499023438e+00 4.111789166927337646e-01 4.450542449951171875e+00 1.458516359329223633e+00 4.964236617088317871e-01
2.106000000000000000e+03 9.598362922668457031e+00 -6.767686367034912109e+00 5.451875925064086914e-01 3.502406597137451172e+00 1.214278221130371094e+00 5.266698002815246582e-01
2.107000000000000000e+03 8.791285514831542969e+00 8.876865386962890625e+00 5.386017560958862305e-01 3.148055553436279297e+00 1.105997204780578613e+00 -1.170591637492179871e-01
2.108000000000000000e+03 9.656659126281738281e+00 8.800864219665527344e+00 4.953612089157104492e-01 3.981955289840698242e+00 1.343194961547851562e+00 -2.604394555091857910e-01
2.109000000000000000e+03 2.957052040100097656e+01 -7.215809345245361328e+00 -5.258245859295129776e-03 7.756519317626953125e+00 2.325378179550170898e+00 1.034801602363586426e-01
2.110000000000000000e+03 6.861034393310546875e+01 -9.140930175781250000e+00 1.250726869329810143e-03 7.763961315155029297e+00 2.329563617706298828e+00 -7.536414265632629395e-02
2.111000000000000000e+03 6.852181243896484375e+01 -1.081029224395751953e+01 1.788118155673146248e-03 7.773525714874267578e+00 2.332594156265258789e+00 -7.541605085134506226e-02
2.112000000000000000e+03 8.092133522033691406e+00 -8.805598258972167969e+00 5.200976133346557617e-01 2.444085836410522461e+00 8.892550468444824219e-01 1.286294460296630859e-01
2.113000000000000000e+03 6.897733306884765625e+01 8.143033981323242188e+00 1.557475514709949493e-02 7.702313423156738281e+00 2.315366506576538086e+00 -4.831467941403388977e-02
2.114000000000000000e+03 3.021685218811035156e+01 6.521107196807861328e+00 1.342180818319320679e-01 7.958736419677734375e+00 2.427886247634887695e+00 5.528568476438522339e-02
2.115000000000000000e+03 6.747147369384765625e+01 -1.786040306091308594e+01 -1.130534335970878601e-02 7.794375896453857422e+00 2.334921121597290039e+00 -7.636891305446624756e-02
2.116000000000000000e+03 6.867173767089843750e+01 -2.506766891479492188e+01 -1.600856892764568329e-02 7.828218936920166016e+00 2.343663215637207031e+00 -5.722628906369209290e-02
2.117000000000000000e+03 6.817302703857421875e+01 1.927599143981933594e+01 1.606102660298347473e-02 7.685276508331298828e+00 2.310401201248168945e+00 -2.389906719326972961e-02
2.118000000000000000e+03 6.802925109863281250e+01 1.656266403198242188e+01 1.747129485011100769e-02 7.690174579620361328e+00 2.312293767929077148e+00 -3.014351055026054382e-02
2.119000000000000000e+03 7.047607421875000000e+01 -5.153960704803466797e+00 3.789021167904138565e-03 7.750179290771484375e+00 2.326190471649169922e+00 -6.564833968877792358e-02
2.120000000000000000e+03 3.273440551757812500e+01 2.335180473327636719e+01 1.015246659517288208e-01 7.961436748504638672e+00 2.418888330459594727e+00 -1.175069529563188553e-02
2.121000000000000000e+03 3.143180084228515625e+01 -1.261776542663574219e+01 7.741098757833242416e-03 7.645792484283447266e+00 2.296060085296630859e+00 5.722009763121604919e-02
2.122000000000000000e+03 2.948315238952636719e+01 -8.679423332214355469e+00 1.176885887980461121e-02 7.718479633331298828e+00 2.319074630737304688e+00 1.131084263324737549e-01
2.123000000000000000e+03 3.152681732177734375e+01 1.518017768859863281e+01 9.274291992187500000e-02 8.020509719848632812e+00 2.433975934982299805e+00 2.349427156150341034e-02
2.124000000000000000e+03 3.014691352844238281e+01 1.879975700378417969e+01 7.034754008054733276e-02 8.058468818664550781e+00 2.438644886016845703e+00 7.116923108696937561e-03
2.125000000000000000e+03 6.972547912597656250e+01 6.600727081298828125e+00 1.003688294440507889e-02 7.706238746643066406e+00 2.314882755279541016e+00 -4.957459494471549988e-02
2.126000000000000000e+03 2.823027610778808594e+01 -4.385822772979736328e+00 -4.548458382487297058e-03 7.826119899749755859e+00 2.346471548080444336e+00 1.136899441480636597e-01
2.127000000000000000e+03 2.890328598022460938e+01 -2.280448913574218750e+01 -4.876444488763809204e-02 7.453751087188720703e+00 2.221496105194091797e+00 1.118553951382637024e-01
2.128000000000000000e+03 2.997461318969726562e+01 -2.110931587219238281e+01 -8.141499012708663940e-02 7.513227462768554688e+00 2.229543685913085938e+00 7.104373723268508911e-02
2.129000000000000000e+03 3.077228164672851562e+01 -8.895088195800781250e+00 6.450636283261701465e-05 7.717147350311279297e+00 2.315163612365722656e+00 8.050747960805892944e-02
2.130000000000000000e+03 1.182661533355712891e+01 3.930356216430664062e+01 -5.329199433326721191e-01 3.656991004943847656e+00 9.372212886810302734e-01 2.121279202401638031e-02
2.131000000000000000e+03 7.651327133178710938e+00 3.527876281738281250e+01 -1.364511996507644653e-01 2.085892438888549805e+00 5.848323702812194824e-01 -3.471595048904418945e-01
2.132000000000000000e+03 3.131068801879882812e+01 -1.713878870010375977e+00 3.917694836854934692e-02 7.842744827270507812e+00 2.364576578140258789e+00 3.801040351390838623e-02
2.133000000000000000e+03 5.716274261474609375e+00 1.954056358337402344e+01 1.075375825166702271e-01 1.125069379806518555e+00 3.697820901870727539e-01 -3.260032087564468384e-02
2.134000000000000000e+03 3.137938690185546875e+01 7.870332241058349609e+00 1.305951476097106934e-01 7.948397159576416016e+00 2.423697710037231445e+00 4.255672916769981384e-02
2.135000000000000000e+03 3.122242927551269531e+01 1.379354476928710938e+01 9.931337833404541016e-02 8.003183364868164062e+00 2.430749177932739258e+00 4.201333597302436829e-02
2.136000000000000000e+03 6.941047668457031250e+01 1.534020996093750000e+01 1.152340229600667953e-02 7.684449672698974609e+00 2.308791875839233398e+00 -3.245014324784278870e-02
2.137000000000000000e+03 6.876055145263671875e+01 -1.976424789428710938e+01 -7.163221947848796844e-03 7.810294151306152344e+00 2.340939283370971680e+00 -6.779080629348754883e-02
2.138000000000000000e+03 3.075928306579589844e+01 1.041751098632812500e+01 1.221976578235626221e-01 8.000933647155761719e+00 2.436939477920532227e+00 5.559943988919258118e-02
2.139000000000000000e+03 8.897505760192871094e+00 -3.266649627685546875e+01 2.940579652786254883e-01 3.614907264709472656e+00 1.172689557075500488e+00 -6.051221862435340881e-02
2.140000000000000000e+03 8.392102241516113281e+00 1.979143905639648438e+01 1.939076334238052368e-01 3.394240379333496094e+00 1.076444387435913086e+00 2.821510471403598785e-02
2.141000000000000000e+03 2.879276847839355469e+01 -1.705519676208496094e+01 -2.521493285894393921e-02 7.563851833343505859e+00 2.261590957641601562e+00 8.679326623678207397e-02
2.142000000000000000e+03 3.012075424194335938e+01 2.041494750976562500e+01 7.180804014205932617e-02 8.066009521484375000e+00 2.441345214843750000e+00 -1.291258353739976883e-02
2.143000000000000000e+03 3.052369499206542969e+01 1.277751922607421875e+01 1.026294752955436707e-01 8.030545234680175781e+00 2.439952373504638672e+00 5.044267326593399048e-02
2.144000000000000000e+03 6.927158355712890625e+01 2.288276863098144531e+01 8.445339277386665344e-03 7.676516056060791016e+00 2.305488348007202148e+00 -1.678589731454849243e-02
2.145000000000000000e+03 8.113339424133300781e+00 -1.669399642944335938e+01 6.724691390991210938e-02 3.119586944580078125e+00 9.560501575469970703e-01 7.631345838308334351e-02
2.146000000000000000e+03 7.065116882324218750e+01 2.501862525939941406e+00 9.543968364596366882e-03 7.717293262481689453e+00 2.318051099777221680e+00 -5.345688015222549438e-02
2.147000000000000000e+03 6.926451873779296875e+01 1.899669528007507324e+00 1.002543512731790543e-02 7.722827434539794922e+00 2.319855928421020508e+00 -5.996701121330261230e-02
2.148000000000000000e+03 6.987619781494140625e+01 2.844136619567871094e+01 6.129448302090167999e-03 7.667761802673339844e+00 2.302167415618896484e+00 -7.465103641152381897e-03
2.149000000000000000e+03 6.816575622558593750e+01 2.620833206176757812e+01 8.314355276525020599e-03 7.682269096374511719e+00 2.307174921035766602e+00 -1.146823447197675705e-02
2.150000000000000000e+03 1.034291076660156250e+01 6.649446010589599609e+00 5.078288912773132324e-01 4.332726478576660156e+00 1.452166557312011719e+00 -5.697387456893920898e-01
2.151000000000000000e+03 1.019992733001708984e+01 7.652758121490478516e+00 5.200120806694030762e-01 4.380212306976318359e+00 1.470067262649536133e+00 -4.494802355766296387e-01
2.152000000000000000e+03 1.063076114654541016e+01 -5.511689186096191406e+00 4.341355860233306885e-01 4.447150230407714844e+00 1.464385747909545898e+00 9.020414352416992188e-01
2.153000000000000000e+03 9.919613838195800781e+00 -7.438180923461914062e+00 5.098322629928588867e-01 3.999607801437377930e+00 1.352832078933715820e+00 5.243434906005859375e-01
2.154000000000000000e+03 6.659840393066406250e+01 2.251842737197875977e+00 1.453007385134696960e-02 7.724650382995605469e+00 2.321754217147827148e+00 -6.875249743461608887e-02
2.155000000000000000e+03 6.769963836669921875e+01 1.123506546020507812e+00 1.369009446352720261e-02 7.727515697479248047e+00 2.322361707687377930e+00 -6.617420166730880737e-02
2.156000000000000000e+03 6.201206684112548828e+00 -3.129039001464843750e+01 1.073993891477584839e-01 1.765458822250366211e+00 5.618574619293212891e-01 9.288650006055831909e-02
2.157000000000000000e+03 7.012456512451171875e+01 5.183332920074462891e+00 1.186863705515861511e-02 7.708003520965576172e+00 2.315961599349975586e+00 -5.180291458964347839e-02
2.158000000000000000e+03 6.523092651367187500e+01 3.141437053680419922e+00 2.081075683236122131e-02 7.726303577423095703e+00 2.324134349822998047e+00 -6.855725497007369995e-02
2.159000000000000000e+03 6.847851562500000000e+01 -1.260456180572509766e+01 -2.735203830525279045e-03 7.777552604675292969e+00 2.332445144653320312e+00 -7.648368179798126221e-02
2.160000000000000000e+03 3.193967628479003906e+01 1.589792609214782715e+00 8.626075088977813721e-02 7.870504856109619141e+00 2.387029647827148438e+00 2.050140872597694397e-02
2.161000000000000000e+03 3.019583892822265625e+01 3.539789319038391113e-01 6.499700993299484253e-02 7.885218620300292969e+00 2.385064601898193359e+00 4.188853874802589417e-02
2.162000000000000000e+03 3.212505722045898438e+01 3.419744968414306641e+00 1.134928688406944275e-01 7.891324520111083984e+00 2.401445150375366211e+00 1.710748486220836639e-02
2.163000000000000000e+03 3.389321517944335938e+01 1.733642578125000000e+01 9.696129709482192993e-02 7.956679344177246094e+00 2.416092157363891602e+00 5.367715843021869659e-03
2.164000000000000000e+03 3.186353111267089844e+01 1.682769393920898438e+01 8.840836584568023682e-02 8.003399848937988281e+00 2.427542448043823242e+00 2.166834473609924316e-02
2.165000000000000000e+03 7.879608154296875000e+00 -2.929818534851074219e+01 9.031239897012710571e-02 2.870636701583862305e+00 8.882847428321838379e-01 -1.546934712678194046e-02
2.166000000000000000e+03 7.014658355712890625e+01 -7.832287788391113281e+00 2.220708178356289864e-03 7.761258602142333984e+00 2.329043626785278320e+00 -6.832677870988845825e-02
2.167000000000000000e+03 3.055984687805175781e+01 -1.045164871215820312e+01 1.512727420777082443e-02 7.682549953460693359e+00 2.309303045272827148e+00 8.563072979450225830e-02
2.168000000000000000e+03 3.089131927490234375e+01 -7.345416069030761719e+00 1.336853019893169403e-02 7.749194145202636719e+00 2.328768730163574219e+00 7.583641260862350464e-02
2.169000000000000000e+03 3.238853073120117188e+01 1.323574924468994141e+01 1.054397821426391602e-01 7.986665248870849609e+00 2.427631378173828125e+00 2.746465988457202911e-02
2.170000000000000000e+03 3.191355895996093750e+01 -1.086460876464843750e+01 -3.215251024812459946e-03 7.681109905242919922e+00 2.303368330001831055e+00 5.767369270324707031e-02
2.171000000000000000e+03 6.818008422851562500e+01 2.197599792480468750e+01 1.475415565073490143e-02 7.683231830596923828e+00 2.309395790100097656e+00 -1.847009174525737762e-02
2.172000000000000000e+03 3.298678970336914062e+01 9.100882530212402344e+00 1.242175251245498657e-01 7.925875186920166016e+00 2.415027856826782227e+00 3.261049836874008179e-02
2.173000000000000000e+03 2.799786949157714844e+01 2.685515403747558594e+01 1.158749684691429138e-01 8.059931755065917969e+00 2.452742099761962891e+00 -1.110583767294883728e-01
2.174000000000000000e+03 3.111607742309570312e+01 2.819742584228515625e+01 1.200814917683601379e-01 7.963063240051269531e+00 2.424943447113037109e+00 -4.150458797812461853e-02
2.175000000000000000e+03 3.205624389648437500e+01 -9.115553855895996094e+00 1.698198728263378143e-02 7.714218139648437500e+00 2.319360017776489258e+00 5.549112334847450256e-02
2.176000000000000000e+03 2.732677650451660156e+01 -2.491944122314453125e+01 -7.201107591390609741e-02 7.384082794189453125e+00 2.193621635437011719e+00 1.343881487846374512e-01
2.177000000000000000e+03 3.193378067016601562e+01 -2.218422889709472656e+01 -4.509230703115463257e-02 7.522380828857421875e+00 2.243186473846435547e+00 5.237361416220664978e-02
2.178000000000000000e+03 5.648558139801025391e+00 -3.278804397583007812e+01 1.573988050222396851e-01 1.234049916267395020e+00 4.174346029758453369e-01 1.481616795063018799e-01
2.179000000000000000e+03 2.714642715454101562e+01 -2.864686775207519531e+01 -9.927563369274139404e-03 7.272114276885986328e+00 2.178656101226806641e+00 1.232513114809989929e-01
2.180000000000000000e+03 2.887509918212890625e+01 -2.930486488342285156e+01 1.332730613648891449e-02 7.351817607879638672e+00 2.209543466567993164e+00 6.578518450260162354e-02
2.181000000000000000e+03 6.842935943603515625e+01 -9.152073413133621216e-02 1.014214102178812027e-02 7.730565547943115234e+00 2.322212219238281250e+00 -6.608054786920547485e-02
2.182000000000000000e+03 6.997458648681640625e+01 -1.189747452735900879e+00 7.624480873346328735e-03 7.734991073608398438e+00 2.322784662246704102e+00 -6.124662607908248901e-02
2.183000000000000000e+03 7.001927947998046875e+01 -2.679951667785644531e+00 6.561664398759603500e-03 7.738791942596435547e+00 2.323606014251708984e+00 -6.494835764169692993e-02
2.184000000000000000e+03 6.845650482177734375e+01 -2.641321420669555664e+00 9.297631680965423584e-03 7.741486549377441406e+00 2.325235128402709961e+00 -6.904294341802597046e-02
2.185000000000000000e+03 6.712826538085937500e+01 -2.117755889892578125e+01 -1.631573215126991272e-02 7.805396080017089844e+00 2.336724042892456055e+00 -7.142589986324310303e-02
2.186000000000000000e+03 3.148731040954589844e+01 9.236202239990234375e+00 1.249333173036575317e-01 7.970710277557373047e+00 2.428693056106567383e+00 4.325216263532638550e-02
2.187000000000000000e+03 6.564639282226562500e+01 2.782510375976562500e+01 1.027643028646707535e-02 7.699504375457763672e+00 2.312934160232543945e+00 -9.720890782773494720e-03
2.188000000000000000e+03 6.770259857177734375e+01 9.600589752197265625e+00 1.509114913642406464e-02 7.703947544097900391e+00 2.315711498260498047e+00 -4.931653290987014771e-02
2.189000000000000000e+03 2.942984008789062500e+01 -3.167813301086425781e+00 1.713543944060802460e-02 7.839215278625488281e+00 2.356905221939086914e+00 7.563173770904541016e-02
2.190000000000000000e+03 3.349058532714843750e+01 1.176953554153442383e+00 8.744362741708755493e-02 7.852624893188476562e+00 2.382020473480224609e+00 1.609853352420032024e-03
2.191000000000000000e+03 3.447252273559570312e+01 4.595851421356201172e+00 1.129112094640731812e-01 7.868907928466796875e+00 2.394545793533325195e+00 1.327135134488344193e-03
2.192000000000000000e+03 3.170761489868164062e+01 -1.073021441698074341e-01 6.948898732662200928e-02 7.860748291015625000e+00 2.379071235656738281e+00 2.039669454097747803e-02
2.193000000000000000e+03 2.849798393249511719e+01 -6.232181787490844727e-01 3.670973330736160278e-02 7.903414726257324219e+00 2.382037401199340820e+00 7.051707804203033447e-02
2.194000000000000000e+03 6.701063537597656250e+01 -1.059631824493408203e+01 -4.523504176177084446e-04 7.765763759613037109e+00 2.329593420028686523e+00 -8.138905465602874756e-02
2.195000000000000000e+03 6.695008087158203125e+01 -1.241461372375488281e+01 4.247671167831867933e-04 7.774886131286621094e+00 2.332593202590942383e+00 -8.148593455553054810e-02
2.196000000000000000e+03 3.237044525146484375e+01 -5.955478191375732422e+00 2.388342469930648804e-02 7.769815921783447266e+00 2.338109731674194336e+00 4.208472371101379395e-02
2.197000000000000000e+03 3.257630538940429688e+01 -4.267308712005615234e+00 1.884113997220993042e-02 7.798599720001220703e+00 2.345232248306274414e+00 3.245881572365760803e-02
2.198000000000000000e+03 3.337298583984375000e+01 -1.098921489715576172e+01 1.265848055481910706e-02 7.687026023864746094e+00 2.309905290603637695e+00 3.694970533251762390e-02
2.199000000000000000e+03 3.335979080200195312e+01 -9.232641220092773438e+00 -8.961522835306823254e-04 7.715551376342773438e+00 2.314396619796752930e+00 3.262802958488464355e-02
2.200000000000000000e+03 3.331938171386718750e+01 1.101286983489990234e+01 1.203288808465003967e-01 7.947478771209716797e+00 2.420342206954956055e+00 2.964060939848423004e-02
2.201000000000000000e+03 3.428613662719726562e+01 1.590980434417724609e+01 1.039973720908164978e-01 7.943577766418457031e+00 2.414272546768188477e+00 1.700515486299991608e-02
2.202000000000000000e+03 3.137158203125000000e+01 1.965258216857910156e+01 8.623959869146347046e-02 8.006915092468261719e+00 2.427946567535400391e+00 -3.095672465860843658e-03
2.203000000000000000e+03 2.999741363525390625e+01 3.037014579772949219e+01 1.532446742057800293e-01 7.942116737365722656e+00 2.428608417510986328e+00 -9.290679590776562691e-04
2.204000000000000000e+03 6.539852142333984375e+01 1.953294754028320312e+01 2.202944457530975342e-02 7.700533390045166016e+00 2.316768884658813477e+00 -2.555068768560886383e-02
2.205000000000000000e+03 6.673057556152343750e+01 1.797860145568847656e+01 1.694904267787933350e-02 7.695361614227294922e+00 2.313693284988403320e+00 -2.999623678624629974e-02
2.206000000000000000e+03 3.678642272949218750e+01 1.702983856201171875e+01 1.022288277745246887e-01 7.918766021728515625e+00 2.406298398971557617e+00 4.461963661015033722e-03
2.207000000000000000e+03 6.876307678222656250e+01 1.110910224914550781e+01 1.611690036952495575e-02 7.697129249572753906e+00 2.313973903656005859e+00 -4.174667224287986755e-02
2.208000000000000000e+03 3.446074295043945312e+01 2.266616058349609375e+01 9.616248309612274170e-02 7.959441661834716797e+00 2.416681289672851562e+00 -5.406238604336977005e-03
2.209000000000000000e+03 3.313838195800781250e+01 2.563092422485351562e+01 1.031471192836761475e-01 7.967120170593261719e+00 2.421080112457275391e+00 -1.543100737035274506e-02
2.210000000000000000e+03 3.335450363159179688e+01 2.826811790466308594e+01 1.195634678006172180e-01 7.898185253143310547e+00 2.405324697494506836e+00 6.887820549309253693e-03
2.211000000000000000e+03 3.217278671264648438e+01 -7.510883808135986328e+00 9.243650856660678983e-05 7.745121479034423828e+00 2.323564052581787109e+00 5.181863903999328613e-02
2.212000000000000000e+03 3.261874771118164062e+01 -1.349618721008300781e+01 -1.301081012934446335e-02 7.649581909179687500e+00 2.290971279144287109e+00 4.182372614741325378e-02
2.213000000000000000e+03 3.190697288513183594e+01 -1.506746387481689453e+01 -5.629505962133407593e-03 7.615418910980224609e+00 2.282936811447143555e+00 4.236979782581329346e-02
2.214000000000000000e+03 6.899759674072265625e+01 -6.091026782989501953e+00 4.236071836203336716e-03 7.751518726348876953e+00 2.326726436614990234e+00 -7.248576730489730835e-02
2.215000000000000000e+03 6.538442993164062500e+01 -1.031758499145507812e+01 2.506255870684981346e-03 7.764070987701416016e+00 2.329973220825195312e+00 -8.644332736730575562e-02
2.216000000000000000e+03 6.804673004150390625e+01 -4.131917476654052734e+00 6.443508900701999664e-03 7.743844509124755859e+00 2.325086355209350586e+00 -7.416333258152008057e-02
2.217000000000000000e+03 6.636546325683593750e+01 -3.947275504469871521e-02 1.368441618978977203e-02 7.731240749359130859e+00 2.323477506637573242e+00 -7.382021099328994751e-02
2.218000000000000000e+03 3.287670898437500000e+01 -2.431961297988891602e+00 4.678912088274955750e-02 7.819697856903076172e+00 2.359946012496948242e+00 1.763420738279819489e-02
2.219000000000000000e+03 6.894753265380859375e+01 4.887898921966552734e+00 1.184935308992862701e-02 7.714208126068115234e+00 2.317817211151123047e+00 -5.511381849646568298e-02
2.220000000000000000e+03 6.599955749511718750e+01 4.495990276336669922e+00 1.833979785442352295e-02 7.719827651977539062e+00 2.321450233459472656e+00 -6.593830138444900513e-02
2.221000000000000000e+03 3.324518203735351562e+01 -6.140161156654357910e-01 6.032754480838775635e-02 7.834078311920166016e+00 2.368321657180786133e+00 1.028907019644975662e-02
2.222000000000000000e+03 6.848221588134765625e+01 -1.462702846527099609e+01 -3.354833927005529404e-03 7.788757801055908203e+00 2.335620880126953125e+00 -7.483177632093429565e-02
2.223000000000000000e+03 3.664292526245117188e+01 7.455263137817382812e+00 1.163829863071441650e-01 7.861048698425292969e+00 2.393229484558105469e+00 -6.875973660498857498e-03
2.224000000000000000e+03 3.653301239013671875e+01 8.892189979553222656e+00 1.134828776121139526e-01 7.868761062622070312e+00 2.394673109054565430e+00 5.910583422519266605e-04
2.225000000000000000e+03 3.216160202026367188e+01 2.136587715148925781e+01 8.636204153299331665e-02 8.014304161071777344e+00 2.430199861526489258e+00 -9.756241925060749054e-03
2.226000000000000000e+03 6.729337310791015625e+01 -7.207053184509277344e+00 3.894760040566325188e-03 7.753939628601074219e+00 2.327350378036499023e+00 -7.952059805393218994e-02
2.227000000000000000e+03 6.772461700439453125e+01 7.095847129821777344e+00 1.503856200724840164e-02 7.709838867187500000e+00 2.317463159561157227e+00 -5.507723614573478699e-02
2.228000000000000000e+03 6.676304626464843750e+01 5.867354869842529297e+00 1.881400682032108307e-02 7.717091083526611328e+00 2.320771455764770508e+00 -5.896184593439102173e-02
2.229000000000000000e+03 3.561209869384765625e+01 3.720409393310546875e+00 1.018590256571769714e-01 7.838860988616943359e+00 2.382215976715087891e+00 -7.646772079169750214e-03
2.230000000000000000e+03 3.384901428222656250e+01 1.275746059417724609e+01 1.098485812544822693e-01 7.942831516265869141e+00 2.415803909301757812e+00 2.413158677518367767e-02
2.231000000000000000e+03 3.529816436767578125e+01 1.770535469055175781e+01 1.017240285873413086e-01 7.935734272003173828e+00 2.411237478256225586e+00 8.621097542345523834e-03
2.232000000000000000e+03 3.374243927001953125e+01 -1.271369934082031250e+01 -1.833947747945785522e-02 7.660272598266601562e+00 2.292579889297485352e+00 2.045965939760208130e-02
2.233000000000000000e+03 6.648780822753906250e+01 8.229827880859375000e+00 2.113805897533893585e-02 7.711785793304443359e+00 2.319877147674560547e+00 -5.376722663640975952e-02
2.234000000000000000e+03 3.601409912109375000e+01 -1.069467449188232422e+01 8.403616026043891907e-03 7.700835704803466797e+00 2.312771797180175781e+00 4.560405854135751724e-03
2.235000000000000000e+03 3.608100509643554688e+01 -9.204712867736816406e+00 3.764256369322538376e-03 7.710305213928222656e+00 2.314220905303955078e+00 -9.893023408949375153e-03
2.236000000000000000e+03 6.681803131103515625e+01 1.514715576171875000e+01 1.768738776445388794e-02 7.698037147521972656e+00 2.314717292785644531e+00 -3.716664388775825500e-02
2.237000000000000000e+03 3.577466583251953125e+01 2.759458732604980469e+01 8.936039358377456665e-02 7.913664817810058594e+00 2.400907516479492188e+00 2.249086089432239532e-02
2.238000000000000000e+03 6.306457901000976562e+01 6.245130538940429688e+00 2.651427313685417175e-02 7.722584247589111328e+00 2.324729681015014648e+00 -6.700730323791503906e-02
2.239000000000000000e+03 6.680225372314453125e+01 -1.440799617767333984e+01 -6.781727075576782227e-03 7.778734207153320312e+00 2.331585645675659180e+00 -8.102494478225708008e-02
2.240000000000000000e+03 6.606232452392578125e+01 -1.625776100158691406e+01 -4.731365479528903961e-03 7.782995223999023438e+00 2.333479166030883789e+00 -8.230426907539367676e-02
2.241000000000000000e+03 6.864358520507812500e+01 -1.277002215385437012e+00 9.072262793779373169e-03 7.733334541320800781e+00 2.322721958160400391e+00 -6.846069544553756714e-02
2.242000000000000000e+03 6.594300842285156250e+01 -5.166795730590820312e+00 7.557657081633806229e-03 7.745551109313964844e+00 2.325932502746582031e+00 -8.200972527265548706e-02
2.243000000000000000e+03 6.232669067382812500e+01 8.802312850952148438e+00 2.995064854621887207e-02 7.721303462982177734e+00 2.325376272201538086e+00 -6.071084365248680115e-02
2.244000000000000000e+03 6.636987304687500000e+01 -3.613878011703491211e+00 1.174021884799003601e-02 7.744289875030517578e+00 2.326808929443359375e+00 -7.799486815929412842e-02
2.245000000000000000e+03 6.542787170410156250e+01 1.048207879066467285e+00 1.785178296267986298e-02 7.730990409851074219e+00 2.324652671813964844e+00 -7.276782393455505371e-02
2.246000000000000000e+03 3.252441406250000000e+01 7.458211421966552734e+00 1.301572173833847046e-01 7.926706314086914062e+00 2.417058944702148438e+00 3.087066672742366791e-02
2.247000000000000000e+03 3.149428367614746094e+01 6.688767433166503906e+00 1.337349563837051392e-01 7.932573795318603516e+00 2.419892549514770508e+00 3.898989781737327576e-02
2.248000000000000000e+03 3.485331344604492188e+01 -1.098165869712829590e+00 6.512017548084259033e-02 7.815802574157714844e+00 2.364276885986328125e+00 -7.521454710513353348e-03
2.249000000000000000e+03 6.860942077636718750e+01 6.015829086303710938e+00 1.550340373069047928e-02 7.709593772888183594e+00 2.317529201507568359e+00 -5.406194552779197693e-02
2.250000000000000000e+03 3.376508331298828125e+01 2.045790100097656250e+01 9.772730618715286255e-02 7.953809738159179688e+00 2.415461063385009766e+00 -8.899885579012334347e-04
2.251000000000000000e+03 3.633936691284179688e+01 4.539474964141845703e+00 1.072911843657493591e-01 7.845029354095458984e+00 2.385696172714233398e+00 -1.310079358518123627e-02
2.252000000000000000e+03 3.587709045410156250e+01 1.429673576354980469e+01 1.097678244113922119e-01 7.911468505859375000e+00 2.406370878219604492e+00 1.219115126878023148e-02
2.253000000000000000e+03 3.420159912109375000e+01 1.440414428710937500e+01 1.060368046164512634e-01 7.953770160675048828e+00 2.417942047119140625e+00 1.423249021172523499e-02
2.254000000000000000e+03 6.900915527343750000e+01 -1.668326377868652344e+01 -5.422270856797695160e-03 7.798018455505371094e+00 2.337778806686401367e+00 -7.205321639776229858e-02
2.255000000000000000e+03 6.443447113037109375e+01 -2.057920646667480469e+01 -2.148624137043952942e-02 7.787343025207519531e+00 2.329756975173950195e+00 -8.067010343074798584e-02
2.256000000000000000e+03 6.411313629150390625e+01 -4.664096832275390625e+00 1.376443915069103241e-02 7.745748996734619141e+00 2.327853918075561523e+00 -8.610428869724273682e-02
2.257000000000000000e+03 3.197054100036621094e+01 5.245444297790527344e+00 1.232013478875160217e-01 7.909403800964355469e+00 2.409781455993652344e+00 3.007668629288673401e-02
2.258000000000000000e+03 6.063624191284179688e+01 5.438613414764404297e+00 3.239523246884346008e-02 7.728518486022949219e+00 2.328274011611938477e+00 -7.213414460420608521e-02
2.259000000000000000e+03 3.502809524536132812e+01 1.065740680694580078e+01 1.180066689848899841e-01 7.902635574340820312e+00 2.406192779541015625e+00 1.500616222620010376e-02
2.260000000000000000e+03 3.722684097290039062e+01 1.198115730285644531e+01 1.143380552530288696e-01 7.877232074737548828e+00 2.397470951080322266e+00 2.310590120032429695e-03
2.261000000000000000e+03 6.545771026611328125e+01 6.813790798187255859e+00 2.051755040884017944e-02 7.716331481933593750e+00 2.321054697036743164e+00 -6.128435581922531128e-02
2.262000000000000000e+03 6.207364654541015625e+01 -6.130242347717285156e+00 1.347539946436882019e-02 7.746744155883789062e+00 2.328065872192382812e+00 -9.146598726511001587e-02
2.263000000000000000e+03 6.688954925537109375e+01 -2.171697139739990234e+00 1.053420174866914749e-02 7.736535072326660156e+00 2.324120759963989258e+00 -7.581619173288345337e-02
2.264000000000000000e+03 6.748258209228515625e+01 -9.188520908355712891e-01 1.251715514808893204e-02 7.735383033752441406e+00 2.324370145797729492e+00 -7.061527669429779053e-02
2.265000000000000000e+03 3.099098587036132812e+01 -5.797481060028076172e+00 1.221176818944513798e-03 7.782793521881103516e+00 2.335204362869262695e+00 6.516174226999282837e-02
2.266000000000000000e+03 3.376897811889648438e+01 -6.397480964660644531e+00 1.073885522782802582e-02 7.760034561157226562e+00 2.331232070922851562e+00 2.504817396402359009e-02
2.267000000000000000e+03 3.668983459472656250e+01 3.485829353332519531e+00 1.003004834055900574e-01 7.833750247955322266e+00 2.380215167999267578e+00 -1.701285876333713531e-02
2.268000000000000000e+03 6.396909332275390625e+01 7.802555561065673828e+00 2.745353430509567261e-02 7.720222473144531250e+00 2.324302673339843750e+00 -5.930741876363754272e-02
2.269000000000000000e+03 3.605087280273437500e+01 -7.395765304565429688e+00 2.383399941027164459e-02 7.738561153411865234e+00 2.328718423843383789e+00 -3.314703237265348434e-03
2.270000000000000000e+03 3.375109863281250000e+01 -1.419892978668212891e+01 4.229231271892786026e-03 7.634004116058349609e+00 2.291470050811767578e+00 2.241999283432960510e-02
2.271000000000000000e+03 3.846431350708007812e+01 1.598675918579101562e+01 1.074591055512428284e-01 7.874288558959960938e+00 2.394524335861206055e+00 3.680596710182726383e-04
2.272000000000000000e+03 3.674105072021484375e+01 3.408400416374206543e-01 7.891497015953063965e-02 7.809971809387207031e+00 2.366666078567504883e+00 -2.290184982120990753e-02
2.273000000000000000e+03 3.900134277343750000e+01 1.117282390594482422e+01 1.103656738996505737e-01 7.858428478240966797e+00 2.390638351440429688e+00 -8.775413967669010162e-03
2.274000000000000000e+03 3.797668075561523438e+01 9.590318679809570312e+00 1.132251471281051636e-01 7.852257728576660156e+00 2.389644861221313477e+00 -9.860496036708354950e-03
2.275000000000000000e+03 6.364646911621093750e+01 -1.003025913238525391e+01 7.284734165295958519e-04 7.755005836486816406e+00 2.326720237731933594e+00 -9.246216714382171631e-02
2.276000000000000000e+03 6.550009918212890625e+01 -8.534302711486816406e+00 2.836359664797782898e-03 7.755350589752197266e+00 2.327456235885620117e+00 -8.633503317832946777e-02
2.277000000000000000e+03 6.315615081787109375e+01 -2.132143259048461914e+00 1.801794394850730896e-02 7.740462303161621094e+00 2.327544212341308594e+00 -8.436995744705200195e-02
2.278000000000000000e+03 6.538320922851562500e+01 -1.418074846267700195e+00 1.558144576847553253e-02 7.738439083099365234e+00 2.326206207275390625e+00 -7.794147729873657227e-02
2.279000000000000000e+03 3.563191604614257812e+01 5.609050750732421875e+00 1.162965297698974609e-01 7.855506420135498047e+00 2.391541004180908203e+00 -2.487820573151111603e-03
2.280000000000000000e+03 3.679168701171875000e+01 2.078613758087158203e+00 8.607516437768936157e-02 7.817885398864746094e+00 2.371188163757324219e+00 -2.065955847501754761e-02
2.281000000000000000e+03 3.813154220581054688e+01 -1.904839396476745605e+00 6.209329143166542053e-02 7.781972885131835938e+00 2.353219747543334961e+00 -3.293030336499214172e-02
2.282000000000000000e+03 3.428916168212890625e+01 -4.860861778259277344e+00 3.433786705136299133e-02 7.776815891265869141e+00 2.343346118927001953e+00 8.984810672700405121e-03
2.283000000000000000e+03 3.629183197021484375e+01 -3.440083503723144531e+00 4.923757910728454590e-02 7.780554294586181641e+00 2.348937511444091797e+00 -1.616599224507808685e-02
2.284000000000000000e+03 3.760676193237304688e+01 -9.553763389587402344e+00 1.276083383709192276e-02 7.713953495025634766e+00 2.318014383316040039e+00 -1.954606920480728149e-02
2.285000000000000000e+03 3.783645248413085938e+01 -7.712381839752197266e+00 1.521707419306039810e-02 7.726627349853515625e+00 2.322553396224975586e+00 -2.763171494007110596e-02
2.286000000000000000e+03 3.638484954833984375e+01 -1.196315574645996094e+01 -4.396637901663780212e-03 7.677198410034179688e+00 2.301840543746948242e+00 -1.456561591476202011e-02
2.287000000000000000e+03 3.779619598388671875e+01 1.392817401885986328e+01 1.093024685978889465e-01 7.890407085418701172e+00 2.399912834167480469e+00 1.043398282490670681e-03
2.288000000000000000e+03 6.497820281982421875e+01 9.344134330749511719e+00 2.217098139226436615e-02 7.713317394256591797e+00 2.320646524429321289e+00 -5.559481680393218994e-02
2.289000000000000000e+03 3.799385452270507812e+01 -3.790565252304077148e+00 3.856259956955909729e-02 7.764314174652099609e+00 2.340862989425659180e+00 -3.209060430526733398e-02
2.290000000000000000e+03 3.558501434326171875e+01 1.966439437866210938e+01 9.682542085647583008e-02 7.945027828216552734e+00 2.412555932998657227e+00 1.483034575358033180e-03
2.291000000000000000e+03 3.981701660156250000e+01 1.309317684173583984e+01 1.094103157520294189e-01 7.845156669616699219e+00 2.386369943618774414e+00 -8.847801946103572845e-03
2.292000000000000000e+03 3.929030227661132812e+01 -1.028262329101562500e+01 1.460404833778738976e-03 7.703124523162841797e+00 2.311375379562377930e+00 -4.012338817119598389e-02
2.293000000000000000e+03 3.971517944335937500e+01 -8.162658691406250000e+00 2.094937302172183990e-02 7.726783752441406250e+00 2.324320077896118164e+00 -4.383581131696701050e-02
2.294000000000000000e+03 6.381097412109375000e+01 -7.078905105590820312e-01 1.728439703583717346e-02 7.733251571655273438e+00 2.325160741806030273e+00 -8.067043125629425049e-02
2.295000000000000000e+03 3.786542892456054688e+01 3.782096385955810547e+00 9.748621284961700439e-02 7.821696281433105469e+00 2.375754833221435547e+00 -2.302004955708980560e-02
2.296000000000000000e+03 3.608551025390625000e+01 -5.406608581542968750e+00 2.393695712089538574e-02 7.757750511169433594e+00 2.334506273269653320e+00 -1.099175866693258286e-02
2.297000000000000000e+03 3.966735458374023438e+01 -4.010085105895996094e+00 4.785239323973655701e-02 7.758050441741943359e+00 2.341770887374877930e+00 -4.422226920723915100e-02
2.298000000000000000e+03 3.663478851318359375e+01 1.036110401153564453e+01 1.179025173187255859e-01 7.883657455444335938e+00 2.400468111038208008e+00 3.646735101938247681e-03
2.299000000000000000e+03 3.497799301147460938e+01 7.050564289093017578e+00 1.174934655427932739e-01 7.881212234497070312e+00 2.399611711502075195e+00 7.951422594487667084e-03
2.300000000000000000e+03 3.813505172729492188e+01 2.370756626129150391e+00 8.657547086477279663e-02 7.811341285705566406e+00 2.369374990463256836e+00 -3.015552461147308350e-02
2.301000000000000000e+03 3.346839904785156250e+01 6.091301918029785156e+00 1.237942054867744446e-01 7.889863014221191406e+00 2.404097080230712891e+00 1.515702530741691589e-02
2.302000000000000000e+03 6.331037521362304688e+01 1.046001720428466797e+01 3.053405694663524628e-02 7.718423366546630859e+00 2.324687242507934570e+00 -5.216670408844947815e-02
2.303000000000000000e+03 3.717363357543945312e+01 -1.104591083526611328e+01 -4.495972301810979843e-03 7.692713260650634766e+00 2.306465148925781250e+00 -1.969430595636367798e-02
2.304000000000000000e+03 4.130566406250000000e+01 -4.018111705780029297e+00 3.931557759642601013e-02 7.750143527984619141e+00 2.336837768554687500e+00 -5.626422539353370667e-02
2.305000000000000000e+03 4.039051818847656250e+01 9.823867678642272949e-01 7.034938037395477295e-02 7.783608913421630859e+00 2.356187343597412109e+00 -4.697212949395179749e-02
2.306000000000000000e+03 6.144477844238281250e+01 7.112842082977294922e+00 3.429066389799118042e-02 7.727672576904296875e+00 2.328588962554931641e+00 -6.435958296060562134e-02
2.307000000000000000e+03 6.197574996948242188e+01 -2.841441631317138672e+00 1.968259364366531372e-02 7.739509582519531250e+00 2.327757596969604492e+00 -8.735661208629608154e-02
2.308000000000000000e+03 6.195873641967773438e+01 -7.885940551757812500e+00 5.480555351823568344e-03 7.747282505035400391e+00 2.325828790664672852e+00 -9.455140680074691772e-02
2.309000000000000000e+03 6.531176757812500000e+01 -1.210477447509765625e+01 -2.372713293880224228e-03 7.765756130218505859e+00 2.329015016555786133e+00 -8.659450709819793701e-02
2.310000000000000000e+03 6.391818618774414062e+01 -6.425585269927978516e+00 7.079496514052152634e-03 7.747218132019042969e+00 2.326289176940917969e+00 -8.907695114612579346e-02
2.311000000000000000e+03 3.800000381469726562e+01 7.009854793548583984e+00 1.125762313604354858e-01 7.835928440093994141e+00 2.384551525115966797e+00 -1.407777424901723862e-02
2.312000000000000000e+03 3.932745361328125000e+01 2.684129238128662109e+00 8.465826511383056641e-02 7.801105976104736328e+00 2.365729331970214844e+00 -3.626058995723724365e-02
2.313000000000000000e+03 3.919967651367187500e+01 4.154648303985595703e+00 9.666510671377182007e-02 7.812484264373779297e+00 2.372744798660278320e+00 -3.366830199956893921e-02
2.314000000000000000e+03 3.841090393066406250e+01 -8.894699811935424805e-02 6.657162308692932129e-02 7.790120601654052734e+00 2.357007741928100586e+00 -3.503380343317985535e-02
2.315000000000000000e+03 3.791891098022460938e+01 -5.734400749206542969e+00 3.507698327302932739e-02 7.749793052673339844e+00 2.335461139678955078e+00 -2.845985442399978638e-02
2.316000000000000000e+03 3.598035812377929688e+01 -1.406670093536376953e+01 -2.267651632428169250e-02 7.651222705841064453e+00 2.288563966751098633e+00 -1.403942145407199860e-02
2.317000000000000000e+03 3.843618774414062500e+01 -1.202686405181884766e+01 -2.265184652060270309e-03 7.688066959381103516e+00 2.305740356445312500e+00 -2.969581261277198792e-02
2.318000000000000000e+03 3.937766265869140625e+01 8.220367431640625000e+00 1.073395311832427979e-01 7.836180210113525391e+00 2.383055925369262695e+00 -1.912075653672218323e-02
2.319000000000000000e+03 3.971563720703125000e+01 -5.975232124328613281e+00 2.629875577986240387e-02 7.740117073059082031e+00 2.329924821853637695e+00 -4.498289152979850769e-02
2.320000000000000000e+03 4.151773071289062500e+01 -5.984943389892578125e+00 3.446699306368827820e-02 7.740948677062988281e+00 2.332624673843383789e+00 -5.579304695129394531e-02
2.321000000000000000e+03 3.747494125366210938e+01 5.070543766021728516e+00 1.094065234065055847e-01 7.833448410034179688e+00 2.382856369018554688e+00 -1.664127781987190247e-02
2.322000000000000000e+03 6.462799835205078125e+01 -2.981886625289916992e+00 1.238969806581735611e-02 7.738890647888183594e+00 2.325384140014648438e+00 -8.295955508947372437e-02
2.323000000000000000e+03 6.035733032226562500e+01 -2.785607099533081055e+00 1.854942180216312408e-02 7.738915443420410156e+00 2.327239513397216797e+00 -9.001128375530242920e-02
2.324000000000000000e+03 6.307759857177734375e+01 2.547609567642211914e+00 2.489298768341541290e-02 7.730916500091552734e+00 2.326742887496948242e+00 -7.442659139633178711e-02
2.325000000000000000e+03 6.186956787109375000e+01 -1.520679712295532227e+00 1.967479661107063293e-02 7.735552787780761719e+00 2.326568365097045898e+00 -8.621196448802947998e-02
2.326000000000000000e+03 6.351887893676757812e+01 -1.193463802337646484e+01 -9.676871704868972301e-04 7.763137817382812500e+00 2.328650951385498047e+00 -9.096033126115798950e-02
2.327000000000000000e+03 6.711287689208984375e+01 -8.861720085144042969e+00 4.367926158010959625e-03 7.763021469116210938e+00 2.330216884613037109e+00 -8.035822212696075439e-02
2.328000000000000000e+03 3.880803298950195312e+01 5.680017471313476562e+00 1.035156473517417908e-01 7.827736854553222656e+00 2.379375696182250977e+00 -2.253288589417934418e-02
2.329000000000000000e+03 6.154629135131835938e+01 3.173183917999267578e+00 2.722495421767234802e-02 7.729237079620361328e+00 2.326938629150390625e+00 -7.693984359502792358e-02
2.330000000000000000e+03 3.996207809448242188e+01 -5.593612194061279297e-01 7.134391367435455322e-02 7.779455661773681641e+00 2.355239868164062500e+00 -4.323200881481170654e-02
2.331000000000000000e+03 3.993019866943359375e+01 -1.335009765625000000e+01 -1.600612513720989227e-02 7.681755542755126953e+00 2.299724817276000977e+00 -4.364823922514915466e-02
2.332000000000000000e+03 4.239844894409179688e+01 6.526574134826660156e+00 9.403551369905471802e-02 7.795990467071533203e+00 2.367007732391357422e+00 -3.793095052242279053e-02
2.333000000000000000e+03 3.969905090332031250e+01 -2.204186677932739258e+00 4.944111406803131104e-02 7.768292427062988281e+00 2.345319986343383789e+00 -4.570025205612182617e-02
2.334000000000000000e+03 5.808539581298828125e+01 -7.290575027465820312e+00 1.042081974446773529e-02 7.740892410278320312e+00 2.325393915176391602e+00 -9.826750308275222778e-02
2.335000000000000000e+03 6.219748306274414062e+01 -2.166682630777359009e-01 2.307954803109169006e-02 7.737357139587402344e+00 2.328130960464477539e+00 -8.265683054924011230e-02
2.336000000000000000e+03 6.377930450439453125e+01 3.947236776351928711e+00 2.276866510510444641e-02 7.724838256835937500e+00 2.324281930923461914e+00 -7.169197499752044678e-02
2.337000000000000000e+03 6.409214019775390625e+01 7.000713348388671875e-01 2.017167583107948303e-02 7.733889579772949219e+00 2.326218366622924805e+00 -7.768449187278747559e-02
2.338000000000000000e+03 6.257077789306640625e+01 1.152321696281433105e+00 2.208718098700046539e-02 7.731059551239013672e+00 2.325944185256958008e+00 -7.961644977331161499e-02
2.339000000000000000e+03 6.522554016113281250e+01 -1.379661750793457031e+01 -3.006307175382971764e-03 7.773017883300781250e+00 2.331003427505493164e+00 -8.731462061405181885e-02
2.340000000000000000e+03 4.070485305786132812e+01 4.386606216430664062e+00 9.058111906051635742e-02 7.798316001892089844e+00 2.366669178009033203e+00 -3.928589448332786560e-02
2.341000000000000000e+03 6.099119567871093750e+01 1.659494042396545410e+00 2.831887267529964447e-02 7.735510826110839844e+00 2.329149007797241211e+00 -7.997724413871765137e-02
2.342000000000000000e+03 4.168555068969726562e+01 -8.242117881774902344e+00 1.355580333620309830e-02 7.720954418182373047e+00 2.320353031158447266e+00 -5.930836126208305359e-02
2.343000000000000000e+03 4.273725509643554688e+01 1.426615142822265625e+01 1.014753803610801697e-01 7.818515777587890625e+00 2.375997304916381836e+00 -1.662749238312244415e-02
2.344000000000000000e+03 4.188591766357421875e+01 1.212234115600585938e+01 1.012890115380287170e-01 7.829658031463623047e+00 2.379284143447875977e+00 -1.996128447353839874e-02
2.345000000000000000e+03 4.219663238525390625e+01 2.409923553466796875e+00 7.660889625549316406e-02 7.779505252838134766e+00 2.356834173202514648e+00 -5.220463126897811890e-02
2.346000000000000000e+03 6.059387969970703125e+01 1.801576167345046997e-01 2.504178881645202637e-02 7.733335018157958984e+00 2.327512979507446289e+00 -8.439566195011138916e-02
2.347000000000000000e+03 3.897068786621093750e+01 1.392574429512023926e+00 8.490359038114547729e-02 7.798711299896240234e+00 2.365084409713745117e+00 -3.615807741880416870e-02
2.348000000000000000e+03 4.141129684448242188e+01 -9.639714956283569336e-01 5.421630293130874634e-02 7.769083499908447266e+00 2.346989870071411133e+00 -5.461677163839340210e-02
2.349000000000000000e+03 5.895905303955078125e+01 6.145807743072509766e+00 4.106430336833000183e-02 7.734436988830566406e+00 2.332650423049926758e+00 -6.879051029682159424e-02
2.350000000000000000e+03 5.821852874755859375e+01 4.400135993957519531e+00 3.759799897670745850e-02 7.732956886291503906e+00 2.331166505813598633e+00 -7.669556140899658203e-02
2.351000000000000000e+03 6.053979110717773438e+01 9.807445526123046875e+00 3.836084902286529541e-02 7.728321552276611328e+00 2.330004692077636719e+00 -5.641422420740127563e-02
2.352000000000000000e+03 5.973668289184570312e+01 7.949123859405517578e+00 3.766393661499023438e-02 7.729033470153808594e+00 2.330009222030639648e+00 -6.510911136865615845e-02
2.353000000000000000e+03 4.068164062500000000e+01 2.602486371994018555e+00 8.747373521327972412e-02 7.793445587158203125e+00 2.364275693893432617e+00 -4.293816536664962769e-02
2.354000000000000000e+03 4.234885025024414062e+01 4.342102527618408203e+00 9.018147736787796021e-02 7.791431903839111328e+00 2.364484071731567383e+00 -4.629476740956306458e-02
2.355000000000000000e+03 6.217998123168945312e+01 -4.401834487915039062e+00 1.301309838891029358e-02 7.741162300109863281e+00 2.326252698898315430e+00 -9.028887748718261719e-02
2.356000000000000000e+03 5.932573699951171875e+01 2.148353099822998047e+00 3.141501545906066895e-02 7.732326030731201172e+00 2.329122304916381836e+00 -8.173307031393051147e-02
2.357000000000000000e+03 6.224925231933593750e+01 4.704828262329101562e+00 2.978045679628849030e-02 7.728875160217285156e+00 2.327596664428710938e+00 -7.018408924341201782e-02
2.358000000000000000e+03 4.192403030395507812e+01 5.793253779411315918e-01 7.427326589822769165e-02 7.775765895843505859e+00 2.355011701583862305e+00 -5.230227112770080566e-02
2.359000000000000000e+03 4.412461853027343750e+01 3.981544733047485352e+00 8.034229278564453125e-02 7.774493694305419922e+00 2.356450796127319336e+00 -5.442867055535316467e-02
2.360000000000000000e+03 4.292425918579101562e+01 -3.705110311508178711e+00 4.481298848986625671e-02 7.752040386199951172e+00 2.339056015014648438e+00 -6.215226277709007263e-02
2.361000000000000000e+03 4.384453201293945312e+01 -1.312264323234558105e+00 5.472737923264503479e-02 7.759206771850585938e+00 2.344180345535278320e+00 -6.380100548267364502e-02
2.362000000000000000e+03 6.440829467773437500e+01 1.207079410552978516e+01 2.434195764362812042e-02 7.711735725402832031e+00 2.320823431015014648e+00 -4.909529536962509155e-02
2.363000000000000000e+03 5.863351821899414062e+01 -3.962244510650634766e+00 1.751677878201007843e-02 7.739039897918701172e+00 2.326967000961303711e+00 -9.446097165346145630e-02
2.364000000000000000e+03 4.441507720947265625e+01 5.977797508239746094e+00 8.737657964229583740e-02 7.786768436431884766e+00 2.362243413925170898e+00 -5.016745626926422119e-02
2.365000000000000000e+03 5.708864974975585938e+01 8.403317332267761230e-01 3.454143181443214417e-02 7.734871387481689453e+00 2.330823898315429688e+00 -8.548720180988311768e-02
2.366000000000000000e+03 6.149822998046875000e+01 1.161418342590332031e+01 3.281785920262336731e-02 7.721898555755615234e+00 2.326415061950683594e+00 -5.331429466605186462e-02
2.367000000000000000e+03 6.534127044677734375e+01 1.655161094665527344e+01 2.439824678003787994e-02 7.703317165374755859e+00 2.318314790725708008e+00 -3.315249830484390259e-02
2.368000000000000000e+03 6.032444000244140625e+01 -4.293786525726318359e+00 2.020776644349098206e-02 7.741703510284423828e+00 2.328573465347290039e+00 -9.253851324319839478e-02
2.369000000000000000e+03 5.878723907470703125e+01 -2.637721061706542969e+00 2.685461007058620453e-02 7.738436222076416016e+00 2.329587221145629883e+00 -9.176323562860488892e-02
2.370000000000000000e+03 4.456252288818359375e+01 -3.070218563079833984e+00 4.702311009168624878e-02 7.743947029113769531e+00 2.337291002273559570e+00 -7.261415570974349976e-02
2.371000000000000000e+03 5.944841003417968750e+01 1.284106731414794922e+01 4.353376477956771851e-02 7.730986595153808594e+00 2.332355976104736328e+00 -4.683096334338188171e-02
2.372000000000000000e+03 5.757357025146484375e+01 2.652981281280517578e+00 3.898960351943969727e-02 7.738949775695800781e+00 2.333381891250610352e+00 -7.939363270998001099e-02
2.373000000000000000e+03 5.684461212158203125e+01 -1.152176856994628906e+00 3.159766644239425659e-02 7.740090847015380859e+00 2.331506490707397461e+00 -9.009147435426712036e-02
2.374000000000000000e+03 5.478460311889648438e+01 -8.460888266563415527e-01 3.502085059881210327e-02 7.736636638641357422e+00 2.331497192382812500e+00 -8.845134079456329346e-02
2.375000000000000000e+03 5.811543273925781250e+01 -5.487632274627685547e+00 1.950179599225521088e-02 7.742034912109375000e+00 2.328460931777954102e+00 -9.574810415506362915e-02
2.376000000000000000e+03 4.499444580078125000e+01 -1.863060891628265381e-01 6.113065406680107117e-02 7.759922027587890625e+00 2.346315860748291016e+00 -6.705279648303985596e-02
2.377000000000000000e+03 4.350947189331054688e+01 3.181547820568084717e-01 6.388629227876663208e-02 7.763031005859375000e+00 2.348075151443481445e+00 -6.395022571086883545e-02
2.378000000000000000e+03 4.615790176391601562e+01 -2.685735940933227539e+00 4.694956168532371521e-02 7.749467849731445312e+00 2.338925123214721680e+00 -7.504937052726745605e-02
2.379000000000000000e+03 5.570746994018554688e+01 3.268030643463134766e+00 4.264252260327339172e-02 7.736484050750732422e+00 2.333737850189208984e+00 -7.996585220098495483e-02
2.380000000000000000e+03 6.016395568847656250e+01 -5.871257781982421875e+00 1.164435781538486481e-02 7.741366386413574219e+00 2.325903177261352539e+00 -9.529776871204376221e-02
2.381000000000000000e+03 4.640174865722656250e+01 -6.624462127685546875e+00 2.888307161629199982e-02 7.730494022369384766e+00 2.327813148498535156e+00 -8.208183199167251587e-02
2.382000000000000000e+03 5.611289596557617188e+01 -4.403910160064697266e+00 2.192088961601257324e-02 7.735828876495361328e+00 2.327324867248535156e+00 -9.562406688928604126e-02
2.383000000000000000e+03 4.559275817871093750e+01 1.571503162384033203e+00 6.609341502189636230e-02 7.758093357086181641e+00 2.347255945205688477e+00 -6.800358742475509644e-02
2.384000000000000000e+03 4.633870697021484375e+01 5.318858623504638672e+00 7.815158367156982422e-02 7.765940666198730469e+00 2.353227615356445312e+00 -5.740599706768989563e-02
2.385000000000000000e+03 4.750767135620117188e+01 8.289420008659362793e-01 6.073297932744026184e-02 7.756324768066406250e+00 2.345117330551147461e+00 -7.281008362770080566e-02
2.386000000000000000e+03 5.470302963256835938e+01 5.944836139678955078e+00 5.071590840816497803e-02 7.740425586700439453e+00 2.337342500686645508e+00 -7.174474745988845825e-02
2.387000000000000000e+03 5.490895843505859375e+01 -6.301626682281494141e+00 2.026523463428020477e-02 7.739073276519775391e+00 2.327801465988159180e+00 -9.780247509479522705e-02
2.388000000000000000e+03 5.514342880249023438e+01 1.327169418334960938e+00 4.219600185751914978e-02 7.742442607879638672e+00 2.335391521453857422e+00 -8.356548845767974854e-02
2.389000000000000000e+03 5.646402359008789062e+01 5.077616691589355469e+00 4.702264070510864258e-02 7.740143299102783203e+00 2.336149692535400391e+00 -7.233656197786331177e-02
2.390000000000000000e+03 5.303550720214843750e+01 7.097728729248046875e+00 6.048354506492614746e-02 7.750550746917724609e+00 2.343310356140136719e+00 -6.326762586832046509e-02
2.391000000000000000e+03 5.808517837524414062e+01 -8.991295814514160156e+00 1.013092882931232452e-02 7.743220806121826172e+00 2.326005458831787109e+00 -9.786991775035858154e-02
2.392000000000000000e+03 5.414891815185546875e+01 -3.015060186386108398e+00 3.250754624605178833e-02 7.741003990173339844e+00 2.332053422927856445e+00 -9.261969476938247681e-02
2.393000000000000000e+03 5.308917236328125000e+01 -4.895249366760253906e+00 2.355221845209598541e-02 7.735183238983154297e+00 2.327620506286621094e+00 -9.497106075286865234e-02
2.394000000000000000e+03 5.545988464355468750e+01 -1.245563316345214844e+01 2.041052328422665596e-03 7.735711097717285156e+00 2.321325778961181641e+00 -9.984892606735229492e-02
2.395000000000000000e+03 5.982077407836914062e+01 -1.103192329406738281e+01 3.626582445576786995e-03 7.749167442321777344e+00 2.325838327407836914e+00 -9.668236225843429565e-02
2.396000000000000000e+03 5.515192794799804688e+01 -9.523076057434082031e+00 9.677407331764698029e-03 7.737500667572021484e+00 2.324153423309326172e+00 -1.002643704414367676e-01
2.397000000000000000e+03 5.350554656982421875e+01 -7.982555866241455078e+00 1.142444554716348648e-02 7.733335018157958984e+00 2.323427915573120117e+00 -9.799466282129287720e-02
2.398000000000000000e+03 5.652664947509765625e+01 -1.109771728515625000e+01 -2.637429395690560341e-03 7.739951610565185547e+00 2.321194410324096680e+00 -1.011258810758590698e-01
2.399000000000000000e+03 5.209242630004882812e+01 -9.629723548889160156e+00 8.896569721400737762e-03 7.731758594512939453e+00 2.322196483612060547e+00 -9.833984822034835815e-02
2.400000000000000000e+03 5.801259613037109375e+01 8.680465698242187500e+00 4.650563374161720276e-02 7.736216068267822266e+00 2.334816455841064453e+00 -6.090039014816284180e-02
2.401000000000000000e+03 5.564449310302734375e+01 7.629957199096679688e+00 5.268677324056625366e-02 7.742926597595214844e+00 2.338684082031250000e+00 -6.353691220283508301e-02
2.402000000000000000e+03 5.297983551025390625e+01 2.037203311920166016e+00 4.827934131026268005e-02 7.740157127380371094e+00 2.336530923843383789e+00 -8.013519644737243652e-02
2.403000000000000000e+03 5.392961883544921875e+01 1.149217128753662109e+01 6.031409651041030884e-02 7.746380329132080078e+00 2.342008352279663086e+00 -5.235633254051208496e-02
2.404000000000000000e+03 7.285348892211914062e+00 -3.854340362548828125e+01 -2.044800966978073120e-01 2.600620985031127930e+00 7.188422679901123047e-01 5.950086712837219238e-01
2.405000000000000000e+03 5.801327514648437500e+01 -1.064652442932128906e+01 -4.989548469893634319e-04 7.742526054382324219e+00 2.322607994079589844e+00 -1.011297032237052917e-01
2.406000000000000000e+03 4.753073501586914062e+01 -3.133549213409423828e+00 4.109355434775352478e-02 7.739854335784912109e+00 2.334284305572509766e+00 -8.291693031787872314e-02
2.407000000000000000e+03 4.658621978759765625e+01 -9.661664366722106934e-01 5.157601088285446167e-02 7.747308731079101562e+00 2.339665412902832031e+00 -7.678309828042984009e-02
2.408000000000000000e+03 6.685988616943359375e+01 2.083935737609863281e+01 1.437223888933658600e-02 7.692183017730712891e+00 2.311966657638549805e+00 -2.318594418466091156e-02
2.409000000000000000e+03 3.314472579956054688e+01 -1.568910598754882812e+01 -4.312717169523239136e-02 7.625808238983154297e+00 2.274804353713989258e+00 2.447510510683059692e-02
2.410000000000000000e+03 8.044936180114746094e+00 4.143254470825195312e+01 -4.131716191768646240e-01 2.044232845306396484e+00 4.893183410167694092e-01 -8.052551746368408203e-02
2.411000000000000000e+03 4.086314010620117188e+01 -1.152974605560302734e+01 -9.906895138556137681e-05 7.700829029083251953e+00 2.310219049453735352e+00 -4.960246011614799500e-02
2.412000000000000000e+03 4.365937423706054688e+01 -7.952517032623291016e+00 2.285985276103019714e-02 7.728576183319091797e+00 2.325430870056152344e+00 -6.819611787796020508e-02
2.413000000000000000e+03 6.808400726318359375e+01 -3.371162414550781250e+01 -2.122129872441291809e-02 7.845764636993408203e+00 2.347362995147705078e+00 -3.218475356698036194e-02
2.414000000000000000e+03 7.078789520263671875e+01 3.313809967041015625e+01 4.021300468593835831e-03 7.659538745880126953e+00 2.299067974090576172e+00 -2.970073372125625610e-03
2.415000000000000000e+03 6.836721038818359375e+01 3.379014968872070312e+01 5.397781729698181152e-03 7.676718711853027344e+00 2.304635047912597656e+00 -5.854520481079816818e-03
2.416000000000000000e+03 1.011665916442871094e+01 2.893988609313964844e+01 2.330878525972366333e-01 3.982324838638305664e+00 1.264623761177062988e+00 -4.752520471811294556e-02
2.417000000000000000e+03 7.149555969238281250e+01 -1.406282997131347656e+01 -1.213836134411394596e-03 7.798467636108398438e+00 2.339176177978515625e+00 -6.166326627135276794e-02
2.418000000000000000e+03 6.408201599121093750e+01 2.121310424804687500e+01 2.050274051725864410e-02 7.707413673400878906e+00 2.318374872207641602e+00 -2.378495037555694580e-02
2.419000000000000000e+03 4.884437561035156250e+01 -4.119145393371582031e+00 3.652976825833320618e-02 7.740760803222656250e+00 2.333187103271484375e+00 -8.648472279310226440e-02
2.420000000000000000e+03 5.054667663574218750e+01 2.424699068069458008e+00 5.672192573547363281e-02 7.751793384552001953e+00 2.342554569244384766e+00 -7.652620226144790649e-02
2.421000000000000000e+03 3.257630157470703125e+01 -1.965240669250488281e+01 -6.622942537069320679e-02 7.556912422180175781e+00 2.247205018997192383e+00 3.145740553736686707e-02
2.422000000000000000e+03 2.901984596252441406e+01 -1.856369590759277344e+01 -6.858000159263610840e-02 7.539816856384277344e+00 2.241370916366577148e+00 7.285006344318389893e-02
2.423000000000000000e+03 3.159395790100097656e+01 -2.627066802978515625e+01 -3.819300606846809387e-02 7.424676895141601562e+00 2.215945243835449219e+00 5.642366409301757812e-02
2.424000000000000000e+03 5.997972106933593750e+01 -9.311895370483398438e+00 2.548424527049064636e-03 7.745560646057128906e+00 2.324432849884033203e+00 -9.880334883928298950e-02
2.425000000000000000e+03 6.374022293090820312e+01 -1.375240421295166016e+01 -4.122642800211906433e-03 7.764043331146240234e+00 2.327976226806640625e+00 -9.124501049518585205e-02
2.426000000000000000e+03 4.812893676757812500e+01 2.756297826766967773e+00 6.453390419483184814e-02 7.752015113830566406e+00 2.344964742660522461e+00 -7.085409760475158691e-02
2.427000000000000000e+03 2.715905952453613281e+01 3.064156532287597656e+01 1.886594295501708984e-01 8.045676231384277344e+00 2.470300674438476562e+00 -8.812353760004043579e-02
2.428000000000000000e+03 4.216248321533203125e+01 -1.046337127685546875e+01 1.045481581240892410e-02 7.710627555847167969e+00 2.316324710845947266e+00 -6.026761606335639954e-02
2.429000000000000000e+03 3.273814010620117188e+01 -1.744600868225097656e+01 -1.719080470502376556e-02 7.592247486114501953e+00 2.272516965866088867e+00 3.394874930381774902e-02
2.430000000000000000e+03 3.752614593505859375e+01 -1.982423782348632812e+01 -5.123719200491905212e-02 7.614544868469238281e+00 2.268992185592651367e+00 -1.391155365854501724e-02
2.431000000000000000e+03 2.985227775573730469e+01 -1.588410663604736328e+01 -1.337993051856756210e-02 7.577526569366455078e+00 2.269243955612182617e+00 6.833693385124206543e-02
2.432000000000000000e+03 6.532514190673828125e+01 -2.238383293151855469e+01 -1.796274259686470032e-02 7.796488285064697266e+00 2.333557605743408203e+00 -7.483132183551788330e-02
2.433000000000000000e+03 3.895512390136718750e+01 2.309365272521972656e+01 9.561955928802490234e-02 7.869642257690429688e+00 2.389578580856323242e+00 6.974429357796907425e-03
2.434000000000000000e+03 2.809578514099121094e+01 -3.154209899902343750e+01 1.480149663984775543e-02 7.183493137359619141e+00 2.159488439559936523e+00 3.107621707022190094e-02
2.435000000000000000e+03 4.095215225219726562e+01 3.241220092773437500e+01 2.641640789806842804e-02 7.859246730804443359e+00 2.365699052810668945e+00 3.466465696692466736e-02
2.436000000000000000e+03 5.727231597900390625e+01 6.841938495635986328e+00 4.358217865228652954e-02 7.734697341918945312e+00 2.333483695983886719e+00 -6.953831762075424194e-02
2.437000000000000000e+03 3.626993942260742188e+01 2.185841178894042969e+01 1.024078503251075745e-01 7.906892299652099609e+00 2.402790069580078125e+00 1.568663981743156910e-03
2.438000000000000000e+03 3.475979232788085938e+01 8.835973739624023438e+00 1.225294917821884155e-01 7.898566246032714844e+00 2.406328678131103516e+00 1.165549270808696747e-02
2.439000000000000000e+03 6.465635681152343750e+01 -1.511784267425537109e+01 -1.105914916843175888e-02 7.773141384124755859e+00 2.328624725341796875e+00 -8.748494088649749756e-02
2.440000000000000000e+03 6.351498413085937500e+01 -1.621537017822265625e+01 -6.570395082235336304e-03 7.770436286926269531e+00 2.329159736633300781e+00 -8.931692689657211304e-02
2.441000000000000000e+03 2.704167175292968750e+01 3.469160461425781250e+01 2.393140494823455811e-01 7.790788173675537109e+00 2.409030675888061523e+00 -1.361800241284072399e-03
2.442000000000000000e+03 2.824335670471191406e+01 3.193348884582519531e+01 2.144982367753982544e-01 7.885941028594970703e+00 2.430131912231445312e+00 -7.001418620347976685e-02
2.443000000000000000e+03 5.454929351806640625e+01 -1.399282646179199219e+01 -1.666303165256977081e-02 7.734597682952880859e+00 2.315380334854125977e+00 -9.928637742996215820e-02
2.444000000000000000e+03 7.623220825195312500e+01 -3.661780548095703125e+01 -4.782311152666807175e-03 7.945432186126708984e+00 2.382194995880126953e+00 -7.991539314389228821e-03
2.445000000000000000e+03 7.092137145996093750e+01 -3.749328231811523438e+01 -1.751846633851528168e-02 7.882375717163085938e+00 2.359457254409790039e+00 -1.529241539537906647e-02
2.446000000000000000e+03 3.741763305664062500e+01 1.889995002746582031e+01 1.047499477863311768e-01 7.890410900115966797e+00 2.398548364639282227e+00 3.563568228855729103e-03
2.447000000000000000e+03 4.051604843139648438e+01 1.510903263092041016e+01 1.033813506364822388e-01 7.857253074645996094e+00 2.388190507888793945e+00 -6.957051809877157211e-03
2.448000000000000000e+03 6.267574691772460938e+01 1.334157085418701172e+01 3.333530575037002563e-02 7.717697143554687500e+00 2.325309753417968750e+00 -4.441892355680465698e-02
2.449000000000000000e+03 6.164165496826171875e+01 -1.157886219024658203e+01 -3.349636215716600418e-03 7.752701759338378906e+00 2.324805498123168945e+00 -9.705176204442977905e-02
2.450000000000000000e+03 4.519166564941406250e+01 -5.029832363128662109e+00 3.208586201071739197e-02 7.740015029907226562e+00 2.331630229949951172e+00 -7.470102608203887939e-02
2.451000000000000000e+03 4.913159179687500000e+01 -6.661776065826416016e+00 2.469029650092124939e-02 7.732685565948486328e+00 2.327212810516357422e+00 -9.092186391353607178e-02
2.452000000000000000e+03 3.920236968994140625e+01 1.797267913818359375e+01 9.952044486999511719e-02 7.882934093475341797e+00 2.394736289978027344e+00 -3.055590786971151829e-04
2.453000000000000000e+03 3.808847808837890625e+01 2.094160652160644531e+01 9.640854597091674805e-02 7.901712894439697266e+00 2.399436473846435547e+00 5.463520530611276627e-03
2.454000000000000000e+03 7.011479187011718750e+01 3.067705726623535156e+01 5.363685544580221176e-03 7.664530277252197266e+00 2.300968170166015625e+00 -7.660625968128442764e-03
2.455000000000000000e+03 3.387546157836914062e+01 3.103972816467285156e+01 7.875519245862960815e-02 7.918599128723144531e+00 2.399206161499023438e+00 4.782498255372047424e-02
2.456000000000000000e+03 3.141281509399414062e+01 3.218264007568359375e+01 1.223952919244766235e-01 7.861481666564941406e+00 2.395163059234619141e+00 2.265835180878639221e-02
2.457000000000000000e+03 6.531305694580078125e+01 -2.780916595458984375e+01 -3.057497739791870117e-02 7.810069084167480469e+00 2.333848237991333008e+00 -6.028065457940101624e-02
2.458000000000000000e+03 5.189131546020507812e+01 -6.548774719238281250e+00 2.241216972470283508e-02 7.735394954681396484e+00 2.327342033386230469e+00 -9.568517655134201050e-02
2.459000000000000000e+03 5.218185424804687500e+01 -2.026851654052734375e+00 3.619750216603279114e-02 7.737763881683349609e+00 2.332188367843627930e+00 -8.965206891298294067e-02
2.460000000000000000e+03 2.989785385131835938e+01 -2.761744689941406250e+01 -4.575480893254280090e-02 7.397933483123779297e+00 2.205653667449951172e+00 9.116633981466293335e-02
2.461000000000000000e+03 2.767442512512207031e+01 -4.080237960815429688e+01 -4.289507567882537842e-01 7.258930683135986328e+00 2.048993825912475586e+00 -7.162267714738845825e-02
2.462000000000000000e+03 2.728649139404296875e+01 -3.789391708374023438e+01 -2.396702319383621216e-01 7.170216560363769531e+00 2.079164028167724609e+00 -1.572097688913345337e-01
2.463000000000000000e+03 6.499341583251953125e+01 3.056093406677246094e+01 1.330470107495784760e-02 7.701275825500488281e+00 2.314374208450317383e+00 -6.713998969644308090e-03
2.464000000000000000e+03 8.248976707458496094e+00 -4.144435501098632812e+01 -6.436836719512939453e-01 2.904814481735229492e+00 6.783392429351806641e-01 2.901426851749420166e-01
2.465000000000000000e+03 1.242086315155029297e+01 4.145307540893554688e+01 -5.297284126281738281e-01 3.700747966766357422e+00 9.513058662414550781e-01 4.142207279801368713e-02
2.466000000000000000e+03 4.601275634765625000e+01 -3.698759841918945312e+01 -1.365400850772857666e-01 7.651910781860351562e+00 2.254611253738403320e+00 -3.617192432284355164e-02
2.467000000000000000e+03 5.814842605590820312e+01 3.468846511840820312e+01 9.059229865670204163e-03 7.757977008819580078e+00 2.330110788345336914e+00 4.331183619797229767e-03
2.468000000000000000e+03 6.204663467407226562e+01 3.776961135864257812e+01 4.160387907177209854e-03 7.726803302764892578e+00 2.319289207458496094e+00 2.736730966717004776e-03
2.469000000000000000e+03 3.319432449340820312e+01 -3.687190628051757812e+01 -1.930244714021682739e-01 7.418740749359130859e+00 2.167714834213256836e+00 -6.038775295019149780e-02
2.470000000000000000e+03 3.748820495605468750e+01 -4.077745437622070312e+01 -2.165670543909072876e-01 7.531973838806152344e+00 2.194622039794921875e+00 -1.599422097206115723e-02
2.471000000000000000e+03 5.718705749511718750e+01 -4.057770919799804688e+01 -8.153390139341354370e-02 7.758769512176513672e+00 2.303170680999755859e+00 -1.345188729465007782e-02
2.472000000000000000e+03 6.704518890380859375e+01 -4.045739364624023438e+01 -3.163096681237220764e-02 7.841512203216552734e+00 2.342964410781860352e+00 -9.237820282578468323e-03
2.473000000000000000e+03 6.365601730346679688e+01 -3.450493240356445312e+01 -3.878081589937210083e-02 7.812091827392578125e+00 2.331993341445922852e+00 -3.397861868143081665e-02
2.474000000000000000e+03 6.611662292480468750e+01 3.756437301635742188e+01 3.944467753171920776e-03 7.694203853607177734e+00 2.309444427490234375e+00 -4.156437236815690994e-03
2.475000000000000000e+03 4.693983078002929688e+01 3.569165039062500000e+01 4.286484327167272568e-03 7.834146976470947266e+00 2.351530075073242188e+00 1.317168958485126495e-02
2.476000000000000000e+03 3.752362060546875000e+01 3.684852600097656250e+01 -3.033845871686935425e-02 7.885983943939208984e+00 2.356693506240844727e+00 5.322625488042831421e-02
2.477000000000000000e+03 6.221661376953125000e+01 -1.738523483276367188e+01 -1.835816539824008942e-02 7.769114494323730469e+00 2.325227022171020508e+00 -9.029372036457061768e-02
2.478000000000000000e+03 4.325922393798828125e+01 1.633711051940917969e+01 9.492164850234985352e-02 7.831789016723632812e+00 2.378013134002685547e+00 -1.337600406259298325e-02
2.479000000000000000e+03 5.059539794921875000e+01 -8.052129745483398438e+00 1.276687346398830414e-02 7.729985237121582031e+00 2.322825670242309570e+00 -9.452722221612930298e-02
2.480000000000000000e+03 3.705622100830078125e+01 2.416197204589843750e+01 9.430442005395889282e-02 7.910648822784423828e+00 2.401485919952392578e+00 1.038246788084506989e-02
2.481000000000000000e+03 5.934436416625976562e+01 1.966865158081054688e+01 3.849058225750923157e-02 7.732254028320312500e+00 2.331223487854003906e+00 -2.543460205197334290e-02
2.482000000000000000e+03 6.237314987182617188e+01 1.644535827636718750e+01 3.275297209620475769e-02 7.717364788055419922e+00 2.325035333633422852e+00 -3.523272275924682617e-02
2.483000000000000000e+03 5.267616271972656250e+01 -9.741729497909545898e-02 4.467253386974334717e-02 7.744599342346191406e+00 2.336781501770019531e+00 -8.629380166530609131e-02
2.484000000000000000e+03 5.605096435546875000e+01 -1.517024612426757812e+01 -6.805870216339826584e-03 7.736191749572753906e+00 2.318815946578979492e+00 -9.915714710950851440e-02
2.485000000000000000e+03 5.708837890625000000e+01 -1.379445934295654297e+01 -1.482400670647621155e-02 7.743817806243896484e+00 2.318698167800903320e+00 -1.008873283863067627e-01
2.486000000000000000e+03 6.335736083984375000e+01 -1.893966484069824219e+01 -1.265401672571897507e-02 7.776079654693603516e+00 2.329027652740478516e+00 -8.651278167963027954e-02
2.487000000000000000e+03 6.087907791137695312e+01 1.471134281158447266e+01 3.477540984749794006e-02 7.724006175994873047e+00 2.327634572982788086e+00 -4.308055341243743896e-02
2.488000000000000000e+03 6.397758102416992188e+01 1.499846267700195312e+01 2.545422315597534180e-02 7.710875034332275391e+00 2.320898771286010742e+00 -4.062413424253463745e-02
2.489000000000000000e+03 6.342669677734375000e+01 -2.336419486999511719e+01 -2.841726318001747131e-02 7.789909362792968750e+00 2.328447580337524414e+00 -7.622409611940383911e-02
2.490000000000000000e+03 6.292433547973632812e+01 -2.163648605346679688e+01 -1.976788602769374847e-02 7.779718875885009766e+00 2.327985286712646484e+00 -8.301337808370590210e-02
2.491000000000000000e+03 4.920632553100585938e+01 -9.377672195434570312e+00 1.054163090884685516e-02 7.726360321044921875e+00 2.321070671081542969e+00 -9.256844222545623779e-02
2.492000000000000000e+03 5.648168563842773438e+01 -7.969289779663085938e+00 9.833693504333496094e-03 7.737754821777343750e+00 2.324276447296142578e+00 -9.974393248558044434e-02
2.493000000000000000e+03 5.953469848632812500e+01 -1.273301124572753906e+01 -7.131930440664291382e-03 7.746982097625732422e+00 2.321954965591430664e+00 -1.028687059879302979e-01
2.494000000000000000e+03 4.393764114379882812e+01 1.111806869506835938e+01 9.618107229471206665e-02 7.799256324768066406e+00 2.368631124496459961e+00 -3.086952306330204010e-02
2.495000000000000000e+03 5.991132736206054688e+01 -1.432529926300048828e+01 -1.154611539095640182e-02 7.754324913024902344e+00 2.322833538055419922e+00 -9.489217400550842285e-02
2.496000000000000000e+03 3.875949096679687500e+01 -1.500262832641601562e+01 -1.463772170245647430e-02 7.658036231994628906e+00 2.293019533157348633e+00 -3.443682938814163208e-02
2.497000000000000000e+03 3.734389877319335938e+01 -1.337521648406982422e+01 -1.559178438037633896e-02 7.674301624298095703e+00 2.297612905502319336e+00 -1.555825863033533096e-02
2.498000000000000000e+03 5.367581558227539062e+01 4.110903263092041016e+00 5.272516235709190369e-02 7.746657371520996094e+00 2.339814901351928711e+00 -7.409377396106719971e-02
2.499000000000000000e+03 4.491921234130859375e+01 8.013064384460449219e+00 8.888079226016998291e-02 7.781498908996582031e+00 2.361113786697387695e+00 -4.462341219186782837e-02
2.500000000000000000e+03 4.909766769409179688e+01 -2.647262513637542725e-01 4.977725818753242493e-02 7.744849205017089844e+00 2.338387966156005859e+00 -8.310616016387939453e-02
2.501000000000000000e+03 3.530516052246093750e+01 -1.689167404174804688e+01 -4.475873708724975586e-02 7.629046440124511719e+00 2.275286197662353516e+00 1.786997658200562000e-03
2.502000000000000000e+03 5.062575149536132812e+01 3.668062090873718262e-01 4.942161217331886292e-02 7.743166923522949219e+00 2.337776422500610352e+00 -8.141841739416122437e-02
2.503000000000000000e+03 6.341998672485351562e+01 2.660915374755859375e+01 1.929735206067562103e-02 7.710131645202636719e+00 2.318828821182250977e+00 -1.041180919855833054e-02
2.504000000000000000e+03 6.455184173583984375e+01 2.447509574890136719e+01 1.568759605288505554e-02 7.704999923706054688e+00 2.316206216812133789e+00 -1.647936925292015076e-02
2.505000000000000000e+03 6.388846969604492188e+01 1.805800628662109375e+01 2.407058700919151306e-02 7.709428787231445312e+00 2.320049762725830078e+00 -3.202921152114868164e-02
2.506000000000000000e+03 3.415855407714843750e+01 -1.754201698303222656e+01 -5.071189999580383301e-02 7.600317955017089844e+00 2.264881849288940430e+00 4.597539082169532776e-03
2.507000000000000000e+03 3.628834533691406250e+01 -1.819752502441406250e+01 -3.604021295905113220e-02 7.608297348022460938e+00 2.271677017211914062e+00 -1.382874324917793274e-02
2.508000000000000000e+03 6.277747344970703125e+01 2.300449180603027344e+01 2.488874085247516632e-02 7.713818073272705078e+00 2.321612119674682617e+00 -1.752487570047378540e-02
2.509000000000000000e+03 3.353860092163085938e+01 -2.597292137145996094e+01 -4.719888418912887573e-02 7.495050907135009766e+00 2.234355688095092773e+00 1.254633720964193344e-02
2.510000000000000000e+03 3.412386703491210938e+01 -3.306750106811523438e+01 -1.253262162208557129e-01 7.409541606903076172e+00 2.185264587402343750e+00 -5.852947011590003967e-02
2.511000000000000000e+03 5.045654678344726562e+01 -1.096554851531982422e+01 3.565550316125154495e-03 7.724016666412353516e+00 2.318274736404418945e+00 -9.447834640741348267e-02
2.512000000000000000e+03 5.911705398559570312e+01 1.627878952026367188e+01 4.265777394175529480e-02 7.732122898101806641e+00 2.332434177398681641e+00 -3.565882518887519836e-02
2.513000000000000000e+03 5.660740280151367188e+01 1.098837661743164062e+01 4.879933968186378479e-02 7.741347312927246094e+00 2.337044000625610352e+00 -5.371703952550888062e-02
2.514000000000000000e+03 5.135328674316406250e+01 -3.734268188476562500e+00 3.469016775488853455e-02 7.739609718322753906e+00 2.332289934158325195e+00 -9.025496989488601685e-02
2.515000000000000000e+03 4.851679611206054688e+01 6.529291152954101562e+00 7.450982928276062012e-02 7.759265422821044922e+00 2.350132703781127930e+00 -6.002151966094970703e-02
2.516000000000000000e+03 4.674412536621093750e+01 7.191819667816162109e+00 8.169388771057128906e-02 7.777575969696044922e+00 2.357780933380126953e+00 -5.253742262721061707e-02
2.517000000000000000e+03 3.744421005249023438e+01 3.337804412841796875e+01 2.471565827727317810e-02 7.898664474487304688e+00 2.377013921737670898e+00 6.609525531530380249e-02
2.518000000000000000e+03 6.718918609619140625e+01 2.363583946228027344e+01 1.152739115059375763e-02 7.689489364624023438e+00 2.310305118560791016e+00 -1.722154952585697174e-02
2.519000000000000000e+03 3.276378631591796875e+01 -2.830044555664062500e+01 -7.133603096008300781e-02 7.419329166412353516e+00 2.204397916793823242e+00 1.467451080679893494e-02
2.520000000000000000e+03 3.243792343139648438e+01 3.442694854736328125e+01 1.815479807555675507e-02 7.908930778503417969e+00 2.378125667572021484e+00 1.121918857097625732e-01
2.521000000000000000e+03 6.332162475585937500e+01 -2.957940483093261719e+01 -3.615119308233261108e-02 7.799837112426757812e+00 2.329105854034423828e+00 -5.770448967814445496e-02
2.522000000000000000e+03 4.542409133911132812e+01 -8.133079528808593750e+00 1.378433965146541595e-02 7.723456382751464844e+00 2.321172237396240234e+00 -7.958662509918212891e-02
2.523000000000000000e+03 5.416886138916015625e+01 8.662574768066406250e+00 5.675078183412551880e-02 7.744033336639404297e+00 2.340235233306884766e+00 -6.252086162567138672e-02
2.524000000000000000e+03 5.643648529052734375e+01 9.234174728393554688e+00 4.835202544927597046e-02 7.736655712127685547e+00 2.335502386093139648e+00 -6.250815093517303467e-02
2.525000000000000000e+03 3.020132827758789062e+01 3.577861404418945312e+01 2.885302901268005371e-02 7.834118843078613281e+00 2.358891487121582031e+00 1.141789332032203674e-01
2.526000000000000000e+03 3.410317230224609375e+01 3.623040771484375000e+01 -5.147103220224380493e-02 7.929318428039550781e+00 2.363354206085205078e+00 6.877645105123519897e-02
2.527000000000000000e+03 4.830592727661132812e+01 4.732803821563720703e+00 7.022431492805480957e-02 7.763031959533691406e+00 2.349977016448974609e+00 -6.524629890918731689e-02
2.528000000000000000e+03 6.398997116088867188e+01 -2.554871749877929688e+01 -2.616416104137897491e-02 7.794972419738769531e+00 2.330642461776733398e+00 -7.003205269575119019e-02
2.529000000000000000e+03 3.621071624755859375e+01 -2.445623207092285156e+01 -5.079672485589981079e-02 7.549112796783447266e+00 2.249494791030883789e+00 -1.169605273753404617e-02
2.530000000000000000e+03 3.414742660522460938e+01 -2.340471267700195312e+01 -7.084162533283233643e-02 7.520820140838623047e+00 2.234993457794189453e+00 1.857196539640426636e-02
2.531000000000000000e+03 5.536189651489257812e+01 3.240983581542968750e+01 1.539556216448545456e-02 7.772789955139160156e+00 2.336455583572387695e+00 7.713990751653909683e-03
2.532000000000000000e+03 5.791611099243164062e+01 3.772134399414062500e+01 6.936849560588598251e-03 7.757368564605712891e+00 2.329291582107543945e+00 -2.226702170446515083e-03
2.533000000000000000e+03 6.780341339111328125e+01 3.087817573547363281e+01 5.917607340961694717e-03 7.683333396911621094e+00 2.306775331497192383e+00 -4.910893738269805908e-03
2.534000000000000000e+03 3.457444381713867188e+01 3.367083740234375000e+01 4.530533403158187866e-02 7.867225170135498047e+00 2.373759269714355469e+00 5.180423706769943237e-02
2.535000000000000000e+03 5.789516830444335938e+01 -1.229956626892089844e+01 1.919258385896682739e-03 7.743388652801513672e+00 2.323592424392700195e+00 -9.794582426548004150e-02
2.536000000000000000e+03 5.031635665893554688e+01 -5.263592720031738281e+00 2.585636079311370850e-02 7.734415531158447266e+00 2.328081607818603516e+00 -9.190906584262847900e-02
2.537000000000000000e+03 6.171557617187500000e+01 -2.300273132324218750e+01 -3.159338608384132385e-02 7.773618698120117188e+00 2.322607517242431641e+00 -8.260492235422134399e-02
2.538000000000000000e+03 4.178852844238281250e+01 -1.475191974639892578e+01 -1.227993145585060120e-02 7.678830623626708984e+00 2.299965143203735352e+00 -5.781118571758270264e-02
2.539000000000000000e+03 3.755870437622070312e+01 -1.663541603088378906e+01 -3.972547501325607300e-02 7.643202781677246094e+00 2.281043291091918945e+00 -2.100819908082485199e-02
2.540000000000000000e+03 5.062987136840820312e+01 9.902160644531250000e+00 7.595223933458328247e-02 7.760543823242187500e+00 2.350948810577392578e+00 -4.963861405849456787e-02
2.541000000000000000e+03 6.512956237792968750e+01 3.395582962036132812e+01 5.748505238443613052e-03 7.703176021575927734e+00 2.312677383422851562e+00 -1.705022761598229408e-03
2.542000000000000000e+03 6.191384887695312500e+01 -2.013905334472656250e+01 -2.512319386005401611e-02 7.773149013519287109e+00 2.324407815933227539e+00 -8.693505823612213135e-02
2.543000000000000000e+03 6.107744979858398438e+01 2.135059356689453125e+01 2.819476090371608734e-02 7.723738193511962891e+00 2.325579881668090820e+00 -2.386753447353839874e-02
2.544000000000000000e+03 5.750312805175781250e+01 1.803422355651855469e+01 4.242103919386863708e-02 7.740599632263183594e+00 2.334906339645385742e+00 -3.178189694881439209e-02
2.545000000000000000e+03 3.457855224609375000e+01 -1.940125656127929688e+01 -4.180146381258964539e-02 7.592203617095947266e+00 2.265120744705200195e+00 1.862659864127635956e-02
2.546000000000000000e+03 3.570795059204101562e+01 -2.132262992858886719e+01 -5.025874823331832886e-02 7.572107791900634766e+00 2.256554603576660156e+00 -9.823525324463844299e-03
2.547000000000000000e+03 5.032062530517578125e+01 6.226746559143066406e+00 6.687847524881362915e-02 7.759591102600097656e+00 2.347940921783447266e+00 -6.136116757988929749e-02
2.548000000000000000e+03 4.347453308105468750e+01 1.815005683898925781e+01 9.146604686975479126e-02 7.821923732757568359e+00 2.374017000198364258e+00 -6.300637964159250259e-03
2.549000000000000000e+03 3.989547729492187500e+01 1.993260765075683594e+01 9.974350035190582275e-02 7.859284400939941406e+00 2.387708425521850586e+00 1.527488930150866508e-03
2.550000000000000000e+03 5.738920974731445312e+01 1.447344398498535156e+01 4.608735442161560059e-02 7.738253116607666016e+00 2.335302114486694336e+00 -4.392655938863754272e-02
2.551000000000000000e+03 4.249685668945312500e+01 -1.260209846496582031e+01 -1.407241821289062500e-02 7.691608428955078125e+00 2.303260803222656250e+00 -6.498642265796661377e-02
2.552000000000000000e+03 4.671645355224609375e+01 -9.123314857482910156e+00 1.284282561391592026e-02 7.723155021667480469e+00 2.320799350738525391e+00 -8.396349847316741943e-02
2.553000000000000000e+03 4.957496643066406250e+01 9.130418777465820312e+00 7.101697474718093872e-02 7.764299392700195312e+00 2.350594997406005859e+00 -5.292334035038948059e-02
2.554000000000000000e+03 5.170293426513671875e+01 8.545708656311035156e+00 6.463135778903961182e-02 7.754954338073730469e+00 2.345875740051269531e+00 -5.982694029808044434e-02
2.555000000000000000e+03 5.202127075195312500e+01 1.294443416595458984e+01 6.817413866519927979e-02 7.764002799987792969e+00 2.349653005599975586e+00 -4.074713215231895447e-02
2.556000000000000000e+03 6.235876083374023438e+01 -1.461817359924316406e+01 -1.036538276821374893e-02 7.762720108032226562e+00 2.325706481933593750e+00 -9.356030821800231934e-02
2.557000000000000000e+03 5.281921005249023438e+01 9.931240081787109375e+00 6.489486992359161377e-02 7.755595207214355469e+00 2.346147060394287109e+00 -5.344937741756439209e-02
2.558000000000000000e+03 4.821007919311523438e+01 -1.744817376136779785e+00 4.711427539587020874e-02 7.748670578002929688e+00 2.338735580444335938e+00 -7.949899882078170776e-02
2.559000000000000000e+03 5.906747055053710938e+01 -2.867981338500976562e+01 -4.644213616847991943e-02 7.761674880981445312e+00 2.314569711685180664e+00 -6.658170372247695923e-02
2.560000000000000000e+03 6.123439407348632812e+01 -3.143211364746093750e+01 -5.707037076354026794e-02 7.783631324768066406e+00 2.317968368530273438e+00 -5.718393996357917786e-02
2.561000000000000000e+03 4.874597167968750000e+01 -1.210031700134277344e+01 -5.354458000510931015e-03 7.719132423400878906e+00 2.314133405685424805e+00 -9.160403907299041748e-02
2.562000000000000000e+03 5.287113571166992188e+01 -1.299423122406005859e+01 4.743846657220274210e-04 7.729047775268554688e+00 2.318856477737426758e+00 -1.000910922884941101e-01
2.563000000000000000e+03 4.387939453125000000e+01 -1.017744541168212891e+01 2.262315712869167328e-03 7.712967395782470703e+00 2.314568996429443359e+00 -7.354129850864410400e-02
2.564000000000000000e+03 4.773068237304687500e+01 -1.057757568359375000e+01 4.839056171476840973e-03 7.718675613403320312e+00 2.317054510116577148e+00 -8.871392160654067993e-02
2.565000000000000000e+03 3.908510208129882812e+01 -1.831132125854492188e+01 -3.168144449591636658e-02 7.631600379943847656e+00 2.279975652694702148e+00 -3.687310591340065002e-02
2.566000000000000000e+03 6.160262680053710938e+01 -2.700516510009765625e+01 -4.128828644752502441e-02 7.780102729797363281e+00 2.321644306182861328e+00 -7.216063141822814941e-02
2.567000000000000000e+03 4.579648208618164062e+01 1.602167320251464844e+01 9.095047414302825928e-02 7.796569347381591797e+00 2.366255998611450195e+00 -1.739223673939704895e-02
2.568000000000000000e+03 4.614412689208984375e+01 -1.163345050811767578e+01 -3.733062185347080231e-03 7.711271286010742188e+00 2.312261581420898438e+00 -8.265335112810134888e-02
2.569000000000000000e+03 5.377732467651367188e+01 3.698374938964843750e+01 -7.119354559108614922e-04 7.797295093536376953e+00 2.338974952697753906e+00 7.795487064868211746e-03
2.570000000000000000e+03 5.192193984985351562e+01 5.398947715759277344e+00 5.943730473518371582e-02 7.746783733367919922e+00 2.341866254806518555e+00 -7.142989337444305420e-02
2.571000000000000000e+03 4.009805679321289062e+01 2.533013153076171875e+01 8.130622655153274536e-02 7.873352050781250000e+00 2.386397361755371094e+00 2.299717813730239868e-02
2.572000000000000000e+03 6.019108200073242188e+01 3.096869087219238281e+01 1.585740223526954651e-02 7.734855175018310547e+00 2.325213670730590820e+00 -8.301435736939311028e-04
2.573000000000000000e+03 3.834018325805664062e+01 -3.014899063110351562e+01 -1.083281189203262329e-01 7.520135879516601562e+00 2.223542213439941406e+00 -5.854123085737228394e-02
2.574000000000000000e+03 3.507304763793945312e+01 -2.963230705261230469e+01 -5.869515612721443176e-02 7.468937873840332031e+00 2.223072767257690430e+00 -1.467309053987264633e-02
2.575000000000000000e+03 4.752185821533203125e+01 4.023545455932617188e+01 -1.687518320977687836e-02 7.847370624542236328e+00 2.349148511886596680e+00 1.853937469422817230e-02
2.576000000000000000e+03 4.847011947631835938e+01 1.038971614837646484e+01 8.176804333925247192e-02 7.770545005798339844e+00 2.355693817138671875e+00 -4.364962875843048096e-02
2.577000000000000000e+03 4.516884613037109375e+01 1.344057369232177734e+01 9.110509604215621948e-02 7.805859088897705078e+00 2.369089365005493164e+00 -2.467239089310169220e-02
2.578000000000000000e+03 5.113932418823242188e+01 -1.269370079040527344e+01 -1.049933116883039474e-02 7.724069118499755859e+00 2.314070940017700195e+00 -9.720283001661300659e-02
2.579000000000000000e+03 4.987986755371093750e+01 -1.608665275573730469e+01 -2.895221114158630371e-02 7.712573528289794922e+00 2.305086374282836914e+00 -9.085521847009658813e-02
2.580000000000000000e+03 6.106422424316406250e+01 -1.584075736999511719e+01 -8.446829393506050110e-03 7.758022785186767578e+00 2.324872732162475586e+00 -9.604643285274505615e-02
2.581000000000000000e+03 6.107622146606445312e+01 -1.326178836822509766e+01 -2.314587589353322983e-03 7.757032871246337891e+00 2.326415538787841797e+00 -9.499629586935043335e-02
2.582000000000000000e+03 5.855806732177734375e+01 -1.532983398437500000e+01 -7.071403786540031433e-03 7.746192932128906250e+00 2.321736335754394531e+00 -9.858691692352294922e-02
2.583000000000000000e+03 5.972972869873046875e+01 -1.700789642333984375e+01 -2.154685743153095245e-02 7.757510662078857422e+00 2.320789098739624023e+00 -9.504999965429306030e-02
2.584000000000000000e+03 5.798963928222656250e+01 2.135489082336425781e+01 3.683272749185562134e-02 7.741164684295654297e+00 2.333399295806884766e+00 -2.183120511472225189e-02
2.585000000000000000e+03 5.141182327270507812e+01 1.106292343139648438e+01 7.139624655246734619e-02 7.758568286895751953e+00 2.348989248275756836e+00 -4.865943267941474915e-02
2.586000000000000000e+03 4.989013290405273438e+01 1.126976871490478516e+01 7.305033504962921143e-02 7.768758296966552734e+00 2.352542638778686523e+00 -4.529196396470069885e-02
2.587000000000000000e+03 4.717137145996093750e+01 1.206775856018066406e+01 8.384329825639724731e-02 7.781715869903564453e+00 2.359667778015136719e+00 -3.901538997888565063e-02
2.588000000000000000e+03 5.315238952636718750e+01 -1.764142417907714844e+01 -3.496834263205528259e-02 7.726636886596679688e+00 2.307500600814819336e+00 -9.569016098976135254e-02
2.589000000000000000e+03 4.541233062744140625e+01 -1.471749973297119141e+01 -1.698732934892177582e-02 7.694372177124023438e+00 2.303215503692626953e+00 -7.995903491973876953e-02
2.590000000000000000e+03 4.967879104614257812e+01 -1.348712825775146484e+01 -9.056124836206436157e-03 7.716317176818847656e+00 2.312178373336791992e+00 -9.340637177228927612e-02
2.591000000000000000e+03 3.845077514648437500e+01 -2.709180259704589844e+01 -7.316714525222778320e-02 7.556692123413085938e+00 2.245057582855224609e+00 -2.888969518244266510e-02
2.592000000000000000e+03 4.169429016113281250e+01 1.893887519836425781e+01 9.279357641935348511e-02 7.853481769561767578e+00 2.383882761001586914e+00 -1.172599499113857746e-03
2.593000000000000000e+03 4.504112243652343750e+01 2.345352745056152344e+01 6.892108172178268433e-02 7.823111057281494141e+00 2.367609500885009766e+00 2.956778043881058693e-03
2.594000000000000000e+03 6.215309143066406250e+01 2.901355934143066406e+01 1.335418224334716797e-02 7.722192287445068359e+00 2.320663928985595703e+00 -8.566069416701793671e-03
2.595000000000000000e+03 6.140045166015625000e+01 2.486943054199218750e+01 2.179362252354621887e-02 7.723627090454101562e+00 2.323626279830932617e+00 -1.593030057847499847e-02
2.596000000000000000e+03 4.788185119628906250e+01 -7.938051700592041016e+00 1.400747336447238922e-02 7.727345943450927734e+00 2.322406053543090820e+00 -8.827269077301025391e-02
2.597000000000000000e+03 4.162794494628906250e+01 2.764636421203613281e+01 6.307531893253326416e-02 7.850814342498779297e+00 2.374166965484619141e+00 2.035585790872573853e-02
2.598000000000000000e+03 4.437601089477539062e+01 -1.248581695556640625e+01 -3.919431939721107483e-03 7.702770709991455078e+00 2.309655427932739258e+00 -7.139532268047332764e-02
2.599000000000000000e+03 4.713876342773437500e+01 -1.338090991973876953e+01 -8.977336809039115906e-03 7.707216262817382812e+00 2.309471607208251953e+00 -8.568483591079711914e-02
2.600000000000000000e+03 5.520243835449218750e+01 1.010021686553955078e+01 5.604454874992370605e-02 7.746320724487304688e+00 2.340709686279296875e+00 -5.350514128804206848e-02
2.601000000000000000e+03 6.083795166015625000e+01 -1.858406639099121094e+01 -1.517310552299022675e-02 7.761605262756347656e+00 2.323929786682128906e+00 -9.204305708408355713e-02
2.602000000000000000e+03 4.223361968994140625e+01 -1.846256446838378906e+01 -3.240977227687835693e-02 7.653182506561279297e+00 2.286231756210327148e+00 -5.821232497692108154e-02
2.603000000000000000e+03 5.090203475952148438e+01 3.466684341430664062e+01 1.163487043231725693e-02 7.807678699493408203e+00 2.345793962478637695e+00 1.742519810795783997e-02
2.604000000000000000e+03 4.776876831054687500e+01 2.802572441101074219e+01 5.069043487310409546e-02 7.808503627777099609e+00 2.357758283615112305e+00 1.576343365013599396e-02
2.605000000000000000e+03 4.353095626831054688e+01 2.557544708251953125e+01 6.919713318347930908e-02 7.838099002838134766e+00 2.372188806533813477e+00 2.151714637875556946e-02
2.606000000000000000e+03 3.816696548461914062e+01 -2.463376617431640625e+01 -7.062220573425292969e-02 7.564915180206298828e+00 2.248287916183471680e+00 -3.753408789634704590e-02
2.607000000000000000e+03 4.063594818115234375e+01 -2.019785118103027344e+01 -5.648939311504364014e-02 7.635679244995117188e+00 2.273756980895996094e+00 -4.379845783114433289e-02
2.608000000000000000e+03 6.048661422729492188e+01 -2.140832328796386719e+01 -2.496521361172199249e-02 7.764501094818115234e+00 2.321860790252685547e+00 -8.567630499601364136e-02
2.609000000000000000e+03 5.471163940429687500e+01 -1.803133201599121094e+01 -1.953999511897563934e-02 7.732076168060302734e+00 2.313760757446289062e+00 -9.331773966550827026e-02
2.610000000000000000e+03 4.839669799804687500e+01 -1.490060997009277344e+01 -1.521295774728059769e-02 7.709081172943115234e+00 2.308160543441772461e+00 -9.092330932617187500e-02
2.611000000000000000e+03 5.080455780029296875e+01 -1.437462329864501953e+01 -6.135490257292985916e-03 7.718416213989257812e+00 2.313684225082397461e+00 -9.662497043609619141e-02
2.612000000000000000e+03 5.674636459350585938e+01 -1.951695442199707031e+01 -3.279075771570205688e-02 7.745391368865966797e+00 2.313780307769775391e+00 -9.241433441638946533e-02
2.613000000000000000e+03 5.376794052124023438e+01 -1.570132350921630859e+01 -9.100032038986682892e-03 7.728040218353271484e+00 2.315681934356689453e+00 -9.864120930433273315e-02
2.614000000000000000e+03 5.785596847534179688e+01 -2.113077735900878906e+01 -2.523650601506233215e-02 7.745521068572998047e+00 2.316085338592529297e+00 -9.007646143436431885e-02
2.615000000000000000e+03 6.009813308715820312e+01 -2.463262176513671875e+01 -3.351642936468124390e-02 7.767846107482910156e+00 2.320298910140991211e+00 -7.713542878627777100e-02
2.616000000000000000e+03 5.608798980712890625e+01 1.989591789245605469e+01 4.919251054525375366e-02 7.747988224029541016e+00 2.339154243469238281e+00 -2.170876599848270416e-02
2.617000000000000000e+03 5.402659988403320312e+01 1.855631065368652344e+01 5.219279229640960693e-02 7.758574962615966797e+00 2.343230247497558594e+00 -2.724416553974151611e-02
2.618000000000000000e+03 4.834127426147460938e+01 1.926328277587890625e+01 7.831671088933944702e-02 7.786664485931396484e+00 2.359494447708129883e+00 -1.311008166521787643e-02
2.619000000000000000e+03 4.943933105468750000e+01 1.336492443084716797e+01 7.957543432712554932e-02 7.770716667175292969e+00 2.355087518692016602e+00 -3.495716676115989685e-02
2.620000000000000000e+03 5.968685150146484375e+01 2.303210067749023438e+01 3.227089345455169678e-02 7.732602596282958984e+00 2.329462051391601562e+00 -1.590961217880249023e-02
2.621000000000000000e+03 5.808637619018554688e+01 2.844223403930664062e+01 2.158499136567115784e-02 7.747246265411376953e+00 2.330649375915527344e+00 -6.707275286316871643e-03
2.622000000000000000e+03 5.170743179321289062e+01 1.720808410644531250e+01 6.845188140869140625e-02 7.765234470367431641e+00 2.350105762481689453e+00 -2.447261288762092590e-02
2.623000000000000000e+03 5.347035217285156250e+01 1.487717723846435547e+01 5.878686904907226562e-02 7.755781650543212891e+00 2.344370603561401367e+00 -3.888531401753425598e-02
2.624000000000000000e+03 5.513048553466796875e+01 -1.648932075500488281e+01 -2.782717719674110413e-02 7.737198352813720703e+00 2.312811374664306641e+00 -9.827420115470886230e-02
2.625000000000000000e+03 4.400774002075195312e+01 1.950953292846679688e+01 8.731122314929962158e-02 7.828224182128906250e+00 2.374660491943359375e+00 9.566865046508610249e-04
2.626000000000000000e+03 4.702862930297851562e+01 -1.654545974731445312e+01 -3.123383410274982452e-02 7.695038318634033203e+00 2.299141168594360352e+00 -8.259195089340209961e-02
2.627000000000000000e+03 4.199359893798828125e+01 -3.008926773071289062e+01 -1.078291684389114380e-01 7.606369495391845703e+00 2.249562025070190430e+00 -5.182861164212226868e-02
2.628000000000000000e+03 4.546886825561523438e+01 2.707139396667480469e+01 4.917744919657707214e-02 7.829352378845214844e+00 2.363559007644653320e+00 1.292125228792428970e-02
2.629000000000000000e+03 5.489196014404296875e+01 2.189781379699707031e+01 4.384215176105499268e-02 7.758830547332763672e+00 2.340801715850830078e+00 -1.686893031001091003e-02
2.630000000000000000e+03 4.780504608154296875e+01 2.190256500244140625e+01 6.362850964069366455e-02 7.805562019348144531e+00 2.360757112503051758e+00 -4.234834108501672745e-03
2.631000000000000000e+03 4.679199218750000000e+01 2.441406440734863281e+01 6.796163320541381836e-02 7.808047294616699219e+00 2.362802743911743164e+00 9.539514780044555664e-03
2.632000000000000000e+03 4.680575561523437500e+01 3.148663711547851562e+01 1.926647685468196869e-02 7.839206695556640625e+00 2.357542037963867188e+00 2.557283267378807068e-02
2.633000000000000000e+03 5.897546005249023438e+01 -2.262758255004882812e+01 -4.165148362517356873e-02 7.761385440826416016e+00 2.315920114517211914e+00 -8.806242793798446655e-02
2.634000000000000000e+03 5.387154006958007812e+01 -2.937866020202636719e+01 -6.509453058242797852e-02 7.731807231903076172e+00 2.300013780593872070e+00 -6.302351504564285278e-02
2.635000000000000000e+03 4.613420486450195312e+01 2.145493316650390625e+01 7.767318189144134521e-02 7.807516574859619141e+00 2.365556955337524414e+00 8.604612667113542557e-04
2.636000000000000000e+03 4.359162139892578125e+01 2.218819618225097656e+01 8.144281059503555298e-02 7.835673809051513672e+00 2.375134944915771484e+00 9.067893028259277344e-03
2.637000000000000000e+03 4.852381515502929688e+01 -3.501774597167968750e+01 -1.234985888004302979e-01 7.668951988220214844e+00 2.263636112213134766e+00 -4.458129033446311951e-02
2.638000000000000000e+03 5.491314697265625000e+01 2.886976242065429688e+01 2.344752848148345947e-02 7.769834518432617188e+00 2.337984561920166016e+00 2.286152448505163193e-05
2.639000000000000000e+03 4.878319549560546875e+01 -1.800723648071289062e+01 -2.600242570042610168e-02 7.701760292053222656e+00 2.302727460861206055e+00 -8.964941650629043579e-02
2.640000000000000000e+03 4.026215744018554688e+01 -2.383083343505859375e+01 -7.112166285514831543e-02 7.608356952667236328e+00 2.261170625686645508e+00 -3.576560690999031067e-02
2.641000000000000000e+03 4.559151458740234375e+01 -1.842155838012695312e+01 -3.201267868280410767e-02 7.680463314056396484e+00 2.294535160064697266e+00 -7.799748331308364868e-02
2.642000000000000000e+03 5.940082550048828125e+01 -1.981853294372558594e+01 -3.076152876019477844e-02 7.758229255676269531e+00 2.318240404129028320e+00 -9.260634332895278931e-02
2.643000000000000000e+03 5.282745742797851562e+01 2.083670997619628906e+01 5.936934426426887512e-02 7.764336585998535156e+00 2.347111701965332031e+00 -1.461394783109426498e-02
2.644000000000000000e+03 4.754238891601562500e+01 -2.012409210205078125e+01 -5.165069550275802612e-02 7.686152458190917969e+00 2.290350675582885742e+00 -8.223100751638412476e-02
2.645000000000000000e+03 5.816987991333007812e+01 2.455922317504882812e+01 3.140214085578918457e-02 7.741274356842041016e+00 2.331802845001220703e+00 -1.403672061860561371e-02
2.646000000000000000e+03 5.451511764526367188e+01 -2.608176994323730469e+01 -6.473438441753387451e-02 7.728560924530029297e+00 2.299147844314575195e+00 -8.303489536046981812e-02
2.647000000000000000e+03 4.944987487792968750e+01 -3.162704467773437500e+01 -9.203997254371643066e-02 7.697194099426269531e+00 2.281546354293823242e+00 -5.733064562082290649e-02
2.648000000000000000e+03 5.605894470214843750e+01 -1.768418884277343750e+01 -1.866863295435905457e-02 7.734702110290527344e+00 2.314810037612915039e+00 -9.813986718654632568e-02
2.649000000000000000e+03 4.975658416748046875e+01 2.251321220397949219e+01 6.584323942661285400e-02 7.785354614257812500e+00 2.355359315872192383e+00 -3.753992030397057533e-03
2.650000000000000000e+03 5.626940536499023438e+01 -3.346514511108398438e+01 -7.295194268226623535e-02 7.750851631164550781e+00 2.303369998931884766e+00 -4.848536103963851929e-02
2.651000000000000000e+03 5.270893096923828125e+01 2.857791709899902344e+01 3.382867574691772461e-02 7.779039859771728516e+00 2.343860387802124023e+00 2.817090135067701340e-03
2.652000000000000000e+03 5.026949310302734375e+01 2.841987800598144531e+01 3.297045826911926270e-02 7.805001735687255859e+00 2.351391553878784180e+00 1.117981970310211182e-02
2.653000000000000000e+03 5.325492858886718750e+01 2.630551719665527344e+01 3.662379086017608643e-02 7.778337478637695312e+00 2.344488382339477539e+00 -9.476986597292125225e-04
2.654000000000000000e+03 5.397710800170898438e+01 2.406818962097167969e+01 4.760484024882316589e-02 7.763580799102783203e+00 2.343355655670166016e+00 -7.191922515630722046e-03
2.655000000000000000e+03 4.695381927490234375e+01 -2.704706764221191406e+01 -7.222262769937515259e-02 7.664669036865234375e+00 2.277733802795410156e+00 -6.819708645343780518e-02
2.656000000000000000e+03 4.418875885009765625e+01 -2.494226646423339844e+01 -8.389119058847427368e-02 7.640075683593750000e+00 2.266855239868164062e+00 -6.880270689725875854e-02
2.657000000000000000e+03 5.472872924804687500e+01 -2.290829849243164062e+01 -3.949357196688652039e-02 7.733277797698974609e+00 2.308135271072387695e+00 -8.396190404891967773e-02
2.658000000000000000e+03 5.135698699951171875e+01 -2.530775451660156250e+01 -5.656217783689498901e-02 7.707803249359130859e+00 2.295372247695922852e+00 -7.803954184055328369e-02
2.659000000000000000e+03 4.970610046386718750e+01 -2.148925590515136719e+01 -4.004415124654769897e-02 7.700150012969970703e+00 2.298031806945800781e+00 -8.602454513311386108e-02
2.660000000000000000e+03 5.065555572509765625e+01 1.988312339782714844e+01 6.129022315144538879e-02 7.783098697662353516e+00 2.353316545486450195e+00 -1.610436476767063141e-02
2.661000000000000000e+03 5.268391418457031250e+01 -1.987604713439941406e+01 -2.815472334623336792e-02 7.720251560211181641e+00 2.307629108428955078e+00 -9.135359525680541992e-02
2.662000000000000000e+03 4.228413391113281250e+01 -2.238841629028320312e+01 -5.102286115288734436e-02 7.624387264251708984e+00 2.272009372711181641e+00 -5.863078311085700989e-02
2.663000000000000000e+03 5.212644577026367188e+01 -2.244712638854980469e+01 -5.624090507626533508e-02 7.714059829711914062e+00 2.297345638275146484e+00 -8.940004557371139526e-02
2.664000000000000000e+03 4.850379943847656250e+01 -2.411379432678222656e+01 -7.251041382551193237e-02 7.683508872985839844e+00 2.283299446105957031e+00 -8.078562468290328979e-02
2.665000000000000000e+03 5.621057128906250000e+01 2.487407875061035156e+01 3.321620076894760132e-02 7.756704807281494141e+00 2.336976289749145508e+00 -8.573246188461780548e-03
2.666000000000000000e+03 4.607509994506835938e+01 -2.245524787902832031e+01 -5.113050341606140137e-02 7.670596122741699219e+00 2.285839796066284180e+00 -7.639265060424804688e-02
2.667000000000000000e+03 5.833767318725585938e+01 -1.823466110229492188e+01 -1.680750027298927307e-02 7.747927188873291016e+00 2.319335937500000000e+00 -9.474141150712966919e-02
2.668000000000000000e+03 1.030631637573242188e+01 2.091652154922485352e+00 -2.210511714220046997e-01 1.673136353492736816e+00 4.356255531311035156e-01 -9.684383273124694824e-01
2.669000000000000000e+03 9.999169349670410156e+00 2.193163633346557617e+00 -3.118881285190582275e-01 1.267727613449096680e+00 2.867518365383148193e-01 -7.023017406463623047e-01
2.670000000000000000e+03 1.079752063751220703e+01 2.013876914978027344e+00 -8.027295023202896118e-02 2.507774114608764648e+00 7.282503247261047363e-01 -1.693789243698120117e+00
2.671000000000000000e+03 1.153604221343994141e+01 1.611835360527038574e+00 6.547191878780722618e-04 3.986313819885253906e+00 1.196090579032897949e+00 -3.031547784805297852e+00
2.672000000000000000e+03 1.251791286468505859e+01 1.560340404510498047e+00 -1.798610806465148926e+00 1.138270187377929688e+01 2.875227451324462891e+00 -4.238158226013183594e+00
2.673000000000000000e+03 1.268843173980712891e+01 1.571890234947204590e+00 -2.303020238876342773e+00 1.280647468566894531e+01 3.151036500930786133e+00 -3.934070587158203125e+00
2.674000000000000000e+03 1.365754890441894531e+01 1.714074730873107910e+00 -3.494037389755249023e+00 1.503137207031250000e+01 3.461200475692749023e+00 1.876760125160217285e+00
2.675000000000000000e+03 1.398297405242919922e+01 1.744420170783996582e+00 -2.506051301956176758e+00 1.285841369628906250e+01 3.105708599090576172e+00 3.004592180252075195e+00
2.676000000000000000e+03 1.383523464202880859e+01 1.548025250434875488e+00 -2.842578649520874023e+00 1.471170806884765625e+01 3.560739040374755859e+00 3.004756927490234375e+00
2.677000000000000000e+03 1.473280715942382812e+01 2.854320108890533447e-01 3.245048284530639648e+00 2.256015777587890625e+00 1.650319218635559082e+00 8.626708388328552246e-01
2.678000000000000000e+03 1.482483482360839844e+01 -4.042087495326995850e-01 4.500262439250946045e-01 -3.705669403076171875e+00 -9.766929745674133301e-01 -2.611476369202136993e-02
2.679000000000000000e+03 1.344147872924804688e+01 -1.647904157638549805e+00 -3.222041368484497070e+00 1.612937164306640625e+01 3.872199058532714844e+00 -5.860574841499328613e-01
2.680000000000000000e+03 1.287137794494628906e+01 -1.658479571342468262e+00 -2.756061792373657227e+00 1.502884387969970703e+01 3.681834697723388672e+00 3.011388063430786133e+00
2.681000000000000000e+03 1.269458389282226562e+01 -1.672361254692077637e+00 -2.038855075836181641e+00 1.321027374267578125e+01 3.351425647735595703e+00 3.887518644332885742e+00
2.682000000000000000e+03 1.210065460205078125e+01 -1.925336837768554688e+00 -5.331147313117980957e-01 7.922932147979736328e+00 2.216945171356201172e+00 3.973307609558105469e+00
2.683000000000000000e+03 1.187945842742919922e+01 -1.671724796295166016e+00 2.454764246940612793e-01 6.247112274169921875e+00 1.947776675224304199e+00 4.318143844604492188e+00
2.684000000000000000e+03 1.126263618469238281e+01 -1.696931838989257812e+00 4.224371016025543213e-01 3.111073255538940430e+00 1.060053110122680664e+00 2.604774951934814453e+00
2.685000000000000000e+03 1.010652351379394531e+01 -1.658216118812561035e+00 -5.299510359764099121e-01 8.145438432693481445e-01 8.537782728672027588e-02 6.992765069007873535e-01
2.686000000000000000e+03 9.686283111572265625e+00 -2.301568031311035156e+00 -8.655271679162979126e-02 9.328342676162719727e-01 2.538844645023345947e-01 6.686488986015319824e-01
2.687000000000000000e+03 7.904487609863281250e+01 4.130551147460937500e+01 -4.542256239801645279e-03 7.590741157531738281e+00 2.275859594345092773e+00 -2.387246116995811462e-03
2.688000000000000000e+03 7.710463714599609375e+01 4.063112640380859375e+01 -9.236573823727667332e-04 7.603397846221923828e+00 2.280742168426513672e+00 4.692601971328258514e-03
2.689000000000000000e+03 2.289474487304687500e+01 3.539684677124023438e+01 7.648479342460632324e-01 7.771067619323730469e+00 2.560774803161621094e+00 -3.468517363071441650e-01
2.690000000000000000e+03 1.046820640563964844e+01 -3.743445968627929688e+01 1.335293203592300415e-01 4.653390884399414062e+00 1.436076045036315918e+00 4.967938959598541260e-01
2.691000000000000000e+03 1.266997051239013672e+01 -3.788886260986328125e+01 -6.201133728027343750e-01 5.020976066589355469e+00 1.320258736610412598e+00 2.585684657096862793e-01
2.692000000000000000e+03 1.464237594604492188e+01 5.847133398056030273e-01 8.254299163818359375e-01 4.519870281219482422e+00 1.603590130805969238e+00 2.258613586425781250e+00
2.693000000000000000e+03 7.731114959716796875e+01 4.185101699829101562e+01 -2.585533307865262032e-03 7.600699901580810547e+00 2.279434442520141602e+00 2.949487417936325073e-03
2.694000000000000000e+03 1.363274765014648438e+01 -2.734488010406494141e+00 -1.868713140487670898e+00 1.148243808746337891e+01 2.884117603302001953e+00 -7.296183705329895020e-01
2.695000000000000000e+03 1.444089317321777344e+01 1.400951385498046875e+00 -2.861950397491455078e+00 7.766164302825927734e+00 1.471264243125915527e+00 4.439213275909423828e+00
2.696000000000000000e+03 1.188500785827636719e+01 1.957068562507629395e+00 -5.915814638137817383e-01 6.466952323913574219e+00 1.762611269950866699e+00 -3.454256296157836914e+00
2.697000000000000000e+03 1.144121170043945312e+01 2.018045663833618164e+00 -1.136888712644577026e-01 4.486470699310302734e+00 1.311834573745727539e+00 -2.838095426559448242e+00
2.698000000000000000e+03 1.117532157897949219e+01 2.124710559844970703e+00 -1.409839987754821777e-01 3.739541292190551758e+00 1.079567193984985352e+00 -2.289953708648681641e+00
2.699000000000000000e+03 1.268599987030029297e+01 1.906881928443908691e+00 -2.242962837219238281e+00 1.173434448242187500e+01 2.847414493560791016e+00 -2.706391572952270508e+00
2.700000000000000000e+03 1.236800098419189453e+01 1.836607217788696289e+00 -1.451093554496765137e+00 9.640261650085449219e+00 2.456750631332397461e+00 -3.569129467010498047e+00
2.701000000000000000e+03 1.223937225341796875e+01 2.233137607574462891e+00 -1.287142872810363770e+00 8.532793998718261719e+00 2.173695325851440430e+00 -2.954908609390258789e+00
2.702000000000000000e+03 1.000079727172851562e+01 -2.152021646499633789e+00 -3.748856484889984131e-02 1.323392271995544434e+00 3.857711255550384521e-01 8.478209376335144043e-01
2.703000000000000000e+03 9.850206375122070312e+00 -1.887567639350891113e+00 -4.243315160274505615e-01 7.884147763252258301e-01 1.092249825596809387e-01 5.411951541900634766e-01
2.704000000000000000e+03 1.121644783020019531e+01 2.439507961273193359e+00 -1.058098673820495605e-01 4.243442058563232422e+00 1.241289615631103516e+00 -2.225741863250732422e+00
2.705000000000000000e+03 9.244130134582519531e+00 -2.860431194305419922e+00 1.216366514563560486e-01 1.257374048233032227e+00 4.137032330036163330e-01 4.215207397937774658e-01
2.706000000000000000e+03 1.419575500488281250e+01 1.977222561836242676e+00 -1.334724903106689453e+00 1.139038562774658203e+01 3.016698360443115234e+00 2.536882638931274414e+00
2.707000000000000000e+03 1.418692874908447266e+01 1.571915149688720703e+00 -1.788847088813781738e+00 1.154081344604492188e+01 2.925590038299560547e+00 3.960835933685302734e+00
2.708000000000000000e+03 1.375847911834716797e+01 1.937282085418701172e+00 -2.534850120544433594e+00 1.336294651031494141e+01 3.248428821563720703e+00 1.849526882171630859e+00
2.709000000000000000e+03 1.387811279296875000e+01 2.308347702026367188e+00 -1.980540156364440918e+00 1.187682247161865234e+01 2.968884706497192383e+00 1.627050042152404785e+00
2.710000000000000000e+03 7.820667266845703125e+01 -3.588429260253906250e+01 -4.240856040269136429e-03 7.965632438659667969e+00 2.388417482376098633e+00 -2.714823931455612183e-03
2.711000000000000000e+03 7.656149291992187500e+01 3.632682800292968750e+01 1.394049962982535362e-03 7.605354785919189453e+00 2.282024621963500977e+00 -1.715019752737134695e-04
2.712000000000000000e+03 2.085034608840942383e+00 3.552790451049804688e+01 3.405576199293136597e-02 -9.203760027885437012e-01 -2.658960819244384766e-01 -2.740998566150665283e-01
2.713000000000000000e+03 5.004533767700195312e+01 3.139265441894531250e+01 2.451867982745170593e-02 7.804272651672363281e+00 2.348637342453002930e+00 9.924210608005523682e-03
2.714000000000000000e+03 9.110854148864746094e+00 3.568825531005859375e+01 -1.819360256195068359e-01 2.855712652206420898e+00 8.021329641342163086e-01 -3.281970322132110596e-01
2.715000000000000000e+03 1.260486221313476562e+01 3.662704086303710938e+01 -2.204821556806564331e-01 4.055246829986572266e+00 1.150429487228393555e+00 5.269546061754226685e-02
2.716000000000000000e+03 4.535964965820312500e+01 -3.386896514892578125e+01 -1.287306994199752808e-01 7.649154186248779297e+00 2.256127119064331055e+00 -4.439624771475791931e-02
2.717000000000000000e+03 1.157687282562255859e+01 3.532564544677734375e+01 -1.891930401325225830e-01 3.948467254638671875e+00 1.127782225608825684e+00 -6.234179064631462097e-02
2.718000000000000000e+03 1.462564849853515625e+01 1.902672290802001953e+00 -3.264313638210296631e-01 8.319770812988281250e+00 2.398001670837402344e+00 2.455537319183349609e+00
2.719000000000000000e+03 1.267911338806152344e+01 2.183451175689697266e+00 -2.072045087814331055e+00 1.095893383026123047e+01 2.666066646575927734e+00 -2.380929708480834961e+00
2.720000000000000000e+03 1.191765308380126953e+01 2.357677221298217773e+00 -7.158756852149963379e-01 6.856635093688964844e+00 1.842227816581726074e+00 -2.938674211502075195e+00
2.721000000000000000e+03 1.206234836578369141e+01 2.816662311553955078e+00 -1.003225684165954590e+00 7.475456237792968750e+00 1.941669106483459473e+00 -2.184890508651733398e+00
2.722000000000000000e+03 1.051094913482666016e+01 8.800186157226562500e+00 4.672793447971343994e-01 4.824187755584716797e+00 1.587440133094787598e+00 -3.705166280269622803e-01
2.723000000000000000e+03 1.092004585266113281e+01 -2.979823350906372070e+00 1.904230266809463501e-01 4.016000747680664062e+00 1.261927008628845215e+00 1.957056045532226562e+00
2.724000000000000000e+03 8.843152999877929688e+00 -3.534371137619018555e+00 3.356640040874481201e-01 1.357117295265197754e+00 5.078343749046325684e-01 2.020640522241592407e-01
2.725000000000000000e+03 1.158056354522705078e+01 2.902195930480957031e+00 -4.076059460639953613e-01 5.864136219024658203e+00 1.636959075927734375e+00 -2.140757560729980469e+00
2.726000000000000000e+03 2.399829292297363281e+01 -2.215246009826660156e+01 -1.176609396934509277e-01 7.349990844726562500e+00 2.169698953628540039e+00 1.656308025121688843e-01
2.727000000000000000e+03 1.055453205108642578e+01 3.467492294311523438e+01 -4.998942837119102478e-02 3.565126657485961914e+00 1.054541230201721191e+00 -2.350460290908813477e-01
2.728000000000000000e+03 9.361387252807617188e+00 3.431875610351562500e+01 -4.776090011000633240e-02 3.057241439819335938e+00 9.028441309928894043e-01 -2.658294737339019775e-01
2.729000000000000000e+03 1.204534244537353516e+01 -3.041766405105590820e+00 -6.796058416366577148e-01 7.362492561340332031e+00 2.004866123199462891e+00 2.272850751876831055e+00
2.730000000000000000e+03 1.273312854766845703e+01 -2.922987461090087891e+00 -1.403930902481079102e+00 9.701591491699218750e+00 2.489298105239868164e+00 1.531134963035583496e+00
2.731000000000000000e+03 1.135522842407226562e+01 3.024027442932128906e+01 2.792540490627288818e-01 4.673049926757812500e+00 1.485691189765930176e+00 8.125079423189163208e-02
2.732000000000000000e+03 9.695407867431640625e+00 -1.330659103393554688e+01 1.847474575042724609e-01 4.323727607727050781e+00 1.352542519569396973e+00 1.487297862768173218e-01
2.733000000000000000e+03 5.266017150878906250e+01 3.090324974060058594e+01 2.005000412464141846e-02 7.790546894073486328e+00 2.343178987503051758e+00 1.022128947079181671e-02
2.734000000000000000e+03 1.137366867065429688e+01 4.115955352783203125e+00 2.627043984830379486e-02 5.441783905029296875e+00 1.640416264533996582e+00 -1.299184203147888184e+00
2.735000000000000000e+03 5.483409881591796875e+01 3.059139251708984375e+01 2.260283380746841431e-02 7.767296314239501953e+00 2.336969852447509766e+00 2.728775507421232760e-05
2.736000000000000000e+03 5.571716690063476562e+01 2.697918510437011719e+01 3.506019338965415955e-02 7.756989002227783203e+00 2.337614774703979492e+00 -2.944171428680419922e-03
2.737000000000000000e+03 4.179610061645507812e+01 -3.376541519165039062e+01 -1.429899334907531738e-01 7.584577083587646484e+00 2.232475996017456055e+00 -6.158121675252914429e-02
2.738000000000000000e+03 1.301154136657714844e+01 -2.668854713439941406e+00 -1.947059988975524902e+00 1.108006381988525391e+01 2.739901065826416016e+00 8.708221912384033203e-01
2.739000000000000000e+03 7.488758087158203125e+01 3.497998428344726562e+01 -5.131277721375226974e-04 7.627733707427978516e+00 2.288166046142578125e+00 -9.422579314559698105e-04
2.740000000000000000e+03 5.657656097412109375e+01 2.993332672119140625e+01 2.239346317946910858e-02 7.757312774658203125e+00 2.333911895751953125e+00 2.933223498985171318e-03
2.741000000000000000e+03 1.104977321624755859e+01 -3.611393928527832031e+00 6.817614287137985229e-02 4.597643852233886719e+00 1.399746060371398926e+00 1.734698534011840820e+00
2.742000000000000000e+03 1.217808914184570312e+01 -2.955802154541015625e+01 -6.137143075466156006e-02 6.123963356018066406e+00 1.818777680397033691e+00 9.075234830379486084e-02
2.743000000000000000e+03 1.076187515258789062e+01 7.209558010101318359e+00 4.201322197914123535e-01 4.964848518371582031e+00 1.615494132041931152e+00 -5.834819078445434570e-01
2.744000000000000000e+03 8.417734146118164062e+00 2.443623352050781250e+01 2.093800455331802368e-01 3.141095876693725586e+00 1.005142807960510254e+00 -9.038840979337692261e-02
2.745000000000000000e+03 4.077799987792968750e+01 2.188946342468261719e+01 8.934668451547622681e-02 7.866243362426757812e+00 2.386677026748657227e+00 9.763141162693500519e-03
2.746000000000000000e+03 5.182987594604492188e+01 2.325508117675781250e+01 4.902525991201400757e-02 7.782016277313232422e+00 2.349312543869018555e+00 -6.456961855292320251e-03
2.747000000000000000e+03 6.983678817749023438e+00 1.832549858093261719e+01 1.536483615636825562e-01 2.201935768127441406e+00 7.066752314567565918e-01 2.849344722926616669e-02
2.748000000000000000e+03 8.535660743713378906e+00 -2.456929206848144531e+01 -3.982765972614288330e-02 3.364223241806030273e+00 9.973186850547790527e-01 6.163271144032478333e-02
2.749000000000000000e+03 1.087992572784423828e+01 -4.022035598754882812e+00 1.771517693996429443e-01 4.447009086608886719e+00 1.387248158454895020e+00 1.425489187240600586e+00
2.750000000000000000e+03 4.247966766357421875e+01 2.065312957763671875e+01 8.986551314592361450e-02 7.834661006927490234e+00 2.377357959747314453e+00 -1.204759464599192142e-03
2.751000000000000000e+03 4.404521179199218750e+01 -2.046834754943847656e+01 -5.545614659786224365e-02 7.657075881958007812e+00 2.280485868453979492e+00 -7.043677568435668945e-02
2.752000000000000000e+03 3.892494583129882812e+01 -2.163362312316894531e+01 -4.992530122399330139e-02 7.599720478057861328e+00 2.264938592910766602e+00 -4.014773666858673096e-02
2.753000000000000000e+03 9.309926033020019531e+00 -2.112909698486328125e+01 3.516174480319023132e-02 4.092185974121093750e+00 1.238204360008239746e+00 6.811156123876571655e-02
2.754000000000000000e+03 8.397710800170898438e+00 -1.768550109863281250e+01 1.760067231953144073e-02 3.272596359252929688e+00 9.870591163635253906e-01 7.968395203351974487e-02
2.755000000000000000e+03 8.030217170715332031e+00 2.848875427246093750e+01 1.769310534000396729e-01 2.542825222015380859e+00 8.159269094467163086e-01 -2.440742701292037964e-01
2.756000000000000000e+03 8.327453613281250000e+00 -7.662777900695800781e+00 5.950253009796142578e-01 2.469560146331787109e+00 9.193756580352783203e-01 1.631494760513305664e-01
2.757000000000000000e+03 4.131643295288085938e+00 6.707223415374755859e+00 2.971184849739074707e-01 -2.750525474548339844e-01 6.619784049689769745e-03 6.963305473327636719e-01
2.758000000000000000e+03 2.583779335021972656e+01 -1.600146865844726562e+01 -2.087210537865757942e-03 7.521219253540039062e+00 2.255739688873291016e+00 1.199332922697067261e-01
2.759000000000000000e+03 6.631870746612548828e+00 1.320303058624267578e+01 2.676276564598083496e-01 1.864663720130920410e+00 6.396874189376831055e-01 1.164805442094802856e-01
2.760000000000000000e+03 4.524021530151367188e+01 1.818957328796386719e+01 8.139809966087341309e-02 7.811220169067382812e+00 2.367785453796386719e+00 -1.555423624813556671e-02
2.761000000000000000e+03 8.876785278320312500e+00 -2.211278915405273438e+01 -4.083760082721710205e-02 3.657521963119506836e+00 1.085005283355712891e+00 6.586747616529464722e-02
2.762000000000000000e+03 2.626793861389160156e+01 2.447377586364746094e+01 4.700449854135513306e-02 8.167021751403808594e+00 2.464207649230957031e+00 -5.147091671824455261e-02
2.763000000000000000e+03 8.782358169555664062e+00 -9.602545738220214844e+00 4.340207278728485107e-01 3.195240736007690430e+00 1.088778376579284668e+00 1.798803657293319702e-01
2.764000000000000000e+03 6.519152641296386719e+00 9.610817909240722656e+00 4.100413322448730469e-01 1.420748591423034668e+00 5.492369532585144043e-01 2.445738464593887329e-01
2.765000000000000000e+03 2.777748107910156250e+01 -1.592083644866943359e+01 -7.290421985089778900e-03 7.552194595336914062e+00 2.263471364974975586e+00 9.327726811170578003e-02
2.766000000000000000e+03 7.377175903320312500e+01 -2.635196685791015625e+01 -4.728914238512516022e-03 7.874162197113037109e+00 2.360830068588256836e+00 -3.904842957854270935e-02
2.767000000000000000e+03 7.463426589965820312e+00 2.743958282470703125e+01 1.766053587198257446e-01 2.207701921463012695e+00 7.152921557426452637e-01 -2.254296988248825073e-01
2.768000000000000000e+03 2.751457786560058594e+01 -1.375834941864013672e+01 3.108459711074829102e-02 7.582387924194335938e+00 2.284041881561279297e+00 1.219886615872383118e-01
2.769000000000000000e+03 2.884360885620117188e+01 2.118961811065673828e+00 9.767101705074310303e-02 7.933195114135742188e+00 2.409259796142578125e+00 5.651056393980979919e-02
2.770000000000000000e+03 3.311541748046875000e+01 1.619412994384765625e+01 9.415835887193679810e-02 7.988563060760498047e+00 2.424816370010375977e+00 1.028263289481401443e-02
2.771000000000000000e+03 3.279348754882812500e+01 1.475142669677734375e+01 1.013728380203247070e-01 7.972894191741943359e+00 2.422280073165893555e+00 2.624777518212795258e-02
2.772000000000000000e+03 3.492835617065429688e+01 -1.485975551605224609e+01 -3.198673203587532043e-02 7.643915176391601562e+00 2.283578395843505859e+00 6.568400189280509949e-03
2.773000000000000000e+03 3.516623687744140625e+01 -1.245087051391601562e+01 1.621682429686188698e-03 7.675643920898437500e+00 2.303179740905761719e+00 1.394032780081033707e-02
2.774000000000000000e+03 7.221142578125000000e+01 1.937213706970214844e+01 7.049175910651683807e-03 7.660335063934326172e+00 2.300215244293212891e+00 -1.975811086595058441e-02
2.775000000000000000e+03 5.729982757568359375e+01 -1.660745048522949219e+01 -2.393323369324207306e-02 7.746068954467773438e+00 2.316640615463256836e+00 -9.824200719594955444e-02
2.776000000000000000e+03 4.886268997192382812e+01 8.063003540039062500e+00 7.606989145278930664e-02 7.767210960388183594e+00 2.352984428405761719e+00 -5.382749810814857483e-02
2.777000000000000000e+03 5.225971603393554688e+01 -1.497459316253662109e+01 -2.385149151086807251e-02 7.725266933441162109e+00 2.310424566268920898e+00 -9.530340135097503662e-02
2.778000000000000000e+03 4.774293518066406250e+01 -5.396460056304931641e+00 2.819882892072200775e-02 7.735653400421142578e+00 2.329155683517456055e+00 -8.466479182243347168e-02
2.779000000000000000e+03 3.019367980957031250e+01 1.398942661285400391e+01 8.762854337692260742e-02 8.050563812255859375e+00 2.441457748413085938e+00 4.210950061678886414e-02
2.780000000000000000e+03 5.032377243041992188e+01 7.818414211273193359e+00 7.238036394119262695e-02 7.755006313323974609e+00 2.348216056823730469e+00 -5.856689438223838806e-02
2.781000000000000000e+03 4.661732482910156250e+01 -4.153089046478271484e+00 3.774687647819519043e-02 7.739933490753173828e+00 2.333304166793823242e+00 -8.137808740139007568e-02
2.782000000000000000e+03 3.053679084777832031e+01 -2.835257768630981445e+00 2.297818474471569061e-02 7.839858531951904297e+00 2.358850955963134766e+00 4.872546344995498657e-02
2.783000000000000000e+03 3.457532119750976562e+01 -7.541828632354736328e+00 1.305644121021032333e-02 7.737021446228027344e+00 2.325023412704467773e+00 8.364805951714515686e-03
2.784000000000000000e+03 3.339011764526367188e+01 -7.698499202728271484e+00 1.944632083177566528e-02 7.737684249877929688e+00 2.327139139175415039e+00 3.272816166281700134e-02
2.785000000000000000e+03 6.741300964355468750e+01 3.704627275466918945e+00 1.561000477522611618e-02 7.721672058105468750e+00 2.321184635162353516e+00 -6.201420351862907410e-02
2.786000000000000000e+03 3.100250625610351562e+01 -4.199182510375976562e+00 2.315669134259223938e-02 7.811801910400390625e+00 2.350487470626831055e+00 5.579425394535064697e-02
2.787000000000000000e+03 3.689246749877929688e+01 6.218195438385009766e+00 1.108083948493003845e-01 7.851689338684082031e+00 2.388749361038208008e+00 -1.052463240921497345e-02
2.788000000000000000e+03 6.890333557128906250e+01 3.471880197525024414e+00 1.293281372636556625e-02 7.715911388397216797e+00 2.318653106689453125e+00 -5.935230478644371033e-02
2.789000000000000000e+03 5.731052017211914062e+01 -2.972142934799194336e+00 2.624157816171646118e-02 7.739737510681152344e+00 2.329793691635131836e+00 -9.287203103303909302e-02
2.790000000000000000e+03 3.528051376342773438e+01 2.372011423110961914e+00 9.540014714002609253e-02 7.840126991271972656e+00 2.380658149719238281e+00 -1.103444863110780716e-02
2.791000000000000000e+03 9.797922134399414062e+00 3.645483255386352539e-01 -4.126952171325683594e+00 1.269315779209136963e-01 -1.200006127357482910e+00 4.110260903835296631e-01
2.792000000000000000e+03 9.704684257507324219e+00 1.363553255796432495e-01 -4.869940280914306641e+00 4.908847063779830933e-02 -1.446255564689636230e+00 1.797937601804733276e-01
2.793000000000000000e+03 7.119209766387939453e+00 1.129706025123596191e+00 -1.893434524536132812e+00 2.449188008904457092e-02 -5.606827735900878906e-01 5.757362842559814453e-01
2.794000000000000000e+03 7.474165439605712891e+00 3.663325607776641846e-01 -3.113858461380004883e+00 6.771963834762573242e-02 -9.138416647911071777e-01 2.632316648960113525e-01
2.795000000000000000e+03 4.812977313995361328e+00 1.145361900329589844e+00 -1.107235789299011230e+00 -4.483081772923469543e-02 -3.456200063228607178e-01 5.696278214454650879e-01
2.796000000000000000e+03 4.425186157226562500e+00 4.053619205951690674e-01 -1.194667935371398926e+00 -7.363858632743358612e-03 -3.606095612049102783e-01 2.256452292203903198e-01
2.797000000000000000e+03 2.504436731338500977e+00 1.140287876129150391e+00 -3.732757270336151123e-01 -8.956585079431533813e-02 -1.388524770736694336e-01 3.513635098934173584e-01
2.798000000000000000e+03 2.118108272552490234e+00 4.002878665924072266e-01 -2.233287692070007324e-01 -2.678511664271354675e-02 -7.503416389226913452e-02 1.150396913290023804e-01
2.799000000000000000e+03 1.750035881996154785e+00 1.140649914741516113e+00 -2.002150565385818481e-01 -1.188907846808433533e-01 -9.573175758123397827e-02 2.362619787454605103e-01
2.800000000000000000e+03 2.886148214340209961e+00 4.000267684459686279e-01 -4.742046296596527100e-01 -1.460761763155460358e-02 -1.466436684131622314e-01 1.613014340400695801e-01
2.801000000000000000e+03 1.063266873359680176e+00 1.158575057983398438e+00 -9.107200801372528076e-02 -1.225522011518478394e-01 -6.408726423978805542e-02 1.347516179084777832e-01
2.802000000000000000e+03 6.779135465621948242e-01 4.185750186443328857e-01 -1.592758111655712128e-02 -1.953239925205707550e-02 -1.063799392431974411e-02 2.007375471293926239e-02
2.803000000000000000e+03 3.736236989498138428e-01 9.678763747215270996e-01 -1.318534556776285172e-02 -4.903038218617439270e-02 -1.866471953690052032e-02 2.942171692848205566e-02
2.804000000000000000e+03 3.655576705932617188e+00 4.015439748764038086e-01 -8.076456785202026367e-01 -2.190465666353702545e-02 -2.488651126623153687e-01 1.917721778154373169e-01
2.805000000000000000e+03 5.963733196258544922e+00 3.979317545890808105e-01 -2.096071720123291016e+00 -4.635293968021869659e-03 -6.302121281623840332e-01 2.573879659175872803e-01
2.806000000000000000e+03 5.194619655609130859e+00 4.030780196189880371e-01 -1.629674315452575684e+00 -1.275926455855369568e-02 -4.927300512790679932e-01 2.392036467790603638e-01
2.807000000000000000e+03 6.352499485015869141e+00 1.137931704521179199e+00 -1.665860176086425781e+00 -2.991271205246448517e-02 -5.087318420410156250e-01 6.081975102424621582e-01
2.808000000000000000e+03 6.729956150054931641e+00 3.897059857845306396e-01 -2.591800689697265625e+00 -2.087292075157165527e-02 -7.838020920753479004e-01 2.704350054264068604e-01
2.809000000000000000e+03 7.863906383514404297e+00 1.106332540512084961e+00 -2.107282876968383789e+00 6.798621267080307007e-02 -6.117889881134033203e-01 5.626549720764160156e-01
2.810000000000000000e+03 8.510214805603027344e+00 8.466540575027465820e-01 -2.638198375701904297e+00 -4.947566986083984375e-02 -8.063021898269653320e-01 4.981994628906250000e-01
2.811000000000000000e+03 9.515595436096191406e+00 6.890522837638854980e-01 -3.366677761077880859e+00 -7.868723943829536438e-03 -1.012363910675048828e+00 1.863195151090621948e-01
2.812000000000000000e+03 9.799559593200683594e+00 1.142818212509155273e+00 -1.823076844215393066e+00 1.110620424151420593e-01 -5.136044621467590332e-01 -6.427378207445144653e-02
2.813000000000000000e+03 9.479413032531738281e+00 9.458740949630737305e-01 -2.650535345077514648e+00 -2.089016698300838470e-02 -8.014276027679443359e-01 1.377755999565124512e-01
2.814000000000000000e+03 9.690546035766601562e+00 1.366736531257629395e+00 -1.342295646667480469e+00 3.351550400257110596e-01 -3.021421730518341064e-01 2.795404009521007538e-02
2.815000000000000000e+03 9.377774238586425781e+00 3.862135410308837891e-01 -4.157701969146728516e+00 -5.569302663207054138e-02 -1.264018416404724121e+00 2.977544069290161133e-01
2.816000000000000000e+03 9.845221519470214844e+00 7.563377618789672852e-01 -2.786255836486816406e+00 9.957906603813171387e-02 -8.060030341148376465e-01 1.757532358169555664e-01
2.817000000000000000e+03 9.076241493225097656e+00 1.229828834533691406e+00 -1.962096095085144043e+00 1.585077047348022461e-01 -5.410765409469604492e-01 3.765406608581542969e-01
2.818000000000000000e+03 8.820053100585937500e+00 3.116657435894012451e-01 -4.018024921417236328e+00 -6.281118839979171753e-02 -1.224250912666320801e+00 1.956213116645812988e-01
2.819000000000000000e+03 5.582898616790771484e+00 1.143077969551086426e+00 -1.386871457099914551e+00 -2.290732413530349731e-02 -4.229336380958557129e-01 6.055593490600585938e-01
2.820000000000000000e+03 4.042880535125732422e+00 1.141543984413146973e+00 -8.358058333396911621e-01 -4.961321502923965454e-02 -2.656257152557373047e-01 5.233410000801086426e-01
2.821000000000000000e+03 3.272964239120483398e+00 1.140026807785034180e+00 -5.863866806030273438e-01 -7.919892668724060059e-02 -1.996756792068481445e-01 4.461410939693450928e-01
2.822000000000000000e+03 8.157079696655273438e+00 2.964190542697906494e-01 -3.571191310882568359e+00 2.097914926707744598e-02 -1.065063595771789551e+00 1.346868574619293213e-01
2.823000000000000000e+03 9.836091041564941406e+00 9.517587423324584961e-01 -2.582490682601928711e+00 1.036413982510566711e-01 -7.436547875404357910e-01 1.342936903238296509e-01
2.824000000000000000e+03 9.833024978637695312e+00 5.688526630401611328e-01 -3.892102003097534180e+00 1.088386401534080505e-01 -1.134979009628295898e+00 2.600202560424804688e-01
2.825000000000000000e+03 1.364194989204406738e+00 4.006498456001281738e-01 -7.339563965797424316e-02 -2.673123963177204132e-02 -3.003806248307228088e-02 6.213453784584999084e-02
2.826000000000000000e+03 1.290042018890380859e+01 -6.008461862802505493e-02 3.337506103515625000e+01 5.941176891326904297e+00 1.179487133026123047e+01 1.196392822265625000e+01
2.827000000000000000e+03 1.290400981903076172e+01 -7.921890169382095337e-02 3.084008216857910156e+01 1.825641059875488281e+01 1.472894859313964844e+01 2.371091270446777344e+01
2.828000000000000000e+03 1.291125679016113281e+01 -9.728815406560897827e-02 2.837777137756347656e+01 3.040141868591308594e+01 1.763375663757324219e+01 2.797622108459472656e+01
2.829000000000000000e+03 1.292188167572021484e+01 -1.136009246110916138e-01 2.403427886962890625e+01 4.311351013183593750e+01 2.014433670043945312e+01 2.950263214111328125e+01
2.830000000000000000e+03 1.293548011779785156e+01 -1.275329738855361938e-01 2.017262649536132812e+01 5.480836105346679688e+01 2.249429702758789062e+01 2.781300163269042969e+01
2.831000000000000000e+03 1.295153045654296875e+01 -1.385511457920074463e-01 1.626507377624511719e+01 6.484906768798828125e+01 2.433424186706542969e+01 2.351061630249023438e+01
2.832000000000000000e+03 1.296941852569580078e+01 -1.462338268756866455e-01 1.412959480285644531e+01 7.231902313232421875e+01 2.593458557128906250e+01 1.716081809997558594e+01
2.833000000000000000e+03 1.298845958709716797e+01 -1.502870023250579834e-01 1.347598743438720703e+01 7.640617370605468750e+01 2.696464729309082031e+01 9.706214904785156250e+00
2.834000000000000000e+03 1.300792598724365234e+01 -1.505555957555770874e-01 1.553122520446777344e+01 7.738960266113281250e+01 2.787624931335449219e+01 2.079546451568603516e+00
2.835000000000000000e+03 1.302707195281982422e+01 -1.470293104648590088e-01 1.861852645874023438e+01 7.503916168212890625e+01 2.809730720520019531e+01 -4.379825592041015625e+00
2.836000000000000000e+03 1.304516601562500000e+01 -1.398430913686752319e-01 2.463421058654785156e+01 7.089266204833984375e+01 2.865806198120117188e+01 -9.134355545043945312e+00
2.837000000000000000e+03 1.306151390075683594e+01 -1.292719393968582153e-01 2.934779930114746094e+01 6.472447967529296875e+01 2.822168350219726562e+01 -1.186674308776855469e+01
2.838000000000000000e+03 1.307549095153808594e+01 -1.157203763723373413e-01 3.587205886840820312e+01 5.950663757324218750e+01 2.861360931396484375e+01 -1.177186775207519531e+01
2.839000000000000000e+03 1.308656311035156250e+01 -9.970697760581970215e-02 4.033209609985351562e+01 5.349736785888671875e+01 2.814883995056152344e+01 -1.012161540985107422e+01
2.840000000000000000e+03 1.309430503845214844e+01 -8.184453099966049194e-02 4.384579467773437500e+01 4.984366607666015625e+01 2.810683822631835938e+01 -6.802103996276855469e+00
2.841000000000000000e+03 1.309842205047607422e+01 -6.281658262014389038e-02 4.609719085693359375e+01 4.811441040039062500e+01 2.826348114013671875e+01 -2.167182445526123047e+00
2.842000000000000000e+03 1.309875488281250000e+01 -4.335126653313636780e-02 4.581938934326171875e+01 4.692359161376953125e+01 2.782289314270019531e+01 2.562707901000976562e+00
2.843000000000000000e+03 1.309529304504394531e+01 -2.419346570968627930e-02 4.474120712280273438e+01 4.991671752929687500e+01 2.839737892150878906e+01 6.917397022247314453e+00
2.844000000000000000e+03 1.308816719055175781e+01 -6.076299119740724564e-03 4.076400756835937500e+01 5.285863113403320312e+01 2.808679199218750000e+01 1.094139003753662109e+01
2.845000000000000000e+03 1.307765007019042969e+01 1.030694507062435150e-02 3.656820678710937500e+01 5.824414825439453125e+01 2.844370651245117188e+01 1.288062000274658203e+01
2.846000000000000000e+03 1.306414508819580078e+01 2.432932704687118530e-02 3.057794380187988281e+01 6.436859130859375000e+01 2.848396110534667969e+01 1.309929180145263672e+01
2.847000000000000000e+03 1.304816913604736328e+01 3.545425087213516235e-02 2.444819259643554688e+01 6.988732910156250000e+01 2.830065727233886719e+01 1.111171627044677734e+01
2.848000000000000000e+03 1.303033256530761719e+01 4.325599968433380127e-02 1.940230941772460938e+01 7.492163848876953125e+01 2.829718399047851562e+01 6.540528297424316406e+00
2.849000000000000000e+03 1.301131820678710938e+01 4.743602126836776733e-02 1.464377593994140625e+01 7.726901245117187500e+01 2.757383537292480469e+01 2.335721999406814575e-01
2.850000000000000000e+03 1.299185371398925781e+01 4.783435910940170288e-02 1.278420257568359375e+01 7.710620117187500000e+01 2.696712112426757812e+01 -7.192646980285644531e+00
2.851000000000000000e+03 1.297268486022949219e+01 4.443576931953430176e-02 1.233548641204833984e+01 7.323857879638671875e+01 2.567221832275390625e+01 -1.492692184448242188e+01
2.852000000000000000e+03 1.295454406738281250e+01 3.737030550837516785e-02 1.420392036437988281e+01 6.639029693603515625e+01 2.417826461791992188e+01 -2.149064254760742188e+01
2.853000000000000000e+03 1.293812561035156250e+01 2.690834552049636841e-02 1.755222320556640625e+01 5.656552886962890625e+01 2.223532485961914062e+01 -2.630319976806640625e+01
2.854000000000000000e+03 1.292405891418457031e+01 1.345023699104785919e-02 2.126065254211425781e+01 4.500960922241210938e+01 1.988107872009277344e+01 -2.852712249755859375e+01
2.855000000000000000e+03 1.291288089752197266e+01 -2.489019650965929031e-03 2.551698112487792969e+01 3.232431793212890625e+01 1.735239028930664062e+01 -2.764897537231445312e+01
2.856000000000000000e+03 1.290501880645751953e+01 -2.029947564005851746e-02 2.823717689514160156e+01 1.982343292236328125e+01 1.441818332672119141e+01 -2.389677810668945312e+01
2.857000000000000000e+03 1.290077590942382812e+01 -3.929957374930381775e-02 3.155774497985839844e+01 6.950791835784912109e+00 1.155256080627441406e+01 -1.281334590911865234e+01
