# el_label, x, y, sXX, sYY, sZZ, sXY
1.000000000000000000e+00 7.257562255859375000e+01 3.084417343139648438e+01 -7.124020576477050781e+00 -2.697382450103759766e+00 -2.946420907974243164e+00 -2.805581569671630859e+00
2.000000000000000000e+00 7.237774658203125000e+01 3.082267570495605469e+01 -3.037720441818237305e+00 1.058299899101257324e+00 -5.938261747360229492e-01 6.792910695075988770e-01
3.000000000000000000e+00 7.217987060546875000e+01 3.080117797851562500e+01 -4.330512523651123047e+00 -4.821451306343078613e-01 -1.443797230720520020e+00 -7.374197989702224731e-02
4.000000000000000000e+00 7.198199462890625000e+01 3.077967834472656250e+01 -4.727676868438720703e+00 2.535572052001953125e-01 -1.342235922813415527e+00 1.258349716663360596e-01
5.000000000000000000e+00 7.258757781982421875e+01 3.078700447082519531e+01 8.105214118957519531e+00 -2.371835708618164062e+00 1.720013618469238281e+00 2.063391447067260742e+00
6.000000000000000000e+00 7.239767456054687500e+01 3.072739601135253906e+01 9.097797274589538574e-01 3.797651231288909912e-01 3.868634700775146484e-01 1.348908662796020508e+00
7.000000000000000000e+00 7.220777130126953125e+01 3.066778755187988281e+01 6.216014623641967773e-01 8.715529441833496094e-01 4.479463100433349609e-01 2.128004074096679688e+00
8.000000000000000000e+00 7.201786041259765625e+01 3.060817718505859375e+01 -5.360575914382934570e-01 2.014996558427810669e-01 -1.003673821687698364e-01 1.368398904800415039e+00
9.000000000000000000e+00 7.261043548583984375e+01 3.073325920104980469e+01 1.304077434539794922e+01 2.838501453399658203e+00 4.763782501220703125e+00 9.126443862915039062e+00
1.000000000000000000e+01 7.243576812744140625e+01 3.063781929016113281e+01 6.672379970550537109e+00 1.729175329208374023e+00 2.520466566085815430e+00 5.305099964141845703e+00
1.100000000000000000e+01 7.226110839843750000e+01 3.054237937927246094e+01 3.505205392837524414e+00 2.138080835342407227e+00 1.692985892295837402e+00 4.185284614562988281e+00
1.200000000000000000e+01 7.208643341064453125e+01 3.044693946838378906e+01 2.452368259429931641e+00 2.016776084899902344e+00 1.340743303298950195e+00 3.945820808410644531e+00
1.300000000000000000e+01 7.264332580566406250e+01 3.068499183654785156e+01 1.446560287475585938e+01 9.998672485351562500e+00 7.339282512664794922e+00 1.445426368713378906e+01
1.400000000000000000e+01 7.249057769775390625e+01 3.055737304687500000e+01 8.231666564941406250e+00 6.176667213439941406e+00 4.322500228881835938e+00 9.453648567199707031e+00
1.500000000000000000e+01 7.233782958984375000e+01 3.042975616455078125e+01 5.776062488555908203e+00 5.078375816345214844e+00 3.256331443786621094e+00 7.398071289062500000e+00
1.600000000000000000e+01 7.218508911132812500e+01 3.030213737487792969e+01 3.834548950195312500e+00 4.444331645965576172e+00 2.483664274215698242e+00 6.350382328033447266e+00
1.700000000000000000e+01 7.268497467041015625e+01 3.064404869079589844e+01 1.242737674713134766e+01 1.875984573364257812e+01 9.356166839599609375e+00 1.763214874267578125e+01
1.800000000000000000e+01 7.255999755859375000e+01 3.048913574218750000e+01 8.183741569519042969e+00 1.216569137573242188e+01 6.104829788208007812e+00 1.236539840698242188e+01
1.900000000000000000e+01 7.243502044677734375e+01 3.033422470092773438e+01 5.592760562896728516e+00 9.666604042053222656e+00 4.577809333801269531e+00 9.922861099243164062e+00
2.000000000000000000e+01 7.231004333496093750e+01 3.017931175231933594e+01 4.262649059295654297e+00 8.324642181396484375e+00 3.776187419891357422e+00 8.599955558776855469e+00
2.100000000000000000e+01 7.273379516601562500e+01 3.061199951171875000e+01 9.595456123352050781e+00 2.766089057922363281e+01 1.117690467834472656e+01 1.813425064086914062e+01
2.200000000000000000e+01 7.264137268066406250e+01 3.043572044372558594e+01 6.307371616363525391e+00 1.897240447998046875e+01 7.583932876586914062e+00 1.340609169006347656e+01
2.300000000000000000e+01 7.254894256591796875e+01 3.025943946838378906e+01 4.652330398559570312e+00 1.509635543823242188e+01 5.924605846405029297e+00 1.119741535186767578e+01
2.400000000000000000e+01 7.245652008056640625e+01 3.008316040039062500e+01 3.194164752960205078e+00 1.300703620910644531e+01 4.860360622406005859e+00 9.717268943786621094e+00
2.500000000000000000e+01 7.278792572021484375e+01 3.059006690979003906e+01 6.486433982849121094e+00 3.578867340087890625e+01 1.268253135681152344e+01 1.592341327667236328e+01
2.600000000000000000e+01 7.273159027099609375e+01 3.039916801452636719e+01 4.424886226654052734e+00 2.542977333068847656e+01 8.956398010253906250e+00 1.269356632232666016e+01
2.700000000000000000e+01 7.267524719238281250e+01 3.020826721191406250e+01 2.905928611755371094e+00 2.071687889099121094e+01 7.086842536926269531e+00 1.068137359619140625e+01
2.800000000000000000e+01 7.261890411376953125e+01 3.001736450195312500e+01 1.991773843765258789e+00 1.778518486022949219e+01 5.933087825775146484e+00 9.612085342407226562e+00
2.900000000000000000e+01 7.284529113769531250e+01 3.057909393310546875e+01 4.714123249053955078e+00 4.201197052001953125e+01 1.401782894134521484e+01 1.189622306823730469e+01
3.000000000000000000e+01 7.282719421386718750e+01 3.038087844848632812e+01 2.869401216506958008e+00 3.086896133422851562e+01 1.012150859832763672e+01 1.015080356597900391e+01
3.100000000000000000e+01 7.280909729003906250e+01 3.018266105651855469e+01 1.560425281524658203e+00 2.562481307983398438e+01 8.155570983886718750e+00 8.961917877197265625e+00
3.200000000000000000e+01 7.279100036621093750e+01 2.998444557189941406e+01 8.307990431785583496e-01 2.227775955200195312e+01 6.932567596435546875e+00 7.894647121429443359e+00
3.300000000000000000e+01 7.290369415283203125e+01 3.057949829101562500e+01 4.623817443847656250e+00 4.576777267456054688e+01 1.511747646331787109e+01 6.705978870391845703e+00
3.400000000000000000e+01 7.292453765869140625e+01 3.038155174255371094e+01 2.482991218566894531e+00 3.478647232055664062e+01 1.118083953857421875e+01 6.673757553100585938e+00
3.500000000000000000e+01 7.294537353515625000e+01 3.018360328674316406e+01 1.037765264511108398e+00 2.914582443237304688e+01 9.055076599121093750e+00 6.033006668090820312e+00
3.600000000000000000e+01 7.296620941162109375e+01 2.998565673828125000e+01 2.604527473449707031e-01 2.579569244384765625e+01 7.816843509674072266e+00 5.542538166046142578e+00
3.700000000000000000e+01 7.296089935302734375e+01 3.059126472473144531e+01 6.588683128356933594e+00 4.712606048583984375e+01 1.611442375183105469e+01 1.653272747993469238e+00
3.800000000000000000e+01 7.301987457275390625e+01 3.040116119384765625e+01 3.339372873306274414e+00 3.673540878295898438e+01 1.202243518829345703e+01 2.691071271896362305e+00
3.900000000000000000e+01 7.307885742187500000e+01 3.021105957031250000e+01 1.782115101814270020e+00 3.124757957458496094e+01 9.908908843994140625e+00 2.766447067260742188e+00
4.000000000000000000e+01 7.313783264160156250e+01 3.002095603942871094e+01 6.811186671257019043e-01 2.751294708251953125e+01 8.458219528198242188e+00 2.628892183303833008e+00
4.100000000000000000e+01 7.301472473144531250e+01 3.061394309997558594e+01 9.979446411132812500e+00 4.624247360229492188e+01 1.686657714843750000e+01 -2.566444396972656250e+00
4.200000000000000000e+01 7.310958099365234375e+01 3.043895912170410156e+01 5.647275924682617188e+00 3.704873657226562500e+01 1.280880355834960938e+01 -8.611974120140075684e-01
4.300000000000000000e+01 7.320443725585937500e+01 3.026397514343261719e+01 3.587371110916137695e+00 3.157361602783203125e+01 1.054829597473144531e+01 -4.254019260406494141e-01
4.400000000000000000e+01 7.329929351806640625e+01 3.008899116516113281e+01 2.317427873611450195e+00 2.811325836181640625e+01 9.129205703735351562e+00 -1.845114529132843018e-01
4.500000000000000000e+01 7.306310272216796875e+01 3.064666557312011719e+01 1.439202404022216797e+01 4.411574172973632812e+01 1.755233001708984375e+01 -5.208506584167480469e+00
4.600000000000000000e+01 7.319020843505859375e+01 3.049349784851074219e+01 8.855155944824218750e+00 3.574594116210937500e+01 1.338032913208007812e+01 -3.536779642105102539e+00
4.700000000000000000e+01 7.331731414794921875e+01 3.034032821655273438e+01 6.350452899932861328e+00 3.078143310546875000e+01 1.113956546783447266e+01 -2.831609487533569336e+00
4.800000000000000000e+01 7.344442749023437500e+01 3.018715858459472656e+01 4.762949466705322266e+00 2.743972587585449219e+01 9.660802841186523438e+00 -2.396942377090454102e+00
4.900000000000000000e+01 7.310418701171875000e+01 3.068818092346191406e+01 1.879706192016601562e+01 4.122455215454101562e+01 1.800648498535156250e+01 -6.209723472595214844e+00
5.000000000000000000e+01 7.325868225097656250e+01 3.056268882751464844e+01 1.265339946746826172e+01 3.371382904052734375e+01 1.391016864776611328e+01 -4.846976280212402344e+00
5.100000000000000000e+01 7.341316986083984375e+01 3.043719482421875000e+01 9.454931259155273438e+00 2.901312446594238281e+01 1.154041671752929688e+01 -4.109466075897216797e+00
5.200000000000000000e+01 7.356767272949218750e+01 3.031170272827148438e+01 7.624442100524902344e+00 2.601790809631347656e+01 1.009270477294921875e+01 -3.566923141479492188e+00
5.300000000000000000e+01 7.313639068603515625e+01 3.073689842224121094e+01 2.278851890563964844e+01 3.863171005249023438e+01 1.842606925964355469e+01 -5.590715885162353516e+00
5.400000000000000000e+01 7.331236267089843750e+01 3.064388465881347656e+01 1.612961196899414062e+01 3.127393531799316406e+01 1.422106456756591797e+01 -4.790510654449462891e+00
5.500000000000000000e+01 7.348833465576171875e+01 3.055087089538574219e+01 1.263701438903808594e+01 2.712210273742675781e+01 1.192773437500000000e+01 -4.051443099975585938e+00
5.600000000000000000e+01 7.366430664062500000e+01 3.045785522460937500e+01 1.024013805389404297e+01 2.403881835937500000e+01 1.028368759155273438e+01 -3.595576763153076172e+00
5.700000000000000000e+01 7.315850067138671875e+01 3.079095458984375000e+01 2.558629798889160156e+01 3.648785781860351562e+01 1.862224578857421875e+01 -3.839980363845825195e+00
5.800000000000000000e+01 7.334921264648437500e+01 3.073397827148437500e+01 1.893831062316894531e+01 2.941186523437500000e+01 1.450505352020263672e+01 -3.414925098419189453e+00
5.900000000000000000e+01 7.353992462158203125e+01 3.067700386047363281e+01 1.506099987030029297e+01 2.531155967712402344e+01 1.211176776885986328e+01 -2.924111366271972656e+00
6.000000000000000000e+01 7.373063659667968750e+01 3.062002754211425781e+01 1.259159469604492188e+01 2.252805137634277344e+01 1.053589439392089844e+01 -2.607049465179443359e+00
6.100000000000000000e+01 7.316967010498046875e+01 3.084828186035156250e+01 2.711572647094726562e+01 3.549275970458984375e+01 1.878254508972167969e+01 -1.325829982757568359e+00
6.200000000000000000e+01 7.336782836914062500e+01 3.082952499389648438e+01 2.039112854003906250e+01 2.824610137939453125e+01 1.459116935729980469e+01 -1.227565765380859375e+00
6.300000000000000000e+01 7.356597900390625000e+01 3.081076622009277344e+01 1.647748184204101562e+01 2.436996650695800781e+01 1.225423431396484375e+01 -1.003447771072387695e+00
6.400000000000000000e+01 7.376413726806640625e+01 3.079200935363769531e+01 1.388687229156494141e+01 2.175467872619628906e+01 1.069246482849121094e+01 -1.025943398475646973e+00
6.500000000000000000e+01 7.316946411132812500e+01 3.090668678283691406e+01 2.705730438232421875e+01 3.542298507690429688e+01 1.874408721923828125e+01 1.385749578475952148e+00
6.600000000000000000e+01 7.336747741699218750e+01 3.092686462402343750e+01 2.041103744506835938e+01 2.836759948730468750e+01 1.463359165191650391e+01 1.291508197784423828e+00
6.700000000000000000e+01 7.356549072265625000e+01 3.094704246520996094e+01 1.647760963439941406e+01 2.429232978820800781e+01 1.223098182678222656e+01 1.099412083625793457e+00
6.800000000000000000e+01 7.376350402832031250e+01 3.096722221374511719e+01 1.382029724121093750e+01 2.196650314331054688e+01 1.073604011535644531e+01 9.794712662696838379e-01
6.900000000000000000e+01 7.315789031982421875e+01 3.096393203735351562e+01 2.558133316040039062e+01 3.667234039306640625e+01 1.867610168457031250e+01 3.840390682220458984e+00
7.000000000000000000e+01 7.334818267822265625e+01 3.102227401733398438e+01 1.888121414184570312e+01 2.937670898437500000e+01 1.447737693786621094e+01 3.482219219207763672e+00
7.100000000000000000e+01 7.353848266601562500e+01 3.108061599731445312e+01 1.510406112670898438e+01 2.546582221984863281e+01 1.217096424102783203e+01 2.941861152648925781e+00
7.200000000000000000e+01 7.372878265380859375e+01 3.113895988464355469e+01 1.255922985076904297e+01 2.263700103759765625e+01 1.055886936187744141e+01 2.725525617599487305e+00
7.300000000000000000e+01 7.313539123535156250e+01 3.101782989501953125e+01 2.266007232666015625e+01 3.865758132934570312e+01 1.839529609680175781e+01 5.592821598052978516e+00
7.400000000000000000e+01 7.331068420410156250e+01 3.111210250854492188e+01 1.616609573364257812e+01 3.145258331298828125e+01 1.428560352325439453e+01 4.738078117370605469e+00
7.500000000000000000e+01 7.348598480224609375e+01 3.120637702941894531e+01 1.261591434478759766e+01 2.711460304260253906e+01 1.191915512084960938e+01 4.094717502593994141e+00
7.600000000000000000e+01 7.366128540039062500e+01 3.130064964294433594e+01 1.037277984619140625e+01 2.423464775085449219e+01 1.038222885131835938e+01 3.608518123626708984e+00
7.700000000000000000e+01 7.310282897949218750e+01 3.106631469726562500e+01 1.881775856018066406e+01 4.138731765747070312e+01 1.806152343750000000e+01 6.066910743713378906e+00
7.800000000000000000e+01 7.325641632080078125e+01 3.119291305541992188e+01 1.259692573547363281e+01 3.375735855102539062e+01 1.390628528594970703e+01 4.811273574829101562e+00
7.900000000000000000e+01 7.341001129150390625e+01 3.131950950622558594e+01 9.576939582824707031e+00 2.914071273803710938e+01 1.161529541015625000e+01 4.010543823242187500e+00
8.000000000000000000e+01 7.356359863281250000e+01 3.144610595703125000e+01 7.617878437042236328e+00 2.599908256530761719e+01 1.008508777618408203e+01 3.566138505935668945e+00
8.100000000000000000e+01 7.306144714355468750e+01 3.110753440856933594e+01 1.433068466186523438e+01 4.418039703369140625e+01 1.755332374572753906e+01 5.022737979888916016e+00
8.200000000000000000e+01 7.318745422363281250e+01 3.126161003112792969e+01 8.985111236572265625e+00 3.580757522583007812e+01 1.343780517578125000e+01 3.400831222534179688e+00
8.300000000000000000e+01 7.331346130371093750e+01 3.141568756103515625e+01 6.396407127380371094e+00 3.084049224853515625e+01 1.117106914520263672e+01 2.743240594863891602e+00
8.400000000000000000e+01 7.343946838378906250e+01 3.156976318359375000e+01 4.880451679229736328e+00 2.749179077148437500e+01 9.711672782897949219e+00 2.309203624725341797e+00
8.500000000000000000e+01 7.301284027099609375e+01 3.113990783691406250e+01 1.008427810668945312e+01 4.629284667968750000e+01 1.691313743591308594e+01 2.295440435409545898e+00
8.600000000000000000e+01 7.310643768310546875e+01 3.131556892395019531e+01 5.787688732147216797e+00 3.699190902709960938e+01 1.283387947082519531e+01 6.763433814048767090e-01
8.700000000000000000e+01 7.320004272460937500e+01 3.149122810363769531e+01 3.785706996917724609e+00 3.157943916320800781e+01 1.060954380035400391e+01 3.397486805915832520e-01
8.800000000000000000e+01 7.329364013671875000e+01 3.166688728332519531e+01 2.532629013061523438e+00 2.820197296142578125e+01 9.220380783081054688e+00 1.566463857889175415e-01
8.900000000000000000e+01 7.295885467529296875e+01 3.116220092773437500e+01 6.714760780334472656e+00 4.703095626831054688e+01 1.612371444702148438e+01 -1.950559020042419434e+00
9.000000000000000000e+01 7.301646423339843750e+01 3.135272216796875000e+01 3.655540466308593750e+00 3.665212631225585938e+01 1.209230041503906250e+01 -2.925396203994750977e+00
9.100000000000000000e+01 7.307408142089843750e+01 3.154324150085449219e+01 2.069651842117309570e+00 3.107143402099609375e+01 9.942325592041015625e+00 -2.838305473327636719e+00
9.200000000000000000e+01 7.313169097900390625e+01 3.173376274108886719e+01 1.080705404281616211e+00 2.743778800964355469e+01 8.555547714233398438e+00 -2.613617420196533203e+00
9.300000000000000000e+01 7.290156555175781250e+01 3.117355728149414062e+01 4.956892013549804688e+00 4.559175872802734375e+01 1.516459465026855469e+01 -7.023353099822998047e+00
9.400000000000000000e+01 7.292098236083984375e+01 3.137164688110351562e+01 2.813932418823242188e+00 3.458970260620117188e+01 1.122109031677246094e+01 -6.876897335052490234e+00
9.500000000000000000e+01 7.294039916992187500e+01 3.156974029541015625e+01 1.559300899505615234e+00 2.893244743347167969e+01 9.147524833679199219e+00 -6.153197765350341797e+00
9.600000000000000000e+01 7.295982360839843750e+01 3.176783180236816406e+01 6.347799897193908691e-01 2.536951828002929688e+01 7.801289558410644531e+00 -5.583386898040771484e+00
9.700000000000000000e+01 7.284316253662109375e+01 3.117354202270507812e+01 5.135354995727539062e+00 4.170317840576171875e+01 1.405156040191650391e+01 -1.217891597747802734e+01
9.800000000000000000e+01 7.282363891601562500e+01 3.137162399291992188e+01 3.321307420730590820e+00 3.062077903747558594e+01 1.018262577056884766e+01 -1.029765701293945312e+01
9.900000000000000000e+01 7.280412292480468750e+01 3.156970596313476562e+01 2.119557380676269531e+00 2.536141204833984375e+01 8.244290351867675781e+00 -9.083673477172851562e+00
1.000000000000000000e+02 7.278460693359375000e+01 3.176778793334960938e+01 1.301661849021911621e+00 2.204386711120605469e+01 7.003658294677734375e+00 -8.006386756896972656e+00
1.010000000000000000e+02 7.278587341308593750e+01 3.116215705871582031e+01 6.985951900482177734e+00 3.539096832275390625e+01 1.271307659149169922e+01 -1.614882850646972656e+01
1.020000000000000000e+02 7.272816467285156250e+01 3.135264778137207031e+01 4.978028774261474609e+00 2.510928153991699219e+01 9.026192665100097656e+00 -1.272842788696289062e+01
1.030000000000000000e+02 7.267046356201171875e+01 3.154314231872558594e+01 3.397045373916625977e+00 2.049636268615722656e+01 7.168022155761718750e+00 -1.075978660583496094e+01
1.040000000000000000e+02 7.261275482177734375e+01 3.173363304138183594e+01 2.643451690673828125e+00 1.788300895690917969e+01 6.157938480377197266e+00 -9.524070739746093750e+00
1.050000000000000000e+02 7.273191070556640625e+01 3.113983726501464844e+01 1.010543823242187500e+01 2.723134422302246094e+01 1.120103454589843750e+01 -1.820587158203125000e+01
1.060000000000000000e+02 7.263821411132812500e+01 3.131545066833496094e+01 6.916969299316406250e+00 1.862165260314941406e+01 7.661586284637451172e+00 -1.339914226531982422e+01
1.070000000000000000e+02 7.254453277587890625e+01 3.149106407165527344e+01 5.120071887969970703e+00 1.493589687347412109e+01 6.016790390014648438e+00 -1.106764507293701172e+01
1.080000000000000000e+02 7.245084381103515625e+01 3.166667556762695312e+01 3.863538980484008789e+00 1.294232082366943359e+01 5.041758060455322266e+00 -9.453016281127929688e+00
1.090000000000000000e+02 7.268331146240234375e+01 3.110743904113769531e+01 1.303559684753417969e+01 1.833803367614746094e+01 9.412089347839355469e+00 -1.756742095947265625e+01
1.100000000000000000e+02 7.255722808837890625e+01 3.126145172119140625e+01 8.641555786132812500e+00 1.186109066009521484e+01 6.150794029235839844e+00 -1.228889083862304688e+01
1.110000000000000000e+02 7.243114471435546875e+01 3.141546440124511719e+01 6.229047298431396484e+00 9.473587989807128906e+00 4.710790634155273438e+00 -9.662389755249023438e+00
1.120000000000000000e+02 7.230506134033203125e+01 3.156947898864746094e+01 4.776934146881103516e+00 7.964021205902099609e+00 3.822286605834960938e+00 -8.267992019653320312e+00
1.130000000000000000e+02 7.264195251464843750e+01 3.106619834899902344e+01 1.491202449798583984e+01 9.602646827697753906e+00 7.354401588439941406e+00 -1.431890392303466797e+01
1.140000000000000000e+02 7.248829650878906250e+01 3.119271850585937500e+01 8.694298744201660156e+00 5.981224536895751953e+00 4.402657032012939453e+00 -9.256818771362304688e+00
1.150000000000000000e+02 7.233464813232421875e+01 3.131923866271972656e+01 6.289442062377929688e+00 4.831745624542236328e+00 3.336356401443481445e+00 -7.193849086761474609e+00
1.160000000000000000e+02 7.218099212646484375e+01 3.144575881958007812e+01 4.558898448944091797e+00 4.138703346252441406e+00 2.609280586242675781e+00 -6.094485759735107422e+00
1.170000000000000000e+02 7.260942077636718750e+01 3.101769638061523438e+01 1.335493946075439453e+01 2.591878175735473633e+00 4.784045219421386719e+00 -8.931414604187011719e+00
1.180000000000000000e+02 7.243407440185546875e+01 3.111188125610351562e+01 7.024031639099121094e+00 1.603237390518188477e+00 2.588180780410766602e+00 -5.109306335449218750e+00
1.190000000000000000e+02 7.225872802734375000e+01 3.120606803894042969e+01 3.935599327087402344e+00 1.969839334487915039e+00 1.771631598472595215e+00 -4.029394149780273438e+00
1.200000000000000000e+02 7.208338165283203125e+01 3.130025291442871094e+01 3.047834634780883789e+00 1.917592048645019531e+00 1.489627957344055176e+00 -3.868863344192504883e+00
1.210000000000000000e+02 7.258694458007812500e+01 3.096378898620605469e+01 8.247815132141113281e+00 -2.404316425323486328e+00 1.753049492835998535e+00 -1.868149518966674805e+00
1.220000000000000000e+02 7.239662170410156250e+01 3.102203559875488281e+01 1.136708140373229980e+00 2.811152338981628418e-01 4.253470301628112793e-01 -1.254816889762878418e+00
1.230000000000000000e+02 7.220629119873046875e+01 3.108028030395507812e+01 9.901545643806457520e-01 8.704224228858947754e-01 5.581730604171752930e-01 -2.054517030715942383e+00
1.240000000000000000e+02 7.201596069335937500e+01 3.113852882385253906e+01 -1.914369463920593262e-01 1.203640103340148926e-01 -2.132188156247138977e-02 -1.302990794181823730e+00
1.250000000000000000e+02 7.257540130615234375e+01 3.090653610229492188e+01 -7.195722103118896484e+00 -2.697489738464355469e+00 -2.967963457107543945e+00 2.816404104232788086e+00
1.260000000000000000e+02 7.237737274169921875e+01 3.092661476135253906e+01 -2.837813138961791992e+00 1.080232977867126465e+00 -5.272740721702575684e-01 -7.132115364074707031e-01
1.270000000000000000e+02 7.217934417724609375e+01 3.094669342041015625e+01 -4.052719593048095703e+00 -5.031102895736694336e-01 -1.366748929023742676e+00 6.380128115415573120e-02
1.280000000000000000e+02 7.198132324218750000e+01 3.096677207946777344e+01 -4.344962120056152344e+00 2.685071825981140137e-01 -1.222936511039733887e+00 -1.477593481540679932e-01
1.290000000000000000e+02 2.333872413635253906e+01 3.602074050903320312e+01 1.413313113152980804e-02 -3.013304376509040594e-05 4.230899270623922348e-03 2.368026413023471832e-03
1.300000000000000000e+02 2.389290046691894531e+01 3.609888076782226562e+01 1.768923364579677582e-02 -1.241371384821832180e-03 4.934358876198530197e-03 1.684711547568440437e-03
1.310000000000000000e+02 2.284308815002441406e+01 3.526721954345703125e+01 3.862896701321005821e-03 -5.843161488883197308e-04 9.835741948336362839e-04 5.066951736807823181e-03
1.320000000000000000e+02 2.421754455566406250e+01 3.556056594848632812e+01 7.746985182166099548e-03 -1.813531620427966118e-03 1.780036138370633125e-03 1.800777739845216274e-03
1.330000000000000000e+02 2.498613166809082031e+01 3.604191207885742188e+01 1.876587793231010437e-02 -5.793623276986181736e-04 5.455954466015100479e-03 -5.523345316760241985e-04
1.340000000000000000e+02 2.485820960998535156e+01 3.530118560791015625e+01 4.301465582102537155e-03 -2.807531505823135376e-03 4.481802170630544424e-04 -6.150265689939260483e-04
1.350000000000000000e+02 2.364893722534179688e+01 3.528245925903320312e+01 4.642177838832139969e-03 -2.404581056907773018e-03 6.712790927849709988e-04 3.563072532415390015e-03
1.360000000000000000e+02 2.269410705566406250e+01 3.600639724731445312e+01 1.021042279899120331e-02 -3.116532461717724800e-04 2.969630993902683258e-03 2.749622566625475883e-03
1.370000000000000000e+02 2.440931320190429688e+01 3.610589981079101562e+01 1.955452561378479004e-02 2.653842602740041912e-05 5.874319467693567276e-03 -5.665866865456337109e-06
1.380000000000000000e+02 2.713174057006835938e+01 3.578996658325195312e+01 1.046059001237154007e-02 2.485509612597525120e-04 3.212742274627089500e-03 -4.822904244065284729e-03
1.390000000000000000e+02 2.639669990539550781e+01 3.588855361938476562e+01 1.609676703810691833e-02 1.095850238925777376e-04 4.861905239522457123e-03 -3.996448591351509094e-03
1.400000000000000000e+02 2.560692596435546875e+01 3.524289321899414062e+01 5.143370945006608963e-04 -3.570490749552845955e-03 -9.168460965156555176e-04 -3.463647095486521721e-03
1.410000000000000000e+02 2.704477500915527344e+01 3.505500793457031250e+01 -1.473663095384836197e-02 -1.064417883753776550e-03 -4.740314558148384094e-03 -9.968266822397708893e-03
1.420000000000000000e+02 2.786719703674316406e+01 3.568653869628906250e+01 1.645143260248005390e-03 5.569416680373251438e-04 6.606254610233008862e-04 -5.321775097399950027e-03
1.430000000000000000e+02 2.776436805725097656e+01 3.495370483398437500e+01 -2.629510313272476196e-02 2.970921632368117571e-04 -7.799403741955757141e-03 -1.259181834757328033e-02
1.440000000000000000e+02 2.632559776306152344e+01 3.515146636962890625e+01 -6.174586713314056396e-03 -1.960823079571127892e-03 -2.440623007714748383e-03 -6.599450949579477310e-03
1.450000000000000000e+02 2.566216468811035156e+01 3.598210525512695312e+01 1.809078268706798553e-02 -9.840255370363593102e-04 5.132027436047792435e-03 -2.349666319787502289e-03
1.460000000000000000e+02 2.933965110778808594e+01 3.544803619384765625e+01 -2.607673592865467072e-02 1.246978295966982841e-03 -7.448927499353885651e-03 -4.334336146712303162e-03
1.470000000000000000e+02 2.922042655944824219e+01 3.471769332885742188e+01 -5.884237587451934814e-02 2.953430172055959702e-03 -1.676668412983417511e-02 -1.726317033171653748e-02
1.480000000000000000e+02 2.848941230773925781e+01 3.484096145629882812e+01 -4.072111472487449646e-02 1.542354701086878777e-03 -1.175362709909677505e-02 -1.502837799489498138e-02
1.490000000000000000e+02 3.068212890625000000e+01 3.447154998779296875e+01 -1.042107641696929932e-01 5.825349595397710800e-03 -2.951562404632568359e-02 -1.932548731565475464e-02
1.500000000000000000e+02 2.995129966735839844e+01 3.459505081176757812e+01 -7.955013960599899292e-02 4.283384419977664948e-03 -2.258002571761608124e-02 -1.858205348253250122e-02
1.510000000000000000e+02 3.081263542175292969e+01 3.519998931884765625e+01 -6.712241470813751221e-02 1.531930873170495033e-03 -1.967714540660381317e-02 -4.265871539246290922e-04
1.520000000000000000e+02 2.860299301147460938e+01 3.557225799560546875e+01 -1.050167158246040344e-02 1.104722614400088787e-03 -2.819084795191884041e-03 -5.144093651324510574e-03
1.530000000000000000e+02 3.007616424560546875e+01 3.532444381713867188e+01 -4.519537836313247681e-02 1.385697047226130962e-03 -1.314290426671504974e-02 -2.867501694709062576e-03
1.540000000000000000e+02 3.228277587890625000e+01 3.491655731201171875e+01 -1.264100521802902222e-01 8.660238818265497684e-04 -3.766320645809173584e-02 7.055453956127166748e-03
1.550000000000000000e+02 3.141323661804199219e+01 3.433660507202148438e+01 -1.329005509614944458e-01 7.388883735984563828e-03 -3.765349835157394409e-02 -1.977303437888622284e-02
1.560000000000000000e+02 3.301699829101562500e+01 3.477141952514648438e+01 -1.628069728612899780e-01 4.987107240594923496e-04 -4.869247972965240479e-02 1.206816546618938446e-02
1.570000000000000000e+02 3.287635040283203125e+01 3.404490280151367188e+01 -2.028374522924423218e-01 9.773891419172286987e-03 -5.791907012462615967e-02 -1.915786229074001312e-02
1.580000000000000000e+02 3.360715103149414062e+01 3.390307235717773438e+01 -2.434549629688262939e-01 1.079818792641162872e-02 -6.979703158140182495e-02 -1.746024750173091888e-02
1.590000000000000000e+02 3.375072097778320312e+01 3.462901306152343750e+01 -2.033003866672515869e-01 -2.391307789366692305e-04 -6.106185168027877808e-02 1.815509796142578125e-02
1.600000000000000000e+02 3.214505767822265625e+01 3.418946456909179688e+01 -1.659480035305023193e-01 8.642378263175487518e-03 -4.719169065356254578e-02 -1.999079436063766479e-02
1.610000000000000000e+02 3.154802894592285156e+01 3.506427764892578125e+01 -9.388726949691772461e-02 1.336864195764064789e-03 -2.776512131094932556e-02 2.945317421108484268e-03
1.620000000000000000e+02 3.448552703857421875e+01 3.448280334472656250e+01 -2.488136589527130127e-01 -1.272546243853867054e-03 -7.502586394548416138e-02 2.508888766169548035e-02
1.630000000000000000e+02 3.581328582763671875e+01 3.345945358276367188e+01 -3.931577205657958984e-01 1.243468653410673141e-02 -1.142169088125228882e-01 -9.367542341351509094e-03
1.640000000000000000e+02 3.434083938598632812e+01 3.375708389282226562e+01 -2.888555824756622314e-01 1.163573469966650009e-02 -8.316595852375030518e-02 -1.526755746454000473e-02
1.650000000000000000e+02 3.654941177368164062e+01 3.331057739257812500e+01 -4.504856765270233154e-01 1.210161857306957245e-02 -1.315152198076248169e-01 -5.812853109091520309e-03
1.660000000000000000e+02 3.595657730102539062e+01 3.418545532226562500e+01 -3.557500839233398438e-01 -3.693152451887726784e-03 -1.078329682350158691e-01 4.136309772729873657e-02
1.670000000000000000e+02 3.669200897216796875e+01 3.403672027587890625e+01 -4.182095229625701904e-01 -5.643672775477170944e-03 -1.271559596061706543e-01 5.004753544926643372e-02
1.680000000000000000e+02 3.522108078002929688e+01 3.433415222167968750e+01 -2.997372150421142578e-01 -2.456127433106303215e-03 -9.065800160169601440e-02 3.281543776392936707e-02
1.690000000000000000e+02 3.507709503173828125e+01 3.360829162597656250e+01 -3.387197554111480713e-01 1.227570511400699615e-02 -9.793321043252944946e-02 -1.244210358709096909e-02
1.700000000000000000e+02 3.742828750610351562e+01 3.389342117309570312e+01 -4.828493595123291016e-01 -6.633870769292116165e-03 -1.468449681997299194e-01 5.870011076331138611e-02
1.710000000000000000e+02 3.802332687377929688e+01 3.303014373779296875e+01 -5.765910148620605469e-01 1.225678343325853348e-02 -1.693002581596374512e-01 6.070084404200315475e-03
1.720000000000000000e+02 3.728625106811523438e+01 3.316717147827148438e+01 -5.112903118133544922e-01 1.179572194814682007e-02 -1.498483717441558838e-01 -2.574629615992307663e-04
1.730000000000000000e+02 3.890202331542968750e+01 3.361664962768554688e+01 -6.184459328651428223e-01 -9.446860291063785553e-03 -1.883678436279296875e-01 7.960011065006256104e-02
1.740000000000000000e+02 3.963956451416015625e+01 3.347409820556640625e+01 -6.916452646255493164e-01 -1.049827877432107925e-02 -2.106430530548095703e-01 9.182619303464889526e-02
1.750000000000000000e+02 3.949879837036132812e+01 3.274760437011718750e+01 -7.186984419822692871e-01 1.356416847556829453e-02 -2.115402966737747192e-01 2.022784762084484100e-02
1.760000000000000000e+02 3.876083374023437500e+01 3.289023590087890625e+01 -6.445221900939941406e-01 1.287904009222984314e-02 -1.894929558038711548e-01 1.278226636350154877e-02
1.770000000000000000e+02 3.816493988037109375e+01 3.375647735595703125e+01 -5.480598211288452148e-01 -7.333216723054647446e-03 -1.666179150342941284e-01 6.867911666631698608e-02
1.780000000000000000e+02 4.037628555297851562e+01 3.333070373535156250e+01 -7.723454236984252930e-01 -1.277564931660890579e-02 -2.355363219976425171e-01 1.062588542699813843e-01
1.790000000000000000e+02 4.171068954467773438e+01 3.231314468383789062e+01 -9.712034463882446289e-01 1.027594599872827530e-02 -2.882782518863677979e-01 4.059781134128570557e-02
1.800000000000000000e+02 4.023619079589843750e+01 3.260407638549804688e+01 -7.972862124443054199e-01 1.359152048826217651e-02 -2.351084053516387939e-01 2.684628590941429138e-02
1.810000000000000000e+02 4.244785308837890625e+01 3.216765213012695312e+01 -1.062109827995300293e+00 7.036640308797359467e-03 -3.165219426155090332e-01 4.640066251158714294e-02
1.820000000000000000e+02 4.184893417358398438e+01 3.304013442993164062e+01 -9.586484432220458984e-01 -1.867413707077503204e-02 -2.931967675685882568e-01 1.362279504537582397e-01
1.830000000000000000e+02 4.258517456054687500e+01 3.289482498168945312e+01 -1.067025661468505859e+00 -2.313314564526081085e-02 -3.270476162433624268e-01 1.495311260223388672e-01
1.840000000000000000e+02 4.111263656616210938e+01 3.318542480468750000e+01 -8.622332215309143066e-01 -1.623702235519886017e-02 -2.635410726070404053e-01 1.211760565638542175e-01
1.850000000000000000e+02 4.097346878051757812e+01 3.245861816406250000e+01 -8.805350661277770996e-01 1.261474471539258957e-02 -2.603760957717895508e-01 3.410952538251876831e-02
1.860000000000000000e+02 4.332307434082031250e+01 3.275568008422851562e+01 -1.173328518867492676e+00 -2.415763959288597107e-02 -3.592458665370941162e-01 1.596004068851470947e-01
1.870000000000000000e+02 4.318753814697265625e+01 3.202817916870117188e+01 -1.157982110977172852e+00 4.477965645492076874e-03 -3.460512459278106689e-01 5.620363727211952209e-02
1.880000000000000000e+02 4.392967605590820312e+01 3.189475250244140625e+01 -1.261140823364257812e+00 5.817415658384561539e-03 -3.765970170497894287e-01 6.514362245798110962e-02
1.890000000000000000e+02 4.480221557617187500e+01 3.249026870727539062e+01 -1.385738968849182129e+00 -2.507553249597549438e-02 -4.232443571090698242e-01 1.865208595991134644e-01
1.900000000000000000e+02 4.541445922851562500e+01 3.162938690185546875e+01 -1.473697781562805176e+00 2.954815048724412918e-03 -4.412229061126708984e-01 7.610410451889038086e-02
1.910000000000000000e+02 4.554204177856445312e+01 3.235831069946289062e+01 -1.510032534599304199e+00 -2.897603437304496765e-02 -4.617025554180145264e-01 2.004043757915496826e-01
1.920000000000000000e+02 4.406255722045898438e+01 3.262272644042968750e+01 -1.274498105049133301e+00 -2.294964529573917389e-02 -3.892343342304229736e-01 1.714395731687545776e-01
1.930000000000000000e+02 4.467198181152343750e+01 3.176181983947753906e+01 -1.366717934608459473e+00 5.786674097180366516e-03 -4.082793593406677246e-01 7.027381658554077148e-02
1.940000000000000000e+02 4.628276062011718750e+01 3.223004150390625000e+01 -1.634708523750305176e+00 -3.015344403684139252e-02 -4.994585812091827393e-01 2.115836441516876221e-01
1.950000000000000000e+02 4.764949035644531250e+01 3.125085830688476562e+01 -1.836512923240661621e+00 -1.221860991790890694e-03 -5.513204336166381836e-01 9.009002149105072021e-02
1.960000000000000000e+02 4.615840911865234375e+01 3.150056076049804688e+01 -1.587020397186279297e+00 5.816175835207104683e-04 -4.759316146373748779e-01 8.432452380657196045e-02
1.970000000000000000e+02 4.839503097534179688e+01 3.112652587890625000e+01 -1.954245686531066895e+00 -1.032087951898574829e-02 -5.893699526786804199e-01 8.866985142230987549e-02
1.980000000000000000e+02 4.776623153686523438e+01 3.198161315917968750e+01 -1.896716475486755371e+00 -3.137204796075820923e-02 -5.784265398979187012e-01 2.395908236503601074e-01
1.990000000000000000e+02 4.850796127319335938e+01 3.185791587829589844e+01 -2.063207864761352539e+00 -3.985194861888885498e-02 -6.309179067611694336e-01 2.475100010633468628e-01
2.000000000000000000e+02 4.702449035644531250e+01 3.210565567016601562e+01 -1.758288741111755371e+00 -2.949348650872707367e-02 -5.363346934318542480e-01 2.240916937589645386e-01
2.010000000000000000e+02 4.690394592285156250e+01 3.137553787231445312e+01 -1.708597421646118164e+00 1.782117877155542374e-03 -5.120446085929870605e-01 9.128785133361816406e-02
2.020000000000000000e+02 4.925159072875976562e+01 3.174488639831542969e+01 -2.210806131362915039e+00 -3.758466616272926331e-02 -6.745172142982482910e-01 2.438581734895706177e-01
2.030000000000000000e+02 4.914293289184570312e+01 3.101285552978515625e+01 -2.079214096069335938e+00 -1.507184933871030807e-02 -6.282857656478881836e-01 9.826231747865676880e-02
2.040000000000000000e+02 4.989311599731445312e+01 3.090981101989746094e+01 -2.216962337493896484e+00 -7.821875624358654022e-03 -6.674352884292602539e-01 1.029415950179100037e-01
2.050000000000000000e+02 5.074266433715820312e+01 3.154084205627441406e+01 -2.474438190460205078e+00 -2.857066318392753601e-02 -7.509026527404785156e-01 2.556822001934051514e-01
2.060000000000000000e+02 5.139404296875000000e+01 3.070597648620605469e+01 -2.474687099456787109e+00 -1.311456225812435150e-02 -7.463405132293701172e-01 9.082103520631790161e-02
2.070000000000000000e+02 5.148847579956054688e+01 3.143994712829589844e+01 -2.645673274993896484e+00 -3.554848209023475647e-02 -8.043665289878845215e-01 2.597344219684600830e-01
2.080000000000000000e+02 4.999703216552734375e+01 3.164248847961425781e+01 -2.331601142883300781e+00 -2.801676653325557709e-02 -7.078853249549865723e-01 2.451675385236740112e-01
2.090000000000000000e+02 5.064348983764648438e+01 3.080751800537109375e+01 -2.349783420562744141e+00 -5.824988242238759995e-03 -7.066825032234191895e-01 9.500052779912948608e-02
2.100000000000000000e+02 5.373043823242187500e+01 3.117490577697753906e+01 -3.099881410598754883e+00 -2.468651905655860901e-02 -9.373704195022583008e-01 2.610664665699005127e-01
2.110000000000000000e+02 5.214544677734375000e+01 3.061188697814941406e+01 -2.608023881912231445e+00 -1.655353233218193054e-02 -7.873731851577758789e-01 9.463720023632049561e-02
2.120000000000000000e+02 5.440248107910156250e+01 3.035354614257812500e+01 -3.022238492965698242e+00 -2.413787320256233215e-02 -9.139128923416137695e-01 6.628403067588806152e-02
2.130000000000000000e+02 5.365017700195312500e+01 3.043926048278808594e+01 -2.897676706314086914e+00 -1.126803457736968994e-02 -8.726834058761596680e-01 7.787336409091949463e-02
2.140000000000000000e+02 5.447802734375000000e+01 3.108973121643066406e+01 -3.301653623580932617e+00 -3.749496117234230042e-02 -1.001744508743286133e+00 2.552715539932250977e-01
2.150000000000000000e+02 5.298280715942382812e+01 3.126048088073730469e+01 -2.938103675842285156e+00 -2.548945322632789612e-02 -8.890779614448547363e-01 2.535202503204345703e-01
2.160000000000000000e+02 5.223514938354492188e+01 3.134645080566406250e+01 -2.802010297775268555e+00 -3.320419043302536011e-02 -8.505643606185913086e-01 2.544609308242797852e-01
2.170000000000000000e+02 5.289782714843750000e+01 3.052537536621093750e+01 -2.753857612609863281e+00 -9.087550453841686249e-03 -8.288835287094116211e-01 9.424917399883270264e-02
2.180000000000000000e+02 5.597676467895507812e+01 3.095117187500000000e+01 -3.594624280929565430e+00 -1.866579800844192505e-02 -1.083986997604370117e+00 2.198919057846069336e-01
2.190000000000000000e+02 5.591128540039062500e+01 3.021406745910644531e+01 -3.307374000549316406e+00 -1.577956974506378174e-02 -9.969460964202880859e-01 6.410164386034011841e-02
2.200000000000000000e+02 5.515621185302734375e+01 3.027851104736328125e+01 -3.156761407852172852e+00 -2.964847721159458160e-02 -9.559229612350463867e-01 6.985666602849960327e-02
2.210000000000000000e+02 5.666648483276367188e+01 3.015038108825683594e+01 -3.443968296051025391e+00 -1.545834913849830627e-02 -1.037827968597412109e+00 3.962565213441848755e-02
2.220000000000000000e+02 5.672682952880859375e+01 3.088792037963867188e+01 -3.753575086593627930e+00 -1.657681167125701904e-02 -1.131045579910278320e+00 2.206745296716690063e-01
2.230000000000000000e+02 5.742179489135742188e+01 3.008745574951171875e+01 -3.560191869735717773e+00 -2.772255986928939819e-02 -1.076374292373657227e+00 2.421622350811958313e-02
2.240000000000000000e+02 5.747700500488281250e+01 3.082542610168457031e+01 -3.954299926757812500e+00 -2.989411726593971252e-02 -1.195258259773254395e+00 2.079879194498062134e-01
2.250000000000000000e+02 5.522682952880859375e+01 3.101518249511718750e+01 -3.469419002532958984e+00 -3.249542042613029480e-02 -1.050574302673339844e+00 2.330157160758972168e-01
2.260000000000000000e+02 5.893249130249023438e+01 2.998887443542480469e+01 -3.826230287551879883e+00 -1.687579788267612457e-02 -1.152931809425354004e+00 1.430535316467285156e-02
2.270000000000000000e+02 5.817713546752929688e+01 3.003364562988281250e+01 -3.686291456222534180e+00 -3.218296542763710022e-02 -1.115542292594909668e+00 2.392795123159885406e-02
2.280000000000000000e+02 6.044357681274414062e+01 2.990149307250976562e+01 -4.046685695648193359e+00 -2.824864909052848816e-02 -1.222480297088623047e+00 -2.811037935316562653e-02
2.290000000000000000e+02 5.972956466674804688e+01 3.068365669250488281e+01 -4.395970344543457031e+00 -8.795090951025485992e-03 -1.321429729461669922e+00 1.582420617341995239e-01
2.300000000000000000e+02 5.822756195068359375e+01 3.077196121215820312e+01 -4.118863582611083984e+00 -2.522968314588069916e-02 -1.243227958679199219e+00 1.796313375234603882e-01
2.310000000000000000e+02 6.048074340820312500e+01 3.064058303833007812e+01 -4.591831207275390625e+00 -2.414387278258800507e-02 -1.384792447090148926e+00 1.408252865076065063e-01
2.320000000000000000e+02 5.897850036621093750e+01 3.072744750976562500e+01 -4.240022182464599609e+00 -1.225579436868429184e-02 -1.275683283805847168e+00 1.615941375494003296e-01
2.330000000000000000e+02 5.968797683715820312e+01 2.994482421875000000e+01 -3.947995901107788086e+00 -1.713576540350914001e-02 -1.189539432525634766e+00 -1.315715163946151733e-02
2.340000000000000000e+02 6.198369598388671875e+01 3.057719421386718750e+01 -4.866218090057373047e+00 -9.260959923267364502e-03 -1.462643742561340332e+00 8.836310356855392456e-02
2.350000000000000000e+02 6.195486831665039062e+01 2.983775329589843750e+01 -4.266252517700195312e+00 -1.540484838187694550e-02 -1.284497261047363281e+00 -3.801149502396583557e-02
2.360000000000000000e+02 6.119919967651367188e+01 2.986580848693847656e+01 -4.152541637420654297e+00 -3.307957574725151062e-02 -1.255686402320861816e+00 -2.957998216152191162e-02
2.370000000000000000e+02 6.271061706542968750e+01 2.981033325195312500e+01 -4.355631828308105469e+00 -1.870705932378768921e-02 -1.312301635742187500e+00 -6.464833021163940430e-02
2.380000000000000000e+02 6.273536300659179688e+01 3.054992294311523438e+01 -5.014887809753417969e+00 -1.878716400824487209e-03 -1.505029916763305664e+00 8.287211507558822632e-02
2.390000000000000000e+02 6.346643829345703125e+01 2.978354644775390625e+01 -4.409549236297607422e+00 -2.733753994107246399e-02 -1.331066012382507324e+00 -7.158775627613067627e-02
2.400000000000000000e+02 6.348709869384765625e+01 3.052328491210937500e+01 -5.201108455657958984e+00 -2.456906065344810486e-02 -1.567703247070312500e+00 6.030682846903800964e-02
2.410000000000000000e+02 6.123211288452148438e+01 3.060509872436523438e+01 -4.750447750091552734e+00 -1.839656382799148560e-02 -1.430653214454650879e+00 1.093995347619056702e-01
2.420000000000000000e+02 6.573279571533203125e+01 2.974275588989257812e+01 -4.485637187957763672e+00 -1.228316314518451691e-02 -1.349376201629638672e+00 -6.750274449586868286e-02
2.430000000000000000e+02 6.497737884521484375e+01 2.975337600708007812e+01 -4.501212596893310547e+00 -1.166631188243627548e-02 -1.353863596916198730e+00 -6.013005226850509644e-02
2.440000000000000000e+02 6.422202301025390625e+01 2.976457405090332031e+01 -4.458614826202392578e+00 -3.511629253625869751e-02 -1.348119258880615234e+00 -6.114687398076057434e-02
2.450000000000000000e+02 6.648828125000000000e+01 2.973270988464355469e+01 -4.414472579956054688e+00 1.213273871690034866e-02 -1.320701956748962402e+00 -4.452307149767875671e-02
2.460000000000000000e+02 6.574242401123046875e+01 3.048269271850585938e+01 -5.531743526458740234e+00 7.910961867310106754e-04 -1.659285783767700195e+00 -1.128077134490013123e-02
2.470000000000000000e+02 6.499060058593750000e+01 3.049326515197753906e+01 -5.418482303619384766e+00 -9.441073983907699585e-03 -1.628376960754394531e+00 -2.420542063191533089e-03
2.480000000000000000e+02 6.649430847167968750e+01 3.047269821166992188e+01 -5.664640426635742188e+00 -1.246594358235597610e-02 -1.703131914138793945e+00 -2.328165993094444275e-02
2.490000000000000000e+02 6.423884582519531250e+01 3.050441169738769531e+01 -5.337235450744628906e+00 -1.535485032945871353e-02 -1.605777144432067871e+00 2.220304124057292938e-02
2.500000000000000000e+02 6.877415466308593750e+01 3.054868507385253906e+01 -5.881225109100341797e+00 -1.144798705354332924e-03 -1.764710903167724609e+00 -1.383408010005950928e-01
2.510000000000000000e+02 6.876973724365234375e+01 2.966438293457031250e+01 -3.484141826629638672e+00 1.324258148670196533e-01 -1.005514860153198242e+00 3.347058594226837158e-01
2.520000000000000000e+02 6.974259185791015625e+01 2.982391548156738281e+01 -2.779349565505981445e+00 2.110492438077926636e-01 -7.704901099205017090e-01 6.109326481819152832e-01
2.530000000000000000e+02 6.724742889404296875e+01 2.972914314270019531e+01 -4.341401576995849609e+00 -2.204784192144870758e-02 -1.309034824371337891e+00 -1.205042842775583267e-02
2.540000000000000000e+02 6.959622192382812500e+01 2.947096443176269531e+01 -2.253304004669189453e+00 3.885618448257446289e-01 -5.594226121902465820e-01 9.362952113151550293e-01
2.550000000000000000e+02 6.968624877929687500e+01 3.019762420654296875e+01 -4.367419242858886719e+00 1.362635493278503418e-01 -1.269346714019775391e+00 2.750722169876098633e-01
2.560000000000000000e+02 6.903147125244140625e+01 3.010974884033203125e+01 -4.513858318328857422e+00 5.101642757654190063e-02 -1.338852643966674805e+00 1.368674933910369873e-01
2.570000000000000000e+02 6.930484771728515625e+01 3.058675765991210938e+01 -5.948883533477783203e+00 -6.571072340011596680e-02 -1.804378271102905273e+00 -1.084934249520301819e-01
2.580000000000000000e+02 6.968254089355468750e+01 3.055938339233398438e+01 -5.576370716094970703e+00 1.751684248447418213e-01 -1.620360612869262695e+00 -1.553728580474853516e-01
2.590000000000000000e+02 6.803076171875000000e+01 3.047247314453125000e+01 -5.765296936035156250e+00 -4.020977392792701721e-02 -1.741652011871337891e+00 -9.192922711372375488e-02
2.600000000000000000e+02 6.725086975097656250e+01 3.046915435791015625e+01 -5.732142448425292969e+00 -8.801827207207679749e-03 -1.722283244132995605e+00 -4.472152143716812134e-02
2.610000000000000000e+02 6.972537994384765625e+01 2.965942192077636719e+01 -2.477193593978881836e+00 1.774350106716156006e-01 -6.899275779724121094e-01 6.890683770179748535e-01
2.620000000000000000e+02 6.953089904785156250e+01 2.975173187255859375e+01 -2.716506004333496094e+00 2.837124168872833252e-01 -7.298380732536315918e-01 7.061986923217773438e-01
2.630000000000000000e+02 6.958935546875000000e+01 3.074706840515136719e+01 -6.323632240295410156e+00 7.589025795459747314e-02 -1.874322652816772461e+00 -1.443059593439102173e-01
2.640000000000000000e+02 6.970274353027343750e+01 3.037967109680175781e+01 -5.182109832763671875e+00 5.908154323697090149e-02 -1.536908507347106934e+00 -1.878656633198261261e-02
2.650000000000000000e+02 6.937483215332031250e+01 2.989632225036621094e+01 -3.440884590148925781e+00 2.552995979785919189e-01 -9.556754827499389648e-01 4.296472668647766113e-01
2.660000000000000000e+02 6.968880462646484375e+01 3.000572586059570312e+01 -3.553301572799682617e+00 1.641975641250610352e-01 -1.016731262207031250e+00 4.827328026294708252e-01
2.670000000000000000e+02 6.940094757080078125e+01 3.031481361389160156e+01 -5.105916023254394531e+00 4.163154587149620056e-02 -1.519285321235656738e+00 3.761856630444526672e-02
2.680000000000000000e+02 6.928144836425781250e+01 2.963906097412109375e+01 -2.888462066650390625e+00 3.550840318202972412e-01 -7.600134015083312988e-01 5.994887948036193848e-01
2.690000000000000000e+02 6.802891540527343750e+01 2.973246574401855469e+01 -4.074480533599853516e+00 4.414585605263710022e-02 -1.209100365638732910e+00 1.159491986036300659e-01
2.700000000000000000e+02 7.279685974121093750e+01 3.227240753173828125e+01 2.447271160781383514e-02 1.826869392395019531e+01 5.487949848175048828e+00 -5.991539478302001953e+00
2.710000000000000000e+02 7.250970458984375000e+01 3.194987487792968750e+01 2.087885618209838867e+00 1.481130123138427734e+01 5.069756031036376953e+00 -8.353199958801269531e+00
2.720000000000000000e+02 7.035991668701171875e+01 3.100786399841308594e+01 -5.250372409820556641e+00 -3.747472167015075684e-02 -1.586354255676269531e+00 -5.307719577103853226e-03
2.730000000000000000e+02 7.056401824951171875e+01 3.224962615966796875e+01 1.089004650712013245e-01 1.247217893600463867e+00 4.068354964256286621e-01 -1.754598855972290039e+00
2.740000000000000000e+02 7.303534698486328125e+01 3.216817474365234375e+01 -1.698932051658630371e-01 2.138739776611328125e+01 6.365251064300537109e+00 -4.251247882843017578e+00
2.750000000000000000e+02 7.116838073730468750e+01 3.072972869873046875e+01 -5.738690853118896484e+00 4.372593015432357788e-02 -1.708489537239074707e+00 3.647919371724128723e-02
2.760000000000000000e+02 6.996332550048828125e+01 2.945393753051757812e+01 -1.646716356277465820e+00 1.078927516937255859e+00 -1.703366786241531372e-01 1.432243466377258301e+00
2.770000000000000000e+02 7.256562805175781250e+01 2.985246849060058594e+01 1.378053784370422363e+00 1.630286216735839844e+01 5.304274559020996094e+00 8.784326553344726562e+00
2.780000000000000000e+02 7.220455169677734375e+01 2.999521064758300781e+01 3.222857952117919922e+00 7.909097671508789062e+00 3.339586734771728516e+00 7.694502353668212891e+00
2.790000000000000000e+02 7.178089904785156250e+01 2.950532531738281250e+01 1.521163582801818848e+00 5.637882232666015625e+00 2.147713661193847656e+00 5.831894874572753906e+00
2.800000000000000000e+02 7.180867767333984375e+01 3.052511787414550781e+01 -1.015609502792358398e+00 5.420162081718444824e-01 -1.420779675245285034e-01 1.503955841064453125e+00
2.810000000000000000e+02 7.177985382080078125e+01 3.075542640686035156e+01 -5.086888790130615234e+00 -8.550612628459930420e-02 -1.551718354225158691e+00 1.357089349767193198e-04
2.820000000000000000e+02 7.116752624511718750e+01 3.047911453247070312e+01 -3.495500802993774414e+00 8.542898297309875488e-02 -1.023021459579467773e+00 5.282469987869262695e-01
2.830000000000000000e+02 7.354315948486328125e+01 3.177346992492675781e+01 3.289567947387695312e+00 2.506126785278320312e+01 8.505250930786132812e+00 1.857975959777832031e+00
2.840000000000000000e+02 7.339087677001953125e+01 2.989081001281738281e+01 1.286074280738830566e+00 2.539533042907714844e+01 8.004421234130859375e+00 3.622182086110115051e-02
2.850000000000000000e+02 6.996975708007812500e+01 3.227032470703125000e+01 -6.185639500617980957e-01 8.202832937240600586e-01 6.051579117774963379e-02 -9.843225479125976562e-01
2.860000000000000000e+02 6.995510101318359375e+01 3.190037345886230469e+01 -1.587553977966308594e+00 3.261378407478332520e-01 -3.784248530864715576e-01 -4.145541489124298096e-01
2.870000000000000000e+02 7.036581420898437500e+01 3.225496292114257812e+01 -2.110049575567245483e-01 1.036860227584838867e+00 2.477566003799438477e-01 -1.406309843063354492e+00
2.880000000000000000e+02 7.016883087158203125e+01 3.226308441162109375e+01 -4.898856282234191895e-01 6.796553730964660645e-01 5.693091452121734619e-02 -1.097177147865295410e+00
2.890000000000000000e+02 7.077064514160156250e+01 3.101194381713867188e+01 -5.204618930816650391e+00 2.373220212757587433e-02 -1.554265975952148438e+00 3.780643641948699951e-02
2.900000000000000000e+02 7.116277313232421875e+01 3.224539566040039062e+01 1.344890356063842773e+00 2.534843444824218750e+00 1.163920164108276367e+00 -3.154515266418457031e+00
2.910000000000000000e+02 7.218321990966796875e+01 3.173489761352539062e+01 3.752552270889282227e+00 7.196271419525146484e+00 3.284646987915039062e+00 -7.373295307159423828e+00
2.920000000000000000e+02 6.996975708007812500e+01 3.097801780700683594e+01 -5.419453620910644531e+00 -1.832702308893203735e-01 -1.680817246437072754e+00 -5.508963763713836670e-02
2.930000000000000000e+02 7.014041900634765625e+01 3.116224861145019531e+01 -4.686970710754394531e+00 -7.043205201625823975e-03 -1.408204197883605957e+00 2.819046005606651306e-02
2.940000000000000000e+02 7.016427612304687500e+01 3.098277091979980469e+01 -5.311469078063964844e+00 8.848792314529418945e-02 -1.566894292831420898e+00 2.996282279491424561e-02
2.950000000000000000e+02 7.056434631347656250e+01 3.102060317993164062e+01 -5.216901302337646484e+00 -2.584696561098098755e-02 -1.572824478149414062e+00 3.655587136745452881e-02
2.960000000000000000e+02 6.997402191162109375e+01 3.173229026794433594e+01 -2.082705736160278320e+00 2.354536205530166626e-01 -5.541756153106689453e-01 -3.315290510654449463e-01
2.970000000000000000e+02 7.155786132812500000e+01 3.195560836791992188e+01 2.075114488601684570e+00 3.040999174118041992e+00 1.534834146499633789e+00 -4.116789340972900391e+00
2.980000000000000000e+02 7.096591949462890625e+01 3.126540374755859375e+01 -3.239952564239501953e+00 1.384670138359069824e-01 -9.304456114768981934e-01 -2.737680673599243164e-01
2.990000000000000000e+02 7.181853485107421875e+01 3.120682144165039062e+01 -5.962975621223449707e-01 5.613304972648620605e-01 -1.049011852592229843e-02 -1.392465710639953613e+00
3.000000000000000000e+02 7.178128814697265625e+01 3.098912811279296875e+01 -4.626408576965332031e+00 -1.030116453766822815e-01 -1.418826103210449219e+00 -2.354492805898189545e-02
3.010000000000000000e+02 7.398019409179687500e+01 3.102988433837890625e+01 1.172742748260498047e+01 1.991004943847656250e+01 9.491243362426757812e+00 1.195822596549987793e+00
3.020000000000000000e+02 7.376566314697265625e+01 3.155405998229980469e+01 6.534482955932617188e+00 2.338198661804199219e+01 8.974941253662109375e+00 3.324910640716552734e+00
3.030000000000000000e+02 7.271038055419921875e+01 3.199244499206542969e+01 8.918137550354003906e-01 1.906579208374023438e+01 5.987281799316406250e+00 -7.383827209472656250e+00
3.040000000000000000e+02 7.233707427978515625e+01 3.184979820251464844e+01 3.179666042327880859e+00 1.134187412261962891e+01 4.356462001800537109e+00 -8.553781509399414062e+00
3.050000000000000000e+02 7.157574462890625000e+01 3.073983192443847656e+01 -5.291672706604003906e+00 6.607883423566818237e-02 -1.567678213119506836e+00 7.514710072427988052e-03
3.060000000000000000e+02 7.203780364990234375e+01 3.013439178466796875e+01 3.109182834625244141e+00 4.621628761291503906e+00 2.319243431091308594e+00 6.047686100006103516e+00
3.070000000000000000e+02 7.256156921386718750e+01 2.970045089721679688e+01 9.565430283546447754e-01 1.600248908996582031e+01 5.087709426879882812e+00 7.791699886322021484e+00
3.080000000000000000e+02 7.312824249267578125e+01 2.952909851074218750e+01 -8.218443989753723145e-01 2.138738441467285156e+01 6.169662475585937500e+00 3.596853733062744141e+00
3.090000000000000000e+02 7.321344757080078125e+01 2.981658363342285156e+01 1.561395227909088135e-01 2.498978042602539062e+01 7.543775558471679688e+00 2.354832410812377930e+00
3.100000000000000000e+02 7.417222595214843750e+01 3.070529556274414062e+01 1.020862483978271484e+01 1.860146141052246094e+01 8.643025398254394531e+00 -1.201088070869445801e+00
3.110000000000000000e+02 7.037015533447265625e+01 3.074135208129882812e+01 -6.305136203765869141e+00 5.562350153923034668e-03 -1.889872193336486816e+00 -5.402915552258491516e-02
3.120000000000000000e+02 6.998146820068359375e+01 2.980466079711914062e+01 -2.601479053497314453e+00 2.838113307952880859e-01 -6.953003406524658203e-01 8.364872932434082031e-01
3.130000000000000000e+02 6.997260284423828125e+01 3.075208091735839844e+01 -6.511882781982421875e+00 -1.617144793272018433e-01 -2.002079248428344727e+00 -4.428142681717872620e-03
3.140000000000000000e+02 6.997127532958984375e+01 3.134591484069824219e+01 -3.669339656829833984e+00 5.556783825159072876e-02 -1.084131598472595215e+00 1.076896041631698608e-01
3.150000000000000000e+02 7.015943908691406250e+01 3.205377960205078125e+01 -8.868753314018249512e-01 5.145998001098632812e-01 -1.116826608777046204e-01 -8.673206567764282227e-01
3.160000000000000000e+02 6.997051239013671875e+01 2.961987495422363281e+01 -2.155385494232177734e+00 7.023909091949462891e-01 -4.358983933925628662e-01 1.008640050888061523e+00
3.170000000000000000e+02 7.097630310058593750e+01 2.950787544250488281e+01 2.635912597179412842e-02 2.006225109100341797e+00 6.097752451896667480e-01 3.065841913223266602e+00
3.180000000000000000e+02 7.017128753662109375e+01 3.074843215942382812e+01 -6.379673957824707031e+00 5.370644852519035339e-02 -1.897790193557739258e+00 -1.125482320785522461e-01
3.190000000000000000e+02 7.393238067626953125e+01 3.121407699584960938e+01 1.061128616333007812e+01 2.085448455810546875e+01 9.439731597900390625e+00 2.484868049621582031e+00
3.200000000000000000e+02 7.176343536376953125e+01 3.223619461059570312e+01 2.091293334960937500e+00 5.568761825561523438e+00 2.298016548156738281e+00 -5.379025936126708984e+00
3.210000000000000000e+02 7.364169311523437500e+01 3.201203155517578125e+01 1.759307742118835449e+00 2.265892410278320312e+01 7.325469493865966797e+00 1.039798974990844727e+00
3.220000000000000000e+02 7.218076324462890625e+01 3.221886444091796875e+01 2.019745111465454102e+00 9.918871879577636719e+00 3.581585168838500977e+00 -7.021948337554931641e+00
3.230000000000000000e+02 7.097098541259765625e+01 3.101127433776855469e+01 -5.156689167022705078e+00 3.068097308278083801e-02 -1.537802457809448242e+00 -5.547930952161550522e-03
3.240000000000000000e+02 7.372546386718750000e+01 3.173518753051757812e+01 4.523614883422851562e+00 2.334080123901367188e+01 8.359324455261230469e+00 2.531120777130126953e+00
3.250000000000000000e+02 7.301950836181640625e+01 3.194257354736328125e+01 1.320504993200302124e-01 2.368365478515625000e+01 7.144711494445800781e+00 -4.963825225830078125e+00
3.260000000000000000e+02 7.416444396972656250e+01 3.131132316589355469e+01 8.681359291076660156e+00 1.893671607971191406e+01 8.285423278808593750e+00 2.533938169479370117e+00
3.270000000000000000e+02 7.138561248779296875e+01 3.129617691040039062e+01 -1.768481969833374023e+00 2.742077112197875977e-01 -4.482823014259338379e-01 -8.584154248237609863e-01
3.280000000000000000e+02 7.135139465332031250e+01 3.198541259765625000e+01 1.243482589721679688e+00 2.186143398284912109e+00 1.028887748718261719e+00 -3.149382114410400391e+00
3.290000000000000000e+02 7.195272064208984375e+01 3.196894073486328125e+01 2.933700799942016602e+00 6.152599811553955078e+00 2.725890159606933594e+00 -6.169826507568359375e+00
3.300000000000000000e+02 7.260655975341796875e+01 3.224670028686523438e+01 7.544841766357421875e-01 1.579604625701904297e+01 4.965158939361572266e+00 -6.968719005584716797e+00
3.310000000000000000e+02 7.238700866699218750e+01 2.990807342529296875e+01 2.581594944000244141e+00 1.242994785308837891e+01 4.503462791442871094e+00 8.762707710266113281e+00
3.320000000000000000e+02 7.429460906982421875e+01 3.077313804626464844e+01 9.733998298645019531e+00 1.799522209167480469e+01 8.318765640258789062e+00 -4.952936172485351562e-01
3.330000000000000000e+02 7.272126007080078125e+01 2.979358673095703125e+01 2.904426455497741699e-01 1.961456298828125000e+01 5.971501827239990234e+00 7.696277618408203125e+00
3.340000000000000000e+02 7.383785247802734375e+01 3.038897132873535156e+01 9.024271011352539062e+00 2.223864746093750000e+01 9.378875732421875000e+00 -3.255408763885498047e+00
3.350000000000000000e+02 7.158396911621093750e+01 2.951749992370605469e+01 1.189616084098815918e+00 4.387667179107666016e+00 1.673184990882873535e+00 4.966499805450439453e+00
3.360000000000000000e+02 7.303170776367187500e+01 2.976771545410156250e+01 -4.207553267478942871e-01 2.342365455627441406e+01 6.900869846343994141e+00 4.796083450317382812e+00
3.370000000000000000e+02 7.380404663085937500e+01 2.983729934692382812e+01 2.616377353668212891e+00 2.235351753234863281e+01 7.490968704223632812e+00 -2.115554571151733398e+00
3.380000000000000000e+02 7.406313323974609375e+01 3.085404014587402344e+01 1.128713607788085938e+01 1.938567543029785156e+01 9.201843261718750000e+00 -1.336148381233215332e-01
3.390000000000000000e+02 7.394336700439453125e+01 3.071333694458007812e+01 1.198096370697021484e+01 2.036178398132324219e+01 9.702824592590332031e+00 -1.218258023262023926e+00
3.400000000000000000e+02 7.348714447021484375e+01 2.965824699401855469e+01 3.704519569873809814e-01 2.300941848754882812e+01 7.013961315155029297e+00 2.336682677268981934e-01
3.410000000000000000e+02 7.329174804687500000e+01 3.219504547119140625e+01 -5.558545887470245361e-02 2.231454086303710938e+01 6.677686214447021484e+00 -1.992175459861755371e+00
3.420000000000000000e+02 7.313201141357421875e+01 3.227612304687500000e+01 -6.010600328445434570e-01 2.074576568603515625e+01 6.043412208557128906e+00 -3.384698152542114258e+00
3.430000000000000000e+02 7.426224517822265625e+01 3.094547080993652344e+01 9.911758422851562500e+00 1.799070358276367188e+01 8.370738029479980469e+00 5.920328497886657715e-01
3.440000000000000000e+02 7.385903167724609375e+01 3.139233970642089844e+01 8.762279510498046875e+00 2.201451301574707031e+01 9.233037948608398438e+00 3.346709966659545898e+00
3.450000000000000000e+02 7.400245666503906250e+01 3.165558052062988281e+01 5.818611145019531250e+00 2.055248260498046875e+01 7.911328315734863281e+00 3.115329027175903320e+00
3.460000000000000000e+02 7.427863311767578125e+01 3.061495590209960938e+01 9.035648345947265625e+00 1.836208915710449219e+01 8.219321250915527344e+00 -1.605206727981567383e+00
3.470000000000000000e+02 7.391996765136718750e+01 2.995617103576660156e+01 4.433166027069091797e+00 2.168894577026367188e+01 7.836633205413818359e+00 -2.963401556015014648e+00
3.480000000000000000e+02 7.421864318847656250e+01 3.112807464599609375e+01 9.525982856750488281e+00 1.838740158081054688e+01 8.374015808105468750e+00 1.574510216712951660e+00
3.490000000000000000e+02 7.377330017089843750e+01 3.021782684326171875e+01 6.618299484252929688e+00 2.330841064453125000e+01 8.978013038635253906e+00 -3.362399101257324219e+00
3.500000000000000000e+02 7.408077239990234375e+01 3.057666206359863281e+01 9.917048454284667969e+00 1.915434646606445312e+01 8.721418380737304688e+00 -1.931154131889343262e+00
3.510000000000000000e+02 7.391254425048828125e+01 3.180734252929687500e+01 4.527975559234619141e+00 2.145031929016113281e+01 7.793488502502441406e+00 3.040353536605834961e+00
3.520000000000000000e+02 7.421476745605468750e+01 3.045483016967773438e+01 8.738645553588867188e+00 1.869249534606933594e+01 8.229341506958007812e+00 -2.298233270645141602e+00
3.530000000000000000e+02 7.337348175048828125e+01 3.186811447143554688e+01 1.440353751182556152e+00 2.540014839172363281e+01 8.052150726318359375e+00 -1.533831655979156494e-01
3.540000000000000000e+02 7.288612365722656250e+01 3.206829452514648438e+01 2.598348557949066162e-01 2.095533370971679688e+01 6.364550590515136719e+00 -5.783144950866699219e+00
3.550000000000000000e+02 7.379550170898437500e+01 3.192306137084960938e+01 2.813640117645263672e+00 2.216559410095214844e+01 7.493770122528076172e+00 2.161907434463500977e+00
3.560000000000000000e+02 7.373312377929687500e+01 3.002720069885253906e+01 4.369359970092773438e+00 2.339672470092773438e+01 8.329825401306152344e+00 -2.586982250213623047e+00
3.570000000000000000e+02 7.398167419433593750e+01 3.043586158752441406e+01 9.270736694335937500e+00 2.074512481689453125e+01 9.004758834838867188e+00 -2.678457021713256836e+00
3.580000000000000000e+02 7.076337432861328125e+01 3.224756622314453125e+01 5.042095780372619629e-01 1.634340405464172363e+00 6.415650248527526855e-01 -2.185689210891723633e+00
3.590000000000000000e+02 7.055052947998046875e+01 3.200407409667968750e+01 -4.096677601337432861e-01 8.054032921791076660e-01 1.187206581234931946e-01 -1.279692053794860840e+00
3.600000000000000000e+02 7.169712829589843750e+01 3.155197143554687500e+01 1.682981014251708984e+00 1.669416069984436035e+00 1.005719184875488281e+00 -3.099293231964111328e+00
3.610000000000000000e+02 7.150416564941406250e+01 3.168603515625000000e+01 1.204384803771972656e+00 1.641653656959533691e+00 8.538115024566650391e-01 -2.825780153274536133e+00
3.620000000000000000e+02 7.240140533447265625e+01 3.222274398803710938e+01 1.491935014724731445e+00 1.293276596069335938e+01 4.327410221099853516e+00 -7.374547004699707031e+00
3.630000000000000000e+02 7.096313476562500000e+01 3.224700164794921875e+01 8.717827796936035156e-01 2.016492605209350586e+00 8.664826154708862305e-01 -2.736193418502807617e+00
3.640000000000000000e+02 7.117274475097656250e+01 3.101369857788085938e+01 -5.043078422546386719e+00 1.960266940295696259e-02 -1.507042765617370605e+00 -4.305128008127212524e-02
3.650000000000000000e+02 7.160789489746093750e+01 3.127926445007324219e+01 -1.055311799049377441e+00 3.016543984413146973e-01 -2.260972261428833008e-01 -1.096336245536804199e+00
3.660000000000000000e+02 7.055011749267578125e+01 3.048930358886718750e+01 -4.690843582153320312e+00 7.770234346389770508e-02 -1.383942365646362305e+00 1.838258504867553711e-01
3.670000000000000000e+02 7.117815399169921875e+01 2.951827239990234375e+01 4.486786723136901855e-01 2.626905679702758789e+00 9.226753115653991699e-01 3.597846746444702148e+00
3.680000000000000000e+02 7.035504150390625000e+01 3.052812194824218750e+01 -5.165467262268066406e+00 6.587019190192222595e-03 -1.547664046287536621e+00 3.702804073691368103e-02
3.690000000000000000e+02 7.012963104248046875e+01 3.018509101867675781e+01 -3.763782978057861328e+00 1.361067891120910645e-01 -1.088302850723266602e+00 2.726160883903503418e-01
3.700000000000000000e+02 7.016247558593750000e+01 3.055165863037109375e+01 -5.511120319366455078e+00 6.888087838888168335e-02 -1.632671833038330078e+00 6.925915926694869995e-02
3.710000000000000000e+02 6.997024536132812500e+01 3.056397819519042969e+01 -5.566389560699462891e+00 -1.578351408243179321e-01 -1.717267394065856934e+00 -7.663872092962265015e-02
3.720000000000000000e+02 7.076833343505859375e+01 3.072111892700195312e+01 -6.092168331146240234e+00 4.634841904044151306e-02 -1.813745975494384766e+00 -4.526690766215324402e-02
3.730000000000000000e+02 7.075234985351562500e+01 3.043851852416992188e+01 -4.052258014678955078e+00 8.896127343177795410e-02 -1.188989043235778809e+00 3.198318779468536377e-01
3.740000000000000000e+02 7.295453643798828125e+01 2.948435401916503906e+01 -7.781004309654235840e-01 2.046898651123046875e+01 5.907265663146972656e+00 4.819092273712158203e+00
3.750000000000000000e+02 7.277970123291015625e+01 2.948279571533203125e+01 -4.356383979320526123e-01 1.808372497558593750e+01 5.294426441192626953e+00 6.484662532806396484e+00
3.760000000000000000e+02 7.286150360107421875e+01 2.966962623596191406e+01 -2.196360528469085693e-01 2.043965530395507812e+01 6.066005706787109375e+00 6.083536624908447266e+00
3.770000000000000000e+02 7.138290405273437500e+01 2.952225494384765625e+01 8.786438703536987305e-01 3.441188097000122070e+00 1.295949578285217285e+00 4.284245014190673828e+00
3.780000000000000000e+02 7.171602630615234375e+01 3.009760093688964844e+01 1.451475024223327637e+00 2.281330823898315430e+00 1.119841814041137695e+00 3.816118955612182617e+00
3.790000000000000000e+02 7.077891540527343750e+01 2.949851036071777344e+01 -3.791503012180328369e-01 1.527878761291503906e+00 3.446185588836669922e-01 2.514864683151245117e+00
3.800000000000000000e+02 7.096666717529296875e+01 3.072143745422363281e+01 -5.948446750640869141e+00 1.035933196544647217e-02 -1.781426191329956055e+00 -4.078833851963281631e-03
3.810000000000000000e+02 7.236365509033203125e+01 2.971634674072265625e+01 1.742196321487426758e+00 1.210037040710449219e+01 4.152770042419433594e+00 8.092671394348144531e+00
3.820000000000000000e+02 7.217190551757812500e+01 2.949916267395019531e+01 1.203988790512084961e+00 9.823812484741210938e+00 3.308340549468994141e+00 7.128865242004394531e+00
3.830000000000000000e+02 7.216384887695312500e+01 2.975648689270019531e+01 2.232481956481933594e+00 8.888175010681152344e+00 3.336197137832641602e+00 7.465926647186279297e+00
3.840000000000000000e+02 7.189617156982421875e+01 3.031376647949218750e+01 1.459570527076721191e+00 1.659778237342834473e+00 9.358046054840087891e-01 3.464547872543334961e+00
3.850000000000000000e+02 7.161462402343750000e+01 2.981505966186523438e+01 1.278622031211853027e+00 3.261088371276855469e+00 1.361913084983825684e+00 4.476610183715820312e+00
3.860000000000000000e+02 7.058604431152343750e+01 2.948888206481933594e+01 -7.505059242248535156e-01 1.294660329818725586e+00 1.632463335990905762e-01 2.166028022766113281e+00
3.870000000000000000e+02 7.040403747558593750e+01 2.968391609191894531e+01 -1.609697937965393066e+00 7.107344269752502441e-01 -2.696890532970428467e-01 1.462783455848693848e+00
3.880000000000000000e+02 6.999114990234375000e+01 3.154377555847167969e+01 -2.748750686645507812e+00 1.385113149881362915e-01 -7.830718159675598145e-01 -1.272522062063217163e-01
3.890000000000000000e+02 7.074854278564453125e+01 3.175160026550292969e+01 -8.403794765472412109e-01 5.688585638999938965e-01 -8.145628124475479126e-02 -1.051879644393920898e+00
3.900000000000000000e+02 7.013644409179687500e+01 3.000555419921875000e+01 -2.999055385589599609e+00 2.299301922321319580e-01 -8.307375311851501465e-01 5.964025855064392090e-01
3.910000000000000000e+02 6.996233367919921875e+01 3.019348335266113281e+01 -3.963884353637695312e+00 1.364074349403381348e-01 -1.148243069648742676e+00 3.053759336471557617e-01
3.920000000000000000e+02 6.996544647216796875e+01 3.037823677062988281e+01 -4.811534881591796875e+00 1.995769143104553223e-01 -1.383587479591369629e+00 2.358477562665939331e-02
3.930000000000000000e+02 7.202497863769531250e+01 3.160228157043457031e+01 3.557696819305419922e+00 4.206238746643066406e+00 2.329180717468261719e+00 -5.714347839355468750e+00
3.940000000000000000e+02 7.215926361083984375e+01 3.194357109069824219e+01 3.070239543914794922e+00 8.666416168212890625e+00 3.520996809005737305e+00 -7.291976451873779297e+00
3.950000000000000000e+02 7.075329589843750000e+01 3.200147247314453125e+01 -6.752155721187591553e-02 1.004633426666259766e+00 2.811335623264312744e-01 -1.663550257682800293e+00
3.960000000000000000e+02 7.014482879638671875e+01 3.036430740356445312e+01 -4.533248424530029297e+00 -2.768775448203086853e-02 -1.368280887603759766e+00 1.526229381561279297e-01
3.970000000000000000e+02 7.040526580810546875e+01 2.947593879699707031e+01 -1.074329137802124023e+00 1.070601582527160645e+00 -1.118242624215781689e-03 1.898770809173583984e+00
3.980000000000000000e+02 7.116906738281250000e+01 2.981740951538085938e+01 1.984348520636558533e-02 1.611614465713500977e+00 4.894374012947082520e-01 2.742681503295898438e+00
3.990000000000000000e+02 7.025738525390625000e+01 2.958583641052246094e+01 -1.544333577156066895e+00 7.870759367942810059e-01 -2.271772921085357666e-01 1.513487458229064941e+00
4.000000000000000000e+02 7.180046081542968750e+01 2.975753593444824219e+01 1.741202235221862793e+00 4.677454471588134766e+00 1.925597071647644043e+00 5.460787773132324219e+00
4.010000000000000000e+02 7.012094116210937500e+01 2.948166275024414062e+01 -1.501408457756042480e+00 7.398755550384521484e-01 -2.284598797559738159e-01 1.531721472740173340e+00
4.020000000000000000e+02 7.139879608154296875e+01 2.982898902893066406e+01 7.025118470191955566e-01 2.289232492446899414e+00 8.975233435630798340e-01 3.560437679290771484e+00
4.030000000000000000e+02 7.118230438232421875e+01 3.006582069396972656e+01 -7.200770974159240723e-01 9.453096389770507812e-01 6.756977736949920654e-02 2.013187885284423828e+00
4.040000000000000000e+02 7.030330657958984375e+01 3.176399230957031250e+01 -1.638760685920715332e+00 2.998009622097015381e-01 -4.016879200935363770e-01 -5.471928119659423828e-01
4.050000000000000000e+02 6.996482086181640625e+01 3.116206550598144531e+01 -4.495981216430664062e+00 -1.370140463113784790e-01 -1.389898657798767090e+00 8.317062258720397949e-02
4.060000000000000000e+02 7.114272308349609375e+01 3.175503730773925781e+01 3.124324381351470947e-01 1.036733984947204590e+00 4.047499299049377441e-01 -2.001945734024047852e+00
4.070000000000000000e+02 7.132763671875000000e+01 3.175151252746582031e+01 7.847841978073120117e-01 1.607495307922363281e+00 7.176838517189025879e-01 -2.568590641021728516e+00
4.080000000000000000e+02 7.076962280273437500e+01 3.126380348205566406e+01 -3.574359178543090820e+00 7.182765007019042969e-02 -1.050759434700012207e+00 -1.968522369861602783e-01
4.090000000000000000e+02 7.115174865722656250e+01 3.151828956604003906e+01 -9.416217207908630371e-01 4.460312724113464355e-01 -1.486771404743194580e-01 -1.069696545600891113e+00
4.100000000000000000e+02 7.085566711425781250e+01 3.000855064392089844e+01 -1.593988895416259766e+00 6.623199582099914551e-01 -2.795006930828094482e-01 1.390131115913391113e+00
4.110000000000000000e+02 7.051531982421875000e+01 2.996963500976562500e+01 -2.048411846160888672e+00 4.300546944141387939e-01 -4.855071604251861572e-01 1.065395593643188477e+00
4.120000000000000000e+02 7.056116485595703125e+01 3.149237060546875000e+01 -2.367353200912475586e+00 1.758553981781005859e-01 -6.574493050575256348e-01 -3.686672449111938477e-01
4.130000000000000000e+02 7.176007843017578125e+01 3.196551132202148438e+01 2.423931598663330078e+00 4.154979705810546875e+00 1.973673343658447266e+00 -4.894971370697021484e+00
4.140000000000000000e+02 7.049393463134765625e+01 3.027094841003417969e+01 -3.707507848739624023e+00 1.264980286359786987e-01 -1.074302911758422852e+00 4.172356724739074707e-01
4.150000000000000000e+02 7.041130828857421875e+01 3.137361907958984375e+01 -3.198688507080078125e+00 7.794450223445892334e-02 -9.362231492996215820e-01 -1.523676812648773193e-01
4.160000000000000000e+02 7.158576965332031250e+01 3.048246574401855469e+01 -1.803808331489562988e+00 4.039768278598785400e-01 -4.199494421482086182e-01 1.139170646667480469e+00
4.170000000000000000e+02 7.067144012451171875e+01 3.016071701049804688e+01 -2.671307563781738281e+00 2.631066739559173584e-01 -7.224602103233337402e-01 8.194996714591979980e-01
4.180000000000000000e+02 7.118814849853515625e+01 3.026039886474609375e+01 -1.910671830177307129e+00 4.206157624721527100e-01 -4.470168054103851318e-01 1.112544417381286621e+00
4.190000000000000000e+02 7.136333465576171875e+01 3.027308845520019531e+01 -1.630120515823364258e+00 4.295488893985748291e-01 -3.601714670658111572e-01 1.381702542304992676e+00
4.200000000000000000e+02 7.077411651611328125e+01 2.976615524291992188e+01 -1.126771688461303711e+00 9.725192785263061523e-01 -4.627570882439613342e-02 1.889248132705688477e+00
4.210000000000000000e+02 6.996789550781250000e+01 3.207999038696289062e+01 -1.276370882987976074e+00 5.794253349304199219e-01 -2.090836614370346069e-01 -6.129512786865234375e-01
4.220000000000000000e+02 7.035073089599609375e+01 3.202134704589843750e+01 -7.059388160705566406e-01 6.196460127830505371e-01 -2.588783763349056244e-02 -1.004563808441162109e+00
4.230000000000000000e+02 7.011363220214843750e+01 3.184726905822753906e+01 -1.731422543525695801e+00 3.289493322372436523e-01 -4.207419753074645996e-01 -4.557269215583801270e-01
4.240000000000000000e+02 7.029251861572265625e+01 3.121489906311035156e+01 -4.212168693542480469e+00 8.317077159881591797e-02 -1.238699436187744141e+00 5.974669381976127625e-02
4.250000000000000000e+02 7.022624206542968750e+01 3.151296806335449219e+01 -2.755810022354125977e+00 1.409203708171844482e-01 -7.844669222831726074e-01 -2.089012414216995239e-01
4.260000000000000000e+02 7.095391845703125000e+01 3.200123977661132812e+01 4.491358101367950439e-01 1.369628906250000000e+00 5.456293821334838867e-01 -2.106593847274780273e+00
4.270000000000000000e+02 7.136340332031250000e+01 3.224100875854492188e+01 1.855147719383239746e+00 3.290677070617675781e+00 1.543747425079345703e+00 -3.960160255432128906e+00
4.280000000000000000e+02 7.156374359130859375e+01 3.223576736450195312e+01 1.867062807083129883e+00 4.104358673095703125e+00 1.791426420211791992e+00 -4.520219326019287109e+00
4.290000000000000000e+02 7.196575164794921875e+01 3.223398208618164062e+01 2.185764312744140625e+00 7.544986724853515625e+00 2.919225215911865234e+00 -6.371084690093994141e+00
4.300000000000000000e+02 7.297238922119140625e+01 3.229722213745117188e+01 -5.500026345252990723e-01 2.020326995849609375e+01 5.895980358123779297e+00 -4.662650108337402344e+00
4.310000000000000000e+02 7.315225982666015625e+01 3.205643844604492188e+01 9.462983906269073486e-02 2.309113311767578125e+01 6.955729007720947266e+00 -3.020613670349121094e+00
4.320000000000000000e+02 7.346807861328125000e+01 3.210136032104492188e+01 7.867581248283386230e-01 2.319906616210937500e+01 7.195747375488281250e+00 -3.595040738582611084e-01
4.330000000000000000e+02 7.409080505371093750e+01 3.149006652832031250e+01 7.397411346435546875e+00 1.983617401123046875e+01 8.170075416564941406e+00 3.033964633941650391e+00
4.340000000000000000e+02 7.388495635986328125e+01 3.055328941345214844e+01 1.113541412353515625e+01 2.125059127807617188e+01 9.715802192687988281e+00 -2.648366689682006836e+00
4.350000000000000000e+02 7.411833953857421875e+01 3.028795242309570312e+01 7.296916484832763672e+00 1.953398513793945312e+01 8.049270629882812500e+00 -2.794181585311889648e+00
4.360000000000000000e+02 7.401081848144531250e+01 3.011800575256347656e+01 5.895576953887939453e+00 2.069857597351074219e+01 7.978246212005615234e+00 -3.002511501312255859e+00
4.370000000000000000e+02 7.365248870849609375e+01 2.974703407287597656e+01 1.398894309997558594e+00 2.263734436035156250e+01 7.210871219635009766e+00 -1.111853837966918945e+00
4.380000000000000000e+02 7.330911254882812500e+01 2.958403205871582031e+01 -5.467380881309509277e-01 2.250692367553710938e+01 6.588055610656738281e+00 1.952770590782165527e+00
4.390000000000000000e+02 7.258018493652343750e+01 2.949661636352539062e+01 1.839784085750579834e-01 1.533041191101074219e+01 4.654317378997802734e+00 7.105865955352783203e+00
4.400000000000000000e+02 7.237064361572265625e+01 2.949310111999511719e+01 7.493632435798645020e-01 1.250053310394287109e+01 3.974968910217285156e+00 7.418826580047607422e+00
4.410000000000000000e+02 7.197473144531250000e+01 2.975444030761718750e+01 2.273756742477416992e+00 6.483541965484619141e+00 2.627189636230468750e+00 6.635417938232421875e+00
4.420000000000000000e+02 7.197676849365234375e+01 2.950039482116699219e+01 1.453725695610046387e+00 7.788779258728027344e+00 2.772751569747924805e+00 6.684702873229980469e+00
4.430000000000000000e+02 7.096131134033203125e+01 2.978517150878906250e+01 -5.172240138053894043e-01 1.200994014739990234e+00 2.051310092210769653e-01 2.245585680007934570e+00
4.440000000000000000e+02 7.137671661376953125e+01 3.101634979248046875e+01 -4.911002635955810547e+00 -3.520485386252403259e-02 -1.483862280845642090e+00 -3.283037990331649780e-02
4.450000000000000000e+02 7.157963562011718750e+01 3.100927734375000000e+01 -4.776389122009277344e+00 6.142863631248474121e-02 -1.414488196372985840e+00 -4.522345960140228271e-02
4.460000000000000000e+02 7.189980316162109375e+01 3.141385269165039062e+01 2.142676830291748047e+00 1.468124866485595703e+00 1.083240509033203125e+00 -3.218326807022094727e+00
4.470000000000000000e+02 7.028056335449218750e+01 3.017215347290039062e+01 -3.565555334091186523e+00 1.365796178579330444e-01 -1.028692722320556641e+00 3.872804045677185059e-01
4.480000000000000000e+02 7.056968688964843750e+01 3.073083496093750000e+01 -6.196196079254150391e+00 -2.207352407276630402e-02 -1.865480899810791016e+00 -6.602729111909866333e-02
4.490000000000000000e+02 7.096070861816406250e+01 3.043863296508789062e+01 -3.718780755996704102e+00 2.154705375432968140e-01 -1.050993084907531738e+00 4.273633360862731934e-01
4.500000000000000000e+02 6.996668243408203125e+01 3.000619888305664062e+01 -3.256502866744995117e+00 1.225631833076477051e-01 -9.401819109916687012e-01 5.093355774879455566e-01
4.510000000000000000e+02 7.017153930664062500e+01 2.980772209167480469e+01 -2.336994409561157227e+00 5.040583610534667969e-01 -5.498808026313781738e-01 1.008366942405700684e+00
4.520000000000000000e+02 7.137357330322265625e+01 3.049258422851562500e+01 -2.936567306518554688e+00 1.528016775846481323e-01 -8.351297378540039062e-01 7.221448421478271484e-01
4.530000000000000000e+02 7.137268066406250000e+01 3.073586463928222656e+01 -5.504150390625000000e+00 -6.934585422277450562e-02 -1.672048926353454590e+00 1.587577909231185913e-02
4.540000000000000000e+02 7.185334014892578125e+01 3.176332092285156250e+01 2.906477212905883789e+00 3.986217260360717773e+00 2.067808389663696289e+00 -5.023445606231689453e+00
4.550000000000000000e+02 7.318705749511718750e+01 3.191482353210449219e+01 5.172926783561706543e-01 2.506737899780273438e+01 7.675401210784912109e+00 -2.379625320434570312e+00
4.560000000000000000e+02 7.355224609375000000e+01 2.998488426208496094e+01 3.170360088348388672e+00 2.499168395996093750e+01 8.448613166809082031e+00 -1.871026635169982910e+00
4.570000000000000000e+02 7.034220886230468750e+01 2.987090873718261719e+01 -2.117756128311157227e+00 5.280113220214843750e-01 -4.769234359264373779e-01 1.162126779556274414e+00
4.580000000000000000e+02 7.115172576904296875e+01 3.199775123596191406e+01 8.190137147903442383e-01 1.895473957061767578e+00 8.143463134765625000e-01 -2.663764953613281250e+00
4.590000000000000000e+02 7.094967651367187500e+01 3.175510787963867188e+01 -3.327085077762603760e-01 7.673334479331970215e-01 1.303874701261520386e-01 -1.441671371459960938e+00
4.600000000000000000e+02 7.153689575195312500e+01 3.022259902954101562e+01 -1.291148513555526733e-01 1.086807370185852051e+00 2.873077690601348877e-01 2.439451694488525391e+00
4.610000000000000000e+02 7.058318328857421875e+01 2.974658393859863281e+01 -1.405327320098876953e+00 8.529293537139892578e-01 -1.657193899154663086e-01 1.654529690742492676e+00
4.620000000000000000e+02 7.138077545166015625e+01 3.007810783386230469e+01 2.891553938388824463e-01 1.344560384750366211e+00 4.901147186756134033e-01 2.620598554611206055e+00
4.630000000000000000e+02 7.102250671386718750e+01 3.018179893493652344e+01 -1.895121335983276367e+00 4.004968404769897461e-01 -4.483873248100280762e-01 1.220669865608215332e+00
4.640000000000000000e+02 7.189178466796875000e+01 2.995367813110351562e+01 2.426796913146972656e+00 4.521325111389160156e+00 2.084436655044555664e+00 5.609818458557128906e+00
4.650000000000000000e+02 7.032094573974609375e+01 3.033433341979980469e+01 -4.257467746734619141e+00 1.133829951286315918e-01 -1.243225336074829102e+00 2.766288220882415771e-01
4.660000000000000000e+02 7.015449523925781250e+01 3.132092857360839844e+01 -3.611308574676513672e+00 -5.239328742027282715e-02 -1.099110603332519531e+00 -1.698306575417518616e-02
4.670000000000000000e+02 7.040544891357421875e+01 3.010930442810058594e+01 -3.001316547393798828e+00 2.489999979734420776e-01 -8.256949782371520996e-01 6.193909049034118652e-01
4.680000000000000000e+02 7.116840362548828125e+01 3.127363777160644531e+01 -2.724490642547607422e+00 1.702428162097930908e-01 -7.662743330001831055e-01 -4.594089090824127197e-01
4.690000000000000000e+02 7.135089874267578125e+01 3.154193878173828125e+01 7.704004645347595215e-02 7.238590121269226074e-01 2.402697205543518066e-01 -1.646428823471069336e+00
4.700000000000000000e+02 7.075987243652343750e+01 3.150655364990234375e+01 -1.969811201095581055e+00 2.575512230396270752e-01 -5.136780142784118652e-01 -5.794987082481384277e-01
4.710000000000000000e+02 7.057701873779296875e+01 3.126997756958007812e+01 -3.691270112991333008e+00 1.798916794359683990e-02 -1.101984262466430664e+00 -1.432918608188629150e-01
4.720000000000000000e+02 7.028571319580078125e+01 3.002918624877929688e+01 -2.762985944747924805e+00 2.827452123165130615e-01 -7.440722584724426270e-01 6.460580825805664062e-01
4.730000000000000000e+02 7.053278350830078125e+01 3.173977661132812500e+01 -1.407341122627258301e+00 3.628183305263519287e-01 -3.133568167686462402e-01 -7.361583709716796875e-01
4.740000000000000000e+02 7.095613861083984375e+01 3.151133918762207031e+01 -1.530799865722656250e+00 3.314256668090820312e-01 -3.598122596740722656e-01 -8.165604472160339355e-01
4.750000000000000000e+02 6.958420562744140625e+01 3.099443054199218750e+01 -5.048829078674316406e+00 9.329373389482498169e-02 -1.486660599708557129e+00 1.229150816798210144e-01
4.760000000000000000e+02 6.874288177490234375e+01 3.117543029785156250e+01 -4.349565982818603516e+00 4.318329505622386932e-03 -1.303574204444885254e+00 1.669520735740661621e-01
4.770000000000000000e+02 6.973069763183593750e+01 3.169384956359863281e+01 -2.458595991134643555e+00 1.285788565874099731e-01 -6.990051269531250000e-01 -1.870560199022293091e-01
4.780000000000000000e+02 6.946728515625000000e+01 3.160438346862792969e+01 -3.003693580627441406e+00 1.073982194066047668e-01 -8.688886165618896484e-01 -1.503567546606063843e-01
4.790000000000000000e+02 6.802155303955078125e+01 3.124735641479492188e+01 -4.010399341583251953e+00 -6.119388621300458908e-03 -1.204955697059631348e+00 1.636748313903808594e-01
4.800000000000000000e+02 6.967290496826171875e+01 3.207128524780273438e+01 -1.421857595443725586e+00 1.811384707689285278e-01 -3.722157478332519531e-01 -4.061444997787475586e-01
4.810000000000000000e+02 6.928376007080078125e+01 3.209462738037109375e+01 -1.577893376350402832e+00 3.800875842571258545e-01 -3.593417406082153320e-01 -2.471509873867034912e-01
4.820000000000000000e+02 6.725618743896484375e+01 3.198817634582519531e+01 -2.518440961837768555e+00 1.802423968911170959e-02 -7.501249909400939941e-01 2.954331636428833008e-01
4.830000000000000000e+02 6.725274658203125000e+01 3.124816322326660156e+01 -3.686178922653198242e+00 -5.322541110217571259e-03 -1.107450485229492188e+00 1.523818820714950562e-01
4.840000000000000000e+02 6.923384857177734375e+01 3.116198539733886719e+01 -4.587216377258300781e+00 -6.091109290719032288e-02 -1.394438266754150391e+00 1.534627377986907959e-01
4.850000000000000000e+02 6.976482391357421875e+01 3.136478042602539062e+01 -3.738123178482055664e+00 1.681015044450759888e-01 -1.071006536483764648e+00 1.371259540319442749e-01
4.860000000000000000e+02 6.969185638427734375e+01 3.188110160827636719e+01 -1.781875371932983398e+00 1.724756509065628052e-01 -4.828199148178100586e-01 -3.575795292854309082e-01
4.870000000000000000e+02 6.958342742919921875e+01 3.226482009887695312e+01 -1.084166765213012695e+00 3.855627179145812988e-01 -2.095812112092971802e-01 -4.984135031700134277e-01
4.880000000000000000e+02 6.946060180664062500e+01 3.130279541015625000e+01 -4.114033699035644531e+00 9.627117216587066650e-02 -1.205328702926635742e+00 9.568074345588684082e-02
4.890000000000000000e+02 6.976881408691406250e+01 3.152335166931152344e+01 -3.111984729766845703e+00 1.506512761116027832e-01 -8.884000182151794434e-01 -8.905727416276931763e-02
4.900000000000000000e+02 6.970721435546875000e+01 3.119507217407226562e+01 -4.280311107635498047e+00 1.901678889989852905e-01 -1.227043032646179199e+00 1.940909773111343384e-01
4.910000000000000000e+02 6.875220489501953125e+01 3.206053161621093750e+01 -2.098294496536254883e+00 1.643230170011520386e-01 -5.801914334297180176e-01 7.593360263854265213e-03
4.920000000000000000e+02 6.802340698242187500e+01 3.198736381530761719e+01 -2.416630744934082031e+00 3.678273782134056091e-02 -7.139544486999511719e-01 2.130577713251113892e-01
4.930000000000000000e+02 6.894638061523437500e+01 3.161610794067382812e+01 -3.100065469741821289e+00 5.713890492916107178e-02 -9.128779768943786621e-01 1.072354689240455627e-01
4.940000000000000000e+02 6.933426666259765625e+01 3.181156158447265625e+01 -2.290143489837646484e+00 2.168104946613311768e-01 -6.219999194145202637e-01 -1.329526007175445557e-01
4.950000000000000000e+02 6.925766754150390625e+01 3.142624855041503906e+01 -3.833154439926147461e+00 -6.679509580135345459e-02 -1.169984817504882812e+00 2.794254198670387268e-02
4.960000000000000000e+02 6.959683990478515625e+01 3.144990348815917969e+01 -3.618770360946655273e+00 1.231796666979789734e-01 -1.048677206039428711e+00 -2.960905898362398148e-03
4.970000000000000000e+02 6.575241088867187500e+01 3.126423072814941406e+01 -3.187902927398681641e+00 -1.239415723830461502e-02 -9.600890874862670898e-01 1.689029633998870850e-01
4.980000000000000000e+02 6.501776123046875000e+01 3.201393890380859375e+01 -2.220023155212402344e+00 -6.355550140142440796e-03 -6.679136157035827637e-01 3.613449037075042725e-01
4.990000000000000000e+02 6.425657653808593750e+01 3.128445243835449219e+01 -2.668514490127563477e+00 -9.545766748487949371e-03 -8.034180998802185059e-01 1.780443489551544189e-01
5.000000000000000000e+02 6.650653839111328125e+01 3.199358749389648438e+01 -2.469006776809692383e+00 8.884702809154987335e-03 -7.380365729331970215e-01 3.088739514350891113e-01
5.010000000000000000e+02 6.650051116943359375e+01 3.125359916687011719e+01 -3.419359922409057617e+00 1.330725383013486862e-02 -1.021815776824951172e+00 1.626071482896804810e-01
5.020000000000000000e+02 6.427339935302734375e+01 3.202428817749023438e+01 -2.097686290740966797e+00 7.216121535748243332e-03 -6.271409988403320312e-01 3.595202863216400146e-01
5.030000000000000000e+02 6.576203918457031250e+01 3.200416946411132812e+01 -2.354106903076171875e+00 2.396179549396038055e-02 -6.990435123443603516e-01 3.386899232864379883e-01
5.040000000000000000e+02 6.500453948974609375e+01 3.127404975891113281e+01 -2.938146591186523438e+00 1.026349235326051712e-02 -8.783649802207946777e-01 1.718562990427017212e-01
5.050000000000000000e+02 6.204193878173828125e+01 3.210000610351562500e+01 -1.643984556198120117e+00 -3.298405557870864868e-02 -5.030905604362487793e-01 3.437297344207763672e-01
5.060000000000000000e+02 6.201310729980468750e+01 3.136056327819824219e+01 -2.021437644958496094e+00 -6.783839780837297440e-03 -6.084664463996887207e-01 1.759994328022003174e-01
5.070000000000000000e+02 6.126666641235351562e+01 3.138534736633300781e+01 -1.812933444976806641e+00 -1.131908316165208817e-02 -5.472757220268249512e-01 1.710605621337890625e-01
5.080000000000000000e+02 6.276046371459960938e+01 3.133337402343750000e+01 -2.228342533111572266e+00 -1.849796809256076813e-02 -6.740521788597106934e-01 1.881545186042785645e-01
5.090000000000000000e+02 6.352939224243164062e+01 3.204366302490234375e+01 -1.951566338539123535e+00 -1.734698191285133362e-02 -5.906739830970764160e-01 3.545865714550018311e-01
5.100000000000000000e+02 6.350872802734375000e+01 3.130392646789550781e+01 -2.432239770889282227e+00 7.523969281464815140e-03 -7.274147272109985352e-01 1.854672431945800781e-01
5.110000000000000000e+02 6.129957962036132812e+01 3.212464141845703125e+01 -1.509621143341064453e+00 -1.663755998015403748e-02 -4.578776061534881592e-01 3.259941041469573975e-01
5.120000000000000000e+02 6.278520965576171875e+01 3.207296371459960938e+01 -1.791354775428771973e+00 -1.546519342809915543e-02 -5.420459508895874023e-01 3.418337404727935791e-01
5.130000000000000000e+02 5.902614212036132812e+01 3.150998687744140625e+01 -1.309617042541503906e+00 -1.581845991313457489e-02 -3.976306617259979248e-01 1.559041291475296021e-01
5.140000000000000000e+02 5.907215118408203125e+01 3.224856185913085938e+01 -1.093000173568725586e+00 -3.291195631027221680e-02 -3.377736210823059082e-01 2.932115793228149414e-01
5.150000000000000000e+02 5.828060531616210938e+01 3.155119895935058594e+01 -1.146119952201843262e+00 -9.451937861740589142e-03 -3.466715812683105469e-01 1.495127528905868530e-01
5.160000000000000000e+02 5.977254104614257812e+01 3.146639251708984375e+01 -1.471276044845581055e+00 -1.608222909271717072e-02 -4.462074935436248779e-01 1.694583743810653687e-01
5.170000000000000000e+02 6.055696487426757812e+01 3.215964889526367188e+01 -1.363865375518798828e+00 -2.730911783874034882e-02 -4.173523485660552979e-01 3.139556050300598145e-01
5.180000000000000000e+02 6.051979827880859375e+01 3.142056083679199219e+01 -1.631489753723144531e+00 -5.040261894464492798e-03 -4.909590184688568115e-01 1.705634146928787231e-01
5.190000000000000000e+02 5.833103179931640625e+01 3.228951644897460938e+01 -9.847980141639709473e-01 -3.760917484760284424e-02 -3.067221641540527344e-01 2.660045623779296875e-01
5.200000000000000000e+02 5.981412887573242188e+01 3.220522308349609375e+01 -1.222235679626464844e+00 -2.981969714164733887e-02 -3.756166100502014160e-01 2.939547300338745117e-01
5.210000000000000000e+02 5.604499816894531250e+01 3.173213005065917969e+01 -7.707386612892150879e-01 -3.019591420888900757e-02 -2.402803748846054077e-01 1.196816787123680115e-01
5.220000000000000000e+02 5.611047744750976562e+01 3.246923828125000000e+01 -6.639848351478576660e-01 -2.664329484105110168e-02 -2.071884423494338989e-01 2.233606874942779541e-01
5.230000000000000000e+02 5.530117034912109375e+01 3.179267501831054688e+01 -6.584669947624206543e-01 7.798365550115704536e-05 -1.975167095661163330e-01 1.123794838786125183e-01
5.240000000000000000e+02 5.678963851928710938e+01 3.166926193237304688e+01 -8.873835802078247070e-01 -7.898699492216110229e-03 -2.685846984386444092e-01 1.384387612342834473e-01
5.250000000000000000e+02 5.759029388427734375e+01 3.234218597412109375e+01 -8.667845726013183594e-01 -2.587945759296417236e-02 -2.677991986274719238e-01 2.582610249519348145e-01
5.260000000000000000e+02 5.753508758544921875e+01 3.160421562194824219e+01 -1.007531166076660156e+00 -1.891651190817356110e-02 -3.079343140125274658e-01 1.402445286512374878e-01
5.270000000000000000e+02 5.537178421020507812e+01 3.252934646606445312e+01 -5.748263597488403320e-01 -5.024789273738861084e-02 -1.875222772359848022e-01 1.977588236331939697e-01
5.280000000000000000e+02 5.684997940063476562e+01 3.240679931640625000e+01 -7.584376931190490723e-01 -5.050894618034362793e-02 -2.426839917898178101e-01 2.261364012956619263e-01
5.290000000000000000e+02 5.315649414062500000e+01 3.277415466308593750e+01 -3.653927445411682129e-01 -2.605555206537246704e-02 -1.174344867467880249e-01 1.419428735971450806e-01
5.300000000000000000e+02 5.307151031494140625e+01 3.203905105590820312e+01 -4.152592122554779053e-01 -2.574506029486656189e-02 -1.323012709617614746e-01 8.160591870546340942e-02
5.310000000000000000e+02 5.232960128784179688e+01 3.212165451049804688e+01 -3.487935364246368408e-01 -3.846569219604134560e-03 -1.057920381426811218e-01 7.253210991621017456e-02
5.320000000000000000e+02 5.381415176391601562e+01 3.195396995544433594e+01 -4.868807494640350342e-01 -4.896832630038261414e-03 -1.475332677364349365e-01 9.476057440042495728e-02
5.330000000000000000e+02 5.463307952880859375e+01 3.260275268554687500e+01 -4.985331594944000244e-01 -2.617863379418849945e-02 -1.574135422706604004e-01 1.753677576780319214e-01
5.340000000000000000e+02 5.455753707885742188e+01 3.186656951904296875e+01 -5.637561082839965820e-01 -2.797792665660381317e-02 -1.775202155113220215e-01 1.022607684135437012e-01
5.350000000000000000e+02 5.241930389404296875e+01 3.285622024536132812e+01 -3.122221231460571289e-01 -4.124763980507850647e-02 -1.060409247875213623e-01 1.251883208751678467e-01
5.360000000000000000e+02 5.389441299438476562e+01 3.268961715698242188e+01 -4.268014430999755859e-01 -4.770256951451301575e-02 -1.423512101173400879e-01 1.569860577583312988e-01
5.370000000000000000e+02 5.010603713989257812e+01 3.241886520385742188e+01 -2.054105997085571289e-01 -1.598372310400009155e-02 -6.641829758882522583e-02 4.748399928212165833e-02
5.380000000000000000e+02 5.020995712280273438e+01 3.315154266357421875e+01 -1.865406632423400879e-01 -1.795285940170288086e-02 -6.134805455803871155e-02 8.433353155851364136e-02
5.390000000000000000e+02 4.936609268188476562e+01 3.251750564575195312e+01 -1.663800179958343506e-01 -3.411283716559410095e-03 -5.093739181756973267e-02 4.239905253052711487e-02
5.400000000000000000e+02 5.084666061401367188e+01 3.231782531738281250e+01 -2.466864287853240967e-01 -5.688248667865991592e-03 -7.571240514516830444e-02 5.668640509247779846e-02
5.410000000000000000e+02 5.168240356445312500e+01 3.294850540161132812e+01 -2.651284337043762207e-01 -2.145286276936531067e-02 -8.597439527511596680e-02 1.081486418843269348e-01
5.420000000000000000e+02 5.158797073364257812e+01 3.221453475952148438e+01 -2.930482029914855957e-01 -1.965510845184326172e-02 -9.381099790334701538e-02 6.353600323200225830e-02
5.430000000000000000e+02 4.947475433349609375e+01 3.324953460693359375e+01 -1.590664386749267578e-01 -2.779582142829895020e-02 -5.605867877602577209e-02 7.112934440374374390e-02
5.440000000000000000e+02 5.094583892822265625e+01 3.305115127563476562e+01 -2.238478213548660278e-01 -3.500601649284362793e-02 -7.765614986419677734e-02 9.469226747751235962e-02
5.450000000000000000e+02 4.727144622802734375e+01 3.360919570922851562e+01 -8.158349245786666870e-02 -1.165688689798116684e-02 -2.797211334109306335e-02 4.895582422614097595e-02
5.460000000000000000e+02 4.715089797973632812e+01 3.287907791137695312e+01 -8.553721755743026733e-02 -1.442843489348888397e-02 -2.998969703912734985e-02 2.437761984765529633e-02
5.470000000000000000e+02 4.641378021240234375e+01 3.299990844726562500e+01 -6.541816145181655884e-02 9.458599379286170006e-04 -1.934169046580791473e-02 2.128810994327068329e-02
5.480000000000000000e+02 4.788861083984375000e+01 3.275563049316406250e+01 -1.088895797729492188e-01 -1.304938574321568012e-03 -3.305835649371147156e-02 3.286641091108322144e-02
5.490000000000000000e+02 4.873987197875976562e+01 3.336110687255859375e+01 -1.289639919996261597e-01 -1.274954527616500854e-02 -4.251405969262123108e-02 6.612928211688995361e-02
5.500000000000000000e+02 4.862693405151367188e+01 3.262971878051757812e+01 -1.355157047510147095e-01 -1.396521553397178650e-02 -4.484427720308303833e-02 3.461439535021781921e-02
5.510000000000000000e+02 4.653813171386718750e+01 3.372938919067382812e+01 -6.085070595145225525e-02 -2.239572443068027496e-02 -2.497392892837524414e-02 3.822604566812515259e-02
5.520000000000000000e+02 4.800535202026367188e+01 3.348638153076171875e+01 -1.032760366797447205e-01 -2.519594319164752960e-02 -3.854159265756607056e-02 5.347803235054016113e-02
5.530000000000000000e+02 4.420226669311523438e+01 3.339414215087890625e+01 -2.383695170283317566e-02 -7.056146860122680664e-03 -9.267929941415786743e-03 8.805429562926292419e-03
5.540000000000000000e+02 4.433515167236328125e+01 3.412211608886718750e+01 -2.719531394541263580e-02 -5.796736571937799454e-03 -9.897614829242229462e-03 2.018433436751365662e-02
5.550000000000000000e+02 4.346595001220703125e+01 3.352351760864257812e+01 -1.507232151925563812e-02 9.385193698108196259e-04 -4.240140784531831741e-03 7.166180759668350220e-03
5.560000000000000000e+02 4.493911361694335938e+01 3.326211166381835938e+01 -3.456763178110122681e-02 3.041230374947190285e-04 -1.027905289083719254e-02 1.311789546161890030e-02
5.570000000000000000e+02 4.580409240722656250e+01 3.385649871826171875e+01 -4.824695736169815063e-02 -7.015472277998924255e-03 -1.657872833311557770e-02 2.996517159044742584e-02
5.580000000000000000e+02 4.567650985717773438e+01 3.312757492065429688e+01 -4.842416197061538696e-02 -1.043685898184776306e-02 -1.765830628573894501e-02 1.598343625664710999e-02
5.590000000000000000e+02 4.360148620605468750e+01 3.425101852416992188e+01 -1.871761865913867950e-02 -1.042148564010858536e-02 -8.741731755435466766e-03 1.521725021302700043e-02
5.600000000000000000e+02 4.506934738159179688e+01 3.399055862426757812e+01 -3.741281852126121521e-02 -1.535437814891338348e-02 -1.583015918731689453e-02 2.534730546176433563e-02
5.610000000000000000e+02 4.139850234985351562e+01 3.467833328247070312e+01 -3.675829851999878883e-03 -1.511631417088210583e-03 -1.556238392367959023e-03 7.755412720143795013e-03
5.620000000000000000e+02 4.199465942382812500e+01 3.380642318725585938e+01 -2.822543494403362274e-03 1.504383049905300140e-03 -3.954481217078864574e-04 3.824705956503748894e-03
5.630000000000000000e+02 4.052394866943359375e+01 3.409660720825195312e+01 5.065694916993379593e-03 1.712945755571126938e-03 2.033592201769351959e-03 7.949388236738741398e-04
5.640000000000000000e+02 4.213290405273437500e+01 3.453341293334960938e+01 -7.557878270745277405e-03 -6.396492011845111847e-03 -4.186311271041631699e-03 8.443859405815601349e-03
5.650000000000000000e+02 4.272992324829101562e+01 3.366130447387695312e+01 -8.536777459084987640e-03 -4.770574159920215607e-03 -3.992205485701560974e-03 4.176118876785039902e-03
5.660000000000000000e+02 4.286724853515625000e+01 3.438847732543945312e+01 -1.200600527226924896e-02 -3.252841997891664505e-03 -4.577653948217630386e-03 1.183166075497865677e-02
5.670000000000000000e+02 4.066404342651367188e+01 3.482323455810546875e+01 5.554078379645943642e-04 -6.278839427977800369e-03 -1.717029488645493984e-03 4.401294514536857605e-03
5.680000000000000000e+02 4.125933456420898438e+01 3.395152664184570312e+01 1.731701195240020752e-03 -3.836983349174261093e-03 -6.315846694633364677e-04 1.310861785896122456e-03
5.690000000000000000e+02 3.905131912231445312e+01 3.438002777099609375e+01 9.038544259965419769e-03 2.683493541553616524e-03 3.516611410304903984e-03 5.767396942246705294e-05
5.700000000000000000e+02 3.845631790161132812e+01 3.524533081054687500e+01 4.252060782164335251e-03 1.493185875006020069e-03 1.723574008792638779e-03 1.518102479167282581e-03
5.710000000000000000e+02 3.757802581787109375e+01 3.465816116333007812e+01 9.823620319366455078e-03 3.899700008332729340e-03 4.116996191442012787e-03 -1.252465997822582722e-03
5.720000000000000000e+02 3.992870712280273438e+01 3.496635818481445312e+01 4.456893075257539749e-03 1.079102803487330675e-04 1.369441044516861439e-03 3.052145242691040039e-03
5.730000000000000000e+02 3.978794097900390625e+01 3.423986434936523438e+01 6.848304998129606247e-03 -2.533541293814778328e-03 1.294429064728319645e-03 -1.043388503603637218e-03
5.740000000000000000e+02 3.772006225585937500e+01 3.538441467285156250e+01 5.988966207951307297e-03 -3.725198330357670784e-03 6.791302585043013096e-04 -1.550881541334092617e-03
5.750000000000000000e+02 3.919250869750976562e+01 3.510644531250000000e+01 3.845799248665571213e-03 -3.270264249294996262e-03 1.726605551084503531e-04 -6.658465135842561722e-04
5.760000000000000000e+02 3.831470489501953125e+01 3.451899719238281250e+01 9.724235162138938904e-03 -3.462136257439851761e-03 1.878629787825047970e-03 -2.518088789656758308e-03
5.770000000000000000e+02 3.551680755615234375e+01 3.582569122314453125e+01 5.588194355368614197e-03 3.526873420923948288e-03 2.734520239755511284e-03 -1.973024802282452583e-03
5.780000000000000000e+02 3.610754394531250000e+01 3.495201110839843750e+01 9.198659099638462067e-03 3.429947188124060631e-03 3.788581816479563713e-03 -1.714142621494829655e-03
5.790000000000000000e+02 3.463803482055664062e+01 3.524788665771484375e+01 7.702645845711231232e-03 2.749812789261341095e-03 3.135737730190157890e-03 -1.693291240371763706e-03
5.800000000000000000e+02 3.684228134155273438e+01 3.480297470092773438e+01 9.612423367798328400e-03 -3.030612366273999214e-03 1.974543323740363121e-03 -2.588213421404361725e-03
5.810000000000000000e+02 3.698487472534179688e+01 3.552911758422851562e+01 5.763682071119546890e-03 3.413558471947908401e-03 2.753172069787979126e-03 -8.955221856012940407e-04
5.820000000000000000e+02 3.478272247314453125e+01 3.597360992431640625e+01 5.593869835138320923e-03 -2.158354967832565308e-03 1.030654530040919781e-03 -2.243490424007177353e-03
5.830000000000000000e+02 3.625083541870117188e+01 3.567801284790039062e+01 6.250225007534027100e-03 -3.349016420543193817e-03 8.703625644557178020e-04 -2.063641790300607681e-03
5.840000000000000000e+02 3.537281799316406250e+01 3.509983062744140625e+01 8.521632291376590729e-03 -2.167177386581897736e-03 1.906336401589214802e-03 -2.470432315021753311e-03
5.850000000000000000e+02 3.242737579345703125e+01 3.568672943115234375e+01 4.569139331579208374e-03 -8.146912441588938236e-04 1.126334420405328274e-03 -1.544691389426589012e-03
5.860000000000000000e+02 3.169006347656250000e+01 3.583216094970703125e+01 3.814381081610918045e-03 1.473592128604650497e-03 1.586391939781606197e-03 -9.045872138813138008e-04
5.870000000000000000e+02 3.330534362792968750e+01 3.626757049560546875e+01 3.561895573511719704e-03 -4.947502166032791138e-04 9.201436187140643597e-04 -1.916713430546224117e-03
5.880000000000000000e+02 3.316469573974609375e+01 3.554105377197265625e+01 5.600894335657358170e-03 2.023071516305208206e-03 2.287189709022641182e-03 -1.563241239637136459e-03
5.890000000000000000e+02 3.390202713012695312e+01 3.539514541625976562e+01 6.798150949180126190e-03 -1.498651574365794659e-03 1.589849824085831642e-03 -2.096960321068763733e-03
5.900000000000000000e+02 3.404560089111328125e+01 3.612108612060546875e+01 3.940865397453308105e-03 2.544357907027006149e-03 1.945566968061029911e-03 -2.737189875915646553e-03
5.910000000000000000e+02 3.182485580444335938e+01 3.655983352661132812e+01 2.636985387653112411e-03 -2.222583570983260870e-04 7.244180887937545776e-04 -1.635589171200990677e-03
5.920000000000000000e+02 3.256509399414062500e+01 3.641382217407226562e+01 3.125388873741030693e-03 1.938534667715430260e-03 1.519177109003067017e-03 -1.820256817154586315e-03
5.930000000000000000e+02 2.946516418457031250e+01 3.621912765502929688e+01 2.034860430285334587e-03 -7.358838920481503010e-04 3.896929847542196512e-04 -6.580630433745682240e-04
5.940000000000000000e+02 2.958438682556152344e+01 3.694947052001953125e+01 1.298839575611054897e-03 1.295840716920793056e-03 7.784040644764900208e-04 -9.560468606650829315e-04
5.950000000000000000e+02 2.872264671325683594e+01 3.634394836425781250e+01 1.537508214823901653e-03 8.862958056852221489e-04 7.271412177942693233e-04 -4.127818974666297436e-04
5.960000000000000000e+02 3.020768547058105469e+01 3.609378433227539062e+01 2.464404329657554626e-03 1.210683025419712067e-03 1.102526206523180008e-03 -5.804690299555659294e-04
5.970000000000000000e+02 3.095018768310546875e+01 3.596792221069335938e+01 3.158338600769639015e-03 -8.260611793957650661e-04 6.996832089498639107e-04 -1.070059952326118946e-03
5.980000000000000000e+02 3.108069419860839844e+01 3.669636154174804688e+01 2.057960024103522301e-03 1.445407862775027752e-03 1.051010447554290295e-03 -1.064286450855433941e-03
5.990000000000000000e+02 2.883622932434082031e+01 3.707524490356445312e+01 1.248374464921653271e-03 -4.843616043217480183e-04 2.292038552695885301e-04 -6.881847511976957321e-04
6.000000000000000000e+02 3.033255004882812500e+01 3.682317352294921875e+01 2.092624548822641373e-03 -5.500423721969127655e-04 4.627746238838881254e-04 -1.183438114821910858e-03
6.010000000000000000e+02 2.647223281860351562e+01 3.666142654418945312e+01 6.058957660570740700e-04 -6.882135057821869850e-04 -2.469531682436354458e-05 -2.812187012750655413e-04
6.020000000000000000e+02 2.572040748596191406e+01 3.676027679443359375e+01 2.703987993299961090e-04 7.631843327544629574e-04 3.100749454461038113e-04 -1.323379256064072251e-04
6.030000000000000000e+02 2.731099891662597656e+01 3.729562377929687500e+01 6.211525178514420986e-04 -2.940776757895946503e-04 9.812245843932032585e-05 -7.010668632574379444e-04
6.040000000000000000e+02 2.722403526306152344e+01 3.656066131591796875e+01 7.957425550557672977e-04 7.631858461536467075e-04 4.676785320043563843e-04 -1.365603529848158360e-04
6.050000000000000000e+02 2.797564125061035156e+01 3.645804595947265625e+01 1.139927306212484837e-03 -5.568589549511671066e-04 1.749204966472461820e-04 -4.472215368878096342e-04
6.060000000000000000e+02 2.807846832275390625e+01 3.719087982177734375e+01 9.648915147408843040e-04 8.564650197513401508e-04 5.464069545269012451e-04 -6.440603174269199371e-04
6.070000000000000000e+02 2.577564430236816406e+01 3.749948883056640625e+01 6.708330474793910980e-04 -6.065026973374187946e-04 1.929911013576202095e-05 -1.992328907363116741e-04
6.080000000000000000e+02 2.654333496093750000e+01 3.739851379394531250e+01 1.787537767086178064e-04 8.107678149826824665e-04 2.968564804177731276e-04 -1.766230707289651036e-04
6.090000000000000000e+02 2.340743637084960938e+01 3.754123687744140625e+01 4.864596121478825808e-05 3.068793448619544506e-04 1.066575860022567213e-04 -3.055558481719344854e-04
6.100000000000000000e+02 2.266618919372558594e+01 3.679620742797851562e+01 -6.460658914875239134e-05 6.606672104680910707e-05 4.380391942504502367e-07 -8.659894228912889957e-05
6.110000000000000000e+02 2.419788742065429688e+01 3.680555725097656250e+01 5.028894884162582457e-05 3.619709459599107504e-04 1.236779644386842847e-04 -1.346749195363372564e-04
6.120000000000000000e+02 2.496211051940917969e+01 3.680892944335937500e+01 2.322470827493816614e-04 -5.223588086664676666e-04 -8.703352068550884724e-05 1.975810164367430843e-06
6.130000000000000000e+02 2.499495697021484375e+01 3.754912567138671875e+01 8.076424273895099759e-05 6.804967997595667839e-04 2.283783251186832786e-04 -4.766505153384059668e-04
6.140000000000000000e+02 2.261228370666503906e+01 3.753591537475585938e+01 2.330235292902216315e-05 -1.562993129482492805e-04 -3.989908509538508952e-05 1.318807335337623954e-04
6.150000000000000000e+02 2.343242454528808594e+01 3.680136489868164062e+01 1.384402366966241971e-06 -1.864380174083635211e-04 -5.551608410314656794e-05 4.865997107117436826e-05
6.160000000000000000e+02 2.420181655883789062e+01 3.754558944702148438e+01 1.536532217869535089e-04 -3.777431847993284464e-04 -6.722698890371248126e-05 1.457820180803537369e-04
6.170000000000000000e+02 1.998039245605468750e+01 3.692026138305664062e+01 2.005120404646731913e-05 7.067472324706614017e-05 2.721777673286851496e-05 -1.766844616213347763e-05
6.180000000000000000e+02 2.062745285034179688e+01 3.732268142700195312e+01 4.159273157711140811e-05 1.425027585355564952e-04 5.522864739759825170e-05 4.886135866399854422e-05
6.190000000000000000e+02 2.113145446777343750e+01 3.686664581298828125e+01 -3.215216565877199173e-04 -2.227523364126682281e-04 -1.632821949897333980e-04 -5.340817551768850535e-06
6.200000000000000000e+02 2.021580696105957031e+01 3.715901565551757812e+01 -2.847883442882448435e-04 -8.394798896915744990e-06 -8.795494068181142211e-05 1.375051360810175538e-04
6.210000000000000000e+02 2.186282539367675781e+01 3.673282623291015625e+01 -1.348792375210905448e-05 1.032763830153271556e-04 2.693653914320748299e-05 9.237656195182353258e-05
6.220000000000000000e+02 2.186202239990234375e+01 3.748466491699218750e+01 -1.007356113404966891e-04 2.422477991785854101e-04 4.245365562383085489e-05 -1.707034971332177520e-04
6.230000000000000000e+02 2.119230079650878906e+01 3.743341445922851562e+01 1.650158665142953396e-04 -2.619819424580782652e-04 -2.908982605731580406e-05 5.126554970047436655e-05
6.240000000000000000e+02 2.068652153015136719e+01 3.649208450317382812e+01 9.788358875084668398e-05 -2.072637835226487368e-05 2.314716221007984132e-05 -6.488979852292686701e-05
6.250000000000000000e+02 2.102560424804687500e+01 3.579481887817382812e+01 1.173293800093233585e-03 8.433978655375540257e-04 6.050075171515345573e-04 1.902064774185419083e-03
6.260000000000000000e+02 2.197462081909179688e+01 3.519912338256835938e+01 2.418096642941236496e-03 6.177566247060894966e-04 9.107560035772621632e-04 5.492858588695526123e-03
6.270000000000000000e+02 2.189435958862304688e+01 3.593660354614257812e+01 5.734154488891363144e-03 6.168441032059490681e-04 1.905299606733024120e-03 2.794721629470586777e-03
6.280000000000000000e+02 2.057264900207519531e+01 3.514139175415039062e+01 3.392378857824951410e-04 3.906394354999065399e-03 1.273689675144851208e-03 6.075997953303158283e-04
6.290000000000000000e+02 2.112965202331542969e+01 3.506163787841796875e+01 1.397984568029642105e-03 4.257814958691596985e-03 1.696739811450242996e-03 3.889736719429492950e-03
6.300000000000000000e+02 2.114754867553710938e+01 3.335957336425781250e+01 -5.333937006071209908e-04 1.030356343835592270e-02 2.931050956249237061e-03 2.782419091090559959e-03
6.310000000000000000e+02 2.118666839599609375e+01 3.420656967163085938e+01 -1.304006087593734264e-03 5.616678390651941299e-03 1.293801702558994293e-03 3.920041490346193314e-03
6.320000000000000000e+02 2.468726730346679688e+01 3.347421646118164062e+01 -2.286153100430965424e-02 -1.430098246783018112e-02 -1.114875450730323792e-02 -1.231991127133369446e-02
6.330000000000000000e+02 2.698980522155761719e+01 3.426820373535156250e+01 -3.824183717370033264e-02 -4.121834877878427505e-03 -1.270910166203975677e-02 -1.916996575891971588e-02
6.340000000000000000e+02 2.100577926635742188e+01 2.538389205932617188e+01 -2.222439972683787346e-03 -1.345252543687820435e-01 -4.102430865168571472e-02 -2.530527301132678986e-02
6.350000000000000000e+02 2.589929199218750000e+01 1.712316703796386719e+01 -2.962311543524265289e-02 -5.590876340866088867e-01 -1.766132265329360962e-01 -3.636254668235778809e-01
6.360000000000000000e+02 3.335037612915039062e+01 1.190199661254882812e+01 1.329674292355775833e-02 -4.111456274986267090e-01 -1.193546652793884277e-01 -6.473852992057800293e-01
6.370000000000000000e+02 3.973228836059570312e+01 3.213512420654296875e+00 2.588405311107635498e-01 -6.384833250194787979e-03 7.573670893907546997e-02 -5.051489472389221191e-01
6.380000000000000000e+02 4.583839797973632812e+01 -4.678101062774658203e+00 3.808587491512298584e-01 8.151176571846008301e-01 3.587929308414459229e-01 -1.899162381887435913e-01
6.390000000000000000e+02 5.975510787963867188e+01 -1.301617813110351562e+01 2.733054161071777344e-01 3.146034240722656250e+00 1.025801897048950195e+00 2.071218639612197876e-01
6.400000000000000000e+02 6.394907760620117188e+01 -1.616442489624023438e+01 1.719038188457489014e-01 3.865104913711547852e+00 1.211102604866027832e+00 2.009451091289520264e-01
6.410000000000000000e+02 7.123213958740234375e+01 -2.407308578491210938e+01 3.135212510824203491e-02 5.015704154968261719e+00 1.514116764068603516e+00 8.080064505338668823e-02
6.420000000000000000e+02 7.781523895263671875e+01 -3.084239387512207031e+01 -6.280320230871438980e-04 5.927773475646972656e+00 1.778143644332885742e+00 1.161418575793504715e-02
6.430000000000000000e+02 7.926082611083984375e+01 -2.649935913085937500e+01 3.077640896663069725e-03 6.162364006042480469e+00 1.849632501602172852e+00 2.625439083203673363e-03
6.440000000000000000e+02 7.787904357910156250e+01 -2.367541313171386719e+01 5.458496161736547947e-04 5.999353408813476562e+00 1.799969792366027832e+00 2.246598713099956512e-02
6.450000000000000000e+02 7.930661010742187500e+01 -2.228283309936523438e+01 -1.108449068851768970e-03 6.215735912322998047e+00 1.864388227462768555e+00 5.527047906070947647e-03
6.460000000000000000e+02 7.273136901855468750e+01 -1.188483905792236328e+01 6.389100104570388794e-02 5.427699565887451172e+00 1.647477269172668457e+00 2.110458910465240479e-01
6.470000000000000000e+02 6.699459075927734375e+01 -4.435269355773925781e+00 2.791608273983001709e-01 4.378580570220947266e+00 1.397322416305541992e+00 4.447770416736602783e-01
6.480000000000000000e+02 6.060300064086914062e+01 1.021565556526184082e+00 5.369352102279663086e-01 2.883002281188964844e+00 1.025981307029724121e+00 4.104620516300201416e-01
6.490000000000000000e+02 5.026620101928710938e+01 1.496566295623779297e+01 1.877596080303192139e-01 4.055537283420562744e-01 1.779939979314804077e-01 -5.162597894668579102e-01
6.500000000000000000e+02 4.381763076782226562e+01 2.190073585510253906e+01 -5.335083603858947754e-01 4.419620335102081299e-02 -1.467936486005783081e-01 -7.279502153396606445e-01
6.510000000000000000e+02 3.838059234619140625e+01 2.871235466003417969e+01 -6.663656234741210938e-01 4.987895861268043518e-02 -1.849460005760192871e-01 -3.285777568817138672e-01
6.520000000000000000e+02 3.205523300170898438e+01 3.275876235961914062e+01 -2.290881276130676270e-01 1.369276456534862518e-02 -6.461860984563827515e-02 -7.710429280996322632e-02
6.530000000000000000e+02 2.988466453552246094e+01 3.385523605346679688e+01 -1.106262430548667908e-01 4.682482220232486725e-03 -3.178313001990318298e-02 -3.736888989806175232e-02
6.540000000000000000e+02 2.351480865478515625e+01 -3.457894897460937500e+01 -1.211795285344123840e-01 -1.803350806236267090e+00 -5.773590803146362305e-01 -4.407819733023643494e-02
6.550000000000000000e+02 1.687845039367675781e+01 -3.856203079223632812e+01 1.647861450910568237e-01 1.002680212259292603e-01 7.951625436544418335e-02 -1.685038655996322632e-01
6.560000000000000000e+02 1.849334335327148438e+01 -3.866793060302734375e+01 -6.787268072366714478e-02 -1.786906599998474121e+00 -5.564337968826293945e-01 -5.127927660942077637e-01
6.570000000000000000e+02 1.685794258117675781e+01 -4.167516326904296875e+01 5.205335840582847595e-02 -8.295233249664306641e-01 -2.332409918308258057e-01 -1.392523795366287231e-01
6.580000000000000000e+02 1.415244674682617188e+01 -3.641513061523437500e+01 1.770722717046737671e-01 2.788732573390007019e-02 6.148787960410118103e-02 -2.772344276309013367e-02
6.590000000000000000e+02 1.530048179626464844e+01 -3.770309829711914062e+01 2.011655569076538086e-01 1.676218211650848389e-02 6.537832319736480713e-02 -1.420770138502120972e-01
6.600000000000000000e+02 1.246073532104492188e+01 -3.294927597045898438e+01 -8.130364120006561279e-03 4.795605316758155823e-03 -1.000427640974521637e-03 2.828640164807438850e-03
6.610000000000000000e+02 5.903897285461425781e-01 -2.481792068481445312e+01 3.993269056081771851e-03 -9.186135721392929554e-04 9.223966044373810291e-04 1.197319725179113448e-04
6.620000000000000000e+02 6.678121089935302734e-01 -3.041562080383300781e+01 3.932691179215908051e-03 -9.331791079603135586e-04 8.998536504805088043e-04 2.024168206844478846e-04
6.630000000000000000e+02 7.447066903114318848e-01 -3.184918594360351562e+01 -2.465854864567518234e-03 7.251441711559891701e-04 -5.222131730988621712e-04 1.371429068967700005e-03
6.640000000000000000e+02 6.242200136184692383e-01 -3.733259201049804688e+01 -9.028050117194652557e-03 1.151467394083738327e-02 7.459871703758835793e-04 3.788660105783492327e-04
6.650000000000000000e+02 6.862165927886962891e+00 -3.804095077514648438e+01 -2.403896534815430641e-03 4.480996634811162949e-03 6.231300067156553268e-04 1.900502853095531464e-02
6.660000000000000000e+02 1.274436855316162109e+01 -4.144029998779296875e+01 -1.687139123678207397e-01 2.383985742926597595e-02 -4.346221685409545898e-02 7.167148590087890625e-02
6.670000000000000000e+02 2.142162322998046875e+01 -3.344688415527343750e+01 -7.038910686969757080e-02 -2.411057949066162109e+00 -7.444340586662292480e-01 -1.796834617853164673e-01
6.680000000000000000e+02 1.969027900695800781e+01 -2.799231529235839844e+01 -1.007555797696113586e-02 -2.585104227066040039e+00 -7.785539627075195312e-01 -2.564283460378646851e-02
6.690000000000000000e+02 2.122877883911132812e+01 -3.080235290527343750e+01 -5.782134365290403366e-03 -2.421692371368408203e+00 -7.282423973083496094e-01 -8.236797153949737549e-02
6.700000000000000000e+02 1.988013648986816406e+01 -3.497613906860351562e+01 -8.135535567998886108e-02 -2.916891098022460938e+00 -8.994739055633544922e-01 -2.173143476247787476e-01
6.710000000000000000e+02 2.004662895202636719e+01 -3.638924407958984375e+01 -2.354931533336639404e-01 -2.620839834213256836e+00 -8.568999171257019043e-01 -3.341270685195922852e-01
6.720000000000000000e+02 1.971154403686523438e+01 -2.376403808593750000e+01 2.482426352798938751e-02 -2.416599988937377930e+00 -7.175327539443969727e-01 -6.499525159597396851e-02
6.730000000000000000e+02 1.978224372863769531e+01 -2.094811248779296875e+01 -8.021846413612365723e-03 -2.444631576538085938e+00 -7.357960343360900879e-01 -7.726766914129257202e-02
6.740000000000000000e+02 2.129942512512207031e+01 -2.377119255065917969e+01 2.746466733515262604e-02 -2.278347253799438477e+00 -6.752647757530212402e-01 -7.875197380781173706e-02
6.750000000000000000e+02 2.063201904296875000e+01 -1.311540842056274414e+00 -1.519944705069065094e-02 -2.037093639373779297e+00 -6.156879663467407227e-01 -1.187782734632492065e-01
6.760000000000000000e+02 2.035800552368164062e+01 -6.901198387145996094e+00 1.262742467224597931e-02 -2.153656721115112305e+00 -6.423088312149047852e-01 -6.726383417844772339e-02
6.770000000000000000e+02 2.164931297302246094e+01 -1.108566093444824219e+01 -1.134191546589136124e-02 -2.205075263977050781e+00 -6.649251580238342285e-01 -1.259886771440505981e-01
6.780000000000000000e+02 2.623403930664062500e+01 -2.489701652526855469e+01 3.189855813980102539e-02 -1.561409950256347656e+00 -4.588534235954284668e-01 -1.239174976944923401e-01
6.790000000000000000e+02 3.542432785034179688e+01 -2.992991065979003906e+01 7.154724746942520142e-02 -2.787922024726867676e-01 -6.217348575592041016e-02 -4.241093993186950684e-02
6.800000000000000000e+02 4.599620056152343750e+01 -3.470650863647460938e+01 1.380101889371871948e-01 1.348179697990417480e+00 4.458569586277008057e-01 1.598924770951271057e-02
6.810000000000000000e+02 5.225251770019531250e+01 -4.035023498535156250e+01 1.014736741781234741e-01 2.208097934722900391e+00 6.928715109825134277e-01 4.529053345322608948e-03
6.820000000000000000e+02 5.077639389038085938e+01 -3.647125625610351562e+01 1.126402392983436584e-01 1.977903008460998535e+00 6.271629333496093750e-01 1.093690097332000732e-02
6.830000000000000000e+02 6.241146087646484375e+01 -4.049444198608398438e+01 5.806298926472663879e-02 3.681712388992309570e+00 1.121932625770568848e+00 7.095522712916135788e-03
6.840000000000000000e+02 5.734468841552734375e+01 -4.017724609375000000e+01 8.236666768789291382e-02 2.914621114730834961e+00 8.990963697433471680e-01 1.375252660363912582e-02
6.850000000000000000e+02 5.862762069702148438e+01 -3.160392189025878906e+01 1.016317680478096008e-01 3.116782426834106445e+00 9.655242562294006348e-01 6.410478055477142334e-02
6.860000000000000000e+02 6.024254226684570312e+01 -2.368598556518554688e+01 1.243285685777664185e-01 3.275637626647949219e+00 1.019989848136901855e+00 9.866690635681152344e-02
6.870000000000000000e+02 5.635022735595703125e+01 -1.722351264953613281e+01 2.351927012205123901e-01 2.656726121902465820e+00 8.675756454467773438e-01 1.163904145359992981e-01
6.880000000000000000e+02 5.972382354736328125e+01 -1.041373825073242188e+01 3.146896660327911377e-01 3.073601007461547852e+00 1.016487240791320801e+00 2.264849990606307983e-01
6.890000000000000000e+02 4.871492385864257812e+01 -9.232472419738769531e+00 3.508878946304321289e-01 1.324954152107238770e+00 5.027526021003723145e-01 -5.728226900100708008e-02
6.900000000000000000e+02 3.999152374267578125e+01 -3.504136323928833008e+00 2.717134356498718262e-01 1.230459585785865784e-01 1.184278205037117004e-01 -3.444419801235198975e-01
6.910000000000000000e+02 3.217896652221679688e+01 -7.241554856300354004e-01 1.092166677117347717e-01 -6.847060918807983398e-01 -1.726468354463577271e-01 -4.207048714160919189e-01
6.920000000000000000e+02 2.706881904602050781e+01 -2.296351909637451172e+00 3.903933987021446228e-02 -1.253063440322875977e+00 -3.642072379589080811e-01 -3.119462132453918457e-01
6.930000000000000000e+02 2.056300544738769531e+01 -2.712601184844970703e+00 -3.341453149914741516e-02 -2.116222381591796875e+00 -6.448910832405090332e-01 -1.561366617679595947e-01
6.940000000000000000e+02 2.033148765563964844e+01 -9.712318420410156250e+00 -2.431885711848735809e-02 -2.411464929580688477e+00 -7.307351827621459961e-01 -8.554206043481826782e-02
6.950000000000000000e+02 1.995928955078125000e+01 -1.674822616577148438e+01 -5.223529879003763199e-04 -2.361001491546630859e+00 -7.084571719169616699e-01 -1.979535818099975586e-01
6.960000000000000000e+02 2.141513633728027344e+01 -1.674741363525390625e+01 2.329869568347930908e-02 -2.233338356018066406e+00 -6.630119085311889648e-01 -1.248458847403526306e-01
6.970000000000000000e+02 2.971146011352539062e+01 -3.012458992004394531e+01 1.858022762462496758e-03 -1.028557658195495605e+00 -3.080098927021026611e-01 -5.966709554195404053e-02
6.980000000000000000e+02 3.669037628173828125e+01 -4.043339538574218750e+01 1.015325337648391724e-01 -5.261998251080513000e-02 1.467376388609409332e-02 -1.084745745174586773e-03
6.990000000000000000e+02 4.310926437377929688e+01 -4.096347427368164062e+01 9.646445512771606445e-02 7.945850491523742676e-01 2.673148512840270996e-01 2.928199246525764465e-03
7.000000000000000000e+02 1.383889293670654297e+01 -3.479557800292968750e+01 -1.467090006917715073e-02 1.679096929728984833e-02 6.360205588862299919e-04 -1.445977762341499329e-02
7.010000000000000000e+02 1.408985805511474609e+01 -3.317602539062500000e+01 2.333454228937625885e-02 -1.582319819135591388e-04 6.952893454581499100e-03 -5.963251926004886627e-03
7.020000000000000000e+02 1.339871788024902344e+01 -2.737003326416015625e+01 -1.029502693563699722e-02 -1.093451748602092266e-03 -3.416543593630194664e-03 3.772753523662686348e-03
7.030000000000000000e+02 1.886571884155273438e+00 -1.781242370605468750e+01 2.785732736811041832e-03 3.213409581803716719e-05 8.453600457869470119e-04 -2.497142704669386148e-04
7.040000000000000000e+02 6.075859069824218750e-01 -2.341865539550781250e+01 -3.489875001832842827e-03 -8.531723869964480400e-04 -1.302914228290319443e-03 -2.270069817313924432e-04
7.050000000000000000e+02 1.435927200317382812e+01 -3.031863784790039062e+01 1.573337614536285400e-02 -1.844460843130946159e-03 4.166674334555864334e-03 -2.889766590669751167e-03
7.060000000000000000e+02 1.289279937744140625e+01 -3.005641937255859375e+01 -1.140879932790994644e-02 -2.382331062108278275e-03 -4.137339070439338684e-03 4.292157478630542755e-03
7.070000000000000000e+02 1.422066879272460938e+01 -2.206054496765136719e+01 6.117953918874263763e-03 -9.242548258043825626e-04 1.558109652251005173e-03 1.432191638741642237e-04
7.080000000000000000e+02 1.451834774017333984e+01 -1.347682762145996094e+01 3.210895229130983353e-03 6.736854265909641981e-05 9.834791999310255051e-04 -4.754376132041215897e-04
7.090000000000000000e+02 1.460992527008056641e+01 -6.544517040252685547e+00 -1.544615835882723331e-03 -4.120679659536108375e-05 -4.757468122988939285e-04 7.863304199418053031e-05
7.100000000000000000e+02 1.460510826110839844e+01 -3.855987310409545898e+00 -9.460423025302588940e-04 -1.057846311596222222e-04 -3.155480662826448679e-04 -1.231205533258616924e-04
7.110000000000000000e+02 1.442940902709960938e+01 -2.835175275802612305e+00 7.518176571466028690e-04 -3.820102210738696158e-05 2.140849974239245057e-04 4.514990432653576136e-04
7.120000000000000000e+02 1.036335659027099609e+01 -2.602982521057128906e+00 5.451486795209348202e-04 1.577977382112294436e-04 2.108839398715645075e-04 -1.831432455219328403e-04
7.130000000000000000e+02 1.351889705657958984e+01 -1.059731006622314453e+01 -2.282403409481048584e-03 -2.133921225322410464e-04 -7.487386465072631836e-04 6.732385372743010521e-04
7.140000000000000000e+02 1.280359840393066406e+01 -1.880107688903808594e+01 -4.364201799035072327e-03 -4.227183817420154810e-04 -1.436076126992702484e-03 1.728180679492652416e-03
7.150000000000000000e+02 1.334326171875000000e+01 -2.508662986755371094e+01 -7.778013125061988831e-03 -1.920914393849670887e-03 -2.909678267315030098e-03 1.814301125705242157e-03
7.160000000000000000e+02 1.457852840423583984e+01 -2.622246170043945312e+01 -1.482110004872083664e-02 -1.658981782384216785e-03 -4.944024607539176941e-03 1.237438758835196495e-03
7.170000000000000000e+02 1.109999942779541016e+01 -1.877459406852722168e+00 4.873516154475510120e-04 6.104811473051086068e-05 1.645199226913973689e-04 -1.333586114924401045e-04
7.180000000000000000e+02 4.282539844512939453e+00 -1.899556159973144531e+00 -3.641350194811820984e-04 2.573308593127876520e-04 -3.204124004696495831e-05 8.100062404992058873e-05
7.190000000000000000e+02 1.670377135276794434e+00 -1.082439136505126953e+01 -2.129271160811185837e-03 -1.087611526600085199e-04 -6.714097107760608196e-04 1.929850550368428230e-04
7.200000000000000000e+02 6.265726685523986816e-01 -1.777704048156738281e+01 -2.527974778786301613e-03 -1.896905596368014812e-04 -8.152996306307613850e-04 8.906701987143605947e-05
7.210000000000000000e+02 2.599248886108398438e+00 -3.740981674194335938e+01 -4.247136879712343216e-03 1.014973223209381104e-02 1.770778559148311615e-03 6.584776565432548523e-03
7.220000000000000000e+02 2.267106437683105469e+01 -3.588962554931640625e+01 -2.130297571420669556e-01 -1.881804704666137695e+00 -6.284503340721130371e-01 -4.460851475596427917e-02
7.230000000000000000e+02 2.767318344116210938e+01 -3.561351776123046875e+01 3.349702432751655579e-02 -1.328631162643432617e+00 -3.885402381420135498e-01 1.077228784561157227e-02
7.240000000000000000e+02 4.029011917114257812e+01 -3.908234786987304688e+01 1.205850988626480103e-01 4.294620752334594727e-01 1.650141477584838867e-01 -3.404841758310794830e-03
7.250000000000000000e+02 3.154656410217285156e+01 -3.674642944335937500e+01 9.392736852169036865e-02 -7.761287689208984375e-01 -2.046604156494140625e-01 3.002035245299339294e-02
7.260000000000000000e+02 1.968166732788085938e+01 -3.079085350036621094e+01 -2.993524260818958282e-02 -2.691348791122436523e+00 -8.163852095603942871e-01 -3.792436420917510986e-02
7.270000000000000000e+02 6.774914550781250000e+01 -2.879150962829589844e+01 3.232726827263832092e-02 4.482309818267822266e+00 1.354391098022460938e+00 5.984607338905334473e-02
7.280000000000000000e+02 6.478365325927734375e+01 -2.591769981384277344e+01 9.290362894535064697e-02 4.006696224212646484e+00 1.229879975318908691e+00 1.064781844615936279e-01
7.290000000000000000e+02 6.449277496337890625e+01 -1.819677734375000000e+01 1.422513425350189209e-01 3.958904027938842773e+00 1.230346679687500000e+00 1.796688884496688843e-01
7.300000000000000000e+02 6.720586395263671875e+01 -4.074829101562500000e+01 3.347273916006088257e-02 4.370989799499511719e+00 1.321338772773742676e+00 1.119199208915233612e-02
7.310000000000000000e+02 6.696937561035156250e+01 -3.716432952880859375e+01 4.070997238159179688e-02 4.345347881317138672e+00 1.315817356109619141e+00 2.644547075033187866e-02
7.320000000000000000e+02 7.340946960449218750e+01 -3.141821670532226562e+01 1.534550543874502182e-02 5.275470256805419922e+00 1.587244629859924316e+00 3.151632845401763916e-02
7.330000000000000000e+02 7.794731903076171875e+01 -4.161558151245117188e+01 5.095357075333595276e-02 5.922538280487060547e+00 1.792047619819641113e+00 1.428641565144062042e-02
7.340000000000000000e+02 7.804491424560546875e+01 -3.690372848510742188e+01 1.731732278130948544e-03 5.932885646820068359e+00 1.780385136604309082e+00 2.472031675279140472e-02
7.350000000000000000e+02 7.935350799560546875e+01 -3.344596862792968750e+01 2.805110765621066093e-03 6.124019145965576172e+00 1.838047266006469727e+00 1.263825921341776848e-03
7.360000000000000000e+02 7.795919799804687500e+01 -1.663492774963378906e+01 5.142385140061378479e-03 6.133316516876220703e+00 1.841537594795227051e+00 4.187026992440223694e-02
7.370000000000000000e+02 7.933708953857421875e+01 -1.249712562561035156e+01 1.674201688729226589e-03 6.448082447052001953e+00 1.934926986694335938e+00 1.510701421648263931e-02
7.380000000000000000e+02 7.281173706054687500e+01 -5.320544242858886719e+00 1.045575365424156189e-01 5.608281135559082031e+00 1.713851571083068848e+00 3.451707065105438232e-01
7.390000000000000000e+02 6.691093444824218750e+01 1.880526781082153320e+00 4.035048484802246094e-01 4.331628322601318359e+00 1.420539855957031250e+00 6.519630551338195801e-01
7.400000000000000000e+02 6.067396545410156250e+01 9.830571174621582031e+00 6.558333039283752441e-01 2.293544054031372070e+00 8.848131895065307617e-01 5.012121796607971191e-01
7.410000000000000000e+02 5.189632415771484375e+01 2.049765396118164062e+01 -3.916558921337127686e-01 1.890823394060134888e-01 -6.077206879854202271e-02 -6.002650260925292969e-01
7.420000000000000000e+02 4.509785842895507812e+01 2.813091087341308594e+01 -1.214331269264221191e+00 6.630552560091018677e-02 -3.444077372550964355e-01 -3.747726976871490479e-01
7.430000000000000000e+02 3.719936370849609375e+01 3.246459960937500000e+01 -5.376129150390625000e-01 2.604491449892520905e-02 -1.534703969955444336e-01 -5.499079450964927673e-02
7.440000000000000000e+02 3.572735214233398438e+01 3.275392532348632812e+01 -4.229094386100769043e-01 2.326583303511142731e-02 -1.198930814862251282e-01 -5.632159486413002014e-02
7.450000000000000000e+02 3.279743194580078125e+01 3.333139419555664062e+01 -2.369259446859359741e-01 1.524322852492332458e-02 -6.650481373071670532e-02 -5.052700638771057129e-02
7.460000000000000000e+02 7.804668426513671875e+01 -9.608909606933593750e+00 6.288548931479454041e-03 6.367791175842285156e+00 1.912223935127258301e+00 7.592730224132537842e-02
7.470000000000000000e+02 7.934416198730468750e+01 -5.526988983154296875e+00 9.180526831187307835e-04 6.779932498931884766e+00 2.034255027770996094e+00 3.044688329100608826e-02
7.480000000000000000e+02 7.249797058105468750e+01 1.294322371482849121e+00 1.710555255413055420e-01 5.761810302734375000e+00 1.779859781265258789e+00 5.658473968505859375e-01
7.490000000000000000e+02 6.582840728759765625e+01 8.742238044738769531e+00 5.509942173957824707e-01 3.787076234817504883e+00 1.301421165466308594e+00 8.657467365264892578e-01
7.500000000000000000e+02 5.763416290283203125e+01 2.230640220642089844e+01 -5.581828355789184570e-01 2.935489714145660400e-01 -7.939016073942184448e-02 -2.731193304061889648e-01
7.510000000000000000e+02 5.211367416381835938e+01 2.850996208190917969e+01 -2.108408212661743164e+00 1.608286798000335693e-02 -6.276975870132446289e-01 -2.685270905494689941e-01
7.520000000000000000e+02 4.156703186035156250e+01 3.093039321899414062e+01 -9.683552384376525879e-01 4.530533403158187866e-02 -2.769149839878082275e-01 -1.177408769726753235e-01
7.530000000000000000e+02 4.161816787719726562e+01 3.161044311523437500e+01 -9.710807800292968750e-01 3.061371482908725739e-02 -2.821401059627532959e-01 -4.335385560989379883e-02
7.540000000000000000e+02 3.940991973876953125e+01 3.204635238647460938e+01 -7.367029786109924316e-01 3.086802922189235687e-02 -2.117504924535751343e-01 -4.811878874897956848e-02
7.550000000000000000e+02 7.800822448730468750e+01 -2.638032913208007812e+00 1.327167637646198273e-02 6.750243186950683594e+00 2.029054403305053711e+00 1.394639015197753906e-01
7.560000000000000000e+02 7.937003326416015625e+01 2.840339183807373047e+00 1.069032237865030766e-03 7.518046379089355469e+00 2.255734682083129883e+00 6.120314449071884155e-02
7.570000000000000000e+02 7.310981750488281250e+01 1.002339363098144531e+01 2.024476826190948486e-01 6.426056385040283203e+00 1.988551259040832520e+00 9.252980947494506836e-01
7.580000000000000000e+02 6.320808792114257812e+01 2.144994354248046875e+01 1.597422920167446136e-02 1.260739803314208984e+00 3.830142021179199219e-01 6.533761024475097656e-01
7.590000000000000000e+02 5.743533706665039062e+01 2.868727111816406250e+01 -2.899956464767456055e+00 -2.112903259694576263e-02 -8.763256072998046875e-01 -2.020595371723175049e-01
7.600000000000000000e+02 5.135102081298828125e+01 2.999190902709960938e+01 -2.325232267379760742e+00 3.309761406853795052e-03 -6.965767145156860352e-01 -4.344559460878372192e-02
7.610000000000000000e+02 4.908347320556640625e+01 3.029719161987304688e+01 -1.977610826492309570e+00 9.710779413580894470e-03 -5.903699994087219238e-01 -3.531340509653091431e-02
7.620000000000000000e+02 4.757795333862304688e+01 3.053471946716308594e+01 -1.754267692565917969e+00 1.714302971959114075e-02 -5.211374163627624512e-01 -3.417387232184410095e-02
7.630000000000000000e+02 4.533118820190429688e+01 3.091636085510253906e+01 -1.436307907104492188e+00 2.615609765052795410e-02 -4.230455458164215088e-01 -3.213150054216384888e-02
7.640000000000000000e+02 7.815342712402343750e+01 4.351103782653808594e+00 1.447252370417118073e-02 7.428691387176513672e+00 2.232949018478393555e+00 2.220922261476516724e-01
7.650000000000000000e+02 7.939917755126953125e+01 8.412869453430175781e+00 -1.562101999297738075e-03 8.351543426513671875e+00 2.504994392395019531e+00 8.864353597164154053e-02
7.660000000000000000e+02 7.366162872314453125e+01 1.714695549011230469e+01 -6.873185932636260986e-02 7.357854366302490234e+00 2.186736822128295898e+00 1.181321263313293457e+00
7.670000000000000000e+02 6.274430084228515625e+01 2.842917060852050781e+01 -3.151585578918457031e+00 -4.569396842271089554e-03 -9.468465447425842285e-01 -1.404148787260055542e-01
7.680000000000000000e+02 5.741016006469726562e+01 2.937627792358398438e+01 -3.220992088317871094e+00 -2.477702312171459198e-02 -9.737307429313659668e-01 -1.015381515026092529e-01
7.690000000000000000e+02 5.665143585205078125e+01 2.943845748901367188e+01 -3.120932102203369141e+00 -2.060187049210071564e-02 -9.424601793289184570e-01 -9.183915704488754272e-02
7.700000000000000000e+02 5.361837005615234375e+01 2.972727584838867188e+01 -2.675131082534790039e+00 -7.624197751283645630e-03 -8.048265576362609863e-01 -6.196950003504753113e-02
7.710000000000000000e+02 7.821022033691406250e+01 1.129116630554199219e+01 2.057984285056591034e-02 8.497670173645019531e+00 2.555474758148193359e+00 3.413597047328948975e-01
7.720000000000000000e+02 7.943182373046875000e+01 1.676459503173828125e+01 -9.759631939232349396e-03 1.022388553619384766e+01 3.064237594604492188e+00 1.032958775758743286e-01
7.730000000000000000e+02 6.195946502685546875e+01 2.912915802001953125e+01 -3.686109542846679688e+00 -2.687354199588298798e-02 -1.113894939422607422e+00 -1.327130645513534546e-01
7.740000000000000000e+02 6.047664260864257812e+01 2.850130653381347656e+01 -3.119318485260009766e+00 -2.079915627837181091e-02 -9.420353174209594727e-01 -1.951109170913696289e-01
7.750000000000000000e+02 5.968500137329101562e+01 2.923136711120605469e+01 -3.495493888854980469e+00 -2.563672699034214020e-02 -1.056339144706726074e+00 -1.235294044017791748e-01
7.760000000000000000e+02 7.833273315429687500e+01 1.823632049560546875e+01 -4.532384872436523438e-02 9.949616432189941406e+00 2.971287727355957031e+00 3.124916553497314453e-01
7.770000000000000000e+02 7.945751190185546875e+01 2.371615409851074219e+01 -8.515727519989013672e-02 1.070016670227050781e+01 3.184502840042114258e+00 -2.526810765266418457e-01
7.780000000000000000e+02 7.015951538085937500e+01 2.919351959228515625e+01 -9.379431605339050293e-01 1.223583936691284180e+00 8.569224178791046143e-02 1.904116868972778320e+00
7.790000000000000000e+02 6.865803527832031250e+01 2.910438728332519531e+01 -2.464130163192749023e+00 3.510329127311706543e-01 -6.339291334152221680e-01 7.390973567962646484e-01
7.800000000000000000e+02 6.646490478515625000e+01 2.901800918579101562e+01 -3.394164800643920898e+00 6.465960294008255005e-02 -9.988515377044677734e-01 8.555174618959426880e-02
7.810000000000000000e+02 7.843884277343750000e+01 2.234387397766113281e+01 -1.703537255525588989e-01 1.048688316345214844e+01 3.094958782196044922e+00 -1.408949047327041626e-01
7.820000000000000000e+02 7.417073059082031250e+01 2.972923660278320312e+01 3.216558933258056641e+00 1.938248252868652344e+01 6.779712677001953125e+00 -2.644476890563964844e+00
7.830000000000000000e+02 7.400666046142578125e+01 3.213570785522460938e+01 2.221430301666259766e+00 2.044163703918457031e+01 6.798920154571533203e+00 2.169829607009887695e+00
7.840000000000000000e+02 7.796681976318359375e+01 3.801630020141601562e+01 -4.783307015895843506e-01 1.132439613342285156e+01 3.253819704055786133e+00 7.423276305198669434e-01
7.850000000000000000e+02 7.933196258544921875e+01 3.775493240356445312e+01 -7.544579356908798218e-02 1.109563922882080078e+01 3.306057929992675781e+00 2.331824153661727905e-01
7.860000000000000000e+02 7.501035308837890625e+01 3.741518402099609375e+01 -1.168961286544799805e+00 1.094124603271484375e+01 2.931685447692871094e+00 1.788240224123001099e-01
7.870000000000000000e+02 6.258108520507812500e+01 3.773460769653320312e+01 6.071358919143676758e-01 2.366189807653427124e-01 2.531264722347259521e-01 2.629708945751190186e-01
7.880000000000000000e+02 5.645457458496093750e+01 3.640423965454101562e+01 1.812770776450634003e-02 -2.030194401741027832e-01 -5.546751990914344788e-02 3.695811629295349121e-01
7.890000000000000000e+02 5.377763748168945312e+01 3.779518508911132812e+01 9.313129633665084839e-02 -2.331525832414627075e-01 -4.200638830661773682e-02 2.507657110691070557e-01
7.900000000000000000e+02 4.518283081054687500e+01 3.611524200439453125e+01 -1.828334107995033264e-02 -3.833712264895439148e-02 -1.698613911867141724e-02 4.509626328945159912e-02
7.910000000000000000e+02 4.442090988159179688e+01 3.499298858642578125e+01 -2.264418639242649078e-02 -2.120966091752052307e-02 -1.315615419298410416e-02 2.973132021725177765e-02
7.920000000000000000e+02 4.673027801513671875e+01 3.458730697631835938e+01 -5.553158372640609741e-02 -2.415169216692447662e-02 -2.390498295426368713e-02 5.686535313725471497e-02
7.930000000000000000e+02 4.882557678222656250e+01 3.537453842163085938e+01 -6.961487978696823120e-02 -6.055901572108268738e-02 -3.905216977000236511e-02 1.195032820105552673e-01
7.940000000000000000e+02 4.227373504638671875e+01 3.606327819824218750e+01 -8.819467388093471527e-03 -1.223514787852764130e-02 -6.316384766250848770e-03 1.591806486248970032e-02
7.950000000000000000e+02 4.135927200317382812e+01 3.701822662353515625e+01 -5.424640141427516937e-03 -1.501636393368244171e-02 -6.132300943136215210e-03 1.458554901182651520e-02
7.960000000000000000e+02 3.937944793701171875e+01 3.810307312011718750e+01 -5.884615238755941391e-04 -1.233841665089130402e-02 -3.878063289448618889e-03 7.214572746306657791e-03
7.970000000000000000e+02 3.766134262084960938e+01 3.777585220336914062e+01 -6.046197813702747226e-05 -4.117998760193586349e-03 -1.253538182936608791e-03 3.194971708580851555e-03
7.980000000000000000e+02 3.563144302368164062e+01 3.699292373657226562e+01 2.291227458044886589e-03 -2.225285628810524940e-03 1.978253385459538549e-05 -1.580503536388278008e-03
7.990000000000000000e+02 3.215330123901367188e+01 3.867149734497070312e+01 -4.213486099615693092e-04 8.120944257825613022e-04 1.172237462014891207e-04 -1.006578328087925911e-03
8.000000000000000000e+02 3.233037567138671875e+01 3.790972137451171875e+01 1.235740841366350651e-03 1.284308964386582375e-03 7.560149533674120903e-04 -1.998340245336294174e-03
8.010000000000000000e+02 2.987216949462890625e+01 3.777158737182617188e+01 1.184609369374811649e-03 9.101072646444663405e-05 3.826860338449478149e-04 -1.301070791669189930e-03
8.020000000000000000e+02 2.676373291015625000e+01 3.814845275878906250e+01 5.512903444468975067e-04 2.057334932032972574e-04 2.271071571158245206e-04 -8.429795270785689354e-04
8.030000000000000000e+02 2.239186477661132812e+01 3.845817565917968750e+01 3.818732511717826128e-05 2.810570586007088423e-04 9.577331366017460823e-05 -2.285015361849218607e-04
8.040000000000000000e+02 2.169507026672363281e+01 4.055429840087890625e+01 -2.310361451236531138e-04 3.008921921718865633e-04 2.095680792990606278e-05 -2.870383323170244694e-04
8.050000000000000000e+02 1.942171287536621094e+01 3.769190979003906250e+01 -1.823993661673739552e-04 -3.459176514297723770e-04 -1.584951096447184682e-04 9.876932017505168915e-05
8.060000000000000000e+02 1.893421292304992676e+00 2.595594024658203125e+01 5.381042865337803960e-05 -2.383774926784099080e-06 1.542799691378604621e-05 5.322131073626223952e-06
8.070000000000000000e+02 1.977204322814941406e+00 3.019812011718750000e+01 -4.435626397025771439e-05 -1.193793877973803319e-06 -1.366501783195417374e-05 -7.070558240229729563e-06
8.080000000000000000e+02 4.341563224792480469e+00 3.762348937988281250e+01 -5.649488684866810217e-06 -7.140758953028125688e-06 -3.837074473267421126e-06 -1.189307909044146072e-06
8.090000000000000000e+02 2.003039598464965820e+00 4.162781143188476562e+01 4.036427344544790685e-05 3.203985897926031612e-06 1.307047750742640346e-05 1.267750849365256727e-05
8.100000000000000000e+02 1.418432331085205078e+01 3.771726226806640625e+01 1.937639171956107020e-04 3.057052526855841279e-05 6.730033055646345019e-05 -7.994193583726882935e-05
8.110000000000000000e+02 1.367196941375732422e+01 3.599427413940429688e+01 -1.978815707843750715e-04 1.193551452161045745e-05 -5.578381751547567546e-05 -1.697237348707858473e-05
8.120000000000000000e+02 1.306259727478027344e+01 3.352445983886718750e+01 -1.041038267430849373e-04 -2.241717265860643238e-05 -3.795629891101270914e-05 1.251123921974794939e-05
8.130000000000000000e+02 1.458961772918701172e+01 2.291199493408203125e+01 9.147119999397546053e-05 1.508978584752185270e-06 2.789405334624461830e-05 4.237307166476966813e-06
8.140000000000000000e+02 1.451741981506347656e+01 1.737494087219238281e+01 6.802716234233230352e-05 5.267950768939044792e-07 2.056618723145220429e-05 3.185970456343056867e-07
8.150000000000000000e+02 1.448209571838378906e+01 1.049886226654052734e+01 -3.694686165545135736e-05 9.114689873968018219e-07 -1.081061782315373421e-05 1.173809891952259932e-06
8.160000000000000000e+02 1.369361686706542969e+01 1.823870658874511719e+00 -5.641751158691477031e-06 -1.454937773814890534e-06 -2.129006588802440092e-06 -4.872084900853224099e-06
8.170000000000000000e+02 1.317757225036621094e+01 1.782615780830383301e+00 2.622388592499191873e-06 5.574535407504299656e-06 2.459077222738415003e-06 4.419282504386501387e-06
8.180000000000000000e+02 6.683608889579772949e-01 3.463323974609375000e+01 -3.811312126345001161e-05 -2.859383130271453410e-06 -1.229175177286379039e-05 9.826488167163915932e-06
8.190000000000000000e+02 6.398730278015136719e-01 2.755935478210449219e+01 3.863365054712630808e-05 -1.280844514894852182e-07 1.155166955868480727e-05 -4.819220862373185810e-07
8.200000000000000000e+02 6.242462992668151855e-01 2.050187301635742188e+01 -5.144572787685319781e-05 -7.327263915613002609e-07 -1.565353704791050404e-05 5.573956968873972073e-06
8.210000000000000000e+02 1.801349878311157227e+00 1.608215522766113281e+01 -4.661323691834695637e-05 -2.387405174886225723e-06 -1.470019287808099762e-05 5.321408934833016247e-06
8.220000000000000000e+02 1.213337326049804688e+01 1.225719642639160156e+01 3.845419996650889516e-05 1.580107777954253834e-07 1.158366285380907357e-05 2.717920040140597848e-07
8.230000000000000000e+02 1.336282444000244141e+01 1.605297660827636719e+01 5.574574606725946069e-05 2.284819856868125498e-06 1.740916923154145479e-05 3.145958316963515244e-06
8.240000000000000000e+02 1.214632225036621094e+01 1.869542884826660156e+01 -6.248491990845650434e-05 -1.949611259988159873e-06 -1.933036037371493876e-05 -1.583797711646184325e-05
8.250000000000000000e+02 1.340317249298095703e+01 2.430517768859863281e+01 9.587570821167901158e-05 1.880570152934524231e-06 2.932688221335411072e-05 1.315639747190289199e-05
8.260000000000000000e+02 1.358538722991943359e+01 2.565904426574707031e+01 -1.077689084922894835e-04 -1.178243792310240678e-06 -3.268414729973301291e-05 -1.343855728919152170e-05
8.270000000000000000e+02 1.264049148559570312e+01 2.943958854675292969e+01 -1.160828251158818603e-04 2.618942971821525134e-06 -3.403916343813762069e-05 -1.958763959919451736e-06
8.280000000000000000e+02 5.912710428237915039e-01 1.484691238403320312e+01 -4.503972741076722741e-05 -1.496918685006676242e-06 -1.396099378325743601e-05 5.788462203781818971e-06
8.290000000000000000e+02 1.656151413917541504e+00 9.075780868530273438e+00 3.618165283114649355e-05 5.677452463714871556e-07 1.102481928683118895e-05 -6.795524768676841632e-06
8.300000000000000000e+02 8.875390052795410156e+00 2.570151805877685547e+00 -6.666646186204161495e-06 -8.034829988901037723e-06 -4.410443125379970297e-06 7.996479780558729544e-07
8.310000000000000000e+02 9.637971878051757812e+00 1.857533931732177734e+00 -5.680597496393602341e-06 -6.667457910225493833e-06 -3.704416485561523587e-06 -6.478746286120440345e-07
8.320000000000000000e+02 1.127892971038818359e+00 3.783262252807617188e+00 -9.917246643453836441e-06 9.763663001649547368e-06 -4.607509751508587215e-08 -1.805771898943930864e-05
8.330000000000000000e+02 5.314635634422302246e-01 6.396780490875244141e+00 -2.985254286613781005e-05 -2.946869017250719480e-06 -9.839824087976012379e-06 2.336684246984077618e-06
8.340000000000000000e+02 3.726263761520385742e+00 3.691142797470092773e+00 -1.651889942877460271e-05 -4.457368049770593643e-06 -6.292880243563558906e-06 4.187367267149966210e-06
8.350000000000000000e+02 1.322738838195800781e+01 1.068466281890869141e+01 3.874897083733230829e-05 -2.143224719475256279e-06 1.098172469937708229e-05 -7.843191269785165787e-07
8.360000000000000000e+02 1.449499797821044922e+01 2.014107704162597656e+01 7.602988625876605511e-05 -3.884945272147888318e-07 2.269241849717218429e-05 2.071549971560671111e-07
8.370000000000000000e+02 1.544139575958251953e+01 3.116948509216308594e+01 1.541481324238702655e-04 -2.797606157400878146e-06 4.540515510598197579e-05 -7.558745664937305264e-07
8.380000000000000000e+02 1.528708553314208984e+01 2.976917839050292969e+01 -1.556047063786536455e-04 4.221083599986741319e-06 -4.541508678812533617e-05 -6.487092377938097343e-06
8.390000000000000000e+02 1.800091361999511719e+01 3.782767868041992188e+01 1.308518549194559455e-04 -1.865577651187777519e-04 -1.671177597017958760e-05 2.180748415412381291e-04
8.400000000000000000e+02 1.582784175872802734e+01 4.058486175537109375e+01 -4.759598523378372192e-04 -3.389783887541852891e-05 -1.529573055449873209e-04 -4.560591696645133197e-05
8.410000000000000000e+02 1.965955924987792969e+01 4.040152359008789062e+01 -5.658334339386783540e-05 3.731767355930060148e-05 -5.779701496066991240e-06 2.974089293275028467e-04
8.420000000000000000e+02 1.225915050506591797e+01 4.117765426635742188e+01 1.267165207536891103e-04 3.494745214993599802e-06 3.906337951775640249e-05 1.295304828090593219e-04
8.430000000000000000e+02 1.975724029541015625e+01 3.781711959838867188e+01 1.260653662029653788e-04 4.418847311171703041e-05 5.107615288579836488e-05 -8.744622755330055952e-05
8.440000000000000000e+02 2.095129203796386719e+01 3.810863876342773438e+01 -1.666495700192172080e-05 2.033529308391734958e-04 5.600639269687235355e-05 -1.372800616081804037e-04
8.450000000000000000e+02 5.034171295166015625e+01 3.410521316528320312e+01 -1.575918197631835938e-01 -5.245355516672134399e-02 -6.301361322402954102e-02 1.213050037622451782e-01
8.460000000000000000e+02 5.181000137329101562e+01 3.378187942504882812e+01 -2.232849001884460449e-01 -6.003041565418243408e-02 -8.499459177255630493e-02 1.517858058214187622e-01
8.470000000000000000e+02 5.686121368408203125e+01 3.328514099121093750e+01 -5.928102135658264160e-01 -5.899729579687118530e-02 -1.955422610044479370e-01 3.281723856925964355e-01
8.480000000000000000e+02 5.758944702148437500e+01 3.326131439208984375e+01 -6.637938618659973145e-01 -8.053562790155410767e-02 -2.232988476753234863e-01 3.401537835597991943e-01
8.490000000000000000e+02 6.207891845703125000e+01 3.294796752929687500e+01 -1.223089814186096191e+00 -3.487474098801612854e-02 -3.773893713951110840e-01 4.538464248180389404e-01
8.500000000000000000e+02 6.356493759155273438e+01 3.285399246215820312e+01 -1.411484837532043457e+00 -1.069558411836624146e-02 -4.266541302204132080e-01 4.638316929340362549e-01
8.510000000000000000e+02 6.504382324218750000e+01 3.277341079711914062e+01 -1.547944664955139160e+00 3.404885903000831604e-02 -4.541687369346618652e-01 4.246070384979248047e-01
8.520000000000000000e+02 6.806476593017578125e+01 3.337156295776367188e+01 -4.195106625556945801e-01 5.040094256401062012e-01 2.534963563084602356e-02 -2.343024611473083496e-01
8.530000000000000000e+02 7.013497924804687500e+01 3.262255477905273438e+01 1.679534614086151123e-01 1.302186489105224609e+00 4.410419762134552002e-01 -1.532905697822570801e+00
8.540000000000000000e+02 6.900214385986328125e+01 3.458889770507812500e+01 6.650635600090026855e-01 2.167598724365234375e+00 8.497986793518066406e-01 -1.363795518875122070e+00
8.550000000000000000e+02 2.780898284912109375e+01 2.278559875488281250e+01 -1.089657545089721680e-01 -2.618409693241119385e-01 -1.112420186400413513e-01 -3.527395725250244141e-01
8.560000000000000000e+02 2.642236137390136719e+01 2.525296401977539062e+01 -9.110664576292037964e-02 -1.899662166833877563e-01 -8.432186394929885864e-02 -2.380280643701553345e-01
8.570000000000000000e+02 3.692168045043945312e+01 2.900212287902832031e+01 -5.713179707527160645e-01 3.989011421799659729e-02 -1.594283580780029297e-01 -3.025169372558593750e-01
8.580000000000000000e+02 4.423930740356445312e+01 2.757601547241210938e+01 -1.086431026458740234e+00 6.949052214622497559e-02 -3.050821721553802490e-01 -4.291294813156127930e-01
8.590000000000000000e+02 5.057460784912109375e+01 2.798314285278320312e+01 -1.796844720840454102e+00 3.185301646590232849e-02 -5.294975042343139648e-01 -3.493656218051910400e-01
8.600000000000000000e+02 5.819396972656250000e+01 2.863236618041992188e+01 -2.968196630477905273e+00 -2.437451854348182678e-02 -8.977712988853454590e-01 -2.053473889827728271e-01
8.610000000000000000e+02 6.271478271484375000e+01 2.910546684265136719e+01 -3.719904422760009766e+00 -2.088390849530696869e-02 -1.122236490249633789e+00 -1.251417994499206543e-01
8.620000000000000000e+02 5.541419601440429688e+01 3.332656478881835938e+01 -4.627861082553863525e-01 -6.621550023555755615e-02 -1.587004810571670532e-01 2.590095996856689453e-01
8.630000000000000000e+02 3.287224960327148438e+01 1.602112388610839844e+01 -7.419080287218093872e-02 -3.378843367099761963e-01 -1.236225441098213196e-01 -6.411699056625366211e-01
8.640000000000000000e+02 3.275074005126953125e+01 1.735122299194335938e+01 -1.078037172555923462e-01 -3.068379759788513184e-01 -1.243925094604492188e-01 -6.259393692016601562e-01
8.650000000000000000e+02 4.472229766845703125e+01 1.990336608886718750e+01 -3.499308824539184570e-01 6.100241467356681824e-02 -8.667854219675064087e-02 -7.563577294349670410e-01
8.660000000000000000e+02 4.997391891479492188e+01 2.050154113769531250e+01 -4.240854084491729736e-01 1.422773897647857666e-01 -8.454240858554840088e-02 -6.719167232513427734e-01
8.670000000000000000e+02 5.832561874389648438e+01 2.151136779785156250e+01 -3.294585645198822021e-01 4.370491504669189453e-01 3.227717429399490356e-02 -1.589103490114212036e-01
8.680000000000000000e+02 6.348830413818359375e+01 2.231574821472167969e+01 -1.163791865110397339e-01 1.161243796348571777e+00 3.134593963623046875e-01 6.509808897972106934e-01
8.690000000000000000e+02 7.288328552246093750e+01 1.970153617858886719e+01 -3.345740735530853271e-01 7.286908626556396484e+00 2.085700273513793945e+00 1.432691812515258789e+00
8.700000000000000000e+02 2.708713340759277344e+01 1.718996238708496094e+01 -4.140191152691841125e-02 -5.163289904594421387e-01 -1.673192679882049561e-01 -4.212865233421325684e-01
8.710000000000000000e+02 2.722587966918945312e+01 1.294827461242675781e+01 -1.322816032916307449e-02 -7.082177996635437012e-01 -2.164337784051895142e-01 -4.540427923202514648e-01
8.720000000000000000e+02 2.599537277221679688e+01 4.349265098571777344e+00 -1.327971275895833969e-02 -1.167777657508850098e+00 -3.543171882629394531e-01 -3.532992303371429443e-01
8.730000000000000000e+02 3.359572601318359375e+01 4.938814640045166016e+00 1.090084686875343323e-01 -4.977894723415374756e-01 -1.166343018412590027e-01 -5.494395494461059570e-01
8.740000000000000000e+02 3.357561874389648438e+01 6.322667121887207031e+00 9.349611401557922363e-02 -4.827598035335540771e-01 -1.167791038751602173e-01 -5.754773020744323730e-01
8.750000000000000000e+02 3.470780181884765625e+01 1.058709716796875000e+01 5.264541134238243103e-02 -3.576408028602600098e-01 -9.149862080812454224e-02 -6.568352580070495605e-01
8.760000000000000000e+02 2.853713417053222656e+01 8.744348526000976562e+00 6.785735953599214554e-03 -7.922799587249755859e-01 -2.356482595205307007e-01 -4.935702681541442871e-01
8.770000000000000000e+02 3.950711059570312500e+01 1.202481460571289062e+01 8.367339521646499634e-02 -9.358004480600357056e-02 -2.971993992105126381e-03 -7.066326141357421875e-01
8.780000000000000000e+02 4.066815948486328125e+01 1.293177700042724609e+01 7.002725452184677124e-02 -3.733038529753684998e-02 9.809060953557491302e-03 -7.158926129341125488e-01
8.790000000000000000e+02 5.098179626464843750e+01 1.422894763946533203e+01 2.749013006687164307e-01 4.988288283348083496e-01 2.321190387010574341e-01 -4.448489546775817871e-01
8.800000000000000000e+02 6.051685714721679688e+01 1.224440860748291016e+01 6.467214226722717285e-01 2.017505407333374023e+00 7.992680668830871582e-01 4.926090836524963379e-01
8.810000000000000000e+02 6.554170989990234375e+01 9.795172691345214844e+00 5.668861269950866699e-01 3.637941122055053711e+00 1.261448264122009277e+00 8.953310847282409668e-01
8.820000000000000000e+02 7.231337738037109375e+01 1.112134170532226562e+01 2.299695909023284912e-01 6.172207355499267578e+00 1.920652985572814941e+00 1.019355654716491699e+00
8.830000000000000000e+02 2.104736518859863281e+01 1.836783981323242188e+01 -6.716763018630445004e-04 -5.767620205879211426e-01 -1.732301115989685059e-01 -4.595327377319335938e-02
8.840000000000000000e+02 2.105271530151367188e+01 1.696199607849121094e+01 -1.294990768656134605e-03 -6.880303025245666504e-01 -2.067975848913192749e-01 -4.843384400010108948e-02
8.850000000000000000e+02 2.106539344787597656e+01 9.924485206604003906e+00 5.591718363575637341e-04 -1.294757008552551270e+00 -3.882593512535095215e-01 -5.422562733292579651e-02
8.860000000000000000e+02 2.100659942626953125e+01 4.283126831054687500e+00 -3.480353206396102905e-02 -1.877955436706542969e+00 -5.738276839256286621e-01 -1.320891529321670532e-01
8.870000000000000000e+02 2.104901504516601562e+01 5.695188522338867188e+00 -1.736931316554546356e-02 -1.736451387405395508e+00 -5.261461734771728516e-01 -7.923273742198944092e-02
8.880000000000000000e+02 4.699559402465820312e+01 1.204602122306823730e+00 4.472751021385192871e-01 7.611604332923889160e-01 3.625306785106658936e-01 -2.652031779289245605e-01
8.890000000000000000e+02 4.699688720703125000e+01 3.915992736816406250e+00 4.485940635204315186e-01 6.550106406211853027e-01 3.310814201831817627e-01 -3.338665366172790527e-01
8.900000000000000000e+02 6.598358154296875000e+01 1.032077431678771973e+00 4.103022515773773193e-01 4.106107234954833984e+00 1.354922771453857422e+00 6.098734140396118164e-01
8.910000000000000000e+02 7.204174041748046875e+01 4.010030269622802734e+00 2.196769565343856812e-01 5.762999057769775391e+00 1.794802904129028320e+00 6.854370832443237305e-01
8.920000000000000000e+02 2.106378746032714844e+01 1.273996067047119141e+01 4.150438471697270870e-04 -1.044611811637878418e+00 -3.132590353488922119e-01 -5.253890901803970337e-02
8.930000000000000000e+02 3.998257827758789062e+01 1.891255021095275879e+00 2.776835262775421143e-01 3.967451676726341248e-02 9.520740807056427002e-02 -4.632049798965454102e-01
8.940000000000000000e+02 6.089322662353515625e+01 -1.741940140724182129e+00 4.759040474891662598e-01 3.067761659622192383e+00 1.063099741935729980e+00 3.887325823307037354e-01
8.950000000000000000e+02 5.872293853759765625e+01 -2.938872575759887695e-01 5.312733650207519531e-01 2.577412366867065430e+00 9.326056838035583496e-01 3.140939176082611084e-01
8.960000000000000000e+02 7.124988555908203125e+01 -2.741880178451538086e+00 1.717353761196136475e-01 5.350069046020507812e+00 1.656541228294372559e+00 4.683011174201965332e-01
8.970000000000000000e+02 2.836928939819335938e+01 -3.307332038879394531e+00 5.831897258758544922e-02 -1.124330043792724609e+00 -3.198033273220062256e-01 -3.271073102951049805e-01
8.980000000000000000e+02 2.750528907775878906e+01 -9.203372955322265625e+00 3.580763936042785645e-02 -1.305730462074279785e+00 -3.809768557548522949e-01 -2.527405321598052979e-01
8.990000000000000000e+02 3.566095352172851562e+01 -1.652130126953125000e+01 1.247819289565086365e-01 -2.820792794227600098e-01 -4.718920588493347168e-02 -1.698291450738906860e-01
9.000000000000000000e+02 4.364679718017578125e+01 -2.180627822875976562e+01 1.725887805223464966e-01 8.439857959747314453e-01 3.049723803997039795e-01 -4.385374486446380615e-02
9.010000000000000000e+02 5.143167495727539062e+01 -2.877610778808593750e+01 1.378944516181945801e-01 2.002741336822509766e+00 6.421907544136047363e-01 2.411716245114803314e-02
9.020000000000000000e+02 3.468244171142578125e+01 -2.518105506896972656e+00 1.591478288173675537e-01 -4.487553834915161133e-01 -8.688226342201232910e-02 -4.000613391399383545e-01
9.030000000000000000e+02 3.383480453491210938e+01 -1.238175392150878906e+01 1.280346363782882690e-01 -5.103932023048400879e-01 -1.147075667977333069e-01 -2.251180410385131836e-01
9.040000000000000000e+02 4.316373062133789062e+01 -1.415784263610839844e+01 2.378255575895309448e-01 6.730507612228393555e-01 2.732628881931304932e-01 -1.214985027909278870e-01
9.050000000000000000e+02 5.082015609741210938e+01 -2.061497306823730469e+01 2.056940048933029175e-01 1.859239578247070312e+00 6.194800734519958496e-01 1.888827607035636902e-02
9.060000000000000000e+02 5.303718566894531250e+01 -2.635335922241210938e+01 1.628642380237579346e-01 2.256451606750488281e+00 7.257947325706481934e-01 4.487602785229682922e-02
9.070000000000000000e+02 4.148257827758789062e+01 -2.663896799087524414e+00 3.046996593475341797e-01 2.597984969615936279e-01 1.693494468927383423e-01 -3.344804942607879639e-01
9.080000000000000000e+02 4.039305496215820312e+01 -1.182394409179687500e+01 2.228031605482101440e-01 2.816581726074218750e-01 1.513383984565734863e-01 -1.822481453418731689e-01
9.090000000000000000e+02 5.239633941650390625e+01 -1.598394966125488281e+01 2.668424546718597412e-01 2.028300285339355469e+00 6.885428428649902344e-01 4.994129762053489685e-02
9.100000000000000000e+02 5.497273635864257812e+01 -1.591841411590576172e+01 2.575777471065521240e-01 2.422184467315673828e+00 8.039286732673645020e-01 9.976646304130554199e-02
9.110000000000000000e+02 6.651949310302734375e+01 -1.159401035308837891e+01 1.830260604619979858e-01 4.311296939849853516e+00 1.348296880722045898e+00 2.818911969661712646e-01
9.120000000000000000e+02 6.470438385009765625e+01 -1.025366401672363281e+01 2.361595332622528076e-01 3.983023405075073242e+00 1.265754818916320801e+00 3.041016757488250732e-01
9.130000000000000000e+02 7.154180908203125000e+01 -1.166241931915283203e+01 9.023573249578475952e-02 5.212343692779541016e+00 1.590773820877075195e+00 2.398882508277893066e-01
9.140000000000000000e+02 2.746320915222167969e+01 -1.214672946929931641e+01 2.557346783578395844e-02 -1.337729811668395996e+00 -3.936469256877899170e-01 -2.096834778785705566e-01
9.150000000000000000e+02 2.758136749267578125e+01 -1.652535629272460938e+01 3.445035219192504883e-02 -1.365561604499816895e+00 -3.993333876132965088e-01 -1.516335308551788330e-01
9.160000000000000000e+02 3.542967987060546875e+01 -2.346975517272949219e+01 9.001342207193374634e-02 -2.965942621231079102e-01 -6.197424978017807007e-02 -9.109536558389663696e-02
9.170000000000000000e+02 4.181189727783203125e+01 -3.096119117736816406e+01 1.180428415536880493e-01 6.984323859214782715e-01 2.449425756931304932e-01 -3.106793388724327087e-02
9.180000000000000000e+02 3.427470016479492188e+01 -9.839784622192382812e+00 1.353868991136550903e-01 -4.850946068763732910e-01 -1.049123108386993408e-01 -2.647769451141357422e-01
9.190000000000000000e+02 4.115546798706054688e+01 -1.010365390777587891e+01 2.416491210460662842e-01 3.480974435806274414e-01 1.769239604473114014e-01 -2.025468498468399048e-01
9.200000000000000000e+02 4.854848480224609375e+01 -6.558593750000000000e+00 3.855798840522766113e-01 1.219293475151062012e+00 4.814620018005371094e-01 -9.034763276576995850e-02
9.210000000000000000e+02 7.228825378417968750e+01 -1.951992988586425781e+01 3.865624964237213135e-02 5.230556011199951172e+00 1.580763578414916992e+00 1.225503459572792053e-01
9.220000000000000000e+02 7.118908691406250000e+01 -1.808258819580078125e+01 5.781586840748786926e-02 5.074591159820556641e+00 1.539722204208374023e+00 1.553255021572113037e-01
9.230000000000000000e+02 2.008531379699707031e+01 -1.534895324707031250e+01 -3.013905882835388184e-02 -2.501356363296508789e+00 -7.594485878944396973e-01 -2.137128114700317383e-01
9.240000000000000000e+02 3.733323669433593750e+01 -1.696204566955566406e+01 1.392354816198348999e-01 -4.878445342183113098e-02 2.713530510663986206e-02 -1.499929279088973999e-01
9.250000000000000000e+02 4.188383483886718750e+01 -1.519354915618896484e+01 2.081960588693618774e-01 5.172988176345825195e-01 2.176484614610671997e-01 -1.260905563831329346e-01
9.260000000000000000e+02 5.372811508178710938e+01 -1.748450660705566406e+01 2.412454038858413696e-01 2.254949808120727539e+00 7.488585710525512695e-01 6.980985403060913086e-02
9.270000000000000000e+02 2.787289810180664062e+01 -2.762946510314941406e+01 1.072339364327490330e-03 -1.299510121345520020e+00 -3.895313441753387451e-01 -9.992852807044982910e-02
9.280000000000000000e+02 3.732050323486328125e+01 -2.516983413696289062e+01 1.059906333684921265e-01 -9.582780301570892334e-03 2.892235666513442993e-02 -7.345431298017501831e-02
9.290000000000000000e+02 4.589402770996093750e+01 -2.770521545410156250e+01 1.252006590366363525e-01 1.202390909194946289e+00 3.982774615287780762e-01 1.015824079513549805e-02
9.300000000000000000e+02 3.529435729980468750e+01 -3.327486801147460938e+01 8.089756220579147339e-02 -2.650159597396850586e-01 -5.523552000522613525e-02 -1.260950509458780289e-02
9.310000000000000000e+02 4.067223739624023438e+01 -3.388740921020507812e+01 1.022557094693183899e-01 5.131435990333557129e-01 1.846197843551635742e-01 -3.158007189631462097e-02
9.320000000000000000e+02 6.827116394042968750e+01 -3.056155014038085938e+01 4.517840966582298279e-02 4.586226940155029297e+00 1.389421582221984863e+00 7.229432463645935059e-02
9.330000000000000000e+02 7.318595886230468750e+01 -3.322124862670898438e+01 -5.865914281457662582e-03 5.244401454925537109e+00 1.571560621261596680e+00 1.824412867426872253e-02
9.340000000000000000e+02 1.123551082611083984e+01 -3.117811012268066406e+01 -3.722887253388762474e-03 -1.912114559672772884e-03 -1.690500532276928425e-03 2.221893053501844406e-03
9.350000000000000000e+02 1.438398361206054688e+01 -1.766584396362304688e+01 -4.247741308063268661e-03 -2.940288686659187078e-04 -1.362530980259180069e-03 8.130577043630182743e-04
9.360000000000000000e+02 1.157155132293701172e+01 -1.712065124511718750e+01 -3.741561667993664742e-03 -3.129085525870323181e-04 -1.216341042891144753e-03 1.411240547895431519e-03
9.370000000000000000e+02 1.457973480224609375e+01 -1.069806957244873047e+01 2.633758820593357086e-03 7.103334792191162705e-05 8.114376687444746494e-04 -3.681709349621087313e-04
9.380000000000000000e+02 1.245529460906982422e+01 -1.046681594848632812e+01 1.938326284289360046e-03 3.766048175748437643e-04 6.944793276488780975e-04 -8.349317940883338451e-04
9.390000000000000000e+02 5.549283027648925781e-01 -1.073742389678955078e+01 2.264934126287698746e-03 6.279223453020676970e-05 6.983178900554776192e-04 -2.263578498968854547e-04
9.400000000000000000e+02 1.309165859222412109e+01 9.283487319946289062e+00 -3.519858728395774961e-05 9.378749155075638555e-07 -1.027821326715638861e-05 -1.132055786001728848e-06
9.410000000000000000e+02 2.553527069091796875e+01 3.441129684448242188e+01 -1.699280738830566406e-02 -6.912864279001951218e-03 -7.171701639890670776e-03 -9.110242128372192383e-03
9.420000000000000000e+02 2.383105278015136719e+01 3.441011810302734375e+01 -4.988044966012239456e-03 -5.780285224318504333e-03 -3.230499103665351868e-03 8.687937515787780285e-04
9.430000000000000000e+02 2.099340820312500000e+01 2.958614730834960938e+01 -1.594227971509099007e-03 -6.795017048716545105e-03 -2.516773529350757599e-03 -8.916289545595645905e-03
9.440000000000000000e+02 2.099575042724609375e+01 2.818655014038085938e+01 -2.448310377076268196e-03 -3.543076291680335999e-02 -1.136372145265340805e-02 -1.399441249668598175e-02
9.450000000000000000e+02 2.216861534118652344e+01 2.397111129760742188e+01 -9.445421397686004639e-03 -2.310101389884948730e-01 -7.213667035102844238e-02 -8.901551365852355957e-02
9.460000000000000000e+02 2.101527214050292969e+01 2.398269081115722656e+01 -1.678668777458369732e-03 -2.032258808612823486e-01 -6.147136539220809937e-02 -3.025692887604236603e-02
9.470000000000000000e+02 2.103472137451171875e+01 2.117678451538085938e+01 -1.186364213936030865e-03 -3.731362223625183105e-01 -1.122967749834060669e-01 -3.945176303386688232e-02
9.480000000000000000e+02 2.229640388488769531e+01 1.557218551635742188e+01 -3.245322266593575478e-03 -7.673142552375793457e-01 -2.311678826808929443e-01 -1.484180837869644165e-01
9.490000000000000000e+02 2.105721664428710938e+01 1.555513000488281250e+01 -6.146021860331529751e-06 -8.037635684013366699e-01 -2.411309182643890381e-01 -5.018946155905723572e-02
9.500000000000000000e+02 2.106088638305664062e+01 1.414764881134033203e+01 -1.008328632451593876e-03 -9.229075312614440918e-01 -2.771747410297393799e-01 -5.157816410064697266e-02
9.510000000000000000e+02 2.232225608825683594e+01 1.134126663208007812e+01 -4.516746557783335447e-04 -1.091048717498779297e+00 -3.274500966072082520e-01 -1.586469411849975586e-01
9.520000000000000000e+02 2.106375503540039062e+01 8.516149520874023438e+00 -2.556617138907313347e-03 -1.425133705139160156e+00 -4.283071160316467285e-01 -5.668747425079345703e-02
9.530000000000000000e+02 2.105854988098144531e+01 7.106643676757812500e+00 3.883055760525166988e-04 -1.561722636222839355e+00 -4.684002995491027832e-01 -5.942921340465545654e-02
9.540000000000000000e+02 2.223129844665527344e+01 4.259690761566162109e+00 -5.898378789424896240e-02 -1.609308600425720215e+00 -5.004877448081970215e-01 -1.880502700805664062e-01
9.550000000000000000e+02 2.090962028503417969e+01 2.875356674194335938e+00 -3.182507678866386414e-02 -1.895172238349914551e+00 -5.780991911888122559e-01 -1.795336753129959106e-01
9.560000000000000000e+02 2.078358840942382812e+01 1.477099418640136719e+00 -1.666399650275707245e-03 -1.841555476188659668e+00 -5.529665946960449219e-01 -1.754549145698547363e-01
9.570000000000000000e+02 2.068391227722167969e+01 8.504566550254821777e-02 1.965313218533992767e-02 -1.864464640617370605e+00 -5.534434318542480469e-01 -1.303812414407730103e-01
9.580000000000000000e+02 2.046199417114257812e+01 -4.110204696655273438e+00 7.885611616075038910e-03 -2.044854402542114258e+00 -6.110906600952148438e-01 -1.537556648254394531e-01
9.590000000000000000e+02 2.186074256896972656e+01 -2.708365917205810547e+00 -2.377216331660747528e-02 -1.859384655952453613e+00 -5.649470686912536621e-01 -1.577255576848983765e-01
9.600000000000000000e+02 2.034805107116699219e+01 -8.303627967834472656e+00 -2.704598242416977882e-03 -2.290107250213623047e+00 -6.878435611724853516e-01 -5.757427215576171875e-02
9.610000000000000000e+02 2.024078369140625000e+01 -1.253023815155029297e+01 -2.706827595829963684e-03 -2.481732130050659180e+00 -7.453316450119018555e-01 -1.005040109157562256e-01
9.620000000000000000e+02 2.028330230712890625e+01 -1.112118244171142578e+01 -5.731916753575205803e-04 -2.405177354812622070e+00 -7.217251658439636230e-01 -1.026767417788505554e-01
9.630000000000000000e+02 2.160659027099609375e+01 -1.250626468658447266e+01 -3.404543176293373108e-02 -2.237617731094360352e+00 -6.814989447593688965e-01 -1.689981520175933838e-01
9.640000000000000000e+02 1.979814910888671875e+01 -1.954496765136718750e+01 2.556542307138442993e-02 -2.320484161376953125e+00 -6.884756088256835938e-01 -9.495446830987930298e-02
9.650000000000000000e+02 2.135639762878417969e+01 -1.814392471313476562e+01 4.925999045372009277e-02 -2.217498064041137695e+00 -6.504713892936706543e-01 -1.285173594951629639e-01
9.660000000000000000e+02 1.975257492065429688e+01 -2.235536384582519531e+01 -7.206998299807310104e-03 -2.459351778030395508e+00 -7.399676442146301270e-01 -8.642376214265823364e-02
9.670000000000000000e+02 1.969770622253417969e+01 -2.658212852478027344e+01 8.566427975893020630e-03 -2.535896301269531250e+00 -7.581989765167236328e-01 -2.475631050765514374e-02
9.680000000000000000e+02 1.970084571838378906e+01 -2.517284584045410156e+01 5.367453675717115402e-03 -2.479037284851074219e+00 -7.421009540557861328e-01 -3.701220452785491943e-02
9.690000000000000000e+02 1.968255233764648438e+01 -2.939705848693847656e+01 1.326102297753095627e-02 -2.633383035659790039e+00 -7.860366106033325195e-01 -2.353687770664691925e-02
9.700000000000000000e+02 1.970030975341796875e+01 -3.218178939819335938e+01 2.602197602391242981e-02 -2.766347646713256836e+00 -8.220977187156677246e-01 -4.141096025705337524e-02
9.710000000000000000e+02 2.124938964843750000e+01 -3.213462448120117188e+01 -7.463283091783523560e-02 -2.471138477325439453e+00 -7.637314200401306152e-01 -1.527739763259887695e-01
9.720000000000000000e+02 1.977241516113281250e+01 -3.357463836669921875e+01 -9.213491529226303101e-02 -2.911509752273559570e+00 -9.010933637619018555e-01 -1.021072193980216980e-01
9.730000000000000000e+02 1.427141761779785156e+01 -3.172840499877929688e+01 -1.790534518659114838e-02 -3.170756157487630844e-03 -6.322830449789762497e-03 3.406834555789828300e-03
9.740000000000000000e+02 1.453817653656005859e+01 -2.756605148315429688e+01 1.612563431262969971e-02 -2.073568757623434067e-03 4.215619526803493500e-03 -1.006364007480442524e-03
9.750000000000000000e+02 1.304997730255126953e+01 -2.383398437500000000e+01 6.649688817560672760e-03 1.898842310765758157e-05 2.000603126361966133e-03 8.204589539673179388e-05
9.760000000000000000e+02 1.440733528137207031e+01 -2.349815177917480469e+01 -8.568285964429378510e-03 -1.018970273435115814e-03 -2.876176731660962105e-03 1.613188942428678274e-05
9.770000000000000000e+02 1.418815135955810547e+01 -2.055514144897460938e+01 -4.926322028040885925e-03 -4.096664779353886843e-04 -1.600796589627861977e-03 5.269699613563716412e-04
9.780000000000000000e+02 1.295659637451171875e+01 -1.741073608398437500e+01 3.782004117965698242e-03 2.247165830340236425e-04 1.202016253955662251e-03 -1.119881402701139450e-03
9.790000000000000000e+02 1.442690181732177734e+01 -1.626356315612792969e+01 3.837135620415210724e-03 4.594854908646084368e-05 1.164925284683704376e-03 -6.635222816839814186e-04
9.800000000000000000e+02 1.459248638153076172e+01 -9.311607360839843750e+00 -2.252203412353992462e-03 -6.243604002520442009e-05 -6.943918415345251560e-04 2.751106512732803822e-04
9.810000000000000000e+02 1.254914474487304688e+01 -1.911555171012878418e+00 3.509733360260725021e-04 1.545658742543309927e-04 1.516617630841210485e-04 -8.657517173560336232e-05
9.820000000000000000e+02 1.302110481262207031e+01 -2.788871765136718750e+00 2.323678345419466496e-04 4.955527256242930889e-04 2.183761680498719215e-04 -4.092166200280189514e-04
9.830000000000000000e+02 1.428674983978271484e+01 -2.019829988479614258e+00 -3.379499248694628477e-04 -9.402741852682083845e-05 -1.295932015636935830e-04 -2.985178143717348576e-04
9.840000000000000000e+02 1.373901367187500000e+01 -2.025606870651245117e+00 8.002648246474564075e-04 -8.649529627291485667e-05 2.141308650607243180e-04 -1.157450606115162373e-04
9.850000000000000000e+02 1.318026828765869141e+01 -1.969774365425109863e+00 -4.579683009069412947e-04 -2.194616827182471752e-04 -2.032289921771734953e-04 3.567326057236641645e-04
9.860000000000000000e+02 1.183147621154785156e+01 -1.888262867927551270e+00 -4.754480614792555571e-04 -5.611714732367545366e-05 -1.594695640960708261e-04 4.864618676947429776e-05
9.870000000000000000e+02 9.609330177307128906e+00 -1.862817406654357910e+00 4.000834887847304344e-04 1.175080469693057239e-04 1.552774629089981318e-04 -7.037230534479022026e-05
9.880000000000000000e+02 1.036028957366943359e+01 -1.868047237396240234e+00 -4.264623275958001614e-04 -1.074578976840712130e-04 -1.601760741323232651e-04 1.276324474019929767e-04
9.890000000000000000e+02 8.848953247070312500e+00 -1.863112449645996094e+00 -4.052761942148208618e-04 -1.054708918672986329e-04 -1.532241294626146555e-04 1.993615296669304371e-05
9.900000000000000000e+02 7.326653003692626953e+00 -1.866444587707519531e+00 -4.857746534980833530e-04 -2.586095206424943171e-06 -1.465082314098253846e-04 -5.046456135460175574e-05
9.910000000000000000e+02 5.804482936859130859e+00 -1.869377136230468750e+00 -5.001839017495512962e-04 1.313602842856198549e-04 -1.106470881495624781e-04 -5.423799848358612508e-06
9.920000000000000000e+02 3.523771047592163086e+00 -1.938685894012451172e+00 3.904642071574926376e-04 -2.432801702525466681e-04 4.415521107148379087e-05 -3.402900983928702772e-05
9.930000000000000000e+02 5.044810295104980469e+00 -1.877063512802124023e+00 4.293434321880340576e-04 -2.034024073509499431e-04 6.778230454074218869e-05 -7.992122118594124913e-05
9.940000000000000000e+02 3.679104804992675781e+00 -2.826164007186889648e+00 -5.509185139089822769e-04 3.453539102338254452e-04 -6.166937964735552669e-05 2.141936420230194926e-05
9.950000000000000000e+02 2.765354394912719727e+00 -1.973915576934814453e+00 -3.582003118935972452e-04 1.098998400266282260e-04 -7.449014083249494433e-05 2.204836491728201509e-04
9.960000000000000000e+02 2.002416849136352539e+00 -2.034967184066772461e+00 2.006137801799923182e-04 5.398786379373632371e-05 7.638049282832071185e-05 -3.092636470682919025e-04
9.970000000000000000e+02 1.230277657508850098e+00 -2.136625289916992188e+00 -3.503271145746111870e-04 -2.025298890657722950e-04 -1.658570981817319989e-04 1.189342674479121342e-05
9.980000000000000000e+02 2.073695659637451172e+00 -4.159043121337890625e+01 -2.143325516954064369e-03 1.984593272209167480e-02 5.310782231390476227e-03 5.181907908990979195e-04
9.990000000000000000e+02 5.196880817413330078e+00 -3.697243499755859375e+01 -2.320985542610287666e-03 1.039724680595099926e-03 -3.843782760668545961e-04 1.175614632666110992e-02
1.000000000000000000e+03 9.590157866477966309e-01 -3.855062866210937500e+01 4.983517806977033615e-03 1.577848382294178009e-02 6.228600628674030304e-03 2.976787975057959557e-03
1.001000000000000000e+03 7.513169646263122559e-01 -3.477459335327148438e+01 -5.350573919713497162e-03 5.226694978773593903e-03 -3.716372521012090147e-05 1.877662580227479339e-04
1.002000000000000000e+03 8.045071959495544434e-01 -3.331144714355468750e+01 2.907067537307739258e-03 3.526037326082587242e-03 1.929931459017097950e-03 1.711919554509222507e-03
1.003000000000000000e+03 6.111817955970764160e-01 -2.900508117675781250e+01 -4.296688362956047058e-03 -1.225725747644901276e-03 -1.656724256463348866e-03 3.911712155968416482e-06
1.004000000000000000e+03 5.822312831878662109e-01 -2.760535430908203125e+01 4.599877633154392242e-03 -1.416561659425497055e-03 9.549947571940720081e-04 2.114087255904451013e-04
1.005000000000000000e+03 5.780715346336364746e-01 -2.621123313903808594e+01 -4.406826104968786240e-03 -1.306396210566163063e-03 -1.713966717943549156e-03 -3.785249136853963137e-04
1.006000000000000000e+03 6.211196780204772949e-01 -2.201174736022949219e+01 3.054028842598199844e-03 -4.515518085099756718e-04 7.807431393302977085e-04 -7.011354318819940090e-05
1.007000000000000000e+03 6.273672580718994141e-01 -2.060040283203125000e+01 -2.802981762215495110e-03 -4.283104790374636650e-04 -9.693876490928232670e-04 -9.001463695312850177e-06
1.008000000000000000e+03 1.891361236572265625e+00 -2.062958717346191406e+01 3.111972240731120110e-03 -2.002055953198578209e-05 9.275855263695120811e-04 -2.525399613659828901e-04
1.009000000000000000e+03 6.233360767364501953e-01 -1.636739349365234375e+01 2.453775610774755478e-03 -2.135856630047783256e-05 7.297251140698790550e-04 -1.763062609825283289e-04
1.010000000000000000e+03 6.142677068710327148e-01 -1.495988368988037109e+01 -2.424672013148665428e-03 -9.393566870130598545e-05 -7.555822958238422871e-04 1.763671461958438158e-04
1.011000000000000000e+03 5.972504019737243652e-01 -1.355136966705322266e+01 2.384596737101674080e-03 2.532084727135952562e-05 7.229752955026924610e-04 -2.138368872692808509e-04
1.012000000000000000e+03 1.798889756202697754e+00 -1.360856437683105469e+01 -2.368391491472721100e-03 -9.254911856260150671e-05 -7.382821640931069851e-04 2.205418859375640750e-04
1.013000000000000000e+03 5.407096743583679199e-01 -9.337882041931152344e+00 -2.159342868253588676e-03 -5.825253538205288351e-05 -6.652785814367234707e-04 2.478238311596214771e-04
1.014000000000000000e+03 5.376716852188110352e-01 -7.943634033203125000e+00 1.994737423956394196e-03 7.523124077124521136e-05 6.209905841387808323e-04 -2.641073369886726141e-04
1.015000000000000000e+03 5.529757142066955566e-01 -6.546863079071044922e+00 -1.743718981742858887e-03 1.596160655026324093e-05 -5.183272296562790871e-04 2.160928124794736505e-04
1.016000000000000000e+03 7.486298370361328125e+01 -4.014222717285156250e+01 2.575992792844772339e-02 5.517322540283203125e+00 1.662924766540527344e+00 -3.204442560672760010e-02
1.017000000000000000e+03 3.187740898132324219e+01 -4.052622604370117188e+01 1.185047924518585205e-01 -7.702397704124450684e-01 -1.955204904079437256e-01 1.825992017984390259e-02
1.018000000000000000e+03 1.379169368743896484e+01 -3.940694046020507812e+01 4.479438439011573792e-02 -9.383001923561096191e-02 -1.471068896353244781e-02 1.176620870828628540e-01
1.019000000000000000e+03 7.909175872802734375e+01 4.023006057739257812e+01 -1.788324564695358276e-01 1.164688396453857422e+01 3.440415620803833008e+00 -7.542638923041522503e-04
1.020000000000000000e+03 7.933026885986328125e+01 3.903468322753906250e+01 4.061177000403404236e-02 1.148901367187500000e+01 3.458887815475463867e+00 1.797620654106140137e-01
1.021000000000000000e+03 7.939733123779296875e+01 3.502563095092773438e+01 2.075998671352863312e-02 8.864808082580566406e+00 2.665670394897460938e+00 6.480129361152648926e-01
1.022000000000000000e+03 7.840419006347656250e+01 3.258255386352539062e+01 4.650475084781646729e-01 8.459664344787597656e+00 2.677413702011108398e+00 1.219020962715148926e+00
1.023000000000000000e+03 7.462415313720703125e+01 3.101169013977050781e+01 7.862955093383789062e+00 1.620539093017578125e+01 7.220503807067871094e+00 6.949626207351684570e-01
1.024000000000000000e+03 7.944178009033203125e+01 2.656771659851074219e+01 -5.848158895969390869e-02 8.854310989379882812e+00 2.638748884201049805e+00 -5.872058272361755371e-01
1.025000000000000000e+03 7.943327331542968750e+01 2.513789176940917969e+01 -5.848946422338485718e-02 9.963619232177734375e+00 2.971539020538330078e+00 -4.396983981132507324e-01
1.026000000000000000e+03 7.946740722656250000e+01 2.092585754394531250e+01 -2.178939245641231537e-02 1.100591278076171875e+01 3.295237064361572266e+00 -5.741754546761512756e-03
1.027000000000000000e+03 7.945669555664062500e+01 1.953889846801757812e+01 -2.324293740093708038e-02 1.082830429077148438e+01 3.241518497467041016e+00 5.308317393064498901e-02
1.028000000000000000e+03 7.730713653564453125e+01 1.969721984863281250e+01 -1.759322881698608398e-01 9.690268516540527344e+00 2.854300737380981445e+00 4.071328938007354736e-01
1.029000000000000000e+03 7.944364929199218750e+01 1.815211105346679688e+01 -4.242399241775274277e-03 1.054898738861083984e+01 3.163423299789428711e+00 8.610747009515762329e-02
1.030000000000000000e+03 7.941320037841796875e+01 1.398117637634277344e+01 -2.805982483550906181e-03 9.539489746093750000e+00 2.861005067825317383e+00 1.146457716822624207e-01
1.031000000000000000e+03 7.940817260742187500e+01 1.258688735961914062e+01 5.077534355223178864e-03 9.210178375244140625e+00 2.764576673507690430e+00 1.104460582137107849e-01
1.032000000000000000e+03 7.940439605712890625e+01 1.119415283203125000e+01 -8.787898696027696133e-04 8.899757385253906250e+00 2.669663667678833008e+00 1.054119169712066650e-01
1.033000000000000000e+03 7.939603424072265625e+01 7.020917415618896484e+00 6.981862243264913559e-03 8.111442565917968750e+00 2.435527324676513672e+00 8.106117695569992065e-02
1.034000000000000000e+03 7.939076232910156250e+01 5.628056526184082031e+00 -1.659234985709190369e-04 7.893495559692382812e+00 2.367998838424682617e+00 7.351330667734146118e-02
1.035000000000000000e+03 7.938188934326171875e+01 4.234618186950683594e+00 4.664298146963119507e-03 7.695899963378906250e+00 2.310169219970703125e+00 6.755053251981735229e-02
1.036000000000000000e+03 7.934667968750000000e+01 5.118355154991149902e-02 1.187847694382071495e-03 7.215908527374267578e+00 2.165128946304321289e+00 5.061033368110656738e-02
1.037000000000000000e+03 7.934027099609375000e+01 -1.342905759811401367e+00 4.026722162961959839e-03 7.088196754455566406e+00 2.127666950225830078e+00 4.462460428476333618e-02
1.038000000000000000e+03 7.801758575439453125e+01 -4.040403842926025391e+00 9.320861659944057465e-03 6.657048702239990234e+00 1.999910950660705566e+00 1.241268590092658997e-01
1.039000000000000000e+03 7.934006500244140625e+01 -4.132712841033935547e+00 3.462599357590079308e-03 6.871779441833496094e+00 2.062572717666625977e+00 3.500053659081459045e-02
1.040000000000000000e+03 7.934993743896484375e+01 -8.312074661254882812e+00 1.154653611592948437e-03 6.623862743377685547e+00 1.987505316734313965e+00 2.287081070244312286e-02
1.041000000000000000e+03 7.803128051757812500e+01 -1.100554180145263672e+01 6.269416771829128265e-03 6.311230182647705078e+00 1.895249843597412109e+00 6.756792217493057251e-02
1.042000000000000000e+03 7.934367370605468750e+01 -1.110021495819091797e+01 6.258894572965800762e-04 6.500012397766113281e+00 1.950191497802734375e+00 1.768097653985023499e-02
1.043000000000000000e+03 7.932709503173828125e+01 -1.529061412811279297e+01 2.115767914801836014e-03 6.361172676086425781e+00 1.908986568450927734e+00 1.115222554653882980e-02
1.044000000000000000e+03 7.795008087158203125e+01 -1.805140495300292969e+01 1.982485642656683922e-03 6.101912498474121094e+00 1.831168532371520996e+00 3.715747967362403870e-02
1.045000000000000000e+03 7.931869506835937500e+01 -1.809076309204101562e+01 1.874328125268220901e-03 6.292736530303955078e+00 1.888383269309997559e+00 8.662614971399307251e-03
1.046000000000000000e+03 7.929381561279296875e+01 -2.368325614929199219e+01 1.654470572248101234e-03 6.195275783538818359e+00 1.859079122543334961e+00 4.945302382111549377e-03
1.047000000000000000e+03 7.782780456542968750e+01 -2.510874748229980469e+01 4.190737381577491760e-03 5.975063800811767578e+00 1.793776392936706543e+00 1.966050826013088226e-02
1.048000000000000000e+03 7.927578735351562500e+01 -2.509051513671875000e+01 -1.107675372622907162e-03 6.177144527435302734e+00 1.852810978889465332e+00 4.382762592285871506e-03
1.049000000000000000e+03 7.925890350341796875e+01 -2.930745506286621094e+01 2.268099226057529449e-03 6.143127441406250000e+00 1.843618631362915039e+00 8.436163770966231823e-04
1.050000000000000000e+03 7.790219879150390625e+01 -3.220867919921875000e+01 -1.575944479554891586e-03 5.933202743530273438e+00 1.779488086700439453e+00 7.361473981291055679e-03
1.051000000000000000e+03 7.930923461914062500e+01 -3.208384323120117188e+01 -2.521066460758447647e-03 6.132032871246337891e+00 1.838853478431701660e+00 1.418982283212244511e-03
1.052000000000000000e+03 7.939366912841796875e+01 -3.611798858642578125e+01 6.629001349210739136e-03 6.080563068389892578e+00 1.826157569885253906e+00 1.042725518345832825e-02
1.053000000000000000e+03 7.928384399414062500e+01 -3.741626358032226562e+01 -1.248785853385925293e-02 6.038938045501708984e+00 1.807935118675231934e+00 2.161608636379241943e-02
1.054000000000000000e+03 7.902853393554687500e+01 -3.869634246826171875e+01 1.049628830514848232e-03 5.993202209472656250e+00 1.798275470733642578e+00 2.705272473394870758e-02
1.055000000000000000e+03 7.863300323486328125e+01 -4.003433990478515625e+01 -1.872716285288333893e-02 5.942352294921875000e+00 1.777087569236755371e+00 4.451652988791465759e-02
1.056000000000000000e+03 4.843838691711425781e+00 4.039347076416015625e+01 -6.924439367139711976e-05 -3.207051486242562532e-05 -3.039447256014682353e-05 2.598108767415396869e-05
1.057000000000000000e+03 2.744141960144042969e+01 3.802838897705078125e+01 4.821915354114025831e-04 6.315826904028654099e-04 3.341322590131312609e-04 -5.112477811053395271e-04
1.058000000000000000e+03 4.775241470336914062e+01 3.689744186401367188e+01 2.851173514500260353e-03 -9.532288461923599243e-02 -2.774151228368282318e-02 9.878361225128173828e-02
1.059000000000000000e+03 1.273161172866821289e+00 2.703892946243286133e+00 -4.470978183235274628e-06 6.271379788813646883e-06 5.401204248300928157e-07 6.333235091915412340e-07
1.060000000000000000e+03 3.113746881484985352e+00 2.734274864196777344e+00 -1.291333046538056806e-05 -7.840088983357418329e-06 -6.226026016520336270e-06 1.068834876605251338e-06
1.061000000000000000e+03 5.293670177459716797e+00 2.663367271423339844e+00 7.817113328201230615e-06 7.265086424013134092e-06 4.524659743765369058e-06 -3.609770146795199253e-06
1.062000000000000000e+03 1.645521879196166992e+00 6.260487556457519531e+00 2.544475137256085873e-05 5.711633093596901745e-06 9.346915248897857964e-06 -6.684151230729185045e-06
1.063000000000000000e+03 5.515447258949279785e-01 9.207976341247558594e+00 -3.650556755019351840e-05 -6.353832304739626125e-07 -1.114228507503867149e-05 5.513888481800677255e-06
1.064000000000000000e+03 5.700305700302124023e-01 1.202344036102294922e+01 -4.171898763161152601e-05 -8.031192919588647783e-07 -1.275663271371740848e-05 5.489776867761975154e-06
1.065000000000000000e+03 1.710111260414123535e+00 1.185896492004394531e+01 4.046686808578670025e-05 4.408537677136337152e-07 1.227231587108690292e-05 -4.918118975183460861e-06
1.066000000000000000e+03 5.995178818702697754e-01 1.625693893432617188e+01 4.676197568187490106e-05 1.203999886456585955e-06 1.438979234080761671e-05 -6.278658474911935627e-06
1.067000000000000000e+03 1.822770357131958008e+00 1.749230003356933594e+01 4.894132143817842007e-05 1.217866952174517792e-06 1.504775718785822392e-05 -5.645594683301169425e-06
1.068000000000000000e+03 6.079091429710388184e-01 1.766919708251953125e+01 -4.850256664212793112e-05 -1.294552134822879452e-06 -1.493913623562548310e-05 6.429644145100610331e-06
1.069000000000000000e+03 6.280257701873779297e-01 2.191422843933105469e+01 5.194652112550102174e-05 6.178255489430739544e-07 1.576930299052037299e-05 -4.938716756441863254e-06
1.070000000000000000e+03 6.291414499282836914e-01 2.332133865356445312e+01 -5.099265035823918879e-05 -7.460054689545358997e-07 -1.552159665152430534e-05 4.329611783759901300e-06
1.071000000000000000e+03 1.889405488967895508e+00 2.314339447021484375e+01 5.670930113410577178e-05 -1.029670556818018667e-06 1.670388883212581277e-05 7.884653996370616369e-07
1.072000000000000000e+03 6.305800080299377441e-01 2.473004341125488281e+01 4.790463935933075845e-05 2.332325621523523296e-08 1.437838909623678774e-05 -3.218117626602179371e-06
1.073000000000000000e+03 6.481961011886596680e-01 2.897328567504882812e+01 -3.322251359350048006e-05 -3.199135107934125699e-07 -1.006272759696003050e-05 -3.626410602919349913e-07
1.074000000000000000e+03 6.572757959365844727e-01 3.038793373107910156e+01 2.854712329281028360e-05 6.879737384224426933e-07 8.770529348112177104e-06 3.771219780901446939e-07
1.075000000000000000e+03 2.004984140396118164e+00 3.162608718872070312e+01 4.140599412494339049e-05 4.614613771991571411e-06 1.380618232360575348e-05 4.135641574976034462e-06
1.076000000000000000e+03 6.660939455032348633e-01 3.180498123168945312e+01 -2.550642057030927390e-05 -8.849225423546158709e-07 -7.917403308965731412e-06 8.951421648362156702e-08
1.077000000000000000e+03 6.666496992111206055e-01 3.602251434326171875e+01 5.908859748160466552e-05 1.551559398649260402e-05 2.238125671283341944e-05 -2.202512223448138684e-05
1.078000000000000000e+03 1.990877747535705566e+00 3.707130050659179688e+01 5.668374433298595250e-05 2.011819742619991302e-05 2.304058216395787895e-05 -4.301859371480531991e-05
1.079000000000000000e+03 8.765265345573425293e-01 3.871720886230468750e+01 9.222369408234953880e-05 2.006619797612074763e-05 3.368696707184426486e-05 -2.689537905098404735e-05
1.080000000000000000e+03 1.259448170661926270e+00 4.006361007690429688e+01 -8.403398533118888736e-05 1.561797762406058609e-05 -2.052480158454272896e-05 1.521120429970324039e-05
1.081000000000000000e+03 1.037353992462158203e+01 1.850705742835998535e+00 6.731975190632510930e-06 5.228572717896895483e-06 3.588164418033557013e-06 1.356891516479663551e-06
1.082000000000000000e+03 8.918881416320800781e+00 1.856207609176635742e+00 5.499576218426227570e-06 7.165357601479627192e-06 3.799480282395961694e-06 -6.127185088189435191e-07
1.083000000000000000e+03 8.203848838806152344e+00 1.855210065841674805e+00 -5.796509412903105840e-06 -7.245947472256375477e-06 -3.912737156497314572e-06 1.694707975730125327e-06
1.084000000000000000e+03 8.163346290588378906e+00 2.569348335266113281e+00 7.574183200631523505e-06 7.695442945987451822e-06 4.580887889460427687e-06 -2.190372470067813993e-06
1.085000000000000000e+03 7.489842414855957031e+00 1.857559204101562500e+00 6.185972779348958284e-06 7.175382506829919294e-06 4.008406449429458007e-06 -2.426169430691516027e-06
1.086000000000000000e+03 5.335212230682373047e+00 1.886445522308349609e+00 -5.995796527713537216e-06 -6.947171641513705254e-06 -3.882890723616583273e-06 3.791484687099000439e-06
1.087000000000000000e+03 4.612790107727050781e+00 1.901511549949645996e+00 6.807169484090991318e-06 6.661088718828978017e-06 4.040477506350725889e-06 -3.795070824708091095e-06
1.088000000000000000e+03 3.896072387695312500e+00 1.908603191375732422e+00 -8.541680472262669355e-06 -6.486604434030596167e-06 -4.508485744736390188e-06 3.347816573295858689e-06
1.089000000000000000e+03 3.190108776092529297e+00 1.901069164276123047e+00 1.048711965268012136e-05 6.011513505654875189e-06 4.949589765601558611e-06 -1.339008917966566514e-06
1.090000000000000000e+03 2.494427680969238281e+00 1.885838031768798828e+00 -9.029360626300331205e-06 -6.697474873362807557e-06 -4.718050604424206540e-06 -1.367478262181975879e-06
1.091000000000000000e+03 1.804671406745910645e+00 1.881097674369812012e+00 4.678687218984123319e-06 8.318068466905970126e-06 3.899026523868087679e-06 1.829486564020044170e-06
1.092000000000000000e+03 1.185737323760986328e+01 1.800316214561462402e+00 6.812870651629054919e-06 3.754177896553301252e-06 3.170114723616279662e-06 -6.196068511599150952e-07
1.093000000000000000e+03 1.441951847076416016e+01 2.936811208724975586e+00 -3.393739007151452824e-06 -5.076765319245168939e-06 -2.541151161494781263e-06 8.501069714839104563e-06
1.094000000000000000e+03 1.463932418823242188e+01 3.747613906860351562e+00 1.520112618891289458e-05 3.646164714155020192e-06 5.654187134496169165e-06 -4.693899427365977317e-06
1.095000000000000000e+03 1.480225276947021484e+01 2.006124019622802734e+00 -1.017875274555990472e-05 -1.978780346689745784e-06 -3.647259973149630241e-06 -2.057819301626295783e-07
1.096000000000000000e+03 1.307228565216064453e+01 3.279396533966064453e+00 -1.513768256700132042e-05 -3.139910177196725272e-06 -5.483278073370456696e-06 -1.244394024979555979e-05
1.097000000000000000e+03 1.455476856231689453e+01 6.343211650848388672e+00 2.213056723121553659e-05 3.146408289467217401e-07 6.733562258887104690e-06 -2.968120497826021165e-06
1.098000000000000000e+03 1.448021888732910156e+01 7.725639820098876953e+00 -2.433140980429016054e-05 -1.315867393714142963e-06 -7.694183295825496316e-06 2.162162445529247634e-06
1.099000000000000000e+03 1.445595932006835938e+01 9.114650726318359375e+00 2.957412652904167771e-05 5.981324306958413217e-07 9.051677807292435318e-06 -6.943712946849700529e-07
1.100000000000000000e+03 1.450945377349853516e+01 1.188022422790527344e+01 4.429735417943447828e-05 -2.283781981304855435e-07 1.322069238085532561e-05 -2.491633949830429628e-06
1.101000000000000000e+03 1.452645015716552734e+01 1.325630092620849609e+01 -5.062522905063815415e-05 -4.288258139695244608e-07 -1.531621637695934623e-05 2.659814526850823313e-06
1.102000000000000000e+03 1.453128433227539062e+01 1.462996673583984375e+01 5.670540122082456946e-05 5.413052122094086371e-07 1.717401210044045001e-05 -2.017271071963477880e-06
1.103000000000000000e+03 1.452613353729248047e+01 1.600205230712890625e+01 -6.255017069634050131e-05 -6.968472234802902676e-07 -1.897410402307286859e-05 9.258191653316316660e-07
1.104000000000000000e+03 1.325703048706054688e+01 2.012053489685058594e+01 -7.312610978260636330e-05 2.179447847083793022e-06 -2.128399864886887372e-05 -4.850092864217003807e-06
1.105000000000000000e+03 1.451784038543701172e+01 2.152931594848632812e+01 -8.195552072720602155e-05 -1.290963041356008034e-06 -2.497394416423048824e-05 -1.344478391729353461e-06
1.106000000000000000e+03 1.483186244964599609e+01 2.566247749328613281e+01 1.227896864293143153e-04 1.051771278071100824e-06 3.715243656188249588e-05 9.451309779251459986e-06
1.107000000000000000e+03 1.324601364135742188e+01 2.291886901855468750e+01 -8.331387653015553951e-05 -6.005744580761529505e-06 -2.679588760656770319e-05 -9.628939551475923508e-06
1.108000000000000000e+03 1.495778274536132812e+01 2.703406333923339844e+01 -1.379285240545868874e-04 2.636776912368077319e-07 -4.129945591557770967e-05 -9.941212738340254873e-06
1.109000000000000000e+03 1.511753082275390625e+01 2.840103340148925781e+01 1.499882055213674903e-04 1.319097009400138631e-06 4.539218934951350093e-05 1.068043729901546612e-05
1.110000000000000000e+03 1.578209972381591797e+01 3.259472274780273438e+01 -1.493160380050539970e-04 9.599139048077631742e-06 -4.191507105133496225e-05 2.104244231304619461e-05
1.111000000000000000e+03 1.629042434692382812e+01 3.397010421752929688e+01 1.590414467500522733e-04 5.464705282065551728e-06 4.935184551868587732e-05 -3.255474075558595359e-05
1.112000000000000000e+03 1.531793975830078125e+01 3.562366104125976562e+01 1.997048821067437530e-04 3.210377690265886486e-05 6.954259879421442747e-05 -5.380597212933935225e-05
1.113000000000000000e+03 1.719219398498535156e+01 3.646862030029296875e+01 3.645995457191020250e-04 1.097004424082115293e-04 1.422899949830025434e-04 1.184204083983786404e-04
1.114000000000000000e+03 2.162640380859375000e+01 3.829855346679687500e+01 -3.472523167147301137e-05 -1.892905711429193616e-04 -6.720473902532830834e-05 1.827185769798234105e-04
1.115000000000000000e+03 2.416331672668457031e+01 3.863226318359375000e+01 -4.512027953751385212e-05 4.210094921290874481e-04 1.127667637774720788e-04 -3.768735623452812433e-04
1.116000000000000000e+03 2.325846290588378906e+01 3.856812667846679688e+01 -6.473078974522650242e-05 -1.329645601799711585e-04 -5.930860788794234395e-05 1.319863804383203387e-04
1.117000000000000000e+03 2.607752609252929688e+01 3.849043655395507812e+01 -3.075411659665405750e-04 5.747847608290612698e-04 8.017308573471382260e-05 -2.920927945524454117e-04
1.118000000000000000e+03 2.824820899963378906e+01 3.802703475952148438e+01 2.954192168544977903e-04 1.843935460783541203e-04 1.439438347006216645e-04 -7.733312668278813362e-04
1.119000000000000000e+03 2.907244873046875000e+01 3.793385314941406250e+01 4.734085232485085726e-04 1.050699735060334206e-03 4.572324978653341532e-04 -1.135626342147588730e-03
1.120000000000000000e+03 3.119610595703125000e+01 3.831837463378906250e+01 7.771566160954535007e-04 8.819326176308095455e-04 4.977267817594110966e-04 -1.683815848082304001e-03
1.121000000000000000e+03 3.126315498352050781e+01 3.731973266601562500e+01 1.686452073045074940e-03 2.010935859289020300e-04 5.662636831402778625e-04 -1.730155898258090019e-03
1.122000000000000000e+03 3.256466674804687500e+01 3.716661834716796875e+01 1.547717140056192875e-03 4.373405827209353447e-04 5.955172819085419178e-04 -1.393368351273238659e-03
1.123000000000000000e+03 3.402900695800781250e+01 3.710582733154296875e+01 1.591436797752976418e-03 2.465233847033232450e-04 5.513880169019103050e-04 -1.492596929892897606e-03
1.124000000000000000e+03 3.481738662719726562e+01 3.705987167358398438e+01 1.278267242014408112e-03 1.358324661850929260e-03 7.909775595180690289e-04 -3.035648958757519722e-03
1.125000000000000000e+03 3.644113922119140625e+01 3.680669784545898438e+01 2.070281654596328735e-03 1.112024881877005100e-03 9.546919609420001507e-04 -1.225643907673656940e-03
1.126000000000000000e+03 3.791964340209960938e+01 3.629273605346679688e+01 2.134508686140179634e-03 -8.362301741726696491e-04 3.894835535902529955e-04 1.773559604771435261e-03
1.127000000000000000e+03 3.948429489135742188e+01 3.631332015991210938e+01 -4.838923341594636440e-04 -5.072496365755796432e-03 -1.666916650719940662e-03 6.386709399521350861e-03
1.128000000000000000e+03 4.032745742797851562e+01 3.606953048706054688e+01 -3.445853479206562042e-03 -7.717225700616836548e-03 -3.348923753947019577e-03 7.033476606011390686e-03
1.129000000000000000e+03 4.094602203369140625e+01 3.559151458740234375e+01 -4.033478908240795135e-03 -5.685055628418922424e-03 -2.915560267865657806e-03 1.043732557445764542e-02
1.130000000000000000e+03 4.400309371948242188e+01 3.674351119995117188e+01 -8.857849054038524628e-03 -3.126572445034980774e-02 -1.203707233071327209e-02 3.159499168395996094e-02
1.131000000000000000e+03 4.367727279663085938e+01 3.507965850830078125e+01 -1.679084263741970062e-02 -1.292904093861579895e-02 -8.915964514017105103e-03 2.163839153945446014e-02
1.132000000000000000e+03 4.519214630126953125e+01 3.493808364868164062e+01 -3.093413449823856354e-02 -2.229679189622402191e-02 -1.596927829086780548e-02 3.772162646055221558e-02
1.133000000000000000e+03 4.808549118041992188e+01 3.432863998413085938e+01 -8.732230961322784424e-02 -2.948129549622535706e-02 -3.504108265042304993e-02 7.742496579885482788e-02
1.134000000000000000e+03 4.883180618286132812e+01 3.427382278442382812e+01 -1.051718518137931824e-01 -4.509908705949783325e-02 -4.508128389716148376e-02 8.906418830156326294e-02
1.135000000000000000e+03 5.108287811279296875e+01 3.395139312744140625e+01 -1.868367940187454224e-01 -4.491237923502922058e-02 -6.952475011348724365e-02 1.364432275295257568e-01
1.136000000000000000e+03 4.958491516113281250e+01 3.420969009399414062e+01 -1.272241771221160889e-01 -4.026111960411071777e-02 -5.024559050798416138e-02 1.079203635454177856e-01
1.137000000000000000e+03 5.253217315673828125e+01 3.363056182861328125e+01 -2.623336911201477051e-01 -5.088230967521667480e-02 -9.396480023860931396e-02 1.691029369831085205e-01
1.138000000000000000e+03 5.325197219848632812e+01 3.351389694213867188e+01 -3.076894879341125488e-01 -6.890550255775451660e-02 -1.129784956574440002e-01 1.913442164659500122e-01
1.139000000000000000e+03 5.469472885131835938e+01 3.336740875244140625e+01 -4.120891988277435303e-01 -7.580101490020751953e-02 -1.463670730590820312e-01 2.317702919244766235e-01
1.140000000000000000e+03 5.540125274658203125e+01 3.421606445312500000e+01 -3.461086750030517578e-01 -1.149803996086120605e-01 -1.383267343044281006e-01 3.049982786178588867e-01
1.141000000000000000e+03 5.613777160644531250e+01 3.329565429687500000e+01 -5.127261877059936523e-01 -8.469661325216293335e-02 -1.792268455028533936e-01 2.911361753940582275e-01
1.142000000000000000e+03 5.908996200561523438e+01 3.312573242187500000e+01 -8.294271826744079590e-01 -6.417167186737060547e-02 -2.680796682834625244e-01 3.899993300437927246e-01
1.143000000000000000e+03 5.983868026733398438e+01 3.305865478515625000e+01 -9.261561036109924316e-01 -5.464854463934898376e-02 -2.942413985729217529e-01 4.226245284080505371e-01
1.144000000000000000e+03 6.058725357055664062e+01 3.300856399536132812e+01 -1.032418251037597656e+00 -4.356489330530166626e-02 -3.227949440479278564e-01 4.271453320980072021e-01
1.145000000000000000e+03 6.454187774658203125e+01 3.443203353881835938e+01 -4.322119057178497314e-01 1.453092694282531738e-01 -8.607078343629837036e-02 3.912486732006072998e-01
1.146000000000000000e+03 6.282253646850585938e+01 3.290611267089843750e+01 -1.318149924278259277e+00 -3.738079592585563660e-02 -4.066592156887054443e-01 4.684859514236450195e-01
1.147000000000000000e+03 6.430512237548828125e+01 3.280657577514648438e+01 -1.490018010139465332e+00 -8.718660683371126652e-04 -4.472669661045074463e-01 4.582829773426055908e-01
1.148000000000000000e+03 6.581018066406250000e+01 3.352236557006835938e+01 -8.652435541152954102e-01 1.380163282155990601e-01 -2.181681543588638306e-01 3.043843209743499756e-01
1.149000000000000000e+03 6.578460693359375000e+01 3.275995635986328125e+01 -1.547119259834289551e+00 4.835453256964683533e-02 -4.496293962001800537e-01 3.842687010765075684e-01
1.150000000000000000e+03 6.652904510498046875e+01 3.275809860229492188e+01 -1.519225120544433594e+00 8.523868769407272339e-02 -4.301959276199340820e-01 3.165086209774017334e-01
1.151000000000000000e+03 6.799925994873046875e+01 3.269132995605468750e+01 -1.256443977355957031e+00 2.570362389087677002e-01 -2.998223304748535156e-01 2.770327217876911163e-02
1.152000000000000000e+03 6.870977783203125000e+01 3.264622116088867188e+01 -1.007575750350952148e+00 3.812046051025390625e-01 -1.879113316535949707e-01 -2.870110571384429932e-01
1.153000000000000000e+03 6.939463043212890625e+01 3.263919830322265625e+01 -6.279774904251098633e-01 7.164080739021301270e-01 2.652917429804801941e-02 -7.726308107376098633e-01
1.154000000000000000e+03 7.058335876464843750e+01 3.252516555786132812e+01 6.574029326438903809e-01 1.896201252937316895e+00 7.660812139511108398e-01 -2.200108051300048828e+00
1.155000000000000000e+03 7.225296783447265625e+01 3.269297790527343750e+01 7.154619693756103516e-01 1.135178470611572266e+01 3.620174169540405273e+00 -6.031517505645751953e+00
1.156000000000000000e+03 7.314239501953125000e+01 3.242471313476562500e+01 -6.968759894371032715e-01 2.093848800659179688e+01 6.072483539581298828e+00 -3.471081972122192383e+00
1.157000000000000000e+03 7.386208343505859375e+01 3.231752395629882812e+01 8.283999562263488770e-01 2.042938423156738281e+01 6.377335071563720703e+00 1.094867229461669922e+00
1.158000000000000000e+03 7.945332336425781250e+01 3.082462692260742188e+01 1.507050096988677979e-01 5.402160644531250000e+00 1.665859699249267578e+00 2.271259203553199768e-03
1.159000000000000000e+03 7.461941528320312500e+01 3.077053642272949219e+01 7.890567302703857422e+00 1.607653617858886719e+01 7.190131187438964844e+00 -4.801125824451446533e-01
1.160000000000000000e+03 7.454058074951171875e+01 3.028022003173828125e+01 6.635754585266113281e+00 1.704623222351074219e+01 7.104596138000488281e+00 -2.240996837615966797e+00
1.161000000000000000e+03 7.429734039306640625e+01 2.990988540649414062e+01 4.333349704742431641e+00 1.856047439575195312e+01 6.868146896362304688e+00 -2.804181814193725586e+00
1.162000000000000000e+03 7.361737060546875000e+01 2.939534759521484375e+01 -3.365755677223205566e-01 2.093588447570800781e+01 6.179792404174804688e+00 2.413487434387207031e-01
1.163000000000000000e+03 7.322905731201171875e+01 2.921729469299316406e+01 -1.204289078712463379e+00 1.961585617065429688e+01 5.523470401763916016e+00 2.928771734237670898e+00
1.164000000000000000e+03 7.076963806152343750e+01 2.921149635314941406e+01 -6.491270661354064941e-02 2.223433494567871094e+00 6.475562453269958496e-01 3.040913581848144531e+00
1.165000000000000000e+03 6.953344726562500000e+01 2.913304328918457031e+01 -1.818080544471740723e+00 7.896278500556945801e-01 -3.085358142852783203e-01 1.261739373207092285e+00
1.166000000000000000e+03 6.722410583496093750e+01 2.897216224670410156e+01 -3.027818441390991211e+00 1.273534148931503296e-01 -8.701394796371459961e-01 2.676878571510314941e-01
1.167000000000000000e+03 6.797869873046875000e+01 2.901268768310546875e+01 -2.717978477478027344e+00 2.371155321598052979e-01 -7.442588806152343750e-01 4.607740640640258789e-01
1.168000000000000000e+03 6.571860504150390625e+01 2.904294013977050781e+01 -3.570424318313598633e+00 2.256611175835132599e-02 -1.064357519149780273e+00 7.955779321491718292e-03
1.169000000000000000e+03 6.422301483154296875e+01 2.906719017028808594e+01 -3.722517251968383789e+00 -5.763653200119733810e-03 -1.118484258651733398e+00 -8.641356974840164185e-02
1.170000000000000000e+03 6.044344329833984375e+01 2.918922233581542969e+01 -3.567529678344726562e+00 -2.852247096598148346e-02 -1.078815698623657227e+00 -1.303204298019409180e-01
1.171000000000000000e+03 6.120238113403320312e+01 2.915501403808593750e+01 -3.630940914154052734e+00 -2.567313052713871002e-02 -1.096984267234802246e+00 -1.311528384685516357e-01
1.172000000000000000e+03 5.816842651367187500e+01 2.932182502746582031e+01 -3.318197965621948242e+00 -2.437599375844001770e-02 -1.002772212028503418e+00 -1.091623976826667786e-01
1.173000000000000000e+03 5.513405227661132812e+01 2.956852340698242188e+01 -2.901607275009155273e+00 -1.565406098961830139e-02 -8.751783967018127441e-01 -7.569302618503570557e-02
1.174000000000000000e+03 5.589322280883789062e+01 2.950247383117675781e+01 -3.013809442520141602e+00 -1.963733509182929993e-02 -9.100340008735656738e-01 -8.312456309795379639e-02
1.175000000000000000e+03 5.286271286010742188e+01 2.981276893615722656e+01 -2.561325311660766602e+00 -2.553907921537756920e-03 -7.691637873649597168e-01 -5.500186979770660400e-02
1.176000000000000000e+03 4.832902526855468750e+01 3.041138648986816406e+01 -1.864828228950500488e+00 1.216955110430717468e-02 -5.557975769042968750e-01 -3.423467651009559631e-02
1.177000000000000000e+03 4.983995819091796875e+01 3.019256782531738281e+01 -2.092831611633300781e+00 6.808435078710317612e-03 -6.258069872856140137e-01 -3.601576015353202820e-02
1.178000000000000000e+03 5.059601974487304688e+01 3.009101104736328125e+01 -2.209345817565917969e+00 5.797854159027338028e-03 -6.610643863677978516e-01 -3.847829252481460571e-02
1.179000000000000000e+03 4.682827377319335938e+01 3.065992927551269531e+01 -1.648167729377746582e+00 2.220159396529197693e-02 -4.877898395061492920e-01 -3.242102265357971191e-02
1.180000000000000000e+03 4.235563659667968750e+01 3.146367835998535156e+01 -1.056782722473144531e+00 2.899346128106117249e-02 -3.083367645740509033e-01 -4.063416272401809692e-02
1.181000000000000000e+03 4.309690475463867188e+01 3.132163619995117188e+01 -1.146256446838378906e+00 2.851884998381137848e-02 -3.353212773799896240e-01 -3.829977661371231079e-02
1.182000000000000000e+03 4.384116744995117188e+01 3.118497085571289062e+01 -1.239365339279174805e+00 2.751206792891025543e-02 -3.635559976100921631e-01 -3.542366251349449158e-02
1.183000000000000000e+03 4.088174057006835938e+01 3.175739288330078125e+01 -8.905011415481567383e-01 3.210189566016197205e-02 -2.575197815895080566e-01 -4.458709806203842163e-02
1.184000000000000000e+03 3.646267318725585938e+01 3.260760498046875000e+01 -4.783627390861511230e-01 2.452825754880905151e-02 -1.361503452062606812e-01 -5.596531927585601807e-02
1.185000000000000000e+03 3.936939620971679688e+01 3.137057876586914062e+01 -7.494357228279113770e-01 4.305069893598556519e-02 -2.119154930114746094e-01 -1.103688850998878479e-01
1.186000000000000000e+03 3.499258422851562500e+01 3.290052795410156250e+01 -3.710790276527404785e-01 2.180587314069271088e-02 -1.047819480299949646e-01 -5.563705414533615112e-02
1.187000000000000000e+03 3.425812911987304688e+01 3.304664993286132812e+01 -3.223708271980285645e-01 1.990850642323493958e-02 -9.073869884014129639e-02 -5.432165786623954773e-02
1.188000000000000000e+03 3.352659225463867188e+01 3.319024658203125000e+01 -2.778101563453674316e-01 1.765995658934116364e-02 -7.804505527019500732e-02 -5.271031707525253296e-02
1.189000000000000000e+03 3.061251258850097656e+01 3.373671340942382812e+01 -1.365509033203125000e-01 7.351248990744352341e-03 -3.875989466905593872e-02 -4.106736183166503906e-02
1.190000000000000000e+03 3.206842803955078125e+01 3.347133255004882812e+01 -1.997400671243667603e-01 1.268766820430755615e-02 -5.611571669578552246e-02 -4.783219844102859497e-02
1.191000000000000000e+03 2.915624809265136719e+01 3.397101211547851562e+01 -8.753693848848342896e-02 2.124320250004529953e-03 -2.562378533184528351e-02 -3.291568905115127563e-02
1.192000000000000000e+03 2.842863655090332031e+01 3.408315277099609375e+01 -6.809294968843460083e-02 -1.455602978239767253e-05 -2.043225243687629700e-02 -2.845218218863010406e-02
1.193000000000000000e+03 2.770717430114746094e+01 3.418248367309570312e+01 -5.152985453605651855e-02 -2.232043072581291199e-03 -1.612856984138488770e-02 -2.382180094718933105e-02
1.194000000000000000e+03 2.472312927246093750e+01 3.443296432495117188e+01 -1.014081947505474091e-02 -7.366640958935022354e-03 -5.252237897366285324e-03 -3.917465917766094208e-03
1.195000000000000000e+03 2.626747894287109375e+01 3.434591293334960938e+01 -2.639004774391651154e-02 -6.493516266345977783e-03 -9.865068830549716949e-03 -1.404661685228347778e-02
1.196000000000000000e+03 2.204060935974121094e+01 3.430396652221679688e+01 -1.349095604382455349e-03 1.504723681136965752e-03 4.668840483645908535e-05 5.363652482628822327e-03
1.197000000000000000e+03 7.379583740234375000e+01 2.949849510192871094e+01 6.330841779708862305e-01 2.087697029113769531e+01 6.453016281127929688e+00 -8.613349199295043945e-01
1.198000000000000000e+03 7.507259368896484375e+01 3.076083564758300781e+01 6.616444587707519531e+00 1.468178176879882812e+01 6.389468193054199219e+00 -3.636392951011657715e-01
1.199000000000000000e+03 7.944040679931640625e+01 3.363358306884765625e+01 -5.148145928978919983e-02 7.221307754516601562e+00 2.150947809219360352e+00 7.114098668098449707e-01
1.200000000000000000e+03 7.489273834228515625e+01 3.140253257751464844e+01 6.220610618591308594e+00 1.558449935913085938e+01 6.541532993316650391e+00 1.694139361381530762e+00
1.201000000000000000e+03 7.456372070312500000e+01 3.123462677001953125e+01 7.691362380981445312e+00 1.650706291198730469e+01 7.259527683258056641e+00 1.569673418998718262e+00
1.202000000000000000e+03 7.847399902343750000e+01 2.821420478820800781e+01 1.583806425333023071e-01 8.758198738098144531e+00 2.674973726272583008e+00 -1.483885169029235840e+00
1.203000000000000000e+03 7.946514892578125000e+01 2.940972328186035156e+01 1.655430495738983154e-01 5.991293907165527344e+00 1.847051143646240234e+00 -4.045701324939727783e-01
1.204000000000000000e+03 7.434941864013671875e+01 3.161414909362792969e+01 6.148941040039062500e+00 1.812626457214355469e+01 7.282561779022216797e+00 2.807404518127441406e+00
1.205000000000000000e+03 7.473043823242187500e+01 3.157819366455078125e+01 5.784583568572998047e+00 1.645346641540527344e+01 6.671414852142333984e+00 2.256578207015991211e+00
1.206000000000000000e+03 7.265692138671875000e+01 3.273731231689453125e+01 -3.648042976856231689e-01 1.491512393951416016e+01 4.365096092224121094e+00 -5.464426994323730469e+00
1.207000000000000000e+03 7.390015411376953125e+01 3.296941757202148438e+01 -7.415274977684020996e-01 1.795753479003906250e+01 5.164802074432373047e+00 1.161853149533271790e-01
1.208000000000000000e+03 7.464065551757812500e+01 2.979968070983886719e+01 3.974185943603515625e+00 1.707412528991699219e+01 6.314493179321289062e+00 -2.634038925170898438e+00
1.209000000000000000e+03 7.439340972900390625e+01 3.010048103332519531e+01 5.674389839172363281e+00 1.782484626770019531e+01 7.049770355224609375e+00 -2.666903972625732422e+00
1.210000000000000000e+03 7.378870391845703125e+01 2.910538101196289062e+01 -5.035949349403381348e-01 1.938641548156738281e+01 5.664845943450927734e+00 1.013977602124214172e-01
1.211000000000000000e+03 7.197131347656250000e+01 3.249551391601562500e+01 1.647275328636169434e+00 8.486763000488281250e+00 3.040211677551269531e+00 -6.166229248046875000e+00
1.212000000000000000e+03 7.156903839111328125e+01 3.258098602294921875e+01 1.760161399841308594e+00 5.469539165496826172e+00 2.168910264968872070e+00 -4.957306861877441406e+00
1.213000000000000000e+03 7.236148071289062500e+01 3.250131225585937500e+01 7.051340341567993164e-01 1.239154148101806641e+01 3.929002761840820312e+00 -6.466846466064453125e+00
1.214000000000000000e+03 7.134780120849609375e+01 3.257820129394531250e+01 1.446815729141235352e+00 4.390744686126708984e+00 1.751268148422241211e+00 -4.230088710784912109e+00
1.215000000000000000e+03 7.178321838378906250e+01 3.250291824340820312e+01 1.850932598114013672e+00 6.780226230621337891e+00 2.589347600936889648e+00 -5.588396072387695312e+00
1.216000000000000000e+03 7.277735137939453125e+01 3.251546478271484375e+01 -3.125531673431396484e-01 1.675835800170898438e+01 4.933741569519042969e+00 -5.415490150451660156e+00
1.217000000000000000e+03 7.081842041015625000e+01 3.269870758056640625e+01 1.156197786331176758e+00 2.574225187301635742e+00 1.119126915931701660e+00 -2.879343748092651367e+00
1.218000000000000000e+03 7.115438842773437500e+01 3.250446319580078125e+01 1.329943895339965820e+00 3.169787883758544922e+00 1.349919557571411133e+00 -3.650186777114868164e+00
1.219000000000000000e+03 7.258226776123046875e+01 2.922275352478027344e+01 -4.459297060966491699e-01 1.467706012725830078e+01 4.269339084625244141e+00 6.337898731231689453e+00
1.220000000000000000e+03 7.056692504882812500e+01 2.919877815246582031e+01 -3.759145438671112061e-01 1.754776239395141602e+00 4.136584997177124023e-01 2.591451406478881836e+00
1.221000000000000000e+03 7.220803833007812500e+01 2.889215850830078125e+01 -1.752554923295974731e-01 1.091180038452148438e+01 3.220963478088378906e+00 6.110772132873535156e+00
1.222000000000000000e+03 7.218256378173828125e+01 2.921233749389648438e+01 4.590462446212768555e-01 1.054309272766113281e+01 3.300641775131225586e+00 6.682433128356933594e+00
1.223000000000000000e+03 7.116954803466796875e+01 2.920495223999023438e+01 5.359465479850769043e-01 3.511843442916870117e+00 1.214336991310119629e+00 4.137195110321044922e+00
1.224000000000000000e+03 7.097077178955078125e+01 2.921476364135742188e+01 2.645645141601562500e-01 2.806466102600097656e+00 9.213091731071472168e-01 3.558698892593383789e+00
1.225000000000000000e+03 7.094800567626953125e+01 2.892621040344238281e+01 2.526117563247680664e-01 3.470961332321166992e+00 1.117071986198425293e+00 3.884506225585937500e+00
1.226000000000000000e+03 6.993723297119140625e+01 2.917979240417480469e+01 -1.235540866851806641e+00 8.713275194168090820e-01 -1.092639937996864319e-01 1.700682878494262695e+00
1.227000000000000000e+03 7.036533355712890625e+01 2.919521522521972656e+01 -6.445912122726440430e-01 1.458824992179870605e+00 2.442701309919357300e-01 2.251389980316162109e+00
1.228000000000000000e+03 2.027873802185058594e+01 3.795106887817382812e+01 -6.047571514500305057e-05 -1.007461396511644125e-04 -4.836655716644600034e-05 1.320615701843053102e-04
1.229000000000000000e+03 1.422353744506835938e+01 1.880526304244995117e+00 4.818863999389577657e-06 1.205378794111311436e-06 1.807272838050266728e-06 -1.592106627867906354e-06
1.230000000000000000e+03 1.257041740417480469e+01 1.772620677947998047e+00 -3.666031489046872593e-06 -4.637182428268715739e-06 -2.490964106982573867e-06 -2.023353147251327755e-07
1.231000000000000000e+03 2.054119110107421875e+01 3.883457183837890625e+01 9.530745955999009311e-06 -8.743121725274249911e-05 -2.337014120712410659e-05 2.052479394478723407e-04
1.232000000000000000e+03 2.292777442932128906e+01 3.985344696044921875e+01 3.974513965658843517e-04 3.544389619491994381e-04 2.255670988233759999e-04 -4.153679765295237303e-04
1.233000000000000000e+03 6.056712627410888672e+00 1.873014569282531738e+00 6.126379503257339820e-06 7.077596364979399368e-06 3.961192760471021757e-06 -3.205889925084193237e-06
1.234000000000000000e+03 9.600759506225585938e+00 2.576246261596679688e+00 6.483848665084224194e-06 7.611444743815809488e-06 4.228587840771069750e-06 1.112227664634701796e-06
1.235000000000000000e+03 6.774785995483398438e+00 1.863771915435791016e+00 -6.315975952020380646e-06 -7.011701654846547171e-06 -3.998303327534813434e-06 2.916272933362051845e-06
1.236000000000000000e+03 7.454973697662353516e+00 2.578303098678588867e+00 -8.486170372634660453e-06 -7.114966138033196330e-06 -4.680341135099297389e-06 2.742363676588865928e-06
1.237000000000000000e+03 8.129464149475097656e+00 3.295645713806152344e+00 -9.461694389756303281e-06 -7.973509127623401582e-06 -5.230561328062321991e-06 3.243489345550187863e-06
1.238000000000000000e+03 6.020444393157958984e+00 4.140604972839355469e+00 -1.436026468581985682e-05 -5.230824626778485253e-06 -5.877326657355297357e-06 1.965187266250723042e-06
1.239000000000000000e+03 1.641287803649902344e+00 7.687607288360595703e+00 -3.263896724092774093e-05 -2.095871423080097884e-06 -1.042045187205076218e-05 6.805440079915570095e-06
1.240000000000000000e+03 2.452145576477050781e+00 4.417324542999267578e+00 -7.125128377083456144e-06 4.015335832718847087e-07 -2.017078486460377462e-06 -1.158213945018360391e-05
1.241000000000000000e+03 3.843805789947509766e-01 2.093594551086425781e+00 1.091660487873014063e-05 6.492929514934075996e-06 5.222860181675059721e-06 -4.160616754234069958e-06
1.242000000000000000e+03 1.114580273628234863e+00 1.932036757469177246e+00 1.490582690166775137e-06 -1.036668618326075375e-05 -2.662831093402928673e-06 -2.384900028573611053e-07
1.243000000000000000e+03 1.112057209014892578e+01 1.831014394760131836e+00 -7.844850188121199608e-06 -3.843909325951244682e-06 -3.506627990645938553e-06 -6.315223686215176713e-07
1.244000000000000000e+03 9.557504653930664062e+00 3.293319702148437500e+00 -6.524877335323253646e-06 -9.289334229833912104e-06 -4.744263605971354991e-06 -1.329341898781422060e-06
1.245000000000000000e+03 2.699132347106933594e+01 3.266621017456054688e+01 -7.485355436801910400e-02 -1.563320495188236237e-02 -2.714602835476398468e-02 -4.769084975123405457e-02
1.246000000000000000e+03 2.624756431579589844e+01 3.350769424438476562e+01 -4.467380791902542114e-02 -1.167145464569330215e-02 -1.690357923507690430e-02 -2.619212120771408081e-02
1.247000000000000000e+03 2.293369102478027344e+01 3.437852859497070312e+01 -2.087201457470655441e-03 -3.066605888307094574e-03 -1.546142157167196274e-03 4.637398757040500641e-03
1.248000000000000000e+03 2.417493820190429688e+01 3.118701934814453125e+01 -3.596383705735206604e-02 -3.962355107069015503e-02 -2.267621643841266632e-02 -4.057013615965843201e-02
1.249000000000000000e+03 2.770385742187500000e+01 3.338818359375000000e+01 -7.411985844373703003e-02 -6.485947873443365097e-03 -2.418174222111701965e-02 -3.869548067450523376e-02
1.250000000000000000e+03 2.915333747863769531e+01 3.321184921264648438e+01 -1.133855730295181274e-01 -9.094364941120147705e-04 -3.428850322961807251e-02 -5.239969491958618164e-02
1.251000000000000000e+03 2.988074111938476562e+01 3.311036682128906250e+01 -1.374660879373550415e-01 2.573559293523430824e-03 -4.046775773167610168e-02 -5.876286327838897705e-02
1.252000000000000000e+03 2.842721748352050781e+01 3.330566787719726562e+01 -9.185190498828887939e-02 -4.114205483347177505e-03 -2.878983318805694580e-02 -4.532804340124130249e-02
1.253000000000000000e+03 5.336968994140625000e+01 3.425330734252929688e+01 -2.451456338167190552e-01 -7.955095171928405762e-02 -9.740897268056869507e-02 2.219010293483734131e-01
1.254000000000000000e+03 5.608847427368164062e+01 3.421203994750976562e+01 -3.655933141708374023e-01 -1.130527555942535400e-01 -1.435938179492950439e-01 3.327520489692687988e-01
1.255000000000000000e+03 5.620035552978515625e+01 3.510750961303710938e+01 -2.245316952466964722e-01 -1.625729799270629883e-01 -1.161314025521278381e-01 3.840508759021759033e-01
1.256000000000000000e+03 5.833707809448242188e+01 3.319694137573242188e+01 -7.371733784675598145e-01 -6.278624385595321655e-02 -2.399878948926925659e-01 3.787602484226226807e-01
1.257000000000000000e+03 5.749837112426757812e+01 3.444401931762695312e+01 -3.654503226280212402e-01 -1.092353761196136475e-01 -1.424057036638259888e-01 4.262607395648956299e-01
1.258000000000000000e+03 5.191006851196289062e+01 3.613812637329101562e+01 -6.098427623510360718e-02 -1.318838149309158325e-01 -5.786042660474777222e-02 2.120337635278701782e-01
1.259000000000000000e+03 5.134419631958007812e+01 3.504047775268554688e+01 -1.269115805625915527e-01 -9.269837290048599243e-02 -6.588298827409744263e-02 1.698455214500427246e-01
1.260000000000000000e+03 5.299075698852539062e+01 3.515118408203125000e+01 -1.473048478364944458e-01 -1.067263707518577576e-01 -7.620936632156372070e-02 2.281846255064010620e-01
1.261000000000000000e+03 5.204050064086914062e+01 3.469554519653320312e+01 -1.625509262084960938e-01 -8.434078842401504517e-02 -7.406751811504364014e-02 1.905637830495834351e-01
1.262000000000000000e+03 5.271110153198242188e+01 3.442232131958007812e+01 -2.095589488744735718e-01 -9.288028627634048462e-02 -9.073176980018615723e-02 2.079257369041442871e-01
1.263000000000000000e+03 5.397329330444335938e+01 3.342838287353515625e+01 -3.607147336006164551e-01 -5.099904537200927734e-02 -1.235141381621360779e-01 2.113632559776306152e-01
1.264000000000000000e+03 5.471379470825195312e+01 3.417260360717773438e+01 -3.132735192775726318e-01 -8.593118935823440552e-02 -1.197614148259162903e-01 2.839550673961639404e-01
1.265000000000000000e+03 6.133411407470703125e+01 3.297741317749023438e+01 -1.125195384025573730e+00 -4.944258183240890503e-02 -3.523913621902465820e-01 4.483341276645660400e-01
1.266000000000000000e+03 5.833124160766601562e+01 3.428446960449218750e+01 -4.336217641830444336e-01 -1.245814934372901917e-01 -1.674609780311584473e-01 4.383328258991241455e-01
1.267000000000000000e+03 5.911228942871093750e+01 3.414537811279296875e+01 -5.121501684188842773e-01 -1.065277829766273499e-01 -1.856033951044082642e-01 4.897554218769073486e-01
1.268000000000000000e+03 6.061381149291992188e+01 3.395618438720703125e+01 -6.619866490364074707e-01 -6.266224384307861328e-02 -2.173946648836135864e-01 5.132058262825012207e-01
1.269000000000000000e+03 6.364899826049804688e+01 3.374081039428710938e+01 -8.635169863700866699e-01 3.081512171775102615e-03 -2.581306397914886475e-01 4.992994368076324463e-01
1.270000000000000000e+03 6.137049102783203125e+01 3.395862579345703125e+01 -7.044889926910400391e-01 -5.591471493244171143e-02 -2.281211167573928833e-01 5.065409541130065918e-01
1.271000000000000000e+03 4.737837219238281250e+01 3.437236404418945312e+01 -6.921658664941787720e-02 -3.526112064719200134e-02 -3.134331479668617249e-02 6.487820297479629517e-02
1.272000000000000000e+03 4.600120925903320312e+01 3.484837722778320312e+01 -4.248489066958427429e-02 -3.144974634051322937e-02 -2.218039147555828094e-02 4.945135489106178284e-02
1.273000000000000000e+03 6.727251434326171875e+01 3.274166107177734375e+01 -1.420582771301269531e+00 6.728367507457733154e-02 -4.059897363185882568e-01 2.117503881454467773e-01
1.274000000000000000e+03 6.655678558349609375e+01 3.356192016601562500e+01 -6.626628637313842773e-01 2.132135331630706787e-01 -1.348347961902618408e-01 1.651001125574111938e-01
1.275000000000000000e+03 6.438028717041015625e+01 3.362384414672851562e+01 -9.205946922302246094e-01 4.646475240588188171e-02 -2.622389793395996094e-01 4.542834460735321045e-01
1.276000000000000000e+03 6.578318023681640625e+01 3.425140380859375000e+01 -3.191500306129455566e-01 2.641536593437194824e-01 -1.649890653789043427e-02 1.918295621871948242e-01
1.277000000000000000e+03 3.278145599365234375e+01 3.262659072875976562e+01 -2.662987112998962402e-01 1.740768924355506897e-02 -7.466730475425720215e-02 -8.266813308000564575e-02
1.278000000000000000e+03 3.134002304077148438e+01 3.360889053344726562e+01 -1.662523597478866577e-01 9.986496530473232269e-03 -4.687975719571113586e-02 -4.464356228709220886e-02
1.279000000000000000e+03 3.133060455322265625e+01 3.288483428955078125e+01 -1.952129900455474854e-01 9.955918416380882263e-03 -5.557712167501449585e-02 -7.124747335910797119e-02
1.280000000000000000e+03 3.060672187805175781e+01 3.300173568725585938e+01 -1.649584770202636719e-01 6.176583468914031982e-03 -4.763456434011459351e-02 -6.527096778154373169e-02
1.281000000000000000e+03 4.618001556396484375e+01 3.622068405151367188e+01 -1.882331632077693939e-02 -5.128674209117889404e-02 -2.103301696479320526e-02 5.737655237317085266e-02
1.282000000000000000e+03 4.506842422485351562e+01 3.907955932617187500e+01 1.297024078667163849e-02 -7.062020152807235718e-02 -1.729498803615570068e-02 4.593838751316070557e-02
1.283000000000000000e+03 4.295442581176757812e+01 3.517974090576171875e+01 -1.300284545868635178e-02 -1.278077997267246246e-02 -7.735087536275386810e-03 1.727799884974956512e-02
1.284000000000000000e+03 1.180311203002929688e+01 -2.618493556976318359e+00 8.146971813403069973e-04 -5.785832399851642549e-05 2.270516561111435294e-04 -1.459244376746937633e-04
1.285000000000000000e+03 1.036951541900634766e+01 -3.359910249710083008e+00 -6.420794525183737278e-04 -2.212230174336582422e-04 -2.589907380752265453e-04 2.316122263437137008e-04
1.286000000000000000e+03 1.109330749511718750e+01 -2.611903905868530273e+00 -6.449839565902948380e-04 -9.345402941107749939e-05 -2.215314016211777925e-04 2.331100840819999576e-04
1.287000000000000000e+03 6.735406494140625000e+01 3.355939865112304688e+01 -4.648534953594207764e-01 3.521420657634735107e-01 -3.381343185901641846e-02 -6.908334046602249146e-02
1.288000000000000000e+03 7.065691375732421875e+01 3.280611801147460938e+01 9.628121852874755859e-01 2.576210498809814453e+00 1.061706781387329102e+00 -2.826286554336547852e+00
1.289000000000000000e+03 4.249929428100585938e+01 3.687884902954101562e+01 -6.191914901137351990e-03 -1.891095563769340515e-02 -7.530861068516969681e-03 2.030568942427635193e-02
1.290000000000000000e+03 3.373940277099609375e+01 3.829939270019531250e+01 -2.744501107372343540e-04 1.845565740950405598e-03 4.713347007054835558e-04 -2.488157479092478752e-03
1.291000000000000000e+03 3.721318054199218750e+01 3.655037689208984375e+01 2.917954931035637856e-03 -3.758162260055541992e-03 -2.520622510928660631e-04 -9.135525324381887913e-04
1.292000000000000000e+03 3.804914855957031250e+01 3.910250854492187500e+01 -1.854644971899688244e-03 -1.164737436920404434e-02 -4.050605930387973785e-03 2.842345740646123886e-03
1.293000000000000000e+03 3.785847473144531250e+01 3.096302223205566406e+01 -6.297467350959777832e-01 4.470091685652732849e-02 -1.755137443542480469e-01 -1.615413278341293335e-01
1.294000000000000000e+03 3.790063095092773438e+01 3.164649200439453125e+01 -6.189830303192138672e-01 3.815012797713279724e-02 -1.742498576641082764e-01 -1.075984016060829163e-01
1.295000000000000000e+03 3.867337036132812500e+01 3.218613815307617188e+01 -6.665686964988708496e-01 2.942284010350704193e-02 -1.911437511444091797e-01 -5.035535991191864014e-02
1.296000000000000000e+03 4.010067749023437500e+01 3.122724342346191406e+01 -8.195453286170959473e-01 4.463027417659759521e-02 -2.324745208024978638e-01 -1.126938909292221069e-01
1.297000000000000000e+03 3.793633651733398438e+01 3.232518386840820312e+01 -5.996711850166320801e-01 2.739102952182292938e-02 -1.716840416193008423e-01 -5.283628776669502258e-02
1.298000000000000000e+03 3.863583755493164062e+01 3.150947761535644531e+01 -6.822390556335449219e-01 4.050639271736145020e-02 -1.925197988748550415e-01 -1.089465171098709106e-01
1.299000000000000000e+03 3.496568679809570312e+01 3.221029281616210938e+01 -3.978245854377746582e-01 2.735758945345878601e-02 -1.111400946974754333e-01 -9.695813059806823730e-02
1.300000000000000000e+03 3.350795745849609375e+01 3.249099349975585938e+01 -3.068214058876037598e-01 2.095483057200908661e-02 -8.575997501611709595e-02 -8.779635280370712280e-02
1.301000000000000000e+03 3.423567962646484375e+01 3.235211181640625000e+01 -3.507143259048461914e-01 2.429685927927494049e-02 -9.792523831129074097e-02 -9.262992441654205322e-02
1.302000000000000000e+03 4.014572525024414062e+01 3.190344047546386719e+01 -8.112886548042297363e-01 3.196019306778907776e-02 -2.337985336780548096e-01 -4.569960385560989380e-02
1.303000000000000000e+03 4.083295822143554688e+01 3.107988357543945312e+01 -8.919973969459533691e-01 4.525820910930633545e-02 -2.540217638015747070e-01 -1.152365133166313171e-01
1.304000000000000000e+03 4.304607009887695312e+01 3.063400268554687500e+01 -1.129452109336853027e+00 4.443402588367462158e-02 -3.255054056644439697e-01 -1.224202066659927368e-01
1.305000000000000000e+03 6.813838958740234375e+01 2.840479660034179688e+01 -1.846082568168640137e+00 5.912899971008300781e-01 -3.764377832412719727e-01 9.286506772041320801e-01
1.306000000000000000e+03 6.708152008056640625e+01 2.820744895935058594e+01 -2.133231878280639648e+00 3.683726191520690918e-01 -5.294578075408935547e-01 5.654372572898864746e-01
1.307000000000000000e+03 6.767153167724609375e+01 2.791473007202148438e+01 -1.618635654449462891e+00 6.224456429481506348e-01 -2.988570034503936768e-01 9.204171299934387207e-01
1.308000000000000000e+03 6.866796112060546875e+01 2.863766098022460938e+01 -1.777271270751953125e+00 6.557402610778808594e-01 -3.364593088626861572e-01 1.083442211151123047e+00
1.309000000000000000e+03 1.245157337188720703e+01 2.398520708084106445e+00 5.631346994050545618e-06 4.816375167138176039e-06 3.134316557407146320e-06 -2.650815531524131075e-06
1.310000000000000000e+03 1.034314060211181641e+01 2.576542139053344727e+00 -7.785026355122681707e-06 -6.187970029714051634e-06 -4.191898824501549825e-06 -3.014935828105080873e-06
1.311000000000000000e+03 1.342011070251464844e+01 2.562225103378295898e+00 1.038303526001982391e-05 2.931171820819145069e-06 3.994261987827485427e-06 9.912799214362166822e-06
1.312000000000000000e+03 4.379256439208984375e+01 3.049174690246582031e+01 -1.214977264404296875e+00 4.447862505912780762e-02 -3.511495888233184814e-01 -1.246896386146545410e-01
1.313000000000000000e+03 4.607873535156250000e+01 3.078634071350097656e+01 -1.539907097816467285e+00 2.507220767438411713e-02 -4.544504880905151367e-01 -3.108336403965950012e-02
1.314000000000000000e+03 4.458588027954101562e+01 3.105001258850097656e+01 -1.336268663406372070e+00 2.731191366910934448e-02 -3.926870226860046387e-01 -3.322658315300941467e-02
1.315000000000000000e+03 4.230353927612304688e+01 3.078080177307128906e+01 -1.046789884567260742e+00 4.506457224488258362e-02 -3.005175888538360596e-01 -1.204360798001289368e-01
1.316000000000000000e+03 3.220841598510742188e+01 3.982295227050781250e+01 -1.339787035249173641e-03 1.787386368960142136e-03 1.342798059340566397e-04 -1.574025140143930912e-03
1.317000000000000000e+03 6.497305297851562500e+01 2.838707160949707031e+01 -2.970052719116210938e+00 6.520529836416244507e-02 -8.714541792869567871e-01 3.260977193713188171e-02
1.318000000000000000e+03 6.568920898437500000e+01 2.836795425415039062e+01 -2.817302227020263672e+00 9.058976173400878906e-02 -8.180137872695922852e-01 1.341010630130767822e-01
1.319000000000000000e+03 6.497302246093750000e+01 2.905691146850585938e+01 -3.673004865646362305e+00 -6.500859279185533524e-03 -1.103851675987243652e+00 -4.728825017809867859e-02
1.320000000000000000e+03 6.423796844482421875e+01 2.839956665039062500e+01 -3.057668447494506836e+00 3.397695347666740417e-02 -9.071074128150939941e-01 -5.144007876515388489e-02
1.321000000000000000e+03 4.679461288452148438e+01 2.995852851867675781e+01 -1.581984519958496094e+00 3.702027350664138794e-02 -4.634892940521240234e-01 -1.377842277288436890e-01
1.322000000000000000e+03 4.830754470825195312e+01 2.971150970458984375e+01 -1.775494694709777832e+00 2.810826152563095093e-02 -5.242159366607666016e-01 -1.455126255750656128e-01
1.323000000000000000e+03 4.528864669799804688e+01 3.021874046325683594e+01 -1.394008278846740723e+00 4.268370196223258972e-02 -4.053973555564880371e-01 -1.296988874673843384e-01
1.324000000000000000e+03 6.123604583740234375e+01 2.847076988220214844e+01 -3.147898912429809570e+00 -2.041012234985828400e-02 -9.504927396774291992e-01 -1.852663308382034302e-01
1.325000000000000000e+03 6.349284362792968750e+01 2.841292762756347656e+01 -3.119852304458618164e+00 1.050939969718456268e-02 -9.328028559684753418e-01 -1.002311110496520996e-01
1.326000000000000000e+03 6.346957397460937500e+01 2.908319282531738281e+01 -3.730766296386718750e+00 -1.938227191567420959e-02 -1.125044584274291992e+00 -1.149019896984100342e-01
1.327000000000000000e+03 6.275895309448242188e+01 2.774590492248535156e+01 -2.622474431991577148e+00 3.580765053629875183e-02 -7.760000824928283691e-01 -1.124945804476737976e-01
1.328000000000000000e+03 5.668258666992187500e+01 2.805380821228027344e+01 -2.530597925186157227e+00 -1.321227662265300751e-02 -7.631430625915527344e-01 -2.826751768589019775e-01
1.329000000000000000e+03 5.892687988281250000e+01 2.927546310424804688e+01 -3.411534309387207031e+00 -2.767381072044372559e-02 -1.031762480735778809e+00 -1.168983206152915955e-01
1.330000000000000000e+03 5.437498092651367188e+01 2.964344596862792969e+01 -2.788403034210205078e+00 -1.343810092657804489e-02 -8.405523300170898438e-01 -6.880343705415725708e-02
1.331000000000000000e+03 5.059768295288085938e+01 2.938944816589355469e+01 -2.077561140060424805e+00 1.629938371479511261e-02 -6.183785200119018555e-01 -1.564642339944839478e-01
1.332000000000000000e+03 5.210654067993164062e+01 2.989932823181152344e+01 -2.442295551300048828e+00 1.322699827142059803e-03 -7.322918772697448730e-01 -4.749549552798271179e-02
1.333000000000000000e+03 4.983466339111328125e+01 2.948945999145507812e+01 -1.976199030876159668e+00 2.057427726686000824e-02 -5.866874456405639648e-01 -1.522680819034576416e-01
1.334000000000000000e+03 4.907026290893554688e+01 2.959665679931640625e+01 -1.875810861587524414e+00 2.354200743138790131e-02 -5.556806921958923340e-01 -1.485061943531036377e-01
1.335000000000000000e+03 5.515354537963867188e+01 2.888150978088378906e+01 -2.657062768936157227e+00 -1.233430951833724976e-02 -8.008190989494323730e-01 -1.893050223588943481e-01
1.336000000000000000e+03 5.592203903198242188e+01 2.811900138854980469e+01 -2.472890615463256836e+00 -1.101930532604455948e-02 -7.451729774475097656e-01 -2.835521697998046875e-01
1.337000000000000000e+03 5.591556930541992188e+01 2.881224060058593750e+01 -2.743065118789672852e+00 -1.483243610709905624e-02 -8.273692131042480469e-01 -1.942566782236099243e-01
1.338000000000000000e+03 5.667546463012695312e+01 2.874766731262207031e+01 -2.824045896530151367e+00 -2.005482651293277740e-02 -8.532302379608154297e-01 -1.990250498056411743e-01
1.339000000000000000e+03 2.942227172851562500e+01 3.894813919067382812e+01 4.318102146498858929e-04 1.484110835008323193e-04 1.740663865348324180e-04 -1.371316029690206051e-03
1.340000000000000000e+03 2.738515853881835938e+01 3.870008087158203125e+01 -2.431887696729972959e-04 1.723613386275246739e-04 -2.124822822224814445e-05 -2.696043520700186491e-04
1.341000000000000000e+03 3.062145042419433594e+01 3.756459426879882812e+01 9.012915543280541897e-04 1.065700198523700237e-03 5.900975083932280540e-04 -1.068646437488496304e-03
1.342000000000000000e+03 8.088012695312500000e+00 -1.864701628684997559e+00 4.460382042452692986e-04 6.911739183124154806e-05 1.545466802781447768e-04 2.239912646473385394e-05
1.343000000000000000e+03 9.623575210571289062e+00 -2.597578287124633789e+00 -5.038317758589982986e-04 -1.729775976855307817e-04 -2.030428149737417698e-04 1.013825167319737375e-04
1.344000000000000000e+03 7.384002208709716797e+00 -2.610048055648803711e+00 6.233016029000282288e-04 5.012996189179830253e-05 2.020294632529839873e-04 9.372910426463931799e-05
1.345000000000000000e+03 8.132358551025390625e+00 -2.604977369308471680e+00 -5.654622800648212433e-04 -1.142211331170983613e-04 -2.039050159510225058e-04 -4.510369399213232100e-05
1.346000000000000000e+03 8.878149986267089844e+00 -2.599675178527832031e+00 5.196638521738350391e-04 1.596823276486247778e-04 2.038038655882701278e-04 -2.092830618494190276e-05
1.347000000000000000e+03 6.565073490142822266e+00 -1.867593646049499512e+00 5.179467843845486641e-04 -6.359512190101668239e-05 1.363054907415062189e-04 5.644246630254201591e-05
1.348000000000000000e+03 6.633912563323974609e+00 -2.611632108688354492e+00 -6.913093966431915760e-04 4.626535155694000423e-05 -1.935132168000563979e-04 -1.100468289223499596e-04
1.349000000000000000e+03 5.152018070220947266e+00 -2.621965646743774414e+00 -7.600609678775072098e-04 2.836256753653287888e-04 -1.429305993951857090e-04 1.879826777440030128e-05
1.350000000000000000e+03 1.623904228210449219e+00 -8.119256019592285156e+00 -1.857941504567861557e-03 -1.209773618029430509e-04 -5.936756497249007225e-04 2.327739784959703684e-04
1.351000000000000000e+03 3.554512739181518555e+00 -4.167081356048583984e+00 1.096885534934699535e-03 3.616376488935202360e-04 4.375569697003811598e-04 -5.819930229336023331e-04
1.352000000000000000e+03 1.665400743484497070e+00 -6.793225288391113281e+00 1.762444502674043179e-03 1.247668405994772911e-04 5.661633913405239582e-04 -3.325536381453275681e-04
1.353000000000000000e+03 4.194837510585784912e-01 -2.198214292526245117e+00 1.076372107490897179e-03 1.028613405651412904e-04 3.537700104061514139e-04 9.541401959722861648e-05
1.354000000000000000e+03 5.536254048347473145e-01 -3.637025833129882812e+00 -1.230272115208208561e-03 1.701630244497209787e-04 -3.180327184963971376e-04 -2.736889655352570117e-05
1.355000000000000000e+03 6.092818379402160645e-01 -5.112039089202880859e+00 1.427449868060648441e-03 2.180963201681151986e-05 4.347778449300676584e-04 -1.394283608533442020e-04
1.356000000000000000e+03 2.841991424560546875e+01 3.901687240600585938e+01 1.427825918653979897e-04 1.372006721794605255e-03 4.544367839116603136e-04 -1.234575989656150341e-03
1.357000000000000000e+03 3.037293624877929688e+01 3.868861007690429688e+01 -4.985983468941412866e-05 1.069229678250849247e-03 3.058109432458877563e-04 -1.303309225477278233e-03
1.358000000000000000e+03 2.463846397399902344e+01 4.121715545654296875e+01 -1.200477243401110172e-03 6.913880934007465839e-04 -1.527267450001090765e-04 1.862436765804886818e-04
1.359000000000000000e+03 2.516434097290039062e+01 3.867060852050781250e+01 1.430569827789440751e-04 -2.295871126989368349e-05 3.602947981562465429e-05 -1.267558691324666142e-04
1.360000000000000000e+03 2.399644470214843750e+01 4.001327133178710938e+01 2.408833097433671355e-04 -3.058137081097811460e-04 -1.947912278410512954e-05 2.829482837114483118e-04
1.361000000000000000e+03 2.525418090820312500e+01 4.007333374023437500e+01 -2.095043164445087314e-04 8.362066582776606083e-04 1.880107010947540402e-04 -5.266277003102004528e-04
1.362000000000000000e+03 2.206567764282226562e+01 3.327827835083007812e+01 -3.477819729596376419e-03 -3.050975501537322998e-04 -1.134875230491161346e-03 2.905505709350109100e-03
1.363000000000000000e+03 2.553289794921875000e+01 3.268010711669921875e+01 -4.670485854148864746e-02 -2.165184728801250458e-02 -2.050701156258583069e-02 -3.341938182711601257e-02
1.364000000000000000e+03 2.060659790039062500e+01 3.400098419189453125e+01 -4.197728412691503763e-04 1.353491842746734619e-02 3.934543579816818237e-03 4.513777093961834908e-04
1.365000000000000000e+03 2.098966217041015625e+01 3.230802154541015625e+01 -1.148510258644819260e-03 1.439478062093257904e-02 3.973881248384714127e-03 -1.020194467855617404e-04
1.366000000000000000e+03 1.991480064392089844e+01 3.862905120849609375e+01 1.101974849007092416e-04 9.745307761477306485e-05 6.229517020983621478e-05 -1.955573679879307747e-04
1.367000000000000000e+03 2.222380447387695312e+01 -4.114867019653320312e+01 3.429870307445526123e-01 -1.879367470741271973e+00 -4.609141051769256592e-01 6.455027312040328979e-02
1.368000000000000000e+03 2.105362892150878906e+01 -3.844719696044921875e+01 -3.876803815364837646e-02 -2.113922595977783203e+00 -6.458072066307067871e-01 -8.727325499057769775e-02
1.369000000000000000e+03 1.200321769714355469e+01 -3.781441497802734375e+01 2.723100595176219940e-02 -3.116248361766338348e-02 -1.179443788714706898e-03 4.494212567806243896e-02
1.370000000000000000e+03 1.232252788543701172e+01 2.573138046264648438e+01 9.890514047583565116e-05 1.774113457031489816e-06 3.020377516804728657e-05 9.521477295493241400e-06
1.371000000000000000e+03 1.353284168243408203e+01 3.196226119995117188e+01 7.122035640350077301e-06 -2.857644722098484635e-05 -6.436323474190430716e-06 7.132991595426574349e-05
1.372000000000000000e+03 1.393255615234375000e+01 3.092687988281250000e+01 -1.132496036007069051e-04 4.151435177845996805e-07 -3.385033778613433242e-05 -2.293410398124251515e-05
1.373000000000000000e+03 1.374507522583007812e+01 2.699160766601562500e+01 1.183082058560103178e-04 -2.764722353276738431e-07 3.540952093317173421e-05 1.436013553757220507e-05
1.374000000000000000e+03 1.674582290649414062e+01 3.526544189453125000e+01 -1.686171453911811113e-04 -6.633214070461690426e-06 -5.257510929368436337e-05 3.427339834161102772e-05
1.375000000000000000e+03 1.692540550231933594e+01 3.762040710449218750e+01 -1.251065987162292004e-04 2.569710522948298603e-05 -2.982284968311432749e-05 -1.377447188133373857e-04
1.376000000000000000e+03 1.487265682220458984e+01 3.433645629882812500e+01 -1.532816531835123897e-04 1.173716009361669421e-05 -4.246334719937294722e-05 5.244122439762577415e-05
1.377000000000000000e+03 1.450716781616210938e+01 1.875318527221679688e+01 -7.250891940202564001e-05 4.036620850911276648e-07 -2.163157842005603015e-05 -6.670977654721355066e-07
1.378000000000000000e+03 1.331201076507568359e+01 1.874087715148925781e+01 6.853394006611779332e-05 -6.724831678184273187e-07 2.035843681369442493e-05 5.984404197079129517e-06
1.379000000000000000e+03 1.470709419250488281e+01 2.428937339782714844e+01 -1.067900229827500880e-04 -1.334318426415848080e-06 -3.243729952373541892e-05 -7.237376394186867401e-06
1.380000000000000000e+03 1.386671829223632812e+01 2.831239700317382812e+01 -1.235422241734340787e-04 -9.229937347754457733e-08 -3.709035809151828289e-05 -1.327053450950188562e-05
1.381000000000000000e+03 1.258023166656494141e+01 3.058756828308105469e+01 1.395889557898044586e-04 -1.691074794507585466e-05 3.680346344481222332e-05 -7.917430593806784600e-06
1.382000000000000000e+03 1.333989620208740234e+01 1.739159584045410156e+01 -6.209705315995961428e-05 -1.724093863231246360e-06 -1.914634412969462574e-05 -5.057103862782241777e-06
1.383000000000000000e+03 1.331575393676757812e+01 1.203982925415039062e+01 -4.222504867357201874e-05 6.217372856553993188e-07 -1.248099306394578889e-05 3.764347411561175250e-07
1.384000000000000000e+03 1.337577152252197266e+01 1.471526336669921875e+01 -5.082497227704152465e-05 -1.402380235049349722e-06 -1.566820537846069783e-05 -1.317841338277503382e-06
1.385000000000000000e+03 1.461975955963134766e+01 5.000127792358398438e+00 -1.961591988219879568e-05 -1.319771058660990093e-06 -6.280707111727679148e-06 3.299381205579265952e-06
1.386000000000000000e+03 1.181221485137939453e+01 2.497330665588378906e+00 -1.167774098576046526e-05 -1.203784449899103492e-06 -3.864457539748400450e-06 3.883013732774998061e-07
1.387000000000000000e+03 1.025744152069091797e+01 4.047139644622802734e+00 -7.217064649012172595e-06 -1.046162560669472441e-05 -5.303606940287863836e-06 -4.946547505824128166e-06
1.388000000000000000e+03 1.317193889617919922e+01 7.827821731567382812e+00 2.905614564951974899e-05 1.315089662057289388e-06 9.111370673053897917e-06 3.050289478778722696e-06
1.389000000000000000e+03 1.336215496063232422e+01 1.337860965728759766e+01 4.665684173232875764e-05 4.701582554389460711e-07 1.413809968653367832e-05 3.173872187289816793e-07
1.390000000000000000e+03 7.925487518310546875e+01 -2.790434265136718750e+01 -1.714990357868373394e-03 6.151491641998291016e+00 1.844933032989501953e+00 1.109984819777309895e-03
1.391000000000000000e+03 7.738047027587890625e+01 -3.781621932983398438e+01 -1.949408650398254395e-02 5.846472263336181641e+00 1.748093485832214355e+00 4.380544647574424744e-02
1.392000000000000000e+03 7.939125823974609375e+01 -3.479118728637695312e+01 -9.493781253695487976e-03 6.107985019683837891e+00 1.829547286033630371e+00 9.084047749638557434e-03
1.393000000000000000e+03 7.937181091308593750e+01 3.639836883544921875e+01 -1.736767590045928955e-01 1.019808292388916016e+01 3.007321834564208984e+00 5.353425145149230957e-01
1.394000000000000000e+03 7.931166839599609375e+01 -2.088799095153808594e+01 1.764498068951070309e-03 6.238405227661132812e+00 1.872050881385803223e+00 6.158401258289813995e-03
1.395000000000000000e+03 7.776512145996093750e+01 -2.798783683776855469e+01 3.841131459921598434e-03 5.937850475311279297e+00 1.782507538795471191e+00 1.186101138591766357e-02
1.396000000000000000e+03 7.778173828125000000e+01 -2.655229568481445312e+01 3.759477287530899048e-03 5.953462600708007812e+00 1.787166595458984375e+00 1.622022129595279694e-02
1.397000000000000000e+03 7.927587127685546875e+01 -3.070457267761230469e+01 -3.000575816258788109e-04 6.137308120727539062e+00 1.841102361679077148e+00 -1.241201418451964855e-03
1.398000000000000000e+03 7.817274475097656250e+01 -3.476787185668945312e+01 -6.745688617229461670e-03 5.959070682525634766e+00 1.785697460174560547e+00 1.655321754515171051e-02
1.399000000000000000e+03 7.803627014160156250e+01 -3.351459503173828125e+01 -8.981266058981418610e-03 5.946777820587158203e+00 1.781339049339294434e+00 1.570475287735462189e-02
1.400000000000000000e+03 7.514579772949218750e+01 -3.717284393310546875e+01 -1.652544923126697540e-02 5.568013191223144531e+00 1.665446281433105469e+00 -2.355395630002021790e-02
1.401000000000000000e+03 7.640852355957031250e+01 -3.885649871826171875e+01 -9.690019302070140839e-03 5.801395416259765625e+00 1.737511634826660156e+00 1.590919494628906250e-02
1.402000000000000000e+03 7.824353790283203125e+01 1.407996940612792969e+01 6.800663191825151443e-03 9.054396629333496094e+00 2.718358993530273438e+00 3.759979605674743652e-01
1.403000000000000000e+03 7.942131042480468750e+01 1.537440967559814453e+01 7.147655705921351910e-04 9.881468772888183594e+00 2.964654922485351562e+00 1.125092953443527222e-01
1.404000000000000000e+03 7.841773223876953125e+01 2.097443199157714844e+01 -1.228841319680213928e-01 1.041973495483398438e+01 3.089055299758911133e+00 9.326431900262832642e-02
1.405000000000000000e+03 7.947061920166015625e+01 2.231534957885742188e+01 -3.973033279180526733e-02 1.101078128814697266e+01 3.291315317153930664e+00 -8.692041039466857910e-02
1.406000000000000000e+03 7.945681762695312500e+01 3.223402404785156250e+01 1.980644017457962036e-01 5.837330341339111328e+00 1.810618400573730469e+00 4.321563243865966797e-01
1.407000000000000000e+03 7.946958160400390625e+01 2.799063682556152344e+01 3.878628462553024292e-02 7.370649814605712891e+00 2.222831010818481445e+00 -6.392676234245300293e-01
1.408000000000000000e+03 7.831915283203125000e+01 2.522716140747070312e+01 -3.346865773200988770e-01 1.021600055694580078e+01 2.964394330978393555e+00 -9.698697328567504883e-01
1.409000000000000000e+03 7.841352081298828125e+01 2.373954582214355469e+01 -2.847354114055633545e-01 1.045281505584716797e+01 3.050424098968505859e+00 -4.434482753276824951e-01
1.410000000000000000e+03 7.826679229736328125e+01 1.547519874572753906e+01 -8.675105869770050049e-03 9.352299690246582031e+00 2.803087234497070312e+00 3.744308054447174072e-01
1.411000000000000000e+03 7.829566955566406250e+01 1.686077499389648438e+01 -1.570902392268180847e-02 9.656602859497070312e+00 2.892268180847167969e+00 3.586080670356750488e-01
1.412000000000000000e+03 7.700089263916015625e+01 1.139907360076904297e+01 4.136933758854866028e-02 8.062282562255859375e+00 2.431095600128173828e+00 5.517714023590087891e-01
1.413000000000000000e+03 7.819647216796875000e+01 8.520368576049804688e+00 2.123863436281681061e-02 8.020403861999511719e+00 2.412492752075195312e+00 2.926348745822906494e-01
1.414000000000000000e+03 7.940165710449218750e+01 9.803515434265136719e+00 7.955612614750862122e-03 8.613306045532226562e+00 2.586378574371337891e+00 9.571234136819839478e-02
1.415000000000000000e+03 7.931491088867187500e+01 -1.949103927612304688e+01 -5.904630525037646294e-04 6.263844490051269531e+00 1.878976225852966309e+00 7.405255455523729324e-03
1.416000000000000000e+03 7.933163452148437500e+01 -1.389363098144531250e+01 -4.294330210541374981e-05 6.402013778686523438e+00 1.920591354370117188e+00 1.348385680466890335e-02
1.417000000000000000e+03 7.934813690185546875e+01 -6.919808387756347656e+00 2.409559674561023712e-03 6.697434425354003906e+00 2.009953260421752930e+00 2.666376903653144836e-02
1.418000000000000000e+03 7.803582000732421875e+01 1.615767180919647217e-01 1.522132381796836853e-02 6.976480007171630859e+00 2.097510337829589844e+00 1.710997670888900757e-01
1.419000000000000000e+03 7.935720825195312500e+01 1.445542931556701660e+00 3.520878730341792107e-03 7.358775138854980469e+00 2.208688735961914062e+00 5.565874651074409485e-02
1.420000000000000000e+03 7.815886688232421875e+01 4.166278457641601562e+01 5.740225687623023987e-02 1.162171840667724609e+01 3.503736257553100586e+00 -1.599056273698806763e-02
1.421000000000000000e+03 7.795555877685546875e+01 3.939293670654296875e+01 -3.008645176887512207e-01 1.156980228424072266e+01 3.380681276321411133e+00 2.558080852031707764e-01
1.422000000000000000e+03 7.812168121337890625e+01 3.670668792724609375e+01 -4.268916845321655273e-01 1.081876468658447266e+01 3.117562055587768555e+00 1.145419120788574219e+00
1.423000000000000000e+03 7.713033294677734375e+01 3.535331726074218750e+01 -6.124939918518066406e-01 1.122180271148681641e+01 3.182792663574218750e+00 1.804401040077209473e+00
1.424000000000000000e+03 7.523188018798828125e+01 2.827537155151367188e+01 -3.641774952411651611e-01 1.447620677947998047e+01 4.233608722686767578e+00 -1.693001151084899902e+00
1.425000000000000000e+03 7.820075988769531250e+01 9.906068801879882812e+00 1.470042858272790909e-02 8.251721382141113281e+00 2.479926586151123047e+00 3.191655874252319336e-01
1.426000000000000000e+03 7.807258605957031250e+01 1.559481739997863770e+00 1.322379801422357559e-02 7.110941410064697266e+00 2.137249708175659180e+00 1.880523860454559326e-01
1.427000000000000000e+03 7.811559295654296875e+01 2.957052946090698242e+00 1.642848178744316101e-02 7.263277530670166016e+00 2.183911800384521484e+00 2.049643695354461670e-01
1.428000000000000000e+03 7.666278076171875000e+01 -1.118109703063964844e+00 3.664475306868553162e-02 6.598344326019287109e+00 1.990496635437011719e+00 2.571375370025634766e-01
1.429000000000000000e+03 7.933811950683593750e+01 -2.737587213516235352e+00 7.046642131172120571e-04 6.974296569824218750e+00 2.092500448226928711e+00 3.976465016603469849e-02
1.430000000000000000e+03 7.803245544433593750e+01 -5.438514709472656250e+00 1.034254673868417740e-02 6.572832107543945312e+00 1.974952459335327148e+00 1.111720725893974304e-01
1.431000000000000000e+03 7.934833526611328125e+01 -9.705230712890625000e+00 1.491261762566864491e-03 6.558485984802246094e+00 1.967993140220642090e+00 1.991348341107368469e-02
1.432000000000000000e+03 7.800834655761718750e+01 -1.240979003906250000e+01 5.190692842006683350e-03 6.258334636688232422e+00 1.879057645797729492e+00 6.126974523067474365e-02
1.433000000000000000e+03 7.932236480712890625e+01 -1.669027328491210938e+01 -7.866119849495589733e-04 6.325195312500000000e+00 1.897322654724121094e+00 9.909921325743198395e-03
1.434000000000000000e+03 7.792766571044921875e+01 -2.087002563476562500e+01 2.793367952108383179e-03 6.045771598815917969e+00 1.814569473266601562e+00 2.963881380856037140e-02
1.435000000000000000e+03 7.793874359130859375e+01 -1.946607398986816406e+01 3.959036432206630707e-03 6.072513103485107422e+00 1.822941660881042480e+00 3.391134366393089294e-02
1.436000000000000000e+03 2.207294273376464844e+01 1.445689916610717773e+00 9.586507454514503479e-03 -1.744293928146362305e+00 -5.204122066497802734e-01 -1.727019995450973511e-01
1.437000000000000000e+03 2.335328102111816406e+01 1.450137972831726074e+00 -4.790198523551225662e-03 -1.584444165229797363e+00 -4.767703115940093994e-01 -2.274321913719177246e-01
1.438000000000000000e+03 2.019339370727539062e+01 -1.394210338592529297e+01 -5.983109772205352783e-02 -2.610749959945678711e+00 -8.011743426322937012e-01 -1.577129960060119629e-01
1.439000000000000000e+03 1.985848426818847656e+01 -1.814576530456542969e+01 2.050510421395301819e-02 -2.299594402313232422e+00 -6.837267875671386719e-01 -1.496600359678268433e-01
1.440000000000000000e+03 1.098682689666748047e+01 -3.258373260498046875e+01 1.485796459019184113e-02 6.888083647936582565e-03 6.523814518004655838e-03 -1.443461049348115921e-02
1.441000000000000000e+03 2.038782691955566406e+01 -5.504650115966796875e+00 2.164087258279323578e-02 -2.046988964080810547e+00 -6.076044440269470215e-01 -1.055277958512306213e-01
1.442000000000000000e+03 2.199113273620605469e+01 6.388877332210540771e-02 2.069455198943614960e-02 -1.806423306465148926e+00 -5.357186198234558105e-01 -2.026441842317581177e-01
1.443000000000000000e+03 2.170484352111816406e+01 -8.258046150207519531e+00 -6.178042385727167130e-03 -2.077397108078002930e+00 -6.250725388526916504e-01 -1.548431962728500366e-01
1.444000000000000000e+03 2.132183265686035156e+01 -1.953751564025878906e+01 4.341391101479530334e-02 -2.225363254547119141e+00 -6.545847654342651367e-01 -1.406373232603073120e-01
1.445000000000000000e+03 2.175342178344726562e+01 -5.481945991516113281e+00 4.300247877836227417e-02 -1.980158329010009766e+00 -5.811467766761779785e-01 -1.561402529478073120e-01
1.446000000000000000e+03 2.292445945739746094e+01 -3.323073577880859375e+01 -1.431820094585418701e-01 -2.024128913879394531e+00 -6.501933336257934570e-01 -1.535231024026870728e-01
1.447000000000000000e+03 2.148855972290039062e+01 -1.534358406066894531e+01 -3.809677064418792725e-02 -2.237397909164428711e+00 -6.826484203338623047e-01 -1.143156886100769043e-01
1.448000000000000000e+03 2.155676651000976562e+01 -1.392782020568847656e+01 -6.337008625268936157e-02 -2.204083442687988281e+00 -6.802360415458679199e-01 -1.497857868671417236e-01
1.449000000000000000e+03 2.180092239379882812e+01 -4.098839759826660156e+00 1.720827445387840271e-02 -1.936800956726074219e+00 -5.758777856826782227e-01 -1.399816423654556274e-01
1.450000000000000000e+03 2.230669021606445312e+01 7.099495887756347656e+00 -1.387199945747852325e-02 -1.436324000358581543e+00 -4.350588023662567139e-01 -1.781862676143646240e-01
1.451000000000000000e+03 2.449447250366210938e+01 -2.225963592529296875e+01 4.241915419697761536e-02 -1.810174822807312012e+00 -5.303266644477844238e-01 -1.172165274620056152e-01
1.452000000000000000e+03 1.167304611206054688e+01 -2.837398147583007812e+01 -7.365597877651453018e-03 -3.582214238122105598e-03 -3.284343751147389412e-03 1.661890069954097271e-03
1.453000000000000000e+03 2.215884399414062500e+01 2.844532966613769531e+00 -3.691488876938819885e-02 -1.677579760551452637e+00 -5.143483877182006836e-01 -1.730829775333404541e-01
1.454000000000000000e+03 1.452060127258300781e+01 -2.486870384216308594e+01 1.177117135375738144e-02 -7.926549878902733326e-04 3.293554764240980148e-03 -3.633308224380016327e-04
1.455000000000000000e+03 1.220893096923828125e+01 -2.549231719970703125e+01 5.817147903144359589e-03 1.203565159812569618e-03 2.106213942170143127e-03 4.839734756387770176e-04
1.456000000000000000e+03 2.128100967407226562e+01 -2.661491012573242188e+01 9.286454878747463226e-04 -2.305661439895629883e+00 -6.914198398590087891e-01 -7.964251190423965454e-02
1.457000000000000000e+03 2.099812889099121094e+01 2.678401565551757812e+01 -2.098636934533715248e-03 -7.795859128236770630e-02 -2.401716820895671844e-02 -1.983087323606014252e-02
1.458000000000000000e+03 2.549165153503417969e+01 3.351709365844726562e+01 -3.269794210791587830e-02 -1.406534481793642044e-02 -1.402898598462343216e-02 -1.929165981709957123e-02
1.459000000000000000e+03 2.106527900695800781e+01 1.133229923248291016e+01 -9.949237573891878128e-04 -1.168502688407897949e+00 -3.508492708206176758e-01 -5.342978984117507935e-02
1.460000000000000000e+03 2.098520469665527344e+01 3.097000122070312500e+01 -2.093591960147023201e-03 9.455869905650615692e-03 2.208683406934142113e-03 -4.163370933383703232e-03
1.461000000000000000e+03 1.483033847808837891e+01 -2.150390863418579102e+00 3.464875917416065931e-04 2.435776113998144865e-04 1.770195522112771869e-04 -9.233562013832852244e-05
1.462000000000000000e+03 2.168428802490234375e+01 -9.667100906372070312e+00 -2.614188939332962036e-02 -2.114905834197998047e+00 -6.423143148422241211e-01 -1.323007196187973022e-01
1.463000000000000000e+03 2.172353744506835938e+01 -6.864511013031005859e+00 2.663628384470939636e-02 -2.018162250518798828e+00 -5.974578261375427246e-01 -1.564764827489852905e-01
1.464000000000000000e+03 2.232386398315429688e+01 9.929306983947753906e+00 -3.481361549347639084e-03 -1.202975392341613770e+00 -3.619370162487030029e-01 -1.623022407293319702e-01
1.465000000000000000e+03 2.349870872497558594e+01 1.701342010498046875e+01 -1.024324446916580200e-02 -6.342832446098327637e-01 -1.933579444885253906e-01 -2.253652364015579224e-01
1.466000000000000000e+03 2.102484512329101562e+01 2.257999038696289062e+01 -2.258448861539363861e-03 -2.832071781158447266e-01 -8.563968539237976074e-02 -3.514904156327247620e-02
1.467000000000000000e+03 2.324946784973144531e+01 2.532831764221191406e+01 -2.403948456048965454e-02 -1.870179176330566406e-01 -6.331721693277359009e-02 -1.192201077938079834e-01
1.468000000000000000e+03 2.104194450378417969e+01 1.977265930175781250e+01 -1.675352919846773148e-03 -4.713448882102966309e-01 -1.419060826301574707e-01 -4.298396036028862000e-02
1.469000000000000000e+03 2.225066375732421875e+01 1.978466796875000000e+01 -5.630916915833950043e-03 -4.719923436641693115e-01 -1.432869881391525269e-01 -1.262995451688766479e-01
1.470000000000000000e+03 2.344381713867187500e+01 1.981045150756835938e+01 -1.579229719936847687e-02 -4.628982245922088623e-01 -1.436071544885635376e-01 -1.998068243265151978e-01
1.471000000000000000e+03 2.228222846984863281e+01 1.697981643676757812e+01 -3.214317141100764275e-03 -6.644003391265869141e-01 -2.002843916416168213e-01 -1.424249708652496338e-01
1.472000000000000000e+03 2.226779365539550781e+01 1.838341522216796875e+01 -5.327610298991203308e-03 -5.657551884651184082e-01 -1.713248342275619507e-01 -1.352282762527465820e-01
1.473000000000000000e+03 2.211615180969238281e+01 2.813343620300292969e+01 -1.066483370959758759e-02 -7.176294922828674316e-02 -2.472833357751369476e-02 -4.363551735877990723e-02
1.474000000000000000e+03 2.329925918579101562e+01 2.396275520324707031e+01 -2.192586474120616913e-02 -2.455416768789291382e-01 -8.024026453495025635e-02 -1.418818384408950806e-01
1.475000000000000000e+03 2.230847358703613281e+01 1.416210269927978516e+01 -1.237580552697181702e-03 -8.730661869049072266e-01 -2.622911334037780762e-01 -1.527038365602493286e-01
1.476000000000000000e+03 1.317915058135986328e+01 -1.464662742614746094e+01 3.145402995869517326e-03 3.080913156736642122e-04 1.036048284731805325e-03 -8.317509200423955917e-04
1.477000000000000000e+03 1.357191276550292969e+01 -7.915483474731445312e+00 -1.722896588034927845e-03 -1.638823741814121604e-04 -5.660337046720087528e-04 4.643886932171881199e-04
1.478000000000000000e+03 1.460125064849853516e+01 -7.925354480743408203e+00 1.881176722235977650e-03 6.101196413510479033e-05 5.826565902680158615e-04 -1.729461946524679661e-04
1.479000000000000000e+03 1.183055019378662109e+01 -3.374438524246215820e+00 -1.095191575586795807e-03 -1.386765575261961203e-06 -3.289734886493533850e-04 3.974772989749908447e-04
1.480000000000000000e+03 1.345431041717529297e+01 -1.193363475799560547e+01 2.581129781901836395e-03 1.829827378969639540e-04 8.292337879538536072e-04 -7.674141670577228069e-04
1.481000000000000000e+03 1.455697822570800781e+01 -1.208485698699951172e+01 -2.960537094622850418e-03 -6.180036871228367090e-05 -9.067011997103691101e-04 4.352396063040941954e-04
1.482000000000000000e+03 1.362146759033203125e+01 -5.279448986053466797e+00 -1.312281703576445580e-03 -1.301590382354333997e-04 -4.327321948949247599e-04 2.185267076129093766e-04
1.483000000000000000e+03 1.461657905578613281e+01 -5.178541660308837891e+00 1.234825933352112770e-03 5.875316492165438831e-05 3.880737349390983582e-04 1.121007608162472025e-05
1.484000000000000000e+03 1.447041225433349609e+01 -1.487001895904541016e+01 -3.513171803206205368e-03 -1.775660639395937324e-04 -1.107221352867782116e-03 5.950984777882695198e-04
1.485000000000000000e+03 1.431687641143798828e+01 -1.908248519897460938e+01 4.580250009894371033e-03 -3.676128981169313192e-04 1.263791113160550594e-03 -5.667979130521416664e-04
1.486000000000000000e+03 1.355214023590087891e+01 -2.626863288879394531e+01 9.239009581506252289e-03 -2.355820324737578630e-04 2.701028250157833099e-03 -2.503424650058150291e-03
1.487000000000000000e+03 2.212139701843261719e+01 2.952977561950683594e+01 -9.735492058098316193e-03 -4.027605801820755005e-02 -1.500346511602401733e-02 -2.822183072566986084e-02
1.488000000000000000e+03 2.321236991882324219e+01 2.804869079589843750e+01 -2.586271613836288452e-02 -9.609213471412658691e-02 -3.658645600080490112e-02 -7.464270293712615967e-02
1.489000000000000000e+03 1.397424697875976562e+00 -3.994449996948242188e+01 -1.749237650074064732e-03 1.904025673866271973e-02 5.187306087464094162e-03 2.564860740676522255e-03
1.490000000000000000e+03 7.046242356300354004e-01 3.738785934448242188e+01 -8.143803279381245375e-05 3.776916855713352561e-06 -2.329833296244032681e-05 2.414811933704186231e-05
1.491000000000000000e+03 6.713560223579406738e-01 3.322445678710937500e+01 2.766685247479472309e-05 5.394531399360857904e-06 9.918415344145614654e-06 -4.487049409362953156e-06
1.492000000000000000e+03 2.341186761856079102e+00 3.808480072021484375e+01 -6.325379945337772369e-05 -2.032082556979730725e-05 -2.507238787075038999e-05 3.184133311151526868e-05
1.493000000000000000e+03 6.337663531303405762e-01 2.614455413818359375e+01 -4.363206244306638837e-05 -7.851358674315633834e-08 -1.311317282670643181e-05 1.766285436133330222e-06
1.494000000000000000e+03 1.946438550949096680e+00 2.878125762939453125e+01 4.812677798327058554e-05 3.325475574911251897e-07 1.453779714211123064e-05 7.412492777802981436e-06
1.495000000000000000e+03 5.788511037826538086e-01 -3.613587188720703125e+01 9.161517024040222168e-03 7.637908216565847397e-03 5.039827432483434677e-03 2.382457721978425980e-03
1.496000000000000000e+03 2.467033386230468750e+00 -3.329949569702148438e+01 -3.739398671314120293e-03 8.377073099836707115e-04 -8.705074433237314224e-04 3.833567956462502480e-03
1.497000000000000000e+03 3.182461261749267578e+00 2.718099594116210938e+01 6.351032061502337456e-05 -1.542764721307321452e-06 1.859026633610483259e-05 1.327537029283121228e-05
1.498000000000000000e+03 3.120401620864868164e+00 2.438207626342773438e+01 6.532848783535882831e-05 -6.261528596951393411e-06 1.772008727130014449e-05 7.796448699082247913e-06
1.499000000000000000e+03 2.026215076446533203e+00 3.306803131103515625e+01 -3.646394543466158211e-05 -9.946143109118565917e-06 -1.392302601743722335e-05 -1.297522317145194393e-06
1.500000000000000000e+03 3.257836341857910156e+00 3.908155059814453125e+01 4.631831689039245248e-05 1.960365625564008951e-05 1.977659121621400118e-05 -4.174035711912438273e-05
1.501000000000000000e+03 1.814493894577026367e+00 -2.884476852416992188e+01 5.391683895140886307e-03 -6.150365225039422512e-04 1.432994147762656212e-03 4.598415398504585028e-04
1.502000000000000000e+03 1.741129755973815918e+00 -2.615353965759277344e+01 4.526899661868810654e-03 -6.022265297360718250e-04 1.177401980385184288e-03 1.545330596854910254e-04
1.503000000000000000e+03 1.881577610969543457e+00 -1.640971374511718750e+01 -2.669977257028222084e-03 -2.382521051913499832e-04 -8.724688086658716202e-04 1.503651001257821918e-04
1.504000000000000000e+03 6.167387366294860840e-01 1.908520889282226562e+01 5.005071579944342375e-05 7.696320381000987254e-07 1.524610433989437297e-05 -6.179262982186628506e-06
1.505000000000000000e+03 5.813646912574768066e-01 1.343586826324462891e+01 4.335321136750280857e-05 8.361944878743088339e-07 1.325682205788325518e-05 -5.392825187300331891e-06
1.506000000000000000e+03 5.454528927803039551e-01 7.801215171813964844e+00 3.243260289309546351e-05 1.282404241464973893e-06 1.011450149235315621e-05 -5.006760602555004880e-06
1.507000000000000000e+03 1.631630301475524902e+00 -9.461051940917968750e+00 1.996517879888415337e-03 1.364649651804938912e-04 6.398948607966303825e-04 -2.117624244419857860e-04
1.508000000000000000e+03 3.700216531753540039e+00 -3.867252349853515625e+01 1.300416304729878902e-03 1.088034454733133316e-02 3.654228057712316513e-03 1.016553211957216263e-02
1.509000000000000000e+03 2.197367906570434570e+00 -3.168192481994628906e+01 7.162222638726234436e-03 7.488310220651328564e-04 2.373316092416644096e-03 2.121242694556713104e-03
1.510000000000000000e+03 1.740150332450866699e+00 -2.749263000488281250e+01 -4.576386418193578720e-03 -5.748861003667116165e-04 -1.545381732285022736e-03 -3.196727484464645386e-04
1.511000000000000000e+03 2.913810968399047852e+00 -2.612111091613769531e+01 -4.488284233957529068e-03 -8.912942575989291072e-05 -1.373224076814949512e-03 -5.771764554083347321e-04
1.512000000000000000e+03 1.876247167587280273e+00 -2.204071426391601562e+01 -3.367464989423751831e-03 -5.995167884975671768e-04 -1.190094510093331337e-03 -2.632404793985188007e-04
1.513000000000000000e+03 1.787267804145812988e+00 -2.481049728393554688e+01 -4.033729434013366699e-03 -7.953789317980408669e-04 -1.448732567951083183e-03 -6.480889860540628433e-04
1.514000000000000000e+03 3.158884763717651367e+00 -1.924941444396972656e+01 3.305460559204220772e-03 1.218509205500595272e-04 1.028193393722176552e-03 -2.923952997662127018e-04
1.515000000000000000e+03 6.279814243316650391e-01 -1.918858337402343750e+01 2.622741274535655975e-03 -1.844933722168207169e-04 7.314743706956505775e-04 -1.470203715143725276e-04
1.516000000000000000e+03 1.889638781547546387e+00 -1.921992301940917969e+01 -3.028220264241099358e-03 -2.945791638921946287e-04 -9.968398371711373329e-04 1.334309308731462806e-05
1.517000000000000000e+03 1.730301499366760254e+00 -1.220871067047119141e+01 2.244736766442656517e-03 6.415655661839991808e-05 6.926679634489119053e-04 -2.253232960356399417e-04
1.518000000000000000e+03 5.754693746566772461e-01 -1.214274597167968750e+01 -2.341943792998790741e-03 -4.438337055034935474e-05 -7.158981752581894398e-04 2.067757741315290332e-04
1.519000000000000000e+03 5.243605613708496094e+00 -3.351105213165283203e+00 1.126953633502125740e-03 -3.078287700191140175e-04 2.457374648656696081e-04 8.357445767614990473e-05
1.520000000000000000e+03 2.935962438583374023e+00 -2.896452665328979492e+00 8.365044486708939075e-04 -2.152623928850516677e-04 1.863726211013272405e-04 -4.163514531683176756e-04
1.521000000000000000e+03 1.515958786010742188e+00 -3.418957233428955078e+00 1.890649291453883052e-04 -3.523334453348070383e-04 -4.898054976365529001e-05 1.221683196490630507e-04
1.522000000000000000e+03 4.712619185447692871e-01 5.025160789489746094e+00 3.166884562233462930e-05 2.853078740372438915e-06 1.035657714965054765e-05 1.982976982617401518e-06
1.523000000000000000e+03 1.680781960487365723e+00 1.046036624908447266e+01 -3.882018791045993567e-05 -3.214090043002215680e-07 -1.174247972812736407e-05 5.992352271277923137e-06
1.524000000000000000e+03 5.596969127655029297e-01 1.061416625976562500e+01 3.966941221733577549e-05 8.795304324848984834e-07 1.216468353959498927e-05 -5.506110028363764286e-06
1.525000000000000000e+03 1.746479988098144531e+00 1.326909637451171875e+01 -4.235867163515649736e-05 -1.118367208619019948e-06 -1.304311081185005605e-05 4.698807970271445811e-06
1.526000000000000000e+03 1.871653676033020020e+00 2.033848953247070312e+01 5.333415538189001381e-05 -6.506778618131647818e-07 1.580504249432124197e-05 -3.283614432803005911e-06
1.527000000000000000e+03 1.846823811531066895e+00 1.891329383850097656e+01 -5.101323768030852079e-05 -2.140590851240631309e-07 -1.536819036118686199e-05 4.786658337252447382e-06
1.528000000000000000e+03 1.886173605918884277e+00 2.454210853576660156e+01 -5.530342241399921477e-05 1.980258048206451349e-06 -1.599694951437413692e-05 -2.999469188580405898e-06
1.529000000000000000e+03 7.343789672851562500e+01 3.266254806518554688e+01 -7.605119943618774414e-01 1.937589836120605469e+01 5.584616184234619141e+00 -1.467255234718322754e+00
1.530000000000000000e+03 6.865518951416015625e+01 3.321505737304687500e+01 -3.170062899589538574e-01 7.395515441894531250e-01 1.267635822296142578e-01 -5.546355843544006348e-01
1.531000000000000000e+03 7.037283325195312500e+01 3.257688903808593750e+01 4.127365946769714355e-01 1.500188469886779785e+00 5.738775134086608887e-01 -1.847589731216430664e+00
1.532000000000000000e+03 6.922814178466796875e+01 3.322752761840820312e+01 -1.811343431472778320e-02 1.123286724090576172e+00 3.315519690513610840e-01 -1.003524661064147949e+00
1.533000000000000000e+03 7.177872467041015625e+01 2.918574714660644531e+01 8.643547296524047852e-01 6.881527423858642578e+00 2.323764562606811523e+00 5.900816917419433594e+00
1.534000000000000000e+03 7.238142395019531250e+01 2.922222900390625000e+01 7.612782716751098633e-02 1.250049972534179688e+01 3.772988319396972656e+00 6.705728530883789062e+00
1.535000000000000000e+03 7.033659362792968750e+01 2.885400199890136719e+01 -4.620779752731323242e-01 2.131231069564819336e+00 5.007458925247192383e-01 2.677303075790405273e+00
1.536000000000000000e+03 6.991322326660156250e+01 2.883908081054687500e+01 -9.938776493072509766e-01 1.193938851356506348e+00 6.001835688948631287e-02 2.049685716629028320e+00
1.537000000000000000e+03 7.277987670898437500e+01 2.888389587402343750e+01 -1.206993579864501953e+00 1.542451190948486328e+01 4.265255451202392578e+00 5.049016952514648438e+00
1.538000000000000000e+03 7.310233306884765625e+01 3.258328247070312500e+01 -8.209877610206604004e-01 1.875301170349121094e+01 5.379607200622558594e+00 -3.718740463256835938e+00
1.539000000000000000e+03 7.343111419677734375e+01 2.930337524414062500e+01 -8.599154353141784668e-01 2.056785583496093750e+01 5.912382125854492188e+00 1.520886540412902832e+00
1.540000000000000000e+03 7.300882720947265625e+01 2.918659019470214844e+01 -1.292717456817626953e+00 1.843700218200683594e+01 5.143285751342773438e+00 4.319133758544921875e+00
1.541000000000000000e+03 7.450807952880859375e+01 3.194164466857910156e+01 4.208403110504150391e+00 1.759492683410644531e+01 6.540998935699462891e+00 2.787696123123168945e+00
1.542000000000000000e+03 7.424693298339843750e+01 3.179517745971679688e+01 4.943187236785888672e+00 1.904481315612792969e+01 7.196399688720703125e+00 2.931233406066894531e+00
1.543000000000000000e+03 7.422106170654296875e+01 3.291104888916015625e+01 -1.534060090780258179e-01 1.775488090515136719e+01 5.280442237854003906e+00 1.040237665176391602e+00
1.544000000000000000e+03 7.524792480468750000e+01 2.964205741882324219e+01 3.067550897598266602e+00 1.475713634490966797e+01 5.347406387329101562e+00 -2.353958129882812500e+00
1.545000000000000000e+03 7.479237365722656250e+01 2.935716819763183594e+01 2.117092370986938477e+00 1.647335052490234375e+01 5.577132701873779297e+00 -2.376388788223266602e+00
1.546000000000000000e+03 6.986643981933593750e+01 3.264105224609375000e+01 -9.963902086019515991e-02 9.509251713752746582e-01 2.553858458995819092e-01 -1.221056342124938965e+00
1.547000000000000000e+03 7.013231658935546875e+01 3.315425872802734375e+01 6.120885014533996582e-01 2.079302072525024414e+00 8.074172139167785645e-01 -2.139782667160034180e+00
1.548000000000000000e+03 2.698033714294433594e+01 3.345796966552734375e+01 -5.816215649247169495e-02 -9.361278265714645386e-03 -2.025702968239784241e-02 -3.214189410209655762e-02
1.549000000000000000e+03 2.988416862487792969e+01 3.237287521362304688e+01 -1.598547250032424927e-01 -1.923485309816896915e-03 -4.853346571326255798e-02 -8.268645405769348145e-02
1.550000000000000000e+03 2.022964477539062500e+01 3.951850509643554688e+01 -1.173931232187896967e-04 1.094967883545905352e-04 -2.368901050431304611e-06 -2.168165810871869326e-04
1.551000000000000000e+03 2.108290100097656250e+01 3.918744277954101562e+01 3.120324981864541769e-04 1.386539806844666600e-04 1.352059480268508196e-04 -2.419286902295425534e-04
1.552000000000000000e+03 1.393981361389160156e+01 2.669887304306030273e+00 -1.684721792116761208e-05 6.406439297279575840e-06 -3.132233587166410871e-06 -1.588540271768579260e-06
1.553000000000000000e+03 3.817444086074829102e+00 2.756509304046630859e+00 1.186297868116525933e-05 5.878589036001358181e-06 5.322470315149985254e-06 -3.156750835842103697e-06
1.554000000000000000e+03 6.024190425872802734e+00 2.621330022811889648e+00 -8.387628440686967224e-06 -7.027451374597148970e-06 -4.624524081009440124e-06 3.070896582357818261e-06
1.555000000000000000e+03 6.016271114349365234e+00 3.377478122711181641e+00 1.049813090503448620e-05 6.879579359519993886e-06 5.213313215790549293e-06 -2.358548272241023369e-06
1.556000000000000000e+03 6.727882385253906250e+00 3.340490818023681641e+00 -1.158678787760436535e-05 -6.176345777930691838e-06 -5.328940005711046979e-06 2.572000312284217216e-06
1.557000000000000000e+03 8.831886291503906250e+00 3.285935640335083008e+00 7.323132649617036805e-06 9.232694537786301225e-06 4.966748292645206675e-06 -1.686658720245759469e-06
1.558000000000000000e+03 6.743522644042968750e+00 2.595532178878784180e+00 8.661629181005991995e-06 7.025770173640921712e-06 4.706219897343544289e-06 -2.797443812596611679e-06
1.559000000000000000e+03 7.430953979492187500e+00 3.314905643463134766e+00 1.105943101720185950e-05 6.765382295270683244e-06 5.347444130165968090e-06 -3.349860662638093345e-06
1.560000000000000000e+03 4.533570289611816406e+00 3.549648284912109375e+00 1.015337693388573825e-05 6.863247563160257414e-06 5.104987394588533789e-06 -5.072683052276261151e-06
1.561000000000000000e+03 4.552883625030517578e+00 2.718038558959960938e+00 -8.908844392863102257e-06 -6.616483005927875638e-06 -4.657598310586763546e-06 4.520087259152205661e-06
1.562000000000000000e+03 1.831327080726623535e+00 2.612986326217651367e+00 -9.787739145394880325e-06 -6.810420018155127764e-06 -4.979447567166062072e-06 -3.747739356185775250e-06
1.563000000000000000e+03 1.109007167816162109e+01 2.556129217147827148e+00 1.101872203435050324e-05 3.166554961353540421e-06 4.255583007761742920e-06 3.254000830565928482e-06
1.564000000000000000e+03 1.108751010894775391e+01 3.316260814666748047e+00 -1.204226191475754604e-05 -5.926566700509283692e-06 -5.390648766478989273e-06 -6.836716693214839324e-06
1.565000000000000000e+03 2.383601379394531250e+01 3.339367675781250000e+01 -1.540169678628444672e-02 -1.207737904042005539e-02 -8.243722841143608093e-03 -6.180100608617067337e-03
1.566000000000000000e+03 2.475273895263671875e+01 3.253363800048828125e+01 -3.385566174983978271e-02 -2.460652217268943787e-02 -1.753865368664264679e-02 -2.636208571493625641e-02
1.567000000000000000e+03 5.421733474731445312e+01 3.564693450927734375e+01 -8.475071936845779419e-02 -1.717652380466461182e-01 -7.695478945970535278e-02 2.745443284511566162e-01
1.568000000000000000e+03 4.965908432006835938e+01 3.546050643920898438e+01 -8.674564212560653687e-02 -7.909820228815078735e-02 -4.975315183401107788e-02 1.363898515701293945e-01
1.569000000000000000e+03 4.954346466064453125e+01 3.689833831787109375e+01 -4.678010940551757812e-03 -1.113258749246597290e-01 -3.480116650462150574e-02 1.527086049318313599e-01
1.570000000000000000e+03 3.060530281066894531e+01 3.227625274658203125e+01 -1.877530813217163086e-01 2.732285996899008751e-03 -5.550624057650566101e-02 -9.099508821964263916e-02
1.571000000000000000e+03 3.132324409484863281e+01 3.216998291015625000e+01 -2.186187952756881714e-01 7.337222341448068619e-03 -6.338447332382202148e-02 -9.934735298156738281e-02
1.572000000000000000e+03 5.761904144287109375e+01 3.567932510375976562e+01 -5.742691084742546082e-02 -1.878152340650558472e-01 -7.357264310121536255e-02 4.311798214912414551e-01
1.573000000000000000e+03 2.205277442932128906e+01 3.216738128662109375e+01 -7.679197937250137329e-03 -6.951531395316123962e-03 -4.389218986034393311e-03 -4.198485519737005234e-03
1.574000000000000000e+03 2.391886329650878906e+01 3.233121490478515625e+01 -2.324147149920463562e-02 -2.304746769368648529e-02 -1.388668175786733627e-02 -1.813879795372486115e-02
1.575000000000000000e+03 5.287427520751953125e+01 3.639434051513671875e+01 -4.663655906915664673e-02 -1.479351520538330078e-01 -5.837151408195495605e-02 2.263009101152420044e-01
1.576000000000000000e+03 6.289911651611328125e+01 3.385963439941406250e+01 -7.938619256019592285e-01 -2.132024988532066345e-02 -2.445546388626098633e-01 5.200275778770446777e-01
1.577000000000000000e+03 5.986543655395507812e+01 3.401686477661132812e+01 -6.045631766319274902e-01 -7.653255760669708252e-02 -2.043287158012390137e-01 4.910148680210113525e-01
1.578000000000000000e+03 6.340058898925781250e+01 3.596936798095703125e+01 1.466412097215652466e-01 1.205430105328559875e-01 8.015526831150054932e-02 3.946726024150848389e-01
1.579000000000000000e+03 6.136561965942382812e+01 3.499383926391601562e+01 -2.962004840373992920e-01 -7.193459570407867432e-02 -1.104405224323272705e-01 5.222269296646118164e-01
1.580000000000000000e+03 6.649275207519531250e+01 3.440713500976562500e+01 -1.272304952144622803e-01 3.837833106517791748e-01 7.696584612131118774e-02 2.057655714452266693e-03
1.581000000000000000e+03 4.438426971435546875e+01 3.595867538452148438e+01 -1.687513105571269989e-02 -2.766153402626514435e-02 -1.336099952459335327e-02 3.386183828115463257e-02
1.582000000000000000e+03 4.119818878173828125e+01 3.875923156738281250e+01 -1.758246566168963909e-03 -2.107342146337032318e-02 -6.849500816315412521e-03 1.540494896471500397e-02
1.583000000000000000e+03 2.843671798706054688e+01 3.253747558593750000e+01 -1.120954379439353943e-01 -1.018984150141477585e-02 -3.668558225035667419e-02 -6.536590307950973511e-02
1.584000000000000000e+03 2.771327972412109375e+01 3.260650253295898438e+01 -9.155732393264770508e-02 -1.355064101517200470e-02 -3.153239190578460693e-02 -5.603981763124465942e-02
1.585000000000000000e+03 5.674732971191406250e+01 3.436050415039062500e+01 -3.429351150989532471e-01 -1.357193738222122192e-01 -1.435963511466979980e-01 3.849677741527557373e-01
1.586000000000000000e+03 5.844111251831054688e+01 3.536653518676757812e+01 -1.780540794134140015e-01 -1.531030833721160889e-01 -9.934714436531066895e-02 5.166604518890380859e-01
1.587000000000000000e+03 5.503119277954101562e+01 3.643817901611328125e+01 1.388649363070726395e-02 -2.193834632635116577e-01 -6.164909154176712036e-02 3.239487409591674805e-01
1.588000000000000000e+03 5.244033813476562500e+01 3.552325820922851562e+01 -1.271601617336273193e-01 -1.212754771113395691e-01 -7.453069090843200684e-02 2.197561860084533691e-01
1.589000000000000000e+03 5.055086517333984375e+01 3.535197448730468750e+01 -1.000292524695396423e-01 -7.788561284542083740e-02 -5.337445810437202454e-02 1.549689322710037231e-01
1.590000000000000000e+03 5.350671768188476562e+01 3.496350097656250000e+01 -1.830495595932006836e-01 -1.227198541164398193e-01 -9.173082560300827026e-02 2.524656951427459717e-01
1.591000000000000000e+03 5.403815460205078125e+01 3.417485427856445312e+01 -2.716588079929351807e-01 -1.022513359785079956e-01 -1.121730431914329529e-01 2.520703375339508057e-01
1.592000000000000000e+03 5.995514297485351562e+01 3.491548156738281250e+01 -3.002311289310455322e-01 -9.689249843358993530e-02 -1.191370934247970581e-01 5.539983510971069336e-01
1.593000000000000000e+03 6.061317062377929688e+01 3.485506057739257812e+01 -3.485449850559234619e-01 -4.103708267211914062e-02 -1.168746203184127808e-01 5.141152739524841309e-01
1.594000000000000000e+03 6.306024932861328125e+01 3.487351989746093750e+01 -2.730325162410736084e-01 -1.095008663833141327e-02 -8.519477397203445435e-02 4.944114685058593750e-01
1.595000000000000000e+03 6.213674926757812500e+01 3.393962097167968750e+01 -7.341461181640625000e-01 -6.646645814180374146e-02 -2.401837706565856934e-01 5.258991718292236328e-01
1.596000000000000000e+03 4.803871154785156250e+01 3.525717926025390625e+01 -5.079642683267593384e-02 -6.187270954251289368e-02 -3.380073979496955872e-02 9.456530213356018066e-02
1.597000000000000000e+03 4.724747467041015625e+01 3.514464569091796875e+01 -4.888299852609634399e-02 -4.281658306717872620e-02 -2.750987373292446136e-02 6.793036311864852905e-02
1.598000000000000000e+03 6.382768249511718750e+01 3.463854980468750000e+01 -3.458573818206787109e-01 9.480446577072143555e-02 -7.531587779521942139e-02 4.735354483127593994e-01
1.599000000000000000e+03 6.509420776367187500e+01 3.353749465942382812e+01 -9.302954673767089844e-01 8.596029132604598999e-02 -2.533005475997924805e-01 4.039125740528106689e-01
1.600000000000000000e+03 3.276346969604492188e+01 3.192799568176269531e+01 -2.893447577953338623e-01 1.676063425838947296e-02 -8.177524060010910034e-02 -1.156152337789535522e-01
1.601000000000000000e+03 3.348508453369140625e+01 3.179650688171386719e+01 -3.291893303394317627e-01 2.134486101567745209e-02 -9.235334396362304688e-02 -1.235126256942749023e-01
1.602000000000000000e+03 4.592469787597656250e+01 3.772946929931640625e+01 -2.118217089446261525e-04 -6.292582303285598755e-02 -1.894129253923892975e-02 5.509480088949203491e-02
1.603000000000000000e+03 1.257191944122314453e+01 2.959624052047729492e+00 -9.655142093834001571e-06 4.222451480018207803e-06 -1.629807115932635497e-06 4.862368314206833020e-06
1.604000000000000000e+03 9.639920234680175781e+00 -3.351156711578369141e+00 5.933785578235983849e-04 2.253806742373853922e-04 2.456277725286781788e-04 -1.345144264632835984e-04
1.605000000000000000e+03 1.362746620178222656e+01 -4.039644718170166016e+00 1.242380822077393532e-03 5.507001696969382465e-05 3.892352688126266003e-04 -2.477122761774808168e-04
1.606000000000000000e+03 9.654747009277343750e+00 -4.120595932006835938e+00 -6.932210526429116726e-04 -2.476719382684677839e-04 -2.822678943630307913e-04 2.843695983756333590e-04
1.607000000000000000e+03 4.004544448852539062e+01 3.054724502563476562e+01 -8.177583217620849609e-01 5.335240811109542847e-02 -2.293217629194259644e-01 -1.768041551113128662e-01
1.608000000000000000e+03 1.245720767974853516e+01 -2.619948148727416992e+00 -6.119820172898471355e-04 -2.503496398276183754e-05 -1.911050931084901094e-04 -1.172335541923530400e-04
1.609000000000000000e+03 3.716482543945312500e+01 3.178441238403320312e+01 -5.584250688552856445e-01 3.524308651685714722e-02 -1.569545865058898926e-01 -1.059090942144393921e-01
1.610000000000000000e+03 3.932004547119140625e+01 3.069084167480468750e+01 -7.529128789901733398e-01 5.100788176059722900e-02 -2.105714976787567139e-01 -1.711755990982055664e-01
1.611000000000000000e+03 3.642939376831054688e+01 3.192490386962890625e+01 -5.017434954643249512e-01 3.280940279364585876e-02 -1.406802237033843994e-01 -1.037629395723342896e-01
1.612000000000000000e+03 3.859111404418945312e+01 3.082834434509277344e+01 -6.903124451637268066e-01 4.834430664777755737e-02 -1.925904303789138794e-01 -1.662416160106658936e-01
1.613000000000000000e+03 3.569675827026367188e+01 3.206732940673828125e+01 -4.481281042098999023e-01 3.009655512869358063e-02 -1.254094541072845459e-01 -1.006584912538528442e-01
1.614000000000000000e+03 3.780636596679687500e+01 3.027376365661621094e+01 -6.337781548500061035e-01 4.843608662486076355e-02 -1.756026148796081543e-01 -2.142461985349655151e-01
1.615000000000000000e+03 3.420732116699218750e+01 3.166045761108398438e+01 -3.719823658466339111e-01 2.571638114750385284e-02 -1.038797944784164429e-01 -1.310554742813110352e-01
1.616000000000000000e+03 3.493234634399414062e+01 3.152034759521484375e+01 -4.176709651947021484e-01 2.986504882574081421e-02 -1.163417696952819824e-01 -1.382958739995956421e-01
1.617000000000000000e+03 3.638965988159179688e+01 3.123777961730957031e+01 -5.177487730979919434e-01 3.756516799330711365e-02 -1.440550833940505981e-01 -1.511266827583312988e-01
1.618000000000000000e+03 4.150497436523437500e+01 3.024738883972167969e+01 -9.550145268440246582e-01 5.570678040385246277e-02 -2.697923183441162109e-01 -1.891157627105712891e-01
1.619000000000000000e+03 6.496271514892578125e+01 2.768239784240722656e+01 -2.291800498962402344e+00 1.784468442201614380e-01 -6.340060830116271973e-01 1.515417546033859253e-01
1.620000000000000000e+03 6.879109191894531250e+01 2.755391883850097656e+01 -7.476143836975097656e-01 1.615982651710510254e+00 2.605104744434356689e-01 1.859801292419433594e+00
1.621000000000000000e+03 7.133856964111328125e+01 2.883691787719726562e+01 4.606855213642120361e-01 5.063410282135009766e+00 1.657228708267211914e+00 4.764293670654296875e+00
1.622000000000000000e+03 4.373410034179687500e+01 2.979879760742187500e+01 -1.180629134178161621e+00 5.587221682071685791e-02 -3.374270796775817871e-01 -2.076217681169509888e-01
1.623000000000000000e+03 4.298392868041992188e+01 2.994460105895996094e+01 -1.102630138397216797e+00 5.640736594796180725e-02 -3.138668239116668701e-01 -2.016708254814147949e-01
1.624000000000000000e+03 4.448518753051757812e+01 2.965821266174316406e+01 -1.260398983955383301e+00 5.565605685114860535e-02 -3.614228665828704834e-01 -2.135087698698043823e-01
1.625000000000000000e+03 4.453993988037109375e+01 3.035365295410156250e+01 -1.303245544433593750e+00 4.342831298708915710e-02 -3.779451847076416016e-01 -1.270574331283569336e-01
1.626000000000000000e+03 4.604034805297851562e+01 3.008703422546386719e+01 -1.488121628761291504e+00 4.046387970447540283e-02 -4.342973232269287109e-01 -1.337292939424514771e-01
1.627000000000000000e+03 1.371706104278564453e+01 4.099833488464355469e+00 -2.097338438034057617e-05 -1.860155407484853640e-06 -6.850061708973953500e-06 -3.712458692461950704e-06
1.628000000000000000e+03 6.826853179931640625e+01 3.452269744873046875e+01 3.978149890899658203e-01 1.323783040046691895e+00 5.164794325828552246e-01 -7.538039088249206543e-01
1.629000000000000000e+03 6.629073333740234375e+01 2.764878845214843750e+01 -1.921460509300231934e+00 3.152161538600921631e-01 -4.818733036518096924e-01 4.770319163799285889e-01
1.630000000000000000e+03 6.565539550781250000e+01 2.765580177307128906e+01 -2.124357461929321289e+00 2.310376167297363281e-01 -5.679959654808044434e-01 3.047751784324645996e-01
1.631000000000000000e+03 6.639225006103515625e+01 2.832535362243652344e+01 -2.563021898269653320e+00 1.673291921615600586e-01 -7.187077999114990234e-01 2.663149833679199219e-01
1.632000000000000000e+03 4.754951858520507812e+01 2.983291244506835938e+01 -1.678863883018493652e+00 3.254287689924240112e-02 -4.938963055610656738e-01 -1.415549069643020630e-01
1.633000000000000000e+03 4.599385070800781250e+01 2.938884544372558594e+01 -1.424651741981506348e+00 5.163859575986862183e-02 -4.119039177894592285e-01 -2.261947244405746460e-01
1.634000000000000000e+03 6.199279022216796875e+01 2.844769859313964844e+01 -3.158120632171630859e+00 -1.236172765493392944e-02 -9.511446952819824219e-01 -1.650803238153457642e-01
1.635000000000000000e+03 6.350120544433593750e+01 2.772782135009765625e+01 -2.550257682800292969e+00 6.480454653501510620e-02 -7.456359267234802246e-01 -4.896468296647071838e-02
1.636000000000000000e+03 6.201287841796875000e+01 2.776326370239257812e+01 -2.666461229324340820e+00 1.699058525264263153e-02 -7.948411703109741211e-01 -1.640640944242477417e-01
1.637000000000000000e+03 6.125608444213867188e+01 2.778398323059082031e+01 -2.685288429260253906e+00 2.744291676208376884e-03 -8.047631978988647461e-01 -2.005455940961837769e-01
1.638000000000000000e+03 5.971688461303710938e+01 2.853939247131347656e+01 -3.079525470733642578e+00 -2.504614554345607758e-02 -9.313714504241943359e-01 -2.030305266380310059e-01
1.639000000000000000e+03 5.895478057861328125e+01 2.858333396911621094e+01 -3.028141498565673828e+00 -2.330030500888824463e-02 -9.154325127601623535e-01 -2.050542533397674561e-01
1.640000000000000000e+03 5.363025665283203125e+01 2.903683471679687500e+01 -2.472827911376953125e+00 -1.636220607906579971e-03 -7.423392534255981445e-01 -1.788874566555023193e-01
1.641000000000000000e+03 5.439065933227539062e+01 2.895638275146484375e+01 -2.565691471099853516e+00 -6.162490230053663254e-03 -7.715561985969543457e-01 -1.839247196912765503e-01
1.642000000000000000e+03 5.287248229980468750e+01 2.912066459655761719e+01 -2.377029895782470703e+00 4.455827642232179642e-03 -7.117722034454345703e-01 -1.722838729619979858e-01
1.643000000000000000e+03 5.135690307617187500e+01 2.929547691345214844e+01 -2.178493022918701172e+00 1.364077348262071609e-02 -6.494556665420532227e-01 -1.604207158088684082e-01
1.644000000000000000e+03 5.211497497558593750e+01 2.920638275146484375e+01 -2.279897689819335938e+00 8.954709395766258240e-03 -6.812829375267028809e-01 -1.669227927923202515e-01
1.645000000000000000e+03 4.982281112670898438e+01 2.878748893737792969e+01 -1.853262782096862793e+00 2.960010245442390442e-02 -5.470988154411315918e-01 -2.547238171100616455e-01
1.646000000000000000e+03 4.827910995483398438e+01 2.901121139526367188e+01 -1.679614782333374023e+00 3.908246010541915894e-02 -4.921596944332122803e-01 -2.445167750120162964e-01
1.647000000000000000e+03 5.590795516967773438e+01 2.742588043212890625e+01 -2.206954479217529297e+00 -1.665603485889732838e-03 -6.625860333442687988e-01 -3.523667752742767334e-01
1.648000000000000000e+03 5.515846252441406250e+01 2.819015312194824219e+01 -2.409081220626831055e+00 -5.445361137390136719e-03 -7.243580222129821777e-01 -2.824180126190185547e-01
1.649000000000000000e+03 5.437934494018554688e+01 2.757551193237304688e+01 -2.115287780761718750e+00 6.835290230810642242e-03 -6.325357556343078613e-01 -3.585421442985534668e-01
1.650000000000000000e+03 3.038024902343750000e+01 3.968534469604492188e+01 -1.273095607757568359e-03 5.721465568058192730e-04 -2.102847356582060456e-04 -5.606869235634803772e-04
1.651000000000000000e+03 4.523759841918945312e+01 2.952182579040527344e+01 -1.342297673225402832e+00 5.386096611618995667e-02 -3.865309953689575195e-01 -2.198132872581481934e-01
1.652000000000000000e+03 4.224003219604492188e+01 3.009489440917968750e+01 -1.027579665184020996e+00 5.603768676519393921e-02 -2.914625704288482666e-01 -1.954004019498825073e-01
1.653000000000000000e+03 6.693276405334472656e+00 -3.375764369964599609e+00 8.359996136277914047e-04 2.378045792283955961e-05 2.579340070951730013e-04 1.863542274804785848e-04
1.654000000000000000e+03 2.776241540908813477e+00 -7.086733818054199219e+00 -1.569829997606575489e-03 -2.917095553129911423e-04 -5.584618775174021721e-04 2.606196794658899307e-04
1.655000000000000000e+03 7.520811557769775391e+00 -4.958061695098876953e+00 -6.820125272497534752e-04 -5.298551404848694801e-04 -3.635603061411529779e-04 -1.841345656430348754e-04
1.656000000000000000e+03 5.888122558593750000e+00 -2.611494541168212891e+00 7.597673102281987667e-04 -1.677483669482171535e-04 1.776056888047605753e-04 8.126266038743779063e-05
1.657000000000000000e+03 5.251555919647216797e+00 -4.077259540557861328e+00 -1.434256206266582012e-03 1.622317940928041935e-04 -3.816073294728994370e-04 -1.600659888936206698e-04
1.658000000000000000e+03 2.242945194244384766e+00 -3.020106554031372070e+00 -2.843887195922434330e-04 4.393728449940681458e-04 4.649524271371774375e-05 2.085156302200630307e-04
1.659000000000000000e+03 1.803884506225585938e+00 -5.468389987945556641e+00 -1.505359541624784470e-03 -3.966930089518427849e-04 -5.706157535314559937e-04 5.034782225266098976e-04
1.660000000000000000e+03 8.909209251403808594e+00 -3.357980489730834961e+00 -6.027970812283456326e-04 -2.272509591421112418e-04 -2.490144106559455395e-04 3.459606887190602720e-05
1.661000000000000000e+03 5.973339462280273438e+01 2.784679031372070312e+01 -2.678632736206054688e+00 -1.123357564210891724e-02 -8.069599270820617676e-01 -2.499979287385940552e-01
1.662000000000000000e+03 6.049551010131835938e+01 2.781137275695800781e+01 -2.690082311630249023e+00 -5.776487756520509720e-03 -8.087576627731323242e-01 -2.305540442466735840e-01
1.663000000000000000e+03 5.744274139404296875e+01 2.799340248107910156e+01 -2.580778121948242188e+00 -1.642205193638801575e-02 -7.791600227355957031e-01 -2.805120050907135010e-01
1.664000000000000000e+03 2.679387855529785156e+01 4.031622695922851562e+01 -4.292324301786720753e-04 5.285999504849314690e-04 2.981026227644179016e-05 -3.414996899664402008e-04
1.665000000000000000e+03 2.808355903625488281e+01 3.995838928222656250e+01 -1.102000125683844090e-03 1.132949255406856537e-03 9.284737643611151725e-06 -3.595013695303350687e-04
1.666000000000000000e+03 2.296287536621093750e+01 3.331663513183593750e+01 -8.850156329572200775e-03 -8.355342783033847809e-03 -5.161649547517299652e-03 -1.217347686178982258e-03
1.667000000000000000e+03 2.215945243835449219e+01 4.180190658569335938e+01 2.640327438712120056e-04 3.122620910289697349e-05 8.857768989400938153e-05 3.872346132993698120e-04
1.668000000000000000e+03 1.883264923095703125e+01 3.772916030883789062e+01 -2.476002555340528488e-05 2.425564453005790710e-04 6.533892883453518152e-05 3.593079236452467740e-05
1.669000000000000000e+03 1.221203994750976562e+01 1.610033226013183594e+01 -4.857788735534995794e-05 -4.799208454642212018e-06 -1.601312942511867732e-05 -4.988143700757063925e-06
1.670000000000000000e+03 1.197619628906250000e+01 1.099024486541748047e+01 -3.260096855228766799e-05 -1.951126620269860723e-07 -9.838824553298763931e-06 2.339778575333184563e-06
1.671000000000000000e+03 1.251657772064208984e+01 2.699033355712890625e+01 -1.096316336770541966e-04 9.890649153021513484e-07 -3.259276854805648327e-05 -1.120772776630474254e-05
1.672000000000000000e+03 2.304371070861816406e+01 -1.102329444885253906e+01 -2.747228555381298065e-02 -1.949326157569885254e+00 -5.930395126342773438e-01 -1.794687211513519287e-01
1.673000000000000000e+03 3.680234527587890625e+01 3.836544036865234375e+01 -8.634781697764992714e-04 -7.222671993076801300e-03 -2.425845013931393623e-03 -2.160765230655670166e-03
1.674000000000000000e+03 3.500469589233398438e+01 4.053741455078125000e+01 -4.502453841269016266e-03 1.187889603897929192e-03 -9.943692712113261223e-04 2.363777166465297341e-04
1.675000000000000000e+03 2.328389739990234375e+01 7.195775210857391357e-02 1.320609473623335361e-03 -1.627740979194641113e+00 -4.879261255264282227e-01 -2.287564575672149658e-01
1.676000000000000000e+03 3.884104192256927490e-01 3.775045871734619141e+00 -3.280710734543390572e-05 -5.627314749290235341e-06 -1.153032735601300374e-05 -6.841746198915643618e-06
1.677000000000000000e+03 2.450975990295410156e+01 -6.682247638702392578e+00 2.420177496969699860e-02 -1.659627914428710938e+00 -4.906278550624847412e-01 -2.233994156122207642e-01
1.678000000000000000e+03 2.309829330444335938e+01 -6.800145149230957031e+00 2.782481163740158081e-02 -1.853741645812988281e+00 -5.477750301361083984e-01 -1.981942206621170044e-01
1.679000000000000000e+03 2.287399673461914062e+01 -1.810930442810058594e+01 4.200755059719085693e-02 -2.031606435775756836e+00 -5.968797206878662109e-01 -1.262526512145996094e-01
1.680000000000000000e+03 2.192304039001464844e+01 -1.317491531372070312e+00 -1.694986596703529358e-02 -1.816818594932556152e+00 -5.501305460929870605e-01 -2.064300179481506348e-01
1.681000000000000000e+03 2.322107696533203125e+01 -1.297022819519042969e+00 4.747088067233562469e-03 -1.675624012947082520e+00 -5.012630820274353027e-01 -2.202638387680053711e-01
1.682000000000000000e+03 1.250731372833251953e+01 3.156970214843750000e+01 -1.876531750895082951e-04 6.789228064008057117e-05 -3.592827124521136284e-05 8.297850399685557932e-06
1.683000000000000000e+03 1.433304500579833984e+01 3.300855636596679688e+01 1.187950329040177166e-04 1.445139059796929359e-05 3.997392559540458024e-05 -3.832027869066223502e-05
1.684000000000000000e+03 1.178345489501953125e+01 2.143899536132812500e+01 -7.200224354164674878e-05 -2.564446049291291274e-06 -2.237000626337248832e-05 -1.216876989929005504e-05
1.685000000000000000e+03 1.216833400726318359e+01 1.739987754821777344e+01 5.284670987748540938e-05 6.223639957170234993e-06 1.772110590536613017e-05 1.009450716082938015e-05
1.686000000000000000e+03 2.289909744262695312e+01 -1.670901870727539062e+01 1.070328988134860992e-02 -2.018479824066162109e+00 -6.023329496383666992e-01 -1.124458163976669312e-01
1.687000000000000000e+03 1.223739337921142578e+01 1.480594825744628906e+01 4.634363722288981080e-05 2.510328386051696725e-06 1.465618970541981980e-05 3.195585804860456847e-06
1.688000000000000000e+03 1.320215129852294922e+01 2.151875686645507812e+01 7.768164505250751972e-05 3.489856680971570313e-06 2.435144961054902524e-05 4.519614776654634625e-06
1.689000000000000000e+03 1.344782352447509766e+01 6.431319236755371094e+00 -2.500605478417128325e-05 3.360535316687673912e-08 -7.491734777431702241e-06 -4.073740456078667194e-06
1.690000000000000000e+03 1.013037681579589844e+01 4.775870323181152344e+00 8.227882062783464789e-06 8.833028005028609186e-06 5.118273293192032725e-06 3.532884420565096661e-06
1.691000000000000000e+03 1.221386241912841797e+01 1.352623558044433594e+01 -4.285846080165356398e-05 -1.227897541866695974e-06 -1.322590742347529158e-05 -1.790665805856406223e-06
1.692000000000000000e+03 1.363016700744628906e+01 5.177872657775878906e+00 2.070254231512080878e-05 1.046559987116779666e-06 6.524730906676268205e-06 3.716736273418064229e-06
1.693000000000000000e+03 8.800692558288574219e+00 3.999712228775024414e+00 -7.206318514363374561e-06 -1.087067266780650243e-05 -5.423097718448843807e-06 3.790060873143374920e-06
1.694000000000000000e+03 1.270468139648437500e+01 -3.147446441650390625e+01 1.492470502853393555e-02 5.457331892102956772e-03 6.114610936492681503e-03 -7.990534417331218719e-03
1.695000000000000000e+03 1.203972339630126953e+01 2.002052688598632812e+01 6.792397471144795418e-05 -2.508291572667076252e-06 1.962470378202851862e-05 1.700465145404450595e-05
1.696000000000000000e+03 7.732445526123046875e+01 -3.607387161254882812e+01 -6.106394808739423752e-03 5.841905593872070312e+00 1.750739693641662598e+00 2.243395522236824036e-02
1.697000000000000000e+03 7.503448486328125000e+01 -2.231824493408203125e+01 1.413832884281873703e-02 5.616989612579345703e+00 1.689338326454162598e+00 6.363083422183990479e-02
1.698000000000000000e+03 7.777622222900390625e+01 -2.942174339294433594e+01 5.127712502144277096e-04 5.930961132049560547e+00 1.779442191123962402e+00 8.335327729582786560e-03
1.699000000000000000e+03 7.342451477050781250e+01 -3.767332077026367188e+01 1.572173205204308033e-03 5.250203609466552734e+00 1.575532793998718262e+00 -5.530871916562318802e-03
1.700000000000000000e+03 7.837661743164062500e+01 1.960731124877929688e+01 -7.014537602663040161e-02 1.021072387695312500e+01 3.042173385620117188e+00 2.288075387477874756e-01
1.701000000000000000e+03 7.609379577636718750e+01 1.849131584167480469e+01 -1.635216176509857178e-01 8.861349105834960938e+00 2.609348058700561523e+00 7.280327081680297852e-01
1.702000000000000000e+03 7.696538543701171875e+01 3.755593109130859375e+01 -7.551987767219543457e-01 1.117990398406982422e+01 3.127411603927612305e+00 1.180213928222656250e+00
1.703000000000000000e+03 7.791331481933593750e+01 -2.226539421081542969e+01 3.568240441381931305e-03 6.022786617279052734e+00 1.807906508445739746e+00 2.484060823917388916e-02
1.704000000000000000e+03 7.645764160156250000e+01 -2.367505073547363281e+01 6.710887886583805084e-03 5.794961452484130859e+00 1.740501642227172852e+00 3.913214802742004395e-02
1.705000000000000000e+03 7.633206939697265625e+01 -3.106143569946289062e+01 -3.985493967775255442e-04 5.714506626129150391e+00 1.714232444763183594e+00 1.388840284198522568e-02
1.706000000000000000e+03 7.837380981445312500e+01 3.395160293579101562e+01 1.357034198008477688e-03 9.354814529418945312e+00 2.806851625442504883e+00 1.684589624404907227e+00
1.707000000000000000e+03 7.817462921142578125e+01 3.537012481689453125e+01 -3.554517924785614014e-01 1.033272838592529297e+01 2.993183135986328125e+00 1.520441770553588867e+00
1.708000000000000000e+03 7.630232238769531250e+01 -2.958214950561523438e+01 6.990723777562379837e-04 5.710629940032958984e+00 1.713398694992065430e+00 1.813371852040290833e-02
1.709000000000000000e+03 7.492663574218750000e+01 -2.514365577697753906e+01 1.350049488246440887e-02 5.546257019042968750e+00 1.667927265167236328e+00 5.409611389040946960e-02
1.710000000000000000e+03 7.627063751220703125e+01 -2.810189819335937500e+01 1.097696460783481598e-02 5.721093177795410156e+00 1.719621062278747559e+00 2.336273901164531708e-02
1.711000000000000000e+03 7.637179565429687500e+01 -2.513288497924804688e+01 5.471804179251194000e-03 5.766874313354492188e+00 1.731703758239746094e+00 3.595233336091041565e-02
1.712000000000000000e+03 7.669410705566406250e+01 -3.374862670898437500e+01 -1.829434186220169067e-02 5.760313034057617188e+00 1.722605586051940918e+00 9.726074524223804474e-03
1.713000000000000000e+03 7.485256195068359375e+01 -3.131403541564941406e+01 -2.280583605170249939e-03 5.489021778106689453e+00 1.646022319793701172e+00 1.726075448095798492e-02
1.714000000000000000e+03 7.743707275390625000e+01 2.367997932434082031e+01 -5.227141976356506348e-01 1.036035823822021484e+01 2.951293230056762695e+00 -4.358625113964080811e-01
1.715000000000000000e+03 7.704077148437500000e+01 1.278887081146240234e+01 3.661642968654632568e-02 8.297407150268554688e+00 2.500206947326660156e+00 5.775493383407592773e-01
1.716000000000000000e+03 7.822547149658203125e+01 1.268256378173828125e+01 9.452603757381439209e-03 8.764907836914062500e+00 2.632308244705200195e+00 3.657219707965850830e-01
1.717000000000000000e+03 7.464405059814453125e+01 1.309415721893310547e+01 1.028757616877555847e-01 7.305830001831054688e+00 2.222611665725708008e+00 9.261857271194458008e-01
1.718000000000000000e+03 7.727773284912109375e+01 2.504941368103027344e+01 -7.286287546157836914e-01 1.064051914215087891e+01 2.973567008972167969e+00 -9.479133486747741699e-01
1.719000000000000000e+03 7.834976196289062500e+01 2.675469589233398438e+01 -2.509577572345733643e-01 9.670321464538574219e+00 2.825809001922607422e+00 -1.393788933753967285e+00
1.720000000000000000e+03 7.708110809326171875e+01 1.419043445587158203e+01 1.279169972985982895e-02 8.547647476196289062e+00 2.568131923675537109e+00 6.014883518218994141e-01
1.721000000000000000e+03 7.650104522705078125e+01 -2.226834869384765625e+01 8.458429016172885895e-03 5.822089672088623047e+00 1.749164342880249023e+00 4.672558978199958801e-02
1.722000000000000000e+03 7.844361877441406250e+01 2.966527557373046875e+01 6.584371328353881836e-01 8.081030845642089844e+00 2.621840476989746094e+00 -9.207422733306884766e-01
1.723000000000000000e+03 7.837979888916015625e+01 3.114537811279296875e+01 8.597636818885803223e-01 8.022248268127441406e+00 2.664603710174560547e+00 2.446059435606002808e-01
1.724000000000000000e+03 7.819196319580078125e+01 7.131514549255371094e+00 1.353785581886768341e-02 7.809343814849853516e+00 2.346864461898803711e+00 2.673102021217346191e-01
1.725000000000000000e+03 7.518661499023437500e+01 -1.657946014404296875e+01 2.183496579527854919e-02 5.717266082763671875e+00 1.721730351448059082e+00 1.049177870154380798e-01
1.726000000000000000e+03 7.654177093505859375e+01 -1.946721649169921875e+01 8.261981420218944550e-03 5.870639801025390625e+00 1.763670444488525391e+00 5.696943402290344238e-02
1.727000000000000000e+03 7.546903991699218750e+01 -8.059740066528320312e+00 3.956258296966552734e-02 6.008312225341796875e+00 1.814362406730651855e+00 1.975511312484741211e-01
1.728000000000000000e+03 7.797201538085937500e+01 -1.522058296203613281e+01 3.980548121035099030e-03 6.170812129974365234e+00 1.852437734603881836e+00 4.820148274302482605e-02
1.729000000000000000e+03 7.525918579101562500e+01 -9.856582283973693848e-01 6.604348868131637573e-02 6.315848827362060547e+00 1.914567708969116211e+00 3.535925447940826416e-01
1.730000000000000000e+03 7.805185699462890625e+01 -8.218461990356445312e+00 8.790607564151287079e-03 6.430053710937500000e+00 1.931653261184692383e+00 8.606150746345520020e-02
1.731000000000000000e+03 7.817942047119140625e+01 5.741705894470214844e+00 1.974206417798995972e-02 7.610438823699951172e+00 2.289054393768310547e+00 2.462023943662643433e-01
1.732000000000000000e+03 7.564732360839843750e+01 3.265430927276611328e+00 7.792836427688598633e-02 6.694255828857421875e+00 2.031655311584472656e+00 4.492597281932830811e-01
1.733000000000000000e+03 7.739527130126953125e+01 2.103222656250000000e+01 -2.627434730529785156e-01 9.951045989990234375e+00 2.906490802764892578e+00 2.170764058828353882e-01
1.734000000000000000e+03 7.522190093994140625e+01 3.132608985900878906e+01 5.461727142333984375e+00 1.444180583953857422e+01 5.971059799194335938e+00 1.329726576805114746e+00
1.735000000000000000e+03 7.698291778564453125e+01 5.862168788909912109e+00 4.284748807549476624e-02 7.304253101348876953e+00 2.204130172729492188e+00 3.937655091285705566e-01
1.736000000000000000e+03 7.801349639892578125e+01 -1.236761212348937988e+00 1.205685548484325409e-02 6.857131958007812500e+00 2.060756683349609375e+00 1.557738035917282104e-01
1.737000000000000000e+03 7.666035461425781250e+01 -2.538836479187011719e+00 2.966890856623649597e-02 6.504939556121826172e+00 1.960382580757141113e+00 2.320911437273025513e-01
1.738000000000000000e+03 7.675003814697265625e+01 -9.514972686767578125e+00 1.931171491742134094e-02 6.166529655456542969e+00 1.855752348899841309e+00 1.289510875940322876e-01
1.739000000000000000e+03 7.657765960693359375e+01 -1.659588050842285156e+01 1.047210488468408585e-02 5.932409763336181641e+00 1.782864570617675781e+00 7.421734929084777832e-02
1.740000000000000000e+03 7.722123718261718750e+01 1.834448242187500000e+01 -9.133494645357131958e-02 9.391302108764648438e+00 2.789990186691284180e+00 5.224420428276062012e-01
1.741000000000000000e+03 7.624390411376953125e+01 1.983021163940429688e+01 -2.836090922355651855e-01 9.193956375122070312e+00 2.673104286193847656e+00 6.108430624008178711e-01
1.742000000000000000e+03 7.698223114013671875e+01 1.001693344116210938e+01 5.153409391641616821e-02 7.848618030548095703e+00 2.370045661926269531e+00 5.114563703536987305e-01
1.743000000000000000e+03 7.699491119384765625e+01 7.243605613708496094e+00 4.660819843411445618e-02 7.473439693450927734e+00 2.256014347076416016e+00 4.354801774024963379e-01
1.744000000000000000e+03 7.798738098144531250e+01 -1.381460952758789062e+01 5.952586885541677475e-03 6.211816787719726562e+00 1.865330815315246582e+00 5.357880890369415283e-02
1.745000000000000000e+03 7.659639739990234375e+01 -1.515939140319824219e+01 1.387998089194297791e-02 5.967858791351318359e+00 1.794521689414978027e+00 8.279580622911453247e-02
1.746000000000000000e+03 7.804578399658203125e+01 -6.830181121826171875e+00 8.338496088981628418e-03 6.497733592987060547e+00 1.951821684837341309e+00 9.744217991828918457e-02
1.747000000000000000e+03 7.675859069824218750e+01 -8.133019447326660156e+00 2.012670412659645081e-02 6.224168300628662109e+00 1.873288512229919434e+00 1.444718539714813232e-01
1.748000000000000000e+03 7.575070190429687500e+01 4.628126144409179688e+00 7.586718350648880005e-02 6.841177940368652344e+00 2.075113534927368164e+00 4.822313487529754639e-01
1.749000000000000000e+03 7.670800781250000000e+01 2.927117347717285156e-01 3.611382842063903809e-02 6.710551261901855469e+00 2.023999452590942383e+00 2.842393815517425537e-01
1.750000000000000000e+03 7.694233703613281250e+01 4.482779979705810547e+00 4.507628455758094788e-02 7.141572952270507812e+00 2.155994892120361328e+00 3.631468713283538818e-01
1.751000000000000000e+03 7.674599456787109375e+01 -6.753462314605712891e+00 2.397066727280616760e-02 6.284089565277099609e+00 1.892418146133422852e+00 1.628582477569580078e-01
1.752000000000000000e+03 7.668634033203125000e+01 -3.958296775817871094e+00 2.791558951139450073e-02 6.419975757598876953e+00 1.934367418289184570e+00 2.087295055389404297e-01
1.753000000000000000e+03 7.528646850585937500e+01 -2.452618837356567383e+00 5.924350023269653320e-02 6.226264476776123047e+00 1.885652422904968262e+00 3.186267316341400146e-01
1.754000000000000000e+03 7.662534332275390625e+01 -1.373932456970214844e+01 1.404713280498981476e-02 6.010042190551757812e+00 1.807226777076721191e+00 9.473142027854919434e-02
1.755000000000000000e+03 7.671980285644531250e+01 -1.090961170196533203e+01 1.538245659321546555e-02 6.110234260559082031e+00 1.837684988975524902e+00 1.153229475021362305e-01
1.756000000000000000e+03 7.545971679687500000e+01 -9.423132896423339844e+00 3.418139740824699402e-02 5.956953048706054688e+00 1.797340273857116699e+00 1.773374676704406738e-01
1.757000000000000000e+03 7.652014923095703125e+01 -2.087841987609863281e+01 8.397792465984821320e-03 5.847721099853515625e+00 1.756835699081420898e+00 5.177980288863182068e-02
1.758000000000000000e+03 7.599146270751953125e+01 4.052128982543945312e+01 -5.283734202384948730e-01 1.073722648620605469e+01 3.062656164169311523e+00 5.119205713272094727e-01
1.759000000000000000e+03 2.228008651733398438e+01 5.679661750793457031e+00 -3.793580085039138794e-02 -1.533225655555725098e+00 -4.713484346866607666e-01 -1.941921561956405640e-01
1.760000000000000000e+03 2.357459068298339844e+01 9.948733329772949219e+00 -4.240566398948431015e-03 -1.106676220893859863e+00 -3.332750499248504639e-01 -2.538278996944427490e-01
1.761000000000000000e+03 2.293998908996582031e+01 -2.522070503234863281e+01 2.425645478069782257e-02 -2.068327665328979492e+00 -6.132213473320007324e-01 -9.958114475011825562e-02
1.762000000000000000e+03 2.130667686462402344e+01 -2.234731483459472656e+01 1.732628792524337769e-02 -2.222169160842895508e+00 -6.614528894424438477e-01 -8.194088190793991089e-02
1.763000000000000000e+03 2.208982467651367188e+01 3.089635467529296875e+01 -8.375353179872035980e-03 -1.953716017305850983e-02 -8.373754099011421204e-03 -1.531445980072021484e-02
1.764000000000000000e+03 2.355918121337890625e+01 1.278091716766357422e+01 -3.008549101650714874e-03 -9.143708348274230957e-01 -2.752138078212738037e-01 -2.466842979192733765e-01
1.765000000000000000e+03 1.262870216369628906e+01 -2.663916397094726562e+01 -3.348715137690305710e-03 -2.808886812999844551e-03 -1.847280538640916348e-03 6.591022247448563576e-05
1.766000000000000000e+03 2.497608947753906250e+01 3.164476776123046875e+01 -4.888456314802169800e-02 -3.398032113909721375e-02 -2.485946565866470337e-02 -4.443814232945442200e-02
1.767000000000000000e+03 2.211786079406738281e+01 2.674165725708007812e+01 -1.033006329089403152e-02 -1.149002760648727417e-01 -3.756910189986228943e-02 -5.896653234958648682e-02
1.768000000000000000e+03 2.321475219726562500e+01 2.668407630920410156e+01 -2.386818267405033112e-02 -1.372619718313217163e-01 -4.833904653787612915e-02 -9.636616706848144531e-02
1.769000000000000000e+03 1.358819961547851562e+01 -6.581133365631103516e+00 1.465448876842856407e-03 1.785600761650130153e-04 4.932026495225727558e-04 -3.364279109518975019e-04
1.770000000000000000e+03 2.213920021057128906e+01 2.535831832885742188e+01 -9.141772985458374023e-03 -1.677232384681701660e-01 -5.305950343608856201e-02 -7.393615692853927612e-02
1.771000000000000000e+03 2.448788452148437500e+01 2.260802650451660156e+01 -3.681361302733421326e-02 -3.094850182533264160e-01 -1.038895919919013977e-01 -2.177897691726684570e-01
1.772000000000000000e+03 2.125634193420410156e+01 -2.803662872314453125e+01 1.235130801796913147e-02 -2.346429347991943359e+00 -7.002234458923339844e-01 -6.511045247316360474e-02
1.773000000000000000e+03 2.219762992858886719e+01 2.257860183715820312e+01 -7.788276299834251404e-03 -3.037310242652893066e-01 -9.345579147338867188e-02 -1.026597470045089722e-01
1.774000000000000000e+03 2.335421752929687500e+01 2.258720779418945312e+01 -2.089742757380008698e-02 -3.114014565944671631e-01 -9.968966990709304810e-02 -1.634453833103179932e-01
1.775000000000000000e+03 2.340393257141113281e+01 2.120247268676757812e+01 -1.759870164096355438e-02 -3.843167722225189209e-01 -1.205746456980705261e-01 -1.828403919935226440e-01
1.776000000000000000e+03 2.222676658630371094e+01 2.118345069885253906e+01 -7.622433360666036606e-03 -3.841978311538696289e-01 -1.175460740923881531e-01 -1.153113394975662231e-01
1.777000000000000000e+03 2.462104415893554688e+01 1.985219764709472656e+01 -2.809461578726768494e-02 -4.455722570419311523e-01 -1.421000659465789795e-01 -2.650197446346282959e-01
1.778000000000000000e+03 1.305200767517089844e+01 -1.601815223693847656e+01 -3.476639976724982262e-03 -4.473446169868111610e-04 -1.177195459604263306e-03 1.131527125835418701e-03
1.779000000000000000e+03 1.140641117095947266e+01 -1.843118667602539062e+01 3.538942430168390274e-03 8.709924295544624329e-04 1.322980388067662716e-03 -1.366740907542407513e-03
1.780000000000000000e+03 1.162730407714843750e+01 -1.571127986907958984e+01 3.129339776933193207e-03 4.449738189578056335e-04 1.072294078767299652e-03 -1.224772538989782333e-03
1.781000000000000000e+03 1.250366210937500000e+01 -9.191696166992187500e+00 -1.726497663185000420e-03 -3.345488221384584904e-04 -6.183139048516750336e-04 6.728246225975453854e-04
1.782000000000000000e+03 1.355344581604003906e+01 -9.258559226989746094e+00 1.996678765863180161e-03 1.869052066467702389e-04 6.550751859322190285e-04 -5.582846933975815773e-04
1.783000000000000000e+03 1.236590862274169922e+01 -1.172574138641357422e+01 -2.133199945092201233e-03 -4.740149597637355328e-04 -7.821644539944827557e-04 1.038620714098215103e-03
1.784000000000000000e+03 2.354437446594238281e+01 1.419329643249511719e+01 -5.744404159486293793e-03 -8.192949891090393066e-01 -2.475118190050125122e-01 -2.420219331979751587e-01
1.785000000000000000e+03 2.352264404296875000e+01 1.560610008239746094e+01 -6.659463979303836823e-03 -7.253231406211853027e-01 -2.195947915315628052e-01 -2.344920188188552856e-01
1.786000000000000000e+03 2.231670570373535156e+01 1.275235843658447266e+01 -2.081711543723940849e-03 -9.812003374099731445e-01 -2.949846088886260986e-01 -1.562470048666000366e-01
1.787000000000000000e+03 2.356981277465820312e+01 1.136599445343017578e+01 -4.254488274455070496e-03 -1.011089801788330078e+00 -3.046033084392547607e-01 -2.512829303741455078e-01
1.788000000000000000e+03 1.108752632141113281e+01 -1.963992881774902344e+01 -3.695162711665034294e-03 -9.246980189345777035e-04 -1.385958283208310604e-03 1.410521916113793850e-03
1.789000000000000000e+03 1.177072048187255859e+01 -2.436183357238769531e+01 -6.187979131937026978e-03 -1.774680422386154532e-04 -1.909634214825928211e-03 1.213810173794627190e-03
1.790000000000000000e+03 2.231928825378417969e+01 8.516751289367675781e+00 -3.321588970720767975e-03 -1.315419077873229980e+00 -3.956221938133239746e-01 -1.653041392564773560e-01
1.791000000000000000e+03 2.355422401428222656e+01 7.105302810668945312e+00 -2.318057045340538025e-02 -1.290495276451110840e+00 -3.941027522087097168e-01 -2.636506855487823486e-01
1.792000000000000000e+03 2.311077308654785156e+01 -5.428746700286865234e+00 3.017943538725376129e-02 -1.812084197998046875e+00 -5.345714092254638672e-01 -1.873479187488555908e-01
1.793000000000000000e+03 2.313527679443359375e+01 -4.051718711853027344e+00 1.648678258061408997e-02 -1.759745836257934570e+00 -5.229777097702026367e-01 -1.933922767639160156e-01
1.794000000000000000e+03 3.304986715316772461e+00 3.001014900207519531e+01 5.949385376879945397e-05 2.512543005650513805e-06 1.860191878222394735e-05 1.128724943555425853e-05
1.795000000000000000e+03 1.915462255477905273e+00 2.736924552917480469e+01 -5.157981649972498417e-05 1.367001345897733700e-06 -1.506384523963788524e-05 -7.195463695097714663e-06
1.796000000000000000e+03 4.743268013000488281e+00 3.286698150634765625e+01 -7.153157639550045133e-05 -8.456896466668695211e-06 -2.399654113105498254e-05 -3.004620702995453030e-05
1.797000000000000000e+03 3.345772266387939453e+00 3.582870101928710938e+01 2.738720650086179376e-05 2.652855619089677930e-05 1.617472844372969121e-05 -1.517996952316025272e-05
1.798000000000000000e+03 3.250656843185424805e+00 2.858674430847167969e+01 -6.074154953239485621e-05 -1.261347051695338450e-06 -1.860086922533810139e-05 -1.257132862519938499e-05
1.799000000000000000e+03 1.997542142868041992e+00 3.583660125732421875e+01 -3.915596971637569368e-05 -1.590612555446568877e-05 -1.651862839935347438e-05 2.015822428802493960e-05
1.800000000000000000e+03 6.040536403656005859e+00 3.827448272705078125e+01 8.481968507112469524e-06 -4.944283136865124106e-05 -1.228825840371428058e-05 -2.593104909465182573e-05
1.801000000000000000e+03 2.023497343063354492e+00 3.448289489746093750e+01 3.802735591307282448e-05 1.948296085174661130e-05 1.725309630273841321e-05 -1.402168254571733996e-05
1.802000000000000000e+03 3.394915819168090820e+00 3.295305252075195312e+01 4.860878107137978077e-05 1.447659360565012321e-05 1.892561340355314314e-05 1.202811654366087168e-05
1.803000000000000000e+03 4.664631366729736328e+00 3.133335304260253906e+01 7.810162787791341543e-05 -1.240856022377556656e-06 2.305823181814048439e-05 1.749459443090017885e-05
1.804000000000000000e+03 3.347278833389282227e+00 3.146282958984375000e+01 -5.446210343507118523e-05 -4.689517027145484462e-06 -1.774548582034185529e-05 -1.311222240474307910e-05
1.805000000000000000e+03 5.023686885833740234e+00 -3.423814010620117188e+01 2.104359300574287772e-04 -3.149376716464757919e-03 -8.816822082735598087e-04 6.436423398554325104e-03
1.806000000000000000e+03 1.969606280326843262e+00 -3.022684478759765625e+01 -4.884530324488878250e-03 4.757748683914542198e-04 -1.322626601904630661e-03 7.650080369785428047e-04
1.807000000000000000e+03 2.972374439239501953e+00 -2.862300109863281250e+01 -4.536479711532592773e-03 -2.912830386776477098e-04 -1.448328839614987373e-03 -3.163748187944293022e-04
1.808000000000000000e+03 1.888149619102478027e+00 2.174976921081542969e+01 -5.576184048550203443e-05 5.210695235291495919e-07 -1.657223037909716368e-05 1.376451791657018475e-06
1.809000000000000000e+03 3.157809734344482422e+00 2.299085044860839844e+01 -6.429131462937220931e-05 3.078334202655241825e-06 -1.836389492382295430e-05 -4.007698862551478669e-06
1.810000000000000000e+03 3.155281543731689453e+00 -1.785275840759277344e+01 -3.155362326651811600e-03 -2.433678164379671216e-04 -1.019619056023657322e-03 -1.638442881812807173e-05
1.811000000000000000e+03 1.855037927627563477e+00 -1.501133823394775391e+01 2.488636178895831108e-03 9.477013372816145420e-05 7.750219083391129971e-04 -2.899666433222591877e-04
1.812000000000000000e+03 2.792846918106079102e+00 -1.089458847045898438e+01 2.050901064649224281e-03 1.592191547388210893e-04 6.630360730923712254e-04 -1.114523402065970004e-04
1.813000000000000000e+03 3.031739711761474609e+00 1.732531738281250000e+01 -5.027417864766903222e-05 -1.848204760790395085e-06 -1.563671503390651196e-05 5.853247785125859082e-06
1.814000000000000000e+03 2.842942237854003906e+00 1.168608665466308594e+01 -4.071249350090511143e-05 1.527515564703207929e-06 -1.175549368781503290e-05 6.245507393032312393e-06
1.815000000000000000e+03 2.885146379470825195e+00 -1.224570846557617188e+01 -2.256797393783926964e-03 -7.756821287330240011e-05 -7.003096980042755604e-04 7.771098171360790730e-05
1.816000000000000000e+03 3.960249185562133789e+00 5.365789890289306641e+00 -1.412264828104525805e-05 -8.441421414318028837e-06 -6.769220817659515887e-06 1.918971429404336959e-05
1.817000000000000000e+03 2.737990617752075195e+00 7.617397785186767578e+00 3.172057040501385927e-05 2.050109287665691227e-06 1.013120436255121604e-05 -6.979726094868965447e-06
1.818000000000000000e+03 1.778347373008728027e+00 1.467698860168457031e+01 4.462870856514200568e-05 1.966975560208084062e-06 1.397870528307976201e-05 -4.713990620075492188e-06
1.819000000000000000e+03 3.007239818572998047e+00 1.591289710998535156e+01 4.684800296672619879e-05 3.378122301000985317e-06 1.506783792137866840e-05 -5.302745194057933986e-06
1.820000000000000000e+03 2.768226861953735352e+00 8.950114250183105469e+00 -3.467226633802056313e-05 -5.068489485893223900e-07 -1.055373468261677772e-05 7.336259386647725478e-06
1.821000000000000000e+03 2.222652435302734375e+00 -4.408245563507080078e+00 1.279878895729780197e-03 5.084093427285552025e-04 5.364864482544362545e-04 -7.567151915282011032e-04
1.822000000000000000e+03 3.176997900009155273e+00 -2.065788459777832031e+01 -3.553990740329027176e-03 -3.777545935008674860e-04 -1.179523533210158348e-03 -5.390355727286078036e-05
1.823000000000000000e+03 1.631056189537048340e+00 -3.648730850219726562e+01 1.564992824569344521e-03 9.552714414894580841e-03 3.335312241688370705e-03 4.648076370358467102e-03
1.824000000000000000e+03 1.838547468185424805e+00 -2.343955230712890625e+01 3.589564701542258263e-03 -1.039492854033596814e-04 1.045684562996029854e-03 -2.716818744374904782e-05
1.825000000000000000e+03 3.159558534622192383e+00 -2.208240318298339844e+01 3.419544547796249390e-03 3.837925323750823736e-04 1.141001121141016483e-03 -3.592582652345299721e-04
1.826000000000000000e+03 3.131438732147216797e+00 -1.504913711547851562e+01 -2.591642318293452263e-03 -2.032542834058403969e-04 -8.384689572267234325e-04 1.907208206830546260e-04
1.827000000000000000e+03 3.165241479873657227e+00 2.160322570800781250e+01 6.123135972302407026e-05 -3.015002675965661183e-06 1.746490670484490693e-05 1.182105052066617645e-06
1.828000000000000000e+03 2.739300966262817383e+00 -9.581629753112792969e+00 -1.893945969641208649e-03 -1.919726637424901128e-04 -6.257756031118333340e-04 1.307720376644283533e-04
1.829000000000000000e+03 2.728004932403564453e+00 -8.309306144714355469e+00 1.744257286190986633e-03 2.106609899783506989e-04 5.864754784852266312e-04 -1.847399980761110783e-04
1.830000000000000000e+03 2.310251951217651367e+00 -3.501327514648437500e+01 3.460321342572569847e-03 4.817662760615348816e-03 2.483395393937826157e-03 5.180411972105503082e-03
1.831000000000000000e+03 4.089519977569580078e+00 -3.281632614135742188e+01 8.273376151919364929e-03 4.105607513338327408e-03 3.713695099577307701e-03 6.395227741450071335e-03
1.832000000000000000e+03 4.388662338256835938e+00 -2.356867599487304688e+01 4.129197448492050171e-03 9.250172879546880722e-04 1.516264397650957108e-03 -1.247974811121821404e-03
1.833000000000000000e+03 3.025542497634887695e+00 -2.484222984313964844e+01 4.026626236736774445e-03 3.382300492376089096e-04 1.309456885792315006e-03 -2.373694405832793564e-05
1.834000000000000000e+03 3.011292695999145508e+00 -1.363709449768066406e+01 2.381148748099803925e-03 7.639992873009759933e-06 7.166365976445376873e-04 -2.013473131228238344e-04
1.835000000000000000e+03 2.807487010955810547e+00 1.030066299438476562e+01 3.764450593735091388e-05 1.846221948653692380e-07 1.134873855335172266e-05 -7.592322617711033672e-06
1.836000000000000000e+03 2.914775848388671875e+00 1.309400081634521484e+01 4.282068039174191654e-05 1.991066689299714199e-08 1.285217786062275991e-05 -3.595078396756434813e-06
1.837000000000000000e+03 3.064946889877319336e+00 1.874921417236328125e+01 5.390514343162067235e-05 -1.264833713321422692e-06 1.579209310875739902e-05 -5.310618234943831339e-06
1.838000000000000000e+03 2.342011260986328125e+01 2.848245382308959961e+00 -2.855139411985874176e-02 -1.514173507690429688e+00 -4.628174602985382080e-01 -2.265995740890502930e-01
1.839000000000000000e+03 2.307597923278808594e+01 -9.591590881347656250e+00 -4.437172319740056992e-03 -1.924875020980834961e+00 -5.787936449050903320e-01 -1.803501844406127930e-01
1.840000000000000000e+03 1.394418144226074219e+01 2.962898254394531250e+01 1.258119882550090551e-04 -8.586856381498364499e-08 3.771783667616546154e-05 1.775846430973615497e-05
1.841000000000000000e+03 1.177562236785888672e+01 2.294909477233886719e+01 7.890895358286798000e-05 5.231500836089253426e-06 2.524213778087869287e-05 8.227372745750471950e-06
1.842000000000000000e+03 1.587541866302490234e+01 3.683401489257812500e+01 -8.807644189801067114e-05 -1.486647524870932102e-04 -7.102236122591421008e-05 8.858767614583484828e-06
1.843000000000000000e+03 1.351537895202636719e+01 3.471389389038085938e+01 1.410355034749954939e-04 -2.113843765982892364e-05 3.596911847125738859e-05 1.316252200922463089e-05
1.844000000000000000e+03 2.293867874145507812e+01 -1.530148696899414062e+01 -1.893859542906284332e-02 -1.994096517562866211e+00 -6.039105653762817383e-01 -1.315366178750991821e-01
1.845000000000000000e+03 2.300758361816406250e+01 -1.245789337158203125e+01 -3.496186435222625732e-02 -1.971492052078247070e+00 -6.019361615180969238e-01 -1.548639386892318726e-01
1.846000000000000000e+03 1.109968948364257812e+01 -3.615117645263671875e+01 7.599827647209167480e-02 -1.890922337770462036e-02 1.712671667337417603e-02 4.921105690300464630e-03
1.847000000000000000e+03 9.323783874511718750e+00 -3.861309814453125000e+01 -2.010529302060604095e-02 -5.462511908262968063e-03 -7.670341525226831436e-03 3.625926375389099121e-02
1.848000000000000000e+03 2.352454376220703125e+01 5.680323123931884766e+00 -4.005562886595726013e-02 -1.370381474494934082e+00 -4.231311380863189697e-01 -2.576110661029815674e-01
1.849000000000000000e+03 3.840948867797851562e+01 3.721030807495117188e+01 -2.603179891593754292e-04 -3.927465528249740601e-03 -1.256335061043500900e-03 1.742383115924894810e-03
1.850000000000000000e+03 4.305532836914062500e+01 3.878351974487304688e+01 1.238666474819183350e-03 -4.089859873056411743e-02 -1.189798023551702499e-02 2.118898741900920868e-02
1.851000000000000000e+03 4.295439529418945312e+01 3.606944274902343750e+01 -1.069327071309089661e-02 -1.779253967106342316e-02 -8.545743301510810852e-03 2.115005627274513245e-02
1.852000000000000000e+03 3.571262741088867188e+01 3.868770217895507812e+01 -2.897718921303749084e-03 2.728880790527909994e-04 -7.874492439441382885e-04 -2.728150691837072372e-03
1.853000000000000000e+03 2.317145919799804688e+01 -2.670975923538208008e+00 6.152732297778129578e-03 -1.715720057487487793e+00 -5.128701925277709961e-01 -2.111471742391586304e-01
1.854000000000000000e+03 2.287195014953613281e+01 -1.950263786315917969e+01 3.604100272059440613e-02 -2.014433145523071289e+00 -5.935176014900207520e-01 -1.276770830154418945e-01
1.855000000000000000e+03 1.262550354003906250e+01 2.821939468383789062e+01 1.175767029053531587e-04 -5.153644906386034563e-06 3.372691571712493896e-05 9.392786523676477373e-06
1.856000000000000000e+03 3.297589111328125000e+01 3.815135574340820312e+01 -5.085749435238540173e-04 1.221219194121658802e-03 2.137932897312566638e-04 -1.019989838823676109e-03
1.857000000000000000e+03 2.131279182434082031e+01 -2.093571662902832031e+01 7.593135815113782883e-03 -2.191711425781250000e+00 -6.552355289459228516e-01 -1.270688921213150024e-01
1.858000000000000000e+03 2.282500839233398438e+01 -3.087367820739746094e+01 -8.088754117488861084e-02 -2.143634557723999023e+00 -6.673566102981567383e-01 -1.441343724727630615e-01
1.859000000000000000e+03 2.284001159667968750e+01 -2.810960960388183594e+01 -1.204909849911928177e-02 -2.084213733673095703e+00 -6.288788318634033203e-01 -1.081175804138183594e-01
1.860000000000000000e+03 2.695025634765625000e+01 3.934399795532226562e+01 6.153068388812243938e-04 4.884193767793476582e-04 3.311178588774055243e-04 -1.027825288474559784e-03
1.861000000000000000e+03 2.465156745910644531e+01 -2.678405189514160156e+01 4.293160047382116318e-03 -1.814647078514099121e+00 -5.431061983108520508e-01 -1.213835999369621277e-01
1.862000000000000000e+03 2.129564094543457031e+01 -2.519544792175292969e+01 2.911018021404743195e-02 -2.272055625915527344e+00 -6.728836894035339355e-01 -8.283733576536178589e-02
1.863000000000000000e+03 2.124049758911132812e+01 -2.944155883789062500e+01 -2.758197486400604248e-02 -2.388190984725952148e+00 -7.247318625450134277e-01 -8.083008229732513428e-02
1.864000000000000000e+03 2.270966911315917969e+01 -3.210585021972656250e+01 -6.288129091262817383e-02 -2.126990318298339844e+00 -6.569615006446838379e-01 -1.288392990827560425e-01
1.865000000000000000e+03 5.242177486419677734e+00 -4.020948410034179688e+01 -9.713078849017620087e-03 9.163252077996730804e-03 -1.649480109335854650e-04 8.698466233909130096e-03
1.866000000000000000e+03 7.080435943603515625e+01 3.298167800903320312e+01 1.050272941589355469e+00 3.027329683303833008e+00 1.223280787467956543e+00 -3.154726266860961914e+00
1.867000000000000000e+03 7.226704406738281250e+01 3.324264526367187500e+01 -1.425200700759887695e-01 1.132818412780761719e+01 3.355699062347412109e+00 -4.952756881713867188e+00
1.868000000000000000e+03 7.096495819091796875e+01 3.311469650268554688e+01 8.653681874275207520e-01 4.231669425964355469e+00 1.529111266136169434e+00 -3.418966531753540039e+00
1.869000000000000000e+03 7.214999389648437500e+01 2.860696411132812500e+01 -4.814241528511047363e-01 1.032585906982421875e+01 2.953330516815185547e+00 5.679626941680908203e+00
1.870000000000000000e+03 6.989430236816406250e+01 2.852754020690917969e+01 -5.927745699882507324e-01 1.824813842773437500e+00 3.696117699146270752e-01 2.357326507568359375e+00
1.871000000000000000e+03 7.280753326416015625e+01 3.302798080444335938e+01 -8.566704392433166504e-01 1.494687175750732422e+01 4.227060317993164062e+00 -4.332417011260986328e+00
1.872000000000000000e+03 7.239851379394531250e+01 2.892128181457519531e+01 -4.418028593063354492e-01 1.236688041687011719e+01 3.577523231506347656e+00 6.049929141998291016e+00
1.873000000000000000e+03 7.157462310791015625e+01 2.918657112121582031e+01 8.834244012832641602e-01 5.494414329528808594e+00 1.913351655006408691e+00 5.284281253814697266e+00
1.874000000000000000e+03 7.278909301757812500e+01 2.920808029174804688e+01 -9.487968087196350098e-01 1.668588638305664062e+01 4.721126556396484375e+00 5.650753498077392578e+00
1.875000000000000000e+03 7.432005310058593750e+01 3.235813140869140625e+01 1.910558938980102539e+00 1.831007575988769531e+01 6.066190719604492188e+00 2.184255361557006836e+00
1.876000000000000000e+03 7.367434692382812500e+01 3.247493362426757812e+01 -6.947494298219680786e-02 2.017075920104980469e+01 6.030385017395019531e+00 -5.480337142944335938e-02
1.877000000000000000e+03 7.328593444824218750e+01 3.242507553100585938e+01 -5.760514736175537109e-01 2.054371452331542969e+01 5.990298748016357422e+00 -2.065730810165405273e+00
1.878000000000000000e+03 7.678582763671875000e+01 2.619201660156250000e+01 -9.078703522682189941e-01 1.117196083068847656e+01 3.079227209091186523e+00 -1.284443020820617676e+00
1.879000000000000000e+03 7.300435638427734375e+01 2.880990409851074219e+01 -1.574196100234985352e+00 1.651320648193359375e+01 4.481703281402587891e+00 3.992097854614257812e+00
1.880000000000000000e+03 7.241088104248046875e+01 3.289474868774414062e+01 -5.329782143235206604e-03 1.243003368377685547e+01 3.727411270141601562e+00 -5.419623374938964844e+00
1.881000000000000000e+03 7.323738098144531250e+01 2.865675926208496094e+01 -1.749806046485900879e+00 1.678728103637695312e+01 4.511242866516113281e+00 2.975837230682373047e+00
1.882000000000000000e+03 7.397736358642578125e+01 2.960868263244628906e+01 1.821162819862365723e+00 2.032496452331542969e+01 6.643838405609130859e+00 -1.907479286193847656e+00
1.883000000000000000e+03 7.442697906494140625e+01 2.933460998535156250e+01 1.691271424293518066e+00 1.788502502441406250e+01 5.872889041900634766e+00 -2.204294681549072266e+00
1.884000000000000000e+03 7.715042114257812500e+01 3.065825462341308594e+01 1.946477174758911133e+00 1.011625099182128906e+01 3.618818521499633789e+00 -2.496683299541473389e-01
1.885000000000000000e+03 7.480675506591796875e+01 3.187211799621582031e+01 4.385914802551269531e+00 1.639541816711425781e+01 6.234399795532226562e+00 2.653971433639526367e+00
1.886000000000000000e+03 7.623265838623046875e+01 3.187889671325683594e+01 2.855380535125732422e+00 1.193424892425537109e+01 4.436889171600341797e+00 1.497340202331542969e+00
1.887000000000000000e+03 7.688957214355468750e+01 2.949930953979492188e+01 1.823020458221435547e+00 1.098768234252929688e+01 3.843210935592651367e+00 -1.605323314666748047e+00
1.888000000000000000e+03 7.542395782470703125e+01 3.084892654418945312e+01 5.381265640258789062e+00 1.348186206817626953e+01 5.658937931060791016e+00 -1.232900470495223999e-01
1.889000000000000000e+03 6.930802917480468750e+01 2.845677375793457031e+01 -1.044340729713439941e+00 1.219676613807678223e+00 5.260076746344566345e-02 1.797779679298400879e+00
1.890000000000000000e+03 6.683312988281250000e+01 2.747847557067871094e+01 -1.534946680068969727e+00 6.293492913246154785e-01 -2.716792225837707520e-01 7.791942954063415527e-01
1.891000000000000000e+03 6.848484039306640625e+01 2.793996047973632812e+01 -1.152726411819458008e+00 1.116825222969055176e+00 -1.077034603804349899e-02 1.431285619735717773e+00
1.892000000000000000e+03 2.628768539428710938e+01 3.196415901184082031e+01 -7.131570577621459961e-02 -2.724479511380195618e-02 -2.956814877688884735e-02 -5.556482821702957153e-02
1.893000000000000000e+03 7.044782257080078125e+01 3.298915481567382812e+01 8.002564907073974609e-01 2.531404972076416016e+00 9.994984269142150879e-01 -2.452240228652954102e+00
1.894000000000000000e+03 5.896600723266601562e+01 2.789006805419921875e+01 -2.656993150711059570e+00 -1.534282695502042770e-02 -8.017007708549499512e-01 -2.655385434627532959e-01
1.895000000000000000e+03 2.698985099792480469e+01 3.185978317260742188e+01 -8.725281804800033569e-02 -2.525957860052585602e-02 -3.375371918082237244e-02 -6.543743610382080078e-02
1.896000000000000000e+03 8.115525245666503906e+00 4.048707485198974609e+00 1.174954104499192908e-05 7.503565484512364492e-06 5.775932095275493339e-06 -5.048805178375914693e-06
1.897000000000000000e+03 1.031246566772460938e+01 3.312887668609619141e+00 7.788767106831073761e-06 8.465141945634968579e-06 4.876172624790342525e-06 4.275016635801875964e-06
1.898000000000000000e+03 2.627045822143554688e+01 3.271129989624023438e+01 -6.009980291128158569e-02 -1.860364899039268494e-02 -2.361103519797325134e-02 -3.992057219147682190e-02
1.899000000000000000e+03 2.540818786621093750e+01 3.093197631835937500e+01 -6.154325604438781738e-02 -4.422446340322494507e-02 -3.173031657934188843e-02 -6.413005292415618896e-02
1.900000000000000000e+03 6.637821674346923828e+00 5.693027973175048828e+00 1.562130091770086437e-05 9.747596777742728591e-06 7.610669399582548067e-06 -1.823683987822732888e-06
1.901000000000000000e+03 5.313230514526367188e+00 4.207812309265136719e+00 1.087971759261563420e-05 6.907645911269355565e-06 5.336209142114967108e-06 -2.353557647438719869e-06
1.902000000000000000e+03 3.888171195983886719e+00 6.393222332000732422e+00 1.662764043430797756e-05 1.111047731683356687e-05 8.321435416291933507e-06 -1.384839470119914040e-05
1.903000000000000000e+03 5.287442207336425781e+00 3.444466829299926758e+00 -9.500039595877751708e-06 -7.147492851800052449e-06 -4.994259597879135981e-06 3.549172333805472590e-06
1.904000000000000000e+03 3.124164342880249023e+00 5.131214618682861328e+00 2.428695188427809626e-05 4.450959295354550704e-06 8.621373126516118646e-06 3.396832198632182553e-06
1.905000000000000000e+03 4.717355251312255859e+00 5.133684158325195312e+00 -4.128954060433898121e-06 1.036156663758447394e-05 1.869783886832010467e-06 -8.346120921487454325e-06
1.906000000000000000e+03 2.917581367492675781e+01 3.170920944213867188e+01 -1.518414765596389771e-01 -1.374983973801136017e-02 -4.967739433050155640e-02 -9.786848723888397217e-02
1.907000000000000000e+03 2.976239681243896484e+00 3.632971286773681641e+00 1.085133226297330111e-05 1.360580972686875612e-05 7.337142960750497878e-06 4.565606104733888060e-06
1.908000000000000000e+03 1.480013728141784668e+00 4.875478267669677734e+00 -1.169454480987042189e-05 -4.244944193487754092e-06 -4.781846655532717705e-06 8.946204616222530603e-06
1.909000000000000000e+03 1.660142421722412109e+00 3.300449848175048828e+00 2.232672522950451821e-05 6.118741566751850769e-07 6.881579793116543442e-06 3.095080955972662196e-06
1.910000000000000000e+03 5.533401489257812500e+01 3.519486236572265625e+01 -1.769858896732330322e-01 -1.460001617670059204e-01 -9.689581394195556641e-02 3.627634942531585693e-01
1.911000000000000000e+03 5.743183517456054688e+01 3.792890930175781250e+01 3.109601736068725586e-01 -2.674165666103363037e-01 1.306307967752218246e-02 3.492073714733123779e-01
1.912000000000000000e+03 2.989367485046386719e+01 3.163868713378906250e+01 -1.776958554983139038e-01 -8.364710956811904907e-03 -5.581817030906677246e-02 -1.079755276441574097e-01
1.913000000000000000e+03 3.060660171508789062e+01 3.155571365356445312e+01 -2.060796022415161133e-01 -3.112531499937176704e-03 -6.275764107704162598e-02 -1.183683723211288452e-01
1.914000000000000000e+03 3.202689361572265625e+01 3.135497093200683594e+01 -2.702433466911315918e-01 8.040093816816806793e-03 -7.866097241640090942e-02 -1.386091858148574829e-01
1.915000000000000000e+03 5.351271438598632812e+01 3.570753097534179688e+01 -8.385527878999710083e-02 -1.481370180845260620e-01 -6.959769129753112793e-02 2.491260766983032227e-01
1.916000000000000000e+03 5.097148132324218750e+01 3.678670120239257812e+01 -2.625187113881111145e-02 -1.379938274621963501e-01 -4.927371069788932800e-02 1.852038502693176270e-01
1.917000000000000000e+03 6.415498352050781250e+01 3.550286102294921875e+01 9.356951713562011719e-02 2.657182216644287109e-01 1.077863201498985291e-01 3.517718613147735596e-01
1.918000000000000000e+03 6.518156433105468750e+01 3.425683975219726562e+01 -4.569245874881744385e-01 1.735799759626388550e-01 -8.500337600708007812e-02 3.093394041061401367e-01
1.919000000000000000e+03 9.507214546203613281e+00 3.991525888442993164e+00 5.520384547708090395e-06 1.144092038884991780e-05 5.088391390017932281e-06 1.175226429950271267e-06
1.920000000000000000e+03 6.738258361816406250e+01 3.451665115356445312e+01 1.642030179500579834e-01 7.331754565238952637e-01 2.692135274410247803e-01 -3.471179902553558350e-01
1.921000000000000000e+03 6.620664978027343750e+01 3.530476379394531250e+01 2.989950776100158691e-01 5.527383089065551758e-01 2.555200159549713135e-01 -8.494237065315246582e-02
1.922000000000000000e+03 1.034739780426025391e+01 -4.963015556335449219e+00 -1.360919792205095291e-03 1.727160852169618011e-04 -3.564611251931637526e-04 2.875289064832031727e-04
1.923000000000000000e+03 1.036976528167724609e+01 -4.141470909118652344e+00 8.404396357946097851e-04 1.429680269211530685e-04 2.950222988147288561e-04 -2.353678137296810746e-04
1.924000000000000000e+03 2.916027069091796875e+01 3.245944595336914062e+01 -1.344044357538223267e-01 -6.143711507320404053e-03 -4.216444492340087891e-02 -7.378672063350677490e-02
1.925000000000000000e+03 1.186660099029541016e+01 -4.204236030578613281e+00 8.350025746040046215e-04 3.957054868806153536e-04 3.692124155350029469e-04 -5.480155232362449169e-04
1.926000000000000000e+03 1.110040187835693359e+01 -3.375326156616210938e+00 7.363475742749869823e-04 1.828911626944318414e-04 2.757716283667832613e-04 -3.299520467408001423e-04
1.927000000000000000e+03 3.274056243896484375e+01 3.123655319213867188e+01 -3.064349889755249023e-01 1.365635637193918228e-02 -8.783359080553054810e-02 -1.489260494709014893e-01
1.928000000000000000e+03 6.233872985839843750e+01 3.625535583496093750e+01 1.679196804761886597e-01 -3.854609560221433640e-03 4.921952262520790100e-02 4.315108060836791992e-01
1.929000000000000000e+03 6.548870849609375000e+01 3.489710998535156250e+01 5.685318683390505612e-05 3.215684592723846436e-01 9.648758918046951294e-02 1.290383487939834595e-01
1.930000000000000000e+03 6.222186660766601562e+01 3.502143478393554688e+01 -2.693405747413635254e-01 -4.126631096005439758e-02 -9.318206459283828735e-02 4.992858767509460449e-01
1.931000000000000000e+03 2.773277854919433594e+01 3.182319450378417969e+01 -1.071419194340705872e-01 -2.258438616991043091e-02 -3.891789168119430542e-02 -7.684607803821563721e-02
1.932000000000000000e+03 2.845657730102539062e+01 3.177034950256347656e+01 -1.280747652053833008e-01 -1.823555119335651398e-02 -4.389309510588645935e-02 -8.703006058931350708e-02
1.933000000000000000e+03 3.204214096069335938e+01 3.205349731445312500e+01 -2.523429393768310547e-01 1.212519593536853790e-02 -7.206533104181289673e-02 -1.075282469391822815e-01
1.934000000000000000e+03 3.131583023071289062e+01 3.146120834350585938e+01 -2.367597967386245728e-01 2.570417942479252815e-03 -7.025681436061859131e-02 -1.284538060426712036e-01
1.935000000000000000e+03 3.925861358642578125e+01 3.000488281250000000e+01 -7.481799721717834473e-01 5.583734810352325439e-02 -2.077027857303619385e-01 -2.299044132232666016e-01
1.936000000000000000e+03 3.997769546508789062e+01 2.986194610595703125e+01 -8.080314993858337402e-01 5.853013321757316589e-02 -2.248504012823104858e-01 -2.381227910518646240e-01
1.937000000000000000e+03 6.790751647949218750e+01 3.593126678466796875e+01 6.899706125259399414e-01 1.893527150154113770e+00 7.750493288040161133e-01 -8.102061152458190918e-01
1.938000000000000000e+03 6.846343231201171875e+01 3.378581237792968750e+01 5.276478081941604614e-02 1.011677026748657227e+00 3.193325400352478027e-01 -6.748292446136474609e-01
1.939000000000000000e+03 3.712402343750000000e+01 3.109892082214355469e+01 -5.726029276847839355e-01 4.141685739159584045e-02 -1.593558192253112793e-01 -1.566083729267120361e-01
1.940000000000000000e+03 3.853556442260742188e+01 3.014083862304687500e+01 -6.897680759429931641e-01 5.204536020755767822e-02 -1.913168132305145264e-01 -2.218209803104400635e-01
1.941000000000000000e+03 3.565951156616210938e+01 3.137869644165039062e+01 -4.663827121257781982e-01 3.386644646525382996e-02 -1.297548711299896240e-01 -1.450556814670562744e-01
1.942000000000000000e+03 3.773984527587890625e+01 2.957283782958984375e+01 -6.293900609016418457e-01 4.811174795031547546e-02 -1.743834912776947021e-01 -2.658080756664276123e-01
1.943000000000000000e+03 4.077356719970703125e+01 3.039884376525878906e+01 -8.854887485504150391e-01 5.484002083539962769e-02 -2.491946220397949219e-01 -1.827844679355621338e-01
1.944000000000000000e+03 3.345470046997070312e+01 3.110836791992187500e+01 -3.454182744026184082e-01 1.908762753009796143e-02 -9.789919853210449219e-02 -1.591320633888244629e-01
1.945000000000000000e+03 3.416970062255859375e+01 3.097339439392089844e+01 -3.866741359233856201e-01 2.434550598263740540e-02 -1.086985841393470764e-01 -1.692644655704498291e-01
1.946000000000000000e+03 4.366242980957031250e+01 2.910638999938964844e+01 -1.137505650520324707e+00 6.401288509368896484e-02 -3.220478296279907227e-01 -2.839760482311248779e-01
1.947000000000000000e+03 7.439054012298583984e+00 -3.377147674560546875e+00 -7.215171935968101025e-04 -1.318637514486908913e-04 -2.560142893344163895e-04 -1.365385396638885140e-04
1.948000000000000000e+03 1.175917911529541016e+01 -5.132920742034912109e+00 -3.334811190143227577e-04 -7.654539658688008785e-04 -3.296805371064692736e-04 4.274733073543757200e-04
1.949000000000000000e+03 4.290860366821289062e+01 2.925459671020507812e+01 -1.067396640777587891e+00 6.367328017950057983e-02 -3.011170029640197754e-01 -2.751075327396392822e-01
1.950000000000000000e+03 6.423906707763671875e+01 2.770793151855468750e+01 -2.443351030349731445e+00 1.060539558529853821e-01 -7.011891007423400879e-01 3.937283530831336975e-02
1.951000000000000000e+03 6.201119232177734375e+01 2.707468795776367188e+01 -2.210728168487548828e+00 6.520663201808929443e-02 -6.436564922332763672e-01 -1.315524876117706299e-01
1.952000000000000000e+03 4.670156860351562500e+01 2.856077003479003906e+01 -1.428111791610717773e+00 5.617693811655044556e-02 -4.115804433822631836e-01 -3.179605603218078613e-01
1.953000000000000000e+03 4.675318527221679688e+01 2.925901985168457031e+01 -1.509392619132995605e+00 4.806040227413177490e-02 -4.383996725082397461e-01 -2.326760143041610718e-01
1.954000000000000000e+03 6.274936676025390625e+01 2.705521774291992188e+01 -2.143109560012817383e+00 9.988638013601303101e-02 -6.129668951034545898e-01 -6.017544865608215332e-02
1.955000000000000000e+03 3.488837814331054688e+01 3.083306694030761719e+01 -4.309155642986297607e-01 2.954886853694915771e-02 -1.204100102186203003e-01 -1.792254745960235596e-01
1.956000000000000000e+03 3.561110687255859375e+01 3.069034004211425781e+01 -4.774920344352722168e-01 3.449902310967445374e-02 -1.328978985548019409e-01 -1.887736767530441284e-01
1.957000000000000000e+03 5.059234619140625000e+01 2.868808364868164062e+01 -1.939640879631042480e+00 2.564996480941772461e-02 -5.741972327232360840e-01 -2.591011524200439453e-01
1.958000000000000000e+03 4.905010604858398438e+01 2.889565086364746094e+01 -1.765589475631713867e+00 3.486797958612442017e-02 -5.192164182662963867e-01 -2.498414963483810425e-01
1.959000000000000000e+03 4.975917434692382812e+01 2.737243461608886719e+01 -1.589786052703857422e+00 4.368567466735839844e-02 -4.638301134109497070e-01 -4.226634204387664795e-01
1.960000000000000000e+03 5.439322280883789062e+01 2.826601791381835938e+01 -2.340309858322143555e+00 -1.395885134115815163e-03 -7.025117278099060059e-01 -2.806914448738098145e-01
1.961000000000000000e+03 5.666774368286132812e+01 2.735964393615722656e+01 -2.243247032165527344e+00 -4.885128233581781387e-03 -6.744396090507507324e-01 -3.460006415843963623e-01
1.962000000000000000e+03 4.751387023925781250e+01 2.913267326354980469e+01 -1.593277096748352051e+00 4.408004134893417358e-02 -4.647591114044189453e-01 -2.390402555465698242e-01
1.963000000000000000e+03 5.363227844238281250e+01 2.834461212158203125e+01 -2.266705751419067383e+00 5.592579953372478485e-03 -6.783339381217956543e-01 -2.771068513393402100e-01
1.964000000000000000e+03 1.189180564880371094e+01 3.252769947052001953e+00 1.877260001492686570e-05 6.504681238084231154e-08 5.651294031849829480e-06 3.621423275035340339e-06
1.965000000000000000e+03 1.282100105285644531e+01 4.148505687713623047e+00 1.885796700662467629e-05 4.333145625423640013e-06 6.957333880563965067e-06 1.052724110195413232e-05
1.966000000000000000e+03 6.814374542236328125e+01 2.754650688171386719e+01 -1.053982138633728027e+00 1.164061307907104492e+00 3.302373737096786499e-02 1.414637446403503418e+00
1.967000000000000000e+03 4.441744613647460938e+01 2.896382904052734375e+01 -1.209032297134399414e+00 6.304103136062622070e-02 -3.437973558902740479e-01 -2.927602231502532959e-01
1.968000000000000000e+03 4.070127868652343750e+01 2.971359825134277344e+01 -8.695756196975708008e-01 6.065043434500694275e-02 -2.426775544881820679e-01 -2.471324652433395386e-01
1.969000000000000000e+03 4.142889022827148438e+01 2.956123352050781250e+01 -9.336236119270324707e-01 6.215560436248779297e-02 -2.614403963088989258e-01 -2.564104497432708740e-01
1.970000000000000000e+03 8.835588455200195312e+00 4.706724643707275391e+00 2.491114173608366400e-06 1.285240614379290491e-05 4.603055913321441039e-06 -5.437544587039155886e-06
1.971000000000000000e+03 4.593766403198242188e+01 2.869183349609375000e+01 -1.355147719383239746e+00 5.913614109158515930e-02 -3.888034820556640625e-01 -3.098066449165344238e-01
1.972000000000000000e+03 5.287290954589843750e+01 2.842623519897460938e+01 -2.189833879470825195e+00 9.633276611566543579e-03 -6.540601253509521484e-01 -2.739539444446563721e-01
1.973000000000000000e+03 4.979935455322265625e+01 2.808344459533691406e+01 -1.723546504974365234e+00 3.774341568350791931e-02 -5.057409405708312988e-01 -3.443522453308105469e-01
1.974000000000000000e+03 4.578839302062988281e+00 -3.357172250747680664e+00 -1.049819285981357098e-03 5.370821454562246799e-04 -1.538211363367736340e-04 2.129663153027649969e-05
1.975000000000000000e+03 5.973370552062988281e+00 -4.932303428649902344e+00 -1.359656918793916702e-03 -9.704758849693462253e-05 -4.370113601908087730e-04 -3.712504694703966379e-04
1.976000000000000000e+03 4.003184795379638672e+00 -3.570233821868896484e+00 -1.055822576745413244e-04 -5.885653081350028515e-04 -2.082442806567996740e-04 5.860966630280017853e-04
1.977000000000000000e+03 4.351598262786865234e+00 -4.601158618927001953e+00 -1.538720214739441872e-03 -7.608568557770922780e-05 -4.844417562708258629e-04 7.236700912471860647e-05
1.978000000000000000e+03 8.178506851196289062e+00 -3.370156764984130859e+00 6.518355221487581730e-04 2.052227646345272660e-04 2.571174700278788805e-04 5.791234798380173743e-05
1.979000000000000000e+03 3.842702627182006836e+00 -8.491296768188476562e+00 -1.608437974937260151e-03 -2.925587177742272615e-04 -5.702990456484258175e-04 7.704403833486139774e-05
1.980000000000000000e+03 2.784365892410278320e+00 -3.679182291030883789e+00 -9.109142119996249676e-04 -4.779492737725377083e-04 -4.166590515524148941e-04 7.300525321625173092e-04
1.981000000000000000e+03 3.967792034149169922e+00 -6.305925369262695312e+00 -1.514913979917764664e-03 -3.628994745668023825e-04 -5.633440450765192509e-04 9.161379421129822731e-05
1.982000000000000000e+03 2.921249628067016602e+00 -5.952157020568847656e+00 1.489736838266253471e-03 4.172656335867941380e-04 5.721007473766803741e-04 -2.294489822816103697e-04
1.983000000000000000e+03 6.348361206054687500e+01 2.703132438659667969e+01 -2.043232917785644531e+00 1.440382152795791626e-01 -5.697584152221679688e-01 3.385890275239944458e-02
1.984000000000000000e+03 6.125594329833984375e+01 2.709468078613281250e+01 -2.258284568786621094e+00 4.156440496444702148e-02 -6.650160551071166992e-01 -1.912304461002349854e-01
1.985000000000000000e+03 6.049099731445312500e+01 2.712095260620117188e+01 -2.285628557205200195e+00 2.341139502823352814e-02 -6.786651611328125000e-01 -2.365203052759170532e-01
1.986000000000000000e+03 6.198163986206054688e+01 2.637819480895996094e+01 -1.801332354545593262e+00 1.337642520666122437e-01 -5.002704262733459473e-01 -8.284248411655426025e-02
1.987000000000000000e+03 5.895614624023437500e+01 2.719677734375000000e+01 -2.302119493484497070e+00 2.913274569436907768e-03 -6.897618174552917480e-01 -3.000647127628326416e-01
1.988000000000000000e+03 5.820225906372070312e+01 2.793881988525390625e+01 -2.623377561569213867e+00 -1.612718962132930756e-02 -7.918514013290405273e-01 -2.742481529712677002e-01
1.989000000000000000e+03 1.270382785797119141e+01 -4.150914192199707031e+00 -1.201290637254714966e-03 -7.451564306393265724e-05 -3.827418840955942869e-04 2.958653203677386045e-04
1.990000000000000000e+03 1.191866397857666016e+01 4.123546123504638672e+00 -1.623284879315178841e-05 -5.267467713565565646e-06 -6.450094588217325509e-06 -7.358490620390512049e-06
1.991000000000000000e+03 1.374908733367919922e+01 3.307924509048461914e+00 2.849829616025090218e-05 -2.419157908661873080e-06 7.823741725587751716e-06 2.976218866024282761e-06
1.992000000000000000e+03 2.319298362731933594e+01 3.089917755126953125e+01 -2.239123731851577759e-02 -3.638867288827896118e-02 -1.763397268950939178e-02 -3.045026399195194244e-02
1.993000000000000000e+03 6.909163665771484375e+01 3.386945724487304688e+01 3.644293844699859619e-01 1.711863517761230469e+00 6.228878498077392578e-01 -1.251227378845214844e+00
1.994000000000000000e+03 6.856963348388671875e+01 3.678583526611328125e+01 7.726917862892150879e-01 2.807625770568847656e+00 1.074095249176025391e+00 -1.142604708671569824e+00
1.995000000000000000e+03 1.255617332458496094e+01 -3.280989646911621094e+00 1.292449422180652618e-03 -3.596289607230573893e-04 2.798461355268955231e-04 1.487786066718399525e-04
1.996000000000000000e+03 1.365870094299316406e+01 -2.960563898086547852e+00 -1.225608517415821552e-03 -1.283215169678442180e-05 -3.715322236530482769e-04 2.853352052625268698e-04
1.997000000000000000e+03 2.302485084533691406e+01 3.218679809570312500e+01 -1.519232988357543945e-02 -1.669429801404476166e-02 -9.565988555550575256e-03 -1.105318125337362289e-02
1.998000000000000000e+03 1.218000221252441406e+01 -1.300197601318359375e+01 2.197457943111658096e-03 4.965276457369327545e-04 8.081956184469163418e-04 -1.176291843876242638e-03
1.999000000000000000e+03 1.184465789794921875e+01 -1.431564712524414062e+01 -2.590850926935672760e-03 -6.303811096586287022e-04 -9.663695818744599819e-04 1.314848545007407665e-03
2.000000000000000000e+03 1.251662731170654297e+01 -6.590135097503662109e+00 -1.440900261513888836e-03 -2.550590143073350191e-04 -5.087877507321536541e-04 4.878519685007631779e-04
2.001000000000000000e+03 1.252250576019287109e+01 -7.899949073791503906e+00 1.602046540938317776e-03 2.530174388084560633e-04 5.565191968344151974e-04 -5.409811856225132942e-04
2.002000000000000000e+03 5.407239151000976562e+01 3.490471649169921875e+01 -1.985741257667541504e-01 -1.145518794655799866e-01 -9.393780678510665894e-02 2.630641162395477295e-01
2.003000000000000000e+03 5.463887023925781250e+01 3.497773361206054688e+01 -1.670638173818588257e-01 -1.492813974618911743e-01 -9.490356594324111938e-02 3.061448335647583008e-01
2.004000000000000000e+03 1.196001338958740234e+01 7.580884456634521484e+00 -1.302338932873681188e-05 -8.470289685647003353e-06 -6.448103704315144569e-06 -1.235482795891584828e-05
2.005000000000000000e+03 4.181378555297851562e+01 4.120653533935546875e+01 1.093218103051185608e-02 -4.572166502475738525e-02 -1.043684501200914383e-02 8.263375610113143921e-03
2.006000000000000000e+03 2.721446037292480469e+01 4.172374343872070312e+01 -7.550416048616170883e-04 1.207780791446566582e-03 1.358217559754848480e-04 -8.159170974977314472e-04
2.007000000000000000e+03 1.833624267578125000e+01 4.171495819091796875e+01 2.610220981296151876e-04 -2.461146505083888769e-05 7.092318992363288999e-05 -3.132951096631586552e-04
2.008000000000000000e+03 2.457029533386230469e+01 1.202589571475982666e-01 6.367990281432867050e-03 -1.477414011955261230e+00 -4.413138031959533691e-01 -2.638446390628814697e-01
2.009000000000000000e+03 2.448357391357421875e+01 -2.593029499053955078e+00 1.834998838603496552e-02 -1.559244155883789062e+00 -4.622682631015777588e-01 -2.442495971918106079e-01
2.010000000000000000e+03 2.443480682373046875e+01 -1.804697418212890625e+01 2.927088737487792969e-02 -1.802315115928649902e+00 -5.319132804870605469e-01 -1.255238503217697144e-01
2.011000000000000000e+03 2.447107124328613281e+01 -1.944520759582519531e+01 4.840099066495895386e-02 -1.811449170112609863e+00 -5.289144515991210938e-01 -1.241075173020362854e-01
2.012000000000000000e+03 2.468558692932128906e+01 2.884094953536987305e+00 -1.878817006945610046e-02 -1.365352988243103027e+00 -4.152423441410064697e-01 -2.849812209606170654e-01
2.013000000000000000e+03 1.170988464355468750e+01 9.719505310058593750e+00 2.539908018661662936e-05 -3.360849154532274952e-09 7.618715699209133163e-06 -4.668790097639430314e-06
2.014000000000000000e+03 4.713030624389648438e+01 3.613505935668945312e+01 -1.981299556791782379e-02 -7.429925352334976196e-02 -2.823367342352867126e-02 8.103056252002716064e-02
2.015000000000000000e+03 4.729850769042968750e+01 3.830432510375976562e+01 3.095587715506553650e-02 -1.112243011593818665e-01 -2.408052794635295868e-02 6.232876330614089966e-02
2.016000000000000000e+03 2.442605590820312500e+01 -1.664180946350097656e+01 1.677223481237888336e-02 -1.793260931968688965e+00 -5.329465866088867188e-01 -1.352691650390625000e-01
2.017000000000000000e+03 2.309069824218750000e+01 -8.182907104492187500e+00 4.299460444599390030e-03 -1.875597000122070312e+00 -5.613892674446105957e-01 -1.900063008069992065e-01
2.018000000000000000e+03 2.448310279846191406e+01 -5.327167987823486328e+00 3.083798661828041077e-02 -1.635175466537475586e+00 -4.813012480735778809e-01 -2.303278893232345581e-01
2.019000000000000000e+03 1.333666992187500000e+01 -1.328614997863769531e+01 -2.867441391572356224e-03 -2.003166155191138387e-04 -9.203273802995681763e-04 8.248707163147628307e-04
2.020000000000000000e+03 2.445518302917480469e+01 -1.237831211090087891e+01 -1.848546788096427917e-02 -1.756915092468261719e+00 -5.326201915740966797e-01 -1.792628765106201172e-01
2.021000000000000000e+03 1.106616973876953125e+01 2.593868637084960938e+01 -8.279144094558432698e-05 -7.452749741787556559e-06 -2.707325620576739311e-05 -2.056822950180503540e-06
2.022000000000000000e+03 5.001935005187988281e+00 1.017938709259033203e+01 3.441127410042099655e-05 5.455663995235227048e-06 1.196008179249474779e-05 4.024733698315685615e-06
2.023000000000000000e+03 1.110732936859130859e+01 8.674484252929687500e+00 -7.183664820331614465e-06 5.522660103451926261e-06 -4.983014605386415496e-07 1.577092371007893234e-05
2.024000000000000000e+03 9.292911529541015625e+00 1.832961463928222656e+01 -1.095320567401358858e-05 -8.370814612135291100e-06 -5.797206085844663903e-06 -6.846157702966593206e-06
2.025000000000000000e+03 7.584619903564453125e+01 1.291637325286865234e+01 5.964702740311622620e-02 7.799857139587402344e+00 2.357851266860961914e+00 7.614012956619262695e-01
2.026000000000000000e+03 7.375167846679687500e+01 -8.544047474861145020e-01 1.130092144012451172e-01 5.967764854431152344e+00 1.824232339859008789e+00 4.384326338768005371e-01
2.027000000000000000e+03 7.580278015136718750e+01 5.980418682098388672e+00 8.172440528869628906e-02 6.982481002807617188e+00 2.119261741638183594e+00 5.231448411941528320e-01
2.028000000000000000e+03 7.678746795654296875e+01 1.697275042533874512e+00 3.837746754288673401e-02 6.841971397399902344e+00 2.064104795455932617e+00 3.075723946094512939e-01
2.029000000000000000e+03 7.533644866943359375e+01 4.600492119789123535e-01 7.082770019769668579e-02 6.417165279388427734e+00 1.946397781372070312e+00 3.825878798961639404e-01
2.030000000000000000e+03 7.417681884765625000e+01 -9.336570739746093750e+00 5.566991120576858521e-02 5.740403175354003906e+00 1.738821864128112793e+00 2.204232662916183472e-01
2.031000000000000000e+03 7.518896484375000000e+01 -1.511319828033447266e+01 2.489211410284042358e-02 5.756635189056396484e+00 1.734458088874816895e+00 1.185684129595756531e-01
2.032000000000000000e+03 7.534877777099609375e+01 -3.900782346725463867e+00 5.333686992526054382e-02 6.162506580352783203e+00 1.864753007888793945e+00 2.795869112014770508e-01
2.033000000000000000e+03 7.671903991699218750e+01 -5.364130020141601562e+00 2.503742463886737823e-02 6.347564220428466797e+00 1.911780476570129395e+00 1.836313009262084961e-01
2.034000000000000000e+03 7.540670013427734375e+01 -5.313845634460449219e+00 4.862229898571968079e-02 6.109738826751708984e+00 1.847508311271667480e+00 2.476912587881088257e-01
2.035000000000000000e+03 7.381507110595703125e+01 -1.660826110839843750e+01 3.571630641818046570e-02 5.505107402801513672e+00 1.662247061729431152e+00 1.267843097448348999e-01
2.036000000000000000e+03 7.687378692626953125e+01 3.096004247665405273e+00 3.832724690437316895e-02 6.983963489532470703e+00 2.106687307357788086e+00 3.315818607807159424e-01
2.037000000000000000e+03 7.541352844238281250e+01 -1.080652141571044922e+01 3.180249407887458801e-02 5.902946949005126953e+00 1.780424833297729492e+00 1.602350473403930664e-01
2.038000000000000000e+03 7.667153930664062500e+01 -1.232194042205810547e+01 1.484784018248319626e-02 6.058637142181396484e+00 1.822045445442199707e+00 1.037395745515823364e-01
2.039000000000000000e+03 7.532762145996093750e+01 -1.222436809539794922e+01 2.743958495557308197e-02 5.843944549560546875e+00 1.761415243148803711e+00 1.450994610786437988e-01
2.040000000000000000e+03 7.698771667480468750e+01 8.630679130554199219e+00 4.221119731664657593e-02 7.660263061523437500e+00 2.310742139816284180e+00 4.727802574634552002e-01
2.041000000000000000e+03 7.580627441406250000e+01 7.342719078063964844e+00 8.421853184700012207e-02 7.116601943969726562e+00 2.160246133804321289e+00 5.691547989845275879e-01
2.042000000000000000e+03 7.575005340576171875e+01 1.152844238281250000e+01 8.372192829847335815e-02 7.591931819915771484e+00 2.302696228027343750e+00 7.251526713371276855e-01
2.043000000000000000e+03 7.516680145263671875e+01 -1.804676437377929688e+01 2.050260454416275024e-02 5.687796115875244141e+00 1.712489604949951172e+00 9.091861546039581299e-02
2.044000000000000000e+03 7.656352233886718750e+01 -1.803537940979003906e+01 9.906835854053497314e-03 5.898276805877685547e+00 1.772455096244812012e+00 6.576897203922271729e-02
2.045000000000000000e+03 7.511772918701171875e+01 -1.949789428710937500e+01 1.742825657129287720e-02 5.657170295715332031e+00 1.702379584312438965e+00 8.021179586648941040e-02
2.046000000000000000e+03 7.489290618896484375e+01 -2.978005409240722656e+01 1.242997311055660248e-02 5.502124786376953125e+00 1.654366493225097656e+00 2.603621222078800201e-02
2.047000000000000000e+03 7.358472442626953125e+01 -2.381653594970703125e+01 1.325872447341680527e-02 5.375585556030273438e+00 1.616653323173522949e+00 7.021977752447128296e-02
2.048000000000000000e+03 7.572132110595703125e+01 1.013374710083007812e+01 8.585808426141738892e-02 7.418601512908935547e+00 2.251338005065917969e+00 6.868487000465393066e-01
2.049000000000000000e+03 7.754407501220703125e+01 2.967146682739257812e+01 1.333434700965881348e+00 9.629959106445312500e+00 3.289018154144287109e+00 -1.221582174301147461e+00
2.050000000000000000e+03 7.749314880371093750e+01 3.140502548217773438e+01 1.681861519813537598e+00 9.567301750183105469e+00 3.374748945236206055e+00 4.873855113983154297e-01
2.051000000000000000e+03 7.310875701904296875e+01 -2.658757781982421875e+01 2.255219221115112305e-02 5.292357921600341797e+00 1.594473004341125488e+00 6.837937980890274048e-02
2.052000000000000000e+03 7.628156280517578125e+01 -2.662362480163574219e+01 1.110963802784681320e-02 5.738866806030273438e+00 1.724992871284484863e+00 3.241987153887748718e-02
2.053000000000000000e+03 7.503002166748046875e+01 -2.369382667541503906e+01 1.167908497154712677e-02 5.593688488006591797e+00 1.681610226631164551e+00 6.196946650743484497e-02
2.054000000000000000e+03 7.711738586425781250e+01 1.559112453460693359e+01 -6.988731678575277328e-03 8.827610969543457031e+00 2.646186590194702148e+00 6.051613092422485352e-01
2.055000000000000000e+03 7.592877197265625000e+01 1.431355190277099609e+01 4.421146214008331299e-02 8.038559913635253906e+00 2.424831628799438477e+00 7.908706068992614746e-01
2.056000000000000000e+03 7.715788269042968750e+01 1.697736740112304688e+01 -4.593170806765556335e-02 9.105418205261230469e+00 2.717845916748046875e+00 5.790423750877380371e-01
2.057000000000000000e+03 7.600562286376953125e+01 1.711460876464843750e+01 -7.286766916513442993e-02 8.565386772155761719e+00 2.547755718231201172e+00 7.963046431541442871e-01
2.058000000000000000e+03 7.758051300048828125e+01 2.842145538330078125e+01 2.745481133460998535e-01 1.003301239013671875e+01 3.092267990112304688e+00 -1.863671183586120605e+00
2.059000000000000000e+03 7.396148681640625000e+01 2.922344207763671875e+01 1.718584634363651276e-02 1.937896537780761719e+01 5.818845272064208984e+00 -7.468398213386535645e-01
2.060000000000000000e+03 7.736727142333984375e+01 2.714943695068359375e+01 -3.476833403110504150e-01 1.069088268280029297e+01 3.102959871292114258e+00 -1.785546779632568359e+00
2.061000000000000000e+03 7.472445678710937500e+01 -3.544368743896484375e+01 -5.615344736725091934e-03 5.455232620239257812e+00 1.634885311126708984e+00 2.663057995960116386e-03
2.062000000000000000e+03 7.636090087890625000e+01 -3.659994506835937500e+01 -2.140439301729202271e-02 5.769856929779052734e+00 1.724535822868347168e+00 2.702365256845951080e-02
2.063000000000000000e+03 7.745816040039062500e+01 3.411669158935546875e+01 -1.020841747522354126e-01 1.065031337738037109e+01 3.164468765258789062e+00 2.000199794769287109e+00
2.064000000000000000e+03 7.745427703857421875e+01 2.235342407226562500e+01 -4.027421772480010986e-01 1.021362686157226562e+01 2.943265438079833984e+00 -5.661055818200111389e-02
2.065000000000000000e+03 7.639685058593750000e+01 2.112022590637207031e+01 -4.422566294670104980e-01 9.590328216552734375e+00 2.744421482086181641e+00 4.192372560501098633e-01
2.066000000000000000e+03 7.636147308349609375e+01 2.468721199035644531e+01 -1.071166992187500000e+00 1.087267208099365234e+01 2.940451622009277344e+00 -5.161575675010681152e-01
2.067000000000000000e+03 7.372383880615234375e+01 3.354085540771484375e+01 -1.473878026008605957e+00 1.605059623718261719e+01 4.373015403747558594e+00 -9.808789491653442383e-01
2.068000000000000000e+03 7.712825012207031250e+01 3.224589157104492188e+01 1.252593874931335449e+00 1.055514907836914062e+01 3.542322874069213867e+00 1.611139178276062012e+00
2.069000000000000000e+03 7.746348571777343750e+01 3.299621582031250000e+01 7.322558164596557617e-01 1.028129673004150391e+01 3.304065704345703125e+00 1.884159445762634277e+00
2.070000000000000000e+03 7.699201965332031250e+01 -3.494871139526367188e+01 -1.636351458728313446e-02 5.803393840789794922e+00 1.736109137535095215e+00 2.753195911645889282e-02
2.071000000000000000e+03 7.644238281250000000e+01 -3.247142410278320312e+01 -7.940478390082716942e-04 5.729222297668457031e+00 1.718528389930725098e+00 1.595090143382549286e-02
2.072000000000000000e+03 7.588806152343750000e+01 -3.533273696899414062e+01 -2.168647199869155884e-02 5.680108547210693359e+00 1.697526574134826660e+00 -1.117460336536169052e-02
2.073000000000000000e+03 7.651309204101562500e+01 2.356966018676757812e+01 -8.477800488471984863e-01 1.038974475860595703e+01 2.862589597702026367e+00 -2.179088592529296875e-01
2.074000000000000000e+03 2.480691146850585938e+01 1.140824890136718750e+01 -5.083288997411727905e-03 -9.288462400436401367e-01 -2.801788747310638428e-01 -3.297989666461944580e-01
2.075000000000000000e+03 7.570958709716796875e+01 3.581505203247070312e+01 -1.250013232231140137e+00 1.208083534240722656e+01 3.249246597290039062e+00 1.071779966354370117e+00
2.076000000000000000e+03 1.263586711883544922e+01 -2.252865028381347656e+01 -4.665310028940439224e-03 2.155181864509359002e-04 -1.334937522187829018e-03 -2.136059192707762122e-04
2.077000000000000000e+03 1.251039314270019531e+01 -2.020484542846679688e+01 3.987072035670280457e-03 1.234152587130665779e-03 1.566367456689476967e-03 -1.860217191278934479e-03
2.078000000000000000e+03 2.297686195373535156e+01 -1.388373470306396484e+01 -3.401249647140502930e-02 -1.998418331146240234e+00 -6.097292304039001465e-01 -1.459933966398239136e-01
2.079000000000000000e+03 2.444944000244140625e+01 -1.381110572814941406e+01 -1.545668393373489380e-02 -1.765066266059875488e+00 -5.341568589210510254e-01 -1.537730991840362549e-01
2.080000000000000000e+03 2.481498146057128906e+01 9.987093925476074219e+00 -7.193176541477441788e-03 -1.012538313865661621e+00 -3.059194386005401611e-01 -3.328517079353332520e-01
2.081000000000000000e+03 2.479031944274902344e+01 1.282631778717041016e+01 -7.422319147735834122e-03 -8.460754156112670898e-01 -2.560493052005767822e-01 -3.262857794761657715e-01
2.082000000000000000e+03 5.789044380187988281e+00 -2.495791625976562500e+01 3.424558555707335472e-03 3.156994469463825226e-03 1.974465791136026382e-03 -4.240109410602599382e-04
2.083000000000000000e+03 1.147366523742675781e+01 -2.977762794494628906e+01 9.407179430127143860e-03 5.889522843062877655e-03 4.589010961353778839e-03 -4.698063246905803680e-03
2.084000000000000000e+03 2.560411262512207031e+01 2.264437484741210938e+01 -5.835948884487152100e-02 -2.993561625480651855e-01 -1.073146909475326538e-01 -2.670491337776184082e-01
2.085000000000000000e+03 2.456246757507324219e+01 2.123612213134765625e+01 -3.373460099101066589e-02 -3.749412298202514648e-01 -1.226027458906173706e-01 -2.431344389915466309e-01
2.086000000000000000e+03 2.476616668701171875e+01 1.424193763732910156e+01 -9.139473550021648407e-03 -7.621523737907409668e-01 -2.313875555992126465e-01 -3.193367421627044678e-01
2.087000000000000000e+03 2.347429847717285156e+01 1.841386222839355469e+01 -1.206986326724290848e-02 -5.463950634002685547e-01 -1.675394922494888306e-01 -2.139142155647277832e-01
2.088000000000000000e+03 2.466648292541503906e+01 1.846063804626464844e+01 -2.386875450611114502e-02 -5.205158591270446777e-01 -1.633153855800628662e-01 -2.835349738597869873e-01
2.089000000000000000e+03 2.470363044738769531e+01 1.706236457824707031e+01 -1.791573502123355865e-02 -5.985180735588073730e-01 -1.849301457405090332e-01 -2.985366582870483398e-01
2.090000000000000000e+03 1.010583877563476562e+01 -1.810005378723144531e+01 -3.671769052743911743e-03 -5.882110563106834888e-04 -1.277994015254080296e-03 1.007219310849905014e-03
2.091000000000000000e+03 2.326811027526855469e+01 2.947209930419921875e+01 -2.492886967957019806e-02 -6.172969192266464233e-02 -2.599756792187690735e-02 -5.211094394326210022e-02
2.092000000000000000e+03 2.479173660278320312e+01 3.026747131347656250e+01 -4.947666823863983154e-02 -5.683988332748413086e-02 -3.189496695995330811e-02 -6.700754910707473755e-02
2.093000000000000000e+03 2.356919288635253906e+01 8.530589103698730469e+00 -1.034507155418395996e-02 -1.204505324363708496e+00 -3.644551038742065430e-01 -2.592872679233551025e-01
2.094000000000000000e+03 2.481307029724121094e+01 8.562620162963867188e+00 -1.223153248429298401e-02 -1.090019226074218750e+00 -3.306752443313598633e-01 -3.331384956836700439e-01
2.095000000000000000e+03 2.428267669677734375e+01 2.660649490356445312e+01 -4.436033964157104492e-02 -1.491045951843261719e-01 -5.803947895765304565e-02 -1.327950805425643921e-01
2.096000000000000000e+03 2.440420150756835938e+01 2.396035003662109375e+01 -4.081263765692710876e-02 -2.494972199201583862e-01 -8.709295839071273804e-02 -1.901284605264663696e-01
2.097000000000000000e+03 2.433280563354492188e+01 2.529452514648437500e+01 -4.218021407723426819e-02 -1.957409828901290894e-01 -7.137636095285415649e-02 -1.615059822797775269e-01
2.098000000000000000e+03 8.263098716735839844e+00 -7.776460647583007812e+00 1.056049019098281860e-03 7.901655044406652451e-04 5.538643454201519489e-04 -2.611825475469231606e-04
2.099000000000000000e+03 2.427359008789062500e+01 2.789920616149902344e+01 -4.349631071090698242e-02 -1.098785176873207092e-01 -4.601244628429412842e-02 -1.053599268198013306e-01
2.100000000000000000e+03 2.561927032470703125e+01 2.975565719604492188e+01 -7.147977501153945923e-02 -6.879643350839614868e-02 -4.208286479115486145e-02 -9.602631628513336182e-02
2.101000000000000000e+03 2.480066490173339844e+01 7.133002758026123047e+00 -2.156615816056728363e-02 -1.164897680282592773e+00 -3.559391498565673828e-01 -3.282673358917236328e-01
2.102000000000000000e+03 3.170650482177734375e+00 -1.645452499389648438e+01 2.724765567108988762e-03 2.962843864224851131e-04 9.063149918802082539e-04 -2.379990182816982269e-04
2.103000000000000000e+03 4.476552963256835938e+00 -1.505953693389892578e+01 2.638250356540083885e-03 5.221408355282619596e-05 8.071393240243196487e-04 -9.805861918721348047e-05
2.104000000000000000e+03 4.493750572204589844e+00 2.148532867431640625e+01 -7.216915400931611657e-05 1.053405776474392042e-05 -1.849052750912960619e-05 3.270608033290045569e-07
2.105000000000000000e+03 3.114977359771728516e+00 2.018460083007812500e+01 -5.724365473724901676e-05 3.662093149614520371e-06 -1.607446938578505069e-05 2.400056246187887155e-06
2.106000000000000000e+03 4.454550266265869141e+00 2.291418647766113281e+01 7.481267675757408142e-05 -8.544044248992577195e-06 1.988059011637233198e-05 1.423663888999726623e-05
2.107000000000000000e+03 4.408701419830322266e+00 -1.792065620422363281e+01 3.227311419323086739e-03 3.469551156740635633e-04 1.072279992513358593e-03 -4.006489180028438568e-04
2.108000000000000000e+03 4.516504287719726562e+00 -1.652764892578125000e+01 -3.114389721304178238e-03 -3.562084166333079338e-04 -1.041179522871971130e-03 1.100165609386749566e-04
2.109000000000000000e+03 5.700329780578613281e+00 2.672176742553710938e+01 7.554094190709292889e-05 2.503349151083966717e-06 2.341328763577621430e-05 6.332219982141396031e-06
2.110000000000000000e+03 4.645430088043212891e+00 2.984193420410156250e+01 -7.180967077147215605e-05 -2.459980578350950964e-06 -2.228089579148218036e-05 -1.271971814276184887e-05
2.111000000000000000e+03 3.933030843734741211e+00 -2.725290870666503906e+01 -3.021667245775461197e-03 -9.658865747042000294e-04 -1.196266151964664459e-03 2.983675221912562847e-04
2.112000000000000000e+03 2.870805501937866211e+00 -2.736683082580566406e+01 5.268821958452463150e-03 -1.429488766007125378e-04 1.537762000225484371e-03 3.070726816076785326e-04
2.113000000000000000e+03 3.103169918060302734e+00 -2.348917770385742188e+01 -3.715192200616002083e-03 -6.776249501854181290e-04 -1.317845191806554794e-03 -3.506817156448960304e-04
2.114000000000000000e+03 4.474528312683105469e+00 -2.214197921752929688e+01 -4.515564069151878357e-03 2.180261362809687853e-04 -1.289261388592422009e-03 3.834588642348535359e-05
2.115000000000000000e+03 4.229334831237792969e+00 1.717893409729003906e+01 5.084642180008813739e-05 3.616039293774520047e-06 1.633873762330040336e-05 -6.198519713507266715e-06
2.116000000000000000e+03 4.256409168243408203e+00 1.859671783447265625e+01 -5.542938379221595824e-05 4.756164457830891479e-07 -1.648613033466972411e-05 8.239995622716378421e-06
2.117000000000000000e+03 4.332624912261962891e+00 2.003084182739257812e+01 6.253327592276036739e-05 -7.513182026741560549e-06 1.650602825975511223e-05 -7.895267117419280112e-06
2.118000000000000000e+03 4.209657669067382812e+00 1.576733875274658203e+01 -4.862376226810738444e-05 -5.408091510616941378e-06 -1.620955481484998018e-05 3.680952659124159254e-06
2.119000000000000000e+03 4.495632648468017578e+00 -2.067300224304199219e+01 3.710283199325203896e-03 4.320172301959246397e-04 1.242690137587487698e-03 8.333750156452879310e-05
2.120000000000000000e+03 3.128921031951904297e+00 2.578349494934082031e+01 -6.557478627655655146e-05 5.603758381766965613e-06 -1.799130768631584942e-05 -1.202219391416292638e-05
2.121000000000000000e+03 4.324609279632568359e+00 2.562531661987304688e+01 7.532259769504889846e-05 -6.270819994824705645e-06 2.071553171845152974e-05 1.811455695133190602e-05
2.122000000000000000e+03 4.297286033630371094e+00 2.428481483459472656e+01 -7.509334682254120708e-05 1.042129861161811277e-05 -1.940161382663063705e-05 -1.911262370413169265e-05
2.123000000000000000e+03 4.353868007659912109e+00 -2.497125053405761719e+01 -3.314238972961902618e-03 -1.106312382034957409e-03 -1.326165394857525826e-03 -3.895562258549034595e-05
2.124000000000000000e+03 2.978144407272338867e+00 1.450391292572021484e+01 -4.400947364047169685e-05 -3.596494480007095262e-06 -1.428179075446678326e-05 3.908907729055499658e-06
2.125000000000000000e+03 4.089916229248046875e+00 1.289457607269287109e+01 -4.432791320141404867e-05 4.317003913456574082e-06 -1.200327278638724238e-05 6.966815817577298731e-06
2.126000000000000000e+03 4.208508968353271484e+00 1.432793426513671875e+01 4.651611016015522182e-05 4.437833467818563804e-06 1.528618304291740060e-05 -2.293987790835672058e-06
2.127000000000000000e+03 3.862797737121582031e+00 -9.698181152343750000e+00 1.745237037539482117e-03 2.733298169914633036e-04 6.055700359866023064e-04 -2.102738108078483492e-05
2.128000000000000000e+03 4.207274436950683594e+00 -1.360817813873291016e+01 -2.440958283841609955e-03 5.184776819078251719e-05 -7.167331059463322163e-04 -2.123189478879794478e-04
2.129000000000000000e+03 4.579685688018798828e+00 2.838819313049316406e+01 7.116759661585092545e-05 4.839570010517491028e-06 2.280214903294108808e-05 1.423595858796034008e-05
2.130000000000000000e+03 4.780708789825439453e+00 3.603337860107421875e+01 -6.615185611735796556e-06 -6.007172487443313003e-05 -2.000607310037594289e-05 -2.040250183199532330e-05
2.131000000000000000e+03 4.820484638214111328e+00 -3.066934967041015625e+01 6.539642345160245895e-03 3.137720981612801552e-03 2.903208835050463676e-03 3.967655356973409653e-03
2.132000000000000000e+03 5.357777118682861328e+00 -2.898704910278320312e+01 5.456676706671714783e-03 2.539529697969555855e-03 2.398862037807703018e-03 1.535611110739409924e-03
2.133000000000000000e+03 4.920109272003173828e+00 1.134406471252441406e+01 -3.049124097742605954e-05 -2.520828047636314295e-06 -9.903620593831874430e-06 3.556958517947350629e-06
2.134000000000000000e+03 3.918326377868652344e+00 -1.095130157470703125e+01 -1.981085166335105896e-03 -2.564866153988987207e-04 -6.712715257890522480e-04 -6.657315680058673024e-05
2.135000000000000000e+03 5.064435005187988281e+00 -5.645649909973144531e+00 -1.518278266303241253e-03 -2.089477493427693844e-04 -5.181677988730370998e-04 -1.560049859108403325e-04
2.136000000000000000e+03 3.933238267898559570e+00 1.151385211944580078e+01 3.982795533374883235e-05 -2.771866320472327061e-06 1.111682649934664369e-05 -9.569080248184036463e-06
2.137000000000000000e+03 5.902905941009521484e+00 3.127149391174316406e+01 -1.096351988962851465e-04 1.605349098099395633e-05 -2.807451346598099917e-05 -2.310917989234440029e-05
2.138000000000000000e+03 3.415769815444946289e+00 3.442471694946289062e+01 -3.149355688947252929e-05 -3.189741619280539453e-05 -1.901729228848125786e-05 -9.082315955311059952e-06
2.139000000000000000e+03 4.840227127075195312e+00 3.444090652465820312e+01 5.447455259854905307e-05 3.274929258623160422e-05 2.616715391923207790e-05 3.818937693722546101e-05
2.140000000000000000e+03 5.480656147003173828e+00 -3.185227203369140625e+01 9.916323469951748848e-04 -4.452602472156286240e-03 -1.038291025906801224e-03 2.099270932376384735e-03
2.141000000000000000e+03 3.202476501464843750e+00 -2.991719055175781250e+01 6.669311784207820892e-03 9.025328909046947956e-04 2.271553501486778259e-03 2.579772379249334335e-03
2.142000000000000000e+03 3.568178892135620117e+00 -3.129310607910156250e+01 -3.705949522554874420e-03 -9.328667074441909790e-04 -1.391644822433590889e-03 4.778442962560802698e-05
2.143000000000000000e+03 3.907828330993652344e+00 8.809642791748046875e+00 2.995003342221025378e-05 -1.205755097544169985e-06 8.623283065389841795e-06 -1.205340959131717682e-05
2.144000000000000000e+03 3.193880796432495117e+00 -4.989249706268310547e+00 -1.639562309719622135e-03 -3.246224077884107828e-04 -5.892554181627929211e-04 3.616984758991748095e-04
2.145000000000000000e+03 5.998803615570068359e+00 4.913154602050781250e+00 1.783225343388039619e-05 4.441907094587804750e-06 6.682248113065725192e-06 -4.854128746956121176e-06
2.146000000000000000e+03 1.307206249237060547e+01 -2.862612342834472656e+01 1.041292864829301834e-02 2.180682495236396790e-03 3.778083482757210732e-03 -2.219164511188864708e-03
2.147000000000000000e+03 1.163108825683593750e+01 -2.706976127624511719e+01 7.021399680525064468e-03 3.861584700644016266e-03 3.264895174652338028e-03 6.107157678343355656e-04
2.148000000000000000e+03 6.321996212005615234e+00 -3.534984588623046875e+01 1.074658706784248352e-02 -3.345863369759172201e-04 3.123600268736481667e-03 1.361298467963933945e-02
2.149000000000000000e+03 3.105239152908325195e+00 3.710779190063476562e+01 -1.123300353356171399e-05 7.997016950866964180e-07 -3.129990318484487943e-06 1.924420530485804193e-06
2.150000000000000000e+03 7.276318359375000000e+01 4.129130172729492188e+01 -2.669880390167236328e-01 7.907717704772949219e+00 2.292218923568725586e+00 -2.372497320175170898e-01
2.151000000000000000e+03 7.631484222412109375e+01 3.656357192993164062e+01 -9.594403505325317383e-01 1.137932777404785156e+01 3.125966310501098633e+00 1.189607858657836914e+00
2.152000000000000000e+03 2.289290428161621094e+01 -2.231226921081542969e+01 2.630734257400035858e-02 -2.020657539367675781e+00 -5.983050465583801270e-01 -1.215829700231552124e-01
2.153000000000000000e+03 1.744774436950683594e+01 3.949594116210937500e+01 2.241519687231630087e-04 5.422111280495300889e-05 8.351192809641361237e-05 -9.360721014672890306e-05
2.154000000000000000e+03 1.158202838897705078e+01 3.848484039306640625e+01 -1.988382718991488218e-04 2.130240318365395069e-05 -5.326076279743574560e-05 -5.100981070427224040e-05
2.155000000000000000e+03 2.443861198425292969e+01 -1.523241519927978516e+01 -5.968599580228328705e-03 -1.785811305046081543e+00 -5.375339984893798828e-01 -1.366762071847915649e-01
2.156000000000000000e+03 2.347823715209960938e+01 4.261695384979248047e+00 -4.346615076065063477e-02 -1.442797780036926270e+00 -4.458791911602020264e-01 -2.441115975379943848e-01
2.157000000000000000e+03 2.462968444824218750e+01 1.490579128265380859e+00 -8.155000396072864532e-03 -1.421269536018371582e+00 -4.288273453712463379e-01 -2.714400291442871094e-01
2.158000000000000000e+03 2.477451324462890625e+01 5.707454204559326172e+00 -2.890745736658573151e-02 -1.232759714126586914e+00 -3.785001635551452637e-01 -3.177755177021026611e-01
2.159000000000000000e+03 3.782288742065429688e+01 4.118135833740234375e+01 -3.645630320534110069e-03 -8.010603487491607666e-03 -3.496870165690779686e-03 -1.369623350910842419e-03
2.160000000000000000e+03 1.235103988647460938e+01 3.533294296264648438e+01 -9.144761133939027786e-05 -4.426582745509222150e-05 -4.071403236594051123e-05 2.136935836460907012e-05
2.161000000000000000e+03 6.998322963714599609e+00 3.137285232543945312e+01 1.049359998432919383e-04 -2.014189885812811553e-05 2.543823029554914683e-05 2.378463250352069736e-05
2.162000000000000000e+03 2.447996711730957031e+01 -1.093026828765869141e+01 -6.841264199465513229e-03 -1.735514521598815918e+00 -5.227067470550537109e-01 -1.917815953493118286e-01
2.163000000000000000e+03 2.283929061889648438e+01 -2.952193450927734375e+01 -1.621980033814907074e-02 -2.106430768966674805e+00 -6.367952227592468262e-01 -1.023899018764495850e-01
2.164000000000000000e+03 2.447192382812500000e+01 -3.962162256240844727e+00 2.629840560257434845e-02 -1.598552227020263672e+00 -4.716761410236358643e-01 -2.365575581789016724e-01
2.165000000000000000e+03 5.923921966552734375e+01 3.519486999511718750e+01 -2.501484751701354980e-01 -1.487333178520202637e-01 -1.196645423769950867e-01 5.044451951980590820e-01
2.166000000000000000e+03 2.956789970397949219e+01 4.095545578002929688e+01 -1.124836053350009024e-04 8.119235280901193619e-04 2.098319819197058678e-04 -1.166345318779349327e-03
2.167000000000000000e+03 2.188483238220214844e+01 3.950873565673828125e+01 8.821443771012127399e-06 -8.623098256066441536e-05 -2.322286127309780568e-05 2.319450431969016790e-04
2.168000000000000000e+03 1.147018623352050781e+01 2.819534873962402344e+01 -1.198006430058740079e-04 1.059916667145444080e-05 -3.276044299127534032e-05 -6.378097623382927850e-06
2.169000000000000000e+03 1.017103767395019531e+01 2.737728309631347656e+01 -8.239606540882959962e-05 -2.519437657610978931e-06 -2.547465010138694197e-05 -2.946793244973378023e-07
2.170000000000000000e+03 6.064648628234863281e+00 1.187263011932373047e+01 -1.524824074294883758e-05 7.551256203441880643e-06 -2.309095407326822169e-06 -7.779588884204713395e-08
2.171000000000000000e+03 7.769607067108154297e+00 1.848876571655273438e+01 -1.548880572954658419e-05 3.900315277860499918e-06 -3.476547362879500724e-06 -5.638464244839269668e-06
2.172000000000000000e+03 2.481115722656250000e+01 -3.775556945800781250e+01 7.018092274665832520e-02 -1.622459650039672852e+00 -4.656836390495300293e-01 8.786901831626892090e-02
2.173000000000000000e+03 2.288349533081054688e+01 -2.089705848693847656e+01 4.294959455728530884e-02 -2.025898218154907227e+00 -5.948845744132995605e-01 -1.166900545358657837e-01
2.174000000000000000e+03 1.058093643188476562e+01 -3.399082565307617188e+01 1.895337551832199097e-02 -3.742202417925000191e-03 4.563351627439260483e-03 4.072509706020355225e-03
2.175000000000000000e+03 1.208117580413818359e+01 -3.461405563354492188e+01 3.100603632628917694e-02 7.877944735810160637e-04 9.538149461150169373e-03 -2.887441031634807587e-02
2.176000000000000000e+03 2.466365051269531250e+01 -2.522675323486328125e+01 4.208215698599815369e-02 -1.771762371063232422e+00 -5.189040303230285645e-01 -1.190755218267440796e-01
2.177000000000000000e+03 2.291469383239746094e+01 -2.666880989074707031e+01 1.896187849342823029e-02 -2.066972732543945312e+00 -6.144032478332519531e-01 -9.098312258720397949e-02
2.178000000000000000e+03 1.206513214111328125e+01 2.440393829345703125e+01 -8.945045556174591184e-05 -1.945997382790665142e-06 -2.741893695201724768e-05 -6.395279342541471124e-06
2.179000000000000000e+03 3.238778686523437500e+01 4.153299713134765625e+01 -2.576410537585616112e-03 5.148143391124904156e-04 -6.184788653627038002e-04 6.262692622840404510e-04
2.180000000000000000e+03 4.324709320068359375e+01 3.754534530639648438e+01 -5.219400394707918167e-03 -3.105215169489383698e-02 -1.088146585971117020e-02 2.607305906713008881e-02
2.181000000000000000e+03 3.462629318237304688e+01 3.841226196289062500e+01 -1.586587401106953621e-03 3.395588719286024570e-04 -3.741085820365697145e-04 -5.459429230540990829e-04
2.182000000000000000e+03 7.200872802734375000e+01 2.884433174133300781e+01 3.868126869201660156e-02 9.223227500915527344e+00 2.778572559356689453e+00 5.943591117858886719e+00
2.183000000000000000e+03 7.144965362548828125e+01 3.374674606323242188e+01 5.150224566459655762e-01 6.963729381561279297e+00 2.243625640869140625e+00 -4.098502159118652344e+00
2.184000000000000000e+03 7.150636291503906250e+01 3.323664855957031250e+01 8.786183595657348633e-01 6.554660320281982422e+00 2.229983568191528320e+00 -4.525803565979003906e+00
2.185000000000000000e+03 7.205850219726562500e+01 3.285161972045898438e+01 6.842039823532104492e-01 9.620253562927246094e+00 3.091337203979492188e+00 -5.512377738952636719e+00
2.186000000000000000e+03 7.250976562500000000e+01 2.870734024047851562e+01 -9.692748188972473145e-01 1.287807559967041016e+01 3.572640180587768555e+00 5.453375339508056641e+00
2.187000000000000000e+03 7.343005371093750000e+01 2.845355796813964844e+01 -1.801514863967895508e+00 1.651750373840332031e+01 4.414796352386474609e+00 2.158545970916748047e+00
2.188000000000000000e+03 7.271340942382812500e+01 2.858440971374511719e+01 -1.394647836685180664e+00 1.397156238555908203e+01 3.773074388504028320e+00 4.732999801635742188e+00
2.189000000000000000e+03 7.253173828125000000e+01 3.355992889404296875e+01 -7.112020254135131836e-01 1.225330162048339844e+01 3.462630033493041992e+00 -4.211464881896972656e+00
2.190000000000000000e+03 7.458494567871093750e+01 3.298358917236328125e+01 2.282430678606033325e-01 1.645709609985351562e+01 5.005601882934570312e+00 1.720758199691772461e+00
2.191000000000000000e+03 7.289708709716796875e+01 3.342874908447265625e+01 -1.129758954048156738e+00 1.425374317169189453e+01 3.937195301055908203e+00 -3.550360918045043945e+00
2.192000000000000000e+03 7.515227508544921875e+01 3.158922195434570312e+01 4.793211460113525391e+00 1.463193035125732422e+01 5.827542304992675781e+00 1.913717865943908691e+00
2.193000000000000000e+03 7.649466705322265625e+01 3.047110939025878906e+01 2.913948297500610352e+00 1.134399604797363281e+01 4.277383327484130859e+00 -7.007517218589782715e-01
2.194000000000000000e+03 7.494329071044921875e+01 2.995476341247558594e+01 4.438060283660888672e+00 1.562041568756103516e+01 6.017542839050292969e+00 -2.320843696594238281e+00
2.195000000000000000e+03 7.631777191162109375e+01 2.903537940979003906e+01 1.512455463409423828e+00 1.242102527618408203e+01 4.180044174194335938e+00 -2.056088447570800781e+00
2.196000000000000000e+03 7.572410583496093750e+01 3.136832427978515625e+01 4.199905872344970703e+00 1.287541294097900391e+01 5.122595787048339844e+00 1.098054409027099609e+00
2.197000000000000000e+03 7.572600555419921875e+01 3.178821754455566406e+01 3.717233419418334961e+00 1.330662345886230469e+01 5.107157230377197266e+00 1.851497411727905273e+00
2.198000000000000000e+03 7.444022369384765625e+01 3.215996932983398438e+01 2.901884317398071289e+00 1.800699424743652344e+01 6.272663593292236328e+00 2.588788986206054688e+00
2.199000000000000000e+03 7.400669097900390625e+01 2.878549766540527344e+01 -8.924094438552856445e-01 1.770818328857421875e+01 5.044732093811035156e+00 -1.824221909046173096e-01
2.200000000000000000e+03 7.530577087402343750e+01 3.014008522033691406e+01 4.508516788482666016e+00 1.429671859741210938e+01 5.641570568084716797e+00 -1.763146162033081055e+00
2.201000000000000000e+03 7.593267059326171875e+01 3.054745101928710938e+01 3.978162527084350586e+00 1.246948623657226562e+01 4.934294700622558594e+00 -6.689168214797973633e-01
2.202000000000000000e+03 7.553769683837890625e+01 3.055292701721191406e+01 4.858971118927001953e+00 1.329406452178955078e+01 5.445910930633544922e+00 -7.545456886291503906e-01
2.203000000000000000e+03 7.621534729003906250e+01 3.139904403686523438e+01 3.668481826782226562e+00 1.172493553161621094e+01 4.618025302886962891e+00 1.004619836807250977e+00
2.204000000000000000e+03 6.995033264160156250e+01 2.813208389282226562e+01 -4.116204082965850830e-01 2.398164033889770508e+00 5.959630608558654785e-01 2.699048519134521484e+00
2.205000000000000000e+03 7.126725006103515625e+01 2.846892166137695312e+01 8.588802814483642578e-02 5.480977535247802734e+00 1.670059680938720703e+00 4.656111240386962891e+00
2.206000000000000000e+03 6.964784240722656250e+01 2.870759391784667969e+01 -1.006276369094848633e+00 1.367782831192016602e+00 1.084519401192665100e-01 1.852690577507019043e+00
2.207000000000000000e+03 7.017261505126953125e+01 3.375707626342773438e+01 6.744539141654968262e-01 3.122259378433227539e+00 1.139014005661010742e+00 -2.471424102783203125e+00
2.208000000000000000e+03 7.119871520996093750e+01 3.318828964233398438e+01 1.062905073165893555e+00 5.195284366607666016e+00 1.877456903457641602e+00 -4.121567726135253906e+00
2.209000000000000000e+03 6.890027618408203125e+01 2.820910453796386719e+01 -1.216255784034729004e+00 1.063078641891479492e+00 -4.595315083861351013e-02 1.574138522148132324e+00
2.210000000000000000e+03 7.013802337646484375e+01 2.887249565124511719e+01 -7.822174429893493652e-01 1.552899599075317383e+00 2.312046736478805542e-01 2.293305635452270508e+00
2.211000000000000000e+03 6.893334197998046875e+01 2.714337158203125000e+01 -5.135781764984130859e-01 2.104912996292114258e+00 4.774004518985748291e-01 2.170668601989746094e+00
2.212000000000000000e+03 6.421164703369140625e+01 2.699754714965820312e+01 -1.903662443161010742e+00 2.164048999547958374e-01 -5.061773061752319336e-01 1.539046019315719604e-01
2.213000000000000000e+03 6.493304443359375000e+01 2.694969749450683594e+01 -1.720596909523010254e+00 3.166906237602233887e-01 -4.211718738079071045e-01 3.099348545074462891e-01
2.214000000000000000e+03 2.705911254882812500e+01 3.104169654846191406e+01 -9.789705276489257812e-02 -3.762231767177581787e-02 -4.065581038594245911e-02 -8.703968673944473267e-02
2.215000000000000000e+03 3.822900533676147461e+00 4.550813674926757812e+00 1.328235703113023192e-05 -2.757408537945593707e-06 3.157484570692759007e-06 -1.784358755685389042e-05
2.216000000000000000e+03 4.589965343475341797e+00 4.352330684661865234e+00 -8.931177035265136510e-06 -6.948763711989158764e-06 -4.763982360600493848e-06 8.006779353308957070e-06
2.217000000000000000e+03 5.343729019165039062e+00 4.924402713775634766e+00 -1.828014319471549243e-05 -2.282067725900560617e-06 -6.168663276184815913e-06 6.456243113461823668e-07
2.218000000000000000e+03 6.719731330871582031e+00 4.110815525054931641e+00 1.392399553878931329e-05 5.576615876634605229e-06 5.850183242728235200e-06 -2.775594339254894294e-06
2.219000000000000000e+03 2.437858581542968750e+01 2.921085929870605469e+01 -4.572811350226402283e-02 -7.659506797790527344e-02 -3.669695556163787842e-02 -7.973041385412216187e-02
2.220000000000000000e+03 1.105060100555419922e+01 4.111448764801025391e+00 1.017435806716093794e-05 9.012435839395038784e-06 5.756038262916263193e-06 7.025760169199202210e-06
2.221000000000000000e+03 8.914286613464355469e+00 5.808750629425048828e+00 -1.998187508434057236e-05 -7.994011639311793260e-07 -6.234382908587576821e-06 7.661205927433911711e-06
2.222000000000000000e+03 7.420892715454101562e+00 4.085340976715087891e+00 -1.377039734506979585e-05 -5.719432465411955491e-06 -5.846949079568730667e-06 3.437209443291067146e-06
2.223000000000000000e+03 8.160735130310058594e+00 4.860597133636474609e+00 -1.515271196694811806e-05 -5.970613074168795720e-06 -6.336997557809809223e-06 6.277801276155514643e-06
2.224000000000000000e+03 6.481384277343750000e+01 3.609965896606445312e+01 4.067068397998809814e-01 5.091907978057861328e-01 2.747692763805389404e-01 1.250514239072799683e-01
2.225000000000000000e+03 5.966977310180664062e+01 3.907094192504882812e+01 6.369978189468383789e-01 -2.334378212690353394e-01 1.210679933428764343e-01 3.491249084472656250e-01
2.226000000000000000e+03 2.990955162048339844e+01 3.089981460571289062e+01 -1.920833140611648560e-01 -1.722561568021774292e-02 -6.279268115758895874e-02 -1.353798657655715942e-01
2.227000000000000000e+03 8.945256233215332031e+00 -4.136891841888427734e+00 6.001728470437228680e-04 3.545399231370538473e-04 2.864138223230838776e-04 -5.382987728808075190e-05
2.228000000000000000e+03 6.861643981933593750e+01 3.526593017578125000e+01 6.593461632728576660e-01 2.094485759735107422e+00 8.261495828628540039e-01 -1.195484638214111328e+00
2.229000000000000000e+03 2.777846908569335938e+01 3.103044509887695312e+01 -1.187420785427093506e-01 -3.335920348763465881e-02 -4.563038423657417297e-02 -9.920165687799453735e-02
2.230000000000000000e+03 2.920132255554199219e+01 3.095368003845214844e+01 -1.656352877616882324e-01 -2.306741103529930115e-02 -5.661081150174140930e-02 -1.234169006347656250e-01
2.231000000000000000e+03 3.130950546264648438e+01 3.075351142883300781e+01 -2.505311369895935059e-01 -4.595771431922912598e-03 -7.653807848691940308e-02 -1.584126651287078857e-01
2.232000000000000000e+03 3.200956726074218750e+01 3.066039276123046875e+01 -2.832309305667877197e-01 1.936306362040340900e-03 -8.438839018344879150e-02 -1.702028959989547729e-01
2.233000000000000000e+03 8.228984832763671875e+00 -4.164507389068603516e+00 -7.384763448499143124e-04 -3.003966994583606720e-04 -3.116619191132485867e-04 -6.387230678228661418e-05
2.234000000000000000e+03 1.143845081329345703e+01 -9.120395660400390625e+00 1.397795742377638817e-03 4.986135172657668591e-04 5.689227837137877941e-04 -5.918567767366766930e-04
2.235000000000000000e+03 3.061124420166015625e+01 3.083247375488281250e+01 -2.202702909708023071e-01 -1.073808781802654266e-02 -6.930251419544219971e-02 -1.468162983655929565e-01
2.236000000000000000e+03 6.703247833251953125e+01 3.639746856689453125e+01 7.039467692375183105e-01 1.363942503929138184e+00 6.203667521476745605e-01 -5.081045627593994141e-01
2.237000000000000000e+03 6.412397766113281250e+01 3.713551330566406250e+01 6.231368780136108398e-01 4.759746193885803223e-01 3.297334313392639160e-01 1.543890982866287231e-01
2.238000000000000000e+03 2.849050712585449219e+01 3.099580383300781250e+01 -1.414426565170288086e-01 -2.889540232717990875e-02 -5.110141634941101074e-02 -1.117650419473648071e-01
2.239000000000000000e+03 6.061711120605468750e+01 3.739560699462890625e+01 4.027565121650695801e-01 -1.740452647209167480e-02 1.156055927276611328e-01 4.837109148502349854e-01
2.240000000000000000e+03 3.918250274658203125e+01 2.930731391906738281e+01 -7.355369329452514648e-01 5.691419541835784912e-02 -2.035868167877197266e-01 -2.858359515666961670e-01
2.241000000000000000e+03 3.271178817749023438e+01 3.055084228515625000e+01 -3.184597492218017578e-01 8.225584402680397034e-03 -9.307025372982025146e-02 -1.820287108421325684e-01
2.242000000000000000e+03 3.707382965087890625e+01 3.040893363952636719e+01 -5.789273977279663086e-01 4.378604888916015625e-02 -1.605424135923385620e-01 -2.064155042171478271e-01
2.243000000000000000e+03 3.846530532836914062e+01 2.943984794616699219e+01 -6.824985146522521973e-01 5.330950021743774414e-02 -1.887567192316055298e-01 -2.760644257068634033e-01
2.244000000000000000e+03 3.989562988281250000e+01 2.916756057739257812e+01 -7.898748517036437988e-01 6.046508252620697021e-02 -2.188229262828826904e-01 -2.970249950885772705e-01
2.245000000000000000e+03 1.090523147583007812e+01 4.942585468292236328e+00 -8.699174941284582019e-06 -9.639040399633813649e-06 -5.501464784174459055e-06 -5.270760084385983646e-06
2.246000000000000000e+03 3.633968734741210938e+01 3.054815483093261719e+01 -5.270662903785705566e-01 3.934653103351593018e-02 -1.463159173727035522e-01 -1.978056728839874268e-01
2.247000000000000000e+03 4.216280364990234375e+01 2.940714454650878906e+01 -9.991011619567871094e-01 6.329756975173950195e-02 -2.807410657405853271e-01 -2.658328115940093994e-01
2.248000000000000000e+03 3.341489791870117188e+01 3.042663383483886719e+01 -3.556713759899139404e-01 1.432986371219158173e-02 -1.024024486541748047e-01 -1.943849623203277588e-01
2.249000000000000000e+03 6.755523204803466797e+00 -4.959082603454589844e+00 9.994741994887590408e-04 3.247323620598763227e-04 3.972619888372719288e-04 4.553840844891965389e-04
2.250000000000000000e+03 4.565540313720703125e+00 -3.950741529464721680e+00 1.590788015164434910e-03 -2.044164430117234588e-04 4.159114614594727755e-04 -1.764925546012818813e-04
2.251000000000000000e+03 4.953692913055419922e+00 -7.547464370727539062e+00 -1.460583531297743320e-03 -3.624139062594622374e-04 -5.468992167152464390e-04 -2.741032767517026514e-05
2.252000000000000000e+03 4.207106018066406250e+01 2.871599388122558594e+01 -9.635049104690551758e-01 6.673911213874816895e-02 -2.690297365188598633e-01 -3.313710987567901611e-01
2.253000000000000000e+03 4.500597381591796875e+01 2.743560981750488281e+01 -1.141500830650329590e+00 6.883025169372558594e-02 -3.218011856079101562e-01 -4.405253231525421143e-01
2.254000000000000000e+03 3.411988830566406250e+01 3.029159545898437500e+01 -3.956823050975799561e-01 2.051446773111820221e-02 -1.125503480434417725e-01 -2.067791968584060669e-01
2.255000000000000000e+03 3.482974243164062500e+01 3.014932441711425781e+01 -4.373881220817565918e-01 2.633746527135372162e-02 -1.233151927590370178e-01 -2.191215157508850098e-01
2.256000000000000000e+03 6.192146301269531250e+01 2.566817855834960938e+01 -1.433071494102478027e+00 2.176269292831420898e-01 -3.646333813667297363e-01 -2.351990528404712677e-02
2.257000000000000000e+03 4.061537551879882812e+01 2.902161979675292969e+01 -8.467297554016113281e-01 6.324706971645355225e-02 -2.350448071956634521e-01 -3.080259561538696289e-01
2.258000000000000000e+03 4.823916625976562500e+01 2.831021118164062500e+01 -1.575363993644714355e+00 4.773814231157302856e-02 -4.582877457141876221e-01 -3.329224884510040283e-01
2.259000000000000000e+03 4.517482757568359375e+01 2.882593345642089844e+01 -1.281154274940490723e+00 6.185437366366386414e-02 -3.657899498939514160e-01 -3.013965785503387451e-01
2.260000000000000000e+03 5.514496612548828125e+01 2.749877929687500000e+01 -2.164457798004150391e+00 1.357745029963552952e-03 -6.489299535751342773e-01 -3.567115366458892822e-01
2.261000000000000000e+03 5.892350006103515625e+01 2.650311088562011719e+01 -1.969707608222961426e+00 2.911503799259662628e-02 -5.821777582168579102e-01 -3.150764405727386475e-01
2.262000000000000000e+03 3.700911712646484375e+01 2.971203422546386719e+01 -5.789039134979248047e-01 4.337455332279205322e-02 -1.606588065624237061e-01 -2.546478807926177979e-01
2.263000000000000000e+03 4.901887512207031250e+01 2.819317436218261719e+01 -1.650399327278137207e+00 4.242173954844474792e-02 -4.823932945728302002e-01 -3.390485346317291260e-01
2.264000000000000000e+03 4.357587432861328125e+01 2.841396713256835938e+01 -1.087013006210327148e+00 6.800752133131027222e-02 -3.057016432285308838e-01 -3.538305461406707764e-01
2.265000000000000000e+03 7.486622333526611328e+00 -4.166498184204101562e+00 7.748645730316638947e-04 2.538507105782628059e-04 3.086145734414458275e-04 1.510228612460196018e-04
2.266000000000000000e+03 7.785492897033691406e+00 -6.389456748962402344e+00 -9.814766235649585724e-05 3.844736493192613125e-04 8.589780190959572792e-05 -6.646323017776012421e-04
2.267000000000000000e+03 5.135496902465820312e+01 2.859639549255371094e+01 -2.025766611099243164e+00 2.017717435956001282e-02 -6.016768217086791992e-01 -2.645990848541259766e-01
2.268000000000000000e+03 1.240244483947753906e+01 6.333121299743652344e+00 1.786011489457450807e-05 6.092519470257684588e-06 7.185790309449657798e-06 1.231241185450926423e-05
2.269000000000000000e+03 4.433544921875000000e+01 2.827009391784667969e+01 -1.150205612182617188e+00 6.782984733581542969e-02 -3.247127234935760498e-01 -3.645825386047363281e-01
2.270000000000000000e+03 6.731896877288818359e+00 -4.160388946533203125e+00 -9.275292395614087582e-04 -1.644526200834661722e-04 -3.275945491623133421e-04 -2.781403309199959040e-04
2.271000000000000000e+03 6.807408809661865234e+00 -5.785543441772460938e+00 -1.127754803746938705e-03 -2.589528448879718781e-04 -4.160122771281749010e-04 -5.900064134038984776e-04
2.272000000000000000e+03 5.982890605926513672e+00 -4.137044906616210938e+00 1.188846305012702942e-03 -9.795486221264582127e-06 3.537152369972318411e-04 2.844090631697326899e-04
2.273000000000000000e+03 5.168220520019531250e+00 -4.830002307891845703e+00 1.549934037029743195e-03 2.474763823556713760e-05 4.724044993054121733e-04 2.011867036344483495e-04
2.274000000000000000e+03 6.046030044555664062e+01 2.642896461486816406e+01 -1.915830731391906738e+00 6.555784493684768677e-02 -5.550819039344787598e-01 -2.242914587259292603e-01
2.275000000000000000e+03 4.133891677856445312e+01 2.887004661560058594e+01 -9.040531516075134277e-01 6.514671444892883301e-02 -2.516719400882720947e-01 -3.195542097091674805e-01
2.276000000000000000e+03 6.566240692138671875e+01 2.689088821411132812e+01 -1.468072891235351562e+00 4.932191371917724609e-01 -2.924561500549316406e-01 5.427346825599670410e-01
2.277000000000000000e+03 5.818991470336914062e+01 2.724439811706542969e+01 -2.291813373565673828e+00 -2.923733321949839592e-03 -6.884211301803588867e-01 -3.207342624664306641e-01
2.278000000000000000e+03 5.587345504760742188e+01 2.673867988586425781e+01 -1.952205181121826172e+00 9.888761676847934723e-03 -5.826949477195739746e-01 -4.036335051059722900e-01
2.279000000000000000e+03 5.739198303222656250e+01 2.660577964782714844e+01 -1.978129506111145020e+00 1.297364942729473114e-02 -5.895467400550842285e-01 -3.714636266231536865e-01
2.280000000000000000e+03 5.134053802490234375e+01 2.789209556579589844e+01 -1.866194605827331543e+00 2.678431384265422821e-02 -5.518230795860290527e-01 -3.528129160404205322e-01
2.281000000000000000e+03 1.260954475402832031e+01 -5.315073490142822266e+00 1.269309199415147305e-03 2.689269022084772587e-04 4.614708304870873690e-04 -4.053217126056551933e-04
2.282000000000000000e+03 4.663427352905273438e+01 2.786260986328125000e+01 -1.341945171356201172e+00 6.112677603960037231e-02 -3.842455148696899414e-01 -3.939456939697265625e-01
2.283000000000000000e+03 6.271249389648437500e+01 2.635337066650390625e+01 -1.713904619216918945e+00 1.825571209192276001e-01 -4.594042301177978516e-01 1.117630116641521454e-02
2.284000000000000000e+03 5.742770004272460938e+01 2.729888725280761719e+01 -2.272022962570190430e+00 -3.818582743406295776e-03 -6.827524900436401367e-01 -3.352062404155731201e-01
2.285000000000000000e+03 5.209917449951171875e+01 2.780824661254882812e+01 -1.934644937515258789e+00 2.147663384675979614e-02 -5.739504694938659668e-01 -3.570550680160522461e-01
2.286000000000000000e+03 5.435277175903320312e+01 2.688814735412597656e+01 -1.895447254180908203e+00 1.587982475757598877e-02 -5.638702511787414551e-01 -4.202810525894165039e-01
2.287000000000000000e+03 4.789543533325195312e+01 3.610717773437500000e+01 -4.049543291330337524e-02 -6.551339477300643921e-02 -3.180265054106712341e-02 1.043199598789215088e-01
2.288000000000000000e+03 1.027096176147460938e+01 7.922901153564453125e+00 -2.736071564868325368e-06 -5.079110678707365878e-07 -9.731948011904023588e-07 -1.184522261610254645e-05
2.289000000000000000e+03 5.969188308715820312e+01 2.646301651000976562e+01 -1.948909401893615723e+00 4.597025737166404724e-02 -5.708817243576049805e-01 -2.746965289115905762e-01
2.290000000000000000e+03 6.714820098876953125e+01 3.547380447387695312e+01 5.748923420906066895e-01 1.041529655456542969e+00 4.849266111850738525e-01 -4.767234623432159424e-01
2.291000000000000000e+03 6.637076568603515625e+01 2.699342536926269531e+01 -1.347958803176879883e+00 6.224070191383361816e-01 -2.176655381917953491e-01 7.571078538894653320e-01
2.292000000000000000e+03 5.538082122802734375e+01 3.987845993041992188e+01 3.621536791324615479e-01 -2.968757748603820801e-01 1.958337239921092987e-02 1.856668442487716675e-01
2.293000000000000000e+03 4.596950149536132812e+01 4.032456970214843750e+01 3.506653010845184326e-02 -8.802350610494613647e-02 -1.588709279894828796e-02 2.947827801108360291e-02
2.294000000000000000e+03 7.630270385742187500e+01 3.100155830383300781e+01 3.172932147979736328e+00 1.155409049987792969e+01 4.418106555938720703e+00 4.690776169300079346e-01
2.295000000000000000e+03 7.672827911376953125e+01 3.411638259887695312e+01 -1.704149991273880005e-01 1.178064250946044922e+01 3.483068227767944336e+00 2.128987073898315430e+00
2.296000000000000000e+03 7.547853851318359375e+01 2.938107490539550781e+01 2.197803258895874023e+00 1.403050899505615234e+01 4.868493556976318359e+00 -2.257938385009765625e+00
2.297000000000000000e+03 2.565422821044921875e+01 3.194772529602050781e+01 -5.679241195321083069e-02 -2.863933145999908447e-02 -2.562952227890491486e-02 -4.631561785936355591e-02
2.298000000000000000e+03 9.447454452514648438e+00 4.637103557586669922e+00 -6.369503353198524565e-06 -1.053797041095094755e-05 -5.072241947345901281e-06 -3.236810016460367478e-06
2.299000000000000000e+03 1.175527572631835938e+01 5.092781066894531250e+00 1.330867326032603160e-05 7.751968041702639312e-06 6.318192390608601272e-06 9.505373782303649932e-06
2.300000000000000000e+03 2.451786231994628906e+01 -1.235013723373413086e+00 1.087298151105642319e-02 -1.517899513244628906e+00 -4.521079659461975098e-01 -2.570058405399322510e-01
2.301000000000000000e+03 2.590617942810058594e+01 1.558728814125061035e+00 3.772315103560686111e-03 -1.278699159622192383e+00 -3.824780285358428955e-01 -3.172279298305511475e-01
2.302000000000000000e+03 2.783320665359497070e+00 6.281012058258056641e+00 -2.728796971496194601e-05 -7.485085006919689476e-06 -1.043191605276660994e-05 4.116280251764692366e-06
2.303000000000000000e+03 2.601135253906250000e+01 -1.797040367126464844e+01 3.916566818952560425e-02 -1.573106408119201660e+00 -4.601822495460510254e-01 -1.398313343524932861e-01
2.304000000000000000e+03 2.598806953430175781e+01 -1.656310844421386719e+01 1.401174068450927734e-02 -1.575395107269287109e+00 -4.684149920940399170e-01 -1.378372758626937866e-01
2.305000000000000000e+03 2.580867958068847656e+01 -3.814003944396972656e+00 3.371621295809745789e-02 -1.432924509048461914e+00 -4.197624921798706055e-01 -2.699205875396728516e-01
2.306000000000000000e+03 2.452717590332031250e+01 -8.057843208312988281e+00 2.025835402309894562e-02 -1.690346956253051758e+00 -5.010265707969665527e-01 -2.217008918523788452e-01
2.307000000000000000e+03 2.587964630126953125e+01 -5.154237270355224609e+00 3.686576709151268005e-02 -1.451592326164245605e+00 -4.244179725646972656e-01 -2.635245621204376221e-01
2.308000000000000000e+03 1.022043895721435547e+01 -1.561181449890136719e+01 -3.303218865767121315e-03 -6.777294038329273462e-05 -1.011297572404146194e-03 5.867235013283789158e-04
2.309000000000000000e+03 1.044945907592773438e+01 1.037035179138183594e+01 -2.624277840368449688e-05 8.310485100082587451e-07 -7.623518740729195997e-06 1.556226152388262562e-06
2.310000000000000000e+03 9.884084701538085938e+00 5.464489459991455078e+00 -1.059904752764850855e-05 -4.595968675857875496e-06 -4.558504770102445036e-06 2.358300292826243094e-07
2.311000000000000000e+03 1.096922874450683594e+01 1.741689682006835938e+01 -4.218757021590135992e-05 -1.186832378152757883e-05 -1.621676892682444304e-05 -9.752452569955494255e-06
2.312000000000000000e+03 1.110414314270019531e+01 1.370395278930664062e+01 3.834001472569070756e-05 2.225701109637157060e-06 1.216971486428519711e-05 2.901355173889896832e-06
2.313000000000000000e+03 7.476469421386718750e+01 3.639802169799804688e+01 -1.415048241615295410e+00 1.160036277770996094e+01 3.055594444274902344e+00 1.474410891532897949e-01
2.314000000000000000e+03 7.297803497314453125e+01 3.385576629638671875e+01 -1.318815708160400391e+00 1.356357955932617188e+01 3.673429250717163086e+00 -2.958425045013427734e+00
2.315000000000000000e+03 1.030354118347167969e+01 2.330176162719726562e+01 -5.343773591448552907e-05 -9.770870747161097825e-06 -1.896258254419080913e-05 1.113091002480359748e-05
2.316000000000000000e+03 1.094136238098144531e+01 1.976471710205078125e+01 -4.066206747666001320e-05 -6.495123216154752299e-06 -1.414715734426863492e-05 -2.047504131041932851e-05
2.317000000000000000e+03 1.138175010681152344e+01 -1.032101058959960938e+01 -1.517592347227036953e-03 -5.968977930024266243e-04 -6.343470304273068905e-04 8.558508707210421562e-04
2.318000000000000000e+03 1.110951995849609375e+01 -1.260398960113525391e+01 -1.381597947329282761e-03 -9.645582758821547031e-04 -7.038468611426651478e-04 1.037690439261496067e-03
2.319000000000000000e+03 2.585255050659179688e+01 2.032545804977416992e-01 1.056312862783670425e-02 -1.323837876319885254e+00 -3.939824402332305908e-01 -3.028420507907867432e-01
2.320000000000000000e+03 8.557822227478027344e+00 -3.472525024414062500e+01 2.853701822459697723e-02 -1.135182939469814301e-02 5.155556835234165192e-03 9.728388860821723938e-03
2.321000000000000000e+03 8.443057060241699219e+00 -3.048644638061523438e+01 7.880653254687786102e-03 -3.705132752656936646e-03 1.252656220458447933e-03 -5.402681999839842319e-04
2.322000000000000000e+03 2.595721244812011719e+01 -1.081155872344970703e+01 7.079682778567075729e-03 -1.525739789009094238e+00 -4.555980265140533447e-01 -2.161558568477630615e-01
2.323000000000000000e+03 2.451481246948242188e+01 -9.479022026062011719e+00 -3.833058581221848726e-04 -1.706961631774902344e+00 -5.122034549713134766e-01 -2.140717208385467529e-01
2.324000000000000000e+03 7.202853393554687500e+01 -3.114370155334472656e+01 3.078953176736831665e-02 5.080398559570312500e+00 1.533356428146362305e+00 4.383444786071777344e-02
2.325000000000000000e+03 7.475040435791015625e+01 -2.828063392639160156e+01 1.313515286892652512e-02 5.503489971160888672e+00 1.654987454414367676e+00 3.860021382570266724e-02
2.326000000000000000e+03 7.348030090332031250e+01 -2.878203010559082031e+01 2.042838744819164276e-02 5.313442230224609375e+00 1.600161194801330566e+00 5.921166390180587769e-02
2.327000000000000000e+03 2.597589302062988281e+01 -6.493219852447509766e+00 3.692004457116127014e-02 -1.472964286804199219e+00 -4.308132529258728027e-01 -2.562047541141510010e-01
2.328000000000000000e+03 7.627705383300781250e+01 2.691779518127441406e+01 -9.685214757919311523e-01 1.193074798583984375e+01 3.288667917251586914e+00 -1.499931812286376953e+00
2.329000000000000000e+03 7.518962860107421875e+01 2.004492187500000000e+01 -4.116422235965728760e-01 8.775828361511230469e+00 2.509255886077880859e+00 8.506962656974792480e-01
2.330000000000000000e+03 7.440383911132812500e+01 1.170180225372314453e+01 1.280072629451751709e-01 7.046322345733642578e+00 2.152298927307128906e+00 8.927581310272216797e-01
2.331000000000000000e+03 7.506214141845703125e+01 -2.092672157287597656e+01 1.546905562281608582e-02 5.630766391754150391e+00 1.693870663642883301e+00 7.021381705999374390e-02
2.332000000000000000e+03 7.344050598144531250e+01 -2.247097969055175781e+01 2.494487911462783813e-02 5.369271278381347656e+00 1.618264913558959961e+00 8.124277740716934204e-02
2.333000000000000000e+03 7.457501220703125000e+01 4.785420417785644531e+00 1.197382807731628418e-01 6.529346942901611328e+00 1.994725584983825684e+00 5.862817168235778809e-01
2.334000000000000000e+03 7.390055084228515625e+01 -2.421772003173828125e+00 9.575971961021423340e-02 5.928475379943847656e+00 1.807270526885986328e+00 3.808692693710327148e-01
2.335000000000000000e+03 7.523129272460937500e+01 -1.366491222381591797e+01 2.793543599545955658e-02 5.795503616333007812e+00 1.747031688690185547e+00 1.298796981573104858e-01
2.336000000000000000e+03 7.372702789306640625e+01 -1.510028076171875000e+01 4.357868432998657227e-02 5.516266822814941406e+00 1.667953610420227051e+00 1.491399109363555908e-01
2.337000000000000000e+03 7.544863891601562500e+01 -6.696305274963378906e+00 4.212516173720359802e-02 6.058227539062500000e+00 1.830105900764465332e+00 2.206210941076278687e-01
2.338000000000000000e+03 7.418144226074218750e+01 -8.002191543579101562e+00 6.026247888803482056e-02 5.783125877380371094e+00 1.753016471862792969e+00 2.437701970338821411e-01
2.339000000000000000e+03 7.402082824707031250e+01 -3.891016244888305664e+00 8.546186238527297974e-02 5.899828433990478516e+00 1.795587062835693359e+00 3.367609977722167969e-01
2.340000000000000000e+03 7.463781738281250000e+01 6.087401390075683594e+00 1.193489581346511841e-01 6.648535251617431641e+00 2.030365228652954102e+00 6.285207867622375488e-01
2.341000000000000000e+03 7.410354614257812500e+01 -5.297744750976562500e+00 7.312368601560592651e-02 5.862444877624511719e+00 1.780670523643493652e+00 3.009116947650909424e-01
2.342000000000000000e+03 7.412593841552734375e+01 -1.068941020965576172e+01 4.934452474117279053e-02 5.691792011260986328e+00 1.722340941429138184e+00 1.995607167482376099e-01
2.343000000000000000e+03 7.549674987792968750e+01 1.875315189361572266e+00 7.037778198719024658e-02 6.542177677154541016e+00 1.983766674995422363e+00 4.138513207435607910e-01
2.344000000000000000e+03 7.400137329101562500e+01 -1.209114265441894531e+01 4.455355554819107056e-02 5.633474826812744141e+00 1.703408479690551758e+00 1.838699132204055786e-01
2.345000000000000000e+03 7.379178619384765625e+01 -1.807703971862792969e+01 3.168423473834991455e-02 5.478518009185791016e+00 1.653060674667358398e+00 1.138071864843368530e-01
2.346000000000000000e+03 7.369055175781250000e+01 -1.953085327148437500e+01 3.068443387746810913e-02 5.441968441009521484e+00 1.641795873641967773e+00 1.008934676647186279e-01
2.347000000000000000e+03 7.359076690673828125e+01 -2.508098983764648438e+01 2.633425593376159668e-02 5.386341571807861328e+00 1.623802781105041504e+00 6.267388910055160522e-02
2.348000000000000000e+03 7.471078491210937500e+01 -2.671767044067382812e+01 2.078292332589626312e-02 5.510583400726318359e+00 1.659409880638122559e+00 4.211307317018508911e-02
2.349000000000000000e+03 7.576678466796875000e+01 8.729304313659667969e+00 8.707042038440704346e-02 7.250031948089599609e+00 2.201130628585815430e+00 6.328901052474975586e-01
2.350000000000000000e+03 7.381120300292968750e+01 1.916157531738281250e+01 -2.906863689422607422e-01 7.760392665863037109e+00 2.240911960601806641e+00 1.211351037025451660e+00
2.351000000000000000e+03 7.492130279541015625e+01 1.870217514038085938e+01 -2.272573113441467285e-01 8.278413772583007812e+00 2.415346860885620117e+00 9.825502634048461914e-01
2.352000000000000000e+03 7.415554809570312500e+01 -6.662261486053466797e+00 6.754413992166519165e-02 5.823526859283447266e+00 1.767321348190307617e+00 2.708585858345031738e-01
2.353000000000000000e+03 7.597428131103515625e+01 1.571572494506835938e+01 -1.280498504638671875e-02 8.283194541931152344e+00 2.481116771697998047e+00 8.141103386878967285e-01
2.354000000000000000e+03 7.387404632568359375e+01 7.012297511100769043e-01 1.167073398828506470e-01 6.068345069885253906e+00 1.855515718460083008e+00 4.817047417163848877e-01
2.355000000000000000e+03 7.444158172607421875e+01 3.477135181427001953e+00 1.162189841270446777e-01 6.398658275604248047e+00 1.954463124275207520e+00 5.460603237152099609e-01
2.356000000000000000e+03 7.421518707275390625e+01 2.130409955978393555e+00 1.169816404581069946e-01 6.247539043426513672e+00 1.909356236457824707e+00 5.170195102691650391e-01
2.357000000000000000e+03 7.378458404541015625e+01 -1.357056236267089844e+01 4.538983106613159180e-02 5.557749748229980469e+00 1.680941820144653320e+00 1.693037003278732300e-01
2.358000000000000000e+03 7.463619232177734375e+01 7.408332824707031250e+00 1.298978477716445923e-01 6.754752159118652344e+00 2.065395116806030273e+00 6.797353029251098633e-01
2.359000000000000000e+03 7.356042480468750000e+01 -2.098408508300781250e+01 2.413553930819034576e-02 5.401449203491210938e+00 1.627675414085388184e+00 9.126365184783935547e-02
2.360000000000000000e+03 7.366028594970703125e+01 -2.996255874633789062e+01 1.564609445631504059e-02 5.337072372436523438e+00 1.605815649032592773e+00 4.804392158985137939e-02
2.361000000000000000e+03 7.489709472656250000e+01 -3.294465637207031250e+01 -2.579123945906758308e-03 5.502830028533935547e+00 1.650075316429138184e+00 1.830277964472770691e-02
2.362000000000000000e+03 7.650746917724609375e+01 2.236553382873535156e+01 -6.176146864891052246e-01 9.959846496582031250e+00 2.802669525146484375e+00 1.510657966136932373e-01
2.363000000000000000e+03 7.437689971923828125e+01 1.022959804534912109e+01 1.471212804317474365e-01 6.895054340362548828e+00 2.112652540206909180e+00 8.345078825950622559e-01
2.364000000000000000e+03 7.455368804931640625e+01 8.773493766784667969e+00 1.387786567211151123e-01 6.832148551940917969e+00 2.091278314590454102e+00 7.431277036666870117e-01
2.365000000000000000e+03 7.306579589843750000e+01 -3.535452651977539062e+01 6.972885690629482269e-03 5.244192123413085938e+00 1.575349569320678711e+00 1.679470203816890717e-02
2.366000000000000000e+03 7.480025482177734375e+01 1.445089054107666016e+01 6.413566321134567261e-02 7.544881820678710938e+00 2.282705307006835938e+00 9.509540200233459473e-01
2.367000000000000000e+03 7.481441497802734375e+01 1.725631713867187500e+01 -9.014578163623809814e-02 7.952893733978271484e+00 2.358824491500854492e+00 1.010519146919250488e+00
2.368000000000000000e+03 7.485694885253906250e+01 1.582162952423095703e+01 8.907192386686801910e-03 7.747596263885498047e+00 2.326951026916503906e+00 9.788395762443542480e-01
2.369000000000000000e+03 1.178319835662841797e+01 -2.143190193176269531e+01 -1.036164350807666779e-03 -9.188994299620389938e-04 -5.865191342309117317e-04 2.962340367957949638e-03
2.370000000000000000e+03 1.145360660552978516e+01 3.164794731140136719e+01 1.933777093654498458e-04 -5.209282244322821498e-05 4.238546534907072783e-05 -5.631326712318696082e-05
2.371000000000000000e+03 7.560717010498046875e+01 2.241514587402343750e+01 -8.323112130165100098e-01 9.725218772888183594e+00 2.667872428894042969e+00 4.548300206661224365e-01
2.372000000000000000e+03 2.604866409301757812e+01 1.003996467590332031e+01 -6.305555347353219986e-03 -9.181866645812988281e-01 -2.773476541042327881e-01 -3.982095420360565186e-01
2.373000000000000000e+03 5.948484420776367188e+00 -2.634334754943847656e+01 -1.097993925213813782e-03 -3.794431453570723534e-03 -1.467727590352296829e-03 1.246189640369266272e-04
2.374000000000000000e+03 4.444102764129638672e+00 2.698207664489746094e+01 -7.290580833796411753e-05 1.196123662339232396e-06 -2.151290573237929493e-05 -1.674402119533624500e-05
2.375000000000000000e+03 6.020825862884521484e+00 2.973797798156738281e+01 9.144546493189409375e-05 -1.973251528397668153e-06 2.684166429389733821e-05 8.378336133318953216e-06
2.376000000000000000e+03 2.570493698120117188e+01 2.128772163391113281e+01 -5.148665606975555420e-02 -3.586538732051849365e-01 -1.230421587824821472e-01 -2.969632744789123535e-01
2.377000000000000000e+03 2.584958839416503906e+01 1.852173995971679688e+01 -3.674897179007530212e-02 -4.889008700847625732e-01 -1.576949506998062134e-01 -3.455078005790710449e-01
2.378000000000000000e+03 2.578593444824218750e+01 1.991049957275390625e+01 -4.528445750474929810e-02 -4.221298396587371826e-01 -1.402242928743362427e-01 -3.233872056007385254e-01
2.379000000000000000e+03 2.595483207702636719e+01 2.946240901947021484e+00 -7.952847518026828766e-03 -1.222615003585815430e+00 -3.691703677177429199e-01 -3.332444429397583008e-01
2.380000000000000000e+03 2.603507232666015625e+01 1.146407222747802734e+01 -7.327469997107982635e-03 -8.489373922348022461e-01 -2.568794488906860352e-01 -3.981800079345703125e-01
2.381000000000000000e+03 2.601137924194335938e+01 1.288474559783935547e+01 -9.582678787410259247e-03 -7.763535976409912109e-01 -2.357808798551559448e-01 -3.942843675613403320e-01
2.382000000000000000e+03 2.605412101745605469e+01 8.610850334167480469e+00 -9.446353651583194733e-03 -9.859145879745483398e-01 -2.986082732677459717e-01 -3.944133520126342773e-01
2.383000000000000000e+03 1.444044017791748047e+01 -2.892495727539062500e+01 -1.528775691986083984e-02 -3.420677501708269119e-03 -5.612530279904603958e-03 1.952759921550750732e-03
2.384000000000000000e+03 2.473617362976074219e+01 1.565578651428222656e+01 -1.417305320501327515e-02 -6.797109842300415039e-01 -2.081651985645294189e-01 -3.106231689453125000e-01
2.385000000000000000e+03 3.055864143371582031e+01 1.733706665039062500e+01 -8.312198519706726074e-02 -3.871538043022155762e-01 -1.410827338695526123e-01 -5.596469044685363770e-01
2.386000000000000000e+03 6.256045818328857422e+00 2.400434494018554688e+01 -2.804823634505737573e-05 -8.452626389043871313e-06 -1.095025891117984429e-05 6.863981980131939054e-06
2.387000000000000000e+03 8.336319923400878906e+00 2.276678085327148438e+01 -3.921729876310564578e-05 6.115827545727370307e-06 -9.930441592587158084e-06 2.031658368650823832e-05
2.388000000000000000e+03 6.291149616241455078e+00 -1.114309883117675781e+01 -1.629761420190334320e-03 -4.723646270576864481e-04 -6.306378054432570934e-04 7.225378794828429818e-05
2.389000000000000000e+03 5.065507411956787109e+00 -1.101581478118896484e+01 1.684931223280727863e-03 4.451121785677969456e-04 6.390130147337913513e-04 1.324462500633671880e-04
2.390000000000000000e+03 2.532378578186035156e+01 2.652003288269042969e+01 -6.689932197332382202e-02 -1.531152427196502686e-01 -6.600437313318252563e-02 -1.684873700141906738e-01
2.391000000000000000e+03 2.594190406799316406e+01 3.044315719604492188e+01 -7.260530441999435425e-02 -5.361685901880264282e-02 -3.786664828658103943e-02 -8.340206742286682129e-02
2.392000000000000000e+03 7.564803314208984375e+01 2.348946762084960938e+01 -1.087613701820373535e+00 1.028176403045654297e+01 2.758244991302490234e+00 2.278564423322677612e-01
2.393000000000000000e+03 7.542498779296875000e+01 2.127014541625976562e+01 -5.842621326446533203e-01 9.213540077209472656e+00 2.588783502578735352e+00 6.775658130645751953e-01
2.394000000000000000e+03 2.597931861877441406e+01 1.430222034454345703e+01 -1.555919274687767029e-02 -7.039123177528381348e-01 -2.158414423465728760e-01 -3.879058659076690674e-01
2.395000000000000000e+03 2.594196701049804688e+01 1.571612644195556641e+01 -2.128024958074092865e-02 -6.306075453758239746e-01 -1.955663412809371948e-01 -3.773461580276489258e-01
2.396000000000000000e+03 2.530453872680664062e+01 2.771722602844238281e+01 -6.826172769069671631e-02 -1.167952716350555420e-01 -5.551709979772567749e-02 -1.381025612354278564e-01
2.397000000000000000e+03 2.631045150756835938e+01 2.860465240478515625e+01 -9.483131021261215210e-02 -9.158792346715927124e-02 -5.592577159404754639e-02 -1.416805386543273926e-01
2.398000000000000000e+03 5.712015151977539062e+00 -2.239366531372070312e+01 3.461081534624099731e-03 -1.920744834933429956e-04 9.807021124288439751e-04 -1.071428530849516392e-03
2.399000000000000000e+03 9.817546844482421875e+00 2.632605934143066406e+01 6.463939644163474441e-05 1.295206129725556821e-05 2.327743641217239201e-05 -4.070916759246756556e-07
2.400000000000000000e+03 5.485066890716552734e+00 2.543012809753417969e+01 -6.905157351866364479e-05 -5.743895030718704220e-07 -2.088779001496732235e-05 -1.330556187895126641e-05
2.401000000000000000e+03 5.719218730926513672e+00 -1.688306045532226562e+01 1.958963694050908089e-03 7.103495299816131592e-04 8.007939904928207397e-04 -3.816573298536241055e-04
2.402000000000000000e+03 5.786325454711914062e+00 -1.480461215972900391e+01 -1.562493853271007538e-03 1.576877984916791320e-04 -4.214418295305222273e-04 -4.849607066716998816e-04
2.403000000000000000e+03 4.420108318328857422e+00 -1.926782989501953125e+01 -3.580116434022784233e-03 -4.671011993195861578e-04 -1.214165356941521168e-03 -1.995745551539584994e-04
2.404000000000000000e+03 1.003603458404541016e+01 1.607482147216796875e+01 -3.040814044652506709e-05 -1.532299756945576519e-05 -1.371934104099636897e-05 -1.219305431732209399e-05
2.405000000000000000e+03 7.572531223297119141e+00 1.540832710266113281e+01 -8.913862984627485275e-06 2.268200842081569135e-05 4.130443812755402178e-06 9.656232577981427312e-06
2.406000000000000000e+03 7.170788288116455078e+00 -1.699129676818847656e+01 2.489327162038534880e-04 -2.483547141309827566e-04 1.733990870889101643e-07 1.503031817264854908e-04
2.407000000000000000e+03 4.921806335449218750e+00 -2.689184570312500000e+01 1.994685037061572075e-03 4.163486883044242859e-03 1.847451552748680115e-03 6.867726915515959263e-04
2.408000000000000000e+03 5.973865032196044922e+00 2.817161369323730469e+01 -8.062618144322186708e-05 -8.429845365753863007e-06 -2.671680886123795062e-05 -5.769618837803136557e-06
2.409000000000000000e+03 7.033502101898193359e+00 -2.623287773132324219e+01 -3.768859314732253551e-04 7.033701054751873016e-03 1.997044542804360390e-03 -3.769720438867807388e-03
2.410000000000000000e+03 2.655966758728027344e+01 2.399898147583007812e+01 -8.795381337404251099e-02 -2.342744171619415283e-01 -9.666847437620162964e-02 -2.753317058086395264e-01
2.411000000000000000e+03 2.539147758483886719e+01 2.526354217529296875e+01 -6.586559116840362549e-02 -1.963005363941192627e-01 -7.864984124898910522e-02 -2.011980563402175903e-01
2.412000000000000000e+03 4.020352840423583984e+00 -1.224645328521728516e+01 2.165894722566008568e-03 1.675368839642032981e-04 7.000294863246381283e-04 1.263839367311447859e-04
2.413000000000000000e+03 7.558454036712646484e+00 -1.114650440216064453e+01 1.385071664117276669e-03 1.867978426162153482e-04 4.715608374681323767e-04 3.010419313795864582e-04
2.414000000000000000e+03 6.449308872222900391e+00 2.235111045837402344e+01 -2.938158286269754171e-05 1.135421098297229037e-05 -5.408211563917575404e-06 3.735440986929461360e-05
2.415000000000000000e+03 6.417190074920654297e+00 1.861453628540039062e+01 -4.600232932716608047e-05 1.067262473952723667e-06 -1.348051955574192107e-05 -1.661659212004451547e-06
2.416000000000000000e+03 5.786916255950927734e+00 2.117418670654296875e+01 5.586052793660201132e-05 -8.859176887199282646e-06 1.410040567861869931e-05 -1.929058998939581215e-05
2.417000000000000000e+03 6.278550624847412109e+00 -2.141251182556152344e+01 -1.384903676807880402e-03 4.855949082411825657e-04 -2.697926247492432594e-04 2.030838979408144951e-03
2.418000000000000000e+03 5.614892482757568359e+00 -1.801362228393554688e+01 -3.141593886539340019e-03 -4.983430844731628895e-04 -1.091981073841452599e-03 4.375560965854674578e-04
2.419000000000000000e+03 6.317452430725097656e+00 3.440903854370117188e+01 -9.814071381697431207e-05 -1.098000120691722259e-05 -3.273621405242010951e-05 -6.130158726591616869e-05
2.420000000000000000e+03 5.425930023193359375e+00 1.706835937500000000e+01 -4.774858462042175233e-05 -8.849154255585744977e-06 -1.697932202660012990e-05 8.687039553478825837e-06
2.421000000000000000e+03 5.389244079589843750e+00 1.430999851226806641e+01 -4.537194399745203555e-05 -1.197365054395049810e-05 -1.720367799862287939e-05 -1.203251940751215443e-05
2.422000000000000000e+03 4.081696987152099609e+00 -2.833980941772460938e+01 4.739391617476940155e-03 2.086601685732603073e-03 2.047797897830605507e-03 1.796517637558281422e-03
2.423000000000000000e+03 6.344984054565429688e+00 -3.295976257324218750e+01 1.348832994699478149e-02 -7.716196705587208271e-04 3.815013216808438301e-03 5.214578937739133835e-03
2.424000000000000000e+03 9.592137336730957031e+00 -3.228416442871093750e+01 4.113022238016128540e-03 -7.511482108384370804e-03 -1.019537914544343948e-03 3.375841304659843445e-03
2.425000000000000000e+03 3.953866958618164062e+00 1.014115142822265625e+01 -3.606343670981004834e-05 -7.556803325314831454e-07 -1.104573493648786098e-05 8.972115210781339556e-06
2.426000000000000000e+03 9.301823616027832031e+00 1.095369434356689453e+01 2.553574267949443310e-05 1.776763156158267520e-06 8.193751455110032111e-06 -7.455145123458351009e-08
2.427000000000000000e+03 5.124485492706298828e+00 -1.221995925903320312e+01 -2.001633867621421814e-03 -4.006352974101901054e-04 -7.206807495094835758e-04 -3.846080217044800520e-04
2.428000000000000000e+03 4.965660572052001953e+00 -8.642727851867675781e+00 1.502730767242610455e-03 3.277712676208466291e-04 5.491506308317184448e-04 3.793844371102750301e-05
2.429000000000000000e+03 5.665953636169433594e+00 7.780609607696533203e+00 -1.261756551684811711e-05 -6.704060069750994444e-06 -5.796487585030263290e-06 -2.219164116468164138e-06
2.430000000000000000e+03 3.816757440567016602e+00 7.569762706756591797e+00 -2.375198164372704923e-05 -4.901836291537620127e-06 -8.596145562478341162e-06 1.346475710306549445e-05
2.431000000000000000e+03 5.577095508575439453e+00 9.168593406677246094e+00 -2.322133877896703780e-05 -5.169332553123240359e-07 -7.121481758076697588e-06 -1.684997005213517696e-05
2.432000000000000000e+03 7.783041000366210938e+00 -2.376292419433593750e+01 5.348010745365172625e-05 2.970396541059017181e-03 9.071630192920565605e-04 -3.026879858225584030e-03
2.433000000000000000e+03 1.054009628295898438e+01 -2.498379135131835938e+01 6.050826050341129303e-03 1.145621994510293007e-03 2.158934250473976135e-03 -5.310862325131893158e-04
2.434000000000000000e+03 9.384618759155273438e+00 -2.543556022644042969e+01 -5.422692745923995972e-03 -2.451739041134715080e-03 -2.362329512834548950e-03 3.103733994066715240e-03
2.435000000000000000e+03 1.114331340789794922e+01 1.489768695831298828e+01 -4.077323683304712176e-05 -5.148127911525079980e-06 -1.377640910504851490e-05 -5.334579327609390020e-06
2.436000000000000000e+03 5.990468025207519531e+00 -6.678186416625976562e+00 -1.395472791045904160e-03 -2.803186362143605947e-04 -5.027374136261641979e-04 -1.645333686610683799e-04
2.437000000000000000e+03 3.870564699172973633e+00 -7.350539207458496094e+00 1.519071985967457294e-03 3.256316995248198509e-04 5.534110823646187782e-04 -9.125829092226922512e-05
2.438000000000000000e+03 4.135783195495605469e+00 -5.389735698699951172e+00 1.537670032121241093e-03 2.919589460361748934e-04 5.488886963576078415e-04 -6.168277468532323837e-05
2.439000000000000000e+03 2.595142364501953125e+01 -1.227125358581542969e+01 6.326138973236083984e-03 -1.541767239570617676e+00 -4.606323242187500000e-01 -1.915825307369232178e-01
2.440000000000000000e+03 7.747866630554199219e+00 -2.884700012207031250e+01 3.197734244167804718e-03 -6.910024676471948624e-03 -1.113687176257371902e-03 6.755475769750773907e-04
2.441000000000000000e+03 2.473455047607421875e+01 4.292395114898681641e+00 -2.951831929385662079e-02 -1.299023747444152832e+00 -3.985626101493835449e-01 -2.991661131381988525e-01
2.442000000000000000e+03 2.604745864868164062e+01 7.181541919708251953e+00 -1.279263477772474289e-02 -1.048386573791503906e+00 -3.183537423610687256e-01 -3.859077990055084229e-01
2.443000000000000000e+03 7.076434326171875000e+01 3.423020172119140625e+01 5.798999071121215820e-01 5.029406070709228516e+00 1.682791709899902344e+00 -3.195030927658081055e+00
2.444000000000000000e+03 2.602402114868164062e+01 -7.882886886596679688e+00 2.439899556338787079e-02 -1.484866142272949219e+00 -4.381401538848876953e-01 -2.464498281478881836e-01
2.445000000000000000e+03 1.044335651397705078e+01 2.094502639770507812e+01 2.077062526950612664e-05 1.146916565630817786e-05 9.671937732491642237e-06 1.836273440858349204e-05
2.446000000000000000e+03 2.450060272216796875e+01 -2.084141921997070312e+01 3.648770228028297424e-02 -1.802101612091064453e+00 -5.296841859817504883e-01 -1.298170685768127441e-01
2.447000000000000000e+03 2.290976142883300781e+01 -2.375995445251464844e+01 3.739168122410774231e-02 -2.023535966873168945e+00 -5.958433151245117188e-01 -1.082398742437362671e-01
2.448000000000000000e+03 1.076101684570312500e+01 1.141665744781494141e+01 3.000577271450310946e-05 1.708235345176944975e-06 9.514202247373759747e-06 8.983466273093654308e-07
2.449000000000000000e+03 1.097666931152343750e+01 1.253944683074951172e+01 -3.507527435431256890e-05 -6.916374104548594914e-07 -1.073007297236472368e-05 -1.842930373641138431e-06
2.450000000000000000e+03 1.011535263061523438e+01 3.030480384826660156e+01 7.631928019691258669e-05 -1.158729719463735819e-05 1.941959453688468784e-05 3.015569745912216604e-05
2.451000000000000000e+03 1.101494121551513672e+01 1.865511894226074219e+01 5.431901081465184689e-05 3.156298816975322552e-06 1.724259345792233944e-05 1.681112371443305165e-05
2.452000000000000000e+03 9.763493537902832031e+00 -3.091265869140625000e+01 9.292883798480033875e-03 5.717958789318799973e-03 4.503252916038036346e-03 -6.408486980944871902e-03
2.453000000000000000e+03 2.578754234313964844e+01 -2.467806577682495117e+00 2.740591391921043396e-02 -1.403462290763854980e+00 -4.128169119358062744e-01 -2.804367542266845703e-01
2.454000000000000000e+03 2.602684974670410156e+01 5.760856151580810547e+00 -1.602056995034217834e-02 -1.108983278274536133e+00 -3.375011384487152100e-01 -3.703016638755798340e-01
2.455000000000000000e+03 2.596556091308593750e+01 -1.371712112426757812e+01 5.549289286136627197e-03 -1.558185338973999023e+00 -4.657908082008361816e-01 -1.731390953063964844e-01
2.456000000000000000e+03 5.153891372680664062e+01 3.872281265258789062e+01 1.276969164609909058e-01 -2.027468830347061157e-01 -2.251498773694038391e-02 1.760301589965820312e-01
2.457000000000000000e+03 4.917576980590820312e+01 3.882710647583007812e+01 9.152280539274215698e-02 -1.702227443456649780e-01 -2.360998094081878662e-02 1.064319908618927002e-01
2.458000000000000000e+03 2.451166725158691406e+01 -2.957336425781250000e+01 -3.065866231918334961e-02 -1.839186072349548340e+00 -5.609534382820129395e-01 -1.206239908933639526e-01
2.459000000000000000e+03 1.145077419281005859e+01 2.931781578063964844e+01 1.397737069055438042e-04 -2.260419933008961380e-05 3.515084972605109215e-05 -2.368767809457494877e-06
2.460000000000000000e+03 8.175716400146484375e+00 2.574118232727050781e+01 4.274970342521555722e-05 2.007960210903547704e-05 1.884879202407319099e-05 -3.233408051528385840e-06
2.461000000000000000e+03 6.026142597198486328e+00 3.277550125122070312e+01 1.213963332702405751e-04 -1.404427803208818659e-05 3.220561484340578318e-05 3.849027052638120949e-05
2.462000000000000000e+03 7.050757598876953125e+01 2.794855308532714844e+01 -1.542258709669113159e-01 3.853595972061157227e+00 1.109810948371887207e+00 3.575425386428833008e+00
2.463000000000000000e+03 7.197653198242187500e+01 3.342053985595703125e+01 1.878810375928878784e-01 9.398491859436035156e+00 2.875911951065063477e+00 -4.763869285583496094e+00
2.464000000000000000e+03 7.292693328857421875e+01 2.846622467041015625e+01 -1.669499158859252930e+00 1.468369007110595703e+01 3.904257297515869141e+00 3.959317207336425781e+00
2.465000000000000000e+03 7.084697723388671875e+01 2.869573974609375000e+01 1.169587522745132446e-01 3.614763259887695312e+00 1.119516611099243164e+00 3.827169179916381836e+00
2.466000000000000000e+03 7.452621459960937500e+01 3.261200714111328125e+01 1.127041816711425781e+00 1.701952362060546875e+01 5.443969726562500000e+00 2.107053995132446289e+00
2.467000000000000000e+03 7.563873291015625000e+01 2.846594810485839844e+01 1.959806233644485474e-01 1.374420833587646484e+01 4.182056903839111328e+00 -2.042189836502075195e+00
2.468000000000000000e+03 7.665552520751953125e+01 3.121026611328125000e+01 3.011174678802490234e+00 1.116740894317626953e+01 4.253574848175048828e+00 7.317366600036621094e-01
2.469000000000000000e+03 7.574004364013671875e+01 3.027357292175292969e+01 4.045717239379882812e+00 1.290374851226806641e+01 5.084839820861816406e+00 -1.167766094207763672e+00
2.470000000000000000e+03 7.671746063232421875e+01 3.339997482299804688e+01 5.785364508628845215e-01 1.179450416564941406e+01 3.711912155151367188e+00 2.243659734725952148e+00
2.471000000000000000e+03 7.595890045166015625e+01 2.994497871398925781e+01 3.150167942047119141e+00 1.265442466735839844e+01 4.741377830505371094e+00 -1.603794574737548828e+00
2.472000000000000000e+03 7.594371795654296875e+01 2.927545356750488281e+01 1.859715461730957031e+00 1.291286849975585938e+01 4.431775093078613281e+00 -2.196825742721557617e+00
2.473000000000000000e+03 7.582353973388671875e+01 3.095207595825195312e+01 4.273319721221923828e+00 1.264304733276367188e+01 5.074910163879394531e+00 2.171883732080459595e-01
2.474000000000000000e+03 7.379438781738281250e+01 3.482545852661132812e+01 -1.670396327972412109e+00 1.327065563201904297e+01 3.480077743530273438e+00 -9.751136898994445801e-01
2.475000000000000000e+03 7.487001037597656250e+01 3.256037902832031250e+01 1.649314522743225098e+00 1.614065551757812500e+01 5.336990833282470703e+00 2.441895723342895508e+00
2.476000000000000000e+03 7.524739074707031250e+01 3.241429138183593750e+01 2.254615545272827148e+00 1.483469390869140625e+01 5.126792907714843750e+00 2.410666227340698242e+00
2.477000000000000000e+03 7.032047271728515625e+01 2.831133842468261719e+01 -1.751113831996917725e-01 2.939376592636108398e+00 8.292796015739440918e-01 3.188466548919677734e+00
2.478000000000000000e+03 7.662466430664062500e+01 2.749957656860351562e+01 -4.625780284404754639e-01 1.174370956420898438e+01 3.384339570999145508e+00 -1.899340510368347168e+00
2.479000000000000000e+03 7.065704345703125000e+01 3.367177200317382812e+01 8.671944737434387207e-01 3.919605970382690430e+00 1.436040163040161133e+00 -3.131322860717773438e+00
2.480000000000000000e+03 6.343331146240234375e+01 2.632155418395996094e+01 -1.601856827735900879e+00 2.526986598968505859e-01 -4.047474563121795654e-01 1.272632032632827759e-01
2.481000000000000000e+03 6.484772491455078125e+01 2.620531463623046875e+01 -1.277970314025878906e+00 4.805249571800231934e-01 -2.392335981130599976e-01 4.535798132419586182e-01
2.482000000000000000e+03 6.854850769042968750e+01 2.726181983947753906e+01 -7.379745244979858398e-01 1.631613612174987793e+00 2.680917084217071533e-01 1.788329958915710449e+00
2.483000000000000000e+03 6.737356567382812500e+01 2.721915817260742188e+01 -1.204625964164733887e+00 8.793643116950988770e-01 -9.757848829030990601e-02 1.096730351448059082e+00
2.484000000000000000e+03 6.792798614501953125e+01 2.703326797485351562e+01 -8.911944031715393066e-01 1.276105165481567383e+00 1.154732257127761841e-01 1.467948675155639648e+00
2.485000000000000000e+03 5.054233551025390625e+01 2.726821327209472656e+01 -1.647221684455871582e+00 3.817891702055931091e-02 -4.827128350734710693e-01 -4.265452325344085693e-01
2.486000000000000000e+03 4.586647033691406250e+01 2.799556732177734375e+01 -1.278071284294128418e+00 6.432509422302246094e-02 -3.641238510608673096e-01 -3.845624923706054688e-01
2.487000000000000000e+03 5.832144737243652344e+00 6.461761474609375000e+00 3.578104042389895767e-06 1.863502257037907839e-05 6.663938165729632601e-06 -1.018659986584680155e-05
2.488000000000000000e+03 7.599806976318359375e+01 2.562635612487792969e+01 -1.288670897483825684e+00 1.145285034179687500e+01 3.049253940582275391e+00 -6.851330399513244629e-01
2.489000000000000000e+03 9.208291053771972656e+00 5.188673019409179688e+00 1.579527634021360427e-05 -2.800790298351785168e-06 3.898345767083810642e-06 2.349352143937721848e-06
2.490000000000000000e+03 7.521035766601562500e+01 3.422141265869140625e+01 -8.746435642242431641e-01 1.380801582336425781e+01 3.880011558532714844e+00 1.390426635742187500e+00
2.491000000000000000e+03 7.682502746582031250e+01 3.171718025207519531e+01 2.636497020721435547e+00 1.107796764373779297e+01 4.114339351654052734e+00 1.162145018577575684e+00
2.492000000000000000e+03 6.534463882446289062e+00 6.438625335693359375e+00 -1.534321563667617738e-05 -1.112921199819538742e-05 -7.941728654259350151e-06 -4.601000000548083335e-06
2.493000000000000000e+03 2.599467086791992188e+01 3.140574645996093750e+01 -7.180748879909515381e-02 -3.504765778779983521e-02 -3.205654397606849670e-02 -6.333360821008682251e-02
2.494000000000000000e+03 2.640534400939941406e+01 2.948824882507324219e+01 -9.379954636096954346e-02 -7.086727023124694824e-02 -4.940004646778106689e-02 -1.195809766650199890e-01
2.495000000000000000e+03 7.602430725097656250e+01 2.868795013427734375e+01 8.491126298904418945e-01 1.293288326263427734e+01 4.134598731994628906e+00 -2.107784271240234375e+00
2.496000000000000000e+03 7.649929046630859375e+01 2.994025611877441406e+01 2.516215085983276367e+00 1.147194480895996094e+01 4.196447849273681641e+00 -1.327193379402160645e+00
2.497000000000000000e+03 4.951797962188720703e+00 6.482769966125488281e+00 -1.879284172900952399e-05 -9.735071216709911823e-06 -8.558373338019009680e-06 1.249092383659444749e-05
2.498000000000000000e+03 6.698050975799560547e+00 4.905989170074462891e+00 -1.530163171992171556e-05 -6.361312443914357573e-06 -6.498883067251881585e-06 2.893302053053048439e-06
2.499000000000000000e+03 5.906117439270019531e+00 5.680459022521972656e+00 -1.705351314740255475e-05 -9.758853593666572124e-06 -8.043710295169148594e-06 1.125900053011719137e-05
2.500000000000000000e+03 7.684758758544921875e+01 2.871281433105468750e+01 7.214787006378173828e-01 1.136483860015869141e+01 3.625895261764526367e+00 -2.009588241577148438e+00
2.501000000000000000e+03 9.655677795410156250e+00 -4.881522655487060547e+00 7.500112405978143215e-04 2.819479850586503744e-04 3.095877764280885458e-04 -7.021761266514658928e-04
2.502000000000000000e+03 8.300189971923828125e+00 -5.005262851715087891e+00 8.749073022045195103e-04 4.074852622579783201e-04 3.847177722491323948e-04 -1.266249746549874544e-04
2.503000000000000000e+03 7.419187068939208984e+00 4.896644592285156250e+00 1.663062175794038922e-05 5.356925157684599981e-06 6.596264029212761670e-06 -2.744062612691777758e-06
2.504000000000000000e+03 8.162315368652343750e+00 5.743761539459228516e+00 2.250912075396627188e-05 1.431915620742074680e-06 7.182310582720674574e-06 -6.441649475164012983e-06
2.505000000000000000e+03 7.644822692871093750e+01 2.819628524780273438e+01 5.282313376665115356e-02 1.208954906463623047e+01 3.642711877822875977e+00 -2.011893987655639648e+00
2.506000000000000000e+03 6.965816497802734375e+01 3.384981155395507812e+01 6.058719754219055176e-01 2.244081974029541016e+00 8.549861907958984375e-01 -1.789489984512329102e+00
2.507000000000000000e+03 2.993481636047363281e+01 3.014488983154296875e+01 -2.032710760831832886e-01 -2.770561911165714264e-02 -6.929300725460052490e-02 -1.641092300415039062e-01
2.508000000000000000e+03 2.923807334899902344e+01 3.017721176147460938e+01 -1.771477162837982178e-01 -3.491909056901931763e-02 -6.362004578113555908e-02 -1.517201811075210571e-01
2.509000000000000000e+03 7.636981201171875000e+01 3.497436904907226562e+01 -7.499224543571472168e-01 1.201279258728027344e+01 3.378861188888549805e+00 1.808381080627441406e+00
2.510000000000000000e+03 7.575265502929687500e+01 3.452816772460937500e+01 -8.036546111106872559e-01 1.304865932464599609e+01 3.673501253128051758e+00 1.660484671592712402e+00
2.511000000000000000e+03 3.062358283996582031e+01 3.009861373901367188e+01 -2.310200333595275879e-01 -2.089556306600570679e-02 -7.557468116283416748e-02 -1.768579334020614624e-01
2.512000000000000000e+03 3.199211311340332031e+01 2.996790885925292969e+01 -2.920621931552886963e-01 -6.311610806733369827e-03 -8.951213955879211426e-02 -2.015313208103179932e-01
2.513000000000000000e+03 2.853681182861328125e+01 3.019656181335449219e+01 -1.523119658231735229e-01 -4.139503836631774902e-02 -5.811209976673126221e-02 -1.387675255537033081e-01
2.514000000000000000e+03 2.783763885498046875e+01 3.021485137939453125e+01 -1.295264363288879395e-01 -4.746276140213012695e-02 -5.309676006436347961e-02 -1.260598003864288330e-01
2.515000000000000000e+03 2.715321922302246094e+01 3.022637367248535156e+01 -1.087798699736595154e-01 -5.273124203085899353e-02 -4.845333471894264221e-02 -1.132175475358963013e-01
2.516000000000000000e+03 3.267765426635742188e+01 2.987034797668457031e+01 -3.253946006298065186e-01 6.151209236122667789e-04 -9.743384271860122681e-02 -2.150354683399200439e-01
2.517000000000000000e+03 3.908977127075195312e+01 2.858407783508300781e+01 -7.156895399093627930e-01 5.568693578243255615e-02 -1.980007737874984741e-01 -3.412867188453674316e-01
2.518000000000000000e+03 3.980138397216796875e+01 2.845877838134765625e+01 -7.652868628501892090e-01 5.946313589811325073e-02 -2.117471098899841309e-01 -3.522113561630249023e-01
2.519000000000000000e+03 3.627465057373046875e+01 2.985557174682617188e+01 -5.291700959205627441e-01 3.795975446701049805e-02 -1.473631113767623901e-01 -2.435422092676162720e-01
2.520000000000000000e+03 3.827090072631835938e+01 2.792676544189453125e+01 -6.474273204803466797e-01 4.571536183357238770e-02 -1.805135905742645264e-01 -3.803802430629730225e-01
2.521000000000000000e+03 3.336462020874023438e+01 2.975124740600585938e+01 -3.614346086978912354e-01 7.581491023302078247e-03 -1.061559394001960754e-01 -2.287270128726959229e-01
2.522000000000000000e+03 4.051990127563476562e+01 2.832170295715332031e+01 -8.162344694137573242e-01 6.217943131923675537e-02 -2.262165099382400513e-01 -3.656177520751953125e-01
2.523000000000000000e+03 3.554726791381835938e+01 3.000277137756347656e+01 -4.820828139781951904e-01 3.224615007638931274e-02 -1.349509954452514648e-01 -2.315244227647781372e-01
2.524000000000000000e+03 3.679772186279296875e+01 2.827330207824707031e+01 -5.551502704620361328e-01 3.246373683214187622e-02 -1.568059623241424561e-01 -3.480561375617980957e-01
2.525000000000000000e+03 4.271501541137695312e+01 2.786765289306640625e+01 -9.750404357910156250e-01 6.871157139539718628e-02 -2.718986570835113525e-01 -4.044586718082427979e-01
2.526000000000000000e+03 3.405423355102539062e+01 2.961537933349609375e+01 -3.984425961971282959e-01 1.397504657506942749e-02 -1.153402626514434814e-01 -2.430225163698196411e-01
2.527000000000000000e+03 4.281829452514648438e+01 2.856309509277343750e+01 -1.024516582489013672e+00 6.806657463312149048e-02 -2.869350016117095947e-01 -3.426227569580078125e-01
2.528000000000000000e+03 4.413088226318359375e+01 2.688073921203613281e+01 -1.018339514732360840e+00 6.956039369106292725e-02 -2.846337258815765381e-01 -4.867954552173614502e-01
2.529000000000000000e+03 9.410233497619628906e+00 8.650538444519042969e+00 -5.980947662465041503e-06 4.463636287255212665e-06 -4.551934296159743099e-07 1.451064326829509810e-05
2.530000000000000000e+03 4.123632812500000000e+01 2.816931343078613281e+01 -8.691691756248474121e-01 6.537178158760070801e-02 -2.411392033100128174e-01 -3.791505694389343262e-01
2.531000000000000000e+03 3.765602874755859375e+01 2.885113906860351562e+01 -6.197318434715270996e-01 4.559115320444107056e-02 -1.722421944141387939e-01 -3.154684305191040039e-01
2.532000000000000000e+03 3.475235366821289062e+01 2.946887969970703125e+01 -4.383190274238586426e-01 2.069232612848281860e-02 -1.252880096435546875e-01 -2.577796876430511475e-01
2.533000000000000000e+03 6.035201072692871094e+00 -7.662738323211669922e+00 1.352315885014832020e-03 4.300810978747904301e-04 5.347190890461206436e-04 1.383377530146390200e-04
2.534000000000000000e+03 6.108401107788085938e+01 2.498647689819335938e+01 -1.198346495628356934e+00 2.430256605148315430e-01 -2.865962386131286621e-01 -6.907042115926742554e-02
2.535000000000000000e+03 6.122885131835937500e+01 2.640135574340820312e+01 -1.865474224090576172e+00 9.541054815053939819e-02 -5.310190916061401367e-01 -1.601214110851287842e-01
2.536000000000000000e+03 4.347585678100585938e+01 2.772018623352050781e+01 -1.030658006668090820e+00 6.967763602733612061e-02 -2.882941067218780518e-01 -4.172013998031616211e-01
2.537000000000000000e+03 8.214501380920410156e+00 -5.788490772247314453e+00 -6.648052949458360672e-04 -7.780900923535227776e-04 -4.328686045482754707e-04 5.367182311601936817e-04
2.538000000000000000e+03 4.897078704833984375e+01 2.748645782470703125e+01 -1.528362154960632324e+00 4.923709854483604431e-02 -4.437375366687774658e-01 -4.173743724822998047e-01
2.539000000000000000e+03 5.964665889739990234e+00 -5.773419857025146484e+00 1.399397966451942921e-03 1.540695666335523129e-04 4.660402482841163874e-04 3.098683082498610020e-04
2.540000000000000000e+03 4.746646881103515625e+01 2.843300819396972656e+01 -1.502067089080810547e+00 5.173615366220474243e-02 -4.350992739200592041e-01 -3.257408440113067627e-01
2.541000000000000000e+03 4.336681747436523438e+01 2.702319908142089844e+01 -9.704324603080749512e-01 6.859373301267623901e-02 -2.705516219139099121e-01 -4.742270112037658691e-01
2.542000000000000000e+03 9.013449668884277344e+00 -4.935654163360595703e+00 -4.648630565498024225e-04 -3.532854316290467978e-04 -2.454445348121225834e-04 2.094470437441486865e-05
2.543000000000000000e+03 5.511393356323242188e+01 2.681269836425781250e+01 -1.927531003952026367e+00 1.238570176064968109e-02 -5.745435953140258789e-01 -4.129082858562469482e-01
2.544000000000000000e+03 5.658027267456054688e+01 2.598219871520996094e+01 -1.711418271064758301e+00 3.043798357248306274e-02 -5.042940974235534668e-01 -4.181218445301055908e-01
2.545000000000000000e+03 4.196595001220703125e+01 2.801710510253906250e+01 -9.215033054351806641e-01 6.773612648248672485e-02 -2.561301589012145996e-01 -3.914574980735778809e-01
2.546000000000000000e+03 5.663225173950195312e+01 2.666919708251953125e+01 -1.969342470169067383e+00 1.045617181807756424e-02 -5.876659154891967773e-01 -3.893209099769592285e-01
2.547000000000000000e+03 5.285993576049804688e+01 2.772827529907226562e+01 -1.999125838279724121e+00 1.677185855805873871e-02 -5.947061777114868164e-01 -3.581992983818054199e-01
2.548000000000000000e+03 5.361993408203125000e+01 2.765114593505859375e+01 -2.059677839279174805e+00 1.138988137245178223e-02 -6.144863963127136230e-01 -3.597962558269500732e-01
2.549000000000000000e+03 6.264481735229492188e+01 2.563400650024414062e+01 -1.337716341018676758e+00 2.871038615703582764e-01 -3.151837289333343506e-01 8.869005739688873291e-02
2.550000000000000000e+03 6.667703247070312500e+01 2.631414985656738281e+01 -9.360641837120056152e-01 1.027753829956054688e+00 2.750689163804054260e-02 1.033676505088806152e+00
2.551000000000000000e+03 4.818363952636718750e+01 2.760702514648437500e+01 -1.466821432113647461e+00 5.312557518482208252e-02 -4.241087734699249268e-01 -4.106645584106445312e-01
2.552000000000000000e+03 2.538982963562011719e+01 2.882953071594238281e+01 -7.031640410423278809e-02 -8.839907497167587280e-02 -4.761464148759841919e-02 -1.134535968303680420e-01
2.553000000000000000e+03 7.022660827636718750e+01 3.442419052124023438e+01 6.642324924468994141e-01 4.252117156982421875e+00 1.474904894828796387e+00 -2.645269155502319336e+00
2.554000000000000000e+03 5.972462081909179688e+01 2.715543174743652344e+01 -2.301482439041137695e+00 1.153315510600805283e-02 -6.869847774505615234e-01 -2.731765210628509521e-01
2.555000000000000000e+03 6.334945678710937500e+01 2.559280014038085938e+01 -1.220982551574707031e+00 3.779297173023223877e-01 -2.529158592224121094e-01 2.221683859825134277e-01
2.556000000000000000e+03 6.471305847167968750e+01 2.546004676818847656e+01 -9.245212078094482422e-01 6.655987501144409180e-01 -7.767672836780548096e-02 5.772510170936584473e-01
2.557000000000000000e+03 2.640496826171875000e+01 3.088636970520019531e+01 -8.292774111032485962e-02 -4.245363548398017883e-02 -3.761441260576248169e-02 -7.960213720798492432e-02
2.558000000000000000e+03 1.266401386260986328e+01 5.193071842193603516e+00 -1.928367055370472372e-05 -4.094742962479358539e-06 -7.013524282228900120e-06 -1.056891505868406966e-05
2.559000000000000000e+03 1.098189544677734375e+01 7.053903102874755859e+00 7.121880116756074131e-06 5.386966677178861573e-06 3.752654038180480711e-06 7.055387868604157120e-06
2.560000000000000000e+03 5.963672637939453125e+01 2.576737976074218750e+01 -1.626669764518737793e+00 8.929079771041870117e-02 -4.612137079238891602e-01 -2.618090510368347168e-01
2.561000000000000000e+03 6.937595367431640625e+01 3.590707397460937500e+01 6.377776265144348145e-01 3.571365594863891602e+00 1.262742996215820312e+00 -1.467704653739929199e+00
2.562000000000000000e+03 6.811808776855468750e+01 3.881769943237304688e+01 8.291241526603698730e-01 2.984563350677490234e+00 1.144106268882751465e+00 -6.745774149894714355e-01
2.563000000000000000e+03 1.146351337432861328e+01 6.080183029174804688e+00 -8.763344339968170971e-06 -1.006535876513225958e-05 -5.648610567732248455e-06 -8.511689884471707046e-06
2.564000000000000000e+03 6.734632110595703125e+01 3.749476242065429688e+01 8.204557895660400391e-01 2.082400321960449219e+00 8.708568811416625977e-01 -6.560741662979125977e-01
2.565000000000000000e+03 7.610723114013671875e+01 2.748040771484375000e+01 -7.098432183265686035e-01 1.269359397888183594e+01 3.595125198364257812e+00 -1.723317861557006836e+00
2.566000000000000000e+03 6.578565979003906250e+01 3.945983886718750000e+01 9.582020044326782227e-01 1.619223833084106445e+00 7.732277512550354004e-01 -2.946278154850006104e-01
2.567000000000000000e+03 6.588237762451171875e+01 3.638401412963867188e+01 6.204610466957092285e-01 8.058246970176696777e-01 4.278857409954071045e-01 -1.953425258398056030e-01
2.568000000000000000e+03 1.109521198272705078e+01 1.612459564208984375e+01 4.296518090995959938e-05 7.514533990615746006e-06 1.514391442469786853e-05 7.618231848027789965e-06
2.569000000000000000e+03 8.418672561645507812e+00 1.242795276641845703e+01 2.461237636453006417e-05 1.267375068891851697e-06 7.763925168546847999e-06 -1.386750199117159355e-07
2.570000000000000000e+03 1.073428916931152344e+01 2.468479919433593750e+01 6.945197674212977290e-05 1.010161668091313913e-05 2.386607957305386662e-05 -6.049777312000514939e-06
2.571000000000000000e+03 8.569165229797363281e+00 1.923761558532714844e+01 3.970086254412308335e-06 3.519666961437906139e-06 2.246925987492431886e-06 2.854520744222099893e-06
2.572000000000000000e+03 7.383013153076171875e+01 3.575263977050781250e+01 -1.554689884185791016e+00 1.187589931488037109e+01 3.096362829208374023e+00 -8.574156165122985840e-01
2.573000000000000000e+03 7.347275543212890625e+01 3.410706710815429688e+01 -1.647101402282714844e+00 1.428192043304443359e+01 3.790445804595947266e+00 -1.643023490905761719e+00
2.574000000000000000e+03 6.255693435668945312e+01 4.154863739013671875e+01 1.098531365394592285e+00 2.702554762363433838e-01 4.106360375881195068e-01 8.909353613853454590e-02
2.575000000000000000e+03 2.611218643188476562e+01 -1.937096214294433594e+01 4.218682274222373962e-02 -1.570128798484802246e+00 -4.583825767040252686e-01 -1.376783698797225952e-01
2.576000000000000000e+03 6.992707729339599609e+00 7.469240188598632812e+00 -2.918068275903351605e-05 -1.313768507316126488e-06 -9.148335266218055040e-06 -6.124854735389817506e-06
2.577000000000000000e+03 2.722714042663574219e+01 3.027816534042358398e+00 9.878853335976600647e-03 -1.093166351318359375e+00 -3.249862492084503174e-01 -3.790195584297180176e-01
2.578000000000000000e+03 9.308041572570800781e+00 -8.918137550354003906e+00 8.320099441334605217e-04 9.611403802409768105e-04 5.379451322369277477e-04 -4.867323150392621756e-04
2.579000000000000000e+03 9.534283638000488281e+00 2.200360488891601562e+01 2.607464011816773564e-05 -4.411073405208298936e-06 6.499069968413095921e-06 -2.711927299969829619e-05
2.580000000000000000e+03 7.214535713195800781e+00 2.342241477966308594e+01 3.003910569532308728e-05 3.149949634462245740e-06 9.956716894521377981e-06 -2.092510112561285496e-05
2.581000000000000000e+03 5.792857170104980469e+00 1.327431774139404297e+01 2.050684815912973136e-05 2.015560085055767559e-06 6.756722541467752308e-06 2.413431684544775635e-05
2.582000000000000000e+03 2.760879516601562500e+01 -7.668224334716796875e+00 4.616675153374671936e-02 -1.276544809341430664e+00 -3.691134452819824219e-01 -2.701889872550964355e-01
2.583000000000000000e+03 2.712098884582519531e+01 -3.592982053756713867e+00 4.349917173385620117e-02 -1.273959517478942871e+00 -3.691380918025970459e-01 -3.006526231765747070e-01
2.584000000000000000e+03 1.066987323760986328e+01 -1.368998241424560547e+01 4.328804498072713614e-04 1.285508158616721630e-03 5.155166145414113998e-04 -9.072012617252767086e-04
2.585000000000000000e+03 1.130603694915771484e+01 -1.147838592529296875e+01 1.696990919299423695e-03 6.090757087804377079e-04 6.918199942447245121e-04 -1.021959003992378712e-03
2.586000000000000000e+03 7.066503143310546875e+01 -2.705872535705566406e+01 2.816804498434066772e-02 4.917664051055908203e+00 1.483749628067016602e+00 7.343347370624542236e-02
2.587000000000000000e+03 7.080296325683593750e+01 -3.042889785766601562e+01 3.390275314450263977e-02 4.935780525207519531e+00 1.490905046463012695e+00 6.010361015796661377e-02
2.588000000000000000e+03 7.132336425781250000e+01 -3.293066406250000000e+01 1.242750138044357300e-02 4.958996295928955078e+00 1.491427183151245117e+00 3.214985132217407227e-02
2.589000000000000000e+03 6.033096313476562500e+01 3.564242553710937500e+01 -7.054100185632705688e-02 -2.936632372438907623e-02 -2.997219748795032501e-02 5.523380041122436523e-01
2.590000000000000000e+03 7.314694213867187500e+01 1.822634124755859375e+01 -1.347056925296783447e-01 7.235517978668212891e+00 2.130243539810180664e+00 1.281638145446777344e+00
2.591000000000000000e+03 7.249272918701171875e+01 -2.462108993530273438e+01 2.571739070117473602e-02 5.216659545898437500e+00 1.572713136672973633e+00 7.442772388458251953e-02
2.592000000000000000e+03 7.304994964599609375e+01 1.215748882293701172e+01 1.859395802021026611e-01 6.532244205474853516e+00 2.015455245971679688e+00 1.030439853668212891e+00
2.593000000000000000e+03 7.346322631835937500e+01 1.339217662811279297e+01 1.429537087678909302e-01 6.832304477691650391e+00 2.092577457427978516e+00 1.056326389312744141e+00
2.594000000000000000e+03 7.250065612792968750e+01 -1.672230720520019531e+01 5.030852556228637695e-02 5.300906181335449219e+00 1.605364441871643066e+00 1.499199122190475464e-01
2.595000000000000000e+03 7.246047210693359375e+01 -1.810722160339355469e+01 4.637946933507919312e-02 5.274839878082275391e+00 1.596365809440612793e+00 1.298882812261581421e-01
2.596000000000000000e+03 7.286528778076171875e+01 -1.056296634674072266e+01 7.192939519882202148e-02 5.478182792663574219e+00 1.665033698081970215e+00 2.336135059595108032e-01
2.597000000000000000e+03 7.225112152099609375e+01 -1.022741794586181641e+00 1.574683189392089844e-01 5.626653194427490234e+00 1.735236525535583496e+00 4.924305975437164307e-01
2.598000000000000000e+03 7.254723358154296875e+01 -2.521912574768066406e+00 1.346415430307388306e-01 5.648542881011962891e+00 1.734955310821533203e+00 4.285493493080139160e-01
2.599000000000000000e+03 7.187215423583984375e+01 2.959164142608642578e+00 2.147887200117111206e-01 5.665236473083496094e+00 1.764007568359375000e+00 6.520723104476928711e-01
2.600000000000000000e+03 7.340097045898437500e+01 4.954591751098632812e+00 1.641855388879776001e-01 6.202015399932861328e+00 1.909860253334045410e+00 6.693834066390991211e-01
2.601000000000000000e+03 7.271676635742187500e+01 -3.948306560516357422e+00 1.147601976990699768e-01 5.632030963897705078e+00 1.724037289619445801e+00 3.825594484806060791e-01
2.602000000000000000e+03 7.348388671875000000e+01 6.186155319213867188e+00 1.669037491083145142e-01 6.298952579498291016e+00 1.939756870269775391e+00 7.178165316581726074e-01
2.603000000000000000e+03 7.298948669433593750e+01 2.518744468688964844e+00 1.612663120031356812e-01 5.965231418609619141e+00 1.837949395179748535e+00 5.892911553382873535e-01
2.604000000000000000e+03 8.452877998352050781e+00 3.620866394042968750e+01 -1.293174864258617163e-04 -3.115331310254987329e-06 -3.972984268330037594e-05 -5.540036727325059474e-05
2.605000000000000000e+03 7.349443054199218750e+01 7.434362411499023438e+00 1.727361381053924561e-01 6.386376380920410156e+00 1.967733740806579590e+00 7.687793374061584473e-01
2.606000000000000000e+03 9.993864059448242188e+00 9.450956344604492188e+00 1.795938078430481255e-05 -6.343349923554342240e-06 3.484808985376730561e-06 -1.144045836554141715e-05
2.607000000000000000e+03 8.599014282226562500e+00 -1.883249855041503906e+01 -3.551685716956853867e-03 -3.894606197718530893e-04 -1.182343927212059498e-03 6.439838907681405544e-04
2.608000000000000000e+03 1.025073909759521484e+01 -1.690332221984863281e+01 3.397967899218201637e-03 3.897372807841747999e-04 1.136311562731862068e-03 -8.062986307777464390e-04
2.609000000000000000e+03 2.628268241882324219e+01 2.758289337158203125e+01 -9.395250678062438965e-02 -1.181289479136466980e-01 -6.362443417310714722e-02 -1.691479235887527466e-01
2.610000000000000000e+03 2.832612228393554688e+01 1.584241676330566406e+01 -3.982463106513023376e-02 -5.296305418014526367e-01 -1.708365380764007568e-01 -4.887978136539459229e-01
2.611000000000000000e+03 2.702418518066406250e+01 1.859159088134765625e+01 -5.347615480422973633e-02 -4.539993405342102051e-01 -1.522426456212997437e-01 -4.011054933071136475e-01
2.612000000000000000e+03 9.395093917846679688e+00 -2.025822830200195312e+01 -4.097661469131708145e-03 1.240850397152826190e-04 -1.192072872072458267e-03 1.945070689544081688e-03
2.613000000000000000e+03 2.729503059387207031e+01 8.672837257385253906e+00 -1.829855493269860744e-03 -8.861697316169738770e-01 -2.663998603820800781e-01 -4.477898478507995605e-01
2.614000000000000000e+03 2.728085517883300781e+01 1.010116672515869141e+01 -3.923620563000440598e-03 -8.298580646514892578e-01 -2.501344978809356689e-01 -4.542914032936096191e-01
2.615000000000000000e+03 7.413419342041015625e+01 2.040291404724121094e+01 -5.048468112945556641e-01 8.306622505187988281e+00 2.340532779693603516e+00 1.127445220947265625e+00
2.616000000000000000e+03 2.980091285705566406e+01 7.407719612121582031e+00 2.598094381392002106e-02 -7.400995492935180664e-01 -2.142355889081954956e-01 -5.179669260978698730e-01
2.617000000000000000e+03 5.347150802612304688e+00 2.426634979248046875e+01 6.508731894427910447e-05 -2.018278308923981967e-07 1.946564771060366184e-05 2.972916081489529461e-05
2.618000000000000000e+03 7.756575584411621094e+00 2.455990982055664062e+01 -4.001336128567345440e-05 -1.273084671993274242e-05 -1.582326149218715727e-05 7.769006515445653349e-06
2.619000000000000000e+03 6.175947189331054688e+00 -9.906892776489257812e+00 1.539095770567655563e-03 2.751980209723114967e-04 5.442881374619901180e-04 1.199302860186435282e-04
2.620000000000000000e+03 5.010661602020263672e+00 -9.811997413635253906e+00 -1.583806704729795456e-03 -3.379210247658193111e-04 -5.765183013863861561e-04 -2.993854650412686169e-05
2.621000000000000000e+03 2.714044952392578125e+01 1.578120422363281250e+01 -3.104754164814949036e-02 -5.806910395622253418e-01 -1.835215836763381958e-01 -4.369675219058990479e-01
2.622000000000000000e+03 6.942523479461669922e+00 2.630452728271484375e+01 -5.436279025161638856e-05 -1.461191095586400479e-05 -2.069241054414305836e-05 6.265870979405008256e-06
2.623000000000000000e+03 7.691327095031738281e+00 -1.572515678405761719e+01 -2.691959263756871223e-03 1.117615975090302527e-04 -7.740593282505869865e-04 8.245386998169124126e-04
2.624000000000000000e+03 9.370177268981933594e+00 -2.664661598205566406e+01 2.787782112136483192e-03 6.576635874807834625e-03 2.809325465932488441e-03 -3.114157123491168022e-03
2.625000000000000000e+03 6.694251060485839844e+00 -2.304815864562988281e+01 1.669621269684284925e-04 1.755519951984751970e-05 5.535519812838174403e-05 3.445295151323080063e-04
2.626000000000000000e+03 7.893079757690429688e+00 -1.754874801635742188e+01 -2.886816393584012985e-03 -4.315406840760260820e-04 -9.955071145668625832e-04 4.332971293479204178e-04
2.627000000000000000e+03 9.089036941528320312e+00 2.794637680053710938e+01 5.197754580876789987e-05 3.310144620627397671e-06 1.658630753809120506e-05 -9.983044947148300707e-06
2.628000000000000000e+03 5.409057617187500000e+00 1.847485542297363281e+01 5.772836811956949532e-05 1.137986913590793847e-07 1.735264959279447794e-05 -1.179631817649351433e-05
2.629000000000000000e+03 1.077278232574462891e+01 -2.231259346008300781e+01 -2.783454023301601410e-03 1.064798678271472454e-03 -5.155965918675065041e-04 -1.110326731577515602e-03
2.630000000000000000e+03 1.130503654479980469e+01 -2.326224708557128906e+01 5.240939091891050339e-03 -6.827454199083149433e-04 1.367458025924861431e-03 -1.527187851024791598e-04
2.631000000000000000e+03 6.434802532196044922e+00 1.962698554992675781e+01 4.943478052155114710e-05 -2.773277401502127759e-06 1.399845132254995406e-05 -5.131769739818992093e-06
2.632000000000000000e+03 6.392176151275634766e+00 1.396922779083251953e+01 1.524618369330710266e-06 9.033794412971474230e-06 3.167523800584604032e-06 2.119590362781309523e-06
2.633000000000000000e+03 5.183163642883300781e+00 1.247151660919189453e+01 2.007641887757927179e-05 -4.369171165308216587e-06 4.712173904408700764e-06 -1.089919169316999614e-05
2.634000000000000000e+03 5.419117927551269531e+00 1.565692424774169922e+01 4.213194188196212053e-05 1.330853410763666034e-05 1.663214243308175355e-05 -6.159010581541224383e-07
2.635000000000000000e+03 6.568789005279541016e+00 1.568561267852783203e+01 -2.246340227429755032e-05 -2.969545494124758989e-05 -1.564765625516884029e-05 -4.960574642609572038e-06
2.636000000000000000e+03 7.159971237182617188e+00 1.918751907348632812e+01 3.331343123136321083e-06 -3.889138952217763290e-06 -1.673386691436462570e-07 -5.149282173988467548e-07
2.637000000000000000e+03 8.222547531127929688e+00 -1.984722709655761719e+01 2.485380740836262703e-03 1.456086640246212482e-03 1.182440202683210373e-03 -1.316402223892509937e-03
2.638000000000000000e+03 7.371393585205078125e+01 1.461572742462158203e+01 8.984515070915222168e-02 7.062233448028564453e+00 2.145623445510864258e+00 1.082338809967041016e+00
2.639000000000000000e+03 2.549041748046875000e+01 2.396909904479980469e+01 -6.195696443319320679e-02 -2.451438605785369873e-01 -9.213025122880935669e-02 -2.345341593027114868e-01
2.640000000000000000e+03 2.670958137512207031e+01 2.270025634765625000e+01 -8.139140158891677856e-02 -2.832898199558258057e-01 -1.094043701887130737e-01 -3.120775222778320312e-01
2.641000000000000000e+03 2.756640434265136719e+01 -1.507238864898681641e+01 3.038165159523487091e-02 -1.352095007896423340e+00 -3.965139985084533691e-01 -1.699737310409545898e-01
2.642000000000000000e+03 2.745073318481445312e+01 -1.068547058105468750e+01 3.303871303796768188e-02 -1.330056071281433105e+00 -3.891052007675170898e-01 -2.285481244325637817e-01
2.643000000000000000e+03 9.685012817382812500e+00 -2.272918891906738281e+01 6.631140131503343582e-03 6.759755342500284314e-05 2.009621122851967812e-03 -1.858227537013590336e-03
2.644000000000000000e+03 8.342597007751464844e+00 1.467682933807373047e+01 -1.925801598190446384e-07 1.850705416472919751e-06 4.974375542587949894e-07 -1.201220584334805608e-05
2.645000000000000000e+03 6.726468563079833984e+00 -1.424032783508300781e+01 7.941778167150914669e-04 -1.400024513714015484e-03 -1.817540178308263421e-04 -1.492643787059932947e-04
2.646000000000000000e+03 6.501834869384765625e+00 -1.604038619995117188e+01 4.705245373770594597e-04 -5.080210758023895323e-05 1.259167329408228397e-04 4.596579819917678833e-04
2.647000000000000000e+03 7.535655212402343750e+01 2.521467590332031250e+01 -1.499651551246643066e+00 1.129687500000000000e+01 2.939167022705078125e+00 -5.994895473122596741e-02
2.648000000000000000e+03 7.446921539306640625e+01 2.154173088073730469e+01 -7.390171289443969727e-01 8.846181869506835938e+00 2.432149410247802734e+00 1.002126455307006836e+00
2.649000000000000000e+03 3.065423774719238281e+01 2.935163116455078125e+01 -2.394603788852691650e-01 -3.208723291754722595e-02 -8.146428316831588745e-02 -2.079237401485443115e-01
2.650000000000000000e+03 1.035594749450683594e+01 -2.818515586853027344e+01 3.146775066852569580e-03 8.656026795506477356e-03 3.540840465575456619e-03 -3.826903644949197769e-03
2.651000000000000000e+03 1.053212451934814453e+01 -2.692825698852539062e+01 2.354737225687131286e-04 -6.270458921790122986e-03 -1.810495508834719658e-03 3.411992918699979782e-03
2.652000000000000000e+03 8.000291824340820312e+00 8.461156845092773438e+00 -1.835464536270592362e-05 8.859269655658863485e-06 -2.848612666639382951e-06 1.602838892722502351e-05
2.653000000000000000e+03 6.411060333251953125e+00 8.332595825195312500e+00 1.923779564094729722e-05 7.760776270515634678e-07 6.004162059980444610e-06 1.545268241898156703e-05
2.654000000000000000e+03 9.854895591735839844e+00 1.288149929046630859e+01 3.202361403964459896e-05 -2.929310483068547910e-07 9.519205377728212625e-06 2.518030896681011654e-06
2.655000000000000000e+03 5.315003395080566406e+00 -1.346673011779785156e+01 1.810735324397683144e-03 1.386596559314057231e-04 5.848184810020029545e-04 4.698398406617343426e-04
2.656000000000000000e+03 6.254411697387695312e+00 -1.324672031402587891e+01 -1.469374867156147957e-03 2.717782335821539164e-04 -3.592789871618151665e-04 2.876482321880757809e-04
2.657000000000000000e+03 8.496782302856445312e+00 9.238064765930175781e+00 1.361218710371758789e-05 -7.468036073987605050e-06 1.843245172494789585e-06 -1.463776061427779496e-05
2.658000000000000000e+03 6.664923191070556641e+00 1.129836273193359375e+01 1.865974627435207367e-05 -1.853933099482674152e-05 3.612461441093728354e-08 1.342362702416721731e-05
2.659000000000000000e+03 7.014933586120605469e+00 -1.283245182037353516e+01 6.697506178170442581e-04 -8.471974870190024376e-04 -5.323406730894930661e-05 -2.899102692026644945e-04
2.660000000000000000e+03 2.778491020202636719e+01 -1.919770240783691406e+01 5.653121322393417358e-02 -1.323249816894531250e+00 -3.800155818462371826e-01 -1.360347568988800049e-01
2.661000000000000000e+03 2.894759559631347656e+01 -1.056187057495117188e+01 5.265998095273971558e-02 -1.135506391525268555e+00 -3.248539268970489502e-01 -2.436742335557937622e-01
2.662000000000000000e+03 2.599736976623535156e+01 -9.338208198547363281e+00 2.273832261562347412e-02 -1.507252097129821777e+00 -4.453541338443756104e-01 -2.300206273794174194e-01
2.663000000000000000e+03 2.598010826110839844e+01 -1.514988708496093750e+01 1.288975588977336884e-02 -1.567312002182006836e+00 -4.663266837596893311e-01 -1.523880958557128906e-01
2.664000000000000000e+03 2.729608917236328125e+01 7.247301578521728516e+00 -2.095770323649048805e-03 -9.406751990318298340e-01 -2.828312814235687256e-01 -4.354230463504791260e-01
2.665000000000000000e+03 2.718141365051269531e+01 1.650589704513549805e+00 1.566523686051368713e-02 -1.138270497322082520e+00 -3.367815911769866943e-01 -3.585506975650787354e-01
2.666000000000000000e+03 2.853166389465332031e+01 4.510411739349365234e+00 2.218453027307987213e-02 -9.254797697067260742e-01 -2.709885537624359131e-01 -4.415098726749420166e-01
2.667000000000000000e+03 6.561209869384765625e+01 3.775379180908203125e+01 8.350102305412292480e-01 1.076468944549560547e+00 5.734437704086303711e-01 -2.019832283258438110e-01
2.668000000000000000e+03 2.718581008911132812e+01 1.436624050140380859e+01 -2.055288106203079224e-02 -6.443479657173156738e-01 -1.994702517986297607e-01 -4.473243057727813721e-01
2.669000000000000000e+03 9.814715385437011719e+00 -1.438924980163574219e+01 2.502660965546965599e-03 -9.647689294070005417e-04 4.613675992004573345e-04 6.032504024915397167e-04
2.670000000000000000e+03 1.131631660461425781e+01 3.053056144714355469e+01 -1.524367253296077251e-04 2.545823008404113352e-05 -3.809354893746785820e-05 1.665330273681320250e-05
2.671000000000000000e+03 2.609968376159667969e+01 -2.224962425231933594e+01 4.293496534228324890e-02 -1.589066028594970703e+00 -4.638393223285675049e-01 -1.313259899616241455e-01
2.672000000000000000e+03 2.450459098815917969e+01 -2.371506881713867188e+01 3.235416114330291748e-02 -1.807583689689636230e+00 -5.325688719749450684e-01 -1.209132373332977295e-01
2.673000000000000000e+03 2.726045227050781250e+01 4.424733161926269531e+00 2.435103058815002441e-03 -1.042925715446472168e+00 -3.121472001075744629e-01 -3.990747928619384766e-01
2.674000000000000000e+03 2.459219360351562500e+01 -3.109400749206542969e+01 -5.849532410502433777e-02 -1.789817810058593750e+00 -5.544939637184143066e-01 -8.521047979593276978e-02
2.675000000000000000e+03 4.822107696533203125e+01 4.123711776733398438e+01 8.446111530065536499e-02 -1.511394381523132324e-01 -2.000349573791027069e-02 1.815624162554740906e-02
2.676000000000000000e+03 2.726681900024414062e+01 -2.608329772949218750e+01 3.342412412166595459e-02 -1.394170165061950684e+00 -4.082238078117370605e-01 -1.131201237440109253e-01
2.677000000000000000e+03 2.437571907043457031e+01 -2.822954750061035156e+01 -4.894114565104246140e-03 -1.858814477920532227e+00 -5.591125488281250000e-01 -1.061011776328086853e-01
2.678000000000000000e+03 1.141317367553710938e+01 -6.695942401885986328e+00 1.287070102989673615e-03 2.604856854304671288e-04 4.642667190637439489e-04 -2.773152082227170467e-04
2.679000000000000000e+03 8.937479972839355469e+00 -6.203880310058593750e+00 1.463674852857366204e-04 4.736938572023063898e-04 1.860184129327535629e-04 -9.407957550138235092e-04
2.680000000000000000e+03 1.043943977355957031e+01 2.918869209289550781e+01 -1.081918890122324228e-04 2.753728222160134465e-05 -2.419638258288614452e-05 -2.478292117302771658e-05
2.681000000000000000e+03 7.540779876708984375e+01 3.875299072265625000e+01 -8.556804656982421875e-01 1.034995937347412109e+01 2.848283529281616211e+00 3.947854936122894287e-01
2.682000000000000000e+03 7.319576263427734375e+01 3.920348358154296875e+01 -5.655289292335510254e-01 8.897988319396972656e+00 2.499737739562988281e+00 -6.009405255317687988e-01
2.683000000000000000e+03 2.626131248474121094e+01 -2.727890014648437500e+01 -2.803450450301170349e-03 -1.537863969802856445e+00 -4.622002243995666504e-01 -1.187826842069625854e-01
2.684000000000000000e+03 7.178692626953125000e+01 -2.248394966125488281e+01 3.774894028902053833e-02 5.117952346801757812e+00 1.546710371971130371e+00 9.269697219133377075e-02
2.685000000000000000e+03 7.230931854248046875e+01 -1.537878894805908203e+01 6.021127104759216309e-02 5.294935703277587891e+00 1.606544137001037598e+00 1.718869209289550781e-01
2.686000000000000000e+03 7.368422508239746094e+00 -3.393144607543945312e+01 7.350304163992404938e-03 -1.016762666404247284e-02 -8.451968315057456493e-04 5.571987945586442947e-03
2.687000000000000000e+03 2.708294486999511719e+01 -9.993516802787780762e-01 2.954085543751716614e-02 -1.220548152923583984e+00 -3.573021888732910156e-01 -3.246605992317199707e-01
2.688000000000000000e+03 2.580683898925781250e+01 -1.130281448364257812e+00 2.135899104177951813e-02 -1.368441581726074219e+00 -4.041247963905334473e-01 -2.906216084957122803e-01
2.689000000000000000e+03 7.289144897460937500e+01 -7.966903209686279297e+00 8.610281348228454590e-02 5.550006866455078125e+00 1.690832853317260742e+00 2.834454178810119629e-01
2.690000000000000000e+03 1.070599746704101562e+01 3.594367218017578125e+01 1.625009608687832952e-04 -7.696333341300487518e-06 4.644138607545755804e-05 1.705223985482007265e-05
2.691000000000000000e+03 1.038459873199462891e+01 3.389571762084960938e+01 -1.164973800769075751e-04 3.970215857407310978e-06 -3.375814776518382132e-05 -5.076129673398099840e-05
2.692000000000000000e+03 1.582386493682861328e+01 3.891590499877929688e+01 1.602590600668918341e-05 -1.747693750075995922e-04 -4.762304160976782441e-05 2.270119293825700879e-04
2.693000000000000000e+03 8.500230789184570312e+00 3.867435836791992188e+01 7.419658504659309983e-05 4.464337325771339238e-05 3.565198858268558979e-05 8.141386933857575059e-05
2.694000000000000000e+03 1.017202472686767578e+01 -1.217359256744384766e+01 1.409395365044474602e-03 5.490952171385288239e-04 5.875471979379653931e-04 -6.928739367140224203e-06
2.695000000000000000e+03 9.204800605773925781e+00 -1.338993549346923828e+01 -2.216027583926916122e-03 7.007714593783020973e-04 -4.545768024399876595e-04 -8.146809414029121399e-04
2.696000000000000000e+03 7.307567596435546875e+01 2.798280525207519531e+01 -1.903676271438598633e+00 1.389632225036621094e+01 3.597793817520141602e+00 3.207014083862304688e+00
2.697000000000000000e+03 7.227770996093750000e+01 2.816428565979003906e+01 -1.033475875854492188e+00 1.086865711212158203e+01 2.950554370880126953e+00 4.981846809387207031e+00
2.698000000000000000e+03 7.150405883789062500e+01 2.841616630554199219e+01 6.170937791466712952e-03 6.706737995147705078e+00 2.013872623443603516e+00 5.006136894226074219e+00
2.699000000000000000e+03 7.218964385986328125e+01 3.418399810791015625e+01 -5.678517222404479980e-01 1.010165405273437500e+01 2.860140562057495117e+00 -3.750009298324584961e+00
2.700000000000000000e+03 7.283451080322265625e+01 2.813981437683105469e+01 -1.674996137619018555e+00 1.337051486968994141e+01 3.508655548095703125e+00 3.969551324844360352e+00
2.701000000000000000e+03 7.336001586914062500e+01 3.369228744506835938e+01 -1.518386125564575195e+00 1.501576423645019531e+01 4.049213409423828125e+00 -2.057762861251831055e+00
2.702000000000000000e+03 7.542173004150390625e+01 2.624149322509765625e+01 -1.562097668647766113e+00 1.216673278808593750e+01 3.181390523910522461e+00 -5.650519728660583496e-01
2.703000000000000000e+03 7.395811462402343750e+01 3.431820297241210938e+01 -1.664808869361877441e+00 1.442725086212158203e+01 3.828732490539550781e+00 -6.929901838302612305e-01
2.704000000000000000e+03 7.475775146484375000e+01 2.433502769470214844e+01 -1.477127790451049805e+00 1.056329154968261719e+01 2.725849151611328125e+00 6.516668796539306641e-01
2.705000000000000000e+03 7.414133453369140625e+01 2.842522239685058594e+01 -1.291620850563049316e+00 1.656726455688476562e+01 4.582693576812744141e+00 -8.880902081727981567e-02
2.706000000000000000e+03 7.158492279052734375e+01 3.420009994506835938e+01 8.841369301080703735e-02 7.640066146850585938e+00 2.318543910980224609e+00 -3.719165802001953125e+00
2.707000000000000000e+03 7.197566223144531250e+01 3.388597488403320312e+01 -1.731679588556289673e-01 9.490842819213867188e+00 2.795302391052246094e+00 -4.221925735473632812e+00
2.708000000000000000e+03 6.915760040283203125e+01 2.774004364013671875e+01 -6.503322124481201172e-01 1.758431077003479004e+00 3.324296772480010986e-01 2.127850294113159180e+00
2.709000000000000000e+03 7.486384582519531250e+01 2.346531105041503906e+01 -1.222656965255737305e+00 9.995284080505371094e+00 2.631788253784179688e+00 6.859239935874938965e-01
2.710000000000000000e+03 7.502348327636718750e+01 3.300807189941406250e+01 5.753465890884399414e-01 1.538187503814697266e+01 4.787166595458984375e+00 2.123754024505615234e+00
2.711000000000000000e+03 7.558262634277343750e+01 3.214630889892578125e+01 2.960791110992431641e+00 1.381117916107177734e+01 5.031590938568115234e+00 2.201210021972656250e+00
2.712000000000000000e+03 7.518261718750000000e+01 2.933403778076171875e+01 2.217684984207153320e+00 1.498484992980957031e+01 5.160760402679443359e+00 -2.375663042068481445e+00
2.713000000000000000e+03 7.453398132324218750e+01 2.882072448730468750e+01 -8.086812496185302734e-02 1.661838912963867188e+01 4.961256027221679688e+00 -1.465639352798461914e+00
2.714000000000000000e+03 7.569464874267578125e+01 2.905687522888183594e+01 1.593099832534790039e+00 1.354106998443603516e+01 4.540250778198242188e+00 -2.246249675750732422e+00
2.715000000000000000e+03 7.572544097900390625e+01 2.952410316467285156e+01 2.399762868881225586e+00 1.350638484954833984e+01 4.771844387054443359e+00 -2.172099113464355469e+00
2.716000000000000000e+03 7.248112487792968750e+01 2.799484825134277344e+01 -1.407863855361938477e+00 1.171333789825439453e+01 3.091642379760742188e+00 4.428665637969970703e+00
2.717000000000000000e+03 6.955065917968750000e+01 2.794944190979003906e+01 -6.108412146568298340e-01 2.023722887039184570e+00 4.238645434379577637e-01 2.366012096405029297e+00
2.718000000000000000e+03 7.594169616699218750e+01 2.800224876403808594e+01 -3.345465064048767090e-01 1.309446907043457031e+01 3.827976942062377930e+00 -1.912659287452697754e+00
2.719000000000000000e+03 6.964669036865234375e+01 3.455021286010742188e+01 6.511392593383789062e-01 2.970425367355346680e+00 1.086469411849975586e+00 -1.812825083732604980e+00
2.720000000000000000e+03 6.889465332031250000e+01 2.664610671997070312e+01 -4.432194232940673828e-01 2.365982770919799805e+00 5.768290162086486816e-01 2.240041494369506836e+00
2.721000000000000000e+03 7.567575836181640625e+01 2.741974067687988281e+01 -9.269782304763793945e-01 1.305177021026611328e+01 3.637437820434570312e+00 -1.490632295608520508e+00
2.722000000000000000e+03 7.107382202148437500e+01 3.372565841674804688e+01 7.139623761177062988e-01 5.691443443298339844e+00 1.921621799468994141e+00 -3.638092517852783203e+00
2.723000000000000000e+03 7.519330596923828125e+01 3.358478927612304688e+01 -2.860106229782104492e-01 1.449650859832763672e+01 4.263149261474609375e+00 1.791096091270446777e+00
2.724000000000000000e+03 5.815489959716796875e+01 2.655084228515625000e+01 -1.979003667831420898e+00 1.986393518745899200e-02 -5.877419114112854004e-01 -3.466280996799468994e-01
2.725000000000000000e+03 6.040373992919921875e+01 2.573193931579589844e+01 -1.576858758926391602e+00 1.211244165897369385e-01 -4.367202818393707275e-01 -1.971704959869384766e-01
2.726000000000000000e+03 7.641588592529296875e+01 3.282307815551757812e+01 1.214038133621215820e+00 1.216670131683349609e+01 4.014221668243408203e+00 2.239523172378540039e+00
2.727000000000000000e+03 7.617713928222656250e+01 3.384980773925781250e+01 -3.197339177131652832e-02 1.276711654663085938e+01 3.820543050765991211e+00 2.161889314651489258e+00
2.728000000000000000e+03 8.123396873474121094e+00 6.678565025329589844e+00 -2.714519177970942110e-05 -3.877639187521708664e-07 -8.259886271844152361e-06 4.318024821259314194e-06
2.729000000000000000e+03 5.167834281921386719e+00 5.608161926269531250e+00 3.280434975749813020e-05 -2.708250349314766936e-06 9.028830390889197588e-06 -7.850966539990622550e-06
2.730000000000000000e+03 2.715252113342285156e+01 2.850132560729980469e+01 -1.188431233167648315e-01 -8.887390047311782837e-02 -6.231510639190673828e-02 -1.650738269090652466e-01
2.731000000000000000e+03 2.651108551025390625e+01 3.023510932922363281e+01 -9.218063950538635254e-02 -5.568410083651542664e-02 -4.435942322015762329e-02 -1.019857078790664673e-01
2.732000000000000000e+03 7.554604339599609375e+01 2.444446945190429688e+01 -1.323318123817443848e+00 1.084729194641113281e+01 2.857192039489746094e+00 1.023108512163162231e-02
2.733000000000000000e+03 4.890181732177734375e+01 2.677158737182617188e+01 -1.402656316757202148e+00 5.357998237013816833e-02 -4.047228991985321045e-01 -4.854412376880645752e-01
2.734000000000000000e+03 4.577709579467773438e+01 2.729799079895019531e+01 -1.196803212165832520e+00 6.694275885820388794e-02 -3.389581143856048584e-01 -4.510142505168914795e-01
2.735000000000000000e+03 7.296907806396484375e+01 2.443698120117187500e+01 -1.385830163955688477e+00 9.094601631164550781e+00 2.312631607055664062e+00 1.999194741249084473e+00
2.736000000000000000e+03 7.263854980468750000e+00 6.588092327117919922e+00 2.571471122791990638e-05 3.045233597731566988e-06 8.627983334008604288e-06 2.492878365956130438e-06
2.737000000000000000e+03 2.632394027709960938e+01 2.645482254028320312e+01 -9.352464973926544189e-02 -1.508119404315948486e-01 -7.330098003149032593e-02 -2.018687725067138672e-01
2.738000000000000000e+03 3.135798072814941406e+01 2.859008979797363281e+01 -2.728227972984313965e-01 -3.603041544556617737e-02 -9.265595674514770508e-02 -2.529373168945312500e-01
2.739000000000000000e+03 3.132030296325683594e+01 2.932350921630859375e+01 -2.673514783382415771e-01 -2.430848218500614166e-02 -8.749799430370330811e-02 -2.202722281217575073e-01
2.740000000000000000e+03 3.197976303100585938e+01 2.927520751953125000e+01 -2.970995306968688965e-01 -1.622428558766841888e-02 -9.399714320898056030e-02 -2.334766536951065063e-01
2.741000000000000000e+03 3.130807304382324219e+01 3.004196548461914062e+01 -2.606878578662872314e-01 -1.329046022146940231e-02 -8.219349384307861328e-02 -1.891926527023315430e-01
2.742000000000000000e+03 3.264049911499023438e+01 2.919691467285156250e+01 -3.290609419345855713e-01 -8.480887860059738159e-03 -1.012625545263290405e-01 -2.466862648725509644e-01
2.743000000000000000e+03 5.131340408325195312e+01 2.717582511901855469e+01 -1.704532265663146973e+00 3.253703191876411438e-02 -5.015985369682312012e-01 -4.297226667404174805e-01
2.744000000000000000e+03 5.283418655395507812e+01 2.702594757080078125e+01 -1.807960510253906250e+00 2.398820221424102783e-02 -5.351917147636413574e-01 -4.295766353607177734e-01
2.745000000000000000e+03 3.198411750793457031e+01 2.858005905151367188e+01 -2.995369434356689453e-01 -2.745179273188114166e-02 -9.809661656618118286e-02 -2.639163136482238770e-01
2.746000000000000000e+03 2.792681121826171875e+01 2.847453689575195312e+01 -1.432475745677947998e-01 -8.283276855945587158e-02 -6.782410293817520142e-02 -1.843788325786590576e-01
2.747000000000000000e+03 2.799947357177734375e+01 2.751664352416992188e+01 -1.457712799310684204e-01 -1.055660843849182129e-01 -7.540120929479598999e-02 -2.171968519687652588e-01
2.748000000000000000e+03 1.062451744079589844e+01 5.770199775695800781e+00 7.255060609168140218e-06 8.632276149000972509e-06 4.766201072925468907e-06 3.314237119411700405e-06
2.749000000000000000e+03 1.016962337493896484e+01 6.554756164550781250e+00 -4.645679382520029321e-06 -4.931821422360371798e-06 -2.873250423363060690e-06 -5.578378022619290277e-06
2.750000000000000000e+03 3.330214691162109375e+01 2.908396530151367188e+01 -3.615030050277709961e-01 -1.791588030755519867e-03 -1.089883819222450256e-01 -2.619885206222534180e-01
2.751000000000000000e+03 3.618684387207031250e+01 2.915792083740234375e+01 -5.242441296577453613e-01 3.335460647940635681e-02 -1.472668498754501343e-01 -2.876987159252166748e-01
2.752000000000000000e+03 3.735102462768554688e+01 2.728645896911621094e+01 -5.687647461891174316e-01 2.776905708014965057e-02 -1.622987091541290283e-01 -4.135988950729370117e-01
2.753000000000000000e+03 7.542300701141357422e+00 -5.706610679626464844e+00 4.370005917735397816e-04 8.116895332932472229e-04 3.746070433408021927e-04 5.619283183477818966e-04
2.754000000000000000e+03 3.396806716918945312e+01 2.894457054138183594e+01 -3.971167504787445068e-01 5.741773173213005066e-03 -1.174124926328659058e-01 -2.779027223587036133e-01
2.755000000000000000e+03 3.546256256103515625e+01 2.931525230407714844e+01 -4.799146056175231934e-01 2.702351845800876617e-02 -1.358673274517059326e-01 -2.725294828414916992e-01
2.756000000000000000e+03 3.606624603271484375e+01 2.845361518859863281e+01 -5.126339793205261230e-01 2.578106522560119629e-02 -1.460558772087097168e-01 -3.297317922115325928e-01
2.757000000000000000e+03 8.287862777709960938e+00 -9.829121589660644531e+00 4.740646691061556339e-04 1.020596595481038094e-03 4.483983793761581182e-04 3.191574069205671549e-04
2.758000000000000000e+03 4.401402664184570312e+01 2.618244934082031250e+01 -9.478061795234680176e-01 6.709949672222137451e-02 -2.642120122909545898e-01 -5.375624895095825195e-01
2.759000000000000000e+03 3.534968948364257812e+01 2.862758255004882812e+01 -4.715388119220733643e-01 1.883739419281482697e-02 -1.358104199171066284e-01 -3.117640316486358643e-01
2.760000000000000000e+03 3.465026092529296875e+01 2.879129791259765625e+01 -4.329601824283599854e-01 1.225963793694972992e-02 -1.262101531028747559e-01 -2.939592599868774414e-01
2.761000000000000000e+03 3.898651504516601562e+01 2.781046867370605469e+01 -6.854294538497924805e-01 4.864350333809852600e-02 -1.910357922315597534e-01 -3.925653398036956787e-01
2.762000000000000000e+03 4.185078811645507812e+01 2.730343627929687500e+01 -8.722299933433532715e-01 6.516586244106292725e-02 -2.421192377805709839e-01 -4.475017189979553223e-01
2.763000000000000000e+03 3.661547851562500000e+01 2.752642059326171875e+01 -5.319142937660217285e-01 2.172853238880634308e-02 -1.530557274818420410e-01 -3.903140425682067871e-01
2.764000000000000000e+03 1.039252185821533203e+01 -7.915947914123535156e+00 1.133626676164567471e-03 6.118299206718802452e-04 5.236369906924664974e-04 -3.657988854683935642e-04
2.765000000000000000e+03 6.117184448242187500e+01 2.569949531555175781e+01 -1.513750910758972168e+00 1.628862321376800537e-01 -4.052594006061553955e-01 -1.177708655595779419e-01
2.766000000000000000e+03 6.392065048217773438e+01 2.479245948791503906e+01 -7.785431742668151855e-01 6.567308902740478516e-01 -3.654368966817855835e-02 4.751681387424468994e-01
2.767000000000000000e+03 5.127612686157226562e+01 2.643393516540527344e+01 -1.535151481628417969e+00 3.862785175442695618e-02 -4.489570856094360352e-01 -4.934192895889282227e-01
2.768000000000000000e+03 5.207351684570312500e+01 2.709623146057128906e+01 -1.756898760795593262e+00 2.792733907699584961e-02 -5.186914205551147461e-01 -4.298036694526672363e-01
2.769000000000000000e+03 4.969950866699218750e+01 2.664874649047851562e+01 -1.449633836746215820e+00 5.037712678313255310e-02 -4.197770059108734131e-01 -4.905728995800018311e-01
2.770000000000000000e+03 4.740372467041015625e+01 2.773246192932128906e+01 -1.403717637062072754e+00 5.765831843018531799e-02 -4.038178026676177979e-01 -4.027558863162994385e-01
2.771000000000000000e+03 4.260486221313476562e+01 2.716449737548828125e+01 -9.215393066406250000e-01 6.739627569913864136e-02 -2.562429308891296387e-01 -4.612303376197814941e-01
2.772000000000000000e+03 4.732228851318359375e+01 2.702846717834472656e+01 -1.302311778068542480e+00 6.119972839951515198e-02 -3.723336160182952881e-01 -4.704045355319976807e-01
2.773000000000000000e+03 5.507360839843750000e+01 2.613440895080566406e+01 -1.702870965003967285e+00 2.666747756302356720e-02 -5.028610229492187500e-01 -4.545310437679290771e-01
2.774000000000000000e+03 5.733712768554687500e+01 2.591475105285644531e+01 -1.703546285629272461e+00 3.737419098615646362e-02 -4.998516142368316650e-01 -3.909496665000915527e-01
2.775000000000000000e+03 7.066182708740234375e+01 3.547676086425781250e+01 2.113059908151626587e-01 5.652739524841308594e+00 1.759213685989379883e+00 -2.572095394134521484e+00
2.776000000000000000e+03 5.886831283569335938e+01 2.580837821960449219e+01 -1.662377715110778809e+00 6.607409566640853882e-02 -4.788911044597625732e-01 -3.137710094451904297e-01
2.777000000000000000e+03 6.555875396728515625e+01 2.610029602050781250e+01 -1.070500731468200684e+00 7.168645858764648438e-01 -1.060908511281013489e-01 7.048732638359069824e-01
2.778000000000000000e+03 6.324391174316406250e+01 2.484529685974121094e+01 -8.986427187919616699e-01 5.172984600067138672e-01 -1.144032701849937439e-01 3.087219297885894775e-01
2.779000000000000000e+03 5.359463119506835938e+01 2.695832443237304688e+01 -1.855629801750183105e+00 2.010094374418258667e-02 -5.506587028503417969e-01 -4.251224696636199951e-01
2.780000000000000000e+03 5.356814575195312500e+01 2.626536560058593750e+01 -1.655419349670410156e+00 3.072828613221645355e-02 -4.874073266983032227e-01 -4.767609536647796631e-01
2.781000000000000000e+03 4.644241333007812500e+01 2.645742607116699219e+01 -1.155333042144775391e+00 6.617271155118942261e-02 -3.267481029033660889e-01 -5.199390053749084473e-01
2.782000000000000000e+03 4.567076110839843750e+01 2.659778022766113281e+01 -1.110953807830810547e+00 6.820237636566162109e-02 -3.128254115581512451e-01 -5.098177194595336914e-01
2.783000000000000000e+03 6.616110229492187500e+01 2.582352066040039062e+01 -8.488745689392089844e-01 9.537397027015686035e-01 3.145954385399818420e-02 9.494918584823608398e-01
2.784000000000000000e+03 6.183019256591796875e+01 2.494193840026855469e+01 -1.108981370925903320e+00 3.124645948410034180e-01 -2.389550358057022095e-01 3.870709612965583801e-02
2.785000000000000000e+03 5.809853363037109375e+01 2.585802459716796875e+01 -1.688016295433044434e+00 4.930132254958152771e-02 -4.916144907474517822e-01 -3.572904765605926514e-01
2.786000000000000000e+03 1.120308780670166016e+01 -5.727865219116210938e+00 -1.427579205483198166e-03 2.437317452859133482e-04 -3.551542467903345823e-04 -2.725573140196502209e-04
2.787000000000000000e+03 7.524642944335937500e+01 3.518990707397460938e+01 -1.355184674263000488e+00 1.275780105590820312e+01 3.420784950256347656e+00 8.609762787818908691e-01
2.788000000000000000e+03 7.438294219970703125e+01 3.501512527465820312e+01 -1.615555047988891602e+00 1.319760894775390625e+01 3.474616050720214844e+00 -9.871213138103485107e-02
2.789000000000000000e+03 7.566047668457031250e+01 2.685755538940429688e+01 -1.286893248558044434e+00 1.253149700164794922e+01 3.373381137847900391e+00 -1.076107025146484375e+00
2.790000000000000000e+03 7.457067871093750000e+01 3.561483383178710938e+01 -1.547605156898498535e+00 1.238920307159423828e+01 3.252479314804077148e+00 2.261807024478912354e-02
2.791000000000000000e+03 1.010416412353515625e+01 1.497858905792236328e+01 3.154133810312487185e-05 1.075469481293112040e-05 1.268880896532209590e-05 5.713382961403112859e-06
2.792000000000000000e+03 6.948859214782714844e+00 1.781334686279296875e+01 1.347873694612644613e-05 -6.023873538651969284e-06 2.236459067717078142e-06 2.158909592253621668e-05
2.793000000000000000e+03 7.586960315704345703e+00 -1.472129917144775391e+01 2.458632458001375198e-03 7.082056836225092411e-04 9.500514133833348751e-04 -5.165839684195816517e-04
2.794000000000000000e+03 8.658946037292480469e+00 -1.076986026763916016e+01 -2.307061513420194387e-04 3.403660957701504230e-04 3.289798041805624962e-05 -4.489241400733590126e-04
2.795000000000000000e+03 5.202726364135742188e+01 2.559334754943847656e+01 -1.395413994789123535e+00 4.494594410061836243e-02 -4.051404297351837158e-01 -5.399773716926574707e-01
2.796000000000000000e+03 8.949337005615234375e+00 1.006239223480224609e+01 -2.028038034040946513e-05 4.481625637708930299e-06 -4.739626092487014830e-06 8.147200787789188325e-06
2.797000000000000000e+03 5.280833816528320312e+01 2.631425285339355469e+01 -1.619937419891357422e+00 3.381933271884918213e-02 -4.758354127407073975e-01 -4.852144718170166016e-01
2.798000000000000000e+03 6.414272308349609375e+01 2.627390861511230469e+01 -1.458374977111816406e+00 3.470542430877685547e-01 -3.333962261676788330e-01 2.732601761817932129e-01
2.799000000000000000e+03 7.081497192382812500e+01 2.821997642517089844e+01 5.743157584220170975e-03 4.389698028564453125e+00 1.318632364273071289e+00 4.010898113250732422e+00
2.800000000000000000e+03 7.111322784423828125e+01 3.866356658935546875e+01 -1.167173162102699280e-01 6.934431076049804688e+00 2.045314073562622070e+00 -1.066038966178894043e+00
2.801000000000000000e+03 6.680942535400390625e+01 4.145707321166992188e+01 8.874002695083618164e-01 2.732906341552734375e+00 1.086091995239257812e+00 -1.438749581575393677e-01
2.802000000000000000e+03 7.414798736572265625e+01 2.538819694519042969e+01 -1.784155488014221191e+00 1.109718227386474609e+01 2.793908119201660156e+00 1.060347199440002441e+00
2.803000000000000000e+03 2.712889289855957031e+01 3.088197410106658936e-01 2.561454661190509796e-02 -1.184496402740478516e+00 -3.476645648479461670e-01 -3.402537107467651367e-01
2.804000000000000000e+03 2.980541038513183594e+01 4.602790355682373047e+00 4.072986915707588196e-02 -8.116579651832580566e-01 -2.312784194946289062e-01 -4.763244092464447021e-01
2.805000000000000000e+03 4.953588008880615234e+00 8.462301254272460938e+00 -5.748202966060489416e-06 3.332515916554257274e-07 -1.624485321372048929e-06 1.527619861008133739e-05
2.806000000000000000e+03 4.835350036621093750e+00 7.512011528015136719e+00 1.821899786591529846e-05 8.834169420879334211e-06 8.115950549836270511e-06 -1.623695970920380205e-05
2.807000000000000000e+03 6.309281826019287109e+00 9.680661201477050781e+00 1.199733742396347225e-05 3.463592292973771691e-06 4.638278824131703004e-06 7.450505563610931858e-06
2.808000000000000000e+03 9.592509269714355469e+00 1.189928913116455078e+01 -2.932460665761027485e-05 -1.565869411024323199e-06 -9.267142559110652655e-06 -3.577552433853270486e-06
2.809000000000000000e+03 7.369159698486328125e+01 3.657748413085937500e+01 -1.328333139419555664e+00 1.085404396057128906e+01 2.857713222503662109e+00 -8.556512594223022461e-01
2.810000000000000000e+03 1.025514793395996094e+01 -1.019975852966308594e+01 1.190765062347054482e-03 7.437749300152063370e-04 5.803619860671460629e-04 -6.940254243090748787e-04
2.811000000000000000e+03 1.036592769622802734e+01 -9.038029670715332031e+00 -1.157484948635101318e-03 -6.927459035068750381e-04 -5.550692440010607243e-04 5.671954713761806488e-04
2.812000000000000000e+03 1.011041545867919922e+01 1.912132072448730469e+01 -5.484042048919945955e-06 5.611452252196613699e-06 3.822308158873966022e-08 -4.046128651680191979e-06
2.813000000000000000e+03 7.093443870544433594e+00 8.974699020385742188e+00 -2.399527602392481640e-06 -2.321210104128113016e-06 -1.416221266481443308e-06 -1.477703517593909055e-05
2.814000000000000000e+03 7.205981445312500000e+01 -2.096287918090820312e+01 4.253841936588287354e-02 5.177597522735595703e+00 1.566040873527526855e+00 1.099197044968605042e-01
2.815000000000000000e+03 7.054190063476562500e+01 -2.566288566589355469e+01 2.971777692437171936e-02 4.885988235473632812e+00 1.474711775779724121e+00 7.702895998954772949e-02
2.816000000000000000e+03 1.145720195770263672e+01 -7.904432296752929688e+00 -1.378536573611199856e-03 -3.581785422284156084e-04 -5.210145609453320503e-04 4.337856371421366930e-04
2.817000000000000000e+03 9.345052719116210938e+00 -7.897073745727539062e+00 -9.478406864218413830e-04 -8.714008727110922337e-04 -5.457724910229444504e-04 2.558887354098260403e-04
2.818000000000000000e+03 7.019898986816406250e+01 -4.202800750732421875e+00 1.886466294527053833e-01 5.091239452362060547e+00 1.583965778350830078e+00 4.382956922054290771e-01
2.819000000000000000e+03 6.268460083007812500e+01 3.957424545288085938e+01 9.190481901168823242e-01 4.228232502937316895e-01 4.025614559650421143e-01 1.953357011079788208e-01
2.820000000000000000e+03 7.177597808837890625e+01 1.658970642089843750e+01 8.861190825700759888e-02 6.280108928680419922e+00 1.910616278648376465e+00 1.341087102890014648e+00
2.821000000000000000e+03 8.971038818359375000e+00 2.394730758666992188e+01 4.353260737843811512e-05 9.864725143415853381e-06 1.601919939275830984e-05 -7.350938176386989653e-06
2.822000000000000000e+03 7.325073242187500000e+01 3.736846685409545898e+00 1.655757129192352295e-01 6.092372894287109375e+00 1.877384543418884277e+00 6.286743283271789551e-01
2.823000000000000000e+03 7.154550170898437500e+01 3.394775092601776123e-01 1.957202702760696411e-01 5.505105495452880859e+00 1.710247755050659180e+00 5.540175437927246094e-01
2.824000000000000000e+03 8.356151580810546875e+00 1.769301795959472656e+01 1.603674536454491317e-05 3.231542223147698678e-06 5.780485935247270390e-06 -9.934371973940869793e-07
2.825000000000000000e+03 9.822234153747558594e+00 1.723731613159179688e+01 2.171625237679108977e-05 1.990785858652088791e-05 1.248723310709465295e-05 1.125659673562040552e-05
2.826000000000000000e+03 3.057533836364746094e+01 -1.889302253723144531e+01 6.323508173227310181e-02 -9.470313191413879395e-01 -2.651388645172119141e-01 -1.385053545236587524e-01
2.827000000000000000e+03 2.751930046081542969e+01 -1.790386199951171875e+01 2.798118814826011658e-02 -1.374942779541015625e+00 -4.040884673595428467e-01 -1.399089843034744263e-01
2.828000000000000000e+03 6.216331005096435547e+00 -1.226027584075927734e+01 1.871191663667559624e-03 5.843712715432047844e-04 7.366688805632293224e-04 2.453512206557206810e-05
2.829000000000000000e+03 7.180281066894531250e+01 -2.603221702575683594e+01 2.577254921197891235e-02 5.106247425079345703e+00 1.539605975151062012e+00 7.383304089307785034e-02
2.830000000000000000e+03 7.310432434082031250e+01 2.069131851196289062e+01 -5.430213212966918945e-01 7.714420795440673828e+00 2.151419878005981445e+00 1.437872529029846191e+00
2.831000000000000000e+03 9.807112693786621094e+00 -1.920469474792480469e+01 3.640171838924288750e-03 6.912178942002356052e-04 1.299416879191994667e-03 -8.345655514858663082e-04
2.832000000000000000e+03 8.920420646667480469e+00 -2.134017372131347656e+01 3.472365438938140869e-03 6.644864915870130062e-04 1.241055550053715706e-03 -2.993813948705792427e-03
2.833000000000000000e+03 7.230115509033203125e+01 8.574141502380371094e+00 2.408437132835388184e-01 6.044607639312744141e+00 1.885635375976562500e+00 9.112994074821472168e-01
2.834000000000000000e+03 7.289909362792968750e+01 -9.265182495117187500e+00 7.853615283966064453e-02 5.516680240631103516e+00 1.678565025329589844e+00 2.571827173233032227e-01
2.835000000000000000e+03 7.162735748291015625e+01 -1.046434307098388672e+01 9.562210738658905029e-02 5.261108398437500000e+00 1.607019066810607910e+00 2.620538175106048584e-01
2.836000000000000000e+03 7.078365325927734375e+01 3.059873342514038086e+00 2.642546892166137695e-01 5.338658809661865234e+00 1.680873990058898926e+00 6.980056762695312500e-01
2.837000000000000000e+03 7.152653503417968750e+01 -5.376474857330322266e+00 1.359270960092544556e-01 5.347775936126708984e+00 1.645110845565795898e+00 3.767382800579071045e-01
2.838000000000000000e+03 7.209983825683593750e+01 9.601687431335449219e+00 2.566779255867004395e-01 5.984827518463134766e+00 1.872451543807983398e+00 9.641889929771423340e-01
2.839000000000000000e+03 7.339774322509765625e+01 8.703647613525390625e+00 1.898619532585144043e-01 6.453302860260009766e+00 1.992949485778808594e+00 8.340159654617309570e-01
2.840000000000000000e+03 7.286373138427734375e+01 -6.655106067657470703e+00 9.334164857864379883e-02 5.580176353454589844e+00 1.702055335044860840e+00 3.111549615859985352e-01
2.841000000000000000e+03 6.617738246917724609e+00 2.508378791809082031e+01 4.915170575259253383e-05 1.112285826820880175e-05 1.808236993383616209e-05 -1.153657080976699945e-06
2.842000000000000000e+03 2.725827026367187500e+01 1.152669429779052734e+01 -6.665280088782310486e-03 -7.695624232292175293e-01 -2.328683137893676758e-01 -4.561716318130493164e-01
2.843000000000000000e+03 7.264609527587890625e+01 1.683783912658691406e+01 1.889361650682985783e-03 6.715397357940673828e+00 2.015186071395874023e+00 1.308557033538818359e+00
2.844000000000000000e+03 7.379142761230468750e+01 1.585914421081542969e+01 3.673933073878288269e-02 7.254156112670898438e+00 2.187268733978271484e+00 1.118196249008178711e+00
2.845000000000000000e+03 2.694221496582031250e+01 1.998175621032714844e+01 -6.363140791654586792e-02 -3.936303555965423584e-01 -1.371785253286361694e-01 -3.756451010704040527e-01
2.846000000000000000e+03 3.143800163269042969e+01 2.783522796630859375e+01 -2.766301631927490234e-01 -4.937433451414108276e-02 -9.780135005712509155e-02 -2.864829599857330322e-01
2.847000000000000000e+03 2.969835281372070312e+01 1.165598106384277344e+01 -2.161755692213773727e-03 -6.198628544807434082e-01 -1.866073757410049438e-01 -5.501154661178588867e-01
2.848000000000000000e+03 2.934459686279296875e+01 1.871567153930664062e+01 -8.938861638307571411e-02 -3.790473639965057373e-01 -1.405307948589324951e-01 -4.968782067298889160e-01
2.849000000000000000e+03 2.809801292419433594e+01 2.005903434753417969e+01 -8.589624613523483276e-02 -3.617694079875946045e-01 -1.342996954917907715e-01 -4.231741726398468018e-01
2.850000000000000000e+03 6.526782989501953125e+00 -1.766707992553710938e+01 -8.476249058730900288e-04 4.828404926229268312e-04 -1.094353283406235278e-04 -8.433266193605959415e-04
2.851000000000000000e+03 7.242079162597656250e+01 -1.323334217071533203e+01 6.163347139954566956e-02 5.345315456390380859e+00 1.622084617614746094e+00 1.976851820945739746e-01
2.852000000000000000e+03 7.131363677978515625e+01 -1.686668586730957031e+01 6.963417679071426392e-02 5.111478805541992188e+00 1.554333806037902832e+00 1.648173481225967407e-01
2.853000000000000000e+03 7.177788257598876953e+00 -2.501922607421875000e+01 1.107775824493728578e-04 -4.359564743936061859e-03 -1.274636131711304188e-03 2.475131303071975708e-03
2.854000000000000000e+03 6.112879276275634766e+00 -2.823306846618652344e+01 1.201445935294032097e-03 -8.662725449539721012e-04 1.005520316539332271e-04 1.929107122123241425e-03
2.855000000000000000e+03 6.566853523254394531e+00 1.689190864562988281e+01 2.367749948462005705e-05 2.710330227273516357e-05 1.523423998150974512e-05 -1.348213754681637511e-05
2.856000000000000000e+03 8.105602264404296875e+00 1.625787353515625000e+01 5.624803634418640286e-06 -1.080344009096734226e-05 -1.553591005176713225e-06 -1.350747515971306711e-05
2.857000000000000000e+03 6.758250713348388672e+00 -2.051835441589355469e+01 1.188019523397088051e-03 2.177146496251225471e-03 1.009549829177558422e-03 -1.514258561655879021e-03
2.858000000000000000e+03 8.934640884399414062e+00 -1.569452571868896484e+01 2.725336700677871704e-03 2.441143878968432546e-04 8.908353629522025585e-04 -8.824862306937575340e-04
2.859000000000000000e+03 9.368382453918457031e+00 -1.159294033050537109e+01 -5.570471985265612602e-04 -4.640966944862157106e-04 -3.063431649934500456e-04 1.410973491147160530e-04
2.860000000000000000e+03 2.838285827636718750e+01 1.442784500122070312e+01 -2.702233754098415375e-02 -5.862811207771301270e-01 -1.839910298585891724e-01 -4.998565614223480225e-01
2.861000000000000000e+03 2.788181495666503906e+01 2.936573219299316406e+01 -1.376754492521286011e-01 -6.360004842281341553e-02 -6.038264930248260498e-02 -1.540420502424240112e-01
2.862000000000000000e+03 2.726910209655761719e+01 -4.879429340362548828e+00 4.837031289935112000e-02 -1.279449462890625000e+00 -3.693237602710723877e-01 -2.889395058155059814e-01
2.863000000000000000e+03 2.950343322753906250e+01 -3.018692016601562500e+00 6.637864559888839722e-02 -9.970045089721679688e-01 -2.791877686977386475e-01 -3.505272567272186279e-01
2.864000000000000000e+03 2.683990097045898438e+01 2.135674667358398438e+01 -7.410305738449096680e-02 -3.364449441432952881e-01 -1.231643930077552795e-01 -3.456459939479827881e-01
2.865000000000000000e+03 9.995456695556640625e+00 -2.382769203186035156e+01 -7.133495528250932693e-03 2.028149785473942757e-03 -1.531603746116161346e-03 3.750999167095869780e-04
2.866000000000000000e+03 9.977032661437988281e+00 -2.171749877929687500e+01 -4.740521311759948730e-03 1.388647011481225491e-03 -1.005562371574342251e-03 2.990871202200651169e-03
2.867000000000000000e+03 7.122804260253906250e+01 -1.279260730743408203e+01 7.940517365932464600e-02 5.123096942901611328e+00 1.560750603675842285e+00 2.264797538518905640e-01
2.868000000000000000e+03 8.914695739746093750e+00 -1.782689094543457031e+01 3.249369328841567039e-03 5.551663925871253014e-04 1.141360728070139885e-03 -5.861826357431709766e-04
2.869000000000000000e+03 9.443091392517089844e+00 -5.581139087677001953e+00 -5.883692647330462933e-04 -4.801631148438900709e-04 -3.205597167834639549e-04 7.501178770326077938e-04
2.870000000000000000e+03 8.459519386291503906e+00 -6.880728244781494141e+00 -8.353821467608213425e-04 -7.424099603667855263e-04 -4.733376554213464260e-04 6.266293930821120739e-04
2.871000000000000000e+03 2.843491172790527344e+01 1.301058673858642578e+01 -1.453582663089036942e-02 -6.406015157699584961e-01 -1.965412050485610962e-01 -5.055525898933410645e-01
2.872000000000000000e+03 8.776430130004882812e+00 7.935607433319091797e+00 -2.732569782892824151e-06 -4.377649474918143824e-06 -2.133065663656452671e-06 -9.260216756956651807e-06
2.873000000000000000e+03 7.139116287231445312e+00 -7.686730384826660156e+00 -1.233283313922584057e-03 -5.468818126246333122e-04 -5.340495263226330280e-04 -1.315291883656755090e-04
2.874000000000000000e+03 6.847073554992675781e+00 1.025005245208740234e+01 9.769191819941624999e-06 -7.317130439332686365e-06 7.356184710261004511e-07 -1.374646618756969474e-08
2.875000000000000000e+03 5.784245014190673828e+00 1.040564346313476562e+01 -1.766199602570850402e-05 -1.301858264923794195e-05 -9.204173693433403969e-06 -1.567486947351426352e-06
2.876000000000000000e+03 2.912520790100097656e+01 2.154589271545410156e+01 -1.263038814067840576e-01 -2.796184718608856201e-01 -1.217767000198364258e-01 -4.302973449230194092e-01
2.877000000000000000e+03 7.279715728759765625e+01 1.584672641754150391e+01 7.548878341913223267e-02 6.736372470855712891e+00 2.043558359146118164e+00 1.233289361000061035e+00
2.878000000000000000e+03 7.478958129882812500e+01 2.253785133361816406e+01 -9.559594392776489258e-01 9.466346740722656250e+00 2.553116321563720703e+00 8.014008402824401855e-01
2.879000000000000000e+03 5.137062072753906250e+00 -2.802050781250000000e+01 -2.327427035197615623e-03 -2.254723338410258293e-03 -1.374645158648490906e-03 -2.528748475015163422e-03
2.880000000000000000e+03 7.900125026702880859e+00 -2.766736221313476562e+01 1.825899700634181499e-03 5.929794162511825562e-03 2.326708054170012474e-03 -1.480238046497106552e-03
2.881000000000000000e+03 2.751794433593750000e+01 -6.200451374053955078e+00 4.592279344797134399e-02 -1.265974164009094238e+00 -3.660154044628143311e-01 -2.829979658126831055e-01
2.882000000000000000e+03 2.854754257202148438e+01 7.324689865112304688e+00 1.216315198689699173e-02 -8.382292985916137695e-01 -2.478198409080505371e-01 -4.802327156066894531e-01
2.883000000000000000e+03 7.157890319824218750e+00 3.260069274902343750e+01 -1.469875714974477887e-04 2.624663648020941764e-05 -3.622227814048528671e-05 -2.331545829292736016e-06
2.884000000000000000e+03 8.483496665954589844e+00 3.083644104003906250e+01 3.702468529809266329e-05 -1.346563476545270532e-05 7.067715614539338276e-06 4.446455022844020277e-06
2.885000000000000000e+03 3.043814277648925781e+01 -1.043194580078125000e+01 8.007785677909851074e-02 -9.458065629005432129e-01 -2.597186267375946045e-01 -2.521070539951324463e-01
2.886000000000000000e+03 2.900520133972167969e+01 -9.128865242004394531e+00 5.820051580667495728e-02 -1.123631119728088379e+00 -3.196291923522949219e-01 -2.615302503108978271e-01
2.887000000000000000e+03 7.182456970214843750e+01 -2.917721557617187500e+01 3.108934313058853149e-02 5.082771778106689453e+00 1.534158349037170410e+00 5.157117545604705811e-02
2.888000000000000000e+03 6.953759002685546875e+01 -3.205986404418945312e+01 4.178555682301521301e-02 4.725844383239746094e+00 1.430288910865783691e+00 6.305053085088729858e-02
2.889000000000000000e+03 2.728342247009277344e+01 5.831878185272216797e+00 2.882281296479050070e-05 -9.928690791130065918e-01 -2.978520691394805908e-01 -4.197600483894348145e-01
2.890000000000000000e+03 2.854538154602050781e+01 5.913102626800537109e+00 1.563118584454059601e-02 -8.821082711219787598e-01 -2.599431276321411133e-01 -4.615601301193237305e-01
2.891000000000000000e+03 7.247203826904296875e+00 1.162648582458496094e+01 2.464052522554993629e-05 1.860924385255202651e-05 1.297493054153164849e-05 1.369726669508963823e-05
2.892000000000000000e+03 6.695365905761718750e+00 1.246483707427978516e+01 -7.228531103464774787e-06 -6.817588200647151098e-06 -4.213835836708312854e-06 -1.630831684451550245e-05
2.893000000000000000e+03 7.233371734619140625e+01 6.290728092193603516e+00 2.236061245203018188e-01 5.925482273101806641e+00 1.844726562500000000e+00 7.858348488807678223e-01
2.894000000000000000e+03 7.123621368408203125e+01 -2.826524543762207031e+01 3.799207136034965515e-02 5.015576839447021484e+00 1.516070604324340820e+00 7.095088809728622437e-02
2.895000000000000000e+03 9.047840118408203125e+00 2.966806983947753906e+01 -2.740754098340403289e-05 1.587251608725637197e-05 -3.460507286945357919e-06 -1.492767660238314420e-05
2.896000000000000000e+03 2.834329986572265625e+01 -8.606984615325927734e-01 4.729288443922996521e-02 -1.084246158599853516e+00 -3.110859990119934082e-01 -3.558596074581146240e-01
2.897000000000000000e+03 7.142230987548828125e+01 2.126418590545654297e+00 2.193142771720886230e-01 5.478928565979003906e+00 1.709472894668579102e+00 6.338793635368347168e-01
2.898000000000000000e+03 7.032327270507812500e+01 -2.842158377170562744e-01 2.317413687705993652e-01 5.184716701507568359e+00 1.624937415122985840e+00 5.637778043746948242e-01
2.899000000000000000e+03 6.998379516601562500e+01 3.511055755615234375e+01 4.770396351814270020e-01 4.210292816162109375e+00 1.406199693679809570e+00 -2.203356981277465820e+00
2.900000000000000000e+03 2.997746658325195312e+01 2.936550521850585938e+01 -2.120472639799118042e-01 -4.089578986167907715e-02 -7.588291168212890625e-02 -1.953869163990020752e-01
2.901000000000000000e+03 2.845777702331542969e+01 1.754938364028930664e+00 3.506517410278320312e-02 -1.009043335914611816e+00 -2.921934425830841064e-01 -3.958300650119781494e-01
2.902000000000000000e+03 2.618427658081054688e+01 -2.079339599609375000e+01 4.724399000406265259e-02 -1.579107522964477539e+00 -4.595590531826019287e-01 -1.295760273933410645e-01
2.903000000000000000e+03 7.161377716064453125e+01 -9.229228973388671875e+00 1.050283089280128479e-01 5.284920215606689453e+00 1.616984486579895020e+00 2.872111499309539795e-01
2.904000000000000000e+03 1.266924858093261719e+01 3.247415161132812500e+01 1.630626939004287124e-04 -4.439195254235528409e-05 3.560122422641143203e-05 -3.355303852003999054e-05
2.905000000000000000e+03 1.166657829284667969e+01 3.264440155029296875e+01 -1.927563716890290380e-04 6.080632010707631707e-05 -3.958501838496886194e-05 3.506388020468875766e-05
2.906000000000000000e+03 6.436109542846679688e+00 3.625136947631835938e+01 4.964830804965458810e-05 5.653088373946957290e-05 3.185375680914148688e-05 6.765260332031175494e-05
2.907000000000000000e+03 7.863594055175781250e+00 3.412007904052734375e+01 1.493817835580557585e-04 -2.120061981258913875e-05 3.845434912363998592e-05 1.226689255418023095e-05
2.908000000000000000e+03 7.101941680908203125e+01 -1.586814498901367188e+01 7.252677530050277710e-02 5.054577827453613281e+00 1.538131356239318848e+00 1.825006753206253052e-01
2.909000000000000000e+03 7.171829223632812500e+01 -1.432756423950195312e+01 7.400088757276535034e-02 5.226213932037353516e+00 1.590064525604248047e+00 1.942964196205139160e-01
2.910000000000000000e+03 5.215794754028320312e+01 4.119040679931640625e+01 2.568201720714569092e-01 -2.850548624992370605e-01 -8.470400236546993256e-03 6.461480259895324707e-02
2.911000000000000000e+03 2.571886634826660156e+01 -2.881863784790039062e+01 -2.462792955338954926e-02 -1.648800969123840332e+00 -5.020286440849304199e-01 -1.386258006095886230e-01
2.912000000000000000e+03 7.255625915527343750e+01 -2.803256416320800781e+01 2.235833555459976196e-02 5.200550556182861328e+00 1.566872596740722656e+00 6.370516121387481689e-02
2.913000000000000000e+03 7.942854881286621094e+00 3.196725463867187500e+01 -1.544529482089274097e-06 1.444645022274926305e-05 3.870576165354577824e-06 -1.930464350152760744e-05
2.914000000000000000e+03 7.327937602996826172e+00 3.005794334411621094e+01 -4.761728632729500532e-05 9.082447149921790697e-07 -1.401271219947375357e-05 -1.791412614693399519e-05
2.915000000000000000e+03 9.800804138183593750e+00 -1.292906570434570312e+01 -6.047896458767354488e-04 -9.642526856623589993e-04 -4.707126936409622431e-04 -7.630135223735123873e-05
2.916000000000000000e+03 8.696581840515136719e+00 -1.463647365570068359e+01 -2.978109056130051613e-03 3.670770965982228518e-04 -7.833095733076334000e-04 3.333059139549732208e-04
2.917000000000000000e+03 2.751222610473632812e+01 -1.360738754272460938e+01 2.945506013929843903e-02 -1.342556476593017578e+00 -3.939304351806640625e-01 -1.874724626541137695e-01
2.918000000000000000e+03 7.577081203460693359e+00 2.167476463317871094e+01 3.663913958007469773e-05 -1.102307942346669734e-05 7.684818228881340474e-06 -2.660543577803764492e-05
2.919000000000000000e+03 7.808818817138671875e+00 2.001232910156250000e+01 1.338359379587927833e-05 -1.133740738623600919e-06 3.674955905808019452e-06 -9.783318091649562120e-06
2.920000000000000000e+03 8.062659263610839844e+00 2.882914161682128906e+01 -9.266376764571759850e-06 -9.906914783641695976e-06 -5.751987373514566571e-06 2.559753011155407876e-05
2.921000000000000000e+03 8.588393211364746094e+00 2.691212081909179688e+01 -4.738520510727539659e-05 -1.762756983225699514e-05 -1.950383193616289645e-05 -1.295837961379220360e-07
2.922000000000000000e+03 8.339119911193847656e+00 -1.359042739868164062e+01 2.289579715579748154e-03 -4.485064127948135138e-04 5.523220170289278030e-04 6.010303040966391563e-04
2.923000000000000000e+03 7.270097351074218750e+01 2.781762313842773438e+01 -1.679880380630493164e+00 1.230343627929687500e+01 3.187066555023193359e+00 3.976536273956298828e+00
2.924000000000000000e+03 7.174497985839843750e+01 2.794208717346191406e+01 -6.135851144790649414e-01 8.120031356811523438e+00 2.251933813095092773e+00 4.793920993804931641e+00
2.925000000000000000e+03 7.482701873779296875e+01 2.664978981018066406e+01 -1.828735709190368652e+00 1.296927165985107422e+01 3.342160940170288086e+00 -4.162853211164474487e-02
2.926000000000000000e+03 7.335346221923828125e+01 2.821669006347656250e+01 -1.995206356048583984e+00 1.558353233337402344e+01 4.076498031616210938e+00 2.550643920898437500e+00
2.927000000000000000e+03 7.278379821777343750e+01 3.506623458862304688e+01 -1.262048006057739258e+00 1.107257461547851562e+01 2.943158149719238281e+00 -2.298603296279907227e+00
2.928000000000000000e+03 7.226409912109375000e+01 2.783869552612304688e+01 -1.201509356498718262e+00 1.057285976409912109e+01 2.811405181884765625e+00 4.505815982818603516e+00
2.929000000000000000e+03 7.329328155517578125e+01 2.377063179016113281e+01 -1.290090441703796387e+00 9.008971214294433594e+00 2.315664291381835938e+00 1.710311174392700195e+00
2.930000000000000000e+03 7.111728668212890625e+01 3.469482040405273438e+01 2.340373545885086060e-01 6.269989013671875000e+00 1.951207876205444336e+00 -3.153077840805053711e+00
2.931000000000000000e+03 7.178430938720703125e+01 3.361489105224609375e+01 2.831482887268066406e-01 8.444176673889160156e+00 2.618197441101074219e+00 -4.464297294616699219e+00
2.932000000000000000e+03 7.257823181152343750e+01 3.400558853149414062e+01 -9.186287522315979004e-01 1.175628757476806641e+01 3.251297712326049805e+00 -3.585525274276733398e+00
2.933000000000000000e+03 7.266914367675781250e+01 3.449247741699218750e+01 -1.141681432723999023e+00 1.134009265899658203e+01 3.059523105621337891e+00 -2.912288427352905273e+00
2.934000000000000000e+03 7.511166381835937500e+01 2.715340995788574219e+01 -1.506658196449279785e+00 1.342950630187988281e+01 3.576854467391967773e+00 -6.901610493659973145e-01
2.935000000000000000e+03 7.294178009033203125e+01 2.761316299438476562e+01 -1.891532301902770996e+00 1.271515941619873047e+01 3.247088193893432617e+00 3.308050870895385742e+00
2.936000000000000000e+03 7.464670562744140625e+01 3.369548797607421875e+01 -9.049978852272033691e-01 1.534945583343505859e+01 4.333337306976318359e+00 9.948183894157409668e-01
2.937000000000000000e+03 7.496083068847656250e+01 2.880454826354980469e+01 3.555735945701599121e-01 1.544844150543212891e+01 4.741204738616943359e+00 -1.848851799964904785e+00
2.938000000000000000e+03 7.450049591064453125e+01 2.829541206359863281e+01 -1.039416193962097168e+00 1.578146553039550781e+01 4.422614574432373047e+00 -7.267661094665527344e-01
2.939000000000000000e+03 7.103318786621093750e+01 2.853489875793457031e+01 1.314560025930404663e-01 4.510234832763671875e+00 1.392507314682006836e+00 4.282544612884521484e+00
2.940000000000000000e+03 7.434135437011718750e+01 2.783625793457031250e+01 -1.699546217918395996e+00 1.488062286376953125e+01 3.954323053359985352e+00 1.301632970571517944e-01
2.941000000000000000e+03 7.580393218994140625e+01 3.332875442504882812e+01 4.137797951698303223e-01 1.348591136932373047e+01 4.169907093048095703e+00 2.242922544479370117e+00
2.942000000000000000e+03 7.188572692871093750e+01 3.449975585937500000e+01 -3.681398332118988037e-01 8.706473350524902344e+00 2.501499891281127930e+00 -3.468590497970581055e+00
2.943000000000000000e+03 7.308192443847656250e+01 3.430139923095703125e+01 -1.442312121391296387e+00 1.287464809417724609e+01 3.429700613021850586e+00 -2.362629890441894531e+00
2.944000000000000000e+03 5.049426269531250000e+01 2.653334045410156250e+01 -1.495705485343933105e+00 4.454110190272331238e-02 -4.353493154048919678e-01 -4.927665293216705322e-01
2.945000000000000000e+03 5.204471206665039062e+01 2.636343193054199219e+01 -1.577581167221069336e+00 3.528571128845214844e-02 -4.626886248588562012e-01 -4.926592707633972168e-01
2.946000000000000000e+03 5.955910110473632812e+01 2.506856727600097656e+01 -1.334134578704833984e+00 1.427198648452758789e-01 -3.574244081974029541e-01 -2.377642542123794556e-01
2.947000000000000000e+03 7.529432678222656250e+01 2.758854866027832031e+01 -1.067346811294555664e+00 1.358626937866210938e+01 3.755676746368408203e+00 -1.236965894699096680e+00
2.948000000000000000e+03 7.599826049804687500e+01 3.241619110107421875e+01 1.972071290016174316e+00 1.285727691650390625e+01 4.448804378509521484e+00 2.166895866394042969e+00
2.949000000000000000e+03 6.730549621582031250e+01 2.651646804809570312e+01 -8.752163648605346680e-01 1.190300107002258301e+00 9.452510625123977661e-02 1.292081236839294434e+00
2.950000000000000000e+03 7.499342346191406250e+01 2.571142578125000000e+01 -1.703558444976806641e+00 1.177186393737792969e+01 3.020491600036621094e+00 1.064052507281303406e-01
2.951000000000000000e+03 7.492230224609375000e+01 2.796380996704101562e+01 -1.029289960861206055e+00 1.463917446136474609e+01 4.082965373992919922e+00 -1.077677965164184570e+00
2.952000000000000000e+03 5.802503204345703125e+01 2.516526985168457031e+01 -1.420743584632873535e+00 8.604693412780761719e-02 -4.004089832305908203e-01 -3.547755479812622070e-01
2.953000000000000000e+03 2.928917503356933594e+01 2.936610221862792969e+01 -1.859299391508102417e-01 -4.875369742512702942e-02 -7.040508836507797241e-02 -1.819967925548553467e-01
2.954000000000000000e+03 3.080817985534667969e+01 2.778983306884765625e+01 -2.505342066287994385e-01 -6.012135744094848633e-02 -9.319666773080825806e-02 -2.761694192886352539e-01
2.955000000000000000e+03 2.859112930297851562e+01 2.936237716674804688e+01 -1.614538431167602539e-01 -5.676800757646560669e-02 -6.546656042337417603e-02 -1.689018011093139648e-01
2.956000000000000000e+03 3.030045127868652344e+01 2.688808631896972656e+01 -2.259868532419204712e-01 -9.017081558704376221e-02 -9.484729915857315063e-02 -3.004731833934783936e-01
2.957000000000000000e+03 4.489912033081054688e+01 2.673900794982910156e+01 -1.065681934356689453e+00 6.901109218597412109e-02 -2.990012764930725098e-01 -4.984708726406097412e-01
2.958000000000000000e+03 3.322391510009765625e+01 2.842429542541503906e+01 -3.602446615695953369e-01 -1.161672733724117279e-02 -1.115584149956703186e-01 -2.938320040702819824e-01
2.959000000000000000e+03 2.947111129760742188e+01 2.764588737487792969e+01 -1.970518827438354492e-01 -8.375009149312973022e-02 -8.424059301614761353e-02 -2.498573511838912964e-01
2.960000000000000000e+03 2.718137359619140625e+01 2.751915931701660156e+01 -1.206678226590156555e-01 -1.133252829313278198e-01 -7.019793242216110229e-02 -1.956155002117156982e-01
2.961000000000000000e+03 2.865834617614746094e+01 2.848796081542968750e+01 -1.673224270343780518e-01 -7.450326532125473022e-02 -7.254770398139953613e-02 -2.002947032451629639e-01
2.962000000000000000e+03 8.250520706176757812e+00 -8.812223434448242188e+00 -8.852953906171023846e-04 -8.840114460326731205e-04 -5.307920509949326515e-04 3.560769619070924819e-05
2.963000000000000000e+03 3.811731719970703125e+01 2.702185630798339844e+01 -6.096224188804626465e-01 3.468981012701988220e-02 -1.724797785282135010e-01 -4.398579299449920654e-01
2.964000000000000000e+03 3.753864669799804688e+01 2.809284400939941406e+01 -6.007218956947326660e-01 3.962482884526252747e-02 -1.683291196823120117e-01 -3.665526807308197021e-01
2.965000000000000000e+03 3.385390853881835938e+01 2.827221870422363281e+01 -3.891725838184356689e-01 -5.463377106934785843e-03 -1.183907836675643921e-01 -3.097079396247863770e-01
2.966000000000000000e+03 3.451706314086914062e+01 2.811575317382812500e+01 -4.224479496479034424e-01 1.169872819446027279e-03 -1.263834238052368164e-01 -3.289297521114349365e-01
2.967000000000000000e+03 4.389074707031250000e+01 2.547765541076660156e+01 -8.754159212112426758e-01 6.410973519086837769e-02 -2.433918565511703491e-01 -5.822122693061828613e-01
2.968000000000000000e+03 3.520220184326171875e+01 2.794263267517089844e+01 -4.582691788673400879e-01 8.440894074738025665e-03 -1.349484771490097046e-01 -3.479425907135009766e-01
2.969000000000000000e+03 4.654732894897460938e+01 2.716193962097167969e+01 -1.249549508094787598e+00 6.449401378631591797e-02 -3.555166423320770264e-01 -4.611044526100158691e-01
2.970000000000000000e+03 4.477738952636718750e+01 2.603980827331542969e+01 -9.865739345550537109e-01 6.838858127593994141e-02 -2.754555940628051758e-01 -5.497258901596069336e-01
2.971000000000000000e+03 4.111807250976562500e+01 2.744785690307617188e+01 -8.277497291564941406e-01 6.295785307884216309e-02 -2.294375598430633545e-01 -4.328391551971435547e-01
2.972000000000000000e+03 5.279969024658203125e+01 2.558727264404296875e+01 -1.430131435394287109e+00 4.601579904556274414e-02 -4.152346849441528320e-01 -5.291982889175415039e-01
2.973000000000000000e+03 4.041392135620117188e+01 2.761053276062011719e+01 -7.850472927093505859e-01 6.045957282185554504e-02 -2.173763066530227661e-01 -4.202895760536193848e-01
2.974000000000000000e+03 4.325499725341796875e+01 2.632107925415039062e+01 -9.074918031692504883e-01 6.614639610052108765e-02 -2.524036169052124023e-01 -5.248901247978210449e-01
2.975000000000000000e+03 4.810844802856445312e+01 2.689870643615722656e+01 -1.352912187576293945e+00 5.779627338051795959e-02 -3.885347545146942139e-01 -4.782536327838897705e-01
2.976000000000000000e+03 4.880802154541015625e+01 2.604619789123535156e+01 -1.273868680000305176e+00 5.841642990708351135e-02 -3.646356761455535889e-01 -5.426523685455322266e-01
2.977000000000000000e+03 5.577036666870117188e+01 2.538270378112792969e+01 -1.486956119537353516e+00 4.783169552683830261e-02 -4.317373335361480713e-01 -4.611254632472991943e-01
2.978000000000000000e+03 5.432184982299804688e+01 2.620565414428710938e+01 -1.684382319450378418e+00 2.747981809079647064e-02 -4.970707595348358154e-01 -4.665602743625640869e-01
2.979000000000000000e+03 6.312259292602539062e+01 2.407392311096191406e+01 -6.241298913955688477e-01 6.715856790542602539e-01 1.423672400414943695e-02 3.844471871852874756e-01
2.980000000000000000e+03 4.800985717773437500e+01 2.618307685852050781e+01 -1.237379074096679688e+00 6.099609658122062683e-02 -3.529148995876312256e-01 -5.369861125946044922e-01
2.981000000000000000e+03 5.726607513427734375e+01 2.522587776184082031e+01 -1.449766278266906738e+00 6.852737814188003540e-02 -4.143716990947723389e-01 -3.984454572200775146e-01
2.982000000000000000e+03 8.965149879455566406e+00 6.551449298858642578e+00 1.371199232380604371e-05 3.437681016293936409e-06 5.144901933817891404e-06 -8.802726370049640536e-06
2.983000000000000000e+03 9.533612251281738281e+00 6.096877098083496094e+00 5.117654836794827133e-06 3.437428631514194421e-06 2.566524926805868745e-06 -2.720938482525525615e-06
2.984000000000000000e+03 6.254786300659179688e+01 2.489411544799804688e+01 -1.007538080215454102e+00 4.073927700519561768e-01 -1.800435930490493774e-01 1.641620397567749023e-01
2.985000000000000000e+03 6.456683349609375000e+01 2.471994781494140625e+01 -6.617621183395385742e-01 8.455209732055664062e-01 5.512765049934387207e-02 6.545581817626953125e-01
2.986000000000000000e+03 5.582571029663085938e+01 2.605817794799804688e+01 -1.711945056915283203e+00 2.616810984909534454e-02 -5.057330727577209473e-01 -4.379580616950988770e-01
2.987000000000000000e+03 5.651510238647460938e+01 2.529892349243164062e+01 -1.471758604049682617e+00 5.543431267142295837e-02 -4.248972833156585693e-01 -4.326998889446258545e-01
2.988000000000000000e+03 5.503266525268554688e+01 2.546420097351074219e+01 -1.492307543754577637e+00 4.317781329154968262e-02 -4.347389340400695801e-01 -4.816982150077819824e-01
2.989000000000000000e+03 6.170938110351562500e+01 2.420448493957519531e+01 -8.290184140205383301e-01 4.189444780349731445e-01 -1.230221837759017944e-01 9.970735013484954834e-02
2.990000000000000000e+03 6.032221984863281250e+01 2.502842330932617188e+01 -1.274950385093688965e+00 1.858059465885162354e-01 -3.267433345317840576e-01 -1.621628105640411377e-01
2.991000000000000000e+03 6.242846679687500000e+01 2.413848495483398438e+01 -7.261906266212463379e-01 5.275166034698486328e-01 -5.960219353437423706e-02 2.324743568897247314e-01
2.992000000000000000e+03 7.414643859863281250e+01 3.462337112426757812e+01 -1.642729043960571289e+00 1.389104652404785156e+01 3.674495220184326172e+00 -3.998544812202453613e-01
2.993000000000000000e+03 7.422406768798828125e+01 3.382785797119140625e+01 -1.360333561897277832e+00 1.539884090423583984e+01 4.211552143096923828e+00 1.025634855031967163e-01
2.994000000000000000e+03 6.698509216308593750e+01 2.567290496826171875e+01 -5.348028540611267090e-01 1.546987652778625488e+00 3.036554157733917236e-01 1.370921611785888672e+00
2.995000000000000000e+03 4.027003479003906250e+01 2.689301300048828125e+01 -7.403795719146728516e-01 5.423653870820999146e-02 -2.058429121971130371e-01 -4.685806930065155029e-01
2.996000000000000000e+03 4.631821823120117188e+01 2.574719429016113281e+01 -1.057523846626281738e+00 6.687808781862258911e-02 -2.971937060356140137e-01 -5.711430907249450684e-01
2.997000000000000000e+03 7.447540283203125000e+01 2.607112884521484375e+01 -1.904051899909973145e+00 1.217184829711914062e+01 3.080338954925537109e+00 5.164101123809814453e-01
2.998000000000000000e+03 7.199487304687500000e+01 2.789836120605468750e+01 -8.926088213920593262e-01 9.306602478027343750e+00 2.524198293685913086e+00 4.684432029724121094e+00
2.999000000000000000e+03 7.362882232666015625e+01 2.715698051452636719e+01 -2.064646720886230469e+00 1.315521907806396484e+01 3.327171802520751953e+00 1.757289409637451172e+00
3.000000000000000000e+03 7.473455810546875000e+01 2.511235427856445312e+01 -1.664887785911560059e+00 1.114546394348144531e+01 2.844172954559326172e+00 5.352146625518798828e-01
3.001000000000000000e+03 7.297978210449218750e+01 2.168911170959472656e+01 -7.198224663734436035e-01 7.926861286163330078e+00 2.162111759185791016e+00 1.540393233299255371e+00
3.002000000000000000e+03 7.241922760009765625e+01 1.893791389465332031e+01 -1.967410743236541748e-01 6.898446559906005859e+00 2.010511636734008789e+00 1.442711830139160156e+00
3.003000000000000000e+03 4.249772262573242188e+01 2.645245552062988281e+01 -8.653749227523803711e-01 6.375817209482192993e-02 -2.404850274324417114e-01 -5.123308897018432617e-01
3.004000000000000000e+03 7.024462890625000000e+01 -5.439276695251464844e+00 1.675539463758468628e-01 5.082476139068603516e+00 1.575009107589721680e+00 4.041588306427001953e-01
3.005000000000000000e+03 3.970539474487304688e+01 2.773444366455078125e+01 -7.312989234924316406e-01 5.447156354784965515e-02 -2.030481994152069092e-01 -4.076792001724243164e-01
3.006000000000000000e+03 3.776870346069335938e+01 2.608659744262695312e+01 -5.595865249633789062e-01 1.806072145700454712e-02 -1.624577343463897705e-01 -4.869489371776580811e-01
3.007000000000000000e+03 9.339673042297363281e+00 -6.940062522888183594e+00 9.574963478371500969e-04 6.182232755236327648e-04 4.727158811874687672e-04 6.925628986209630966e-05
3.008000000000000000e+03 1.028966426849365234e+01 -5.831902027130126953e+00 1.697607338428497314e-03 5.809958020108751953e-05 5.267121014185249805e-04 -3.582907957024872303e-04
3.009000000000000000e+03 7.370361328125000000e+01 2.208193778991699219e+01 -8.770224452018737793e-01 8.620811462402343750e+00 2.323136806488037109e+00 1.295858621597290039e+00
3.010000000000000000e+03 7.989650726318359375e+00 1.054318523406982422e+01 2.502012466720771044e-05 -6.167255378386471421e-06 5.655860604747431353e-06 -5.056070222053676844e-06
3.011000000000000000e+03 8.184433937072753906e+00 1.146612453460693359e+01 -2.686182597244624048e-05 -6.196122285473393276e-06 -9.917383977153804153e-06 -2.001916925564728444e-07
3.012000000000000000e+03 7.024275970458984375e+01 -7.983988761901855469e+00 1.455669999122619629e-01 5.044706821441650391e+00 1.557082176208496094e+00 3.356636464595794678e-01
3.013000000000000000e+03 7.143861389160156250e+01 -4.065162181854248047e+00 1.513851881027221680e-01 5.358569145202636719e+00 1.652986288070678711e+00 4.182459115982055664e-01
3.014000000000000000e+03 7.940378189086914062e+00 7.618808269500732422e+00 3.079205635003745556e-05 -1.840252252804930322e-06 8.685541615705005825e-06 -4.609113148035248742e-06
3.015000000000000000e+03 1.031925773620605469e+01 -6.820055484771728516e+00 -1.338665490038692951e-03 -3.274630871601402760e-04 -4.998386139050126076e-04 3.012210072483867407e-04
3.016000000000000000e+03 2.819045829772949219e+01 1.866071319580078125e+01 -7.062371820211410522e-02 -4.162560701370239258e-01 -1.460639387369155884e-01 -4.511341750621795654e-01
3.017000000000000000e+03 2.797687721252441406e+01 2.144249343872070312e+01 -9.807989001274108887e-02 -3.099769651889801025e-01 -1.224170550704002380e-01 -3.902966678142547607e-01
3.018000000000000000e+03 9.486350059509277344e+00 7.250687122344970703e+00 7.763467806398693938e-07 8.163130473803903442e-07 4.777979256687103771e-07 1.114692895498592407e-05
3.019000000000000000e+03 3.015192985534667969e+01 2.772839355468750000e+01 -2.229666709899902344e-01 -7.277505099773406982e-02 -8.872251212596893311e-02 -2.636840939521789551e-01
3.020000000000000000e+03 7.002952575683593750e+01 -2.994281291961669922e+00 2.113059014081954956e-01 5.052744388580322266e+00 1.579215049743652344e+00 4.783430099487304688e-01
3.021000000000000000e+03 7.047142028808593750e+01 -1.153489971160888672e+01 1.089804023504257202e-01 5.028539180755615234e+00 1.541255950927734375e+00 2.669777870178222656e-01
3.022000000000000000e+03 7.018631744384765625e+01 -1.245235157012939453e+01 1.044506803154945374e-01 4.965649127960205078e+00 1.521029949188232422e+00 2.531176209449768066e-01
3.023000000000000000e+03 6.971369934082031250e+01 -2.375684547424316406e+01 5.187648534774780273e-02 4.768276691436767578e+00 1.446045994758605957e+00 1.033526957035064697e-01
3.024000000000000000e+03 6.921648406982421875e+01 -2.799154853820800781e+01 3.691498190164566040e-02 4.727802753448486328e+00 1.429415345191955566e+00 7.117164880037307739e-02
3.025000000000000000e+03 2.847926712036132812e+01 1.159078598022460938e+01 -5.940230563282966614e-03 -6.938846111297607422e-01 -2.099474519491195679e-01 -5.066438913345336914e-01
3.026000000000000000e+03 7.027111053466796875e+01 -1.668904685974121094e+01 8.108209073543548584e-02 4.928971767425537109e+00 1.503016114234924316e+00 1.852948665618896484e-01
3.027000000000000000e+03 6.965660095214843750e+01 -1.920029830932617188e+01 7.303684204816818237e-02 4.798295021057128906e+00 1.461399555206298828e+00 1.532441973686218262e-01
3.028000000000000000e+03 7.293816566467285156e+00 -9.918316841125488281e+00 -1.281028497032821178e-03 -4.312598903197795153e-04 -5.136865074746310711e-04 -4.687014734372496605e-04
3.029000000000000000e+03 7.269374084472656250e+01 1.482516956329345703e+01 1.231623142957687378e-01 6.591015338897705078e+00 2.014253139495849609e+00 1.194955587387084961e+00
3.030000000000000000e+03 7.184868621826171875e+01 1.282558250427246094e+01 2.363182306289672852e-01 6.028795242309570312e+00 1.879534006118774414e+00 1.146933555603027344e+00
3.031000000000000000e+03 2.858382225036621094e+01 -4.452204704284667969e+00 6.060071289539337158e-02 -1.122177362442016602e+00 -3.184729814529418945e-01 -3.188916742801666260e-01
3.032000000000000000e+03 2.960495185852050781e+01 -7.431208491325378418e-01 6.143504753708839417e-02 -9.453021883964538574e-01 -2.651601433753967285e-01 -3.848570287227630615e-01
3.033000000000000000e+03 7.237213134765625000e+01 7.447761058807373047e+00 2.261983156204223633e-01 6.003599643707275391e+00 1.868939399719238281e+00 8.501727581024169922e-01
3.034000000000000000e+03 7.220755767822265625e+01 5.135772705078125000e+00 2.176655083894729614e-01 5.840215682983398438e+00 1.817364335060119629e+00 7.333689332008361816e-01
3.035000000000000000e+03 7.095932769775390625e+01 1.794088935852050781e+01 4.202048107981681824e-02 5.831977367401123047e+00 1.762199401855468750e+00 1.530568361282348633e+00
3.036000000000000000e+03 2.826256370544433594e+01 1.725273513793945312e+01 -5.545741319656372070e-02 -4.733852148056030273e-01 -1.586527824401855469e-01 -4.731215834617614746e-01
3.037000000000000000e+03 9.101315498352050781e+00 1.502967357635498047e+01 -2.037007106991950423e-05 -1.669568155193701386e-05 -1.111972505896119401e-05 1.308690912082965951e-06
3.038000000000000000e+03 3.097787666320800781e+01 1.031213092803955078e+01 1.787119917571544647e-02 -5.831672549247741699e-01 -1.695888191461563110e-01 -5.803184509277343750e-01
3.039000000000000000e+03 2.974524497985839844e+01 1.023719120025634766e+01 8.251363411545753479e-03 -6.622905135154724121e-01 -1.962117403745651245e-01 -5.444000363349914551e-01
3.040000000000000000e+03 2.851274490356445312e+01 1.016728687286376953e+01 2.071635331958532333e-03 -7.440910935401916504e-01 -2.226058393716812134e-01 -5.026884675025939941e-01
3.041000000000000000e+03 8.468251228332519531e+00 -2.253140830993652344e+01 -3.083086106926202774e-03 -1.562444143928587437e-03 -1.393659156747162342e-03 3.778090933337807655e-03
3.042000000000000000e+03 9.208930969238281250e+00 -9.959648132324218750e+00 -5.068406462669372559e-04 -1.426995033398270607e-03 -5.801506922580301762e-04 6.506006466224789619e-04
3.043000000000000000e+03 7.330998420715332031e+00 1.313184261322021484e+01 -6.480570846179034561e-06 -1.842861706791154575e-06 -2.497029754522372968e-06 2.230540758318966255e-06
3.044000000000000000e+03 7.115627288818359375e+01 9.509738922119140625e+00 2.984517812728881836e-01 5.655020236968994141e+00 1.786041617393493652e+00 9.951063990592956543e-01
3.045000000000000000e+03 2.956786537170410156e+01 1.448412513732910156e+01 -3.141894936561584473e-02 -5.285695195198059082e-01 -1.679965406656265259e-01 -5.453338027000427246e-01
3.046000000000000000e+03 6.899615764617919922e+00 2.063998794555664062e+01 -4.164052006672136486e-05 7.116340839274926111e-06 -1.035725381370866671e-05 1.554611480969469994e-05
3.047000000000000000e+03 2.915758705139160156e+01 -7.668704986572265625e+00 5.994396284222602844e-02 -1.089352369308471680e+00 -3.088225424289703369e-01 -2.835134863853454590e-01
3.048000000000000000e+03 7.181667804718017578e+00 -8.776662826538085938e+00 1.192828989587724209e-03 6.018535350449383259e-04 5.384047399275004864e-04 2.800837391987442970e-04
3.049000000000000000e+03 7.414497375488281250e+00 -1.839728355407714844e+01 2.143942983821034431e-03 8.115037926472723484e-04 8.866340504027903080e-04 -4.431949637364596128e-04
3.050000000000000000e+03 6.990169525146484375e+00 -1.943457412719726562e+01 -2.159702591598033905e-03 -1.580397947691380978e-03 -1.122030196711421013e-03 5.372853484004735947e-04
3.051000000000000000e+03 7.826161384582519531e+00 -2.091695976257324219e+01 -2.120405668392777443e-03 -1.201554317958652973e-03 -9.965880308300256729e-04 2.460949355736374855e-03
3.052000000000000000e+03 2.895839881896972656e+01 -5.571419715881347656e+00 6.419016420841217041e-02 -1.093439817428588867e+00 -3.087748885154724121e-01 -3.085859119892120361e-01
3.053000000000000000e+03 7.463145732879638672e+00 -1.380623626708984375e+01 -1.928783487528562546e-03 8.838872308842837811e-04 -3.134688595309853554e-04 3.435589678701944649e-05
3.054000000000000000e+03 8.584086418151855469e+00 2.094493293762207031e+01 -1.288008024857845157e-05 2.472582707468973240e-07 -3.789846687141107395e-06 2.100201163557358086e-05
3.055000000000000000e+03 7.089988708496093750e+01 -1.461610674858093262e+00 2.001617550849914551e-01 5.280882835388183594e+00 1.644313335418701172e+00 5.121200680732727051e-01
3.056000000000000000e+03 7.056802368164062500e+01 1.457796692848205566e+00 2.495556026697158813e-01 5.288750648498535156e+00 1.661491870880126953e+00 6.288226246833801270e-01
3.057000000000000000e+03 8.332199096679687500e+00 -2.537539672851562500e+01 -2.174732275307178497e-03 8.523979224264621735e-03 1.904773991554975510e-03 -3.619918134063482285e-03
3.058000000000000000e+03 7.337627887725830078e+00 -2.199200820922851562e+01 1.047374331392347813e-03 1.872373046353459358e-03 8.759241900406777859e-04 -1.972632948309183121e-03
3.059000000000000000e+03 8.868776321411132812e+00 -2.445612525939941406e+01 4.884475376456975937e-03 -2.452232176437973976e-03 7.296729600057005882e-04 1.761798514053225517e-03
3.060000000000000000e+03 7.606039047241210938e+00 9.741871833801269531e+00 -1.120037995860911906e-05 5.983063601888716221e-06 -1.565195020702958573e-06 1.030405474011786282e-05
3.061000000000000000e+03 3.004734039306640625e+01 2.855940818786621094e+01 -2.188178896903991699e-01 -5.520807206630706787e-02 -8.220778405666351318e-02 -2.282063513994216919e-01
3.062000000000000000e+03 2.760533332824707031e+01 2.406641197204589844e+01 -1.153831928968429565e-01 -2.179066985845565796e-01 -9.998696297407150269e-02 -3.122317194938659668e-01
3.063000000000000000e+03 1.070985412597656250e+01 3.237957763671875000e+01 5.062086711404845119e-05 -1.296173832088243216e-05 1.129773863794980571e-05 6.788101018173620105e-05
3.064000000000000000e+03 2.800623130798339844e+01 -2.073907661437988281e+01 4.464530944824218750e-02 -1.293829917907714844e+00 -3.747553825378417969e-01 -1.365997940301895142e-01
3.065000000000000000e+03 3.088323974609375000e+01 -2.376278495788574219e+01 7.913127541542053223e-02 -8.891478180885314941e-01 -2.430049628019332886e-01 -1.166228577494621277e-01
3.066000000000000000e+03 6.874377441406250000e+01 -2.202964019775390625e+01 6.710807979106903076e-02 4.638326644897460938e+00 1.411630392074584961e+00 1.286385208368301392e-01
3.067000000000000000e+03 7.092221832275390625e+01 -1.942471885681152344e+01 5.559988692402839661e-02 5.006444454193115234e+00 1.518613338470458984e+00 1.391845643520355225e-01
3.068000000000000000e+03 8.969047546386718750e+00 -1.245604419708251953e+01 1.894077053293585777e-03 7.267657201737165451e-04 7.862528436817228794e-04 -3.825247767963446677e-05
3.069000000000000000e+03 2.980782699584960938e+01 6.001640796661376953e+00 3.481644019484519958e-02 -7.770702242851257324e-01 -2.226761281490325928e-01 -4.992593824863433838e-01
3.070000000000000000e+03 2.906994438171386719e+01 -1.347441673278808594e+01 4.581775888800621033e-02 -1.132270097732543945e+00 -3.259357213973999023e-01 -2.004607617855072021e-01
3.071000000000000000e+03 9.406026840209960938e+00 2.007231521606445312e+01 -4.304621143091935664e-06 -3.553072019712999463e-06 -2.357307948841480538e-06 -3.488778929749969393e-06
3.072000000000000000e+03 1.011940193176269531e+01 -2.950205421447753906e+01 -1.666149473749101162e-03 -4.241165705025196075e-03 -1.772194635123014450e-03 2.371544949710369110e-03
3.073000000000000000e+03 9.895457267761230469e+00 -3.531085968017578125e+01 2.450778894126415253e-02 -1.132339332252740860e-02 3.955319058150053024e-03 -1.616412773728370667e-02
3.074000000000000000e+03 7.206109619140625000e+01 3.732673645019531250e+01 -5.970355868339538574e-01 8.260362625122070312e+00 2.298998117446899414e+00 -1.546310305595397949e+00
3.075000000000000000e+03 2.740967559814453125e+01 2.528433227539062500e+01 -1.197829917073249817e-01 -1.779614537954330444e-01 -8.932333439588546753e-02 -2.705630660057067871e-01
3.076000000000000000e+03 2.850318527221679688e+01 3.120321750640869141e+00 2.725257910788059235e-02 -9.668220281600952148e-01 -2.818708419799804688e-01 -4.182742834091186523e-01
3.077000000000000000e+03 7.057607269287109375e+01 -2.082794952392578125e+01 6.037312000989913940e-02 4.943937301635742188e+00 1.501293182373046875e+00 1.216286420822143555e-01
3.078000000000000000e+03 2.978616142272949219e+01 3.216742038726806641e+00 4.934988543391227722e-02 -8.468399643898010254e-01 -2.392470240592956543e-01 -4.533198773860931396e-01
3.079000000000000000e+03 2.963618469238281250e+01 1.307067871093750000e+01 -1.652065292000770569e-02 -5.757447481155395508e-01 -1.776796132326126099e-01 -5.504965782165527344e-01
3.080000000000000000e+03 7.934450149536132812e+00 -1.242319297790527344e+01 -1.691288664005696774e-03 3.928085425286553800e-05 -4.956023767590522766e-04 -3.370859194546937943e-04
3.081000000000000000e+03 6.897081756591796875e+01 -1.773410415649414062e+01 9.159141778945922852e-02 4.710342884063720703e+00 1.440580368041992188e+00 1.720814257860183716e-01
3.082000000000000000e+03 7.120882415771484375e+01 6.423639774322509766e+00 2.834296226501464844e-01 5.556386470794677734e+00 1.751944780349731445e+00 8.390209674835205078e-01
3.083000000000000000e+03 2.917786026000976562e+01 -1.500636863708496094e+01 5.166033655405044556e-02 -1.122598171234130859e+00 -3.212813735008239746e-01 -1.838336735963821411e-01
3.084000000000000000e+03 6.988140869140625000e+01 -2.933030319213867188e+01 4.304906725883483887e-02 4.808157920837402344e+00 1.455362081527709961e+00 7.244738191366195679e-02
3.085000000000000000e+03 7.072393035888671875e+01 -1.382857894897460938e+01 8.711723983287811279e-02 5.049877166748046875e+00 1.541098356246948242e+00 2.118901312351226807e-01
3.086000000000000000e+03 8.996911048889160156e+00 3.312401962280273438e+01 -3.009596912306733429e-05 1.084097493730951101e-05 -5.776498710474697873e-06 3.566059967852197587e-05
3.087000000000000000e+03 7.158465576171875000e+01 -7.961784362792968750e+00 1.131700128316879272e-01 5.304595947265625000e+00 1.625329732894897461e+00 3.143344521522521973e-01
3.088000000000000000e+03 6.814402008056640625e+01 -2.711416625976562500e+01 3.268755599856376648e-02 4.536061763763427734e+00 1.370624899864196777e+00 5.825557559728622437e-02
3.089000000000000000e+03 6.900079345703125000e+01 -2.541995620727539062e+01 4.466187953948974609e-02 4.670100212097167969e+00 1.414428710937500000e+00 7.892415672540664673e-02
3.090000000000000000e+03 2.974551773071289062e+01 1.853479385375976562e+00 5.442470684647560120e-02 -8.809121847152709961e-01 -2.479462474584579468e-01 -4.285578131675720215e-01
3.091000000000000000e+03 7.116162872314453125e+01 1.186975574493408203e+01 2.909144759178161621e-01 5.710068702697753906e+00 1.800294995307922363e+00 1.132937908172607422e+00
3.092000000000000000e+03 2.925188827514648438e+01 2.012918281555175781e+01 -1.095319837331771851e-01 -3.270465433597564697e-01 -1.309735625982284546e-01 -4.673872292041778564e-01
3.093000000000000000e+03 2.739599800109863281e+01 -2.963705444335937500e+01 -4.155378788709640503e-03 -1.339576959609985352e+00 -4.031197130680084229e-01 -8.433827012777328491e-02
3.094000000000000000e+03 2.770163345336914062e+01 -2.245310783386230469e+01 5.281124636530876160e-02 -1.331910014152526855e+00 -3.837296366691589355e-01 -1.302096396684646606e-01
3.095000000000000000e+03 2.720526313781738281e+01 -2.391752815246582031e+01 3.683501854538917542e-02 -1.410722017288208008e+00 -4.121660888195037842e-01 -1.308712363243103027e-01
3.096000000000000000e+03 6.972685241699218750e+01 4.040256881713867188e+01 3.931099176406860352e-01 4.970733642578125000e+00 1.609153151512145996e+00 -4.094409644603729248e-01
3.097000000000000000e+03 6.958319854736328125e+01 3.770016098022460938e+01 4.331930875778198242e-01 4.581041812896728516e+00 1.504270434379577637e+00 -1.128945827484130859e+00
3.098000000000000000e+03 7.031227874755859375e+01 3.650743484497070312e+01 2.057078033685684204e-01 5.593656063079833984e+00 1.739809155464172363e+00 -1.804605841636657715e+00
3.099000000000000000e+03 7.470558166503906250e+01 2.751653671264648438e+01 -1.607974171638488770e+00 1.415238666534423828e+01 3.763323783874511719e+00 -3.500740230083465576e-01
3.100000000000000000e+03 7.324071502685546875e+01 2.737286186218261719e+01 -2.051551103591918945e+00 1.308916568756103516e+01 3.311284542083740234e+00 2.600967168807983398e+00
3.101000000000000000e+03 7.225372314453125000e+01 3.459951782226562500e+01 -8.222541213035583496e-01 1.016929054260253906e+01 2.804111003875732422e+00 -3.220008134841918945e+00
3.102000000000000000e+03 7.131795501708984375e+01 2.814697647094726562e+01 -8.271010965108871460e-02 6.204654693603515625e+00 1.836583375930786133e+00 4.716574192047119141e+00
3.103000000000000000e+03 7.047491455078125000e+01 2.729399108886718750e+01 -2.966585755348205566e-01 4.448109149932861328e+00 1.245435237884521484e+00 3.544360160827636719e+00
3.104000000000000000e+03 7.361267852783203125e+01 3.449425125122070312e+01 -1.661256790161132812e+00 1.369943141937255859e+01 3.611452341079711914e+00 -1.301872730255126953e+00
3.105000000000000000e+03 7.345079803466796875e+01 2.660959434509277344e+01 -2.048532485961914062e+00 1.204978466033935547e+01 3.000375747680664062e+00 2.058856248855590820e+00
3.106000000000000000e+03 7.267148590087890625e+01 2.697832298278808594e+01 -1.779548883438110352e+00 1.102078819274902344e+01 2.772372007369995117e+00 3.331413030624389648e+00
3.107000000000000000e+03 7.384759521484375000e+01 3.394602584838867188e+01 -1.590310573577880859e+00 1.501416301727294922e+01 4.027155876159667969e+00 -8.259174823760986328e-01
3.108000000000000000e+03 7.389048767089843750e+01 3.519242095947265625e+01 -1.652161359786987305e+00 1.267383003234863281e+01 3.306500673294067383e+00 -8.680475950241088867e-01
3.109000000000000000e+03 6.980671691894531250e+01 2.737735176086425781e+01 -3.109596371650695801e-01 3.074608087539672852e+00 8.290945291519165039e-01 2.885709047317504883e+00
3.110000000000000000e+03 6.937479400634765625e+01 2.718165206909179688e+01 -4.177789092063903809e-01 2.631651639938354492e+00 6.641618013381958008e-01 2.532451629638671875e+00
3.111000000000000000e+03 7.430545043945312500e+01 3.427035903930664062e+01 -1.470682501792907715e+00 1.448826408386230469e+01 3.905274391174316406e+00 1.108997967094182968e-02
3.112000000000000000e+03 7.132041931152343750e+01 2.733057403564453125e+01 -6.405267119407653809e-01 6.821395874023437500e+00 1.854260802268981934e+00 4.155314445495605469e+00
3.113000000000000000e+03 7.074754333496093750e+01 2.762800598144531250e+01 -2.866926193237304688e-01 4.861798286437988281e+00 1.372531771659851074e+00 3.841113328933715820e+00
3.114000000000000000e+03 6.875862884521484375e+01 2.608575820922851562e+01 -3.546972870826721191e-01 2.597771644592285156e+00 6.729223132133483887e-01 2.261673212051391602e+00
3.115000000000000000e+03 6.827664947509765625e+01 2.632762527465820312e+01 -5.197085142135620117e-01 1.974979519844055176e+00 4.365813136100769043e-01 1.907290220260620117e+00
3.116000000000000000e+03 5.946010589599609375e+01 2.436707878112792969e+01 -1.073953270912170410e+00 2.044869661331176758e-01 -2.608399093151092529e-01 -2.095737606287002563e-01
3.117000000000000000e+03 5.879246520996093750e+01 2.511240577697753906e+01 -1.382249832153320312e+00 1.112680882215499878e-01 -3.812945187091827393e-01 -3.021128773689270020e-01
3.118000000000000000e+03 7.221326446533203125e+01 3.518811798095703125e+01 -8.624590039253234863e-01 9.646299362182617188e+00 2.635152101516723633e+00 -2.647643327713012695e+00
3.119000000000000000e+03 7.360023498535156250e+01 2.787096023559570312e+01 -2.048000574111938477e+00 1.483350372314453125e+01 3.835650920867919922e+00 1.828230023384094238e+00
3.120000000000000000e+03 7.368034362792968750e+01 2.318366241455078125e+01 -1.136468291282653809e+00 9.066132545471191406e+00 2.378899335861206055e+00 1.347113013267517090e+00
3.121000000000000000e+03 7.399604797363281250e+01 2.414920425415039062e+01 -1.464645504951477051e+00 9.984733581542968750e+00 2.556026458740234375e+00 1.198845148086547852e+00
3.122000000000000000e+03 6.841533660888671875e+01 2.681997871398925781e+01 -6.112519502639770508e-01 1.829744100570678711e+00 3.655476570129394531e-01 1.869525551795959473e+00
3.123000000000000000e+03 3.260521316528320312e+01 2.853473472595214844e+01 -3.273523449897766113e-01 -2.020565047860145569e-02 -1.042673960328102112e-01 -2.783148586750030518e-01
3.124000000000000000e+03 3.071281051635742188e+01 2.858279609680175781e+01 -2.452603727579116821e-01 -4.593872278928756714e-02 -8.735973387956619263e-02 -2.407175302505493164e-01
3.125000000000000000e+03 3.241687011718750000e+01 2.635106658935546875e+01 -3.049911558628082275e-01 -6.677851080894470215e-02 -1.115309074521064758e-01 -3.702445030212402344e-01
3.126000000000000000e+03 7.315958404541015625e+01 3.556440734863281250e+01 -1.396237134933471680e+00 1.128943443298339844e+01 2.967959165573120117e+00 -1.681120872497558594e+00
3.127000000000000000e+03 7.162637329101562500e+01 3.501390457153320312e+01 -2.480978220701217651e-01 7.843163013458251953e+00 2.278519630432128906e+00 -2.958096265792846680e+00
3.128000000000000000e+03 2.936251068115234375e+01 2.852111625671386719e+01 -1.926588267087936401e-01 -6.568779051303863525e-02 -7.750398665666580200e-02 -2.154977619647979736e-01
3.129000000000000000e+03 3.094312286376953125e+01 2.699130821228027344e+01 -2.528004646301269531e-01 -7.694581151008605957e-02 -9.892388433218002319e-02 -3.125481307506561279e-01
3.130000000000000000e+03 2.891538047790527344e+01 2.658606529235839844e+01 -1.733817756175994873e-01 -1.187783554196357727e-01 -8.764804154634475708e-02 -2.725794911384582520e-01
3.131000000000000000e+03 2.726189613342285156e+01 2.643835449218750000e+01 -1.201256662607192993e-01 -1.434635370969772339e-01 -7.907675951719284058e-02 -2.307616025209426880e-01
3.132000000000000000e+03 4.722022628784179688e+01 2.631896972656250000e+01 -1.196580171585083008e+00 6.380558013916015625e-02 -3.398323655128479004e-01 -5.289309024810791016e-01
3.133000000000000000e+03 3.704145050048828125e+01 2.646370506286621094e+01 -5.316333174705505371e-01 1.338962744921445847e-02 -1.554730981588363647e-01 -4.539071917533874512e-01
3.134000000000000000e+03 4.089872360229492188e+01 2.588099098205566406e+01 -7.244133949279785156e-01 4.873914271593093872e-02 -2.027022838592529297e-01 -5.337576866149902344e-01
3.135000000000000000e+03 3.590123748779296875e+01 2.774558639526367188e+01 -4.943628609180450439e-01 1.504566147923469543e-02 -1.437951624393463135e-01 -3.684438467025756836e-01
3.136000000000000000e+03 3.634840774536132812e+01 2.677482032775878906e+01 -5.017182826995849609e-01 7.830645889043807983e-03 -1.481662988662719727e-01 -4.276375770568847656e-01
3.137000000000000000e+03 6.021691513061523438e+01 2.432064056396484375e+01 -1.005791068077087402e+00 2.591640353202819824e-01 -2.239881008863449097e-01 -1.217142865061759949e-01
3.138000000000000000e+03 3.274126434326171875e+01 2.733373260498046875e+01 -3.295716643333435059e-01 -3.997495397925376892e-02 -1.108639910817146301e-01 -3.351284563541412354e-01
3.139000000000000000e+03 4.554625701904296875e+01 2.589415550231933594e+01 -1.023768544197082520e+00 6.762255728244781494e-02 -2.868438065052032471e-01 -5.605486631393432617e-01
3.140000000000000000e+03 3.567916107177734375e+01 2.704487609863281250e+01 -4.714027643203735352e-01 1.910634455271065235e-03 -1.408476382493972778e-01 -4.032345414161682129e-01
3.141000000000000000e+03 7.199057769775390625e+01 3.592674255371093750e+01 -7.307566404342651367e-01 8.923126220703125000e+00 2.457710981369018555e+00 -2.184041738510131836e+00
3.142000000000000000e+03 3.435859298706054688e+01 2.744903755187988281e+01 -4.092242717742919922e-01 -1.106193941086530685e-02 -1.260858625173568726e-01 -3.600152134895324707e-01
3.143000000000000000e+03 3.501852416992187500e+01 2.727154159545898438e+01 -4.398068189620971680e-01 -4.641583655029535294e-03 -1.333345174789428711e-01 -3.804428875446319580e-01
3.144000000000000000e+03 3.598236465454101562e+01 2.603938293457031250e+01 -4.657624363899230957e-01 -9.280176833271980286e-03 -1.425127834081649780e-01 -4.590292572975158691e-01
3.145000000000000000e+03 4.314521789550781250e+01 2.561117172241210938e+01 -8.420853018760681152e-01 6.127011775970458984e-02 -2.342445552349090576e-01 -5.699843764305114746e-01
3.146000000000000000e+03 4.173770904541015625e+01 2.657163810729980469e+01 -8.211826086044311523e-01 6.111325696110725403e-02 -2.280208170413970947e-01 -4.999749064445495605e-01
3.147000000000000000e+03 4.240473937988281250e+01 2.573416328430175781e+01 -8.074196577072143555e-01 5.868598446249961853e-02 -2.246200889348983765e-01 -5.570873618125915527e-01
3.148000000000000000e+03 4.852626037597656250e+01 2.455658149719238281e+01 -1.016600370407104492e+00 6.755583733320236206e-02 -2.847133576869964600e-01 -6.317505240440368652e-01
3.149000000000000000e+03 4.961448287963867188e+01 2.590827369689941406e+01 -1.306698083877563477e+00 5.495009198784828186e-02 -3.755244016647338867e-01 -5.478041172027587891e-01
3.150000000000000000e+03 4.868423461914062500e+01 2.531027793884277344e+01 -1.145560383796691895e+00 6.301037222146987915e-02 -3.247649967670440674e-01 -5.919035673141479492e-01
3.151000000000000000e+03 7.444141387939453125e+01 2.708422088623046875e+01 -1.908664345741271973e+00 1.352045154571533203e+01 3.483536243438720703e+00 3.112405836582183838e-01
3.152000000000000000e+03 5.429744338989257812e+01 2.553210830688476562e+01 -1.485496282577514648e+00 4.336566850543022156e-02 -4.326392114162445068e-01 -4.998028576374053955e-01
3.153000000000000000e+03 5.563457107543945312e+01 2.404683876037597656e+01 -1.086129665374755859e+00 1.041923761367797852e-01 -2.945812046527862549e-01 -4.755365550518035889e-01
3.154000000000000000e+03 5.793815612792968750e+01 2.447050094604492188e+01 -1.176581263542175293e+00 1.304350793361663818e-01 -3.138438761234283447e-01 -3.439653515815734863e-01
3.155000000000000000e+03 5.499414062500000000e+01 2.480595970153808594e+01 -1.296291232109069824e+00 6.475422531366348267e-02 -3.694611191749572754e-01 -4.987625479698181152e-01
3.156000000000000000e+03 5.570845413208007812e+01 2.471162605285644531e+01 -1.277865290641784668e+00 7.192750275135040283e-02 -3.617813289165496826e-01 -4.717790484428405762e-01
3.157000000000000000e+03 6.365615463256835938e+01 2.318795967102050781e+01 -2.983407080173492432e-01 1.010884761810302734e+00 2.137632071971893311e-01 6.111462116241455078e-01
3.158000000000000000e+03 6.442654418945312500e+01 2.396406745910644531e+01 -4.332219064235687256e-01 1.002983331680297852e+00 1.709284335374832153e-01 7.149737477302551270e-01
3.159000000000000000e+03 6.597706604003906250e+01 2.516264533996582031e+01 -5.910726189613342285e-01 1.175067901611328125e+00 1.751985698938369751e-01 1.017684221267700195e+00
3.160000000000000000e+03 6.651578521728515625e+01 2.528900146484375000e+01 -5.333313941955566406e-01 1.399265408515930176e+00 2.597801983356475830e-01 1.229946851730346680e+00
3.161000000000000000e+03 6.096845626831054688e+01 2.426665306091308594e+01 -9.250786900520324707e-01 3.280819654464721680e-01 -1.790990084409713745e-01 -2.158848568797111511e-02
3.162000000000000000e+03 6.155901718139648438e+01 2.346461486816406250e+01 -5.962605476379394531e-01 5.216577649116516113e-01 -2.238084003329277039e-02 1.480183005332946777e-01
3.163000000000000000e+03 4.096195602416992188e+01 2.667985916137695312e+01 -7.751970887184143066e-01 5.727230757474899292e-02 -2.153774201869964600e-01 -4.864863753318786621e-01
3.164000000000000000e+03 4.709582519531250000e+01 2.560111999511718750e+01 -1.090677738189697266e+00 6.572641432285308838e-02 -3.074854016304016113e-01 -5.798500776290893555e-01
3.165000000000000000e+03 2.715813064575195312e+01 2.939017105102539062e+01 -1.157731413841247559e-01 -6.937126070261001587e-02 -5.554332211613655090e-02 -1.388380229473114014e-01
3.166000000000000000e+03 3.964159393310546875e+01 2.702011489868164062e+01 -7.053228020668029785e-01 4.915848746895790100e-02 -1.968492865562438965e-01 -4.528216719627380371e-01
3.167000000000000000e+03 5.643931579589843750e+01 2.461658668518066406e+01 -1.250181436538696289e+00 8.772792667150497437e-02 -3.487360775470733643e-01 -4.383702278137207031e-01
3.168000000000000000e+03 6.535715484619140625e+01 2.533384132385253906e+01 -7.525854110717773438e-01 9.153881669044494629e-01 4.884083196520805359e-02 7.866616249084472656e-01
3.169000000000000000e+03 6.519324493408203125e+01 2.461145019531250000e+01 -5.578653812408447266e-01 1.054613232612609863e+00 1.490243524312973022e-01 8.428695797920227051e-01
3.170000000000000000e+03 2.861246490478515625e+01 2.419574928283691406e+01 -1.471514552831649780e-01 -1.959651261568069458e-01 -1.029349714517593384e-01 -3.438648879528045654e-01
3.171000000000000000e+03 6.987471580505371094e+00 -6.679483890533447266e+00 1.249087974429130554e-03 5.274995419313199818e-05 3.905513731297105551e-04 3.378356923349201679e-04
3.172000000000000000e+03 6.996485900878906250e+01 2.636193466186523438e+01 -3.764048516750335693e-01 4.156712055206298828e+00 1.134092211723327637e+00 3.009437084197998047e+00
3.173000000000000000e+03 6.797676849365234375e+01 -3.167865991592407227e+00 2.699997723102569580e-01 4.607936382293701172e+00 1.463380813598632812e+00 4.958419203758239746e-01
3.174000000000000000e+03 7.011689758300781250e+01 1.256543540954589844e+01 3.392849862575531006e-01 5.289479732513427734e+00 1.688629388809204102e+00 1.179580688476562500e+00
3.175000000000000000e+03 7.235882568359375000e+01 1.381469440460205078e+01 1.892796158790588379e-01 6.331214904785156250e+00 1.956148386001586914e+00 1.159243345260620117e+00
3.176000000000000000e+03 5.042609405517578125e+01 2.577010917663574219e+01 -1.334693670272827148e+00 5.373610556125640869e-02 -3.842872679233551025e-01 -5.502151250839233398e-01
3.177000000000000000e+03 6.950794982910156250e+01 -1.179316329956054688e+01 1.229938045144081116e-01 4.867844104766845703e+00 1.497251391410827637e+00 2.714602351188659668e-01
3.178000000000000000e+03 4.913026809692382812e+01 2.358466148376464844e+01 -8.837893009185791016e-01 7.758421450853347778e-02 -2.418615221977233887e-01 -6.630674600601196289e-01
3.179000000000000000e+03 7.218852233886718750e+01 2.079801750183105469e+01 -4.792732298374176025e-01 6.977856636047363281e+00 1.949574947357177734e+00 1.701540112495422363e+00
3.180000000000000000e+03 7.213347625732421875e+01 2.002540206909179688e+01 -3.356538116931915283e-01 6.875689506530761719e+00 1.962010741233825684e+00 1.592176437377929688e+00
3.181000000000000000e+03 7.211995601654052734e+00 1.087986373901367188e+01 -3.411904981476254761e-05 1.048275225912220776e-05 -7.090889084793161601e-06 -9.609887456463184208e-06
3.182000000000000000e+03 2.875691223144531250e+01 2.756485557556152344e+01 -1.715355962514877319e-01 -9.561234712600708008e-02 -8.014438301324844360e-02 -2.356227189302444458e-01
3.183000000000000000e+03 3.047765541076660156e+01 1.874389266967773438e+01 -1.069524735212326050e-01 -3.415520787239074707e-01 -1.345513612031936646e-01 -5.364978313446044922e-01
3.184000000000000000e+03 2.942094993591308594e+01 1.730315399169921875e+01 -6.857179850339889526e-02 -4.296585321426391602e-01 -1.494690924882888794e-01 -5.183435082435607910e-01
3.185000000000000000e+03 7.191551208496093750e+01 1.583397388458251953e+01 1.038443669676780701e-01 6.274693965911865234e+00 1.913561582565307617e+00 1.314129948616027832e+00
3.186000000000000000e+03 7.179772186279296875e+01 1.510367870330810547e+01 1.688821166753768921e-01 6.121126651763916016e+00 1.887002587318420410e+00 1.280781388282775879e+00
3.187000000000000000e+03 3.147490882873535156e+01 -4.243219375610351562e+00 1.025989055633544922e-01 -7.945592999458312988e-01 -2.075881212949752808e-01 -3.459289669990539551e-01
3.188000000000000000e+03 3.153348922729492188e+01 -3.237155675888061523e+00 1.057469993829727173e-01 -7.738319039344787598e-01 -2.004254758358001709e-01 -3.683214187622070312e-01
3.189000000000000000e+03 8.782266616821289062e+00 1.331930541992187500e+01 -2.106267675117123872e-05 -2.183037622671690769e-06 -6.973714334890246391e-06 -1.983494030355359428e-06
3.190000000000000000e+03 6.860465240478515625e+01 -1.879783248901367188e+01 8.711078763008117676e-02 4.648562908172607422e+00 1.420702099800109863e+00 1.578395664691925049e-01
3.191000000000000000e+03 6.193464756011962891e+00 7.083075523376464844e+00 1.853180219768546522e-05 2.791071551655477379e-07 5.643272743327543139e-06 6.858932920295046642e-06
3.192000000000000000e+03 3.091451644897460938e+01 1.172570610046386719e+01 1.203652005642652512e-03 -5.486147403717041016e-01 -1.642233133316040039e-01 -5.877228379249572754e-01
3.193000000000000000e+03 2.949542236328125000e+01 1.589433288574218750e+01 -4.998265579342842102e-02 -4.801779091358184814e-01 -1.590481698513031006e-01 -5.351336002349853516e-01
3.194000000000000000e+03 3.064439392089843750e+01 1.593703651428222656e+01 -5.801373347640037537e-02 -4.312542378902435303e-01 -1.467803865671157837e-01 -5.751517415046691895e-01
3.195000000000000000e+03 7.272335815429687500e+01 2.252338409423828125e+01 -9.096907973289489746e-01 7.972235679626464844e+00 2.118763446807861328e+00 1.791190981864929199e+00
3.196000000000000000e+03 7.180722045898437500e+01 1.946776962280273438e+01 -2.067680656909942627e-01 6.555475711822509766e+00 1.904612302780151367e+00 1.566405773162841797e+00
3.197000000000000000e+03 2.890806961059570312e+01 2.291966438293457031e+01 -1.379248946905136108e-01 -2.367648482322692871e-01 -1.124069243669509888e-01 -3.900581598281860352e-01
3.198000000000000000e+03 3.217335510253906250e+01 2.714862442016601562e+01 -3.063689172267913818e-01 -5.015758424997329712e-02 -1.069579422473907471e-01 -3.309645652770996094e-01
3.199000000000000000e+03 7.037071228027343750e+01 1.085870361328125000e+01 3.495413661003112793e-01 5.355962753295898438e+00 1.711651206016540527e+00 1.074064016342163086e+00
3.200000000000000000e+03 2.978022384643554688e+01 8.820127487182617188e+00 1.897321827709674835e-02 -7.023418545722961426e-01 -2.050105780363082886e-01 -5.338029265403747559e-01
3.201000000000000000e+03 3.102162551879882812e+01 8.900925636291503906e+00 3.045602142810821533e-02 -6.156196594238281250e-01 -1.755491048097610474e-01 -5.676824450492858887e-01
3.202000000000000000e+03 6.982089233398437500e+01 5.686830043792724609e+00 3.427505195140838623e-01 5.140764236450195312e+00 1.645054459571838379e+00 8.201745748519897461e-01
3.203000000000000000e+03 6.967318725585937500e+01 -1.876103758811950684e+00 2.310594618320465088e-01 5.001786708831787109e+00 1.569853782653808594e+00 5.239667892456054688e-01
3.204000000000000000e+03 6.747203063964843750e+01 -2.484768295288085938e+01 6.843553483486175537e-02 4.422206401824951172e+00 1.347192525863647461e+00 9.340845793485641479e-02
3.205000000000000000e+03 7.039881896972656250e+01 -1.047171783447265625e+01 1.201614737510681152e-01 5.039058208465576172e+00 1.547765851020812988e+00 2.850580215454101562e-01
3.206000000000000000e+03 7.972514629364013672e+00 -1.671706199645996094e+01 2.795204287394881248e-03 1.753057003952562809e-04 8.911530021578073502e-04 -6.291382596828043461e-04
3.207000000000000000e+03 9.033185958862304688e+00 -1.677553749084472656e+01 -3.159642918035387993e-03 -3.301895339973270893e-04 -1.046949648298323154e-03 8.304458460770547390e-04
3.208000000000000000e+03 3.061880683898925781e+01 -1.328622817993164062e+01 6.742379069328308105e-02 -9.348345398902893066e-01 -2.602232098579406738e-01 -2.075775116682052612e-01
3.209000000000000000e+03 2.897330474853515625e+01 -1.200213432312011719e+01 5.240345001220703125e-02 -1.141280412673950195e+00 -3.266630768775939941e-01 -2.184653431177139282e-01
3.210000000000000000e+03 7.077584838867187500e+01 1.935201454162597656e+01 -1.013174578547477722e-01 5.859699726104736328e+00 1.727514624595642090e+00 1.676056504249572754e+00
3.211000000000000000e+03 6.908666229248046875e+01 -1.491464328765869141e+01 1.112402528524398804e-01 4.759913444519042969e+00 1.461346030235290527e+00 2.162568271160125732e-01
3.212000000000000000e+03 7.057675933837890625e+01 -1.487815284729003906e+01 9.070537984371185303e-02 5.023741722106933594e+00 1.534334063529968262e+00 1.977981626987457275e-01
3.213000000000000000e+03 7.120722198486328125e+01 8.523693084716796875e+00 2.980878055095672607e-01 5.602046489715576172e+00 1.770040273666381836e+00 9.525765776634216309e-01
3.214000000000000000e+03 6.713441848754882812e+00 -2.726553726196289062e+01 2.243608003482222557e-03 -5.219592130742967129e-04 5.164946196600794792e-04 -5.287591484375298023e-04
3.215000000000000000e+03 2.596092414855957031e+01 -2.363002967834472656e+01 4.257204756140708923e-02 -1.604049324989318848e+00 -4.684432148933410645e-01 -1.172315925359725952e-01
3.216000000000000000e+03 6.895285034179687500e+01 -9.396051406860351562e+00 1.594123542308807373e-01 4.769393444061279297e+00 1.478641629219055176e+00 3.173137903213500977e-01
3.217000000000000000e+03 7.156178283691406250e+01 -6.674930572509765625e+00 1.233661025762557983e-01 5.327610015869140625e+00 1.635292887687683105e+00 3.448089063167572021e-01
3.218000000000000000e+03 3.024021530151367188e+01 -4.756338596343994141e+00 8.259006589651107788e-02 -9.178188443183898926e-01 -2.505686283111572266e-01 -3.344389498233795166e-01
3.219000000000000000e+03 3.091749572753906250e+01 -1.676766777038574219e+01 7.487624883651733398e-02 -8.958415985107421875e-01 -2.462895959615707397e-01 -1.604024171829223633e-01
3.220000000000000000e+03 2.889867782592773438e+01 -1.826096534729003906e+01 4.683519527316093445e-02 -1.186260581016540527e+00 -3.418276309967041016e-01 -1.496090590953826904e-01
3.221000000000000000e+03 6.997171783447265625e+01 9.676249504089355469e+00 3.613608479499816895e-01 5.190099716186523438e+00 1.665438294410705566e+00 1.015756011009216309e+00
3.222000000000000000e+03 3.082879066467285156e+01 1.313318538665771484e+01 -1.582157984375953674e-02 -5.120958685874938965e-01 -1.583752334117889404e-01 -5.891290307044982910e-01
3.223000000000000000e+03 3.107212066650390625e+01 3.316748619079589844e+00 7.012918591499328613e-02 -7.295168042182922363e-01 -1.978162974119186401e-01 -4.812229573726654053e-01
3.224000000000000000e+03 3.107596588134765625e+01 4.703732967376708984e+00 6.344649195671081543e-02 -7.035369873046875000e-01 -1.920271515846252441e-01 -5.070169568061828613e-01
3.225000000000000000e+03 7.548038482666015625e+00 -3.176181602478027344e+01 2.741726115345954895e-03 -4.279329441487789154e-03 -4.612809862010180950e-04 -1.497354824095964432e-04
3.226000000000000000e+03 3.078743934631347656e+01 -1.488658046722412109e+01 6.659325212240219116e-02 -9.172161221504211426e-01 -2.551868557929992676e-01 -1.886526793241500854e-01
3.227000000000000000e+03 2.919479560852050781e+01 -1.662385177612304688e+01 4.955705255270004272e-02 -1.132829308509826660e+00 -3.249816596508026123e-01 -1.687239855527877808e-01
3.228000000000000000e+03 2.928172492980957031e+01 -2.297925758361816406e+01 5.489547923207283020e-02 -1.107573628425598145e+00 -3.158034384250640869e-01 -1.184817701578140259e-01
3.229000000000000000e+03 3.235131454467773438e+01 3.423896312713623047e+00 9.569114446640014648e-02 -6.174690723419189453e-01 -1.565333902835845947e-01 -5.050618648529052734e-01
3.230000000000000000e+03 8.847831726074218750e+00 1.684920883178710938e+01 -1.820429315557703376e-05 -7.920762072899378836e-06 -7.837516022846102715e-06 1.162638795904058497e-06
3.231000000000000000e+03 7.434425830841064453e+00 -2.989692306518554688e+01 3.423165995627641678e-03 -1.833242597058415413e-03 4.769770603161305189e-04 -2.948600740637630224e-04
3.232000000000000000e+03 2.903967666625976562e+01 -3.276386260986328125e+01 2.294073812663555145e-02 -1.059244990348815918e+00 -3.108912706375122070e-01 -2.661344036459922791e-02
3.233000000000000000e+03 6.915616607666015625e+01 -8.397017121315002441e-01 2.673711478710174561e-01 4.904015541076660156e+00 1.551416039466857910e+00 5.634722709655761719e-01
3.234000000000000000e+03 2.533623504638671875e+01 -3.376733016967773438e+01 -6.537897884845733643e-02 -1.647774934768676758e+00 -5.139461755752563477e-01 -1.197765488177537918e-02
3.235000000000000000e+03 6.971597290039062500e+01 2.564724206924438477e+00 2.945165336132049561e-01 5.061844825744628906e+00 1.606908440589904785e+00 6.943809390068054199e-01
3.236000000000000000e+03 6.955994415283203125e+01 8.036119341850280762e-01 2.772594392299652100e-01 5.022768974304199219e+00 1.590008616447448730e+00 6.215235590934753418e-01
3.237000000000000000e+03 7.074192047119140625e+01 4.202783584594726562e+00 2.780556678771972656e-01 5.358878135681152344e+00 1.691080093383789062e+00 7.360569238662719727e-01
3.238000000000000000e+03 7.767638683319091797e+00 -3.622599029541015625e+01 4.709768109023571014e-03 -1.145314332097768784e-02 -2.023012610152363777e-03 1.885654591023921967e-02
3.239000000000000000e+03 6.608659744262695312e+00 -3.086403083801269531e+01 7.530883885920047760e-03 2.190757310017943382e-03 2.916492288932204247e-03 2.200989052653312683e-03
3.240000000000000000e+03 7.102638244628906250e+01 2.792901611328125000e+01 -1.918420642614364624e-01 5.430434226989746094e+00 1.571577668190002441e+00 4.222655296325683594e+00
3.241000000000000000e+03 7.233860778808593750e+01 2.744152259826660156e+01 -1.413900852203369141e+00 1.034954738616943359e+01 2.680694103240966797e+00 4.047420024871826172e+00
3.242000000000000000e+03 7.017314147949218750e+01 2.767591667175292969e+01 -2.866817712783813477e-01 3.465727090835571289e+00 9.537135958671569824e-01 3.235028982162475586e+00
3.243000000000000000e+03 7.104970550537109375e+01 2.640972900390625000e+01 -7.031916379928588867e-01 6.443055152893066406e+00 1.721959114074707031e+00 3.545231819152832031e+00
3.244000000000000000e+03 7.380335998535156250e+01 2.760034179687500000e+01 -2.104096412658691406e+00 1.448063278198242188e+01 3.712960958480834961e+00 1.307109117507934570e+00
3.245000000000000000e+03 7.405516052246093750e+01 2.810115814208984375e+01 -1.745555520057678223e+00 1.578920078277587891e+01 4.213093280792236328e+00 4.627000987529754639e-01
3.246000000000000000e+03 7.293373107910156250e+01 2.557163238525390625e+01 -1.683788895606994629e+00 9.959435462951660156e+00 2.482693910598754883e+00 2.340040922164916992e+00
3.247000000000000000e+03 7.323753356933593750e+01 3.474069213867187500e+01 -1.549627900123596191e+00 1.259050464630126953e+01 3.312263250350952148e+00 -1.842108130455017090e+00
3.248000000000000000e+03 7.018170928955078125e+01 2.690124702453613281e+01 -3.630715310573577881e-01 4.181026935577392578e+00 1.145386576652526855e+00 3.227639436721801758e+00
3.249000000000000000e+03 6.930348968505859375e+01 2.592093849182128906e+01 -3.474262654781341553e-01 3.461840152740478516e+00 9.343241453170776367e-01 2.595833301544189453e+00
3.250000000000000000e+03 7.349411010742187500e+01 3.508825302124023438e+01 -1.624434828758239746e+00 1.251098060607910156e+01 3.265963792800903320e+00 -1.425528287887573242e+00
3.251000000000000000e+03 5.869846725463867188e+01 2.441516113281250000e+01 -1.129281163215637207e+00 1.625306010246276855e-01 -2.900251746177673340e-01 -2.819097340106964111e-01
3.252000000000000000e+03 6.008971023559570312e+01 2.361382484436035156e+01 -7.746464610099792480e-01 3.371164798736572266e-01 -1.312589943408966064e-01 -8.516938984394073486e-02
3.253000000000000000e+03 5.718427276611328125e+01 2.453541183471679688e+01 -1.216177105903625488e+00 1.049636229872703552e-01 -3.333640396595001221e-01 -3.947266936302185059e-01
3.254000000000000000e+03 5.859158325195312500e+01 2.371284294128417969e+01 -9.022649526596069336e-01 2.207640558481216431e-01 -2.044502645730972290e-01 -2.579934298992156982e-01
3.255000000000000000e+03 6.810553741455078125e+01 2.549188041687011719e+01 -3.471125364303588867e-01 2.304792404174804688e+00 5.873039364814758301e-01 1.948884963989257812e+00
3.256000000000000000e+03 7.280130767822265625e+01 2.322721099853515625e+01 -1.076876997947692871e+00 8.329570770263671875e+00 2.175807952880859375e+00 1.868952751159667969e+00
3.257000000000000000e+03 3.368850326538085938e+01 2.757874107360839844e+01 -3.778341710567474365e-01 -1.889747194945812225e-02 -1.190194934606552124e-01 -3.428372144699096680e-01
3.258000000000000000e+03 3.203264617919921875e+01 2.787319564819335938e+01 -3.025659322738647461e-01 -3.896660357713699341e-02 -1.024597659707069397e-01 -2.966394722461700439e-01
3.259000000000000000e+03 2.963562583923339844e+01 2.673600006103515625e+01 -1.990560293197631836e-01 -1.054479107260704041e-01 -9.135118871927261353e-02 -2.881267666816711426e-01
3.260000000000000000e+03 4.464263916015625000e+01 2.533641624450683594e+01 -9.060018658638000488e-01 6.540916860103607178e-02 -2.521778047084808350e-01 -5.938521623611450195e-01
3.261000000000000000e+03 4.788513565063476562e+01 2.545761680603027344e+01 -1.119597554206848145e+00 6.398100405931472778e-02 -3.166849613189697266e-01 -5.863158702850341797e-01
3.262000000000000000e+03 2.990997314453125000e+01 2.578890991210937500e+01 -2.024379670619964600e-01 -1.248027086257934570e-01 -9.817220270633697510e-02 -3.268325626850128174e-01
3.263000000000000000e+03 3.660976409912109375e+01 2.566854858398437500e+01 -4.863847494125366211e-01 -5.653784610331058502e-03 -1.476115584373474121e-01 -4.895132780075073242e-01
3.264000000000000000e+03 4.162353134155273438e+01 2.511259841918945312e+01 -7.156331539154052734e-01 4.647527635097503662e-02 -2.007473707199096680e-01 -5.855757594108581543e-01
3.265000000000000000e+03 2.833279800415039062e+01 2.537699508666992188e+01 -1.479459702968597412e-01 -1.620669662952423096e-01 -9.300387650728225708e-02 -2.964113354682922363e-01
3.266000000000000000e+03 2.812595367431640625e+01 2.648215103149414062e+01 -1.477960050106048584e-01 -1.321088969707489014e-01 -8.397147059440612793e-02 -2.548394799232482910e-01
3.267000000000000000e+03 7.394071197509765625e+01 2.637838554382324219e+01 -2.013321638107299805e+00 1.224649620056152344e+01 3.069952249526977539e+00 1.223435997962951660e+00
3.268000000000000000e+03 7.246608734130859375e+01 2.652019309997558594e+01 -1.607287406921386719e+00 1.008912086486816406e+01 2.544550180435180664e+00 3.164057016372680664e+00
3.269000000000000000e+03 5.428790664672851562e+01 2.487706184387207031e+01 -1.302201509475708008e+00 5.992693826556205750e-02 -3.726823925971984863e-01 -5.195630788803100586e-01
3.270000000000000000e+03 5.357428741455078125e+01 2.489589881896972656e+01 -1.288042068481445312e+00 6.060681119561195374e-02 -3.682305514812469482e-01 -5.403761267662048340e-01
3.271000000000000000e+03 4.376276016235351562e+01 2.476110267639160156e+01 -8.001731038093566895e-01 5.844177678227424622e-02 -2.225193977355957031e-01 -6.212801933288574219e-01
3.272000000000000000e+03 4.449766540527343750e+01 2.462681579589843750e+01 -8.248954415321350098e-01 6.256327778100967407e-02 -2.286996543407440186e-01 -6.325345039367675781e-01
3.273000000000000000e+03 3.538340377807617188e+01 2.636696624755859375e+01 -4.439924657344818115e-01 -1.335905306041240692e-02 -1.372054517269134521e-01 -4.330163896083831787e-01
3.274000000000000000e+03 3.309818267822265625e+01 2.777684211730957031e+01 -3.488466739654541016e-01 -2.673095650970935822e-02 -1.126732826232910156e-01 -3.240623474121093750e-01
3.275000000000000000e+03 3.479921722412109375e+01 2.663649940490722656e+01 -4.185242652893066406e-01 -1.955730095505714417e-02 -1.314244717359542847e-01 -4.093793928623199463e-01
3.276000000000000000e+03 4.166302871704101562e+01 2.583300590515136719e+01 -7.701367735862731934e-01 5.480721220374107361e-02 -2.145988643169403076e-01 -5.450502038002014160e-01
3.277000000000000000e+03 4.540440750122070312e+01 2.518642997741699219e+01 -9.344944357872009277e-01 6.704115122556686401e-02 -2.602359652519226074e-01 -6.051904559135437012e-01
3.278000000000000000e+03 5.141144943237304688e+01 2.284088134765625000e+01 -7.941660881042480469e-01 1.013717949390411377e-01 -2.078382819890975952e-01 -6.349396109580993652e-01
3.279000000000000000e+03 4.303472137451171875e+01 2.489072036743164062e+01 -7.751933336257934570e-01 5.569167807698249817e-02 -2.158505022525787354e-01 -6.089375615119934082e-01
3.280000000000000000e+03 4.231872940063476562e+01 2.501418495178222656e+01 -7.472367286682128906e-01 5.221708118915557861e-02 -2.085058838129043579e-01 -5.974692106246948242e-01
3.281000000000000000e+03 6.379100036621093750e+01 2.401610565185546875e+01 -5.262596607208251953e-01 8.272582292556762695e-01 9.029956161975860596e-02 5.528804659843444824e-01
3.282000000000000000e+03 6.503328704833984375e+01 2.391139030456542969e+01 -3.266555368900299072e-01 1.216226816177368164e+00 2.668713927268981934e-01 8.862487673759460449e-01
3.283000000000000000e+03 4.933311080932617188e+01 2.438365364074707031e+01 -1.023735165596008301e+00 6.997638195753097534e-02 -2.861276566982269287e-01 -6.329845190048217773e-01
3.284000000000000000e+03 4.949443435668945312e+01 2.515329360961914062e+01 -1.164827346801757812e+00 6.169341132044792175e-02 -3.309401869773864746e-01 -5.937795639038085938e-01
3.285000000000000000e+03 7.405895996093750000e+01 2.695780754089355469e+01 -2.032639026641845703e+00 1.320066356658935547e+01 3.350407361984252930e+00 9.598639011383056641e-01
3.286000000000000000e+03 5.699275588989257812e+01 2.313095283508300781e+01 -7.999496459960937500e-01 1.955003589391708374e-01 -1.813347786664962769e-01 -3.653720319271087646e-01
3.287000000000000000e+03 5.709328079223632812e+01 2.383772277832031250e+01 -9.994289278984069824e-01 1.496030539274215698e-01 -2.549477815628051758e-01 -3.844619691371917725e-01
3.288000000000000000e+03 6.297512817382812500e+01 2.327419471740722656e+01 -3.898693025112152100e-01 8.130068182945251465e-01 1.269412487745285034e-01 4.440498054027557373e-01
3.289000000000000000e+03 6.082892608642578125e+01 2.354854774475097656e+01 -6.900582313537597656e-01 4.183930158615112305e-01 -8.149956911802291870e-02 2.623641863465309143e-02
3.290000000000000000e+03 6.227684402465820312e+01 2.337111091613769531e+01 -4.943198561668395996e-01 6.522077918052673340e-01 4.736639186739921570e-02 2.921553254127502441e-01
3.291000000000000000e+03 6.277585983276367188e+01 2.245983695983886719e+01 -2.114061564207077026e-01 9.387227296829223633e-01 2.181949615478515625e-01 4.834241271018981934e-01
3.292000000000000000e+03 4.694682693481445312e+01 2.486965942382812500e+01 -9.813982844352722168e-01 6.645952910184860229e-02 -2.744816243648529053e-01 -6.231217384338378906e-01
3.293000000000000000e+03 4.014164733886718750e+01 2.573410034179687500e+01 -6.700139641761779785e-01 3.987766802310943604e-02 -1.890408843755722046e-01 -5.331466794013977051e-01
3.294000000000000000e+03 7.213097381591796875e+01 2.344437599182128906e+01 -9.964706301689147949e-01 7.711268424987792969e+00 2.014439344406127930e+00 2.141094923019409180e+00
3.295000000000000000e+03 6.746629333496093750e+01 2.590279388427734375e+01 -5.313238501548767090e-01 1.657865285873413086e+00 3.379624485969543457e-01 1.563409686088562012e+00
3.296000000000000000e+03 4.617332077026367188e+01 2.502925491333007812e+01 -9.606301784515380859e-01 6.652547419071197510e-02 -2.682314217090606689e-01 -6.142500638961791992e-01
3.297000000000000000e+03 3.890985107421875000e+01 2.693420410156250000e+01 -6.554372310638427734e-01 4.228772222995758057e-02 -1.839448511600494385e-01 -4.522867500782012939e-01
3.298000000000000000e+03 5.934321594238281250e+01 2.366401863098144531e+01 -8.415272235870361328e-01 2.713282704353332520e-01 -1.710596829652786255e-01 -1.770779192447662354e-01
3.299000000000000000e+03 5.784151077270507812e+01 2.376819229125976562e+01 -9.534894227981567383e-01 1.798022091388702393e-01 -2.321061640977859497e-01 -3.250936269760131836e-01
3.300000000000000000e+03 5.123404312133789062e+01 2.564913368225097656e+01 -1.365117669105529785e+00 4.673485830426216125e-02 -3.955148458480834961e-01 -5.478891134262084961e-01
3.301000000000000000e+03 5.355534362792968750e+01 2.557349395751953125e+01 -1.464841961860656738e+00 4.303831234574317932e-02 -4.265410900115966797e-01 -5.154320597648620605e-01
3.302000000000000000e+03 7.209889984130859375e+01 2.165748596191406250e+01 -5.943249464035034180e-01 7.116076946258544922e+00 1.956525683403015137e+00 1.806825757026672363e+00
3.303000000000000000e+03 7.141468811035156250e+01 2.079433822631835938e+01 -3.533024489879608154e-01 6.349077701568603516e+00 1.798732519149780273e+00 1.791439175605773926e+00
3.304000000000000000e+03 5.635298919677734375e+01 2.393125152587890625e+01 -1.044223070144653320e+00 1.224330738186836243e-01 -2.765370011329650879e-01 -4.331898391246795654e-01
3.305000000000000000e+03 7.279819488525390625e+01 2.629037475585937500e+01 -1.760989069938659668e+00 1.046748352050781250e+01 2.611948490142822266e+00 2.822646379470825195e+00
3.306000000000000000e+03 7.118095397949218750e+01 2.674986457824707031e+01 -7.188419699668884277e-01 6.658636569976806641e+00 1.781938433647155762e+00 3.838522195816040039e+00
3.307000000000000000e+03 6.782219696044921875e+01 2.684459209442138672e+00 3.744163215160369873e-01 4.543861389160156250e+00 1.475483298301696777e+00 6.886386871337890625e-01
3.308000000000000000e+03 6.874250030517578125e+01 3.546041727066040039e+00 3.536920249462127686e-01 4.796970844268798828e+00 1.545198798179626465e+00 7.344861626625061035e-01
3.309000000000000000e+03 3.170258140563964844e+01 2.272172164916992188e+01 -2.161578834056854248e-01 -1.790809780359268188e-01 -1.185716614127159119e-01 -4.862052500247955322e-01
3.310000000000000000e+03 7.247152709960937500e+01 2.576440048217773438e+01 -1.505282402038574219e+00 9.346947669982910156e+00 2.352499485015869141e+00 2.790498018264770508e+00
3.311000000000000000e+03 7.202146911621093750e+01 2.254323768615722656e+01 -7.432065606117248535e-01 7.320772647857666016e+00 1.973269820213317871e+00 1.934886693954467773e+00
3.312000000000000000e+03 7.348647308349609375e+01 3.769246292114257812e+01 -1.076261401176452637e+00 9.858830451965332031e+00 2.634770631790161133e+00 -7.474485039710998535e-01
3.313000000000000000e+03 7.135208129882812500e+01 3.570256423950195312e+01 -1.982371509075164795e-01 7.123905181884765625e+00 2.077700376510620117e+00 -2.575406312942504883e+00
3.314000000000000000e+03 6.757706451416015625e+01 -9.625738143920898438e+00 1.880876719951629639e-01 4.500936508178710938e+00 1.406707167625427246e+00 3.240692615509033203e-01
3.315000000000000000e+03 6.789384460449218750e+01 -1.112749958038330078e+01 1.594607234001159668e-01 4.550613880157470703e+00 1.413022398948669434e+00 2.869301736354827881e-01
3.316000000000000000e+03 3.001006698608398438e+01 2.313510894775390625e+01 -1.737908422946929932e-01 -2.047378420829772949e-01 -1.135586053133010864e-01 -4.216171801090240479e-01
3.317000000000000000e+03 6.895195007324218750e+01 -3.226507902145385742e+00 2.428858280181884766e-01 4.844355583190917969e+00 1.526172399520874023e+00 4.886646866798400879e-01
3.318000000000000000e+03 7.004959869384765625e+01 8.489357948303222656e+00 3.540400266647338867e-01 5.211107254028320312e+00 1.669544219970703125e+00 9.542573094367980957e-01
3.319000000000000000e+03 7.127188110351562500e+01 7.481659889221191406e+00 2.893396019935607910e-01 5.602616310119628906e+00 1.767586708068847656e+00 8.937418460845947266e-01
3.320000000000000000e+03 3.724703979492187500e+01 2.523309898376464844e+01 -4.978081583976745605e-01 -4.822493065148591995e-03 -1.507892012596130371e-01 -5.225958824157714844e-01
3.321000000000000000e+03 7.050853729248046875e+01 1.501318931579589844e+01 2.504634261131286621e-01 5.477236747741699219e+00 1.718310117721557617e+00 1.331330537796020508e+00
3.322000000000000000e+03 7.175949096679687500e+01 1.838761138916015625e+01 -6.075279042124748230e-02 6.450378417968750000e+00 1.916887760162353516e+00 1.464733362197875977e+00
3.323000000000000000e+03 3.166955184936523438e+01 1.735153198242187500e+01 -9.436956048011779785e-02 -3.464907109737396240e-01 -1.322580724954605103e-01 -5.953931808471679688e-01
3.324000000000000000e+03 3.159099578857421875e+01 1.873517799377441406e+01 -1.261518746614456177e-01 -3.049703538417816162e-01 -1.293366700410842896e-01 -5.742753744125366211e-01
3.325000000000000000e+03 3.073624801635742188e+01 1.453691005706787109e+01 -3.669979050755500793e-02 -4.732738137245178223e-01 -1.529920846223831177e-01 -5.851967334747314453e-01
3.326000000000000000e+03 3.176939392089843750e+01 1.597488975524902344e+01 -6.741150468587875366e-02 -3.841128051280975342e-01 -1.354572921991348267e-01 -6.103008389472961426e-01
3.327000000000000000e+03 3.220964050292968750e+01 1.039496135711669922e+01 2.689359337091445923e-02 -5.064657330513000488e-01 -1.438716351985931396e-01 -6.108422875404357910e-01
3.328000000000000000e+03 3.212885665893554688e+01 1.180551719665527344e+01 7.492517121136188507e-03 -4.790951907634735107e-01 -1.414808034896850586e-01 -6.197233200073242188e-01
3.329000000000000000e+03 3.105066680908203125e+01 7.496613979339599609e+00 4.360496252775192261e-02 -6.468909382820129395e-01 -1.809857934713363647e-01 -5.508279800415039062e-01
3.330000000000000000e+03 3.226170730590820312e+01 8.989260673522949219e+00 4.575050994753837585e-02 -5.326312780380249023e-01 -1.460642367601394653e-01 -5.961392521858215332e-01
3.331000000000000000e+03 7.081253051757812500e+01 1.346892070770263672e+01 2.759296298027038574e-01 5.604330062866210938e+00 1.764077901840209961e+00 1.237685441970825195e+00
3.332000000000000000e+03 3.039110183715820312e+01 2.016833114624023438e+01 -1.327325701713562012e-01 -2.956837713718414307e-01 -1.285248994827270508e-01 -5.090467333793640137e-01
3.333000000000000000e+03 3.029902267456054688e+01 2.166264724731445312e+01 -1.581659615039825439e-01 -2.451277077198028564e-01 -1.209881007671356201e-01 -4.696361124515533447e-01
3.334000000000000000e+03 7.100330352783203125e+01 5.343881130218505859e+00 2.846601307392120361e-01 5.460227012634277344e+00 1.723466157913208008e+00 7.827581167221069336e-01
3.335000000000000000e+03 5.701469898223876953e+00 -2.050776672363281250e+01 -2.786099910736083984e-03 -1.216059667058289051e-03 -1.200647908262908459e-03 -1.319591654464602470e-03
3.336000000000000000e+03 6.613109588623046875e+01 -2.401000213623046875e+01 9.492493420839309692e-02 4.227470397949218750e+00 1.296718597412109375e+00 1.266705989837646484e-01
3.337000000000000000e+03 5.583983898162841797e+00 2.320538139343261719e+01 -2.940486410807352513e-05 -6.253160336200380698e-06 -1.069740756065584719e-05 -3.864933023578487337e-05
3.338000000000000000e+03 8.884842872619628906e+00 -2.916705131530761719e+01 1.724814530462026596e-03 8.720462210476398468e-03 3.133583115413784981e-03 -3.865770995616912842e-03
3.339000000000000000e+03 9.135335922241210938e+00 -2.791399765014648438e+01 4.361698520369827747e-04 -5.845876876264810562e-03 -1.622912124730646610e-03 2.510680118575692177e-03
3.340000000000000000e+03 3.152856826782226562e+01 2.013652420043945312e+01 -1.538123488426208496e-01 -2.644273936748504639e-01 -1.254719197750091553e-01 -5.440016984939575195e-01
3.341000000000000000e+03 3.061458015441894531e+01 -5.649036884307861328e+00 8.225600421428680420e-02 -8.966866731643676758e-01 -2.443292140960693359e-01 -3.245402574539184570e-01
3.342000000000000000e+03 2.978136444091796875e+01 -3.894470453262329102e+00 7.769189029932022095e-02 -9.645769596099853516e-01 -2.660655379295349121e-01 -3.400330841541290283e-01
3.343000000000000000e+03 2.953180503845214844e+01 -1.939995884895324707e+00 6.771125644445419312e-02 -9.779650568962097168e-01 -2.730761468410491943e-01 -3.656395375728607178e-01
3.344000000000000000e+03 2.968327713012695312e+01 5.284562110900878906e-01 5.984212830662727356e-02 -9.155682921409606934e-01 -2.567178308963775635e-01 -4.042924046516418457e-01
3.345000000000000000e+03 7.136897277832031250e+01 1.433433437347412109e+01 2.266059368848800659e-01 5.897575855255126953e+00 1.837254643440246582e+00 1.253921627998352051e+00
3.346000000000000000e+03 6.924904632568359375e+01 1.159412574768066406e+01 4.054027199745178223e-01 4.914848804473876953e+00 1.596075415611267090e+00 1.112853646278381348e+00
3.347000000000000000e+03 6.774418640136718750e+01 -1.997965621948242188e+01 9.189967066049575806e-02 4.501300811767578125e+00 1.377960085868835449e+00 1.502883434295654297e-01
3.348000000000000000e+03 7.508545398712158203e+00 1.707078933715820312e+01 -2.496221213732496835e-06 -2.181609852414112538e-05 -7.293695944099454209e-06 8.669305316288955510e-06
3.349000000000000000e+03 3.104330635070800781e+01 1.945053577423095703e+00 7.837128639221191406e-02 -7.567431926727294922e-01 -2.035115659236907959e-01 -4.563778340816497803e-01
3.350000000000000000e+03 6.872332763671875000e+01 1.806109189987182617e+00 3.328202962875366211e-01 4.776591777801513672e+00 1.532823681831359863e+00 6.613267660140991211e-01
3.351000000000000000e+03 3.347956848144531250e+01 2.628795242309570312e+01 -3.496783673763275146e-01 -4.992005974054336548e-02 -1.198795288801193237e-01 -3.981686532497406006e-01
3.352000000000000000e+03 3.232355499267578125e+01 6.204246044158935547e+00 7.429196685552597046e-02 -5.785155892372131348e-01 -1.512670814990997314e-01 -5.555924773216247559e-01
3.353000000000000000e+03 3.201655197143554688e+01 1.320688343048095703e+01 -1.586448960006237030e-02 -4.504061639308929443e-01 -1.398811936378479004e-01 -6.227531433105468750e-01
3.354000000000000000e+03 3.188987731933593750e+01 1.459561347961425781e+01 -3.954492136836051941e-02 -4.187254607677459717e-01 -1.374811083078384399e-01 -6.196184158325195312e-01
3.355000000000000000e+03 3.229893875122070312e+01 7.593363761901855469e+00 5.948528274893760681e-02 -5.556534528732299805e-01 -1.488504558801651001e-01 -5.773176550865173340e-01
3.356000000000000000e+03 3.106579971313476562e+01 6.098437786102294922e+00 5.229203030467033386e-02 -6.754085421562194824e-01 -1.869349479675292969e-01 -5.295745134353637695e-01
3.357000000000000000e+03 3.233806610107421875e+01 2.033760547637939453e+00 1.010884195566177368e-01 -6.362084746360778809e-01 -1.605360209941864014e-01 -4.763862788677215576e-01
3.358000000000000000e+03 9.299785614013671875e+00 -3.348460769653320312e+01 1.538269035518169403e-02 -5.771654658019542694e-03 2.883310662582516670e-03 -1.098400354385375977e-02
3.359000000000000000e+03 7.022393035888671875e+01 -2.226461791992187500e+01 5.587761476635932922e-02 4.868456840515136719e+00 1.477300286293029785e+00 1.128287017345428467e-01
3.360000000000000000e+03 9.449999809265136719e+00 -3.669498825073242188e+01 4.099043831229209900e-02 -2.926038578152656555e-02 3.519015386700630188e-03 3.430749103426933289e-02
3.361000000000000000e+03 6.897107696533203125e+01 -5.446319103240966797e+00 2.014052122831344604e-01 4.805125713348388672e+00 1.501959204673767090e+00 4.197005033493041992e-01
3.362000000000000000e+03 7.414288330078125000e+01 2.742009162902832031e+01 -1.990672230720520020e+00 1.419743061065673828e+01 3.662027359008789062e+00 7.046750783920288086e-01
3.363000000000000000e+03 7.267809295654296875e+01 2.744457626342773438e+01 -1.708705782890319824e+00 1.170047569274902344e+01 2.997530937194824219e+00 3.634140729904174805e+00
3.364000000000000000e+03 7.202349853515625000e+01 2.733435821533203125e+01 -1.158062577247619629e+00 9.199012756347656250e+00 2.412285089492797852e+00 4.206682682037353516e+00
3.365000000000000000e+03 7.271790313720703125e+01 3.632979202270507812e+01 -1.081143975257873535e+00 9.991885185241699219e+00 2.673222541809082031e+00 -1.742700815200805664e+00
3.366000000000000000e+03 6.941755676269531250e+01 2.654780960083007812e+01 -3.400436639785766602e-01 3.169335126876831055e+00 8.487874865531921387e-01 2.667907238006591797e+00
3.367000000000000000e+03 7.121437835693359375e+01 2.763903808593750000e+01 -3.940311074256896973e-01 6.282344341278076172e+00 1.766494035720825195e+00 4.335049152374267578e+00
3.368000000000000000e+03 7.083976745605468750e+01 2.700631713867187500e+01 -5.363308787345886230e-01 5.665316104888916016e+00 1.538695573806762695e+00 3.741412162780761719e+00
3.369000000000000000e+03 6.795374298095703125e+01 2.602397537231445312e+01 -5.033258199691772461e-01 1.894658327102661133e+00 4.173997640609741211e-01 1.804329514503479004e+00
3.370000000000000000e+03 7.161488342285156250e+01 2.521769142150878906e+01 -1.062097668647766113e+00 7.591714859008789062e+00 1.958885192871093750e+00 2.937844038009643555e+00
3.371000000000000000e+03 7.303924560546875000e+01 2.683310508728027344e+01 -1.933804988861083984e+00 1.164878273010253906e+01 2.914493322372436523e+00 2.757889032363891602e+00
3.372000000000000000e+03 7.225692749023437500e+01 2.512234115600585938e+01 -1.328727245330810547e+00 8.615542411804199219e+00 2.186044454574584961e+00 2.641274452209472656e+00
3.373000000000000000e+03 7.173597717285156250e+01 2.716136741638183594e+01 -9.931499958038330078e-01 8.204613685607910156e+00 2.163439035415649414e+00 4.100236415863037109e+00
3.374000000000000000e+03 7.102364349365234375e+01 2.736948966979980469e+01 -4.404542744159698486e-01 5.899399280548095703e+00 1.637683391571044922e+00 4.042857170104980469e+00
3.375000000000000000e+03 5.994581985473632812e+01 2.291470527648925781e+01 -5.711946487426757812e-01 4.154762029647827148e-01 -4.671553894877433777e-02 -4.753475636243820190e-02
3.376000000000000000e+03 6.726381683349609375e+01 2.518577957153320312e+01 -3.962124884128570557e-01 1.883144974708557129e+00 4.460797607898712158e-01 1.569493055343627930e+00
3.377000000000000000e+03 6.946103668212890625e+01 2.449396896362304688e+01 -3.442938625812530518e-01 4.228469848632812500e+00 1.165252804756164551e+00 2.481626033782958984e+00
3.378000000000000000e+03 3.157232856750488281e+01 2.705661964416503906e+01 -2.810401618480682373e-01 -6.249766424298286438e-02 -1.030613481998443604e-01 -3.243236839771270752e-01
3.379000000000000000e+03 4.600423812866210938e+01 2.429984664916992188e+01 -8.615327477455139160e-01 6.677375733852386475e-02 -2.384276986122131348e-01 -6.520217657089233398e-01
3.380000000000000000e+03 2.917282295227050781e+01 2.554331779479980469e+01 -1.769929677248001099e-01 -1.438115984201431274e-01 -9.624136984348297119e-02 -3.163821697235107422e-01
3.381000000000000000e+03 3.609865188598632812e+01 2.491489028930664062e+01 -4.354877471923828125e-01 -2.981170080602169037e-02 -1.395898312330245972e-01 -5.142012238502502441e-01
3.382000000000000000e+03 3.842940902709960938e+01 2.551583290100097656e+01 -5.700962543487548828e-01 1.865919679403305054e-02 -1.654311269521713257e-01 -5.258268117904663086e-01
3.383000000000000000e+03 5.428972244262695312e+01 2.425500106811523438e+01 -1.136056423187255859e+00 8.120375871658325195e-02 -3.164557814598083496e-01 -5.297824740409851074e-01
3.384000000000000000e+03 3.420504760742187500e+01 2.681329345703125000e+01 -3.908067345619201660e-01 -2.614400722086429596e-02 -1.250852197408676147e-01 -3.864768147468566895e-01
3.385000000000000000e+03 3.551471328735351562e+01 2.533868408203125000e+01 -4.251062870025634766e-01 -3.011243417859077454e-02 -1.365656107664108276e-01 -4.835655689239501953e-01
3.386000000000000000e+03 5.847922897338867188e+01 2.299990081787109375e+01 -6.960900425910949707e-01 2.838981151580810547e-01 -1.236575767397880554e-01 -2.294482737779617310e-01
3.387000000000000000e+03 4.139081573486328125e+01 2.378939056396484375e+01 -6.080628037452697754e-01 3.084976226091384888e-02 -1.731639057397842407e-01 -6.466827988624572754e-01
3.388000000000000000e+03 3.359967422485351562e+01 2.690522575378417969e+01 -3.659413456916809082e-01 -3.198857232928276062e-02 -1.193789690732955933e-01 -3.684599697589874268e-01
3.389000000000000000e+03 3.453145217895507812e+01 2.608131217956542969e+01 -3.969240188598632812e-01 -3.370346128940582275e-02 -1.291882395744323730e-01 -4.316245615482330322e-01
3.390000000000000000e+03 3.498556900024414062e+01 2.573648834228515625e+01 -4.112471044063568115e-01 -3.175003081560134888e-02 -1.328991353511810303e-01 -4.553572237491607666e-01
3.391000000000000000e+03 4.434787368774414062e+01 2.390732192993164062e+01 -7.431100606918334961e-01 5.755442008376121521e-02 -2.056666910648345947e-01 -6.634096503257751465e-01
3.392000000000000000e+03 4.773009872436523438e+01 2.471326065063476562e+01 -1.002163052558898926e+00 6.751822680234909058e-02 -2.803934216499328613e-01 -6.291556954383850098e-01
3.393000000000000000e+03 4.809943389892578125e+01 2.294112205505371094e+01 -7.561603784561157227e-01 8.047657459974288940e-02 -2.027051448822021484e-01 -6.909998655319213867e-01
3.394000000000000000e+03 6.560428619384765625e+01 2.381765174865722656e+01 -2.508065104484558105e-01 1.496473312377929688e+00 3.737000524997711182e-01 1.073629975318908691e+00
3.395000000000000000e+03 6.584761810302734375e+01 2.444475364685058594e+01 -4.040657877922058105e-01 1.356451511383056641e+00 2.857157289981842041e-01 1.086323976516723633e+00
3.396000000000000000e+03 6.431999969482421875e+01 2.313830566406250000e+01 -2.210906594991683960e-01 1.195402741432189941e+00 2.922936081886291504e-01 7.906732559204101562e-01
3.397000000000000000e+03 4.046456527709960938e+01 2.441223716735839844e+01 -6.157081127166748047e-01 2.937406674027442932e-02 -1.759002059698104858e-01 -6.078580617904663086e-01
3.398000000000000000e+03 4.221099853515625000e+01 2.429795265197753906e+01 -6.828031539916992188e-01 4.295695945620536804e-02 -1.919538527727127075e-01 -6.315237283706665039e-01
3.399000000000000000e+03 4.524585723876953125e+01 2.447482872009277344e+01 -8.457908630371093750e-01 6.453653424978256226e-02 -2.343762964010238647e-01 -6.422216892242431641e-01
3.400000000000000000e+03 5.687906265258789062e+01 2.241398811340332031e+01 -6.168344616889953613e-01 2.569409012794494629e-01 -1.079680770635604858e-01 -3.465054035186767578e-01
3.401000000000000000e+03 4.754009628295898438e+01 2.393744850158691406e+01 -8.809742927551269531e-01 6.993133574724197388e-02 -2.433128803968429565e-01 -6.644651889801025391e-01
3.402000000000000000e+03 6.207588577270507812e+01 2.260138511657714844e+01 -3.051224946975708008e-01 7.631930708885192871e-01 1.374211609363555908e-01 3.273276090621948242e-01
3.403000000000000000e+03 5.118543243408203125e+01 2.479396820068359375e+01 -1.174938559532165527e+00 5.961148813366889954e-02 -3.345981240272521973e-01 -5.912038683891296387e-01
3.404000000000000000e+03 5.032149505615234375e+01 2.498157310485839844e+01 -1.174070715904235840e+00 6.108286976814270020e-02 -3.338963687419891357e-01 -5.941789746284484863e-01
3.405000000000000000e+03 3.909463500976562500e+01 2.608648490905761719e+01 -6.300003528594970703e-01 3.387559577822685242e-02 -1.788374334573745728e-01 -5.054556131362915039e-01
3.406000000000000000e+03 6.066460800170898438e+01 2.284104156494140625e+01 -4.954546689987182617e-01 5.063138604164123535e-01 3.257765434682369232e-03 5.956626683473587036e-02
3.407000000000000000e+03 6.137404632568359375e+01 2.273164749145507812e+01 -4.034738838672637939e-01 6.216412186622619629e-01 6.545021384954452515e-02 1.894859522581100464e-01
3.408000000000000000e+03 6.688889312744140625e+01 2.472697067260742188e+01 -3.302880227565765381e-01 1.827588319778442383e+00 4.491901099681854248e-01 1.455865025520324707e+00
3.409000000000000000e+03 7.236692810058593750e+01 2.704091644287109375e+01 -1.526385664939880371e+00 1.017411136627197266e+01 2.594317436218261719e+00 3.646716594696044922e+00
3.410000000000000000e+03 4.676758193969726562e+01 2.411545181274414062e+01 -8.747792243957519531e-01 6.681863218545913696e-02 -2.423881739377975464e-01 -6.591272950172424316e-01
3.411000000000000000e+03 5.494885635375976562e+01 2.416728973388671875e+01 -1.119235277175903320e+00 8.516331762075424194e-02 -3.102215826511383057e-01 -5.063450336456298828e-01
3.412000000000000000e+03 5.921769332885742188e+01 2.296065711975097656e+01 -6.406244635581970215e-01 3.439521193504333496e-01 -8.900170028209686279e-02 -1.454937458038330078e-01
3.413000000000000000e+03 5.625016784667968750e+01 2.324610519409179688e+01 -8.549647927284240723e-01 1.677800118923187256e-01 -2.061554193496704102e-01 -4.245276451110839844e-01
3.414000000000000000e+03 7.223296356201171875e+01 2.432323646545410156e+01 -1.165539264678955078e+00 8.129407882690429688e+00 2.089160442352294922e+00 2.365866899490356445e+00
3.415000000000000000e+03 7.283541107177734375e+01 2.507209205627441406e+01 -1.504856228828430176e+00 9.428861618041992188e+00 2.377201795578002930e+00 2.231090545654296875e+00
3.416000000000000000e+03 7.063540649414062500e+01 2.659832763671875000e+01 -5.042282938957214355e-01 5.417250633239746094e+00 1.473906636238098145e+00 3.454156637191772461e+00
3.417000000000000000e+03 3.264032745361328125e+01 2.140836334228515625e+01 -2.125213742256164551e-01 -1.931734681129455566e-01 -1.217084527015686035e-01 -5.537832379341125488e-01
3.418000000000000000e+03 4.155553817749023438e+01 2.442821121215820312e+01 -6.645783782005310059e-01 3.966047987341880798e-02 -1.874753683805465698e-01 -6.191775798797607422e-01
3.419000000000000000e+03 6.942240905761718750e+01 4.586597442626953125e+00 3.356805145740509033e-01 4.990342617034912109e+00 1.597806930541992188e+00 7.832176685333251953e-01
3.420000000000000000e+03 6.765821075439453125e+01 4.271142959594726562e+00 4.080770611763000488e-01 4.469704627990722656e+00 1.463334441184997559e+00 7.549453377723693848e-01
3.421000000000000000e+03 7.005348968505859375e+01 1.777807044982910156e+01 1.291828006505966187e-01 5.303550720214843750e+00 1.629820108413696289e+00 1.538410425186157227e+00
3.422000000000000000e+03 2.955030822753906250e+01 2.441916847229003906e+01 -1.785046905279159546e-01 -1.709703803062438965e-01 -1.048425212502479553e-01 -3.657859563827514648e-01
3.423000000000000000e+03 3.194047927856445312e+01 2.418141555786132812e+01 -2.572775185108184814e-01 -1.268584579229354858e-01 -1.152407899498939514e-01 -4.434422254562377930e-01
3.424000000000000000e+03 3.040526199340820312e+01 2.480768966674804688e+01 -2.103416025638580322e-01 -1.446115672588348389e-01 -1.064859554171562195e-01 -3.784373104572296143e-01
3.425000000000000000e+03 7.094668579101562500e+01 1.652031898498535156e+01 1.406617611646652222e-01 5.738939762115478516e+00 1.763880491256713867e+00 1.417355775833129883e+00
3.426000000000000000e+03 5.204906082153320312e+01 2.475743293762207031e+01 -1.201015830039978027e+00 5.847936868667602539e-02 -3.427609205245971680e-01 -5.800704956054687500e-01
3.427000000000000000e+03 3.395334243774414062e+01 1.609707641601562500e+01 -8.382827788591384888e-02 -2.932460010051727295e-01 -1.131222844123840332e-01 -6.663774847984313965e-01
3.428000000000000000e+03 3.268079757690429688e+01 1.868295097351074219e+01 -1.388451308012008667e-01 -2.728798389434814453e-01 -1.235174909234046936e-01 -6.080677509307861328e-01
3.429000000000000000e+03 6.856031036376953125e+01 9.513195991516113281e+00 4.342434704303741455e-01 4.689359188079833984e+00 1.537080764770507812e+00 1.000293016433715820e+00
3.430000000000000000e+03 7.090841674804687500e+01 1.998928260803222656e+01 -1.930463463068008423e-01 5.980306625366210938e+00 1.736178159713745117e+00 1.727954149246215820e+00
3.431000000000000000e+03 3.258382415771484375e+01 2.790526199340820312e+01 -3.251887261867523193e-01 -3.031484410166740417e-02 -1.066510677337646484e-01 -3.037631809711456299e-01
3.432000000000000000e+03 3.983279800415039062e+01 2.639152717590332031e+01 -6.942052245140075684e-01 4.644074290990829468e-02 -1.943293511867523193e-01 -4.940527975559234619e-01
3.433000000000000000e+03 3.147999763488769531e+01 2.157085418701171875e+01 -1.862834692001342773e-01 -2.188886255025863647e-01 -1.215516254305839539e-01 -5.102155208587646484e-01
3.434000000000000000e+03 7.002397918701171875e+01 1.870510864257812500e+01 6.046985462307929993e-02 5.291605949401855469e+00 1.605622768402099609e+00 1.642534494400024414e+00
3.435000000000000000e+03 7.151037597656250000e+01 2.005897521972656250e+01 -2.641013860702514648e-01 6.368576526641845703e+00 1.831342458724975586e+00 1.670513033866882324e+00
3.436000000000000000e+03 3.670730590820312500e+01 2.444022178649902344e+01 -4.442712962627410889e-01 -2.877711877226829529e-02 -1.419145315885543823e-01 -5.457570552825927734e-01
3.437000000000000000e+03 3.350732803344726562e+01 9.086046218872070312e+00 6.017630919814109802e-02 -4.508554339408874512e-01 -1.172037348151206970e-01 -6.196517944335937500e-01
3.438000000000000000e+03 3.320730972290039062e+01 1.330457210540771484e+01 -1.378734409809112549e-02 -3.887951672077178955e-01 -1.207747459411621094e-01 -6.517167687416076660e-01
3.439000000000000000e+03 6.929797363281250000e+01 7.153789997100830078e+00 3.866969347000122070e-01 4.934493541717529297e+00 1.596357107162475586e+00 8.859882354736328125e-01
3.440000000000000000e+03 6.852598571777343750e+01 1.708504259586334229e-01 3.063576221466064453e-01 4.735863208770751953e+00 1.512666225433349609e+00 5.979443192481994629e-01
3.441000000000000000e+03 3.344793701171875000e+01 1.048789978027343750e+01 3.930266574025154114e-02 -4.319378137588500977e-01 -1.177905425429344177e-01 -6.359263062477111816e-01
3.442000000000000000e+03 6.885018157958984375e+01 -8.028047561645507812e+00 1.793256998062133789e-01 4.765590190887451172e+00 1.483474850654602051e+00 3.534522354602813721e-01
3.443000000000000000e+03 6.916651916503906250e+01 -1.069472789764404297e+01 1.374451369047164917e-01 4.807057857513427734e+00 1.483350872993469238e+00 2.886694073677062988e-01
3.444000000000000000e+03 3.178828430175781250e+01 -5.221155166625976562e+00 9.080091863870620728e-02 -7.770913243293762207e-01 -2.058871239423751831e-01 -3.430059552192687988e-01
3.445000000000000000e+03 3.256287384033203125e+01 -3.625197172164916992e+00 1.255672127008438110e-01 -6.562717556953430176e-01 -1.592113673686981201e-01 -3.739268481731414795e-01
3.446000000000000000e+03 3.058268737792968750e+01 -7.749573230743408203e+00 9.378115832805633545e-02 -9.090968966484069824e-01 -2.445947229862213135e-01 -2.959434688091278076e-01
3.447000000000000000e+03 3.071973800659179688e+01 -6.578939914703369141e+00 8.211594074964523315e-02 -8.941630125045776367e-01 -2.436141222715377808e-01 -3.177348375320434570e-01
3.448000000000000000e+03 2.840029335021972656e+01 4.254074990749359131e-01 3.898474574089050293e-02 -1.046002864837646484e+00 -3.021054267883300781e-01 -3.754902184009552002e-01
3.449000000000000000e+03 3.098432350158691406e+01 6.014620065689086914e-01 8.230669796466827393e-02 -7.852548956871032715e-01 -2.108844667673110962e-01 -4.301840662956237793e-01
3.450000000000000000e+03 3.088184356689453125e+01 -6.919673681259155273e-01 8.280350267887115479e-02 -8.150058388710021973e-01 -2.196607142686843872e-01 -4.038706123828887939e-01
3.451000000000000000e+03 3.049138069152832031e+01 -3.048033952713012695e+00 8.666384220123291016e-02 -8.741254210472106934e-01 -2.362384796142578125e-01 -3.657020330429077148e-01
3.452000000000000000e+03 3.046248245239257812e+01 -1.182645416259765625e+01 7.525598257780075073e-02 -9.442651867866516113e-01 -2.607027590274810791e-01 -2.295414954423904419e-01
3.453000000000000000e+03 6.740301513671875000e+01 -8.086985588073730469e+00 2.139000594615936279e-01 4.471597671508789062e+00 1.405649304389953613e+00 3.580943346023559570e-01
3.454000000000000000e+03 6.886450958251953125e+01 -6.685995578765869141e+00 1.972466558218002319e-01 4.784200191497802734e+00 1.494434118270874023e+00 3.866848349571228027e-01
3.455000000000000000e+03 3.303527069091796875e+01 1.467763519287109375e+01 -4.388283565640449524e-02 -3.655141592025756836e-01 -1.228191033005714417e-01 -6.493208408355712891e-01
3.456000000000000000e+03 6.773230743408203125e+01 -5.260829448699951172e+00 2.415068298578262329e-01 4.528016090393066406e+00 1.430856823921203613e+00 4.324105083942413330e-01
3.457000000000000000e+03 6.992087554931640625e+01 1.413285350799560547e+01 3.148247003555297852e-01 5.178302288055419922e+00 1.647938132286071777e+00 1.274764060974121094e+00
3.458000000000000000e+03 6.808603668212890625e+01 1.076553726196289062e+01 4.617002308368682861e-01 4.502502441406250000e+00 1.489260792732238770e+00 1.052269935607910156e+00
3.459000000000000000e+03 3.219387817382812500e+01 -1.295999431610107422e+01 9.291962534189224243e-02 -7.438590526580810547e-01 -1.952818185091018677e-01 -2.199720740318298340e-01
3.460000000000000000e+03 6.796170806884765625e+01 -4.252003669738769531e+00 2.569134533405303955e-01 4.601366519927978516e+00 1.457484006881713867e+00 4.725140631198883057e-01
3.461000000000000000e+03 6.902337646484375000e+01 -4.294255733489990234e+00 2.223017513751983643e-01 4.825101375579833984e+00 1.514220952987670898e+00 4.545466303825378418e-01
3.462000000000000000e+03 3.259092712402343750e+01 -1.644235801696777344e+01 9.621582180261611938e-02 -6.944096088409423828e-01 -1.794581264257431030e-01 -1.683387160301208496e-01
3.463000000000000000e+03 6.793728637695312500e+01 -1.799183464050292969e+01 1.020934507250785828e-01 4.551416397094726562e+00 1.396052956581115723e+00 1.683937460184097290e-01
3.464000000000000000e+03 6.824842071533203125e+01 5.193128108978271484e+00 4.021379649639129639e-01 4.612389564514160156e+00 1.504358172416687012e+00 7.999148964881896973e-01
3.465000000000000000e+03 6.686754608154296875e+01 3.455486774444580078e+00 4.280655980110168457e-01 4.289822101593017578e+00 1.415366291999816895e+00 7.055976390838623047e-01
3.466000000000000000e+03 3.482260513305664062e+01 6.450873851776123047e+00 1.176435276865959167e-01 -3.930777013301849365e-01 -8.263025432825088501e-02 -5.903559923171997070e-01
3.467000000000000000e+03 6.855326843261718750e+01 -2.344883441925048828e+00 2.611473500728607178e-01 4.728624820709228516e+00 1.496931672096252441e+00 5.124882459640502930e-01
3.468000000000000000e+03 6.867228698730468750e+01 6.260049819946289062e+00 4.009068310260772705e-01 4.755797386169433594e+00 1.547011375427246094e+00 8.511715531349182129e-01
3.469000000000000000e+03 6.648126220703125000e+01 -2.133218574523925781e+01 1.009342074394226074e-01 4.304423332214355469e+00 1.321607232093811035e+00 1.458218991756439209e-01
3.470000000000000000e+03 6.738942718505859375e+01 -2.254531669616699219e+01 8.741485327482223511e-02 4.428350448608398438e+00 1.354729533195495605e+00 1.237232387065887451e-01
3.471000000000000000e+03 3.179893302917480469e+01 -2.187944221496582031e+01 5.633732303977012634e-02 -7.804952859878540039e-01 -2.172473967075347900e-01 -1.090158298611640930e-01
3.472000000000000000e+03 6.763028717041015625e+01 2.494585418701171875e+01 -2.888929545879364014e-01 2.186129331588745117e+00 5.691708922386169434e-01 1.782130956649780273e+00
3.473000000000000000e+03 5.979776382446289062e+01 2.223012733459472656e+01 -4.042997956275939941e-01 4.878767132759094238e-01 2.507307380437850952e-02 -2.178395725786685944e-02
3.474000000000000000e+03 4.506774902343750000e+01 2.376327323913574219e+01 -7.561714649200439453e-01 6.168657168745994568e-02 -2.083454728126525879e-01 -6.741852760314941406e-01
3.475000000000000000e+03 5.773841476440429688e+01 2.305138587951660156e+01 -7.472703456878662109e-01 2.371920496225357056e-01 -1.530234813690185547e-01 -3.033378422260284424e-01
3.476000000000000000e+03 5.909961318969726562e+01 2.225760841369628906e+01 -4.544774591922760010e-01 4.217143058776855469e-01 -9.828941896557807922e-03 -1.065036207437515259e-01
3.477000000000000000e+03 3.444686508178710938e+01 2.519703102111816406e+01 -3.753056824207305908e-01 -5.211642384529113770e-02 -1.282266378402709961e-01 -4.678058922290802002e-01
3.478000000000000000e+03 3.108345413208007812e+01 2.621143531799316406e+01 -2.557905912399291992e-01 -9.078402072191238403e-02 -1.039723828434944153e-01 -3.500258326530456543e-01
3.479000000000000000e+03 3.554275131225585938e+01 2.421309089660644531e+01 -3.885907828807830811e-01 -5.541558191180229187e-02 -1.332019120454788208e-01 -5.313944220542907715e-01
3.480000000000000000e+03 3.901906585693359375e+01 2.489237976074218750e+01 -5.721911191940307617e-01 1.767485775053501129e-02 -1.663548648357391357e-01 -5.682876706123352051e-01
3.481000000000000000e+03 6.606761932373046875e+01 2.348627662658691406e+01 -1.389271616935729980e-01 1.875453591346740723e+00 5.209578871726989746e-01 1.279825448989868164e+00
3.482000000000000000e+03 6.649919128417968750e+01 2.405951881408691406e+01 -2.293839603662490845e-01 1.850525617599487305e+00 4.863424897193908691e-01 1.379848241806030273e+00
3.483000000000000000e+03 3.495359802246093750e+01 2.468871688842773438e+01 -3.805225789546966553e-01 -5.533178523182868958e-02 -1.307563036680221558e-01 -4.986478984355926514e-01
3.484000000000000000e+03 3.303393173217773438e+01 2.669563674926757812e+01 -3.378720283508300781e-01 -4.755260795354843140e-02 -1.156273931264877319e-01 -3.713541626930236816e-01
3.485000000000000000e+03 7.209509277343750000e+01 2.613600158691406250e+01 -1.353744268417358398e+00 8.863007545471191406e+00 2.252779006958007812e+00 3.239224195480346680e+00
3.486000000000000000e+03 4.276406860351562500e+01 2.343288230895996094e+01 -6.334717273712158203e-01 4.010889306664466858e-02 -1.780088543891906738e-01 -6.717530488967895508e-01
3.487000000000000000e+03 4.291286468505859375e+01 2.415952110290527344e+01 -7.042078375816345215e-01 4.937441647052764893e-02 -1.964500248432159424e-01 -6.456829309463500977e-01
3.488000000000000000e+03 6.969783782958984375e+01 2.509625816345214844e+01 -3.903733491897583008e-01 4.394600868225097656e+00 1.201268315315246582e+00 2.663889646530151367e+00
3.489000000000000000e+03 4.097420501708984375e+01 2.452070808410644531e+01 -6.451277136802673340e-01 3.642627969384193420e-02 -1.826104372739791870e-01 -6.107657551765441895e-01
3.490000000000000000e+03 4.486269760131835938e+01 2.307584762573242188e+01 -6.807742118835449219e-01 5.876733735203742981e-02 -1.866020709276199341e-01 -6.993176937103271484e-01
3.491000000000000000e+03 4.363143920898437500e+01 2.402297401428222656e+01 -7.272239327430725098e-01 5.363100767135620117e-02 -2.020778656005859375e-01 -6.552796363830566406e-01
3.492000000000000000e+03 4.786650848388671875e+01 2.204062271118164062e+01 -6.230415105819702148e-01 8.596853166818618774e-02 -1.611219048500061035e-01 -7.104417085647583008e-01
3.493000000000000000e+03 4.833057785034179688e+01 2.377049255371093750e+01 -8.866988420486450195e-01 7.407830655574798584e-02 -2.437861561775207520e-01 -6.657439470291137695e-01
3.494000000000000000e+03 5.299182891845703125e+01 2.412902450561523438e+01 -1.092516422271728516e+00 7.820205390453338623e-02 -3.042943179607391357e-01 -5.723317861557006836e-01
3.495000000000000000e+03 5.428108978271484375e+01 2.369741630554199219e+01 -9.967579245567321777e-01 9.739266335964202881e-02 -2.698095738887786865e-01 -5.319129228591918945e-01
3.496000000000000000e+03 5.284020614624023438e+01 2.485299491882324219e+01 -1.253579258918762207e+00 5.967904254794120789e-02 -3.581700623035430908e-01 -5.613833069801330566e-01
3.497000000000000000e+03 5.014999389648437500e+01 2.418192481994628906e+01 -1.024631857872009277e+00 7.135796546936035156e-02 -2.859821617603302002e-01 -6.309080123901367188e-01
3.498000000000000000e+03 5.098513793945312500e+01 2.393621253967285156e+01 -1.004314184188842773e+00 7.520901411771774292e-02 -2.787315547466278076e-01 -6.240089535713195801e-01
3.499000000000000000e+03 6.181238555908203125e+01 2.184375762939453125e+01 -1.605595797300338745e-01 8.557258248329162598e-01 2.085498720407485962e-01 3.411395847797393799e-01
3.500000000000000000e+03 6.249542236328125000e+01 2.165605354309082031e+01 -6.775682419538497925e-02 1.041734457015991211e+00 2.921932935714721680e-01 4.910757839679718018e-01
3.501000000000000000e+03 6.114445495605468750e+01 2.201623916625976562e+01 -2.438234388828277588e-01 7.070486545562744141e-01 1.389675587415695190e-01 2.078008055686950684e-01
3.502000000000000000e+03 5.728136062622070312e+01 2.066487884521484375e+01 -2.182804495096206665e-01 4.409432113170623779e-01 6.679882854223251343e-02 -2.198743969202041626e-01
3.503000000000000000e+03 4.579661178588867188e+01 2.355182266235351562e+01 -7.644161581993103027e-01 6.483867764472961426e-02 -2.098732590675354004e-01 -6.842849254608154297e-01
3.504000000000000000e+03 4.654268264770507812e+01 2.331861686706542969e+01 -7.636868357658386230e-01 7.030946016311645508e-02 -2.080132216215133667e-01 -6.901713013648986816e-01
3.505000000000000000e+03 6.047800445556640625e+01 2.215851593017578125e+01 -3.303111195564270020e-01 5.915888547897338867e-01 7.838331162929534912e-02 9.079896658658981323e-02
3.506000000000000000e+03 4.731002807617187500e+01 2.310757637023925781e+01 -7.621695399284362793e-01 7.164930552244186401e-02 -2.071560770273208618e-01 -6.925670504570007324e-01
3.507000000000000000e+03 4.094933319091796875e+01 2.514052391052246094e+01 -6.789644360542297363e-01 4.089492559432983398e-02 -1.914208680391311646e-01 -5.796033143997192383e-01
3.508000000000000000e+03 7.135933685302734375e+01 2.356710815429687500e+01 -7.869701385498046875e-01 6.791400432586669922e+00 1.801329135894775391e+00 2.408295631408691406e+00
3.509000000000000000e+03 6.763737487792968750e+01 2.540841484069824219e+01 -3.745420277118682861e-01 1.963174343109130859e+00 4.765896797180175781e-01 1.702927470207214355e+00
3.510000000000000000e+03 7.049775695800781250e+01 2.609839057922363281e+01 -5.290857553482055664e-01 5.329292774200439453e+00 1.440062165260314941e+00 3.249332666397094727e+00
3.511000000000000000e+03 7.116647338867187500e+01 2.260187530517578125e+01 -5.697713494300842285e-01 6.402640342712402344e+00 1.749860763549804688e+00 2.154492378234863281e+00
3.512000000000000000e+03 5.486523818969726562e+01 2.355201339721679688e+01 -9.596024155616760254e-01 1.117328256368637085e-01 -2.543608844280242920e-01 -5.073034763336181641e-01
3.513000000000000000e+03 5.538768768310546875e+01 2.275581169128417969e+01 -7.496001720428466797e-01 1.685088723897933960e-01 -1.743274033069610596e-01 -4.648593962192535400e-01
3.514000000000000000e+03 7.039005279541015625e+01 2.549910545349121094e+01 -5.503435134887695312e-01 5.299477100372314453e+00 1.424740076065063477e+00 3.025343656539916992e+00
3.515000000000000000e+03 6.926442718505859375e+01 1.886022377014160156e+01 1.309232711791992188e-01 4.771734237670898438e+00 1.470797181129455566e+00 1.632352828979492188e+00
3.516000000000000000e+03 6.998826599121093750e+01 1.669259643554687500e+01 1.954818218946456909e-01 5.237577438354492188e+00 1.629917740821838379e+00 1.445155858993530273e+00
3.517000000000000000e+03 4.029949569702148438e+01 2.501657676696777344e+01 -6.388807892799377441e-01 3.375595062971115112e-02 -1.815374493598937988e-01 -5.814802646636962891e-01
3.518000000000000000e+03 3.990264129638671875e+01 2.406542396545410156e+01 -5.670672655105590820e-01 1.663771271705627441e-02 -1.651288568973541260e-01 -6.162717938423156738e-01
3.519000000000000000e+03 6.799002075195312500e+01 -1.417141795158386230e+00 2.989099323749542236e-01 4.610358238220214844e+00 1.472780466079711914e+00 5.482363104820251465e-01
3.520000000000000000e+03 7.120600128173828125e+01 2.163456153869628906e+01 -4.566730260848999023e-01 6.286504268646240234e+00 1.748949408531188965e+00 1.978617787361145020e+00
3.521000000000000000e+03 7.034880065917968750e+01 2.017656898498535156e+01 -1.434042304754257202e-01 5.544997692108154297e+00 1.620478034019470215e+00 1.822193980216979980e+00
3.522000000000000000e+03 3.788771057128906250e+01 2.469286727905273438e+01 -5.047576427459716797e-01 -4.531110636889934540e-03 -1.527866274118423462e-01 -5.556760430335998535e-01
3.523000000000000000e+03 3.509539031982421875e+01 2.246175575256347656e+01 -3.177945911884307861e-01 -1.012452021241188049e-01 -1.257119327783584595e-01 -5.880522727966308594e-01
3.524000000000000000e+03 3.098070526123046875e+01 2.544303512573242188e+01 -2.377619594335556030e-01 -1.181264892220497131e-01 -1.067665368318557739e-01 -3.760131597518920898e-01
3.525000000000000000e+03 3.100454902648925781e+01 2.365414047241210938e+01 -2.130823135375976562e-01 -1.665226668119430542e-01 -1.138814911246299744e-01 -4.366149902343750000e-01
3.526000000000000000e+03 6.676529693603515625e+01 1.021431541442871094e+01 5.226798057556152344e-01 4.022898674011230469e+00 1.363673567771911621e+00 9.730655550956726074e-01
3.527000000000000000e+03 6.963976287841796875e+01 1.561909389495849609e+01 2.728994488716125488e-01 5.061249256134033203e+00 1.600244641304016113e+00 1.363019108772277832e+00
3.528000000000000000e+03 6.944697570800781250e+01 1.974870300292968750e+01 2.809696644544601440e-02 4.848291873931884766e+00 1.462916612625122070e+00 1.747886776924133301e+00
3.529000000000000000e+03 3.072594261169433594e+01 -1.911420822143554688e+00 8.319139480590820312e-02 -8.383086919784545898e-01 -2.265351861715316772e-01 -3.845314979553222656e-01
3.530000000000000000e+03 3.615050125122070312e+01 2.371030616760253906e+01 -3.958869278430938721e-01 -5.356627702713012695e-02 -1.348359584808349609e-01 -5.653253793716430664e-01
3.531000000000000000e+03 3.176972007751464844e+01 2.524456405639648438e+01 -2.631695568561553955e-01 -1.075570210814476013e-01 -1.112179756164550781e-01 -4.020753502845764160e-01
3.532000000000000000e+03 3.331097793579101562e+01 2.267801284790039062e+01 -2.613678574562072754e-01 -1.452990323305130005e-01 -1.220000684261322021e-01 -5.341075658798217773e-01
3.533000000000000000e+03 3.373368072509765625e+01 1.857878684997558594e+01 -1.534819006919860840e-01 -2.410089224576950073e-01 -1.183472499251365662e-01 -6.352707147598266602e-01
3.534000000000000000e+03 3.405950164794921875e+01 2.624070549011230469e+01 -3.730567693710327148e-01 -4.210289940237998962e-02 -1.245479062199592590e-01 -4.130994677543640137e-01
3.535000000000000000e+03 3.376205825805664062e+01 2.473586463928222656e+01 -3.316662907600402832e-01 -7.992872595787048340e-02 -1.234785020351409912e-01 -4.722231924533843994e-01
3.536000000000000000e+03 6.741956329345703125e+01 6.641476631164550781e+00 4.571024775505065918e-01 4.385878086090087891e+00 1.452894210815429688e+00 8.501690030097961426e-01
3.537000000000000000e+03 6.996720123291015625e+01 2.410030364990234375e+01 -4.251686930656433105e-01 4.995150089263916016e+00 1.370994448661804199e+00 2.537646055221557617e+00
3.538000000000000000e+03 3.500806427001953125e+01 1.623019409179687500e+01 -8.888281881809234619e-02 -2.502492368221282959e-01 -1.017396152019500732e-01 -6.901917457580566406e-01
3.539000000000000000e+03 6.520807647705078125e+01 1.849413752555847168e+00 4.530060589313507080e-01 3.932833194732666016e+00 1.315751791000366211e+00 6.187881827354431152e-01
3.540000000000000000e+03 6.776221466064453125e+01 1.079308986663818359e+00 3.516107499599456787e-01 4.533816337585449219e+00 1.465628027915954590e+00 6.257635951042175293e-01
3.541000000000000000e+03 6.676626586914062500e+01 -1.791702747344970703e+00 3.305647969245910645e-01 4.325496673583984375e+00 1.396818399429321289e+00 5.249037742614746094e-01
3.542000000000000000e+03 3.459543991088867188e+01 1.202196121215820312e+01 2.119170874357223511e-02 -3.430174589157104492e-01 -9.654773026704788208e-02 -6.705314517021179199e-01
3.543000000000000000e+03 6.755240631103515625e+01 -4.015086591243743896e-01 3.286328315734863281e-01 4.513011455535888672e+00 1.452493190765380859e+00 5.762830376625061035e-01
3.544000000000000000e+03 7.016435241699218750e+01 6.624546527862548828e+00 3.363747000694274902e-01 5.219350814819335938e+00 1.666717648506164551e+00 8.561777472496032715e-01
3.545000000000000000e+03 3.354865264892578125e+01 7.701236248016357422e+00 7.960622757673263550e-02 -4.686973690986633301e-01 -1.167273446917533875e-01 -5.988899469375610352e-01
3.546000000000000000e+03 3.477588272094726562e+01 9.184895515441894531e+00 7.831226289272308350e-02 -3.705617487430572510e-01 -8.767484128475189209e-02 -6.370201706886291504e-01
3.547000000000000000e+03 6.837226104736328125e+01 1.256232166290283203e+01 4.393174052238464355e-01 4.528624534606933594e+00 1.490382552146911621e+00 1.147416830062866211e+00
3.548000000000000000e+03 6.922547149658203125e+01 1.332201385498046875e+01 3.792786002159118652e-01 4.865567207336425781e+00 1.573453664779663086e+00 1.207275629043579102e+00
3.549000000000000000e+03 3.417036056518554688e+01 1.480506134033203125e+01 -4.710610210895538330e-02 -3.115904331207275391e-01 -1.076089590787887573e-01 -6.754834651947021484e-01
3.550000000000000000e+03 3.050032424926757812e+01 -9.069689750671386719e+00 7.278052717447280884e-02 -9.299320578575134277e-01 -2.571454644203186035e-01 -2.734041512012481689e-01
3.551000000000000000e+03 6.741064453125000000e+01 -6.529446125030517578e+00 2.404563128948211670e-01 4.475743770599365234e+00 1.414860010147094727e+00 3.966689705848693848e-01
3.552000000000000000e+03 6.373049163818359375e+01 -7.182651042938232422e+00 3.148822188377380371e-01 3.777593612670898438e+00 1.227742671966552734e+00 3.661918044090270996e-01
3.553000000000000000e+03 6.616345977783203125e+01 -9.911500930786132812e+00 2.133457660675048828e-01 4.231647014617919922e+00 1.333497762680053711e+00 3.146281242370605469e-01
3.554000000000000000e+03 7.030047607421875000e+01 -9.261667251586914062e+00 1.290196776390075684e-01 5.040060043334960938e+00 1.550724029541015625e+00 3.076960146427154541e-01
3.555000000000000000e+03 3.514720916748046875e+01 -1.854675865173339844e+01 1.184103712439537048e-01 -3.590354025363922119e-01 -7.218750566244125366e-02 -1.475785672664642334e-01
3.556000000000000000e+03 3.229262542724609375e+01 6.467379331588745117e-01 1.080640107393264771e-01 -6.562384366989135742e-01 -1.644523143768310547e-01 -4.498973190784454346e-01
3.557000000000000000e+03 3.234227752685546875e+01 4.814854621887207031e+00 8.358450233936309814e-02 -5.975870490074157715e-01 -1.542007625102996826e-01 -5.304979085922241211e-01
3.558000000000000000e+03 3.359127807617187500e+01 6.843366026878356934e-01 1.316639631986618042e-01 -5.336978435516357422e-01 -1.206101626157760620e-01 -4.612812697887420654e-01
3.559000000000000000e+03 3.314277648925781250e+01 -4.730589866638183594e+00 1.238118708133697510e-01 -6.107906699180603027e-01 -1.460936516523361206e-01 -3.547368943691253662e-01
3.560000000000000000e+03 3.311815261840820312e+01 -6.097753047943115234e+00 1.280793547630310059e-01 -6.112133860588073730e-01 -1.449401974678039551e-01 -3.295605480670928955e-01
3.561000000000000000e+03 3.323521041870117188e+01 -2.355986595153808594e+00 1.281566917896270752e-01 -5.886849164962768555e-01 -1.381584703922271729e-01 -3.973020911216735840e-01
3.562000000000000000e+03 7.002671813964843750e+01 -1.792179489135742188e+01 7.760967314243316650e-02 4.869550704956054688e+00 1.484148144721984863e+00 1.696034222841262817e-01
3.563000000000000000e+03 6.610663604736328125e+01 -1.732876396179199219e+01 1.326664686203002930e-01 4.246592044830322266e+00 1.313777565956115723e+00 1.931205540895462036e-01
3.564000000000000000e+03 6.740643310546875000e+01 7.855856895446777344e+00 4.723966717720031738e-01 4.350306510925292969e+00 1.446810960769653320e+00 9.058507680892944336e-01
3.565000000000000000e+03 6.879544067382812500e+01 8.196093559265136719e+00 4.119012653827667236e-01 4.793047904968261719e+00 1.561484813690185547e+00 9.278032779693603516e-01
3.566000000000000000e+03 3.243067169189453125e+01 -1.459972572326660156e+01 8.987428247928619385e-02 -7.222827672958374023e-01 -1.897225379943847656e-01 -1.946844458580017090e-01
3.567000000000000000e+03 2.966210174560546875e+01 -6.400176048278808594e+00 7.477533817291259766e-02 -1.025238275527954102e+00 -2.851389050483703613e-01 -3.076343536376953125e-01
3.568000000000000000e+03 3.012395477294921875e+01 -2.549119949340820312e+01 3.411151841282844543e-02 -1.020509600639343262e+00 -2.959194183349609375e-01 -9.654140472412109375e-02
3.569000000000000000e+03 6.497885131835937500e+01 -2.280009651184082031e+01 1.066850572824478149e-01 4.062438488006591797e+00 1.250737071037292480e+00 1.322405040264129639e-01
3.570000000000000000e+03 5.831175994873046875e+01 4.128198242187500000e+01 6.686575412750244141e-01 -3.020958602428436279e-01 1.099685132503509521e-01 8.175903558731079102e-02
3.571000000000000000e+03 2.993144798278808594e+01 -2.766829109191894531e+01 3.634115308523178101e-02 -1.015655755996704102e+00 -2.937943637371063232e-01 -8.667531609535217285e-02
3.572000000000000000e+03 3.383539199829101562e+01 -2.463592147827148438e+01 7.815375179052352905e-02 -4.969381690025329590e-01 -1.256353259086608887e-01 -8.958218246698379517e-02
3.573000000000000000e+03 2.402193832397460938e+01 -3.252420806884765625e+01 -1.271252036094665527e-01 -1.825032353401184082e+00 -5.856472849845886230e-01 -1.044445112347602844e-01
3.574000000000000000e+03 3.207056808471679688e+01 -3.331610488891601562e+01 4.939158260822296143e-02 -7.231098413467407227e-01 -2.021154761314392090e-01 -4.160923883318901062e-03
3.575000000000000000e+03 7.211869812011718750e+01 2.699736213684082031e+01 -1.301477074623107910e+00 9.298235893249511719e+00 2.399027585983276367e+00 3.867027759552001953e+00
3.576000000000000000e+03 5.967726135253906250e+01 2.155134201049804688e+01 -2.528583407402038574e-01 5.665104389190673828e-01 9.409563243389129639e-02 7.412379141896963120e-03
3.577000000000000000e+03 5.837643051147460938e+01 2.226999282836914062e+01 -5.095762014389038086e-01 3.585880994796752930e-01 -4.529643058776855469e-02 -2.008231580257415771e-01
3.578000000000000000e+03 6.857056427001953125e+01 2.487239265441894531e+01 -2.657887339591979980e-01 3.147776365280151367e+00 8.645963072776794434e-01 2.202241659164428711e+00
3.579000000000000000e+03 6.984006500244140625e+01 2.572446823120117188e+01 -4.156348109245300293e-01 4.304731369018554688e+00 1.166728854179382324e+00 2.842127084732055664e+00
3.580000000000000000e+03 6.863893890380859375e+01 2.547489356994628906e+01 -3.436722159385681152e-01 2.820012331008911133e+00 7.429020404815673828e-01 2.246045827865600586e+00
3.581000000000000000e+03 4.550979614257812500e+01 2.278546142578125000e+01 -6.698602437973022461e-01 6.258389353752136230e-02 -1.821829080581665039e-01 -7.070497274398803711e-01
3.582000000000000000e+03 6.027351379394531250e+01 2.152985000610351562e+01 -2.037265300750732422e-01 6.606241464614868164e-01 1.370692849159240723e-01 1.057969704270362854e-01
3.583000000000000000e+03 7.151732635498046875e+01 2.442911338806152344e+01 -9.488633871078491211e-01 7.181700706481933594e+00 1.869851231575012207e+00 2.629703760147094727e+00
3.584000000000000000e+03 5.901992797851562500e+01 2.154756736755371094e+01 -2.891848385334014893e-01 5.038091540336608887e-01 6.438729912042617798e-02 -6.944607943296432495e-02
3.585000000000000000e+03 6.495545959472656250e+01 2.316384506225585938e+01 -1.789016723632812500e-01 1.404188632965087891e+00 3.675860762596130371e-01 9.480168223381042480e-01
3.586000000000000000e+03 3.452222442626953125e+01 2.285977554321289062e+01 -3.082145750522613525e-01 -1.091494038701057434e-01 -1.252091974020004272e-01 -5.596811771392822266e-01
3.587000000000000000e+03 3.734265899658203125e+01 2.388261413574218750e+01 -4.496802687644958496e-01 -2.732019312679767609e-02 -1.431001424789428711e-01 -5.815836191177368164e-01
3.588000000000000000e+03 3.432775878906250000e+01 2.405578613281250000e+01 -3.382923901081085205e-01 -8.271004259586334229e-02 -1.263007223606109619e-01 -5.101889967918395996e-01
3.589000000000000000e+03 5.271319580078125000e+01 2.312077331542968750e+01 -8.506582975387573242e-01 1.111471354961395264e-01 -2.218533605337142944e-01 -5.968733429908752441e-01
3.590000000000000000e+03 6.425471496582031250e+01 2.218865203857421875e+01 -3.235659003257751465e-02 1.444870233535766602e+00 4.237540662288665771e-01 8.546696305274963379e-01
3.591000000000000000e+03 5.229224395751953125e+01 2.391802597045898438e+01 -1.030577301979064941e+00 7.601018249988555908e-02 -2.863701283931732178e-01 -5.965598821640014648e-01
3.592000000000000000e+03 4.445165634155273438e+01 2.250857353210449219e+01 -6.075090169906616211e-01 5.315059795975685120e-02 -1.663075238466262817e-01 -7.151889801025390625e-01
3.593000000000000000e+03 4.112376403808593750e+01 2.318264389038085938e+01 -5.555175542831420898e-01 2.083698660135269165e-02 -1.604041755199432373e-01 -6.672167778015136719e-01
3.594000000000000000e+03 3.965089797973632812e+01 2.476583480834960938e+01 -5.919489860534667969e-01 2.203895337879657745e-02 -1.709730029106140137e-01 -5.814561247825622559e-01
3.595000000000000000e+03 4.728552246093750000e+01 2.056673812866210938e+01 -4.349955916404724121e-01 9.991142898797988892e-02 -1.005252450704574585e-01 -7.291301488876342773e-01
3.596000000000000000e+03 4.082434463500976562e+01 2.402034378051757812e+01 -6.024296879768371582e-01 2.687293663620948792e-02 -1.726670265197753906e-01 -6.291437149047851562e-01
3.597000000000000000e+03 4.888996505737304688e+01 2.274787139892578125e+01 -7.391875386238098145e-01 8.761362731456756592e-02 -1.954721659421920776e-01 -6.858198642730712891e-01
3.598000000000000000e+03 4.992454910278320312e+01 2.336011695861816406e+01 -8.618092536926269531e-01 8.255335688591003418e-02 -2.337767779827117920e-01 -6.602907180786132812e-01
3.599000000000000000e+03 6.147377777099609375e+01 2.110457229614257812e+01 -3.628306090831756592e-02 9.300335049629211426e-01 2.681251168251037598e-01 3.367632031440734863e-01
3.600000000000000000e+03 6.106449127197265625e+01 2.038988685607910156e+01 6.585364788770675659e-02 9.722570180892944336e-01 3.114331960678100586e-01 3.152774572372436523e-01
3.601000000000000000e+03 5.378351211547851562e+01 2.367178344726562500e+01 -9.894035458564758301e-01 9.993366152048110962e-02 -2.668409645557403564e-01 -5.513689517974853516e-01
3.602000000000000000e+03 4.422237014770507812e+01 2.316077232360839844e+01 -6.608859300613403320e-01 5.423155426979064941e-02 -1.819963008165359497e-01 -6.946462392807006836e-01
3.603000000000000000e+03 6.719805908203125000e+01 2.361620712280273438e+01 -1.113284006714820862e-01 2.472177982330322266e+00 7.082548737525939941e-01 1.664936661720275879e+00
3.604000000000000000e+03 6.084693908691406250e+01 2.132435035705566406e+01 -1.303419619798660278e-01 7.704265713691711426e-01 1.920253932476043701e-01 2.089658975601196289e-01
3.605000000000000000e+03 4.623900222778320312e+01 2.246944618225097656e+01 -6.486712098121643066e-01 7.011431455612182617e-02 -1.735670715570449829e-01 -7.133557796478271484e-01
3.606000000000000000e+03 4.703855133056640625e+01 2.215885734558105469e+01 -6.279685497283935547e-01 7.731531560420989990e-02 -1.651959717273712158e-01 -7.148130536079406738e-01
3.607000000000000000e+03 3.232218933105468750e+01 2.328170967102050781e+01 -2.498079240322113037e-01 -1.446923911571502686e-01 -1.183500960469245911e-01 -4.794580042362213135e-01
3.608000000000000000e+03 5.328651428222656250e+01 2.344403648376464844e+01 -9.318983554840087891e-01 9.948140382766723633e-02 -2.497250735759735107e-01 -5.702397227287292480e-01
3.609000000000000000e+03 5.443718719482421875e+01 2.242476081848144531e+01 -6.892729997634887695e-01 1.591801196336746216e-01 -1.590278744697570801e-01 -5.121838450431823730e-01
3.610000000000000000e+03 5.612385559082031250e+01 2.257000923156738281e+01 -6.802850365638732910e-01 2.059926390647888184e-01 -1.422877162694931030e-01 -4.131672382354736328e-01
3.611000000000000000e+03 5.678184509277343750e+01 1.989532279968261719e+01 -1.006277352571487427e-01 4.811086952686309814e-01 1.141442880034446716e-01 -2.317215800285339355e-01
3.612000000000000000e+03 5.754203414916992188e+01 2.149479675292968750e+01 -3.688213825225830078e-01 3.762807250022888184e-01 2.237802371382713318e-03 -2.343434691429138184e-01
3.613000000000000000e+03 5.469547653198242188e+01 2.297442817687988281e+01 -8.147682547569274902e-01 1.346457898616790771e-01 -2.040367424488067627e-01 -5.094163417816162109e-01
3.614000000000000000e+03 5.323263931274414062e+01 2.247302055358886719e+01 -7.144236564636230469e-01 1.449542641639709473e-01 -1.708408147096633911e-01 -5.707872509956359863e-01
3.615000000000000000e+03 5.673415756225585938e+01 2.169468498229980469e+01 -4.554418623447418213e-01 3.124674856662750244e-01 -4.289231449365615845e-02 -3.270202279090881348e-01
3.616000000000000000e+03 7.141580963134765625e+01 2.642388534545898438e+01 -9.530037045478820801e-01 7.448119163513183594e+00 1.948534607887268066e+00 3.646656751632690430e+00
3.617000000000000000e+03 3.264639663696289062e+01 2.541091156005859375e+01 -3.059270679950714111e-01 -8.202045410871505737e-02 -1.163842529058456421e-01 -4.176967740058898926e-01
3.618000000000000000e+03 3.291113281250000000e+01 2.441912460327148438e+01 -2.958338260650634766e-01 -1.019006222486495972e-01 -1.193203330039978027e-01 -4.615476429462432861e-01
3.619000000000000000e+03 3.361265182495117188e+01 3.543075323104858398e+00 1.173193082213401794e-01 -5.082926750183105469e-01 -1.172920092940330505e-01 -5.209607481956481934e-01
3.620000000000000000e+03 3.481190490722656250e+01 7.816242694854736328e+00 9.797999262809753418e-02 -3.809560537338256836e-01 -8.489282429218292236e-02 -6.160246729850769043e-01
3.621000000000000000e+03 6.398774337768554688e+01 2.120819282531738281e+01 1.056284829974174500e-01 1.575343132019042969e+00 5.042914748191833496e-01 8.496707677841186523e-01
3.622000000000000000e+03 6.916463470458984375e+01 1.792313385009765625e+01 2.112570255994796753e-01 4.725784778594970703e+00 1.481112480163574219e+00 1.535024285316467285e+00
3.623000000000000000e+03 6.979047393798828125e+01 2.057691574096679688e+01 -1.007727459073066711e-01 5.076253890991210938e+00 1.492644309997558594e+00 1.876030206680297852e+00
3.624000000000000000e+03 7.012220001220703125e+01 1.950146865844726562e+01 -3.868579491972923279e-02 5.359466075897216797e+00 1.596234083175659180e+00 1.743407964706420898e+00
3.625000000000000000e+03 3.252653884887695312e+01 2.248419189453125000e+01 -2.367932647466659546e-01 -1.677086949348449707e-01 -1.213505864143371582e-01 -5.214858055114746094e-01
3.626000000000000000e+03 3.310584259033203125e+01 2.350424385070800781e+01 -2.799016535282135010e-01 -1.234939917922019958e-01 -1.210186928510665894e-01 -4.944284558296203613e-01
3.627000000000000000e+03 3.560490036010742188e+01 2.305183029174804688e+01 -3.510577678680419922e-01 -7.985883206129074097e-02 -1.292749792337417603e-01 -5.790911912918090820e-01
3.628000000000000000e+03 3.677330017089843750e+01 2.313134193420410156e+01 -3.955236077308654785e-01 -5.295700579881668091e-02 -1.345441937446594238e-01 -5.993800163269042969e-01
3.629000000000000000e+03 3.194049453735351562e+01 -2.041403770446777344e+00 1.014620736241340637e-01 -7.266513705253601074e-01 -1.875567883253097534e-01 -3.918709754943847656e-01
3.630000000000000000e+03 3.269819259643554688e+01 2.005577850341796875e+01 -1.793805658817291260e-01 -2.295739501714706421e-01 -1.226863563060760498e-01 -5.825797915458679199e-01
3.631000000000000000e+03 3.743545913696289062e+01 2.245147132873535156e+01 -3.896202445030212402e-01 -5.283582210540771484e-02 -1.327368170022964478e-01 -6.343346238136291504e-01
3.632000000000000000e+03 3.380302047729492188e+01 1.735125732421875000e+01 -1.175081208348274231e-01 -2.691132128238677979e-01 -1.159863993525505066e-01 -6.538187265396118164e-01
3.633000000000000000e+03 3.859041976928710938e+01 2.408670234680175781e+01 -5.117784142494201660e-01 -1.660468056797981262e-03 -1.540316641330718994e-01 -5.951939821243286133e-01
3.634000000000000000e+03 6.688105010986328125e+01 -3.091011047363281250e+00 3.030670285224914551e-01 4.353748321533203125e+00 1.397044539451599121e+00 4.857726097106933594e-01
3.635000000000000000e+03 3.718820953369140625e+01 1.215910434722900391e+01 4.488196969032287598e-02 -2.108734399080276489e-01 -4.979744181036949158e-02 -7.012377977371215820e-01
3.636000000000000000e+03 3.440868759155273438e+01 1.344330883026123047e+01 -1.304488908499479294e-02 -3.286634683609008789e-01 -1.025125086307525635e-01 -6.765176057815551758e-01
3.637000000000000000e+03 3.172331809997558594e+01 2.621882438659667969e+01 -2.792589664459228516e-01 -7.843048125505447388e-02 -1.073068380355834961e-01 -3.589917421340942383e-01
3.638000000000000000e+03 6.675788116455078125e+01 4.883676052093505859e+00 4.470761418342590332e-01 4.213639736175537109e+00 1.398214697837829590e+00 7.593510150909423828e-01
3.639000000000000000e+03 6.837369537353515625e+01 1.501952266693115234e+01 3.918633460998535156e-01 4.425320148468017578e+00 1.445155024528503418e+00 1.285057902336120605e+00
3.640000000000000000e+03 6.736198425292968750e+01 1.185922908782958984e+01 4.968672692775726318e-01 4.172533035278320312e+00 1.400820016860961914e+00 1.085553884506225586e+00
3.641000000000000000e+03 3.528238677978515625e+01 1.501432037353515625e+01 -5.590074136853218079e-02 -2.628354430198669434e-01 -9.562085568904876709e-02 -6.948739886283874512e-01
3.642000000000000000e+03 6.624604797363281250e+01 1.127471828460693359e+01 5.514268875122070312e-01 3.794995307922363281e+00 1.303926587104797363e+00 9.902037978172302246e-01
3.643000000000000000e+03 6.654488372802734375e+01 -6.093830466270446777e-01 3.615368902683258057e-01 4.253629684448242188e+00 1.384549975395202637e+00 5.626693367958068848e-01
3.644000000000000000e+03 3.740975952148437500e+01 1.333855819702148438e+01 8.825623430311679840e-03 -1.937854439020156860e-01 -5.548794940114021301e-02 -7.135767340660095215e-01
3.645000000000000000e+03 3.419398498535156250e+01 -1.425006103515625000e+01 1.152866184711456299e-01 -4.628953039646148682e-01 -1.042826026678085327e-01 -2.032812535762786865e-01
3.646000000000000000e+03 6.543418884277343750e+01 -7.029237747192382812e-01 3.926817178726196289e-01 4.026682376861572266e+00 1.325809240341186523e+00 5.416525602340698242e-01
3.647000000000000000e+03 6.587892913818359375e+01 -8.192498207092285156e+00 2.491882592439651489e-01 4.176598548889160156e+00 1.327736020088195801e+00 3.563111722469329834e-01
3.648000000000000000e+03 3.361632537841796875e+01 2.129540681838989258e+00 1.292774677276611328e-01 -5.206705331802368164e-01 -1.174179315567016602e-01 -4.929473698139190674e-01
3.649000000000000000e+03 3.484821701049804688e+01 3.676462173461914062e+00 1.446306109428405762e-01 -4.061096608638763428e-01 -7.844372093677520752e-02 -5.324952006340026855e-01
3.650000000000000000e+03 6.714778900146484375e+01 9.080148696899414062e+00 4.972848892211914062e-01 4.199517726898193359e+00 1.409040689468383789e+00 9.480456113815307617e-01
3.651000000000000000e+03 6.905075836181640625e+01 -1.645218658447265625e+01 9.582705050706863403e-02 4.743914127349853516e+00 1.451922416687011719e+00 1.879620105028152466e-01
3.652000000000000000e+03 6.843852233886718750e+01 -1.256208801269531250e+01 1.379348635673522949e-01 4.662343502044677734e+00 1.440083503723144531e+00 2.578381597995758057e-01
3.653000000000000000e+03 6.687292480468750000e+01 3.385194838047027588e-01 3.633202016353607178e-01 4.318546295166015625e+00 1.404559850692749023e+00 5.939786434173583984e-01
3.654000000000000000e+03 3.189760208129882812e+01 -6.345559120178222656e+00 1.065451875329017639e-01 -7.613880038261413574e-01 -1.964528560638427734e-01 -3.185097873210906982e-01
3.655000000000000000e+03 3.603213882446289062e+01 1.648197937011718750e+01 -1.022150367498397827e-01 -2.056806534528732300e-01 -9.236870706081390381e-02 -7.093126773834228516e-01
3.656000000000000000e+03 6.738133239746093750e+01 -1.506233882904052734e+01 1.369965225458145142e-01 4.467016220092773438e+00 1.381203770637512207e+00 2.201103270053863525e-01
3.657000000000000000e+03 6.273883438110351562e+01 -9.048521041870117188e+00 2.977067232131958008e-01 3.598965167999267578e+00 1.169001579284667969e+00 3.138848245143890381e-01
3.658000000000000000e+03 6.722113037109375000e+01 5.625710964202880859e+00 4.493633508682250977e-01 4.343357563018798828e+00 1.437816262245178223e+00 7.988905310630798340e-01
3.659000000000000000e+03 3.348027801513671875e+01 -1.780779266357421875e+01 8.806730806827545166e-02 -5.778942704200744629e-01 -1.469480991363525391e-01 -1.455824971199035645e-01
3.660000000000000000e+03 6.585536193847656250e+01 -4.728183746337890625e+00 3.028439581394195557e-01 4.159793853759765625e+00 1.338791370391845703e+00 4.460583031177520752e-01
3.661000000000000000e+03 6.906807708740234375e+01 -2.060219192504882812e+01 8.133178204298019409e-02 4.694603443145751953e+00 1.432780504226684570e+00 1.381047368049621582e-01
3.662000000000000000e+03 3.192699813842773438e+01 -2.528688240051269531e+01 6.450971961021423340e-02 -7.304887175559997559e-01 -1.997936964035034180e-01 -9.226645529270172119e-02
3.663000000000000000e+03 6.649265289306640625e+01 -2.668234634399414062e+01 6.220736354589462280e-02 4.253623008728027344e+00 1.294749140739440918e+00 8.429306000471115112e-02
3.664000000000000000e+03 6.580237579345703125e+01 -2.897609138488769531e+01 4.460533335804939270e-02 4.144997596740722656e+00 1.256880760192871094e+00 5.430072173476219177e-02
3.665000000000000000e+03 6.792614746093750000e+01 -3.414953231811523438e+01 3.056953661143779755e-02 4.471687316894531250e+00 1.350677013397216797e+00 4.987417161464691162e-02
3.666000000000000000e+03 7.102575683593750000e+01 2.592848205566406250e+01 -7.500678896903991699e-01 6.416352272033691406e+00 1.699885368347167969e+00 3.309250831604003906e+00
3.667000000000000000e+03 6.917760467529296875e+01 2.532170295715332031e+01 -3.195246458053588867e-01 3.542284727096557617e+00 9.668279886245727539e-01 2.503012657165527344e+00
3.668000000000000000e+03 6.803531646728515625e+01 2.432121086120605469e+01 -1.933851391077041626e-01 2.844050168991088867e+00 7.951994538307189941e-01 1.973691821098327637e+00
3.669000000000000000e+03 7.085239410400390625e+01 2.459724044799804688e+01 -7.222664356231689453e-01 6.207824230194091797e+00 1.645667433738708496e+00 2.800352811813354492e+00
3.670000000000000000e+03 4.507516479492187500e+01 2.202717590332031250e+01 -5.739753246307373047e-01 5.917911231517791748e-02 -1.544388532638549805e-01 -7.249854803085327148e-01
3.671000000000000000e+03 4.046268463134765625e+01 2.353018379211425781e+01 -5.547972917556762695e-01 1.684875786304473877e-02 -1.613845676183700562e-01 -6.468974351882934570e-01
3.672000000000000000e+03 7.157963562011718750e+01 2.591487121582031250e+01 -1.063907623291015625e+00 7.716474056243896484e+00 1.995769858360290527e+00 3.285239219665527344e+00
3.673000000000000000e+03 6.554035186767578125e+01 2.325337219238281250e+01 -1.383302211761474609e-01 1.684450387954711914e+00 4.638360440731048584e-01 1.105603814125061035e+00
3.674000000000000000e+03 7.097671508789062500e+01 2.531353950500488281e+01 -7.670037150382995605e-01 6.375190734863281250e+00 1.682456135749816895e+00 3.073300838470458984e+00
3.675000000000000000e+03 4.350460815429687500e+01 2.323400878906250000e+01 -6.419860720634460449e-01 4.647467657923698425e-02 -1.786534190177917480e-01 -6.875643134117126465e-01
3.676000000000000000e+03 4.324318695068359375e+01 2.251920890808105469e+01 -5.786845088005065918e-01 4.028787091374397278e-02 -1.615189909934997559e-01 -7.085725069046020508e-01
3.677000000000000000e+03 4.579916000366210938e+01 2.160482406616210938e+01 -5.443192720413208008e-01 6.760222464799880981e-02 -1.430151164531707764e-01 -7.313240170478820801e-01
3.678000000000000000e+03 3.499564361572265625e+01 2.355419158935546875e+01 -3.459897339344024658e-01 -8.214242756366729736e-02 -1.284396499395370483e-01 -5.449570417404174805e-01
3.679000000000000000e+03 3.426773071289062500e+01 2.073580741882324219e+01 -2.304781377315521240e-01 -1.699894368648529053e-01 -1.201402768492698669e-01 -6.114522814750671387e-01
3.680000000000000000e+03 5.217374038696289062e+01 2.194255828857421875e+01 -6.255719065666198730e-01 1.414884328842163086e-01 -1.452250331640243530e-01 -6.087639331817626953e-01
3.681000000000000000e+03 5.866503906250000000e+01 2.091656303405761719e+01 -1.884175837039947510e-01 5.328018665313720703e-01 1.033152788877487183e-01 -7.797963917255401611e-02
3.682000000000000000e+03 4.658083724975585938e+01 2.117307472229003906e+01 -5.014169216156005859e-01 8.096989244222640991e-02 -1.261341124773025513e-01 -7.334482073783874512e-01
3.683000000000000000e+03 5.932393264770507812e+01 2.046643257141113281e+01 -5.879300460219383240e-02 6.855962276458740234e-01 1.880409717559814453e-01 3.807254135608673096e-02
3.684000000000000000e+03 6.280522155761718750e+01 2.063681602478027344e+01 1.382286846637725830e-01 1.329787373542785645e+00 4.404048323631286621e-01 6.242925524711608887e-01
3.685000000000000000e+03 4.851636123657226562e+01 2.049445533752441406e+01 -4.241606891155242920e-01 1.221754699945449829e-01 -9.059556573629379272e-02 -7.075904011726379395e-01
3.686000000000000000e+03 6.808863067626953125e+01 2.490913200378417969e+01 -2.700312137603759766e-01 2.611507177352905273e+00 7.024427652359008789e-01 1.959939956665039062e+00
3.687000000000000000e+03 6.746989440917968750e+01 2.436728477478027344e+01 -2.144991904497146606e-01 2.395822525024414062e+00 6.543970108032226562e-01 1.752702593803405762e+00
3.688000000000000000e+03 4.967440414428710938e+01 2.250093650817871094e+01 -7.136585116386413574e-01 9.354253113269805908e-02 -1.860347837209701538e-01 -6.769424080848693848e-01
3.689000000000000000e+03 6.770056915283203125e+01 1.928092765808105469e+01 2.319956719875335693e-01 3.762005805969238281e+00 1.198200464248657227e+00 1.540894865989685059e+00
3.690000000000000000e+03 6.213025665283203125e+01 2.088007736206054688e+01 4.697510972619056702e-02 1.109456062316894531e+00 3.469293415546417236e-01 4.733766019344329834e-01
3.691000000000000000e+03 5.375551986694335938e+01 2.284845542907714844e+01 -7.917768955230712891e-01 1.307175308465957642e-01 -1.983178108930587769e-01 -5.509620308876037598e-01
3.692000000000000000e+03 4.185216522216796875e+01 2.290279769897460938e+01 -5.600737333297729492e-01 2.665716037154197693e-02 -1.600249707698822021e-01 -6.855853199958801270e-01
3.693000000000000000e+03 5.426449203491210938e+01 2.180968093872070312e+01 -5.724221467971801758e-01 1.981299072504043579e-01 -1.122876778244972229e-01 -5.140367746353149414e-01
3.694000000000000000e+03 5.520916366577148438e+01 2.214895439147949219e+01 -6.076266169548034668e-01 2.006689310073852539e-01 -1.220873072743415833e-01 -4.618019759654998779e-01
3.695000000000000000e+03 5.596761322021484375e+01 2.191658401489257812e+01 -5.386306047439575195e-01 2.455060631036758423e-01 -8.793735504150390625e-02 -4.020206928253173828e-01
3.696000000000000000e+03 5.807091522216796875e+01 2.024612236022949219e+01 -9.760560095310211182e-02 5.624103546142578125e-01 1.394414156675338745e-01 -1.093079596757888794e-01
3.697000000000000000e+03 5.487465667724609375e+01 2.092455101013183594e+01 -3.835179805755615234e-01 2.733072340488433838e-01 -3.306321799755096436e-02 -4.420660436153411865e-01
3.698000000000000000e+03 4.205325698852539062e+01 2.359752464294433594e+01 -6.231805682182312012e-01 3.539732843637466431e-02 -1.763349771499633789e-01 -6.604599356651306152e-01
3.699000000000000000e+03 3.562884521484375000e+01 1.365518283843994141e+01 -1.257936283946037292e-02 -2.667126357555389404e-01 -8.378759771585464478e-02 -6.972400546073913574e-01
3.700000000000000000e+03 3.639189147949218750e+01 1.536187076568603516e+01 -6.546854972839355469e-02 -2.114616185426712036e-01 -8.307904750108718872e-02 -7.149872183799743652e-01
3.701000000000000000e+03 6.044515228271484375e+01 2.067513847351074219e+01 -2.457071468234062195e-02 8.229729533195495605e-01 2.395206838846206665e-01 1.942793428897857666e-01
3.702000000000000000e+03 5.988774108886718750e+01 2.101859855651855469e+01 -1.355125010013580322e-01 6.707456707954406738e-01 1.605699509382247925e-01 7.923416048288345337e-02
3.703000000000000000e+03 7.037934875488281250e+01 2.128730583190917969e+01 -2.708243429660797119e-01 5.594613075256347656e+00 1.597136616706848145e+00 1.969656825065612793e+00
3.704000000000000000e+03 6.910198211669921875e+01 2.102369117736816406e+01 -4.327452182769775391e-02 4.506191253662109375e+00 1.338875055313110352e+00 1.872710704803466797e+00
3.705000000000000000e+03 6.552976226806640625e+01 -1.919202685356140137e+00 3.623738884925842285e-01 4.051547050476074219e+00 1.324176311492919922e+00 5.071851611137390137e-01
3.706000000000000000e+03 3.803260803222656250e+01 2.323552131652832031e+01 -4.440502524375915527e-01 -2.718031965196132660e-02 -1.413691639900207520e-01 -6.203561425209045410e-01
3.707000000000000000e+03 3.880408859252929688e+01 2.252453613281250000e+01 -4.335688948631286621e-01 -2.501720190048217773e-02 -1.375758200883865356e-01 -6.586626172065734863e-01
3.708000000000000000e+03 3.932000350952148438e+01 2.344219779968261719e+01 -5.110046267509460449e-01 5.392799503169953823e-04 -1.531396061182022095e-01 -6.327729821205139160e-01
3.709000000000000000e+03 6.872203063964843750e+01 2.003713798522949219e+01 8.617191761732101440e-02 4.317972660064697266e+00 1.321243286132812500e+00 1.713344693183898926e+00
3.710000000000000000e+03 6.835832214355468750e+01 1.813336563110351562e+01 2.565916180610656738e-01 4.237842082977294922e+00 1.348330140113830566e+00 1.519767880439758301e+00
3.711000000000000000e+03 6.901953887939453125e+01 1.694562149047851562e+01 2.616167366504669189e-01 4.659013271331787109e+00 1.476188898086547852e+00 1.461638808250427246e+00
3.712000000000000000e+03 5.168981170654296875e+01 2.351047897338867188e+01 -9.459550976753234863e-01 8.399271965026855469e-02 -2.585887014865875244e-01 -6.186137795448303223e-01
3.713000000000000000e+03 6.873357391357421875e+01 1.597314739227294922e+01 3.295687437057495117e-01 4.548622131347656250e+00 1.463457226753234863e+00 1.375349760055541992e+00
3.714000000000000000e+03 5.069968032836914062e+01 2.310399436950683594e+01 -8.259382247924804688e-01 9.560029208660125732e-02 -2.191013842821121216e-01 -6.502735614776611328e-01
3.715000000000000000e+03 5.047611999511718750e+01 2.223439979553222656e+01 -6.776584982872009277e-01 1.127412393689155579e-01 -1.694751828908920288e-01 -6.602125763893127441e-01
3.716000000000000000e+03 3.503351974487304688e+01 2.013053512573242188e+01 -2.261238396167755127e-01 -1.637519001960754395e-01 -1.169627234339714050e-01 -6.442024111747741699e-01
3.717000000000000000e+03 7.063337707519531250e+01 2.378190994262695312e+01 -6.016339063644409180e-01 5.925245285034179688e+00 1.597083449363708496e+00 2.505579710006713867e+00
3.718000000000000000e+03 6.762266540527343750e+01 1.355503273010253906e+01 4.665313661098480225e-01 4.183230400085449219e+00 1.394928574562072754e+00 1.175858139991760254e+00
3.719000000000000000e+03 3.367491531372070312e+01 2.168502235412597656e+01 -2.452560663223266602e-01 -1.611026376485824585e-01 -1.219076067209243774e-01 -5.736845135688781738e-01
3.720000000000000000e+03 3.380981063842773438e+01 1.978801345825195312e+01 -1.922795921564102173e-01 -2.053652554750442505e-01 -1.192934513092041016e-01 -6.185448169708251953e-01
3.721000000000000000e+03 3.619437026977539062e+01 2.246265983581542969e+01 -3.514619171619415283e-01 -7.727847248315811157e-02 -1.286221146583557129e-01 -6.108705401420593262e-01
3.722000000000000000e+03 6.947006225585937500e+01 -1.349122428894042969e+01 1.119472756981849670e-01 4.827379226684570312e+00 1.481798052787780762e+00 2.351350188255310059e-01
3.723000000000000000e+03 3.410498428344726562e+01 2.571968269348144531e+01 -3.704562485218048096e-01 -4.959822818636894226e-02 -1.260163336992263794e-01 -4.408641159534454346e-01
3.724000000000000000e+03 3.588191223144531250e+01 1.217004203796386719e+01 2.847096510231494904e-02 -2.728860676288604736e-01 -7.332453131675720215e-02 -6.897042393684387207e-01
3.725000000000000000e+03 3.599158477783203125e+01 1.068010711669921875e+01 7.019308209419250488e-02 -2.819413840770721436e-01 -6.352449208498001099e-02 -6.726679801940917969e-01
3.726000000000000000e+03 3.475519943237304688e+01 1.943865013122558594e+01 -1.950904130935668945e-01 -1.879890710115432739e-01 -1.149238422513008118e-01 -6.525609493255615234e-01
3.727000000000000000e+03 3.482866287231445312e+01 1.737822151184082031e+01 -1.320960223674774170e-01 -2.297289073467254639e-01 -1.085474789142608643e-01 -6.777868270874023438e-01
3.728000000000000000e+03 6.408760070800781250e+01 1.038051986694335938e+01 6.123379468917846680e-01 3.141672134399414062e+00 1.126203060150146484e+00 8.108254671096801758e-01
3.729000000000000000e+03 3.487327575683593750e+01 2.248675823211669922e+00 1.510287523269653320e-01 -4.088804125785827637e-01 -7.735549658536911011e-02 -5.024816989898681641e-01
3.730000000000000000e+03 3.349332427978515625e+01 -8.022649884223937988e-01 1.382236182689666748e-01 -5.512600541114807129e-01 -1.239109262824058533e-01 -4.315704703330993652e-01
3.731000000000000000e+03 3.745605850219726562e+01 1.130248308181762695e+00 2.149494290351867676e-01 -1.814674139022827148e-01 1.004460360854864120e-02 -4.735176563262939453e-01
3.732000000000000000e+03 3.305129623413085938e+01 -1.095045757293701172e+01 1.140064597129821777e-01 -6.196462512016296387e-01 -1.516919434070587158e-01 -2.519789040088653564e-01
3.733000000000000000e+03 3.192251396179199219e+01 -7.594048500061035156e+00 1.092238351702690125e-01 -7.480911016464233398e-01 -1.916601806879043579e-01 -3.006587326526641846e-01
3.734000000000000000e+03 6.505029296875000000e+01 -1.198688983917236328e+01 2.067726552486419678e-01 4.043188095092773438e+00 1.274988293647766113e+00 2.703360915184020996e-01
3.735000000000000000e+03 6.700694274902343750e+01 -1.330076217651367188e+01 1.541135460138320923e-01 4.408109664916992188e+00 1.368667006492614746e+00 2.491172999143600464e-01
3.736000000000000000e+03 6.430484008789062500e+01 -8.555811882019042969e+00 2.771452069282531738e-01 3.883069038391113281e+00 1.248064279556274414e+00 3.334031105041503906e-01
3.737000000000000000e+03 6.586982727050781250e+01 -6.417167663574218750e+00 2.776277065277099609e-01 4.167807102203369141e+00 1.333630561828613281e+00 3.962205946445465088e-01
3.738000000000000000e+03 3.404264831542968750e+01 -6.528849124908447266e+00 1.406991332769393921e-01 -5.162229537963867188e-01 -1.126571446657180786e-01 -3.282298147678375244e-01
3.739000000000000000e+03 6.430064392089843750e+01 -1.981629848480224609e+00 3.919541835784912109e-01 3.769328832626342773e+00 1.248384952545166016e+00 4.909955561161041260e-01
3.740000000000000000e+03 6.323189926147460938e+01 3.038198471069335938e+00 5.381293892860412598e-01 3.355486631393432617e+00 1.168084740638732910e+00 5.888646841049194336e-01
3.741000000000000000e+03 3.599425125122070312e+01 -1.436184120178222656e+01 1.532758176326751709e-01 -2.416795194149017334e-01 -2.652111463248729706e-02 -1.892250776290893555e-01
3.742000000000000000e+03 3.770196914672851562e+01 -1.040677070617675781e+01 1.925885975360870361e-01 -5.995550751686096191e-02 3.978992626070976257e-02 -2.367495745420455933e-01
3.743000000000000000e+03 3.186709785461425781e+01 -1.160276794433593750e+01 1.006017625331878662e-01 -7.697887420654296875e-01 -2.007560878992080688e-01 -2.404756098985671997e-01
3.744000000000000000e+03 6.331935119628906250e+01 -2.451986503601074219e+01 1.153531149029731750e-01 3.832696914672851562e+00 1.184415102005004883e+00 1.299133151769638062e-01
3.745000000000000000e+03 6.229203033447265625e+01 -2.264065361022949219e+01 1.185978427529335022e-01 3.657080888748168945e+00 1.132703542709350586e+00 1.171234622597694397e-01
3.746000000000000000e+03 6.394712448120117188e+01 -2.123551750183105469e+01 1.249164864420890808e-01 3.918008804321289062e+00 1.212877631187438965e+00 1.491473615169525146e-01
3.747000000000000000e+03 6.678747558593750000e+01 -1.881439971923828125e+01 1.071169301867485046e-01 4.342528343200683594e+00 1.334893584251403809e+00 1.730258911848068237e-01
3.748000000000000000e+03 3.483019256591796875e+01 5.072723865509033203e+00 1.310935765504837036e-01 -3.994079232215881348e-01 -8.049430698156356812e-02 -5.621255636215209961e-01
3.749000000000000000e+03 3.612362289428710938e+01 7.920326709747314453e+00 1.212816610932350159e-01 -2.964853346347808838e-01 -5.256110057234764099e-02 -6.265720725059509277e-01
3.750000000000000000e+03 3.230632400512695312e+01 -2.759418678283691406e+01 4.884955659508705139e-02 -6.889976859092712402e-01 -1.920444369316101074e-01 -6.625174731016159058e-02
3.751000000000000000e+03 3.492452621459960938e+01 -2.696615028381347656e+01 8.233588933944702148e-02 -3.262765705585479736e-01 -7.318220287561416626e-02 -5.999168008565902710e-02
3.752000000000000000e+03 6.851232147216796875e+01 2.432951736450195312e+01 -1.842404007911682129e-01 3.292088985443115234e+00 9.323546290397644043e-01 2.150066614151000977e+00
3.753000000000000000e+03 4.081061553955078125e+01 2.255794334411621094e+01 -5.015162229537963867e-01 1.018865499645471573e-02 -1.473982781171798706e-01 -6.871250867843627930e-01
3.754000000000000000e+03 6.904341125488281250e+01 2.476983833312988281e+01 -2.801409363746643066e-01 3.585688829421997070e+00 9.916643500328063965e-01 2.437628030776977539e+00
3.755000000000000000e+03 4.269534301757812500e+01 2.211810111999511719e+01 -5.250146389007568359e-01 3.391029685735702515e-02 -1.473313122987747192e-01 -7.212924361228942871e-01
3.756000000000000000e+03 4.448030853271484375e+01 2.124134445190429688e+01 -4.835856258869171143e-01 5.285651981830596924e-02 -1.292187273502349854e-01 -7.419949769973754883e-01
3.757000000000000000e+03 4.525006103515625000e+01 2.075275993347167969e+01 -4.388482570648193359e-01 6.559174507856369019e-02 -1.119769513607025146e-01 -7.484649419784545898e-01
3.758000000000000000e+03 4.258608245849609375e+01 2.274646949768066406e+01 -5.737457871437072754e-01 3.497399017214775085e-02 -1.616315394639968872e-01 -6.967407464981079102e-01
3.759000000000000000e+03 6.625315856933593750e+01 2.284803771972656250e+01 -3.542101383209228516e-02 2.134914159774780273e+00 6.298480033874511719e-01 1.375064611434936523e+00
3.760000000000000000e+03 6.691835784912109375e+01 2.274432563781738281e+01 -4.536132793873548508e-03 2.540502548217773438e+00 7.607899308204650879e-01 1.573024511337280273e+00
3.761000000000000000e+03 6.543643951416015625e+01 2.152360153198242188e+01 1.181685402989387512e-01 2.046747446060180664e+00 6.494747996330261230e-01 1.170455217361450195e+00
3.762000000000000000e+03 6.502905273437500000e+01 2.230792808532714844e+01 -4.813695792108774185e-03 1.681912064552307129e+00 5.031295418739318848e-01 1.030367136001586914e+00
3.763000000000000000e+03 4.306849288940429688e+01 2.067094802856445312e+01 -4.101833403110504150e-01 2.851124480366706848e-02 -1.145016252994537354e-01 -7.469973564147949219e-01
3.764000000000000000e+03 5.291950607299804688e+01 2.196266937255859375e+01 -6.287798285484313965e-01 1.576704531908035278e-01 -1.413328051567077637e-01 -5.817321538925170898e-01
3.765000000000000000e+03 4.804842758178710938e+01 2.122274589538574219e+01 -5.161386132240295410e-01 9.726355224847793579e-02 -1.256625205278396606e-01 -7.134661078453063965e-01
3.766000000000000000e+03 4.861517333984375000e+01 2.188248443603515625e+01 -6.084486246109008789e-01 9.880667924880981445e-02 -1.528925746679306030e-01 -7.021777629852294922e-01
3.767000000000000000e+03 5.995816040039062500e+01 2.003119277954101562e+01 6.112857162952423096e-02 8.418365120887756348e-01 2.708895206451416016e-01 1.567088663578033447e-01
3.768000000000000000e+03 6.170618438720703125e+01 2.013107299804687500e+01 1.490343362092971802e-01 1.156918764114379883e+00 3.917859196662902832e-01 4.424348175525665283e-01
3.769000000000000000e+03 6.722119140625000000e+01 1.662692070007324219e+01 4.010607600212097168e-01 3.789958953857421875e+00 1.257305860519409180e+00 1.310521245002746582e+00
3.770000000000000000e+03 5.339107894897460938e+01 2.086678504943847656e+01 -4.126848876476287842e-01 2.179742604494094849e-01 -5.841318145394325256e-02 -5.314920544624328613e-01
3.771000000000000000e+03 5.755871582031250000e+01 1.946885490417480469e+01 4.574560560286045074e-03 6.084101796150207520e-01 1.838954240083694458e-01 -1.212310418486595154e-01
3.772000000000000000e+03 7.031690216064453125e+01 2.285165023803710938e+01 -4.190559089183807373e-01 5.548556804656982422e+00 1.538850188255310059e+00 2.280554533004760742e+00
3.773000000000000000e+03 4.155088043212890625e+01 2.227947807312011719e+01 -5.077077150344848633e-01 1.895314455032348633e-02 -1.466263681650161743e-01 -7.059993147850036621e-01
3.774000000000000000e+03 4.242445373535156250e+01 2.114287567138671875e+01 -4.332321882247924805e-01 1.898941397666931152e-02 -1.242728307843208313e-01 -7.351181507110595703e-01
3.775000000000000000e+03 5.503570556640625000e+01 2.155020904541015625e+01 -5.012756586074829102e-01 2.250124663114547729e-01 -8.287896215915679932e-02 -4.521629512310028076e-01
3.776000000000000000e+03 5.550762557983398438e+01 2.011255264282226562e+01 -1.958250999450683594e-01 3.681402504444122314e-01 5.169454589486122131e-02 -3.585660159587860107e-01
3.777000000000000000e+03 5.355602645874023438e+01 2.191098022460937500e+01 -6.012784242630004883e-01 1.669367700815200806e-01 -1.303024888038635254e-01 -5.532864928245544434e-01
3.778000000000000000e+03 5.650260162353515625e+01 2.099744987487792969e+01 -3.265720009803771973e-01 3.573429882526397705e-01 9.231297299265861511e-03 -3.155107796192169189e-01
3.779000000000000000e+03 3.496645355224609375e+01 2.132885742187500000e+01 -2.696277499198913574e-01 -1.347085088491439819e-01 -1.213008835911750793e-01 -6.120759248733520508e-01
3.780000000000000000e+03 6.849601745605468750e+01 1.907929992675781250e+01 1.921167969703674316e-01 4.256873130798339844e+00 1.334697008132934570e+00 1.594273447990417480e+00
3.781000000000000000e+03 6.412483978271484375e+01 1.993429565429687500e+01 2.755652368068695068e-01 1.905615925788879395e+00 6.543543338775634766e-01 9.157401919364929199e-01
3.782000000000000000e+03 6.354499435424804688e+01 1.923662567138671875e+01 3.250815272331237793e-01 1.843283534049987793e+00 6.505094766616821289e-01 8.214706778526306152e-01
3.783000000000000000e+03 6.060367202758789062e+01 1.967555046081542969e+01 1.541225314140319824e-01 1.016898870468139648e+00 3.513064384460449219e-01 2.815721035003662109e-01
3.784000000000000000e+03 3.680114746093750000e+01 2.178391647338867188e+01 -3.407542705535888672e-01 -7.765591889619827271e-02 -1.255230456590652466e-01 -6.429794430732727051e-01
3.785000000000000000e+03 5.207474899291992188e+01 2.282467842102050781e+01 -7.997229695320129395e-01 1.072596162557601929e-01 -2.077389955520629883e-01 -6.150165200233459473e-01
3.786000000000000000e+03 6.676764678955078125e+01 1.588274574279785156e+01 4.477345943450927734e-01 3.638029813766479492e+00 1.225729346275329590e+00 1.228301525115966797e+00
3.787000000000000000e+03 3.344799041748046875e+01 2.556502914428710938e+01 -3.387454748153686523e-01 -6.442728638648986816e-02 -1.209518313407897949e-01 -4.280200004577636719e-01
3.788000000000000000e+03 5.131829452514648438e+01 2.196675109863281250e+01 -6.354856491088867188e-01 1.252098679542541504e-01 -1.530827283859252930e-01 -6.391297578811645508e-01
3.789000000000000000e+03 3.605624389648437500e+01 3.820554256439208984e+00 1.677673757076263428e-01 -3.076074421405792236e-01 -4.195202142000198364e-02 -5.403982400894165039e-01
3.790000000000000000e+03 3.692018127441406250e+01 1.846084022521972656e+01 -1.919636428356170654e-01 -1.386408954858779907e-01 -9.918136149644851685e-02 -7.111213207244873047e-01
3.791000000000000000e+03 3.668090820312500000e+01 1.408172798156738281e+01 -1.628146693110466003e-02 -2.162866145372390747e-01 -6.977042555809020996e-02 -7.148447036743164062e-01
3.792000000000000000e+03 6.819910430908203125e+01 1.719923782348632812e+01 3.165737688541412354e-01 4.208270549774169922e+00 1.357453227043151855e+00 1.439141869544982910e+00
3.793000000000000000e+03 3.384698486328125000e+01 2.328240394592285156e+01 -2.965412735939025879e-01 -1.145590543746948242e-01 -1.233301013708114624e-01 -5.254442095756530762e-01
3.794000000000000000e+03 3.449282455444335938e+01 2.207737541198730469e+01 -2.842031419277191162e-01 -1.259330511093139648e-01 -1.230408549308776855e-01 -5.825674533843994141e-01
3.795000000000000000e+03 6.599920654296875000e+01 7.646207809448242188e+00 5.267855525016784668e-01 3.880429744720458984e+00 1.322164535522460938e+00 8.319910168647766113e-01
3.796000000000000000e+03 6.594445037841796875e+01 4.216053962707519531e+00 4.711341559886932373e-01 4.016523838043212891e+00 1.346297383308410645e+00 7.076134681701660156e-01
3.797000000000000000e+03 3.579730606079101562e+01 1.744347763061523438e+01 -1.431863754987716675e-01 -1.964234858751296997e-01 -1.018829569220542908e-01 -6.964071393013000488e-01
3.798000000000000000e+03 4.971760940551757812e+01 1.964915847778320312e+01 -2.980735003948211670e-01 1.674533486366271973e-01 -3.918604180216789246e-02 -6.680083274841308594e-01
3.799000000000000000e+03 6.687560272216796875e+01 1.445711517333984375e+01 4.837285578250885010e-01 3.826484441757202148e+00 1.293063879013061523e+00 1.178901910781860352e+00
3.800000000000000000e+03 6.850554656982421875e+01 1.412588882446289062e+01 4.058624505996704102e-01 4.513277053833007812e+00 1.475741863250732422e+00 1.246746063232421875e+00
3.801000000000000000e+03 3.815792846679687500e+01 2.165216064453125000e+01 -3.700308799743652344e-01 -5.154490098357200623e-02 -1.264727413654327393e-01 -6.729874014854431152e-01
3.802000000000000000e+03 3.488421249389648438e+01 7.606430053710937500e-01 1.634189039468765259e-01 -4.141756594181060791e-01 -7.522702217102050781e-02 -4.703825414180755615e-01
3.803000000000000000e+03 3.610806274414062500e+01 2.401918172836303711e+00 1.800979971885681152e-01 -3.039720356464385986e-01 -3.716221451759338379e-02 -5.067798495292663574e-01
3.804000000000000000e+03 6.444233703613281250e+01 9.476112365722656250e+00 6.059114933013916016e-01 3.321013212203979492e+00 1.178077459335327148e+00 8.106564283370971680e-01
3.805000000000000000e+03 3.557359313964843750e+01 2.066153144836425781e+01 -2.555403411388397217e-01 -1.390619575977325439e-01 -1.183806955814361572e-01 -6.432048082351684570e-01
3.806000000000000000e+03 3.560106277465820312e+01 2.186407852172851562e+01 -3.097169697284698486e-01 -1.042746752500534058e-01 -1.241974905133247375e-01 -6.144767999649047852e-01
3.807000000000000000e+03 6.667591094970703125e+01 1.286432838439941406e+01 5.165821313858032227e-01 3.840225458145141602e+00 1.307042241096496582e+00 1.088996648788452148e+00
3.808000000000000000e+03 3.609518051147460938e+01 9.275659561157226562e+00 9.753630310297012329e-02 -2.893835902214050293e-01 -5.755418911576271057e-02 -6.510439515113830566e-01
3.809000000000000000e+03 3.849766921997070312e+01 1.315952682495117188e+01 2.990203350782394409e-02 -1.441048532724380493e-01 -3.426084667444229126e-02 -7.193558812141418457e-01
3.810000000000000000e+03 6.492718505859375000e+01 2.739834487438201904e-01 4.211235344409942627e-01 3.860762834548950195e+00 1.284565925598144531e+00 5.534555315971374512e-01
3.811000000000000000e+03 6.760210418701171875e+01 1.831952285766601562e+01 3.025259971618652344e-01 3.788131475448608398e+00 1.227197289466857910e+00 1.460751891136169434e+00
3.812000000000000000e+03 6.751605224609375000e+01 1.532270622253417969e+01 4.347834289073944092e-01 4.030048847198486328e+00 1.339449763298034668e+00 1.269292593002319336e+00
3.813000000000000000e+03 6.602178192138671875e+01 2.654585599899291992e+00 4.348795413970947266e-01 4.090418338775634766e+00 1.357589364051818848e+00 6.559802293777465820e-01
3.814000000000000000e+03 6.444482421875000000e+01 -3.334353685379028320e+00 3.621833324432373047e-01 3.832654476165771484e+00 1.258451342582702637e+00 4.524917006492614746e-01
3.815000000000000000e+03 3.840863037109375000e+01 1.205841541290283203e+01 6.513612717390060425e-02 -1.502008289098739624e-01 -2.551941014826297760e-02 -7.063233852386474609e-01
3.816000000000000000e+03 3.483879470825195312e+01 -8.151143789291381836e-01 1.606256514787673950e-01 -4.251722395420074463e-01 -7.936397194862365723e-02 -4.359110593795776367e-01
3.817000000000000000e+03 6.323800277709960938e+01 -1.062755966186523438e+01 2.589169740676879883e-01 3.693397045135498047e+00 1.185694217681884766e+00 2.859813868999481201e-01
3.818000000000000000e+03 3.604428100585937500e+01 5.197648048400878906e+00 1.563227921724319458e-01 -3.062977492809295654e-01 -4.499249160289764404e-02 -5.695603489875793457e-01
3.819000000000000000e+03 3.698543930053710938e+01 1.961794090270996094e+01 -2.412826418876647949e-01 -1.191807165741920471e-01 -1.081390082836151123e-01 -6.954541206359863281e-01
3.820000000000000000e+03 3.560205841064453125e+01 -6.603838443756103516e+00 1.708015799522399902e-01 -3.299104571342468262e-01 -4.773266240954399109e-02 -3.222469091415405273e-01
3.821000000000000000e+03 3.606575012207031250e+01 -5.493819713592529297e+00 1.765368282794952393e-01 -2.773509621620178223e-01 -3.024423867464065552e-02 -3.399102985858917236e-01
3.822000000000000000e+03 6.759660339355468750e+01 -1.669752311706542969e+01 1.188879758119583130e-01 4.493130683898925781e+00 1.383605718612670898e+00 1.940709650516510010e-01
3.823000000000000000e+03 6.567550659179687500e+01 -1.559815883636474609e+01 1.559662073850631714e-01 4.165091514587402344e+00 1.296317219734191895e+00 2.134551703929901123e-01
3.824000000000000000e+03 6.462976074218750000e+01 8.501521110534667969e+00 5.873450636863708496e-01 3.431864738464355469e+00 1.205762982368469238e+00 7.989576458930969238e-01
3.825000000000000000e+03 6.428892517089843750e+01 -6.838974356651306152e-01 4.273048043251037598e-01 3.733332872390747070e+00 1.248191356658935547e+00 5.157337188720703125e-01
3.826000000000000000e+03 6.451300048828125000e+01 -6.195585727691650391e+00 3.107216656208038330e-01 3.897874593734741211e+00 1.262578845024108887e+00 3.857120573520660400e-01
3.827000000000000000e+03 3.668288803100585938e+01 -1.226377677917480469e+01 1.627100557088851929e-01 -1.705913394689559937e-01 -2.364385407418012619e-03 -2.162961363792419434e-01
3.828000000000000000e+03 3.351883316040039062e+01 -8.507893562316894531e+00 1.273742169141769409e-01 -5.794559717178344727e-01 -1.356245279312133789e-01 -2.884948253631591797e-01
3.829000000000000000e+03 6.536493682861328125e+01 -1.376984786987304688e+01 1.797389239072799683e-01 4.102469921112060547e+00 1.284662723541259766e+00 2.359615266323089600e-01
3.830000000000000000e+03 6.543340301513671875e+01 -1.991386795043945312e+01 1.165949329733848572e-01 4.136530876159667969e+00 1.275937676429748535e+00 1.590714603662490845e-01
3.831000000000000000e+03 6.331814193725585938e+01 -2.848133468627929688e+01 7.749984413385391235e-02 3.765108823776245117e+00 1.152782559394836426e+00 8.954613655805587769e-02
3.832000000000000000e+03 3.238102722167968750e+01 -3.025582122802734375e+01 4.861523211002349854e-02 -6.676757931709289551e-01 -1.857181638479232788e-01 -3.303105756640434265e-02
3.833000000000000000e+03 7.071210479736328125e+01 -3.780353164672851562e+01 2.303646877408027649e-02 4.926009178161621094e+00 1.484713792800903320e+00 1.326734945178031921e-02
3.834000000000000000e+03 7.024279022216796875e+01 2.483116912841796875e+01 -5.237209200859069824e-01 5.246230125427246094e+00 1.416752815246582031e+00 2.790186643600463867e+00
3.835000000000000000e+03 4.390319824218750000e+01 2.031664276123046875e+01 -3.871324956417083740e-01 4.329052567481994629e-02 -1.031525880098342896e-01 -7.550066709518432617e-01
3.836000000000000000e+03 6.663132476806640625e+01 2.183723449707031250e+01 7.556746900081634521e-02 2.646506309509277344e+00 8.166221380233764648e-01 1.473429441452026367e+00
3.837000000000000000e+03 4.204099655151367188e+01 2.179331779479980469e+01 -4.764561653137207031e-01 2.044521458446979523e-02 -1.368032842874526978e-01 -7.237347364425659180e-01
3.838000000000000000e+03 4.310213470458984375e+01 2.145367050170898438e+01 -4.712855517864227295e-01 3.613892942667007446e-02 -1.305439919233322144e-01 -7.389389276504516602e-01
3.839000000000000000e+03 6.892293548583984375e+01 2.360968780517578125e+01 -2.171520292758941650e-01 3.880122900009155273e+00 1.098891258239746094e+00 2.215159177780151367e+00
3.840000000000000000e+03 6.859088897705078125e+01 2.295193481445312500e+01 -1.278368681669235229e-01 3.775209188461303711e+00 1.094211697578430176e+00 2.074189662933349609e+00
3.841000000000000000e+03 4.135322189331054688e+01 2.167790412902832031e+01 -4.471856355667114258e-01 8.378462865948677063e-03 -1.316421478986740112e-01 -7.206584811210632324e-01
3.842000000000000000e+03 5.944470977783203125e+01 1.934740447998046875e+01 1.298535913228988647e-01 8.553522825241088867e-01 2.955617606639862061e-01 1.238216236233711243e-01
3.843000000000000000e+03 6.475359344482421875e+01 2.075019454956054688e+01 1.922154128551483154e-01 1.960878849029541016e+00 6.459282636642456055e-01 1.034107208251953125e+00
3.844000000000000000e+03 4.938411712646484375e+01 2.159521675109863281e+01 -5.782668590545654297e-01 1.100439280271530151e-01 -1.404668837785720825e-01 -6.897653937339782715e-01
3.845000000000000000e+03 6.348449707031250000e+01 2.034291839599609375e+01 2.142385691404342651e-01 1.608928918838500977e+00 5.469502806663513184e-01 7.771999835968017578e-01
3.846000000000000000e+03 6.973615264892578125e+01 2.194166564941406250e+01 -2.268988341093063354e-01 5.000953674316406250e+00 1.432216405868530273e+00 2.067130088806152344e+00
3.847000000000000000e+03 4.922365951538085938e+01 2.071314048767089844e+01 -4.567639827728271484e-01 1.229904741048812866e-01 -1.001320555806159973e-01 -6.891466975212097168e-01
3.848000000000000000e+03 6.125260162353515625e+01 1.937413406372070312e+01 2.292126715183258057e-01 1.187325477600097656e+00 4.249614179134368896e-01 4.086330533027648926e-01
3.849000000000000000e+03 5.613114929199218750e+01 2.036037254333496094e+01 -2.194489091634750366e-01 3.923865556716918945e-01 5.188129097223281860e-02 -3.182344436645507812e-01
3.850000000000000000e+03 5.473083877563476562e+01 2.028202629089355469e+01 -2.628647685050964355e-01 3.176772892475128174e-01 1.644375734031200409e-02 -4.299536347389221191e-01
3.851000000000000000e+03 5.545687103271484375e+01 1.941464042663574219e+01 -9.517595171928405762e-02 4.235660731792449951e-01 9.851703792810440063e-02 -3.277527689933776855e-01
3.852000000000000000e+03 6.902354431152343750e+01 2.423448944091796875e+01 -2.385213822126388550e-01 3.835403203964233398e+00 1.079064607620239258e+00 2.308412790298461914e+00
3.853000000000000000e+03 3.616710662841796875e+01 2.120529174804687500e+01 -2.953692376613616943e-01 -1.063592880964279175e-01 -1.205185577273368835e-01 -6.466193795204162598e-01
3.854000000000000000e+03 3.558728408813476562e+01 1.946304130554199219e+01 -2.105203121900558472e-01 -1.624317020177841187e-01 -1.118856072425842285e-01 -6.698839664459228516e-01
3.855000000000000000e+03 4.787961959838867188e+01 1.981728935241699219e+01 -3.472502529621124268e-01 1.192739754915237427e-01 -6.839288026094436646e-02 -7.186577916145324707e-01
3.856000000000000000e+03 5.022988128662109375e+01 2.135225105285644531e+01 -5.438258647918701172e-01 1.294263899326324463e-01 -1.243198513984680176e-01 -6.718320250511169434e-01
3.857000000000000000e+03 3.752432250976562500e+01 1.553490257263183594e+01 -6.854344159364700317e-02 -1.631149053573608398e-01 -6.949750334024429321e-02 -7.298842668533325195e-01
3.858000000000000000e+03 4.249993515014648438e+01 2.005348205566406250e+01 -3.520312309265136719e-01 1.981457509100437164e-02 -9.966499358415603638e-02 -7.587813735008239746e-01
3.859000000000000000e+03 5.301691055297851562e+01 2.132511901855468750e+01 -5.153269171714782715e-01 1.736567318439483643e-01 -1.025010570883750916e-01 -5.691431760787963867e-01
3.860000000000000000e+03 4.597914505004882812e+01 2.026914787292480469e+01 -3.897812068462371826e-01 8.091085404157638550e-02 -9.266110509634017944e-02 -7.459058165550231934e-01
3.861000000000000000e+03 6.792167663574218750e+01 1.627737426757812500e+01 3.709244728088378906e-01 4.149041175842285156e+00 1.355989694595336914e+00 1.356180429458618164e+00
3.862000000000000000e+03 3.618833541870117188e+01 1.995667839050292969e+01 -2.358686327934265137e-01 -1.366884708404541016e-01 -1.117671355605125427e-01 -6.768056750297546387e-01
3.863000000000000000e+03 3.732249832153320312e+01 2.604426383972167969e+00 2.049127817153930664e-01 -2.019419074058532715e-01 8.912649354897439480e-04 -5.100473165512084961e-01
3.864000000000000000e+03 3.723390197753906250e+01 3.970408916473388672e+00 1.951745450496673584e-01 -2.150725424289703369e-01 -5.969397723674774170e-03 -5.411524176597595215e-01
3.865000000000000000e+03 3.607865905761718750e+01 6.564710617065429688e+00 1.414297670125961304e-01 -3.000545799732208252e-01 -4.758744314312934875e-02 -5.989242196083068848e-01
3.866000000000000000e+03 3.728390502929687500e+01 1.075893497467041016e+01 8.317471295595169067e-02 -2.128454297780990601e-01 -3.890121355652809143e-02 -6.804236769676208496e-01
3.867000000000000000e+03 5.877572631835937500e+01 1.977440261840820312e+01 2.764076739549636841e-02 7.018367052078247070e-01 2.188432365655899048e-01 1.004113070666790009e-02
3.868000000000000000e+03 3.740181732177734375e+01 2.098179817199707031e+01 -3.151763975620269775e-01 -8.314698189496994019e-02 -1.194970160722732544e-01 -6.753451228141784668e-01
3.869000000000000000e+03 5.243781280517578125e+01 2.107506370544433594e+01 -4.747464358806610107e-01 1.800944954156875610e-01 -8.839558809995651245e-02 -5.917820930480957031e-01
3.870000000000000000e+03 6.615232849121093750e+01 1.521331501007080078e+01 5.001782178878784180e-01 3.441633224487304688e+00 1.182543516159057617e+00 1.154672265052795410e+00
3.871000000000000000e+03 6.513110351562500000e+01 1.079691123962402344e+01 5.857354402542114258e-01 3.441594600677490234e+00 1.208199024200439453e+00 9.019008278846740723e-01
3.872000000000000000e+03 6.567111968994140625e+01 1.226673221588134766e+01 5.664588809013366699e-01 3.522921800613403320e+00 1.226814150810241699e+00 9.913074970245361328e-01
3.873000000000000000e+03 6.211479187011718750e+01 -3.601968526840209961e+00 4.087061285972595215e-01 3.372987747192382812e+00 1.134508132934570312e+00 3.919343948364257812e-01
3.874000000000000000e+03 6.566194152832031250e+01 -3.238944768905639648e+00 3.319646120071411133e-01 4.093219280242919922e+00 1.327555179595947266e+00 4.820766150951385498e-01
3.875000000000000000e+03 3.967199707031250000e+01 2.105326652526855469e+01 -3.742472827434539795e-01 -3.123185783624649048e-02 -1.216437444090843201e-01 -7.087680101394653320e-01
3.876000000000000000e+03 4.005083465576171875e+01 2.290044593811035156e+01 -5.010374188423156738e-01 2.584399189800024033e-03 -1.495358943939208984e-01 -6.637512445449829102e-01
3.877000000000000000e+03 3.759172821044921875e+01 1.434679317474365234e+01 -2.080114185810089111e-02 -1.731278300285339355e-01 -5.817868933081626892e-02 -7.247583270072937012e-01
3.878000000000000000e+03 6.296333312988281250e+01 8.939971923828125000e-01 4.935102760791778564e-01 3.410181760787963867e+00 1.171107649803161621e+00 5.194234848022460938e-01
3.879000000000000000e+03 6.456969451904296875e+01 -4.753569126129150391e+00 3.360372781753540039e-01 3.896308660507202148e+00 1.269703745841979980e+00 4.127908051013946533e-01
3.880000000000000000e+03 6.228886413574218750e+01 -7.578877449035644531e+00 3.328312337398529053e-01 3.509242296218872070e+00 1.152622103691101074e+00 3.223184049129486084e-01
3.881000000000000000e+03 6.332896041870117188e+01 -4.776520252227783203e+00 3.617054522037506104e-01 3.630115747451782227e+00 1.197546362876892090e+00 3.925092518329620361e-01
3.882000000000000000e+03 6.748582458496093750e+01 1.743490028381347656e+01 3.520793318748474121e-01 3.832445859909057617e+00 1.255357623100280762e+00 1.389621138572692871e+00
3.883000000000000000e+03 6.235174179077148438e+01 1.987640380859375000e+01 2.175650596618652344e-01 1.365940928459167480e+00 4.750517904758453369e-01 5.816865563392639160e-01
3.884000000000000000e+03 3.848871994018554688e+01 1.089558982849121094e+01 9.949158877134323120e-02 -1.496298909187316895e-01 -1.504149287939071655e-02 -6.873313188552856445e-01
3.885000000000000000e+03 4.056518173217773438e+01 2.187073135375976562e+01 -4.438933730125427246e-01 -2.170021180063486099e-03 -1.338190287351608276e-01 -7.072520852088928223e-01
3.886000000000000000e+03 6.355534362792968750e+01 8.406571388244628906e+00 6.097670197486877441e-01 3.151264667510986328e+00 1.128309488296508789e+00 7.334284186363220215e-01
3.887000000000000000e+03 6.293568801879882812e+01 -1.949586677551269531e+01 1.443519592285156250e-01 3.728213787078857422e+00 1.161769747734069824e+00 1.458826214075088501e-01
3.888000000000000000e+03 3.622969055175781250e+01 -7.009948492050170898e-01 1.951761096715927124e-01 -2.883529365062713623e-01 -2.795304730534553528e-02 -4.397309720516204834e-01
3.889000000000000000e+03 6.609048461914062500e+01 6.557394027709960938e+00 5.127778053283691406e-01 3.971783876419067383e+00 1.345368504524230957e+00 8.124582767486572266e-01
3.890000000000000000e+03 6.475739288330078125e+01 6.261889457702636719e+00 5.496166348457336426e-01 3.591488122940063477e+00 1.242331385612487793e+00 7.371165752410888672e-01
3.891000000000000000e+03 3.722027206420898438e+01 5.284641742706298828e+00 1.794648915529251099e-01 -2.186735719442367554e-01 -1.176260132342576981e-02 -5.738687515258789062e-01
3.892000000000000000e+03 6.187035369873046875e+01 -1.101360988616943359e+01 2.783600389957427979e-01 3.470800399780273438e+00 1.124748110771179199e+00 2.662930190563201904e-01
3.893000000000000000e+03 6.356325531005859375e+01 -1.229720401763916016e+01 2.294413745403289795e-01 3.786716461181640625e+00 1.204847335815429688e+00 2.586277723312377930e-01
3.894000000000000000e+03 3.618222045898437500e+01 -4.051311969757080078e+00 1.905010640621185303e-01 -2.746942043304443359e-01 -2.525794692337512970e-02 -3.670481741428375244e-01
3.895000000000000000e+03 3.623606109619140625e+01 -2.390811681747436523e+00 1.885142624378204346e-01 -2.809475660324096680e-01 -2.772998996078968048e-02 -4.022615253925323486e-01
3.896000000000000000e+03 3.311667633056640625e+01 -7.272072792053222656e+00 1.221088767051696777e-01 -6.282483339309692383e-01 -1.518418341875076294e-01 -3.076576590538024902e-01
3.897000000000000000e+03 6.420848846435546875e+01 1.274014234542846680e+00 4.751814901828765869e-01 3.651570320129394531e+00 1.238025546073913574e+00 5.716719627380371094e-01
3.898000000000000000e+03 3.471238708496093750e+01 -7.584930896759033203e+00 1.551000624895095825e-01 -4.193865954875946045e-01 -7.928596436977386475e-02 -3.050765693187713623e-01
3.899000000000000000e+03 3.749992370605468750e+01 -7.975937843322753906e+00 2.038516104221343994e-01 -1.036752313375473022e-01 3.005291149020195007e-02 -2.782590985298156738e-01
3.900000000000000000e+03 3.900402450561523438e+01 -1.111765766143798828e+01 1.986933648586273193e-01 1.033026948571205139e-01 9.059882164001464844e-02 -2.125533223152160645e-01
3.901000000000000000e+03 3.254263305664062500e+01 -1.964824295043945312e+01 8.953610807657241821e-02 -6.848572492599487305e-01 -1.785963326692581177e-01 -1.342372745275497437e-01
3.902000000000000000e+03 3.443383407592773438e+01 -2.054755020141601562e+01 9.131482243537902832e-02 -4.481726884841918945e-01 -1.070573627948760986e-01 -1.211544871330261230e-01
3.903000000000000000e+03 3.754347229003906250e+01 7.969987392425537109e+00 1.501635313034057617e-01 -1.968924999237060547e-01 -1.401869114488363266e-02 -6.307700872421264648e-01
3.904000000000000000e+03 6.375905990600585938e+01 -1.410451126098632812e+01 2.025292068719863892e-01 3.821153402328491211e+00 1.207104802131652832e+00 2.319963574409484863e-01
3.905000000000000000e+03 3.861270141601562500e+01 -8.667621612548828125e+00 2.149007469415664673e-01 3.103537671267986298e-02 7.378083467483520508e-02 -2.545675933361053467e-01
3.906000000000000000e+03 3.533580398559570312e+01 -1.119132995605468750e+01 1.494228839874267578e-01 -3.421290516853332520e-01 -5.781185254454612732e-02 -2.439093738794326782e-01
3.907000000000000000e+03 4.357248306274414062e+01 1.931041145324707031e+01 -2.943795919418334961e-01 3.820383921265602112e-02 -7.685272395610809326e-02 -7.609834074974060059e-01
3.908000000000000000e+03 4.307398605346679688e+01 1.792061042785644531e+01 -1.848599910736083984e-01 3.244152292609214783e-02 -4.572553932666778564e-02 -7.626143693923950195e-01
3.909000000000000000e+03 6.911884307861328125e+01 2.252463531494140625e+01 -1.678589731454849243e-01 4.340703964233398438e+00 1.251853466033935547e+00 2.085671186447143555e+00
3.910000000000000000e+03 6.959767913818359375e+01 2.329641723632812500e+01 -3.075866699218750000e-01 4.684406280517578125e+00 1.313045859336853027e+00 2.287768840789794922e+00
3.911000000000000000e+03 5.377002334594726562e+01 1.996479415893554688e+01 -2.429226487874984741e-01 2.928571403026580811e-01 1.498035062104463577e-02 -4.840529263019561768e-01
3.912000000000000000e+03 5.108282852172851562e+01 2.102804565429687500e+01 -4.871536195278167725e-01 1.530935466289520264e-01 -1.002180278301239014e-01 -6.408519744873046875e-01
3.913000000000000000e+03 6.602275848388671875e+01 2.216577339172363281e+01 7.656940072774887085e-02 2.217313766479492188e+00 6.881649494171142578e-01 1.332079529762268066e+00
3.914000000000000000e+03 4.187042617797851562e+01 2.060185432434082031e+01 -3.957905173301696777e-01 1.040145009756088257e-02 -1.156167238950729370e-01 -7.418502569198608398e-01
3.915000000000000000e+03 6.556951904296875000e+01 1.595771980285644531e+01 4.937836229801177979e-01 3.129442453384399414e+00 1.086967825889587402e+00 1.121181011199951172e+00
3.916000000000000000e+03 6.738472747802734375e+01 2.154210281372070312e+01 7.423231005668640137e-02 3.130626916885375977e+00 9.614577293395996094e-01 1.652256608009338379e+00
3.917000000000000000e+03 5.826116180419921875e+01 1.905085945129394531e+01 1.043180078268051147e-01 7.265775799751281738e-01 2.492686659097671509e-01 -1.493399217724800110e-02
3.918000000000000000e+03 5.304496765136718750e+01 2.042565155029296875e+01 -3.383077681064605713e-01 2.331634461879730225e-01 -3.154329210519790649e-02 -5.418729782104492188e-01
3.919000000000000000e+03 5.602655792236328125e+01 1.843615341186523438e+01 6.768137216567993164e-02 5.613852739334106445e-01 1.887200027704238892e-01 -2.327335774898529053e-01
3.920000000000000000e+03 3.901737213134765625e+01 1.771395111083984375e+01 -1.705435514450073242e-01 -8.622809499502182007e-02 -7.703149318695068359e-02 -7.482030987739562988e-01
3.921000000000000000e+03 4.273381042480468750e+01 1.931607055664062500e+01 -2.924589812755584717e-01 1.905772835016250610e-02 -8.202037960290908813e-02 -7.592582702636718750e-01
3.922000000000000000e+03 6.682783508300781250e+01 1.940353965759277344e+01 2.771448493003845215e-01 3.228746414184570312e+00 1.051767349243164062e+00 1.417377591133117676e+00
3.923000000000000000e+03 6.829797363281250000e+01 2.385589408874511719e+01 -1.750612854957580566e-01 3.173974990844726562e+00 8.996741175651550293e-01 2.060192346572875977e+00
3.924000000000000000e+03 6.765609741210937500e+01 2.245659637451171875e+01 3.111328114755451679e-04 3.146419286727905273e+00 9.440191388130187988e-01 1.750080585479736328e+00
3.925000000000000000e+03 4.198448562622070312e+01 1.953182601928710938e+01 -3.011938929557800293e-01 6.978125311434268951e-04 -9.014882147312164307e-02 -7.532573342323303223e-01
3.926000000000000000e+03 6.791583251953125000e+01 2.029104232788085938e+01 1.497372239828109741e-01 3.783156871795654297e+00 1.179868221282958984e+00 1.639126658439636230e+00
3.927000000000000000e+03 6.010924911499023438e+01 1.893765830993652344e+01 2.189027070999145508e-01 1.035645365715026855e+00 3.763644397258758545e-01 2.446433603763580322e-01
3.928000000000000000e+03 5.457578659057617188e+01 1.963081550598144531e+01 -1.677734702825546265e-01 3.551437556743621826e-01 5.621108785271644592e-02 -4.131635427474975586e-01
3.929000000000000000e+03 5.633536911010742188e+01 1.914364814758300781e+01 -1.561783719807863235e-02 5.178382396697998047e-01 1.506661176681518555e-01 -2.390542179346084595e-01
3.930000000000000000e+03 4.903182983398437500e+01 1.988749885559082031e+01 -3.313515782356262207e-01 1.458421349525451660e-01 -5.565282702445983887e-02 -6.918479204177856445e-01
3.931000000000000000e+03 5.072567749023437500e+01 2.016044616699218750e+01 -3.483912050724029541e-01 1.821458786725997925e-01 -4.987359419465065002e-02 -6.387676000595092773e-01
3.932000000000000000e+03 5.149711227416992188e+01 1.966578674316406250e+01 -2.697819173336029053e-01 2.143646180629730225e-01 -1.662518829107284546e-02 -5.997596383094787598e-01
3.933000000000000000e+03 4.543143844604492188e+01 1.942636489868164062e+01 -3.107521235942840576e-01 7.856512069702148438e-02 -6.965610384941101074e-02 -7.534222006797790527e-01
3.934000000000000000e+03 4.664780426025390625e+01 1.971069145202636719e+01 -3.390377759933471680e-01 9.852734953165054321e-02 -7.215312868356704712e-02 -7.384290695190429688e-01
3.935000000000000000e+03 6.615143585205078125e+01 2.090457534790039062e+01 1.904415041208267212e-01 2.601124286651611328e+00 8.374697566032409668e-01 1.349233150482177734e+00
3.936000000000000000e+03 6.471208190917968750e+01 7.443765163421630859e+00 5.671175718307495117e-01 3.514269828796386719e+00 1.224416255950927734e+00 7.740790843963623047e-01
3.937000000000000000e+03 6.514137268066406250e+01 5.121257305145263672e+00 5.244693756103515625e-01 3.742882490158081055e+00 1.280205488204956055e+00 7.243471145629882812e-01
3.938000000000000000e+03 5.349547958374023438e+01 1.934178924560546875e+01 -1.633608341217041016e-01 3.235679566860198975e-01 4.806213825941085815e-02 -4.805090427398681641e-01
3.939000000000000000e+03 6.509958648681640625e+01 1.318548679351806641e+01 5.765350461006164551e-01 3.247661352157592773e+00 1.147258877754211426e+00 9.801508784294128418e-01
3.940000000000000000e+03 6.602001953125000000e+01 1.377703762054443359e+01 5.400406718254089355e-01 3.529969692230224609e+00 1.221003174781799316e+00 1.079446434974670410e+00
3.941000000000000000e+03 6.545088958740234375e+01 2.006189346313476562e+01 2.768600583076477051e-01 2.447952985763549805e+00 8.174439072608947754e-01 1.199856519699096680e+00
3.942000000000000000e+03 6.686812591552734375e+01 1.840348434448242188e+01 3.408193886280059814e-01 3.417475938796997070e+00 1.127488613128662109e+00 1.365457057952880859e+00
3.943000000000000000e+03 3.876486968994140625e+01 1.658318519592285156e+01 -1.125163957476615906e-01 -1.064064428210258484e-01 -6.567685306072235107e-02 -7.450118660926818848e-01
3.944000000000000000e+03 3.790755462646484375e+01 2.001152420043945312e+01 -2.728347778320312500e-01 -8.882538974285125732e-02 -1.084980443120002747e-01 -7.052536606788635254e-01
3.945000000000000000e+03 4.120635604858398438e+01 2.103592491149902344e+01 -4.079883098602294922e-01 1.389800454489886761e-03 -1.219795495271682739e-01 -7.283177971839904785e-01
3.946000000000000000e+03 3.877201843261718750e+01 2.067672348022460938e+01 -3.348755240440368652e-01 -5.232930928468704224e-02 -1.161614507436752319e-01 -7.072211503982543945e-01
3.947000000000000000e+03 3.752393722534179688e+01 9.365979194641113281e+00 1.235279291868209839e-01 -1.997075676918029785e-01 -2.285389229655265808e-02 -6.567053794860839844e-01
3.948000000000000000e+03 3.732544326782226562e+01 6.606475830078125000e+00 1.663875281810760498e-01 -2.110113203525543213e-01 -1.338713709264993668e-02 -6.012888550758361816e-01
3.949000000000000000e+03 6.335834121704101562e+01 -6.040040969848632812e+00 3.308524787425994873e-01 3.660512447357177734e+00 1.197409510612487793e+00 3.766803443431854248e-01
3.950000000000000000e+03 3.580425262451171875e+01 1.850016975402832031e+01 -1.805979460477828979e-01 -1.763035804033279419e-01 -1.070704609155654907e-01 -6.862883567810058594e-01
3.951000000000000000e+03 3.767265701293945312e+01 1.683977127075195312e+01 -1.219416707754135132e-01 -1.438123881816864014e-01 -7.972621917724609375e-02 -7.322697639465332031e-01
3.952000000000000000e+03 3.852508163452148438e+01 2.867390394210815430e+00 2.337553054094314575e-01 -1.031930819153785706e-01 3.916866704821586609e-02 -5.081778168678283691e-01
3.953000000000000000e+03 3.838236236572265625e+01 4.137606143951416016e+00 2.168807685375213623e-01 -1.243232339620590210e-01 2.776726149022579193e-02 -5.397678017616271973e-01
3.954000000000000000e+03 6.251725387573242188e+01 1.888783454895019531e+01 3.328489065170288086e-01 1.608353257179260254e+00 5.823606252670288086e-01 6.583203673362731934e-01
3.955000000000000000e+03 6.618103027343750000e+01 1.648523902893066406e+01 4.580594003200531006e-01 3.325684070587158203e+00 1.135123014450073242e+00 1.209925532341003418e+00
3.956000000000000000e+03 4.030677795410156250e+01 1.096881675720214844e+01 1.362474560737609863e-01 -3.747120127081871033e-02 2.963287569582462311e-02 -6.822817921638488770e-01
3.957000000000000000e+03 6.351745605468750000e+01 9.259189605712890625e+00 6.220253705978393555e-01 3.077022314071655273e+00 1.109714269638061523e+00 7.438142895698547363e-01
3.958000000000000000e+03 3.671269226074218750e+01 2.049273681640625000e+01 -2.797270417213439941e-01 -1.058397442102432251e-01 -1.156700327992439270e-01 -6.736066341400146484e-01
3.959000000000000000e+03 6.431469726562500000e+01 2.426400423049926758e+00 4.901853799819946289e-01 3.633788585662841797e+00 1.237192153930664062e+00 5.998503565788269043e-01
3.960000000000000000e+03 6.507711791992187500e+01 3.407737731933593750e+00 4.891077876091003418e-01 3.817170381546020508e+00 1.291883468627929688e+00 6.614916920661926270e-01
3.961000000000000000e+03 3.764670562744140625e+01 -4.117582321166992188e+00 2.161562591791152954e-01 -1.143335849046707153e-01 3.054680302739143372e-02 -3.573822379112243652e-01
3.962000000000000000e+03 3.617771148681640625e+01 9.047503471374511719e-01 1.860330998897552490e-01 -2.948954701423645020e-01 -3.265871107578277588e-02 -4.753545224666595459e-01
3.963000000000000000e+03 3.885994338989257812e+01 9.708448410034179688e+00 1.394552290439605713e-01 -1.237491965293884277e-01 4.711808636784553528e-03 -6.617401838302612305e-01
3.964000000000000000e+03 6.230440139770507812e+01 1.955225944519042969e+00 5.384753346443176270e-01 3.214117527008056641e+00 1.125777840614318848e+00 5.123960375785827637e-01
3.965000000000000000e+03 6.299420547485351562e+01 -2.067954063415527344e+00 4.252655506134033203e-01 3.477550506591796875e+00 1.170844793319702148e+00 4.427359402179718018e-01
3.966000000000000000e+03 6.180969619750976562e+01 -2.528278827667236328e+00 4.449197649955749512e-01 3.264332532882690430e+00 1.112775683403015137e+00 3.999786376953125000e-01
3.967000000000000000e+03 6.294939804077148438e+01 -5.926796793937683105e-01 4.582042992115020752e-01 3.446070194244384766e+00 1.171282291412353516e+00 4.845666885375976562e-01
3.968000000000000000e+03 6.222776794433593750e+01 -1.627408409118652344e+01 1.916154325008392334e-01 3.583591938018798828e+00 1.132562160491943359e+00 1.848648637533187866e-01
3.969000000000000000e+03 3.903884506225585938e+01 -1.731843566894531250e+01 1.550734341144561768e-01 1.780211180448532104e-01 9.992836415767669678e-02 -1.338284313678741455e-01
3.970000000000000000e+03 3.715595626831054688e+01 -5.815567016601562500e+00 1.988078653812408447e-01 -1.597410589456558228e-01 1.172004081308841705e-02 -3.263591527938842773e-01
3.971000000000000000e+03 3.890858078002929688e+01 -4.641122341156005859e+00 2.395591735839843750e-01 9.846892207860946655e-03 7.482182234525680542e-02 -3.350393474102020264e-01
3.972000000000000000e+03 3.203838348388671875e+01 -8.974083900451660156e+00 1.049934029579162598e-01 -7.398012876510620117e-01 -1.904423683881759644e-01 -2.810475826263427734e-01
3.973000000000000000e+03 6.111701583862304688e+01 -3.477112293243408203e+00 4.308035373687744141e-01 3.133376359939575195e+00 1.069253921508789062e+00 3.670803904533386230e-01
3.974000000000000000e+03 3.832490921020507812e+01 5.327094554901123047e+00 2.097396403551101685e-01 -1.391562521457672119e-01 2.117501944303512573e-02 -5.681074857711791992e-01
3.975000000000000000e+03 6.114410400390625000e+01 -9.505616188049316406e+00 3.100228905677795410e-01 3.312426567077636719e+00 1.086734890937805176e+00 2.720379233360290527e-01
3.976000000000000000e+03 3.553423309326171875e+01 -8.611563682556152344e+00 1.652350127696990967e-01 -3.262648284435272217e-01 -4.830894246697425842e-02 -2.876181602478027344e-01
3.977000000000000000e+03 3.922570037841796875e+01 -1.528955459594726562e+01 1.813885420560836792e-01 1.857480257749557495e-01 1.101409718394279480e-01 -1.539258360862731934e-01
3.978000000000000000e+03 3.767661666870117188e+01 -1.487211322784423828e+01 1.680737286806106567e-01 -1.609417982399463654e-02 4.559386521577835083e-02 -1.733418703079223633e-01
3.979000000000000000e+03 3.779199981689453125e+01 -2.261846303939819336e+00 2.314295619726181030e-01 -1.146289855241775513e-01 3.504017367959022522e-02 -3.925425708293914795e-01
3.980000000000000000e+03 3.761821365356445312e+01 -4.827378988265991211e-01 2.218561619520187378e-01 -1.494720876216888428e-01 2.171522565186023712e-02 -4.382733106613159180e-01
3.981000000000000000e+03 6.455653381347656250e+01 1.405835533142089844e+01 5.847795009613037109e-01 2.964583873748779297e+00 1.064809083938598633e+00 9.516856670379638672e-01
3.982000000000000000e+03 4.727869415283203125e+01 1.905180549621582031e+01 -2.658003568649291992e-01 1.238599643111228943e-01 -4.258212074637413025e-02 -7.248669862747192383e-01
3.983000000000000000e+03 5.436934280395507812e+01 1.893742179870605469e+01 -6.586471945047378540e-02 3.982531428337097168e-01 9.971652925014495850e-02 -4.004518389701843262e-01
3.984000000000000000e+03 6.701233673095703125e+01 2.050605010986328125e+01 1.998068690299987793e-01 3.151806831359863281e+00 1.005484104156494141e+00 1.504951357841491699e+00
3.985000000000000000e+03 4.157531738281250000e+01 1.885204887390136719e+01 -2.546831071376800537e-01 -1.149097271263599396e-02 -7.985222339630126953e-02 -7.591074705123901367e-01
3.986000000000000000e+03 5.777408981323242188e+01 1.828106307983398438e+01 1.809506267309188843e-01 7.632039189338684082e-01 2.832463681697845459e-01 -3.436386212706565857e-02
3.987000000000000000e+03 5.524032592773437500e+01 1.865459251403808594e+01 9.904274716973304749e-03 4.846904873847961426e-01 1.483784317970275879e-01 -3.136996328830718994e-01
3.988000000000000000e+03 6.297678375244140625e+01 1.959287452697753906e+01 2.758465409278869629e-01 1.589892745018005371e+00 5.597217679023742676e-01 7.096895575523376465e-01
3.989000000000000000e+03 5.266841506958007812e+01 1.985876846313476562e+01 -2.636128365993499756e-01 2.486323118209838867e-01 -4.494151566177606583e-03 -5.507638454437255859e-01
3.990000000000000000e+03 5.038031005859375000e+01 1.936894607543945312e+01 -2.526133060455322266e-01 1.950745731592178345e-01 -1.726162247359752655e-02 -6.389315724372863770e-01
3.991000000000000000e+03 4.133555221557617188e+01 1.999069404602050781e+01 -3.280284404754638672e-01 -9.416066110134124756e-03 -1.012333557009696960e-01 -7.481012344360351562e-01
3.992000000000000000e+03 6.632528686523437500e+01 1.752135848999023438e+01 4.091821312904357910e-01 3.257825374603271484e+00 1.100102186203002930e+00 1.261788725852966309e+00
3.993000000000000000e+03 4.986758422851562500e+01 1.881072425842285156e+01 -1.958043575286865234e-01 1.975326389074325562e-01 5.184870678931474686e-04 -6.502624154090881348e-01
3.994000000000000000e+03 4.049572372436523438e+01 2.115555953979492188e+01 -4.005016982555389404e-01 -1.139575522392988205e-02 -1.235692352056503296e-01 -7.184016704559326172e-01
3.995000000000000000e+03 3.934419250488281250e+01 1.874562644958496094e+01 -2.293628901243209839e-01 -6.676706671714782715e-02 -8.883898705244064331e-02 -7.432289123535156250e-01
3.996000000000000000e+03 3.863538742065429688e+01 1.541345500946044922e+01 -5.807840451598167419e-02 -1.215314939618110657e-01 -5.388296768069267273e-02 -7.409097552299499512e-01
3.997000000000000000e+03 5.709149169921875000e+01 1.872680854797363281e+01 8.894913643598556519e-02 6.417279243469238281e-01 2.192031294107437134e-01 -1.326916962862014771e-01
3.998000000000000000e+03 5.720341110229492188e+01 1.757019042968750000e+01 2.331281751394271851e-01 7.762029170989990234e-01 3.027993440628051758e-01 -6.872738897800445557e-02
3.999000000000000000e+03 6.825591278076171875e+01 2.132637596130371094e+01 1.320138573646545410e-02 3.857307910919189453e+00 1.161152839660644531e+00 1.799950242042541504e+00
4.000000000000000000e+03 4.429841232299804688e+01 1.909604454040527344e+01 -2.822441160678863525e-01 5.425310507416725159e-02 -6.839730590581893921e-02 -7.595574855804443359e-01
4.001000000000000000e+03 4.608036422729492188e+01 1.888613510131835938e+01 -2.565282881259918213e-01 1.001499965786933899e-01 -4.691348224878311157e-02 -7.438875436782836914e-01
4.002000000000000000e+03 3.668617248535156250e+01 1.722979545593261719e+01 -1.336487531661987305e-01 -1.701637357473373413e-01 -9.114374965429306030e-02 -7.179732322692871094e-01
4.003000000000000000e+03 6.305241775512695312e+01 1.863188743591308594e+01 3.695855438709259033e-01 1.774249792098999023e+00 6.431505680084228516e-01 7.450994253158569336e-01
4.004000000000000000e+03 5.893019866943359375e+01 1.865643692016601562e+01 1.853128522634506226e-01 8.710336685180664062e-01 3.169039487838745117e-01 9.158936142921447754e-02
4.005000000000000000e+03 6.278508758544921875e+01 1.799469184875488281e+01 4.212618768215179443e-01 1.809472680091857910e+00 6.692203879356384277e-01 7.111042737960815430e-01
4.006000000000000000e+03 6.687126159667968750e+01 1.760469627380371094e+01 3.779716193675994873e-01 3.522794008255004883e+00 1.170229673385620117e+00 1.326550602912902832e+00
4.007000000000000000e+03 6.364449310302734375e+01 1.352674579620361328e+01 6.088924407958984375e-01 2.729774713516235352e+00 1.001600146293640137e+00 8.406326174736022949e-01
4.008000000000000000e+03 6.267120742797851562e+01 1.301926136016845703e+01 6.253966689109802246e-01 2.496230125427246094e+00 9.364880323410034180e-01 7.183441519737243652e-01
4.009000000000000000e+03 6.463251495361328125e+01 1.174196052551269531e+01 6.055507063865661621e-01 3.211725473403930664e+00 1.145182847976684570e+00 8.914334774017333984e-01
4.010000000000000000e+03 6.321258163452148438e+01 9.954551696777343750e+00 6.403335928916931152e-01 2.940431833267211914e+00 1.074229717254638672e+00 7.338652014732360840e-01
4.011000000000000000e+03 6.351706695556640625e+01 7.409770488739013672e+00 5.990568995475769043e-01 3.201028108596801758e+00 1.140025496482849121e+00 7.083602547645568848e-01
4.012000000000000000e+03 3.889519119262695312e+01 7.692563533782958984e+00 1.789875626564025879e-01 -1.116561144590377808e-01 2.019943296909332275e-02 -6.182678937911987305e-01
4.013000000000000000e+03 3.958282852172851562e+01 1.305779075622558594e+01 4.580238834023475647e-02 -9.114196151494979858e-02 -1.360187213867902756e-02 -7.197634577751159668e-01
4.014000000000000000e+03 4.175882720947265625e+01 1.702095985412597656e+01 -1.289826035499572754e-01 -6.962564773857593536e-03 -4.078355059027671814e-02 -7.608003616333007812e-01
4.015000000000000000e+03 5.901785659790039062e+01 1.763582229614257812e+01 3.235453069210052490e-01 1.036502599716186523e+00 4.080143868923187256e-01 1.619889885187149048e-01
4.016000000000000000e+03 6.079060363769531250e+01 1.853648757934570312e+01 3.026918470859527588e-01 1.235495328903198242e+00 4.614561200141906738e-01 3.759025633335113525e-01
4.017000000000000000e+03 3.948421096801757812e+01 1.107224464416503906e+01 1.135696917772293091e-01 -9.025084972381591797e-02 6.995653267949819565e-03 -6.926097273826599121e-01
4.018000000000000000e+03 3.934620285034179688e+01 -1.831779122352600098e+00 2.627944350242614746e-01 3.123980946838855743e-02 8.821027725934982300e-02 -3.875829577445983887e-01
4.019000000000000000e+03 3.872214508056640625e+01 1.454280138015747070e+00 2.436582297086715698e-01 -7.095421850681304932e-02 5.181120336055755615e-02 -4.707928895950317383e-01
4.020000000000000000e+03 6.408399200439453125e+01 4.246647357940673828e+00 5.417137742042541504e-01 3.520016431808471680e+00 1.218519091606140137e+00 6.538951992988586426e-01
4.021000000000000000e+03 6.215129470825195312e+01 3.838286399841308594e+00 5.684558749198913574e-01 3.087482690811157227e+00 1.096781611442565918e+00 5.394444465637207031e-01
4.022000000000000000e+03 6.207890701293945312e+01 -6.174486637115478516e+00 3.577134311199188232e-01 3.430858850479125977e+00 1.136571645736694336e+00 3.455379605293273926e-01
4.023000000000000000e+03 6.175244140625000000e+01 8.735321164131164551e-01 5.151628255844116211e-01 3.106998443603515625e+00 1.086648344993591309e+00 4.657639265060424805e-01
4.024000000000000000e+03 4.008081054687500000e+01 2.006937408447265625e+01 -3.135883510112762451e-01 -3.577408194541931152e-02 -1.048087328672409058e-01 -7.357859611511230469e-01
4.025000000000000000e+03 4.076213073730468750e+01 2.052297592163085938e+01 -3.613932430744171143e-01 -1.274013239890336990e-02 -1.122400164604187012e-01 -7.339789867401123047e-01
4.026000000000000000e+03 6.154246139526367188e+01 -4.592099487781524658e-01 4.942184984683990479e-01 3.116554975509643555e+00 1.083232045173645020e+00 4.289627373218536377e-01
4.027000000000000000e+03 4.036486053466796875e+01 4.787693321704864502e-01 2.807072103023529053e-01 9.759911894798278809e-02 1.134919002652168274e-01 -4.260028898715972900e-01
4.028000000000000000e+03 6.485443878173828125e+01 1.543038845062255859e+01 5.378526449203491211e-01 2.907017707824707031e+00 1.033461093902587891e+00 1.020163774490356445e+00
4.029000000000000000e+03 6.540222167968750000e+01 1.461632442474365234e+01 5.433353185653686523e-01 3.219848871231079102e+00 1.128955245018005371e+00 1.057194590568542480e+00
4.030000000000000000e+03 4.062919616699218750e+01 -1.552931499481201172e+01 1.885741055011749268e-01 3.612155318260192871e-01 1.649369001388549805e-01 -1.370229870080947876e-01
4.031000000000000000e+03 6.209431457519531250e+01 -1.246759414672851562e+01 2.480235397815704346e-01 3.521807193756103516e+00 1.130949258804321289e+00 2.427150607109069824e-01
4.032000000000000000e+03 3.649022293090820312e+01 -7.280101776123046875e+00 1.860820204019546509e-01 -2.234884500503540039e-01 -1.122192945331335068e-02 -3.017946779727935791e-01
4.033000000000000000e+03 6.065480422973632812e+01 -7.808607578277587891e+00 3.529285788536071777e-01 3.196152210235595703e+00 1.064724206924438477e+00 2.906444668769836426e-01
4.034000000000000000e+03 6.079540252685546875e+01 -4.722356796264648438e+00 4.078549444675445557e-01 3.131586551666259766e+00 1.061832427978515625e+00 3.332552015781402588e-01
4.035000000000000000e+03 3.898963928222656250e+01 -1.009666025638580322e-01 2.507452964782714844e-01 -2.826292999088764191e-02 6.674470752477645874e-02 -4.290352761745452881e-01
4.036000000000000000e+03 3.941585159301757812e+01 -6.938606262207031250e+00 2.473135739564895630e-01 1.094501093029975891e-01 1.070291027426719666e-01 -2.749108374118804932e-01
4.037000000000000000e+03 6.207867813110351562e+01 -4.831635951995849609e+00 3.797820806503295898e-01 3.389512777328491211e+00 1.130788445472717285e+00 3.738129138946533203e-01
4.038000000000000000e+03 6.162032318115234375e+01 -1.824915504455566406e+01 1.812646687030792236e-01 3.498634099960327148e+00 1.103969693183898926e+00 1.663379669189453125e-01
4.039000000000000000e+03 3.826052474975585938e+01 -6.342947959899902344e+00 2.229151278734207153e-01 -3.818490356206893921e-02 5.541906878352165222e-02 -3.041025102138519287e-01
4.040000000000000000e+03 3.964348220825195312e+01 1.414523124694824219e+01 3.704960225149989128e-03 -8.698283880949020386e-02 -2.498336322605609894e-02 -7.354516386985778809e-01
4.041000000000000000e+03 4.492620468139648438e+01 1.863452529907226562e+01 -2.413765192031860352e-01 7.228617370128631592e-02 -5.072710290551185608e-02 -7.543625831604003906e-01
4.042000000000000000e+03 4.239216995239257812e+01 1.847074508666992188e+01 -2.277898490428924561e-01 1.049334369599819183e-02 -6.518895179033279419e-02 -7.654898166656494141e-01
4.043000000000000000e+03 4.078592300415039062e+01 1.619449234008789062e+01 -8.840312063694000244e-02 -3.963862732052803040e-02 -3.841252624988555908e-02 -7.552767395973205566e-01
4.044000000000000000e+03 4.852937316894531250e+01 1.909446907043457031e+01 -2.533604502677917480e-01 1.549858748912811279e-01 -2.951237559318542480e-02 -6.946002840995788574e-01
4.045000000000000000e+03 4.919456481933593750e+01 1.827299308776855469e+01 -1.468767225742340088e-01 2.007554024457931519e-01 1.616360247135162354e-02 -6.610222458839416504e-01
4.046000000000000000e+03 5.661754226684570312e+01 1.804814529418945312e+01 1.561363786458969116e-01 6.587334871292114258e-01 2.444609701633453369e-01 -1.501106321811676025e-01
4.047000000000000000e+03 6.468376922607421875e+01 1.937886428833007812e+01 3.319970071315765381e-01 2.222078561782836914e+00 7.662226557731628418e-01 1.034351944923400879e+00
4.048000000000000000e+03 5.110120010375976562e+01 1.876823043823242188e+01 -1.596192866563796997e-01 2.448588460683822632e-01 2.557186782360076904e-02 -5.937180519104003906e-01
4.049000000000000000e+03 6.018796920776367188e+01 1.773209190368652344e+01 3.616507947444915771e-01 1.237908840179443359e+00 4.798679053783416748e-01 3.202508985996246338e-01
4.050000000000000000e+03 6.151511001586914062e+01 1.832890319824218750e+01 3.509014248847961426e-01 1.421333909034729004e+00 5.316706299781799316e-01 4.905025959014892578e-01
4.051000000000000000e+03 6.190383529663085938e+01 1.912796211242675781e+01 2.808209359645843506e-01 1.388632655143737793e+00 5.008360743522644043e-01 5.235196948051452637e-01
4.052000000000000000e+03 4.075361251831054688e+01 1.933068275451660156e+01 -2.775278389453887939e-01 -2.701604552567005157e-02 -9.136316925287246704e-02 -7.476975917816162109e-01
4.053000000000000000e+03 4.117108535766601562e+01 1.807250404357910156e+01 -1.992135196924209595e-01 -2.181889675557613373e-02 -6.630972772836685181e-02 -7.630627155303955078e-01
4.054000000000000000e+03 4.791483306884765625e+01 1.833639526367187500e+01 -1.746551990509033203e-01 1.579062938690185547e-01 -5.024673882871866226e-03 -6.996152997016906738e-01
4.055000000000000000e+03 5.595141220092773438e+01 1.776128005981445312e+01 1.677325516939163208e-01 6.380556225776672363e-01 2.417364418506622314e-01 -2.054851949214935303e-01
4.056000000000000000e+03 6.215948486328125000e+01 1.814373016357421875e+01 3.959735333919525146e-01 1.651048064231872559e+00 6.141064763069152832e-01 6.132130622863769531e-01
4.057000000000000000e+03 6.369816970825195312e+01 1.766594314575195312e+01 4.498529732227325439e-01 2.163055896759033203e+00 7.838727235794067383e-01 8.729450106620788574e-01
4.058000000000000000e+03 6.511203002929687500e+01 1.671354866027832031e+01 4.844021499156951904e-01 2.834211587905883789e+00 9.955841302871704102e-01 1.089150190353393555e+00
4.059000000000000000e+03 6.474704742431640625e+01 1.745907592773437500e+01 4.589503407478332520e-01 2.571003198623657227e+00 9.089860916137695312e-01 1.041190385818481445e+00
4.060000000000000000e+03 3.969875717163085938e+01 1.526047515869140625e+01 -4.725026711821556091e-02 -8.156873285770416260e-02 -3.864569962024688721e-02 -7.470881342887878418e-01
4.061000000000000000e+03 3.850047302246093750e+01 1.914373397827148438e+01 -2.416486144065856934e-01 -8.613020181655883789e-02 -9.833364933729171753e-02 -7.267679572105407715e-01
4.062000000000000000e+03 3.926366806030273438e+01 1.968067169189453125e+01 -2.828302383422851562e-01 -5.643730983138084412e-02 -1.017802655696868896e-01 -7.307872772216796875e-01
4.063000000000000000e+03 4.091173553466796875e+01 1.717876243591308594e+01 -1.389552950859069824e-01 -3.424817696213722229e-02 -5.196104198694229126e-02 -7.595510482788085938e-01
4.064000000000000000e+03 6.614592742919921875e+01 1.827019500732421875e+01 3.788985013961791992e-01 3.094238758087158203e+00 1.041941165924072266e+00 1.270667552947998047e+00
4.065000000000000000e+03 6.511745452880859375e+01 1.868355560302734375e+01 3.787415027618408203e-01 2.507461547851562500e+00 8.658608794212341309e-01 1.116985440254211426e+00
4.066000000000000000e+03 6.412288665771484375e+01 1.264173889160156250e+01 6.136220693588256836e-01 2.967571020126342773e+00 1.074357867240905762e+00 8.717074990272521973e-01
4.067000000000000000e+03 5.320829010009765625e+01 1.864820480346679688e+01 -7.535131275653839111e-02 3.504489660263061523e-01 8.252929896116256714e-02 -4.751555919647216797e-01
4.068000000000000000e+03 5.231987380981445312e+01 1.913721084594726562e+01 -1.818932443857192993e-01 2.659438848495483398e-01 2.521518617868423462e-02 -5.436429977416992188e-01
4.069000000000000000e+03 6.358620834350585938e+01 1.123586845397949219e+01 6.284836530685424805e-01 2.923403739929199219e+00 1.065566182136535645e+00 7.947374582290649414e-01
4.070000000000000000e+03 6.258544921875000000e+01 8.519935607910156250e+00 6.255499720573425293e-01 2.862304210662841797e+00 1.046356201171875000e+00 6.648624539375305176e-01
4.071000000000000000e+03 6.273364639282226562e+01 9.345360755920410156e+00 6.403734683990478516e-01 2.859974384307861328e+00 1.050104379653930664e+00 6.884118318557739258e-01
4.072000000000000000e+03 6.070775222778320312e+01 1.707447242736816406e+01 4.267442822456359863e-01 1.446591854095458984e+00 5.620008111000061035e-01 4.131851494312286377e-01
4.073000000000000000e+03 6.193515777587890625e+01 1.480091571807861328e+01 5.843702554702758789e-01 2.061866283416748047e+00 7.938709259033203125e-01 6.331950426101684570e-01
4.074000000000000000e+03 3.979996871948242188e+01 1.028193187713623047e+01 1.508924514055252075e-01 -6.375776976346969604e-02 2.614040300250053406e-02 -6.718429923057556152e-01
4.075000000000000000e+03 4.173859786987304688e+01 1.610941314697265625e+01 -7.684617489576339722e-02 -7.051227148622274399e-03 -2.516922168433666229e-02 -7.533981204032897949e-01
4.076000000000000000e+03 3.977870178222656250e+01 8.724328041076660156e+00 1.836398243904113770e-01 -6.058890745043754578e-02 3.691527619957923889e-02 -6.382756829261779785e-01
4.077000000000000000e+03 6.061807250976562500e+01 -6.164079189300537109e+00 3.829470872879028320e-01 3.149362087249755859e+00 1.059692740440368652e+00 3.076082468032836914e-01
4.078000000000000000e+03 4.172747039794921875e+01 1.238349676132202148e+00 3.158004283905029297e-01 2.116566896438598633e-01 1.582371294498443604e-01 -4.208444654941558838e-01
4.079000000000000000e+03 6.292404556274414062e+01 5.011840820312500000e+00 5.765402913093566895e-01 3.204434633255004883e+00 1.134292483329772949e+00 6.134344935417175293e-01
4.080000000000000000e+03 6.034773254394531250e+01 3.374536752700805664e+00 5.910802483558654785e-01 2.691388130187988281e+00 9.847404956817626953e-01 4.288309216499328613e-01
4.081000000000000000e+03 6.339060592651367188e+01 6.247534751892089844e+00 5.888803005218505859e-01 3.246424198150634766e+00 1.150591373443603516e+00 6.681609749794006348e-01
4.082000000000000000e+03 6.027210617065429688e+01 2.195749044418334961e+00 5.747456550598144531e-01 2.758864402770996094e+00 1.000083088874816895e+00 4.157813787460327148e-01
4.083000000000000000e+03 6.439485168457031250e+01 1.622403526306152344e+01 5.172970294952392578e-01 2.627546310424804688e+00 9.434529542922973633e-01 9.761396050453186035e-01
4.084000000000000000e+03 5.783374023437500000e+01 7.371492385864257812e-01 5.581767559051513672e-01 2.345571041107177734e+00 8.711243867874145508e-01 2.737749814987182617e-01
4.085000000000000000e+03 3.800814437866210938e+01 1.811678695678710938e+01 -1.900330334901809692e-01 -1.121059879660606384e-01 -9.064170718193054199e-02 -7.299897670745849609e-01
4.086000000000000000e+03 4.011082077026367188e+01 -5.162365913391113281e+00 2.711921632289886475e-01 1.706859618425369263e-01 1.325634419918060303e-01 -3.041439950466156006e-01
4.087000000000000000e+03 5.845919418334960938e+01 -9.185209274291992188e+00 3.504302203655242920e-01 2.857551574707031250e+00 9.623945355415344238e-01 2.173213511705398560e-01
4.088000000000000000e+03 6.082058334350585938e+01 -1.184473037719726562e+01 2.778097391128540039e-01 3.310964345932006836e+00 1.076632261276245117e+00 2.358160614967346191e-01
4.089000000000000000e+03 6.214196395874023438e+01 -1.420983600616455078e+01 2.280078679323196411e-01 3.559521436691284180e+00 1.136258721351623535e+00 2.201997339725494385e-01
4.090000000000000000e+03 3.982880401611328125e+01 -9.359045028686523438e+00 2.339593917131423950e-01 1.813577562570571899e-01 1.245951429009437561e-01 -2.290958613157272339e-01
4.091000000000000000e+03 4.084522628784179688e+01 -1.038479447364807129e+00 2.948635220527648926e-01 1.673356592655181885e-01 1.386597603559494019e-01 -3.833211064338684082e-01
4.092000000000000000e+03 6.242221450805664062e+01 7.609108448028564453e+00 6.291134953498840332e-01 2.896373987197875977e+00 1.057646274566650391e+00 6.305098533630371094e-01
4.093000000000000000e+03 3.822977828979492188e+01 -1.293243503570556641e+01 1.921138316392898560e-01 3.213905915617942810e-02 6.727586686611175537e-02 -1.932823508977890015e-01
4.094000000000000000e+03 6.067018127441406250e+01 -1.444278907775878906e+01 2.427056133747100830e-01 3.313817262649536133e+00 1.066956877708435059e+00 2.013482302427291870e-01
4.095000000000000000e+03 5.743417358398437500e+01 -1.565111923217773438e+01 2.443749606609344482e-01 2.802812814712524414e+00 9.141563177108764648e-01 1.473792791366577148e-01
4.096000000000000000e+03 5.779653930664062500e+01 -1.834332275390625000e+01 2.115325033664703369e-01 2.906867980957031250e+00 9.355201721191406250e-01 1.371921896934509277e-01
4.097000000000000000e+03 3.637476730346679688e+01 -2.142244911193847656e+01 1.135627254843711853e-01 -1.850661486387252808e-01 -2.145102806389331818e-02 -1.183693930506706238e-01
4.098000000000000000e+03 5.959917068481445312e+01 6.030160784721374512e-01 5.448433160781860352e-01 2.691165924072265625e+00 9.708027839660644531e-01 3.646732270717620850e-01
4.099000000000000000e+03 6.199440002441406250e+01 1.685215950012207031e+01 4.729029238224029541e-01 1.776515483856201172e+00 6.748254895210266113e-01 6.087769865989685059e-01
4.100000000000000000e+03 6.153533172607421875e+01 1.558469009399414062e+01 5.346153974533081055e-01 1.837111353874206543e+00 7.115179896354675293e-01 5.663847923278808594e-01
4.101000000000000000e+03 4.854304122924804688e+01 1.755830574035644531e+01 -8.480689674615859985e-02 2.008001059293746948e-01 3.479796275496482849e-02 -6.630960106849670410e-01
4.102000000000000000e+03 5.839046859741210938e+01 1.729483985900878906e+01 3.227540254592895508e-01 9.714249968528747559e-01 3.882536888122558594e-01 9.052096307277679443e-02
4.103000000000000000e+03 5.765374374389648438e+01 1.697142601013183594e+01 3.209796249866485596e-01 9.203715920448303223e-01 3.724053502082824707e-01 2.013072744011878967e-02
4.104000000000000000e+03 5.798280334472656250e+01 1.631294059753417969e+01 3.872668445110321045e-01 1.039911150932312012e+00 4.281533956527709961e-01 7.931473851203918457e-02
4.105000000000000000e+03 4.243859481811523438e+01 1.728966140747070312e+01 -1.402565091848373413e-01 1.320731081068515778e-02 -3.811476007103919983e-02 -7.603479623794555664e-01
4.106000000000000000e+03 5.598304367065429688e+01 1.697916793823242188e+01 2.382729351520538330e-01 7.082284688949584961e-01 2.839504182338714600e-01 -1.719201952219009399e-01
4.107000000000000000e+03 3.980075454711914062e+01 1.636267852783203125e+01 -9.857423603534698486e-02 -7.193070650100708008e-02 -5.115148425102233887e-02 -7.532423734664916992e-01
4.108000000000000000e+03 5.507456588745117188e+01 1.786308670043945312e+01 1.115579456090927124e-01 5.465258955955505371e-01 1.974251568317413330e-01 -2.956407964229583740e-01
4.109000000000000000e+03 5.686022567749023438e+01 1.683193778991699219e+01 2.948364913463592529e-01 8.217869997024536133e-01 3.349870443344116211e-01 -7.113646715879440308e-02
4.110000000000000000e+03 6.401655578613281250e+01 1.698031616210937500e+01 4.826911389827728271e-01 2.376011610031127930e+00 8.576108217239379883e-01 9.231662750244140625e-01
4.111000000000000000e+03 5.051746368408203125e+01 1.799271965026855469e+01 -7.902798801660537720e-02 2.605331838130950928e-01 5.445156246423721313e-02 -5.969216823577880859e-01
4.112000000000000000e+03 6.575547027587890625e+01 1.716614723205566406e+01 4.420539736747741699e-01 3.055044889450073242e+00 1.049129724502563477e+00 1.182557821273803711e+00
4.113000000000000000e+03 6.342732620239257812e+01 1.824594688415527344e+01 4.063488841056823730e-01 1.997020244598388672e+00 7.210107445716857910e-01 8.174104094505310059e-01
4.114000000000000000e+03 5.378945159912109375e+01 1.743733215332031250e+01 9.940581768751144409e-02 4.822122752666473389e-01 1.744854301214218140e-01 -3.800702691078186035e-01
4.115000000000000000e+03 4.554869842529296875e+01 1.810555839538574219e+01 -1.852908879518508911e-01 9.572749584913253784e-02 -2.686901763081550598e-02 -7.421869039535522461e-01
4.116000000000000000e+03 4.377375411987304688e+01 1.847519493103027344e+01 -2.229708582162857056e-01 4.278725385665893555e-02 -5.405507981777191162e-02 -7.603536844253540039e-01
4.117000000000000000e+03 6.592565155029296875e+01 1.919388198852539062e+01 3.286552131175994873e-01 2.824571847915649414e+00 9.459681510925292969e-01 1.270678520202636719e+00
4.118000000000000000e+03 4.670358276367187500e+01 1.826791954040527344e+01 -1.871117353439331055e-01 1.240792050957679749e-01 -1.890976168215274811e-02 -7.262167334556579590e-01
4.119000000000000000e+03 6.308947372436523438e+01 1.210655784606933594e+01 6.344415545463562012e-01 2.718043327331542969e+00 1.005745410919189453e+00 7.636443376541137695e-01
4.120000000000000000e+03 4.027980422973632812e+01 1.846254539489746094e+01 -2.204429209232330322e-01 -4.468699172139167786e-02 -7.953897118568420410e-02 -7.547311782836914062e-01
4.121000000000000000e+03 4.013704299926757812e+01 5.753317356109619141e+00 2.551878988742828369e-01 3.143491921946406364e-03 7.749941945075988770e-02 -5.582730174064636230e-01
4.122000000000000000e+03 6.195855712890625000e+01 1.151936912536621094e+01 6.479936242103576660e-01 2.448512077331542969e+00 9.289516806602478027e-01 6.335261464118957520e-01
4.123000000000000000e+03 6.254437255859375000e+01 1.062124538421630859e+01 6.429851055145263672e-01 2.686758518218994141e+00 9.989230632781982422e-01 6.800424456596374512e-01
4.124000000000000000e+03 6.168696975708007812e+01 8.758825302124023438e+00 6.422386765480041504e-01 2.607302188873291016e+00 9.748622775077819824e-01 5.855740904808044434e-01
4.125000000000000000e+03 6.185943222045898438e+01 9.726059913635253906e+00 6.546682715415954590e-01 2.590520143508911133e+00 9.735565185546875000e-01 6.194921731948852539e-01
4.126000000000000000e+03 5.924020767211914062e+01 3.990963459014892578e+00 6.142770051956176758e-01 2.452299356460571289e+00 9.199728965759277344e-01 3.709635734558105469e-01
4.127000000000000000e+03 5.899025726318359375e+01 1.693124413490295410e+00 5.703353285789489746e-01 2.525298118591308594e+00 9.286900758743286133e-01 3.372468054294586182e-01
4.128000000000000000e+03 6.321449661254882812e+01 1.652087593078613281e+01 5.084173083305358887e-01 2.177434206008911133e+00 8.057554960250854492e-01 7.979481816291809082e-01
4.129000000000000000e+03 4.070858764648437500e+01 1.403365325927734375e+01 2.259361185133457184e-02 -3.923771902918815613e-02 -4.993231501430273056e-03 -7.334637045860290527e-01
4.130000000000000000e+03 4.054319000244140625e+01 1.188097000122070312e+01 1.063171550631523132e-01 -3.534016013145446777e-02 2.129309810698032379e-02 -6.959742307662963867e-01
4.131000000000000000e+03 6.405548858642578125e+01 1.490790271759033203e+01 5.689799189567565918e-01 2.694031238555908203e+00 9.789033532142639160e-01 9.090355038642883301e-01
4.132000000000000000e+03 5.904248428344726562e+01 1.600538063049316406e+01 4.509801864624023438e-01 1.248485565185546875e+00 5.098397135734558105e-01 2.256701141595840454e-01
4.133000000000000000e+03 5.944920349121093750e+01 1.710556030273437500e+01 3.826743364334106445e-01 1.175968885421752930e+00 4.675929546356201172e-01 2.369440793991088867e-01
4.134000000000000000e+03 6.167978668212890625e+01 5.599379062652587891e+00 6.118019223213195801e-01 2.852991580963134766e+00 1.039438128471374512e+00 5.434832572937011719e-01
4.135000000000000000e+03 6.105183792114257812e+01 4.512172698974609375e+00 6.038805842399597168e-01 2.779587745666503906e+00 1.015040516853332520e+00 4.924672842025756836e-01
4.136000000000000000e+03 6.074390411376953125e+01 -1.596759891510009766e+01 2.162474244832992554e-01 3.338107585906982422e+00 1.066306591033935547e+00 1.907481849193572998e-01
4.137000000000000000e+03 4.072550964355468750e+01 1.513509941101074219e+01 -3.125517070293426514e-02 -3.994443640112876892e-02 -2.135988324880599976e-02 -7.477321624755859375e-01
4.138000000000000000e+03 5.284761428833007812e+01 1.651373291015625000e+01 1.439800709486007690e-01 4.649716317653656006e-01 1.826855093240737915e-01 -4.095448553562164307e-01
4.139000000000000000e+03 4.071236801147460938e+01 4.827355861663818359e+00 2.673505246639251709e-01 6.082623079419136047e-02 9.845302999019622803e-02 -5.294454097747802734e-01
4.140000000000000000e+03 4.159072113037109375e+01 1.156471824645996094e+01 1.427836418151855469e-01 1.971265301108360291e-02 4.874888807535171509e-02 -6.795561313629150391e-01
4.141000000000000000e+03 6.146187210083007812e+01 7.981956481933593750e+00 6.407720446586608887e-01 2.617054224014282227e+00 9.773479104042053223e-01 5.481911301612854004e-01
4.142000000000000000e+03 4.143440246582031250e+01 -5.715090274810791016e+00 2.941251397132873535e-01 3.140034377574920654e-01 1.824385672807693481e-01 -2.768875956535339355e-01
4.143000000000000000e+03 4.374922180175781250e+01 7.382273077964782715e-01 3.682241737842559814e-01 4.292392134666442871e-01 2.392390221357345581e-01 -3.592406511306762695e-01
4.144000000000000000e+03 4.304028320312500000e+01 2.196189641952514648e+00 3.503191471099853516e-01 3.237859308719635010e-01 2.022315263748168945e-01 -4.123075306415557861e-01
4.145000000000000000e+03 5.852540969848632812e+01 -1.169285392761230469e+01 3.023207187652587891e-01 2.901156425476074219e+00 9.610431790351867676e-01 1.915496885776519775e-01
4.146000000000000000e+03 4.245169448852539062e+01 -4.070064544677734375e+00 3.160432279109954834e-01 3.938840031623840332e-01 2.129781693220138550e-01 -2.827610075473785400e-01
4.147000000000000000e+03 4.286245346069335938e+01 -1.599894642829895020e+00 3.449504971504211426e-01 3.911180198192596436e-01 2.208205461502075195e-01 -3.262043595314025879e-01
4.148000000000000000e+03 6.112017822265625000e+01 1.631706619262695312e+01 4.975761771202087402e-01 1.648382902145385742e+00 6.437877416610717773e-01 4.989813566207885742e-01
4.149000000000000000e+03 6.402227020263671875e+01 1.876105499267578125e+01 3.712641000747680664e-01 2.088599443435668945e+00 7.379590868949890137e-01 9.162778854370117188e-01
4.150000000000000000e+03 5.673841476440429688e+01 1.596351623535156250e+01 3.650504648685455322e-01 9.034151434898376465e-01 3.805396854877471924e-01 -4.320957511663436890e-02
4.151000000000000000e+03 5.826775741577148438e+01 1.572719478607177734e+01 4.525043368339538574e-01 1.172243356704711914e+00 4.874242842197418213e-01 1.397200524806976318e-01
4.152000000000000000e+03 4.980447387695312500e+01 1.736854553222656250e+01 -3.003620542585849762e-02 2.637934982776641846e-01 7.012718915939331055e-02 -6.132622957229614258e-01
4.153000000000000000e+03 4.338979339599609375e+01 1.589618873596191406e+01 -4.195116832852363586e-02 5.428915843367576599e-02 3.701396752148866653e-03 -7.410776615142822266e-01
4.154000000000000000e+03 5.510079956054687500e+01 1.706235885620117188e+01 1.911124885082244873e-01 6.072403192520141602e-01 2.395058423280715942e-01 -2.586939930915832520e-01
4.155000000000000000e+03 5.584784698486328125e+01 1.612911796569824219e+01 3.096912205219268799e-01 7.786182761192321777e-01 3.264928460121154785e-01 -1.470011472702026367e-01
4.156000000000000000e+03 5.217454910278320312e+01 1.638384628295898438e+01 1.470210999250411987e-01 4.445858895778656006e-01 1.774820983409881592e-01 -4.523300826549530029e-01
4.157000000000000000e+03 5.413769149780273438e+01 1.817244720458984375e+01 3.456412255764007568e-02 4.464469552040100098e-01 1.443033218383789062e-01 -3.830734491348266602e-01
4.158000000000000000e+03 4.672248840332031250e+01 1.683334922790527344e+01 -5.731793493032455444e-02 1.578245311975479126e-01 3.015197813510894775e-02 -7.019156217575073242e-01
4.159000000000000000e+03 5.336340713500976562e+01 1.683827018737792969e+01 1.370049715042114258e-01 4.797556996345520020e-01 1.850281953811645508e-01 -3.899337947368621826e-01
4.160000000000000000e+03 4.441223526000976562e+01 1.791258811950683594e+01 -1.773705631494522095e-01 6.252346187829971313e-02 -3.445413336157798767e-02 -7.533078193664550781e-01
4.161000000000000000e+03 5.736391067504882812e+01 1.415346527099609375e+01 5.086095929145812988e-01 1.182393312454223633e+00 5.073008537292480469e-01 8.425407111644744873e-02
4.162000000000000000e+03 3.999151611328125000e+01 1.742617607116699219e+01 -1.550918370485305786e-01 -6.071336194872856140e-02 -6.474155932664871216e-02 -7.560320496559143066e-01
4.163000000000000000e+03 6.055690383911132812e+01 6.206975460052490234e+00 6.322638988494873047e-01 2.562522888183593750e+00 9.584360718727111816e-01 4.842097759246826172e-01
4.164000000000000000e+03 6.213085174560546875e+01 6.636137962341308594e+00 6.231522560119628906e-01 2.882281064987182617e+00 1.051630020141601562e+00 5.842658281326293945e-01
4.165000000000000000e+03 6.077427291870117188e+01 8.676110267639160156e+00 6.497985720634460449e-01 2.399694919586181641e+00 9.148480296134948730e-01 4.998694062232971191e-01
4.166000000000000000e+03 6.162661743164062500e+01 1.256225204467773438e+01 6.380267143249511719e-01 2.235782861709594727e+00 8.621428608894348145e-01 6.036014556884765625e-01
4.167000000000000000e+03 6.070817565917968750e+01 1.110992336273193359e+01 6.527482271194458008e-01 2.171601295471191406e+00 8.473048210144042969e-01 5.111081600189208984e-01
4.168000000000000000e+03 4.288551712036132812e+01 1.676825332641601562e+01 -1.055198311805725098e-01 2.457648329436779022e-02 -2.428300492465496063e-02 -7.579474449157714844e-01
4.169000000000000000e+03 6.288519287109375000e+01 1.727083587646484375e+01 4.591770470142364502e-01 1.955771803855895996e+00 7.244846820831298828e-01 7.378921508789062500e-01
4.170000000000000000e+03 6.237301254272460938e+01 1.606678962707519531e+01 5.312720537185668945e-01 2.005139589309692383e+00 7.609234452247619629e-01 6.762863397598266602e-01
4.171000000000000000e+03 6.032726669311523438e+01 1.427167892456054688e+01 5.824737548828125000e-01 1.718554854393005371e+00 6.903085708618164062e-01 4.337117075920104980e-01
4.172000000000000000e+03 6.319757461547851562e+01 1.440393924713134766e+01 5.964159369468688965e-01 2.480460405349731445e+00 9.230628609657287598e-01 7.940956354141235352e-01
4.173000000000000000e+03 6.277563858032226562e+01 1.525674057006835938e+01 5.643231868743896484e-01 2.235229969024658203e+00 8.398659825325012207e-01 7.387974262237548828e-01
4.174000000000000000e+03 4.169018936157226562e+01 1.507328796386718750e+01 -1.886707730591297150e-02 -4.055526573210954666e-03 -6.876781582832336426e-03 -7.439088821411132812e-01
4.175000000000000000e+03 6.360671234130859375e+01 1.573371028900146484e+01 5.479959249496459961e-01 2.425404548645019531e+00 8.920201659202575684e-01 8.546056151390075684e-01
4.176000000000000000e+03 6.024295043945312500e+01 1.570467185974121094e+01 5.093824863433837891e-01 1.523964166641235352e+00 6.100040078163146973e-01 3.959797024726867676e-01
4.177000000000000000e+03 5.871569442749023438e+01 1.666432380676269531e+01 3.848398625850677490e-01 1.102907061576843262e+00 4.463240802288055420e-01 1.599659472703933716e-01
4.178000000000000000e+03 5.999604797363281250e+01 5.150314807891845703e+00 6.271219253540039062e-01 2.503327846527099609e+00 9.391348958015441895e-01 4.319910407066345215e-01
4.179000000000000000e+03 5.675876998901367188e+01 -3.367234468460083008e-01 5.392500758171081543e-01 2.219755887985229492e+00 8.277018070220947266e-01 2.072787433862686157e-01
4.180000000000000000e+03 5.109191894531250000e+01 1.705619621276855469e+01 3.301193937659263611e-02 3.333500921726226807e-01 1.099086105823516846e-01 -5.422137379646301270e-01
4.181000000000000000e+03 5.036615371704101562e+01 1.648245811462402344e+01 6.480342894792556763e-02 3.239464461803436279e-01 1.166249662637710571e-01 -5.616461634635925293e-01
4.182000000000000000e+03 5.780302810668945312e+01 -1.401675343513488770e+00 5.168502330780029297e-01 2.457302570343017578e+00 8.922458887100219727e-01 2.631530761718750000e-01
4.183000000000000000e+03 5.973764801025390625e+01 -1.103819727897644043e+00 5.060844421386718750e-01 2.807299375534057617e+00 9.940151572227478027e-01 3.510943353176116943e-01
4.184000000000000000e+03 5.985988998413085938e+01 1.646395683288574219e+01 4.423252642154693604e-01 1.334919452667236328e+00 5.331733822822570801e-01 3.147038519382476807e-01
4.185000000000000000e+03 5.908272933959960938e+01 5.813236713409423828e+00 6.352211833000183105e-01 2.302866220474243164e+00 8.814262151718139648e-01 3.649696707725524902e-01
4.186000000000000000e+03 5.831196975708007812e+01 4.919736385345458984e+00 6.289072036743164062e-01 2.195222139358520508e+00 8.472387790679931641e-01 3.144469857215881348e-01
4.187000000000000000e+03 4.731707382202148438e+01 1.758404731750488281e+01 -1.126259192824363708e-01 1.590158045291900635e-01 1.391696650534868240e-02 -6.994071006774902344e-01
4.188000000000000000e+03 4.095329666137695312e+01 3.605099916458129883e+00 2.890087068080902100e-01 9.462504833936691284e-02 1.150901243090629578e-01 -4.963924586772918701e-01
4.189000000000000000e+03 4.117200088500976562e+01 2.424440383911132812e+00 3.034911155700683594e-01 1.434783041477203369e-01 1.340908259153366089e-01 -4.590304791927337646e-01
4.190000000000000000e+03 4.076263427734375000e+01 7.726548671722412109e+00 2.264707833528518677e-01 1.711366139352321625e-02 7.307533174753189087e-02 -6.055232882499694824e-01
4.191000000000000000e+03 4.326045227050781250e+01 8.917228698730468750e+00 2.639130353927612305e-01 1.724157035350799561e-01 1.308986246585845947e-01 -5.900779366493225098e-01
4.192000000000000000e+03 3.931914520263671875e+01 5.384375095367431641e+00 2.340509891510009766e-01 -6.297983974218368530e-02 5.132134258747100830e-02 -5.582808256149291992e-01
4.193000000000000000e+03 4.205931854248046875e+01 3.310746431350708008e+00 3.162251412868499756e-01 1.993246674537658691e-01 1.546649485826492310e-01 -4.668039977550506592e-01
4.194000000000000000e+03 4.260960006713867188e+01 1.600369071960449219e+01 -6.271117180585861206e-02 2.123075723648071289e-02 -1.244412548840045929e-02 -7.486930489540100098e-01
4.195000000000000000e+03 6.008140182495117188e+01 -2.969747066497802734e+00 4.561506807804107666e-01 2.945112466812133789e+00 1.020378947257995605e+00 3.335692286491394043e-01
4.196000000000000000e+03 4.228176879882812500e+01 -1.544892340898513794e-01 3.277736604213714600e-01 2.900747060775756836e-01 1.853545159101486206e-01 -3.768582940101623535e-01
4.197000000000000000e+03 4.461314010620117188e+01 -3.840013265609741211e+00 3.584639132022857666e-01 6.416658759117126465e-01 3.000389337539672852e-01 -2.392289787530899048e-01
4.198000000000000000e+03 5.889062118530273438e+01 -7.659631729125976562e+00 3.736956119537353516e-01 2.873000144958496094e+00 9.740086793899536133e-01 2.384181916713714600e-01
4.199000000000000000e+03 4.186890792846679688e+01 -1.268582916259765625e+01 2.342506200075149536e-01 4.854597151279449463e-01 2.159131020307540894e-01 -1.541162729263305664e-01
4.200000000000000000e+03 4.063511276245117188e+01 -7.581057071685791016e+00 2.583640515804290771e-01 2.544664740562438965e-01 1.538491547107696533e-01 -2.510166168212890625e-01
4.201000000000000000e+03 5.853176879882812500e+01 -1.422967624664306641e+01 2.599315345287322998e-01 2.945487737655639648e+00 9.616257548332214355e-01 1.717922687530517578e-01
4.202000000000000000e+03 5.815436553955078125e+01 1.213233566284179688e+01 6.062912940979003906e-01 1.554680466651916504e+00 6.482915282249450684e-01 2.277150750160217285e-01
4.203000000000000000e+03 5.744314575195312500e+01 1.498153495788574219e+01 4.643634557723999023e-01 1.100753307342529297e+00 4.695350229740142822e-01 7.042737305164337158e-02
4.204000000000000000e+03 5.150524139404296875e+01 1.611917304992675781e+01 1.519517004489898682e-01 4.043546915054321289e-01 1.668919175863265991e-01 -4.794054627418518066e-01
4.205000000000000000e+03 4.791815185546875000e+01 1.684522628784179688e+01 -3.490408137440681458e-02 2.019008398056030273e-01 5.009902641177177429e-02 -6.673349142074584961e-01
4.206000000000000000e+03 4.614403152465820312e+01 1.750066757202148438e+01 -1.235485374927520752e-01 1.239996030926704407e-01 1.353185507468879223e-04 -7.248770594596862793e-01
4.207000000000000000e+03 5.392262649536132812e+01 1.614485740661621094e+01 2.261488437652587891e-01 5.767062306404113770e-01 2.408565282821655273e-01 -3.203012943267822266e-01
4.208000000000000000e+03 5.703200531005859375e+01 1.233742904663085938e+01 5.704465508460998535e-01 1.311553597450256348e+00 5.646000504493713379e-01 1.044886186718940735e-01
4.209000000000000000e+03 5.247459411621093750e+01 1.558661937713623047e+01 2.230044156312942505e-01 5.243219137191772461e-01 2.241978943347930908e-01 -4.019825160503387451e-01
4.210000000000000000e+03 6.112606430053710938e+01 1.439393997192382812e+01 5.913647413253784180e-01 1.918182849884033203e+00 7.528643012046813965e-01 5.336151719093322754e-01
4.211000000000000000e+03 5.272946929931640625e+01 1.721430778503417969e+01 7.576529681682586670e-02 4.114876985549926758e-01 1.461759060621261597e-01 -4.473784565925598145e-01
4.212000000000000000e+03 4.175003814697265625e+01 1.279108810424804688e+01 9.644483029842376709e-02 1.863758452236652374e-02 3.452472388744354248e-02 -7.052247524261474609e-01
4.213000000000000000e+03 4.256638336181640625e+01 1.509440994262695312e+01 -1.044639199972152710e-02 2.740286290645599365e-02 5.086941178888082504e-03 -7.372339367866516113e-01
4.214000000000000000e+03 4.504167938232421875e+01 1.740038871765136719e+01 -1.279099285602569580e-01 9.116325527429580688e-02 -1.102400384843349457e-02 -7.424953579902648926e-01
4.215000000000000000e+03 6.135931777954101562e+01 1.353250694274902344e+01 6.194602847099304199e-01 2.071958780288696289e+00 8.074257373809814453e-01 5.771624445915222168e-01
4.216000000000000000e+03 6.038073730468750000e+01 1.328644943237304688e+01 6.082847714424133301e-01 1.856268644332885742e+00 7.393659949302673340e-01 4.574532508850097656e-01
4.217000000000000000e+03 4.457103729248046875e+01 1.683815765380859375e+01 -9.492786973714828491e-02 7.934462279081344604e-02 -4.674974828958511353e-03 -7.407073974609375000e-01
4.218000000000000000e+03 4.557368469238281250e+01 1.677720642089843750e+01 -7.154367119073867798e-02 1.195370480418205261e-01 1.439801417291164398e-02 -7.249732613563537598e-01
4.219000000000000000e+03 6.229899215698242188e+01 1.393289184570312500e+01 6.142292618751525879e-01 2.272428750991821289e+00 8.659974336624145508e-01 6.775867342948913574e-01
4.220000000000000000e+03 5.835363006591796875e+01 1.500611972808837891e+01 4.938704073429107666e-01 1.256215095520019531e+00 5.250256061553955078e-01 1.747270524501800537e-01
4.221000000000000000e+03 5.087508010864257812e+01 1.563004112243652344e+01 1.602229326963424683e-01 4.031592905521392822e-01 1.690146625041961670e-01 -4.956937134265899658e-01
4.222000000000000000e+03 5.469057083129882812e+01 1.558100509643554688e+01 3.095344305038452148e-01 7.030846476554870605e-01 3.037857413291931152e-01 -2.267040610313415527e-01
4.223000000000000000e+03 6.101114273071289062e+01 7.176709175109863281e+00 6.457945108413696289e-01 2.610282897949218750e+00 9.768232107162475586e-01 5.152376890182495117e-01
4.224000000000000000e+03 5.812674713134765625e+01 -3.620642185211181641e+00 4.635303020477294922e-01 2.620213747024536133e+00 9.251232147216796875e-01 2.610566318035125732e-01
4.225000000000000000e+03 5.819586944580078125e+01 2.882007122039794922e+00 5.982465744018554688e-01 2.311629772186279297e+00 8.729628920555114746e-01 3.040775954723358154e-01
4.226000000000000000e+03 4.058876037597656250e+01 9.639158248901367188e+00 1.780363768339157104e-01 -1.589815504848957062e-02 4.864146560430526733e-02 -6.507965922355651855e-01
4.227000000000000000e+03 4.201931762695312500e+01 8.266017913818359375e+00 2.474755346775054932e-01 9.257292747497558594e-02 1.020145416259765625e-01 -5.986389517784118652e-01
4.228000000000000000e+03 5.729522705078125000e+01 -1.041813182830810547e+01 3.358698189258575439e-01 2.692435264587402344e+00 9.084914922714233398e-01 1.830480694770812988e-01
4.229000000000000000e+03 5.733756256103515625e+01 -1.299845790863037109e+01 2.904130816459655762e-01 2.748359203338623047e+00 9.116316437721252441e-01 1.635309159755706787e-01
4.230000000000000000e+03 4.286111068725585938e+01 4.567181587219238281e+00 3.308524191379547119e-01 2.380474656820297241e-01 1.706699579954147339e-01 -4.827067255973815918e-01
4.231000000000000000e+03 4.483290863037109375e+01 4.881669044494628906e+00 3.827835917472839355e-01 4.154188930988311768e-01 2.394607365131378174e-01 -4.322003126144409180e-01
4.232000000000000000e+03 5.948759841918945312e+01 6.782968997955322266e+00 6.405808925628662109e-01 2.277135848999023438e+00 8.753150105476379395e-01 4.054385721683502197e-01
4.233000000000000000e+03 5.615721893310546875e+01 -1.441424369812011719e+01 2.719807624816894531e-01 2.577141046524047852e+00 8.547365665435791016e-01 1.319245845079421997e-01
4.234000000000000000e+03 4.366809844970703125e+01 -5.116853237152099609e+00 3.401446044445037842e-01 5.621333122253417969e-01 2.706833779811859131e-01 -2.360061407089233398e-01
4.235000000000000000e+03 4.467917633056640625e+01 1.460786342620849609e+01 5.609467998147010803e-02 1.230078190565109253e-01 5.373074859380722046e-02 -7.027158141136169434e-01
4.236000000000000000e+03 4.418733596801757812e+01 -7.750355005264282227e-01 3.754890561103820801e-01 5.135427713394165039e-01 2.667095661163330078e-01 -3.121947348117828369e-01
4.237000000000000000e+03 4.534791946411132812e+01 1.188895344734191895e+00 4.056481420993804932e-01 5.748552083969116211e-01 2.941510081291198730e-01 -3.289195299148559570e-01
4.238000000000000000e+03 4.166263580322265625e+01 9.644715309143066406e+00 1.926716119050979614e-01 4.280050098896026611e-02 7.064163684844970703e-02 -6.415789127349853516e-01
4.239000000000000000e+03 5.897418975830078125e+01 -5.897402286529541016e+00 4.114446341991424561e-01 2.839077234268188477e+00 9.751566052436828613e-01 2.638390064239501953e-01
4.240000000000000000e+03 4.097608947753906250e+01 -1.408751201629638672e+01 2.175809293985366821e-01 3.897711038589477539e-01 1.822056025266647339e-01 -1.484260857105255127e-01
4.241000000000000000e+03 4.320956420898437500e+01 -9.075294494628906250e+00 2.890788018703460693e-01 6.011720895767211914e-01 2.670752704143524170e-01 -1.784978508949279785e-01
4.242000000000000000e+03 5.946702194213867188e+01 -4.332252979278564453e+00 4.332948327064514160e-01 2.868840456008911133e+00 9.906405806541442871e-01 2.979300916194915771e-01
4.243000000000000000e+03 5.893470001220703125e+01 -2.288182973861694336e+00 4.907621145248413086e-01 2.711196899414062500e+00 9.605877399444580078e-01 3.074338138103485107e-01
4.244000000000000000e+03 3.942555999755859375e+01 6.248342514038085938e+00 2.205428332090377808e-01 -6.847260892391204834e-02 4.562106728553771973e-02 -5.870354175567626953e-01
4.245000000000000000e+03 3.847202301025390625e+01 6.498477935791015625e+00 1.873381137847900391e-01 -1.346430331468582153e-01 1.580852642655372620e-02 -5.992440581321716309e-01
4.246000000000000000e+03 4.261344909667968750e+01 -1.091546821594238281e+01 2.606761753559112549e-01 5.540060400962829590e-01 2.444046586751937866e-01 -1.638531684875488281e-01
4.247000000000000000e+03 4.274392700195312500e+01 -6.626882553100585938e+00 3.087607622146606445e-01 4.956517219543457031e-01 2.413237392902374268e-01 -2.261627167463302612e-01
4.248000000000000000e+03 3.967707061767578125e+01 -1.350028133392333984e+01 2.065133005380630493e-01 2.229460030794143677e-01 1.288377940654754639e-01 -1.695261001586914062e-01
4.249000000000000000e+03 5.140061187744140625e+01 1.491279411315917969e+01 2.237326949834823608e-01 4.560663998126983643e-01 2.039397358894348145e-01 -4.403876066207885742e-01
4.250000000000000000e+03 5.992711639404296875e+01 7.900763034820556641e+00 6.548420190811157227e-01 2.296941757202148438e+00 8.855351805686950684e-01 4.335392415523529053e-01
4.251000000000000000e+03 5.654708862304687500e+01 1.510986423492431641e+01 4.280222654342651367e-01 9.703218340873718262e-01 4.195032417774200439e-01 -3.114818222820758820e-02
4.252000000000000000e+03 4.729728317260742188e+01 1.612085342407226562e+01 1.297415327280759811e-02 2.010114490985870361e-01 6.419567763805389404e-02 -6.698885560035705566e-01
4.253000000000000000e+03 4.913887405395507812e+01 1.671550369262695312e+01 8.038624189794063568e-03 2.523283064365386963e-01 7.811008393764495850e-02 -6.217442154884338379e-01
4.254000000000000000e+03 4.492601776123046875e+01 1.614585113525390625e+01 -3.351907804608345032e-02 1.052702367305755615e-01 2.152534760534763336e-02 -7.246372699737548828e-01
4.255000000000000000e+03 4.346431732177734375e+01 1.657626724243164062e+01 -7.714714854955673218e-02 5.437047034502029419e-02 -6.833002436906099319e-03 -7.505097985267639160e-01
4.256000000000000000e+03 5.836961364746093750e+01 1.414473152160644531e+01 5.324985980987548828e-01 1.354692697525024414e+00 5.661574006080627441e-01 2.010392993688583374e-01
4.257000000000000000e+03 5.935966110229492188e+01 1.318009185791015625e+01 5.991569757461547852e-01 1.663133144378662109e+00 6.786870360374450684e-01 3.415020108222961426e-01
4.258000000000000000e+03 5.685008621215820312e+01 -2.630460023880004883e+00 4.975066483020782471e-01 2.346425056457519531e+00 8.531794548034667969e-01 2.048566490411758423e-01
4.259000000000000000e+03 4.849845886230468750e+01 1.605554008483886719e+01 4.829076305031776428e-02 2.512395083904266357e-01 8.985908329486846924e-02 -6.256386041641235352e-01
4.260000000000000000e+03 5.877809524536132812e+01 8.717984199523925781e+00 6.532446742057800293e-01 1.994314312934875488e+00 7.942676544189453125e-01 3.458948433399200439e-01
4.261000000000000000e+03 4.904905319213867188e+01 1.519756984710693359e+01 1.273230463266372681e-01 3.047840595245361328e-01 1.296321302652359009e-01 -5.819810032844543457e-01
4.262000000000000000e+03 5.191368865966796875e+01 1.535945510864257812e+01 2.149843573570251465e-01 4.793792665004730225e-01 2.083090841770172119e-01 -4.392870664596557617e-01
4.263000000000000000e+03 5.322690582275390625e+01 1.570289993286132812e+01 2.416390329599380493e-01 5.520243644714355469e-01 2.380990236997604370e-01 -3.514830470085144043e-01
4.264000000000000000e+03 5.444934082031250000e+01 1.468537139892578125e+01 3.692758679389953613e-01 7.535211443901062012e-01 3.368391096591949463e-01 -2.152126282453536987e-01
4.265000000000000000e+03 5.337968444824218750e+01 1.468364048004150391e+01 3.251781165599822998e-01 6.466482877731323242e-01 2.915479242801666260e-01 -2.980387806892395020e-01
4.266000000000000000e+03 4.610104751586914062e+01 1.609077072143554688e+01 -1.033480931073427200e-02 1.518873274326324463e-01 4.246575385332107544e-02 -7.011152505874633789e-01
4.267000000000000000e+03 4.273652267456054688e+01 1.260492038726806641e+01 1.236715093255043030e-01 6.328567117452621460e-02 5.608715116977691650e-02 -6.915868520736694336e-01
4.268000000000000000e+03 4.404190063476562500e+01 1.508867073059082031e+01 1.683183014392852783e-02 8.875758200883865356e-02 3.167682513594627380e-02 -7.201927304267883301e-01
4.269000000000000000e+03 4.287141036987304688e+01 1.016683864593505859e+01 2.124240845441818237e-01 1.162315085530281067e-01 9.859667718410491943e-02 -6.334422826766967773e-01
4.270000000000000000e+03 4.317458343505859375e+01 1.337793731689453125e+01 9.145246446132659912e-02 7.481254637241363525e-02 4.987950250506401062e-02 -6.994624733924865723e-01
4.271000000000000000e+03 5.930804443359375000e+01 1.522268295288085938e+01 5.158956050872802734e-01 1.409637689590454102e+00 5.776599645614624023e-01 2.835237979888916016e-01
4.272000000000000000e+03 5.939932632446289062e+01 1.425446414947509766e+01 5.576917529106140137e-01 1.544054388999938965e+00 6.305238604545593262e-01 3.253927528858184814e-01
4.273000000000000000e+03 5.696498489379882812e+01 1.895076870918273926e+00 5.787588357925415039e-01 2.135376214981079102e+00 8.142405152320861816e-01 2.244360595941543579e-01
4.274000000000000000e+03 4.177592468261718750e+01 5.766129016876220703e+00 2.864174544811248779e-01 1.256739497184753418e-01 1.236274242401123047e-01 -5.380054116249084473e-01
4.275000000000000000e+03 4.482139205932617188e+01 8.523553848266601562e+00 3.201905190944671631e-01 2.924318015575408936e-01 1.837867051362991333e-01 -5.352411866188049316e-01
4.276000000000000000e+03 4.378957366943359375e+01 5.775883674621582031e+00 3.431191444396972656e-01 2.962000668048858643e-01 1.917957514524459839e-01 -4.907935857772827148e-01
4.277000000000000000e+03 5.476884078979492188e+01 -5.170276165008544922e+00 4.486888647079467773e-01 2.091330051422119141e+00 7.620056867599487305e-01 1.247283443808555603e-01
4.278000000000000000e+03 4.464796829223632812e+01 -1.969923377037048340e+00 3.790159523487091064e-01 5.883073806762695312e-01 2.901970148086547852e-01 -2.776698172092437744e-01
4.279000000000000000e+03 4.557391357421875000e+01 -3.647416532039642334e-01 4.081078469753265381e-01 6.500951051712036133e-01 3.174608945846557617e-01 -2.820674180984497070e-01
4.280000000000000000e+03 5.735050964355468750e+01 -7.960240364074707031e+00 3.845197260379791260e-01 2.607820987701416016e+00 8.977022171020507812e-01 2.012270241975784302e-01
4.281000000000000000e+03 4.544830703735351562e+01 2.822693109512329102e+00 4.099140763282775879e-01 5.343939065933227539e-01 2.832924127578735352e-01 -3.596711158752441406e-01
4.282000000000000000e+03 5.609881591796875000e+01 -1.170884227752685547e+01 3.203853666782379150e-01 2.508707046508789062e+00 8.487277626991271973e-01 1.442162394523620605e-01
4.283000000000000000e+03 4.519590377807617188e+01 9.843030929565429688e+00 2.796786427497863770e-01 2.706831693649291992e-01 1.651085466146469116e-01 -5.659399628639221191e-01
4.284000000000000000e+03 4.114960479736328125e+01 1.053634071350097656e+01 1.675581336021423340e-01 8.928060531616210938e-03 5.294585973024368286e-02 -6.639314293861389160e-01
4.285000000000000000e+03 4.571498489379882812e+01 -1.669559240341186523e+00 4.011455774307250977e-01 7.091228365898132324e-01 3.330805003643035889e-01 -2.496215999126434326e-01
4.286000000000000000e+03 4.361179351806640625e+01 -2.852943658828735352e+00 3.509870171546936035e-01 4.993049502372741699e-01 2.550875842571258545e-01 -2.851146757602691650e-01
4.287000000000000000e+03 5.539082717895507812e+01 5.771574020385742188e+00 6.102486848831176758e-01 1.601346135139465332e+00 6.634784340858459473e-01 9.395903348922729492e-02
4.288000000000000000e+03 4.279830169677734375e+01 6.900926113128662109e+00 2.972130775451660156e-01 1.793187409639358521e-01 1.429595500230789185e-01 -5.472391247749328613e-01
4.289000000000000000e+03 4.191542434692382812e+01 -8.333072662353515625e+00 2.785604596138000488e-01 4.213381111621856689e-01 2.099695801734924316e-01 -2.190446853637695312e-01
4.290000000000000000e+03 4.411632919311523438e+01 -1.619300270080566406e+01 2.258039563894271851e-01 8.346997499465942383e-01 3.181511163711547852e-01 -8.681830763816833496e-02
4.291000000000000000e+03 4.970145034790039062e+01 1.583748149871826172e+01 1.016147360205650330e-01 3.242793679237365723e-01 1.277682334184646606e-01 -5.733370184898376465e-01
4.292000000000000000e+03 5.732294845581054688e+01 4.003927707672119141e+00 6.219641566276550293e-01 2.067285060882568359e+00 8.067747950553894043e-01 2.511496543884277344e-01
4.293000000000000000e+03 5.039348602294921875e+01 1.327663803100585938e+01 3.038517236709594727e-01 5.000744462013244629e-01 2.411778420209884644e-01 -4.461342692375183105e-01
4.294000000000000000e+03 5.187179565429687500e+01 1.416753673553466797e+01 2.994765341281890869e-01 5.583401918411254883e-01 2.573450207710266113e-01 -3.868852555751800537e-01
4.295000000000000000e+03 5.563278579711914062e+01 1.530542087554931641e+01 3.781645298004150391e-01 8.453629612922668457e-01 3.670582473278045654e-01 -1.273969709873199463e-01
4.296000000000000000e+03 5.848741149902343750e+01 6.674988269805908203e+00 6.473143696784973145e-01 2.091473817825317383e+00 8.216364383697509766e-01 3.211713135242462158e-01
4.297000000000000000e+03 5.947200393676757812e+01 1.097728729248046875e+01 6.518361568450927734e-01 1.915968179702758789e+00 7.703412771224975586e-01 3.813425898551940918e-01
4.298000000000000000e+03 4.726763153076171875e+01 1.465596008300781250e+01 1.233896985650062561e-01 2.485746443271636963e-01 1.115893051028251648e-01 -6.345195174217224121e-01
4.299000000000000000e+03 4.417038345336914062e+01 1.586970138549804688e+01 -2.335593663156032562e-02 8.503624796867370605e-02 1.850409246981143951e-02 -7.330493330955505371e-01
4.300000000000000000e+03 4.599484252929687500e+01 1.461624336242675781e+01 8.975622057914733887e-02 1.840377748012542725e-01 8.213819563388824463e-02 -6.700016260147094727e-01
4.301000000000000000e+03 4.539371871948242188e+01 1.536870670318603516e+01 2.632929757237434387e-02 1.377482265233993530e-01 4.922325909137725830e-02 -7.028222680091857910e-01
4.302000000000000000e+03 4.786882400512695312e+01 1.538884449005126953e+01 8.125954121351242065e-02 2.521603703498840332e-01 1.000259742140769958e-01 -6.311098933219909668e-01
4.303000000000000000e+03 5.568672943115234375e+01 -1.488778710365295410e+00 5.220139026641845703e-01 2.085317373275756836e+00 7.821993827819824219e-01 1.588722169399261475e-01
4.304000000000000000e+03 5.486353302001953125e+01 -1.038354682922363281e+01 3.498747050762176514e-01 2.277880907058715820e+00 7.883267402648925781e-01 1.159971356391906738e-01
4.305000000000000000e+03 5.829794692993164062e+01 1.317226982116699219e+01 5.788245797157287598e-01 1.464615702629089355e+00 6.130321025848388672e-01 2.237706780433654785e-01
4.306000000000000000e+03 5.639359283447265625e+01 1.428406906127929688e+01 4.727109968662261963e-01 1.027961373329162598e+00 4.502017199993133545e-01 -1.913639903068542480e-02
4.307000000000000000e+03 5.731394958496093750e+01 -5.104136943817138672e+00 4.392477869987487793e-01 2.527537345886230469e+00 8.900355100631713867e-01 2.123341709375381470e-01
4.308000000000000000e+03 4.407201004028320312e+01 3.492867231369018555e+00 3.728284239768981934e-01 3.902082145214080811e-01 2.289109826087951660e-01 -4.200557768344879150e-01
4.309000000000000000e+03 5.553781127929687500e+01 4.530807495117187500e+00 6.095200777053833008e-01 1.717926979064941406e+00 6.982341408729553223e-01 1.191452294588088989e-01
4.310000000000000000e+03 5.354073715209960938e+01 1.357086753845214844e+01 4.020989537239074707e-01 7.449723482131958008e-01 3.441213965415954590e-01 -2.426285743713378906e-01
4.311000000000000000e+03 5.682904434204101562e+01 1.142442226409912109e+01 5.895830392837524414e-01 1.353349804878234863e+00 5.828798413276672363e-01 1.103705391287803650e-01
4.312000000000000000e+03 4.446613311767578125e+01 1.318323802947998047e+01 1.280945092439651489e-01 1.438267678022384644e-01 8.157638460397720337e-02 -6.721346974372863770e-01
4.313000000000000000e+03 4.432152938842773438e+01 9.466903686523437500e+00 2.758307456970214844e-01 2.286354750394821167e-01 1.513398587703704834e-01 -5.802204012870788574e-01
4.314000000000000000e+03 4.468506622314453125e+01 6.818709850311279297e+00 3.486824631690979004e-01 3.372926712036132812e-01 2.057925313711166382e-01 -4.898247122764587402e-01
4.315000000000000000e+03 5.488906860351562500e+01 -1.308310604095458984e+01 3.007318973541259766e-01 2.352737188339233398e+00 7.960407137870788574e-01 1.081597432494163513e-01
4.316000000000000000e+03 5.759313201904296875e+01 5.895624637603759766e+00 6.394742727279663086e-01 1.976622462272644043e+00 7.848290205001831055e-01 2.630471289157867432e-01
4.317000000000000000e+03 5.666723632812500000e+01 5.121678352355957031e+00 6.253467798233032227e-01 1.878779649734497070e+00 7.512379288673400879e-01 1.959916651248931885e-01
4.318000000000000000e+03 4.553209686279296875e+01 7.748589992523193359e+00 3.566043674945831299e-01 3.733311295509338379e-01 2.189806401729583740e-01 -4.890715777873992920e-01
4.319000000000000000e+03 4.534121322631835938e+01 -1.061192893981933594e+01 2.955225110054016113e-01 9.063307642936706543e-01 3.605559766292572021e-01 -1.223964914679527283e-01
4.320000000000000000e+03 4.492856597900390625e+01 -6.039150238037109375e+00 3.487451374530792236e-01 7.394884228706359863e-01 3.264700770378112793e-01 -1.914792358875274658e-01
4.321000000000000000e+03 4.401844406127929688e+01 -7.483612537384033203e+00 3.209129571914672852e-01 6.554607152938842773e-01 2.929120957851409912e-01 -1.903144270181655884e-01
4.322000000000000000e+03 4.468266296386718750e+01 -1.310506343841552734e+01 2.616644501686096191e-01 8.449166417121887207e-01 3.319743275642395020e-01 -1.071054860949516296e-01
4.323000000000000000e+03 4.074871826171875000e+01 -1.739739608764648438e+01 1.781553626060485840e-01 3.956184685230255127e-01 1.721321493387222290e-01 -1.146845892071723938e-01
4.324000000000000000e+03 5.544481658935546875e+01 1.449248027801513672e+01 4.246543347835540771e-01 8.939507007598876953e-01 3.955815136432647705e-01 -1.087744012475013733e-01
4.325000000000000000e+03 4.871370315551757812e+01 1.377293205261230469e+01 2.208666205406188965e-01 3.606907427310943604e-01 1.744672060012817383e-01 -5.486838221549987793e-01
4.326000000000000000e+03 4.666577529907226562e+01 1.537433433532714844e+01 5.403867363929748535e-02 1.939336955547332764e-01 7.439170777797698975e-02 -6.713823080062866211e-01
4.327000000000000000e+03 4.957197570800781250e+01 1.420409870147705078e+01 2.178505063056945801e-01 3.908666670322418213e-01 1.826151460409164429e-01 -5.254684686660766602e-01
4.328000000000000000e+03 5.247551345825195312e+01 1.481105804443359375e+01 2.819292247295379639e-01 5.752727985382080078e-01 2.571606040000915527e-01 -3.721960783004760742e-01
4.329000000000000000e+03 5.942472076416015625e+01 9.884477615356445312e+00 6.533010005950927734e-01 2.020229816436767578e+00 8.020592331886291504e-01 3.884929120540618896e-01
4.330000000000000000e+03 5.933541870117187500e+01 1.206942653656005859e+01 6.300973296165466309e-01 1.786831974983215332e+00 7.250788211822509766e-01 3.577290773391723633e-01
4.331000000000000000e+03 5.620579910278320312e+01 1.343550395965576172e+01 5.056524276733398438e-01 1.067265510559082031e+00 4.718753695487976074e-01 -7.658062502741813660e-03
4.332000000000000000e+03 5.569934082031250000e+01 1.151849746704101562e+01 5.595470666885375977e-01 1.182933449745178223e+00 5.227441787719726562e-01 7.852834649384021759e-03
4.333000000000000000e+03 4.388615036010742188e+01 1.172438335418701172e+01 1.895263642072677612e-01 1.501623094081878662e-01 1.019065976142883301e-01 -6.471830606460571289e-01
4.334000000000000000e+03 4.526662826538085938e+01 1.386715793609619141e+01 1.135523617267608643e-01 1.701029390096664429e-01 8.509659022092819214e-02 -6.692887544631958008e-01
4.335000000000000000e+03 5.608350753784179688e+01 3.149477243423461914e+00 6.027692556381225586e-01 1.897803902626037598e+00 7.501718997955322266e-01 1.675599813461303711e-01
4.336000000000000000e+03 4.740535354614257812e+01 1.305046653747558594e+01 2.163961082696914673e-01 3.058943748474121094e-01 1.566871404647827148e-01 -5.805357098579406738e-01
4.337000000000000000e+03 4.627397537231445312e+01 8.661775588989257812e+00 3.562351763248443604e-01 4.017604887485504150e-01 2.273987084627151489e-01 -4.853693544864654541e-01
4.338000000000000000e+03 5.459569549560546875e+01 -2.667602777481079102e+00 5.018470883369445801e-01 1.959149718284606934e+00 7.382990717887878418e-01 1.115592196583747864e-01
4.339000000000000000e+03 5.586007690429687500e+01 -3.908094406127929688e+00 4.679765105247497559e-01 2.214374303817749023e+00 8.047052621841430664e-01 1.605175137519836426e-01
4.340000000000000000e+03 5.462356567382812500e+01 -2.780548930168151855e-01 5.394060015678405762e-01 1.850077629089355469e+00 7.168450951576232910e-01 1.031145825982093811e-01
4.341000000000000000e+03 5.578264999389648438e+01 8.466256260871887207e-01 5.652074217796325684e-01 1.989817261695861816e+00 7.665073871612548828e-01 1.626996695995330811e-01
4.342000000000000000e+03 5.346116256713867188e+01 -1.403836131095886230e+00 5.142202973365783691e-01 1.727847933769226074e+00 6.726204752922058105e-01 5.230133980512619019e-02
4.343000000000000000e+03 5.493787384033203125e+01 1.300509548187255859e+01 4.813183844089508057e-01 9.570696949958801270e-01 4.315164387226104736e-01 -1.049809157848358154e-01
4.344000000000000000e+03 5.408796691894531250e+01 1.253976821899414062e+01 4.728601276874542236e-01 9.039156436920166016e-01 4.130327105522155762e-01 -1.579110324382781982e-01
4.345000000000000000e+03 4.705063629150390625e+01 -3.293278515338897705e-01 4.400975406169891357e-01 8.245353698730468750e-01 3.793898820877075195e-01 -2.332253158092498779e-01
4.346000000000000000e+03 4.736829757690429688e+01 4.840838909149169922e+00 4.400623142719268799e-01 6.441730260848999023e-01 3.252705931663513184e-01 -3.412936627864837646e-01
4.347000000000000000e+03 4.650083923339843750e+01 5.410321235656738281e+00 4.191616773605346680e-01 5.463917851448059082e-01 2.896660268306732178e-01 -3.898088335990905762e-01
4.348000000000000000e+03 5.620384979248046875e+01 -6.511301040649414062e+00 4.138526022434234619e-01 2.384217023849487305e+00 8.394208550453186035e-01 1.683349311351776123e-01
4.349000000000000000e+03 4.361260223388671875e+01 1.267633056640625000e+01 1.401035636663436890e-01 1.110167130827903748e-01 7.533608376979827881e-02 -6.808165311813354492e-01
4.350000000000000000e+03 4.558362197875976562e+01 6.042985439300537109e+00 3.870715200901031494e-01 4.388094842433929443e-01 2.477643042802810669e-01 -4.386136829853057861e-01
4.351000000000000000e+03 4.634724426269531250e+01 7.069856643676757812e+00 3.898262977600097656e-01 4.673787951469421387e-01 2.571615278720855713e-01 -4.393310248851776123e-01
4.352000000000000000e+03 5.609020996093750000e+01 -9.117980957031250000e+00 3.739631474018096924e-01 2.430292367935180664e+00 8.412766456604003906e-01 1.567926704883575439e-01
4.353000000000000000e+03 4.408975982666015625e+01 1.058951377868652344e+01 2.282978743314743042e-01 1.862550675868988037e-01 1.243658810853958130e-01 -6.139608025550842285e-01
4.354000000000000000e+03 4.557361984252929688e+01 1.155724620819091797e+01 2.397410869598388672e-01 2.530428767204284668e-01 1.478351801633834839e-01 -6.000316739082336426e-01
4.355000000000000000e+03 5.589090347290039062e+01 1.253982543945312500e+01 5.266835689544677734e-01 1.109481215476989746e+00 4.908494353294372559e-01 -7.297113072127103806e-03
4.356000000000000000e+03 5.783106231689453125e+01 7.681986331939697266e+00 6.457079052925109863e-01 1.903624892234802246e+00 7.647998332977294922e-01 2.662607729434967041e-01
4.357000000000000000e+03 4.557877349853515625e+01 9.176307678222656250e+00 3.300699293613433838e-01 3.214841783046722412e-01 1.954662203788757324e-01 -5.274531841278076172e-01
4.358000000000000000e+03 5.104065322875976562e+01 -6.371450901031494141e+00 4.173597991466522217e-01 1.571358919143676758e+00 5.966156125068664551e-01 -5.192554555833339691e-03
4.359000000000000000e+03 4.540922164916992188e+01 -2.755614995956420898e+00 3.867559134960174561e-01 7.053016424179077148e-01 3.276172578334808350e-01 -2.393132895231246948e-01
4.360000000000000000e+03 5.363584518432617188e+01 -1.172228622436523438e+01 3.281986117362976074e-01 2.117002725601196289e+00 7.335603833198547363e-01 8.038406819105148315e-02
4.361000000000000000e+03 4.591677474975585938e+01 4.254126071929931641e+00 4.147188067436218262e-01 5.305244326591491699e-01 2.835729718208312988e-01 -3.806545436382293701e-01
4.362000000000000000e+03 4.409458923339843750e+01 -1.124586009979248047e+01 2.726150155067443848e-01 7.378773093223571777e-01 3.031477034091949463e-01 -1.396562755107879639e-01
4.363000000000000000e+03 4.524852371215820312e+01 -8.350204467773437500e+00 3.234303295612335205e-01 8.308359384536743164e-01 3.462798893451690674e-01 -1.552066057920455933e-01
4.364000000000000000e+03 3.695926666259765625e+01 -1.917015838623046875e+01 1.292221993207931519e-01 -8.716500550508499146e-02 1.261715497821569443e-02 -1.413775235414505005e-01
4.365000000000000000e+03 4.297942733764648438e+01 -1.925991439819335938e+01 1.806295812129974365e-01 7.132586240768432617e-01 2.681664526462554932e-01 -7.360887527465820312e-02
4.366000000000000000e+03 4.580437088012695312e+01 -1.513027572631835938e+01 2.484257072210311890e-01 1.048654675483703613e+00 3.891240954399108887e-01 -7.146814465522766113e-02
4.367000000000000000e+03 4.091909408569335938e+01 -1.971165657043457031e+01 1.584699898958206177e-01 4.365223944187164307e-01 1.784977167844772339e-01 -8.650773018598556519e-02
4.368000000000000000e+03 4.244828796386718750e+01 -1.701451110839843750e+01 2.008288949728012085e-01 6.111879944801330566e-01 2.436050623655319214e-01 -9.661708027124404907e-02
4.369000000000000000e+03 4.791539001464843750e+01 1.401841831207275391e+01 1.846315562725067139e-01 3.092647790908813477e-01 1.481689065694808960e-01 -5.915838479995727539e-01
4.370000000000000000e+03 5.139962387084960938e+01 1.242000675201416016e+01 3.867158293724060059e-01 6.336674690246582031e-01 3.061150014400482178e-01 -3.549570739269256592e-01
4.371000000000000000e+03 4.663583755493164062e+01 1.384690380096435547e+01 1.508196443319320679e-01 2.358156889677047729e-01 1.159905940294265747e-01 -6.297482252120971680e-01
4.372000000000000000e+03 5.241060256958007812e+01 1.316982460021972656e+01 3.831277489662170410e-01 6.745749115943908691e-01 3.173107802867889404e-01 -3.169898986816406250e-01
4.373000000000000000e+03 5.852537155151367188e+01 1.046959400177001953e+01 6.436179280281066895e-01 1.760644555091857910e+00 7.212787270545959473e-01 2.905008494853973389e-01
4.374000000000000000e+03 4.496564483642578125e+01 1.231496524810791016e+01 1.949491202831268311e-01 1.942699849605560303e-01 1.167657300829887390e-01 -6.375347971916198730e-01
4.375000000000000000e+03 4.699699401855468750e+01 -1.863139271736145020e+00 4.242372810840606689e-01 8.622025251388549805e-01 3.859319388866424561e-01 -2.069460749626159668e-01
4.376000000000000000e+03 4.720422744750976562e+01 6.399563312530517578e+00 4.223610460758209229e-01 5.615949034690856934e-01 2.951867878437042236e-01 -3.864283561706542969e-01
4.377000000000000000e+03 5.530561065673828125e+01 1.369990348815917969e+01 4.609311819076538086e-01 9.456548094749450684e-01 4.219757914543151855e-01 -9.177039563655853271e-02
4.378000000000000000e+03 5.613015747070312500e+01 7.572264671325683594e+00 6.250880956649780273e-01 1.594575762748718262e+00 6.658991575241088867e-01 1.225946843624114990e-01
4.379000000000000000e+03 4.861737060546875000e+01 1.243906378746032715e+00 4.774748682975769043e-01 9.436652660369873047e-01 4.263420403003692627e-01 -2.016328275203704834e-01
4.380000000000000000e+03 4.852460098266601562e+01 -2.187630891799926758e+00 4.427008628845214844e-01 1.083104372024536133e+00 4.577415883541107178e-01 -1.414629369974136353e-01
4.381000000000000000e+03 5.305527114868164062e+01 1.216029739379882812e+01 4.632915258407592773e-01 8.246428370475769043e-01 3.863803148269653320e-01 -2.277565002441406250e-01
4.382000000000000000e+03 5.442267227172851562e+01 9.446848869323730469e+00 5.750316977500915527e-01 1.190032362937927246e+00 5.295192003250122070e-01 -4.137738794088363647e-02
4.383000000000000000e+03 4.596570968627929688e+01 9.917886734008789062e+00 3.062157630920410156e-01 3.239516615867614746e-01 1.890502274036407471e-01 -5.407994985580444336e-01
4.384000000000000000e+03 5.345468902587890625e+01 -3.854634284973144531e+00 4.641996920108795166e-01 1.828275322914123535e+00 6.877424716949462891e-01 6.402564793825149536e-02
4.385000000000000000e+03 5.487920379638671875e+01 -7.761778831481933594e+00 3.908396959304809570e-01 2.201768159866333008e+00 7.777823805809020996e-01 1.187640950083732605e-01
4.386000000000000000e+03 4.587390136718750000e+01 1.306494903564453125e+01 1.708017885684967041e-01 2.233138531446456909e-01 1.182346940040588379e-01 -6.326926350593566895e-01
4.387000000000000000e+03 5.007070541381835938e+01 -2.105477333068847656e+00 4.643407166004180908e-01 1.268613100051879883e+00 5.198861360549926758e-01 -9.242708235979080200e-02
4.388000000000000000e+03 5.125055694580078125e+01 -1.233304977416992188e+00 4.905725419521331787e-01 1.403457880020141602e+00 5.682091116905212402e-01 -4.665803536772727966e-02
4.389000000000000000e+03 5.481267166137695312e+01 2.110056161880493164e+00 5.758473873138427734e-01 1.756624698638916016e+00 6.997416019439697266e-01 1.002721786499023438e-01
4.390000000000000000e+03 5.577474975585937500e+01 1.034565067291259766e+01 5.932856202125549316e-01 1.317851424217224121e+00 5.733411312103271484e-01 4.785811901092529297e-02
4.391000000000000000e+03 4.752325820922851562e+01 -1.067486953735351562e+01 3.214589953422546387e-01 1.201982975006103516e+00 4.570325911045074463e-01 -7.498638331890106201e-02
4.392000000000000000e+03 5.366320419311523438e+01 -1.451753234863281250e+01 2.793512642383575439e-01 2.189306020736694336e+00 7.405971884727478027e-01 8.031585812568664551e-02
4.393000000000000000e+03 4.795380020141601562e+01 7.365013599395751953e+00 4.311216771602630615e-01 5.919372439384460449e-01 3.069176673889160156e-01 -3.846026957035064697e-01
4.394000000000000000e+03 5.018701934814453125e+01 1.043593168258666992e+00 5.109107494354248047e-01 1.142313480377197266e+00 4.959672689437866211e-01 -1.271691322326660156e-01
4.395000000000000000e+03 5.429406356811523438e+01 4.528549194335937500e+00 5.951395034790039062e-01 1.543128490447998047e+00 6.414803862571716309e-01 4.346494749188423157e-02
4.396000000000000000e+03 4.846478652954101562e+01 1.256231784820556641e+01 2.774801850318908691e-01 3.943965137004852295e-01 2.015630155801773071e-01 -5.225218534469604492e-01
4.397000000000000000e+03 5.198279953002929688e+01 9.156240463256835938e+00 5.126442909240722656e-01 9.027805924415588379e-01 4.246274530887603760e-01 -2.144329696893692017e-01
4.398000000000000000e+03 5.558324050903320312e+01 6.699926376342773438e+00 6.153853535652160645e-01 1.570575714111328125e+00 6.557883024215698242e-01 9.652024507522583008e-02
4.399000000000000000e+03 5.693912887573242188e+01 6.826950550079345703e+00 6.288965344429016113e-01 1.789510488510131836e+00 7.255221009254455566e-01 1.933173984289169312e-01
4.400000000000000000e+03 5.363123321533203125e+01 -9.044398307800292969e+00 3.766232728958129883e-01 2.042797088623046875e+00 7.258261442184448242e-01 8.018045127391815186e-02
4.401000000000000000e+03 4.660358810424804688e+01 -3.321056127548217773e+00 3.975815773010253906e-01 8.610758781433105469e-01 3.775972425937652588e-01 -1.935249716043472290e-01
4.402000000000000000e+03 5.116013717651367188e+01 -1.178297233581542969e+01 3.273616135120391846e-01 1.738444924354553223e+00 6.197419762611389160e-01 1.505396235734224319e-02
4.403000000000000000e+03 4.493857955932617188e+01 -1.843156433105468750e+01 2.045291364192962646e-01 9.721550941467285156e-01 3.530052602291107178e-01 -5.900792405009269714e-02
4.404000000000000000e+03 4.597885513305664062e+01 1.080454254150390625e+01 2.797966003417968750e-01 3.022887110710144043e-01 1.746255904436111450e-01 -5.662325024604797363e-01
4.405000000000000000e+03 4.963747024536132812e+01 1.213988494873046875e+01 3.417990505695343018e-01 5.119224786758422852e-01 2.561164498329162598e-01 -4.495819807052612305e-01
4.406000000000000000e+03 4.699868011474609375e+01 1.102476978302001953e+01 3.049641549587249756e-01 3.623201251029968262e-01 2.001852840185165405e-01 -5.314990282058715820e-01
4.407000000000000000e+03 4.708903121948242188e+01 8.077399253845214844e+00 3.906130194664001465e-01 4.832048118114471436e-01 2.621453702449798584e-01 -4.411786198616027832e-01
4.408000000000000000e+03 5.451282882690429688e+01 1.152426910400390625e+01 5.288923978805541992e-01 1.034425854682922363e+00 4.689954817295074463e-01 -9.682590514421463013e-02
4.409000000000000000e+03 5.154909133911132812e+01 1.071361732482910156e+01 4.546628296375274658e-01 7.566294670104980469e-01 3.633876740932464600e-01 -2.909009754657745361e-01
4.410000000000000000e+03 5.694399642944335938e+01 1.048542499542236328e+01 6.149960756301879883e-01 1.483022212982177734e+00 6.294054985046386719e-01 1.485857814550399780e-01
4.411000000000000000e+03 4.511303710937500000e+01 1.074459648132324219e+01 2.511841058731079102e-01 2.432574629783630371e-01 1.483324766159057617e-01 -5.912443995475769043e-01
4.412000000000000000e+03 5.362710571289062500e+01 9.327864050865173340e-01 5.529838800430297852e-01 1.632953047752380371e+00 6.557810902595520020e-01 4.321813210844993591e-02
4.413000000000000000e+03 5.224703598022460938e+01 -5.065508365631103516e+00 4.403304159641265869e-01 1.698379755020141602e+00 6.416130661964416504e-01 2.622767351567745209e-02
4.414000000000000000e+03 5.680355072021484375e+01 8.577859878540039062e+00 6.350682377815246582e-01 1.622860312461853027e+00 6.773785948753356934e-01 1.642357259988784790e-01
4.415000000000000000e+03 5.065079498291015625e+01 1.142433643341064453e+01 4.073233604431152344e-01 6.270872950553894043e-01 3.103232085704803467e-01 -3.706779181957244873e-01
4.416000000000000000e+03 5.353163528442382812e+01 1.133640003204345703e+01 5.003504157066345215e-01 9.244720935821533203e-01 4.274467527866363525e-01 -1.713128983974456787e-01
4.417000000000000000e+03 4.695286560058593750e+01 2.668345451354980469e+00 4.459168612957000732e-01 7.006443142890930176e-01 3.439683318138122559e-01 -2.998345792293548584e-01
4.418000000000000000e+03 4.855442810058593750e+01 -4.242618978023529053e-01 4.732346832752227783e-01 1.009177446365356445e+00 4.447236657142639160e-01 -1.689487844705581665e-01
4.419000000000000000e+03 4.621006011962890625e+01 -6.969604015350341797e+00 3.542101979255676270e-01 9.232679605484008789e-01 3.832434415817260742e-01 -1.506246477365493774e-01
4.420000000000000000e+03 4.993781661987304688e+01 -1.050076198577880859e+01 3.429210186004638672e-01 1.526488304138183594e+00 5.608227849006652832e-01 -1.375045441091060638e-02
4.421000000000000000e+03 5.766234970092773438e+01 9.561636924743652344e+00 6.302935481071472168e-01 1.660690546035766602e+00 6.872951984405517578e-01 2.169735729694366455e-01
4.422000000000000000e+03 5.776438903808593750e+01 1.115232944488525391e+01 6.190270781517028809e-01 1.584141016006469727e+00 6.609504222869873047e-01 2.151334583759307861e-01
4.423000000000000000e+03 4.441077804565429688e+01 -9.700106620788574219e+00 2.941710054874420166e-01 7.388666868209838867e-01 3.099113106727600098e-01 -1.563140451908111572e-01
4.424000000000000000e+03 4.684143829345703125e+01 9.728085517883300781e+00 3.500238358974456787e-01 4.041408598423004150e-01 2.262494117021560669e-01 -4.971065223217010498e-01
4.425000000000000000e+03 5.239809417724609375e+01 -1.311581325531005859e+01 3.008928298950195312e-01 1.962940454483032227e+00 6.791499853134155273e-01 4.760579019784927368e-02
4.426000000000000000e+03 4.798231506347656250e+01 4.051237583160400391e+00 4.693522751331329346e-01 7.543449401855468750e-01 3.671091794967651367e-01 -2.905647158622741699e-01
4.427000000000000000e+03 4.806031799316406250e+01 5.639325141906738281e+00 4.526618421077728271e-01 6.764481663703918457e-01 3.387329876422882080e-01 -3.323264122009277344e-01
4.428000000000000000e+03 5.165809631347656250e+01 4.246129512786865234e+00 5.486563444137573242e-01 1.162389278411865234e+00 5.133136510848999023e-01 -1.177175119519233704e-01
4.429000000000000000e+03 5.446730422973632812e+01 5.885349750518798828e+00 5.999116897583007812e-01 1.477938652038574219e+00 6.233550906181335449e-01 3.730106353759765625e-02
4.430000000000000000e+03 4.886403274536132812e+01 4.703512668609619141e+00 4.800981581211090088e-01 8.035488128662109375e-01 3.850940763950347900e-01 -2.690582275390625000e-01
4.431000000000000000e+03 4.640593719482421875e+01 -9.404245376586914062e+00 3.218967020511627197e-01 1.010763525962829590e+00 3.997980654239654541e-01 -1.177456751465797424e-01
4.432000000000000000e+03 4.621315765380859375e+01 -1.203501892089843750e+01 2.934070825576782227e-01 1.039743423461914062e+00 3.999451696872711182e-01 -9.148184210062026978e-02
4.433000000000000000e+03 5.003434371948242188e+01 -5.346334576606750488e-01 4.826500117778778076e-01 1.184315919876098633e+00 5.000897645950317383e-01 -1.158765405416488647e-01
4.434000000000000000e+03 4.871034622192382812e+01 8.354208946228027344e+00 4.368180632591247559e-01 6.144349575042724609e-01 3.153758943080902100e-01 -3.790209591388702393e-01
4.435000000000000000e+03 4.655781555175781250e+01 1.219028663635253906e+01 2.396552860736846924e-01 2.910210192203521729e-01 1.592028886079788208e-01 -5.860652327537536621e-01
4.436000000000000000e+03 4.841370773315429688e+01 2.817059278488159180e+00 4.901489317417144775e-01 8.669622540473937988e-01 4.071333706378936768e-01 -2.374421805143356323e-01
4.437000000000000000e+03 5.458322906494140625e+01 1.047107124328613281e+01 5.586159825325012207e-01 1.134995698928833008e+00 5.080835223197937012e-01 -5.995820462703704834e-02
4.438000000000000000e+03 5.515530776977539062e+01 8.074824333190917969e+00 6.138850450515747070e-01 1.412041902542114258e+00 6.077780723571777344e-01 4.740491881966590881e-02
4.439000000000000000e+03 5.220523071289062500e+01 1.156137847900390625e+01 4.563227593898773193e-01 7.687405943870544434e-01 3.675190210342407227e-01 -2.700881958007812500e-01
4.440000000000000000e+03 5.336643600463867188e+01 9.720225334167480469e+00 5.409042835235595703e-01 1.036309838294982910e+00 4.731642603874206543e-01 -1.313538104295730591e-01
4.441000000000000000e+03 4.853380966186523438e+01 1.010566520690917969e+01 3.771871030330657959e-01 5.107288956642150879e-01 2.663747966289520264e-01 -4.409898221492767334e-01
4.442000000000000000e+03 5.376068878173828125e+01 7.342681884765625000e+00 5.888319015502929688e-01 1.268389701843261719e+00 5.571665167808532715e-01 -3.728574141860008240e-02
4.443000000000000000e+03 5.561401367187500000e+01 9.163799285888671875e+00 6.053639054298400879e-01 1.389156818389892578e+00 5.983561873435974121e-01 5.858672410249710083e-02
4.444000000000000000e+03 5.357638549804687500e+01 -6.414495944976806641e+00 4.255741536617279053e-01 1.953074812889099121e+00 7.135946750640869141e-01 8.025023341178894043e-02
4.445000000000000000e+03 5.372660064697265625e+01 3.156744003295898438e+00 5.778647661209106445e-01 1.532687902450561523e+00 6.331657767295837402e-01 2.736943215131759644e-02
4.446000000000000000e+03 4.778670501708984375e+01 9.183559417724609375e+00 3.851666748523712158e-01 4.996982216835021973e-01 2.654594779014587402e-01 -4.494715034961700439e-01
4.447000000000000000e+03 4.813804626464843750e+01 1.118981552124023438e+01 3.345536589622497559e-01 4.348856806755065918e-01 2.308318018913269043e-01 -4.929509460926055908e-01
4.448000000000000000e+03 4.942590713500976562e+01 9.337189674377441406e+00 4.296924173831939697e-01 6.284976005554199219e-01 3.174570202827453613e-01 -3.754461407661437988e-01
4.449000000000000000e+03 5.209311676025390625e+01 5.416391372680664062e+00 5.532566308975219727e-01 1.148249268531799316e+00 5.104517936706542969e-01 -1.150906458497047424e-01
4.450000000000000000e+03 5.114049530029296875e+01 5.821007251739501953e+00 5.386059880256652832e-01 1.023477315902709961e+00 4.686249792575836182e-01 -1.709843277931213379e-01
4.451000000000000000e+03 4.810036087036132812e+01 -3.961918830871582031e+00 4.171213507652282715e-01 1.086194515228271484e+00 4.509947597980499268e-01 -1.325641274452209473e-01
4.452000000000000000e+03 4.718449401855468750e+01 -5.531877517700195312e+00 3.836505711078643799e-01 1.014973044395446777e+00 4.195870757102966309e-01 -1.424013376235961914e-01
4.453000000000000000e+03 4.913878631591796875e+01 1.097556591033935547e+01 3.738580346107482910e-01 5.217931270599365234e-01 2.686953544616699219e-01 -4.385580718517303467e-01
4.454000000000000000e+03 5.473713302612304688e+01 7.027567386627197266e+00 6.027747392654418945e-01 1.431144118309020996e+00 6.101756691932678223e-01 3.704084828495979309e-02
4.455000000000000000e+03 5.346116256713867188e+01 6.192097187042236328e+00 5.824097394943237305e-01 1.312044858932495117e+00 5.683363676071166992e-01 -4.241801425814628601e-02
4.456000000000000000e+03 5.239664077758789062e+01 -1.038256835937500000e+01 3.497757911682128906e-01 1.890308260917663574e+00 6.720252037048339844e-01 4.731345176696777344e-02
4.457000000000000000e+03 4.747541427612304688e+01 -8.026129722595214844e+00 3.529457151889801025e-01 1.123466491699218750e+00 4.429236650466918945e-01 -1.066226065158843994e-01
4.458000000000000000e+03 4.991737365722656250e+01 -1.324699211120605469e+01 2.911003530025482178e-01 1.580547928810119629e+00 5.614945292472839355e-01 -1.066976599395275116e-02
4.459000000000000000e+03 5.314144897460937500e+01 4.993637084960937500e+00 5.717587471008300781e-01 1.332291841506958008e+00 5.712151527404785156e-01 -4.055795818567276001e-02
4.460000000000000000e+03 5.004671096801757812e+01 1.036193180084228516e+01 4.142632186412811279e-01 6.348897814750671387e-01 3.147459030151367188e-01 -3.739956617355346680e-01
4.461000000000000000e+03 5.361341094970703125e+01 1.056778430938720703e+01 5.327280163764953613e-01 9.956598281860351562e-01 4.585163593292236328e-01 -1.334124207496643066e-01
4.462000000000000000e+03 5.098934555053710938e+01 9.704116821289062500e+00 4.713808000087738037e-01 7.630576491355895996e-01 3.703315258026123047e-01 -2.926971912384033203e-01
4.463000000000000000e+03 5.303381347656250000e+01 8.750531196594238281e+00 5.507907867431640625e-01 1.064388155937194824e+00 4.845536947250366211e-01 -1.263428479433059692e-01
4.464000000000000000e+03 5.242163467407226562e+01 1.012605285644531250e+01 5.048105716705322266e-01 8.855549693107604980e-01 4.171096682548522949e-01 -2.112293392419815063e-01
4.465000000000000000e+03 5.042239379882812500e+01 6.549724102020263672e+00 5.141825079917907715e-01 8.915250301361083984e-01 4.217122495174407959e-01 -2.328184992074966431e-01
4.466000000000000000e+03 4.882249832153320312e+01 6.535460472106933594e+00 4.656254351139068604e-01 7.135812640190124512e-01 3.537620306015014648e-01 -3.208670318126678467e-01
4.467000000000000000e+03 5.410429763793945312e+01 8.420436859130859375e+00 5.874200463294982910e-01 1.234415531158447266e+00 5.465506315231323242e-01 -3.699865564703941345e-02
4.468000000000000000e+03 5.058407211303710938e+01 4.713418960571289062e+00 5.306920409202575684e-01 1.023376345634460449e+00 4.662205278873443604e-01 -1.699805706739425659e-01
4.469000000000000000e+03 4.970906066894531250e+01 3.532620668411254883e+00 5.142769813537597656e-01 9.755775332450866699e-01 4.469563663005828857e-01 -1.922169029712677002e-01
4.470000000000000000e+03 4.965678024291992188e+01 5.615036964416503906e+00 4.955697953701019287e-01 8.466316461563110352e-01 4.026604294776916504e-01 -2.583310306072235107e-01
4.471000000000000000e+03 5.183699417114257812e+01 3.127583503723144531e+00 5.472515225410461426e-01 1.244979977607727051e+00 5.376694202423095703e-01 -8.785954117774963379e-02
4.472000000000000000e+03 5.269355392456054688e+01 2.069833755493164062e+00 5.475732684135437012e-01 1.449828863143920898e+00 5.992206335067749023e-01 -1.835683733224868774e-02
4.473000000000000000e+03 5.267160415649414062e+01 3.878415822982788086e+00 5.680029988288879395e-01 1.333808422088623047e+00 5.705434083938598633e-01 -4.941293597221374512e-02
4.474000000000000000e+03 5.236881256103515625e+01 -1.185298636555671692e-01 5.240128636360168457e-01 1.506144642829895020e+00 6.090472340583801270e-01 -1.260423474013805389e-02
4.475000000000000000e+03 5.115230560302734375e+01 -9.076685905456542969e+00 3.706123828887939453e-01 1.670598506927490234e+00 6.123632788658142090e-01 9.642006829380989075e-03
4.476000000000000000e+03 4.966285324096679688e+01 7.498300075531005859e+00 4.781065583229064941e-01 7.573367953300476074e-01 3.706330060958862305e-01 -3.066360652446746826e-01
4.477000000000000000e+03 5.242058563232421875e+01 6.555353641510009766e+00 5.633035302162170410e-01 1.127516865730285645e+00 5.072461366653442383e-01 -1.143296360969543457e-01
4.478000000000000000e+03 5.269879531860351562e+01 7.681456089019775391e+00 5.641587376594543457e-01 1.102657794952392578e+00 5.000450015068054199e-01 -1.229717358946800232e-01
4.479000000000000000e+03 5.236237335205078125e+01 -7.711045265197753906e+00 3.935948908329010010e-01 1.810129046440124512e+00 6.611171960830688477e-01 4.060577973723411560e-02
4.480000000000000000e+03 5.071837997436523438e+01 2.381267309188842773e+00 5.279784798622131348e-01 1.142129540443420410e+00 5.010324120521545410e-01 -1.276950836181640625e-01
4.481000000000000000e+03 5.115228652954101562e+01 -1.452876949310302734e+01 2.774789333343505859e-01 1.804279446601867676e+00 6.245275139808654785e-01 2.390545606613159180e-02
4.482000000000000000e+03 5.392353057861328125e+01 -2.069110488891601562e+01 2.032013833522796631e-01 2.331761598587036133e+00 7.604888677597045898e-01 6.874033808708190918e-02
4.483000000000000000e+03 4.868960571289062500e+01 -1.200547599792480469e+01 3.189124166965484619e-01 1.390272378921508789e+00 5.127553939819335938e-01 -3.695624694228172302e-02
4.484000000000000000e+03 5.041637802124023438e+01 8.576048851013183594e+00 4.812363386154174805e-01 7.755705714225769043e-01 3.770420849323272705e-01 -2.926580309867858887e-01
4.485000000000000000e+03 4.987346267700195312e+01 -7.783060550689697266e+00 3.821108043193817139e-01 1.442746758460998535e+00 5.474572777748107910e-01 -3.459786996245384216e-02
4.486000000000000000e+03 5.154027557373046875e+01 1.206385850906372070e+00 5.288242697715759277e-01 1.337525963783264160e+00 5.599050521850585938e-01 -6.899837404489517212e-02
4.487000000000000000e+03 5.094203186035156250e+01 -3.656948089599609375e+00 4.535104930400848389e-01 1.437712073326110840e+00 5.673667788505554199e-01 -3.720648586750030518e-02
4.488000000000000000e+03 4.964377975463867188e+01 -5.003305912017822266e+00 4.205448627471923828e-01 1.316940069198608398e+00 5.212454795837402344e-01 -7.341878116130828857e-02
4.489000000000000000e+03 4.735768508911132812e+01 -1.366989040374755859e+01 2.761178612709045410e-01 1.233758449554443359e+00 4.529629051685333252e-01 -5.221434682607650757e-02
4.490000000000000000e+03 4.993624114990234375e+01 -1.586894512176513672e+01 2.697376608848571777e-01 1.663425683975219727e+00 5.799490213394165039e-01 1.958401175215840340e-03
4.491000000000000000e+03 5.103247451782226562e+01 -1.741787910461425781e+01 2.441712021827697754e-01 1.843628525733947754e+00 6.263399124145507812e-01 2.108674682676792145e-02
4.492000000000000000e+03 5.154459762573242188e+01 8.024440765380859375e+00 5.272717475891113281e-01 9.261106252670288086e-01 4.360147118568420410e-01 -2.088018059730529785e-01
4.493000000000000000e+03 5.228086853027343750e+01 -2.536995887756347656e+00 4.934289455413818359e-01 1.604177594184875488e+00 6.292819380760192871e-01 1.478050835430622101e-02
4.494000000000000000e+03 4.872167968750000000e+01 -1.482898902893066406e+01 2.665832936763763428e-01 1.434558153152465820e+00 5.103424191474914551e-01 -2.997718192636966705e-02
4.495000000000000000e+03 5.519758987426757812e+01 -1.892089462280273438e+01 2.166976630687713623e-01 2.505725622177124023e+00 8.167269825935363770e-01 9.224931895732879639e-02
4.496000000000000000e+03 5.236017990112304688e+01 -1.907141876220703125e+01 2.183400094509124756e-01 2.074719905853271484e+00 6.879179477691650391e-01 4.638412967324256897e-02
4.497000000000000000e+03 4.853180313110351562e+01 -1.667667961120605469e+01 2.499117106199264526e-01 1.442448019981384277e+00 5.077078938484191895e-01 -1.753314398229122162e-02
4.498000000000000000e+03 6.011361312866210938e+01 -1.753345680236816406e+01 2.019339203834533691e-01 3.251372814178466797e+00 1.035992026329040527e+00 1.753373295068740845e-01
4.499000000000000000e+03 5.873556137084960938e+01 -1.671480178833007812e+01 2.268914878368377686e-01 3.016546487808227539e+00 9.730314016342163086e-01 1.621279120445251465e-01
4.500000000000000000e+03 4.680224609375000000e+01 -1.740080451965332031e+01 2.331667542457580566e-01 1.219957828521728516e+00 4.359373748302459717e-01 -4.076056927442550659e-02
4.501000000000000000e+03 5.960431671142578125e+01 -1.532797145843505859e+01 2.367427647113800049e-01 3.123834133148193359e+00 1.008172988891601562e+00 1.894210726022720337e-01
4.502000000000000000e+03 4.949793624877929688e+01 -1.867084121704101562e+01 2.209107130765914917e-01 1.620666623115539551e+00 5.524731874465942383e-01 -1.548131695017218590e-03
4.503000000000000000e+03 3.888636398315429688e+01 -1.964252090454101562e+01 1.411509215831756592e-01 1.887205690145492554e-01 9.896145015954971313e-02 -1.111489608883857727e-01
4.504000000000000000e+03 4.110255432128906250e+01 -2.251133537292480469e+01 1.515086740255355835e-01 4.998576343059539795e-01 1.954098939895629883e-01 -6.201454252004623413e-02
4.505000000000000000e+03 6.266324996948242188e+01 -3.212612533569335938e+01 7.029642164707183838e-02 3.706341981887817383e+00 1.132991552352905273e+00 5.582599714398384094e-02
4.506000000000000000e+03 5.575058364868164062e+01 -2.217800903320312500e+01 1.718737930059432983e-01 2.627798557281494141e+00 8.399016857147216797e-01 8.929235488176345825e-02
4.507000000000000000e+03 5.681083679199218750e+01 -2.018737030029296875e+01 2.016764432191848755e-01 2.771126031875610352e+00 8.918407559394836426e-01 1.107124462723731995e-01
4.508000000000000000e+03 5.850654220581054688e+01 -2.111301612854003906e+01 1.787724047899246216e-01 3.048105239868164062e+00 9.680632948875427246e-01 1.270716488361358643e-01
4.509000000000000000e+03 6.115889739990234375e+01 -2.649174118041992188e+01 1.136014536023139954e-01 3.471270322799682617e+00 1.075461506843566895e+00 9.967296570539474487e-02
4.510000000000000000e+03 8.368891716003417969e+00 -4.113323211669921875e+01 -2.863103337585926056e-02 1.150880381464958191e-02 -5.136669147759675980e-03 1.337148994207382202e-02
4.511000000000000000e+03 2.684502410888671875e+01 -4.079601669311523438e+01 1.778758615255355835e-01 -1.432738304138183594e+00 -3.764587342739105225e-01 3.432676568627357483e-02
4.512000000000000000e+03 2.660435676574707031e+01 -3.177492523193359375e+01 -3.032515943050384521e-02 -1.483184814453125000e+00 -4.540530145168304443e-01 -9.123597294092178345e-02
4.513000000000000000e+03 2.849855422973632812e+01 -2.477287673950195312e+01 4.619172587990760803e-02 -1.209529399871826172e+00 -3.490012884140014648e-01 -1.119729205965995789e-01
4.514000000000000000e+03 3.369358444213867188e+01 -2.257657241821289062e+01 7.936803996562957764e-02 -5.359135270118713379e-01 -1.369636505842208862e-01 -1.032165735960006714e-01
4.515000000000000000e+03 6.156513977050781250e+01 -2.090077400207519531e+01 1.486946344375610352e-01 3.471395730972290039e+00 1.086027026176452637e+00 1.229603588581085205e-01
4.516000000000000000e+03 5.925751113891601562e+01 -1.920480346679687500e+01 1.970649212598800659e-01 3.138545036315917969e+00 1.000683069229125977e+00 1.513116657733917236e-01
4.517000000000000000e+03 7.072666931152343750e+01 -3.514381408691406250e+01 5.149090196937322617e-03 4.878245830535888672e+00 1.465018391609191895e+00 2.305337041616439819e-02
4.518000000000000000e+03 4.906781005859375000e+01 -2.208881378173828125e+01 1.900816410779953003e-01 1.604727506637573242e+00 5.384427309036254883e-01 -6.073428783565759659e-03
4.519000000000000000e+03 3.818571090698242188e+01 -3.313230895996093750e+01 1.032547354698181152e-01 8.866953849792480469e-02 5.757728219032287598e-02 -1.317801140248775482e-02
4.520000000000000000e+03 3.860788345336914062e+01 -3.005977439880371094e+01 9.726445376873016357e-02 1.530514508485794067e-01 7.509477436542510986e-02 -3.930534422397613525e-02
4.521000000000000000e+03 6.254213333129882812e+01 -3.638425445556640625e+01 5.728379264473915100e-02 3.704363584518432617e+00 1.128494143486022949e+00 2.626751177012920380e-02
4.522000000000000000e+03 5.776398849487304688e+01 -3.573736190795898438e+01 8.835237473249435425e-02 2.964510679244995117e+00 9.158589243888854980e-01 3.787082806229591370e-02
4.523000000000000000e+03 4.336342620849609375e+01 -3.790565490722656250e+01 1.171699166297912598e-01 8.728627562522888184e-01 2.970097959041595459e-01 2.524030022323131561e-02
4.524000000000000000e+03 4.695357513427734375e+01 -3.760232162475585938e+01 1.144608557224273682e-01 1.410012245178222656e+00 4.573419392108917236e-01 -1.806225813925266266e-02
4.525000000000000000e+03 3.877661514282226562e+01 -3.589769744873046875e+01 9.494448453187942505e-02 2.068595141172409058e-01 9.054119884967803955e-02 -1.710109412670135498e-02
4.526000000000000000e+03 3.556661605834960938e+01 -3.665505599975585938e+01 1.096004620194435120e-01 -2.314444482326507568e-01 -3.655319660902023315e-02 -4.394020885229110718e-03
4.527000000000000000e+03 7.171821594238281250e+01 -4.087393951416015625e+01 1.785852760076522827e-02 5.066095352172851562e+00 1.525186181068420410e+00 8.493221248500049114e-04
4.528000000000000000e+03 7.950429916381835938e+00 4.122079849243164062e+01 -4.255235126038314775e-06 -3.704316895891679451e-06 -2.387865606578998268e-06 -6.007383490214124322e-05
4.529000000000000000e+03 6.601834869384765625e+01 -3.183003616333007812e+01 5.210872367024421692e-02 4.220166683197021484e+00 1.281682729721069336e+00 4.381881654262542725e-02
4.530000000000000000e+03 3.855405044555664062e+01 -2.235486602783203125e+01 1.367178112268447876e-01 1.664123237133026123e-01 9.093903750181198120e-02 -9.747700393199920654e-02
4.531000000000000000e+03 4.705463027954101562e+01 -2.345889663696289062e+01 1.715414077043533325e-01 1.304584980010986328e+00 4.428379237651824951e-01 -1.725944131612777710e-02
4.532000000000000000e+03 5.247118759155273438e+01 -2.249335289001464844e+01 1.838903874158859253e-01 2.141059160232543945e+00 6.974848508834838867e-01 4.534533992409706116e-02
4.533000000000000000e+03 5.447760009765625000e+01 -2.420146751403808594e+01 1.693909168243408203e-01 2.457615137100219727e+00 7.881017923355102539e-01 6.093476712703704834e-02
4.534000000000000000e+03 1.886514854431152344e+01 -4.070725631713867188e+01 1.779563724994659424e-01 -1.553751468658447266e+00 -4.127385318279266357e-01 -2.359104752540588379e-01
4.535000000000000000e+03 4.876361846923828125e+01 -2.625596237182617188e+01 1.579615771770477295e-01 1.592467665672302246e+00 5.251287817955017090e-01 1.422906410880386829e-03
4.536000000000000000e+03 5.078757095336914062e+01 -2.434751701354980469e+01 1.732449829578399658e-01 1.903855204582214355e+00 6.231300830841064453e-01 1.531333196908235550e-02
4.537000000000000000e+03 3.968230819702148438e+01 -2.702500152587890625e+01 1.126400232315063477e-01 2.932296991348266602e-01 1.217609196901321411e-01 -6.080029159784317017e-02
4.538000000000000000e+03 4.584411621093750000e+01 -2.086783218383789062e+01 1.962346434593200684e-01 1.126344084739685059e+00 3.967736363410949707e-01 -2.548821456730365753e-02
4.539000000000000000e+03 4.777189254760742188e+01 -1.978503990173339844e+01 2.125432342290878296e-01 1.384839415550231934e+00 4.792147874832153320e-01 -2.311220206320285797e-02
4.540000000000000000e+03 4.190359497070312500e+01 -2.531610107421875000e+01 1.275721639394760132e-01 6.301441192626953125e-01 2.273148894309997559e-01 -4.631113633513450623e-02
4.541000000000000000e+03 4.465224838256835938e+01 -2.456245613098144531e+01 1.492918282747268677e-01 9.977483153343200684e-01 3.441120386123657227e-01 -1.497967354953289032e-02
4.542000000000000000e+03 6.013079452514648438e+01 -2.147563171386718750e+01 1.630189120769500732e-01 3.262163639068603516e+00 1.027554750442504883e+00 1.309095174074172974e-01
4.543000000000000000e+03 5.791165542602539062e+01 -2.346180725097656250e+01 1.483070254325866699e-01 2.955955982208251953e+00 9.312789440155029297e-01 1.096302047371864319e-01
4.544000000000000000e+03 5.846747589111328125e+01 -2.797141075134277344e+01 1.078202128410339355e-01 3.098680734634399414e+00 9.619503021240234375e-01 7.169365137815475464e-02
4.545000000000000000e+03 5.566504287719726562e+01 -2.782608795166015625e+01 1.276895105838775635e-01 2.649051666259765625e+00 8.330223560333251953e-01 4.783723503351211548e-02
4.546000000000000000e+03 4.327153778076171875e+01 -3.494525527954101562e+01 1.367210000753402710e-01 8.645769357681274414e-01 3.003893792629241943e-01 5.515724886208772659e-03
4.547000000000000000e+03 5.679502105712890625e+01 -2.567435836791992188e+01 1.545568406581878662e-01 2.845517396926879883e+00 9.000222682952880859e-01 8.203037083148956299e-02
4.548000000000000000e+03 4.447838211059570312e+01 -3.243174362182617188e+01 1.188122332096099854e-01 1.050550699234008789e+00 3.508088886737823486e-01 7.734199054539203644e-03
4.549000000000000000e+03 5.486008071899414062e+01 -3.063536071777343750e+01 1.086195558309555054e-01 2.548360824584960938e+00 7.970941066741943359e-01 3.277136012911796570e-02
4.550000000000000000e+03 4.254435729980468750e+01 -2.804038047790527344e+01 1.189869642257690430e-01 7.589393854141235352e-01 2.633779048919677734e-01 -2.871912717819213867e-02
4.551000000000000000e+03 5.015576934814453125e+01 -3.144264221191406250e+01 1.064698398113250732e-01 1.783146142959594727e+00 5.668848156929016113e-01 2.446017041802406311e-02
4.552000000000000000e+03 4.700601577758789062e+01 -3.085005187988281250e+01 1.256988942623138428e-01 1.371279001235961914e+00 4.490933716297149658e-01 1.237024553120136261e-02
4.553000000000000000e+03 4.851801681518554688e+01 -3.350773239135742188e+01 1.248181089758872986e-01 1.600171685218811035e+00 5.174969434738159180e-01 -2.461725845932960510e-03
4.554000000000000000e+03 5.353176498413085938e+01 -3.393532943725585938e+01 1.066273525357246399e-01 2.368797302246093750e+00 7.426273822784423828e-01 2.749431319534778595e-02
4.555000000000000000e+03 4.746243286132812500e+01 -4.084766006469726562e+01 1.006331071257591248e-01 1.445777058601379395e+00 4.639230668544769287e-01 -6.055110134184360504e-03
4.556000000000000000e+03 7.077841949462890625e+01 3.248940277099609375e+01 9.080905914306640625e-01 2.166928529739379883e+00 9.225057959556579590e-01 -2.646047592163085938e+00
4.557000000000000000e+03 7.096662902832031250e+01 3.248057174682617188e+01 1.135608196258544922e+00 2.605985879898071289e+00 1.122478246688842773e+00 -3.021867513656616211e+00
4.558000000000000000e+03 7.095954895019531250e+01 3.267375564575195312e+01 1.213779091835021973e+00 3.122205734252929688e+00 1.300795435905456543e+00 -3.248725652694702148e+00
4.559000000000000000e+03 7.110424804687500000e+01 3.271662902832031250e+01 1.363947987556457520e+00 3.679053544998168945e+00 1.512900471687316895e+00 -3.656874895095825195e+00
4.560000000000000000e+03 7.167967224121093750e+01 3.288977432250976562e+01 1.112449049949645996e+00 6.852201461791992188e+00 2.389395236968994141e+00 -5.009534358978271484e+00
4.561000000000000000e+03 7.188610076904296875e+01 3.269888687133789062e+01 1.372781276702880859e+00 8.226485252380371094e+00 2.879779815673828125e+00 -5.707002639770507812e+00
4.562000000000000000e+03 7.216587066650390625e+01 3.249458312988281250e+01 1.246646642684936523e+00 1.026426315307617188e+01 3.453272819519042969e+00 -6.408936977386474609e+00
4.563000000000000000e+03 7.256378936767578125e+01 3.250719070434570312e+01 2.730172276496887207e-01 1.424212455749511719e+01 4.354542732238769531e+00 -6.351879596710205078e+00
4.564000000000000000e+03 7.297312927246093750e+01 3.249112319946289062e+01 -5.827109813690185547e-01 1.857389831542968750e+01 5.397356510162353516e+00 -4.353428840637207031e+00
4.565000000000000000e+03 7.314175415039062500e+01 3.286054992675781250e+01 -1.129250049591064453e+00 1.727164268493652344e+01 4.842717647552490234e+00 -3.283000946044921875e+00
4.566000000000000000e+03 7.420033264160156250e+01 3.257349014282226562e+01 6.021013855934143066e-01 1.837822723388671875e+01 5.694098949432373047e+00 1.473163843154907227e+00
4.567000000000000000e+03 7.359380340576171875e+01 3.310942077636718750e+01 -1.236456632614135742e+00 1.747424507141113281e+01 4.871336460113525391e+00 -1.232751488685607910e+00
4.568000000000000000e+03 7.413645935058593750e+01 3.196972274780273438e+01 3.619142532348632812e+00 1.984521293640136719e+01 7.039306640625000000e+00 2.753324985504150391e+00
4.569000000000000000e+03 7.460295104980468750e+01 3.175101852416992188e+01 5.172524452209472656e+00 1.711388778686523438e+01 6.685923576354980469e+00 2.650330305099487305e+00
4.570000000000000000e+03 7.444905090332031250e+01 3.143002510070800781e+01 7.142999172210693359e+00 1.730061721801757812e+01 7.333084583282470703e+00 2.295441865921020508e+00
4.571000000000000000e+03 7.511507415771484375e+01 3.102344894409179688e+01 6.044826507568359375e+00 1.450853061676025391e+01 6.166007041931152344e+00 4.765038490295410156e-01
4.572000000000000000e+03 7.461854553222656250e+01 3.051742172241210938e+01 7.359459400177001953e+00 1.639456939697265625e+01 7.126208305358886719e+00 -1.488896250724792480e+00
4.573000000000000000e+03 7.512848663330078125e+01 3.047368621826171875e+01 5.809070587158203125e+00 1.454200267791748047e+01 6.105321884155273438e+00 -1.163064837455749512e+00
4.574000000000000000e+03 7.415830993652343750e+01 2.930076789855957031e+01 9.102340936660766602e-01 1.871290206909179688e+01 5.886940956115722656e+00 -1.574438333511352539e+00
4.575000000000000000e+03 7.359680938720703125e+01 2.899722480773925781e+01 -1.108971953392028809e+00 1.895676803588867188e+01 5.354338645935058594e+00 1.132469892501831055e+00
4.576000000000000000e+03 7.339650726318359375e+01 2.887802505493164062e+01 -1.595338821411132812e+00 1.813286399841308594e+01 4.961257934570312500e+00 2.267122268676757812e+00
4.577000000000000000e+03 7.258104705810546875e+01 2.893759155273437500e+01 -7.847275137901306152e-01 1.407664012908935547e+01 3.987573862075805664e+00 5.749806880950927734e+00
4.578000000000000000e+03 7.198131561279296875e+01 2.919787979125976562e+01 7.613216638565063477e-01 8.440979003906250000e+00 2.760690212249755859e+00 6.325550079345703125e+00
4.579000000000000000e+03 7.179093170166015625e+01 2.878893280029296875e+01 2.161840200424194336e-01 7.853102207183837891e+00 2.420785903930664062e+00 5.642027378082275391e+00
4.580000000000000000e+03 7.137016296386718750e+01 2.919413185119628906e+01 7.202907800674438477e-01 4.414859294891357422e+00 1.540545105934143066e+00 4.656506538391113281e+00
4.581000000000000000e+03 7.113262176513671875e+01 2.887626457214355469e+01 4.031472206115722656e-01 4.171601295471191406e+00 1.372424602508544922e+00 4.330043315887451172e+00
4.582000000000000000e+03 7.076659393310546875e+01 2.891817665100097656e+01 5.236867442727088928e-02 2.860232830047607422e+00 8.737804889678955078e-01 3.421981573104858398e+00
4.583000000000000000e+03 7.055125427246093750e+01 2.885043144226074219e+01 -1.747641116380691528e-01 2.456203460693359375e+00 6.844317913055419922e-01 3.097676277160644531e+00
4.584000000000000000e+03 6.794286966323852539e-01 3.017029047012329102e+00 1.318708291364600882e-05 -5.085994871478760615e-06 2.430326503599644639e-06 1.965442970686126500e-05
4.585000000000000000e+03 6.907403564453125000e+01 2.890686798095703125e+01 -1.911932587623596191e+00 5.367829203605651855e-01 -4.125449061393737793e-01 1.122512936592102051e+00
4.586000000000000000e+03 4.224148178100585938e+01 3.528236770629882812e+01 -8.992650546133518219e-03 -6.781425327062606812e-03 -4.732222761958837509e-03 1.328969001770019531e-02
4.587000000000000000e+03 4.155273818969726562e+01 3.537884140014648438e+01 -6.717224605381488800e-03 -6.874451879411935806e-03 -4.077502992004156113e-03 1.036647148430347443e-02
4.588000000000000000e+03 4.154359054565429688e+01 3.607349014282226562e+01 -6.855676881968975067e-03 -8.289826102554798126e-03 -4.543650895357131958e-03 1.360913459211587906e-02
4.589000000000000000e+03 3.861568832397460938e+01 3.620680999755859375e+01 2.174175344407558441e-03 -5.463957786560058594e-03 -9.869347559288144112e-04 1.779041951522231102e-03
4.590000000000000000e+03 3.328251266479492188e+01 3.714222717285156250e+01 1.921296236105263233e-03 1.821642392314970493e-03 1.122881541959941387e-03 -2.521781949326395988e-03
4.591000000000000000e+03 3.188191032409667969e+01 3.719314193725585938e+01 1.912064850330352783e-03 1.637110370211303234e-03 1.064752577804028988e-03 -1.700729015283286572e-03
4.592000000000000000e+03 2.173641204833984375e+01 -3.472766876220703125e+01 -2.604359984397888184e-01 -2.293631553649902344e+00 -7.662202715873718262e-01 -2.349760532379150391e-01
4.593000000000000000e+03 1.643590545654296875e+01 -4.007965469360351562e+01 -2.378213703632354736e-01 -2.600047886371612549e-01 -1.493478417396545410e-01 -3.138307332992553711e-01
4.594000000000000000e+03 1.295304489135742188e+01 2.423066139221191406e+00 1.169039023807272315e-06 -1.040679489960893989e-05 -2.771326535366824828e-06 -5.759822215622989461e-06
4.595000000000000000e+03 3.797052383422851562e+00 -3.579604339599609375e+01 4.000690765678882599e-03 5.975325591862201691e-03 2.992805093526840210e-03 9.101762436330318451e-03
4.596000000000000000e+03 2.446986913681030273e+00 2.679031848907470703e+00 1.367888307868270203e-05 6.817440407758112997e-06 6.148896773083833978e-06 -9.562885452396585606e-07
4.597000000000000000e+03 6.972180938720703125e+01 3.321931457519531250e+01 2.838599979877471924e-01 1.623450636863708496e+00 5.721932053565979004e-01 -1.591287016868591309e+00
4.598000000000000000e+03 7.407075500488281250e+01 3.341324996948242188e+01 -1.151762723922729492e+00 1.635140037536621094e+01 4.559891700744628906e+00 4.619111120700836182e-02
4.599000000000000000e+03 7.325583648681640625e+01 3.327023696899414062e+01 -1.342859864234924316e+00 1.608544349670410156e+01 4.422774791717529297e+00 -2.567565441131591797e+00
4.600000000000000000e+03 4.366205978393554688e+01 3.602397537231445312e+01 -1.410621032118797302e-02 -2.386138960719108582e-02 -1.139027997851371765e-02 2.727609127759933472e-02
4.601000000000000000e+03 1.935216712951660156e+01 3.841241073608398438e+01 -2.566135663073509932e-04 -6.466332706622779369e-05 -9.638306073611602187e-05 2.354643220314756036e-04
4.602000000000000000e+03 1.891730690002441406e+01 3.814294815063476562e+01 2.774546155706048012e-04 2.386128617217764258e-04 1.548202417325228453e-04 6.640025821980088949e-05
4.603000000000000000e+03 7.018955230712890625e+01 2.861316490173339844e+01 -4.632498919963836670e-01 2.134357929229736328e+00 5.013324022293090820e-01 2.749130010604858398e+00
4.604000000000000000e+03 7.062409973144531250e+01 2.851236343383789062e+01 -5.724964290857315063e-02 3.229730606079101562e+00 9.517442584037780762e-01 3.538704395294189453e+00
4.605000000000000000e+03 5.840613174438476562e+01 3.652127456665039062e+01 1.434926688671112061e-01 -2.428551167249679565e-01 -2.980873361229896545e-02 4.678335189819335938e-01
4.606000000000000000e+03 6.118024063110351562e+01 3.612240600585937500e+01 7.876981049776077271e-02 -1.171666290611028671e-02 2.011594362556934357e-02 4.806730747222900391e-01
4.607000000000000000e+03 1.057843303680419922e+01 -2.073521041870117188e+01 3.525332314893603325e-03 -2.336410543648526073e-04 9.875074028968811035e-04 -1.500299433246254921e-03
4.608000000000000000e+03 4.483647537231445312e+01 3.723533630371093750e+01 -4.951351787894964218e-03 -4.781043529510498047e-02 -1.582853682339191437e-02 4.259168729186058044e-02
4.609000000000000000e+03 3.167210006713867188e+01 3.772587585449218750e+01 6.479027215391397476e-04 9.722414542920887470e-04 4.860432527493685484e-04 -1.466704998165369034e-03
4.610000000000000000e+03 1.864612007141113281e+01 3.973615264892578125e+01 5.512381903827190399e-04 3.181898136972449720e-05 1.749171497067436576e-04 4.128272848902270198e-05
4.611000000000000000e+03 1.948066329956054688e+01 3.924578857421875000e+01 -1.593150809640064836e-04 -1.550707820570096374e-04 -9.431575745111331344e-05 2.015964564634487033e-04
4.612000000000000000e+03 3.386090087890625000e+01 3.939265441894531250e+01 -9.171122219413518906e-04 8.313119178637862206e-05 -2.501943090464919806e-04 -1.033401698805391788e-03
4.613000000000000000e+03 7.250949096679687500e+01 3.318191909790039062e+01 -4.253820776939392090e-01 1.264757156372070312e+01 3.666656970977783203e+00 -4.905650615692138672e+00
4.614000000000000000e+03 7.220812988281250000e+01 3.302573394775390625e+01 1.771836280822753906e-01 1.089837169647216797e+01 3.322666645050048828e+00 -5.387125015258789062e+00
4.615000000000000000e+03 7.188964843750000000e+01 3.305770492553710938e+01 6.131708025932312012e-01 8.587705612182617188e+00 2.760262727737426758e+00 -5.093857288360595703e+00
4.616000000000000000e+03 4.417220592498779297e+00 -2.673649311065673828e+00 5.871895118616521358e-04 -3.164198133163154125e-04 8.123090810840949416e-05 -9.182804933516308665e-05
4.617000000000000000e+03 1.887168884277343750e+01 3.899149322509765625e+01 -7.144525170588167384e-06 2.747619000729173422e-04 8.028521551750600338e-05 -2.696515875868499279e-04
4.618000000000000000e+03 1.815111923217773438e+01 3.861127471923828125e+01 -5.344384699128568172e-04 2.744135053944773972e-05 -1.520991208963096142e-04 1.340178423561155796e-04
4.619000000000000000e+03 4.416027450561523438e+01 4.043797302246093750e+01 2.362471260130405426e-02 -6.849413365125656128e-02 -1.346082612872123718e-02 2.215396054089069366e-02
4.620000000000000000e+03 4.412946319580078125e+01 3.821847152709960938e+01 3.929323516786098480e-03 -5.125050246715545654e-02 -1.419635396450757980e-02 3.385259956121444702e-02
4.621000000000000000e+03 4.854941177368164062e+01 3.648406219482421875e+01 -9.512711316347122192e-03 -9.103717654943466187e-02 -3.016496635973453522e-02 1.167776659131050110e-01
4.622000000000000000e+03 7.155893707275390625e+01 2.880657768249511719e+01 3.562794625759124756e-01 6.436093807220458984e+00 2.037711858749389648e+00 5.214248180389404297e+00
4.623000000000000000e+03 7.176015472412109375e+01 2.835087776184082031e+01 -2.311111688613891602e-01 8.117741584777832031e+00 2.365989208221435547e+00 5.206305503845214844e+00
4.624000000000000000e+03 7.070260620117187500e+01 3.322292327880859375e+01 9.101653099060058594e-01 3.493708848953247070e+00 1.321162223815917969e+00 -3.042507648468017578e+00
4.625000000000000000e+03 7.442059326171875000e+01 3.327500534057617188e+01 -6.715173125267028809e-01 1.635028648376464844e+01 4.703630924224853516e+00 1.014156818389892578e+00
4.626000000000000000e+03 7.475682830810546875e+01 3.224395370483398438e+01 2.778751611709594727e+00 1.652652168273925781e+01 5.791581630706787109e+00 2.530189275741577148e+00
4.627000000000000000e+03 7.510253906250000000e+01 3.195823669433593750e+01 3.849951505661010742e+00 1.514558982849121094e+01 5.698662281036376953e+00 2.431713581085205078e+00
4.628000000000000000e+03 7.358390808105468750e+01 2.859149360656738281e+01 -1.708896994590759277e+00 1.712251472473144531e+01 4.624085426330566406e+00 1.607587218284606934e+00
4.629000000000000000e+03 7.377610778808593750e+01 2.869356536865234375e+01 -1.453372597694396973e+00 1.753087234497070312e+01 4.823249816894531250e+00 8.596213459968566895e-01
4.630000000000000000e+03 7.417832183837890625e+01 2.898342132568359375e+01 -2.263780534267425537e-01 1.799549865722656250e+01 5.330736160278320312e+00 -9.177312254905700684e-01
4.631000000000000000e+03 7.827037811279296875e+01 -3.592684173583984375e+01 -1.107777375727891922e-02 5.961341857910156250e+00 1.785079121589660645e+00 2.957827970385551453e-02
4.632000000000000000e+03 1.179187774658203125e+01 3.385736846923828125e+01 1.421223132638260722e-04 1.326914753008168191e-05 4.661743878386914730e-05 -3.721426764968782663e-05
4.633000000000000000e+03 2.290267705917358398e+00 3.525998353958129883e+00 -1.263863396161468700e-05 -1.051503841154044494e-05 -6.946102075744420290e-06 1.332427018496673554e-05
4.634000000000000000e+03 1.131975460052490234e+01 2.709253311157226562e+01 1.042410294758155942e-04 -1.184205530080362223e-06 3.091704638791270554e-05 6.417544227588223293e-06
4.635000000000000000e+03 7.132192993164062500e+01 3.653649139404296875e+01 -2.797277867794036865e-01 7.265805721282958984e+00 2.095823287963867188e+00 -2.014540672302246094e+00
4.636000000000000000e+03 7.176732635498046875e+01 3.331711959838867188e+01 5.861075520515441895e-01 8.055420875549316406e+00 2.592458724975585938e+00 -4.750174045562744141e+00
4.637000000000000000e+03 7.207663726806640625e+01 3.318782806396484375e+01 2.907821536064147949e-01 9.858732223510742188e+00 3.044854164123535156e+00 -5.014448165893554688e+00
4.638000000000000000e+03 7.220808410644531250e+01 3.355695343017578125e+01 -2.037826180458068848e-01 1.061435794830322266e+01 3.123172760009765625e+00 -4.531394481658935547e+00
4.639000000000000000e+03 5.955483913421630859e+00 -3.365209341049194336e+00 -9.817023528739809990e-04 1.167003065347671509e-04 -2.595006371848285198e-04 -1.726413611322641373e-04
4.640000000000000000e+03 1.114022541046142578e+01 -2.602874755859375000e+01 -6.468547973781824112e-03 1.672614016570150852e-03 -1.438780105672776699e-03 -1.577055896632373333e-03
4.641000000000000000e+03 1.110306262969970703e+01 -4.168009281158447266e+00 -7.252330542542040348e-04 -3.122347698081284761e-04 -3.112403501290827990e-04 2.181202144129201770e-04
4.642000000000000000e+03 6.783599090576171875e+01 2.650734138488769531e+01 -7.045617103576660156e-01 1.485930442810058594e+00 2.344106435775756836e-01 1.590442061424255371e+00
4.643000000000000000e+03 7.238439941406250000e+01 2.846104812622070312e+01 -9.717651009559631348e-01 1.174300861358642578e+01 3.231373071670532227e+00 5.180428981781005859e+00
4.644000000000000000e+03 7.203456878662109375e+01 2.827934646606445312e+01 -6.367971301078796387e-01 9.762153625488281250e+00 2.737606763839721680e+00 5.164326190948486328e+00
4.645000000000000000e+03 5.953724670410156250e+01 3.637942504882812500e+01 1.325741857290267944e-01 -1.689433604478836060e-01 -1.091075595468282700e-02 5.297389030456542969e-01
4.646000000000000000e+03 7.261065673828125000e+01 2.829286575317382812e+01 -1.421756744384765625e+00 1.283045291900634766e+01 3.422609090805053711e+00 4.583276748657226562e+00
4.647000000000000000e+03 7.314701080322265625e+01 2.833320045471191406e+01 -1.847254753112792969e+00 1.514218521118164062e+01 3.988479137420654297e+00 3.237751483917236328e+00
4.648000000000000000e+03 7.334472656250000000e+01 2.784614562988281250e+01 -2.055948257446289062e+00 1.439266777038574219e+01 3.701015949249267578e+00 2.489104509353637695e+00
4.649000000000000000e+03 7.371599578857421875e+01 2.829409027099609375e+01 -1.752390265464782715e+00 1.625018882751464844e+01 4.349339962005615234e+00 1.274127006530761719e+00
4.650000000000000000e+03 7.390740203857421875e+01 2.838521957397460938e+01 -1.633368134498596191e+00 1.668891143798828125e+01 4.516663074493408203e+00 6.951147317886352539e-01
4.651000000000000000e+03 9.641874313354492188e+00 3.166322326660156250e+01 -2.112741458404343575e-05 -2.381017793595674448e-06 -7.052529781503835693e-06 -4.070511567988432944e-05
4.652000000000000000e+03 7.555265045166015625e+01 2.981641197204589844e+01 3.474633932113647461e+00 1.381335926055908203e+01 5.186398029327392578e+00 -2.096345663070678711e+00
4.653000000000000000e+03 7.091398620605468750e+01 3.282394027709960938e+01 1.199086070060729980e+00 3.336510181427001953e+00 1.360678911209106445e+00 -3.174468994140625000e+00
4.654000000000000000e+03 7.535829925537109375e+01 2.890667915344238281e+01 1.079601407051086426e+00 1.448319244384765625e+01 4.668838024139404297e+00 -2.235358238220214844e+00
4.655000000000000000e+03 6.484808349609375000e+01 3.523242187500000000e+01 6.425961852073669434e-02 3.590777516365051270e-01 1.270012110471725464e-01 2.208406329154968262e-01
4.656000000000000000e+03 1.004703235626220703e+01 1.391122817993164062e+01 -3.203409141860902309e-05 -3.232063590985490009e-06 -1.057984627550467849e-05 -2.662802899067173712e-06
4.657000000000000000e+03 9.434205055236816406e+00 2.516324615478515625e+01 -4.870706834481097758e-05 -1.731658085191156715e-05 -1.980709384952206165e-05 3.189072231180034578e-06
4.658000000000000000e+03 4.987225532531738281e+00 -6.547666072845458984e+00 1.463641296140849590e-03 3.257390635553747416e-04 5.368140991777181625e-04 7.100707443896681070e-05
4.659000000000000000e+03 7.105529785156250000e+01 3.288508605957031250e+01 1.231912255287170410e+00 4.197758674621582031e+00 1.628901243209838867e+00 -3.660099267959594727e+00
4.660000000000000000e+03 7.353510284423828125e+01 2.821437072753906250e+01 -1.901912927627563477e+00 1.577801704406738281e+01 4.162831306457519531e+00 1.911016821861267090e+00
4.661000000000000000e+03 7.535806274414062500e+01 3.184648895263671875e+01 3.946148395538330078e+00 1.424981880187988281e+01 5.458790302276611328e+00 2.149281978607177734e+00
4.662000000000000000e+03 7.495378875732421875e+01 3.174479866027832031e+01 4.690045833587646484e+00 1.550880908966064453e+01 6.059656620025634766e+00 2.331263780593872070e+00
4.663000000000000000e+03 7.491928100585937500e+01 3.200731277465820312e+01 3.917298078536987305e+00 1.588638687133789062e+01 5.941105842590332031e+00 2.658092737197875977e+00
4.664000000000000000e+03 7.474124908447265625e+01 3.202816009521484375e+01 3.936636686325073242e+00 1.670403861999511719e+01 6.192202568054199219e+00 2.717752218246459961e+00
4.665000000000000000e+03 5.896952629089355469e+00 -2.991254234313964844e+01 1.296750968322157860e-03 -4.469503648579120636e-03 -9.518258157186210155e-04 6.468926439993083477e-04
4.666000000000000000e+03 4.350740909576416016e+00 -2.948971939086914062e+01 -2.403836231678724289e-03 -1.943086856044828892e-03 -1.304076984524726868e-03 -1.084104413166642189e-03
4.667000000000000000e+03 1.106490898132324219e+01 -4.967156410217285156e+00 8.782848599366843700e-04 1.404156937496736646e-04 3.056101559195667505e-04 2.450877800583839417e-04
4.668000000000000000e+03 7.148061370849609375e+01 2.782745933532714844e+01 -4.902598261833190918e-01 7.135525703430175781e+00 1.993579864501953125e+00 4.567538738250732422e+00
4.669000000000000000e+03 7.503010559082031250e+01 3.216295242309570312e+01 3.243746042251586914e+00 1.545520877838134766e+01 5.609686374664306641e+00 2.529594898223876953e+00
4.670000000000000000e+03 7.551988220214843750e+01 3.281299209594726562e+01 1.207597970962524414e+00 1.414191913604736328e+01 4.604855060577392578e+00 2.365421533584594727e+00
4.671000000000000000e+03 7.122926330566406250e+01 3.284757995605468750e+01 1.403582215309143066e+00 4.576489448547363281e+00 1.794021606445312500e+00 -4.116236686706542969e+00
4.672000000000000000e+03 6.088088035583496094e+00 -8.741079330444335938e+00 -1.420349464751780033e-03 -3.993218997493386269e-04 -5.459014209918677807e-04 -1.827976520871743560e-04
4.673000000000000000e+03 7.383051395416259766e+00 5.732769012451171875e+00 -2.022758053499273956e-05 -5.219934791966807097e-06 -7.634254870936274529e-06 3.767458736092521576e-07
4.674000000000000000e+03 7.554721069335937500e+01 2.784512519836425781e+01 -7.172386646270751953e-01 1.357101440429687500e+01 3.856132745742797852e+00 -1.657231926918029785e+00
4.675000000000000000e+03 7.186723327636718750e+01 2.763987731933593750e+01 -9.486418962478637695e-01 8.719090461730957031e+00 2.331134557723999023e+00 4.484488964080810547e+00
4.676000000000000000e+03 7.642536163330078125e+01 2.949403381347656250e+01 2.024723291397094727e+00 1.195645236968994141e+01 4.194352626800537109e+00 -1.844601035118103027e+00
4.677000000000000000e+03 6.403999328613281250e+01 2.553903579711914062e+01 -1.085219740867614746e+00 4.966238141059875488e-01 -1.765787750482559204e-01 3.777860999107360840e-01
4.678000000000000000e+03 8.155076980590820312e+00 -2.648109245300292969e+01 7.960493676364421844e-04 -5.237340927124023438e-03 -1.332387444563210011e-03 2.630488015711307526e-03
4.679000000000000000e+03 8.397128105163574219e+00 -3.272541427612304688e+01 1.845888234674930573e-02 1.044482574798166752e-03 5.851009394973516464e-03 -9.191724820993840694e-04
4.680000000000000000e+03 7.471918487548828125e+01 3.422536849975585938e+01 -1.247803211212158203e+00 1.442843151092529297e+01 3.954188585281372070e+00 7.263164520263671875e-01
4.681000000000000000e+03 7.487848663330078125e+01 3.470298004150390625e+01 -1.385151505470275879e+00 1.352415275573730469e+01 3.641700506210327148e+00 6.357579231262207031e-01
4.682000000000000000e+03 6.788094043731689453e+00 -2.911264801025390625e+01 3.301329212263226509e-03 6.413143128156661987e-03 2.914341632276773453e-03 -8.905577124096453190e-04
4.683000000000000000e+03 4.091259002685546875e+00 -2.620707893371582031e+01 4.131697583943605423e-03 -5.670848186127841473e-04 1.069383812136948109e-03 -9.087162325158715248e-04
4.684000000000000000e+03 9.675336837768554688e+00 2.875494194030761719e+01 -1.781029459380079061e-05 -6.859873337816679850e-06 -7.401050424959976226e-06 2.425548336759675294e-05
4.685000000000000000e+03 1.046632766723632812e+01 2.829823303222656250e+01 1.105142218875698745e-04 -1.318018075835425407e-05 2.920021324825938791e-05 8.306760150844638702e-07
4.686000000000000000e+03 7.160598754882812500e+01 2.748173904418945312e+01 -7.924457192420959473e-01 7.869592189788818359e+00 2.123143911361694336e+00 4.309745788574218750e+00
4.687000000000000000e+03 7.602841186523437500e+01 2.957740020751953125e+01 2.324821472167968750e+00 1.262565326690673828e+01 4.485142230987548828e+00 -2.065209150314331055e+00
4.688000000000000000e+03 5.681181907653808594e+00 -2.359655570983886719e+01 -5.146147683262825012e-03 1.073465973604470491e-04 -1.511640264652669430e-03 9.509003721177577972e-04
4.689000000000000000e+03 9.090685844421386719e+00 1.416040229797363281e+01 2.579119427537079901e-05 9.982936717278789729e-07 8.036846338654868305e-06 3.628134891187073663e-06
4.690000000000000000e+03 7.383625030517578125e+01 2.795674896240234375e+01 -1.917866110801696777e+00 1.534762096405029297e+01 4.028926372528076172e+00 1.022675275802612305e+00
4.691000000000000000e+03 7.536552429199218750e+01 -3.425660705566406250e+01 -7.037159986793994904e-03 5.551531314849853516e+00 1.663348197937011719e+00 1.040413882583379745e-02
4.692000000000000000e+03 1.026210498809814453e+01 -1.128338146209716797e+01 -1.803479506634175777e-03 -8.171857916750013828e-05 -5.655594286508858204e-04 7.907611434347927570e-04
4.693000000000000000e+03 6.060669708251953125e+01 -1.985870170593261719e+01 1.735167950391769409e-01 3.342789411544799805e+00 1.054891824722290039e+00 1.500551998615264893e-01
4.694000000000000000e+03 7.187278747558593750e+01 2.686355972290039062e+01 -1.162828803062438965e+00 8.628932952880859375e+00 2.239831209182739258e+00 3.942047834396362305e+00
4.695000000000000000e+03 7.144486999511718750e+01 2.698234558105468750e+01 -8.364506959915161133e-01 7.294082641601562500e+00 1.937289595603942871e+00 3.961054563522338867e+00
4.696000000000000000e+03 5.696714401245117188e+00 -1.924836921691894531e+01 2.686816966161131859e-03 1.473672222346067429e-03 1.248146756552159786e-03 2.037373342318460345e-04
4.697000000000000000e+03 7.831040859222412109e+00 1.392907047271728516e+01 2.369499270571395755e-06 6.396147000486962497e-06 2.629693881317507476e-06 3.689235199999529868e-06
4.698000000000000000e+03 7.338027954101562500e+00 2.765591430664062500e+01 4.851614357903599739e-05 2.169095205317717046e-05 2.106212741637136787e-05 -1.061039165506372228e-05
4.699000000000000000e+03 7.320738220214843750e+01 2.606410026550292969e+01 -1.856182098388671875e+00 1.087697505950927734e+01 2.706237792968750000e+00 2.247504711151123047e+00
4.700000000000000000e+03 2.990652656555175781e+01 -2.103571510314941406e+01 5.906192585825920105e-02 -1.038758277893066406e+00 -2.939088940620422363e-01 -1.265930980443954468e-01
4.701000000000000000e+03 7.267823028564453125e+01 -2.976263236999511719e+01 2.577002160251140594e-02 5.164053916931152344e+00 1.556947112083435059e+00 5.325725302100181580e-02
4.702000000000000000e+03 9.021371841430664062e+00 1.596153163909912109e+01 1.578730734763666987e-05 2.309506453457288444e-05 1.166471156466286629e-05 1.068194615072570741e-05
4.703000000000000000e+03 6.965802669525146484e+00 1.468529605865478516e+01 1.161106774816289544e-05 -1.668585582592641003e-06 2.982744490509503521e-06 3.202792413503630087e-06
4.704000000000000000e+03 6.279727935791015625e+00 1.077991294860839844e+01 -1.280437663808697835e-05 1.171215626527555287e-05 -3.276660436313250102e-07 -1.186582539958180860e-05
4.705000000000000000e+03 6.835882568359375000e+01 -2.335976409912109375e+01 7.241880893707275391e-02 4.577558040618896484e+00 1.394993066787719727e+00 1.051029041409492493e-01
4.706000000000000000e+03 5.467258453369140625e+00 1.984379577636718750e+01 -6.129821122158318758e-05 7.175446171459043398e-06 -1.623682874196674675e-05 1.418812826159410179e-05
4.707000000000000000e+03 7.365664672851562500e+01 2.577888107299804688e+01 -1.886346697807312012e+00 1.110981845855712891e+01 2.767041683197021484e+00 1.602590322494506836e+00
4.708000000000000000e+03 7.330206298828125000e+01 2.529553985595703125e+01 -1.705798625946044922e+00 1.023007011413574219e+01 2.557281494140625000e+00 1.899786949157714844e+00
4.709000000000000000e+03 6.567698669433593750e+01 2.264537811279296875e+01 -3.877944126725196838e-02 1.863759517669677734e+00 5.474940538406372070e-01 1.170138597488403320e+00
4.710000000000000000e+03 6.793260955810546875e+01 2.326328086853027344e+01 -1.015833169221878052e-01 3.173128604888916016e+00 9.214636087417602539e-01 1.904287099838256836e+00
4.711000000000000000e+03 2.831368827819824219e+01 -2.102810621261596680e+00 4.766809567809104919e-02 -1.110611915588378906e+00 -3.188831508159637451e-01 -3.396561145782470703e-01
4.712000000000000000e+03 5.713938713073730469e+00 1.115521240234375000e+01 2.211335959145799279e-05 5.408408469520509243e-06 8.256530236394610256e-06 1.209779748023720458e-05
4.713000000000000000e+03 7.166716766357421875e+01 2.664997863769531250e+01 -1.025800466537475586e+00 7.941403865814208984e+00 2.074681043624877930e+00 3.726972818374633789e+00
4.714000000000000000e+03 7.223780822753906250e+01 2.674356651306152344e+01 -1.454253077507019043e+00 9.547692298889160156e+00 2.428031682968139648e+00 3.497809171676635742e+00
4.715000000000000000e+03 7.365995788574218750e+01 2.481091308593750000e+01 -1.617769718170166016e+00 1.023202228546142578e+01 2.584275722503662109e+00 1.466498494148254395e+00
4.716000000000000000e+03 3.409748840332031250e+01 -1.618729400634765625e+01 1.305885910987854004e-01 -4.711252152919769287e-01 -1.021609827876091003e-01 -1.703553944826126099e-01
4.717000000000000000e+03 5.364352416992187500e+01 2.424849510192871094e+01 -1.126676321029663086e+00 7.835977524518966675e-02 -3.144949674606323242e-01 -5.524969100952148438e-01
4.718000000000000000e+03 7.195170593261718750e+01 2.655837059020996094e+01 -1.252413272857666016e+00 8.667352676391601562e+00 2.224481821060180664e+00 3.586330175399780273e+00
4.719000000000000000e+03 3.191272163391113281e+01 -1.034750175476074219e+01 9.695404022932052612e-02 -7.533154487609863281e-01 -1.969084143638610840e-01 -2.608745694160461426e-01
4.720000000000000000e+03 7.419622802734375000e+01 2.343056678771972656e+01 -1.244597911834716797e+00 9.613422393798828125e+00 2.510647296905517578e+00 1.064331650733947754e+00
4.721000000000000000e+03 7.412437438964843750e+01 2.276058959960937500e+01 -1.028635859489440918e+00 9.216572761535644531e+00 2.456381082534790039e+00 1.070794820785522461e+00
4.722000000000000000e+03 3.947483062744140625e+01 2.542469024658203125e+01 -6.171982288360595703e-01 2.804517745971679688e-02 -1.767459213733673096e-01 -5.435400605201721191e-01
4.723000000000000000e+03 6.842761993408203125e+01 2.224478721618652344e+01 -5.653061717748641968e-02 3.850867748260498047e+00 1.138301134109497070e+00 1.929825186729431152e+00
4.724000000000000000e+03 7.324687194824218750e+01 2.275153160095214844e+01 -1.044903993606567383e+00 8.570653915405273438e+00 2.257725000381469727e+00 1.576459646224975586e+00
4.725000000000000000e+03 3.051679801940917969e+01 2.608301544189453125e+01 -2.236135154962539673e-01 -1.114577129483222961e-01 -1.005213707685470581e-01 -3.362110853195190430e-01
4.726000000000000000e+03 3.653695297241210938e+01 -9.572389602661132812e+00 1.760116219520568848e-01 -1.964324116706848145e-01 -6.126238033175468445e-03 -2.602615952491760254e-01
4.727000000000000000e+03 7.148905181884765625e+01 1.034457397460937500e+01 2.819278836250305176e-01 5.805435180664062500e+00 1.826208949089050293e+00 1.015441775321960449e+00
4.728000000000000000e+03 7.077198791503906250e+01 2.061515617370605469e+01 -2.588000893592834473e-01 5.931664943695068359e+00 1.701859474182128906e+00 1.830716967582702637e+00
4.729000000000000000e+03 7.225469207763671875e+01 1.768681144714355469e+01 -4.714486375451087952e-02 6.613423347473144531e+00 1.969883561134338379e+00 1.382404804229736328e+00
4.730000000000000000e+03 7.131082916259765625e+01 1.901146697998046875e+01 -1.148125603795051575e-01 6.194829940795898438e+00 1.824005246162414551e+00 1.569145917892456055e+00
4.731000000000000000e+03 7.073698425292968750e+01 1.870877075195312500e+01 -1.255176868289709091e-02 5.747208595275878906e+00 1.720396995544433594e+00 1.604398727416992188e+00
4.732000000000000000e+03 7.023606872558593750e+01 -6.699848651885986328e+00 1.577877700328826904e-01 5.059149265289306641e+00 1.565081119537353516e+00 3.697897195816040039e-01
4.733000000000000000e+03 3.465676116943359375e+01 -4.258732795715332031e+00 1.532413810491561890e-01 -4.506863355636596680e-01 -8.923348784446716309e-02 -3.710594475269317627e-01
4.734000000000000000e+03 6.544126892089843750e+01 1.791530227661132812e+01 4.254357516765594482e-01 2.793457984924316406e+00 9.656681418418884277e-01 1.170110225677490234e+00
4.735000000000000000e+03 6.440603637695312500e+01 1.815640068054199219e+01 4.205194711685180664e-01 2.332621574401855469e+00 8.259422779083251953e-01 9.862562417984008789e-01
4.736000000000000000e+03 3.496894073486328125e+01 -5.690006732940673828e+00 1.591383069753646851e-01 -4.150149524211883545e-01 -7.676298916339874268e-02 -3.405236005783081055e-01
4.737000000000000000e+03 5.411954879760742188e+01 2.325258636474609375e+01 -8.820028305053710938e-01 1.152198165655136108e-01 -2.300349175930023193e-01 -5.362533330917358398e-01
4.738000000000000000e+03 5.553311920166015625e+01 2.339220619201660156e+01 -9.086017012596130371e-01 1.335550695657730103e-01 -2.325139939785003662e-01 -4.723952710628509521e-01
4.739000000000000000e+03 7.140052032470703125e+01 1.723939704895019531e+01 4.171350970864295959e-02 6.032884597778320312e+00 1.822379469871520996e+00 1.425649523735046387e+00
4.740000000000000000e+03 7.022753906250000000e+01 7.494477272033691406e+00 3.436380624771118164e-01 5.242465972900390625e+00 1.675831317901611328e+00 9.098061323165893555e-01
4.741000000000000000e+03 6.665801239013671875e+01 1.700143623352050781e+01 4.175633490085601807e-01 3.480553150177001953e+00 1.169435024261474609e+00 1.273041725158691406e+00
4.742000000000000000e+03 5.355234146118164062e+01 2.133402061462402344e+01 -5.039765834808349609e-01 1.978151053190231323e-01 -9.184844046831130981e-02 -5.359363555908203125e-01
4.743000000000000000e+03 3.968562316894531250e+01 2.205580902099609375e+01 -4.343115985393524170e-01 -1.676141284406185150e-02 -1.353219002485275269e-01 -6.860552430152893066e-01
4.744000000000000000e+03 7.115084075927734375e+01 1.564535045623779297e+01 1.700618267059326172e-01 5.783104419708251953e+00 1.785949826240539551e+00 1.359702706336975098e+00
4.745000000000000000e+03 5.400901031494140625e+01 2.054824829101562500e+01 -3.378059267997741699e-01 2.627825140953063965e-01 -2.250702492892742157e-02 -4.849649071693420410e-01
4.746000000000000000e+03 6.323599243164062500e+01 -3.439907789230346680e+00 3.921824991703033447e-01 3.580174446105957031e+00 1.191707134246826172e+00 4.130812883377075195e-01
4.747000000000000000e+03 6.916258239746093750e+01 1.472892189025878906e+01 3.523951768875122070e-01 4.851069927215576172e+00 1.561039566993713379e+00 1.293876767158508301e+00
4.748000000000000000e+03 5.577725982666015625e+01 2.129270744323730469e+01 -4.164941906929016113e-01 2.848113477230072021e-01 -3.950485587120056152e-02 -3.932869136333465576e-01
4.749000000000000000e+03 6.624177551269531250e+01 5.598559856414794922e+00 4.904204010963439941e-01 4.056820869445800781e+00 1.364172339439392090e+00 7.847549915313720703e-01
4.750000000000000000e+03 5.417653656005859375e+01 2.115410041809082031e+01 -4.502622485160827637e-01 2.340695410966873169e-01 -6.485781818628311157e-02 -4.989819526672363281e-01
4.751000000000000000e+03 3.475804901123046875e+01 1.847924804687500000e+01 -1.668373942375183105e-01 -2.095129191875457764e-01 -1.129050925374031067e-01 -6.599748134613037109e-01
4.752000000000000000e+03 5.957057189941406250e+01 1.823264122009277344e+01 2.763762772083282471e-01 1.038022756576538086e+00 3.943197131156921387e-01 2.058628648519515991e-01
4.753000000000000000e+03 6.157791137695312500e+01 1.757724952697753906e+01 4.196645319461822510e-01 1.557465553283691406e+00 5.931390523910522461e-01 5.354894995689392090e-01
4.754000000000000000e+03 5.556173324584960938e+01 2.071002578735351562e+01 -3.253559172153472900e-01 3.066453933715820312e-01 -5.613158456981182098e-03 -3.840539753437042236e-01
4.755000000000000000e+03 5.199064636230468750e+01 1.827648925781250000e+01 -7.364696264266967773e-02 3.068464398384094238e-01 6.995984166860580444e-02 -5.335142612457275391e-01
4.756000000000000000e+03 5.192063903808593750e+01 1.730577850341796875e+01 3.514162451028823853e-02 3.508560955524444580e-01 1.157993152737617493e-01 -5.061020851135253906e-01
4.757000000000000000e+03 5.292370986938476562e+01 1.792230987548828125e+01 7.337864954024553299e-03 3.702901005744934082e-01 1.132883876562118530e-01 -4.644725918769836426e-01
4.758000000000000000e+03 3.952780914306640625e+01 4.389350891113281250e+00 2.408470064401626587e-01 -3.668373450636863708e-02 6.124898046255111694e-02 -5.336370468139648438e-01
4.759000000000000000e+03 6.039373397827148438e+01 -5.455261468887329102e-02 5.114627480506896973e-01 2.889905691146850586e+00 1.020410537719726562e+00 3.838007152080535889e-01
4.760000000000000000e+03 4.192898559570312500e+01 1.776032829284667969e+01 -1.739944219589233398e-01 -4.574013408273458481e-03 -5.357053130865097046e-02 -7.634487748146057129e-01
4.761000000000000000e+03 4.175728988647460938e+01 1.396814060211181641e+01 4.242938756942749023e-02 8.368956856429576874e-03 1.523950323462486267e-02 -7.262590527534484863e-01
4.762000000000000000e+03 6.135017776489257812e+01 2.762212038040161133e+00 5.691448450088500977e-01 2.975317955017089844e+00 1.063338875770568848e+00 4.886983036994934082e-01
4.763000000000000000e+03 3.989845657348632812e+01 7.094654560089111328e+00 2.044045329093933105e-01 -4.464801773428916931e-02 4.792695119976997375e-02 -5.992277860641479492e-01
4.764000000000000000e+03 4.079570388793945312e+01 6.599547386169433594e+00 2.534238696098327637e-01 3.391092270612716675e-02 8.620043843984603882e-02 -5.741828083992004395e-01
4.765000000000000000e+03 5.135875701904296875e+01 6.859705924987792969e+00 5.323596000671386719e-01 9.731568694114685059e-01 4.516549408435821533e-01 -1.904489845037460327e-01
4.766000000000000000e+03 5.504096984863281250e+01 1.632982254028320312e+01 2.618150413036346436e-01 6.767581105232238770e-01 2.815719246864318848e-01 -2.286972552537918091e-01
4.767000000000000000e+03 4.407292556762695312e+01 1.723915100097656250e+01 -1.301009356975555420e-01 6.107862293720245361e-02 -2.070669271051883698e-02 -7.524315714836120605e-01
4.768000000000000000e+03 5.443790054321289062e+01 1.679812622070312500e+01 1.915648430585861206e-01 5.735704302787780762e-01 2.295405715703964233e-01 -3.028653860092163086e-01
4.769000000000000000e+03 5.618626403808593750e+01 6.099254608154296875e+00 6.186332106590270996e-01 1.713759422302246094e+00 6.997177600860595703e-01 1.412449777126312256e-01
4.770000000000000000e+03 3.858803558349609375e+01 1.426018524169921875e+01 -1.499436795711517334e-02 -1.343978494405746460e-01 -4.481766372919082642e-02 -7.316107749938964844e-01
4.771000000000000000e+03 5.846038818359375000e+01 1.796772956848144531e+01 2.490687221288681030e-01 8.990159034729003906e-01 3.444253802299499512e-01 6.225247308611869812e-02
4.772000000000000000e+03 4.387410736083984375e+01 7.777813434600830078e+00 3.083481490612030029e-01 2.436334788799285889e-01 1.655944883823394775e-01 -5.434359908103942871e-01
4.773000000000000000e+03 4.840822601318359375e+01 1.466429042816162109e+01 1.497968882322311401e-01 3.023930788040161133e-01 1.356569826602935791e-01 -5.893716812133789062e-01
4.774000000000000000e+03 4.405862426757812500e+01 1.658997726440429688e+01 -7.877366244792938232e-02 7.043777406215667725e-02 -2.500766888260841370e-03 -7.451593279838562012e-01
4.775000000000000000e+03 6.072435379028320312e+01 1.504450988769531250e+01 5.539290904998779297e-01 1.716327905654907227e+00 6.810771226882934570e-01 4.649365246295928955e-01
4.776000000000000000e+03 4.342995071411132812e+01 1.721983146667480469e+01 -1.376618295907974243e-01 4.451333731412887573e-02 -2.794454805552959442e-02 -7.583479881286621094e-01
4.777000000000000000e+03 5.449293899536132812e+01 1.377017402648925781e+01 4.206341207027435303e-01 8.322154879570007324e-01 3.758548796176910400e-01 -1.794060319662094116e-01
4.778000000000000000e+03 4.272035980224609375e+01 1.414592361450195312e+01 5.061880871653556824e-02 4.415704309940338135e-02 2.843275479972362518e-02 -7.203875780105590820e-01
4.779000000000000000e+03 4.334079360961914062e+01 1.517339324951171875e+01 -5.036471877247095108e-03 5.825852975249290466e-02 1.596661843359470367e-02 -7.313050031661987305e-01
4.780000000000000000e+03 4.396472167968750000e+01 1.391363334655761719e+01 7.963160425424575806e-02 1.008923947811126709e-01 5.415720120072364807e-02 -6.993311047554016113e-01
4.781000000000000000e+03 5.754549789428710938e+01 1.575503253936767578e+01 4.185803234577178955e-01 1.027331471443176270e+00 4.337735474109649658e-01 5.434878915548324585e-02
4.782000000000000000e+03 5.723086929321289062e+01 1.325993824005126953e+01 5.403383374214172363e-01 1.256896138191223145e+00 5.391703248023986816e-01 9.126715362071990967e-02
4.783000000000000000e+03 4.271373367309570312e+01 1.144314861297607422e+01 1.654811501502990723e-01 7.853974401950836182e-02 7.320626825094223022e-02 -6.653865575790405273e-01
4.784000000000000000e+03 4.351279449462890625e+01 1.452550220489501953e+01 4.625343903899192810e-02 7.508352398872375488e-02 3.640108928084373474e-02 -7.169981002807617188e-01
4.785000000000000000e+03 5.287763595581054688e+01 1.089750003814697266e+01 4.903081357479095459e-01 8.922043442726135254e-01 4.147537648677825928e-01 -2.071393579244613647e-01
4.786000000000000000e+03 1.426702117919921875e+01 1.252673983573913574e+00 -7.040663149382453412e-06 3.919280970876570791e-07 -1.994620561163173988e-06 -4.960809292242629454e-06
4.787000000000000000e+03 1.462149238586425781e+01 1.164639949798583984e+00 1.558121948619373143e-05 1.597082700754981488e-06 5.153490292286733165e-06 -2.220295527877169661e-06
4.788000000000000000e+03 1.332876110076904297e+01 1.093653082847595215e+00 -2.586490609246538952e-06 -3.786992465393268503e-06 -1.912044808705104515e-06 -3.353614147272310220e-06
4.789000000000000000e+03 1.406522464752197266e+01 3.572364747524261475e-01 -2.034656290561542846e-06 -1.681811454545822926e-06 -1.114940346269577276e-06 -2.529775144921586616e-07
4.790000000000000000e+03 1.336003494262695312e+01 3.511472940444946289e-01 1.063268427969887853e-06 3.308357463538413867e-06 1.311487721977755427e-06 1.224680090672336519e-06
4.791000000000000000e+03 1.476313018798828125e+01 5.016638040542602539e-01 7.529051231358607765e-07 8.969342957243497949e-07 4.949517915520118549e-07 4.184993827038852032e-07
4.792000000000000000e+03 1.414069938659667969e+01 9.322270154953002930e-01 1.015274574456270784e-05 -3.196199713784153573e-06 2.086963831970933825e-06 4.184111276117619127e-06
4.793000000000000000e+03 1.384797477722167969e+01 1.187353014945983887e+00 2.415150447632186115e-06 1.149544686995795928e-06 1.069408540388394613e-06 2.882883791244239546e-06
4.794000000000000000e+03 1.112969017028808594e+01 3.708996772766113281e-01 -1.291157559535349719e-06 -5.824883828609017655e-06 -2.134812348231207579e-06 -1.374727673919551307e-07
4.795000000000000000e+03 1.113907623291015625e+01 1.110847473144531250e+00 4.064668246428482234e-06 4.888244347966974601e-06 2.685873823793372139e-06 2.893644079904333921e-07
4.796000000000000000e+03 1.263169097900390625e+01 3.451149165630340576e-01 -1.042801613948540762e-06 -4.813280156668042764e-06 -1.756824531184975058e-06 -5.887358724976365920e-07
4.797000000000000000e+03 1.037880802154541016e+01 3.837110698223114014e-01 1.344027282357274089e-06 6.162536010378971696e-06 2.251968908240087330e-06 2.376056471575793694e-07
4.798000000000000000e+03 1.188065242767333984e+01 3.580341637134552002e-01 1.152141408056195360e-06 5.526663699129130691e-06 2.003641611736384220e-06 2.330088477719982620e-07
4.799000000000000000e+03 1.264514160156250000e+01 1.084993243217468262e+00 2.561176188464742154e-06 4.383917712402762845e-06 2.083528215734986588e-06 1.386129838465421926e-06
4.800000000000000000e+03 1.038616180419921875e+01 1.123693704605102539e+00 -4.044375600642524660e-06 -5.253968083707150072e-06 -2.789503014355432242e-06 -5.902290922676911578e-07
4.801000000000000000e+03 1.189207077026367188e+01 1.097947120666503906e+00 -3.316770744277164340e-06 -4.739798441733000800e-06 -2.416970801277784631e-06 -3.395443286535737570e-07
4.802000000000000000e+03 9.625078201293945312e+00 3.871397972106933594e-01 -1.311611981691385154e-06 -6.630570169363636523e-06 -2.382654656685190275e-06 -3.936267773951840354e-07
4.803000000000000000e+03 8.868724822998046875e+00 3.828192353248596191e-01 1.313843995376373641e-06 6.986217158555518836e-06 2.490018232492730021e-06 4.311402221901516896e-07
4.804000000000000000e+03 9.644926071166992188e+00 1.127139806747436523e+00 3.783532747547724284e-06 5.854146365891210735e-06 2.891303665819577873e-06 7.107256578819942661e-07
4.805000000000000000e+03 8.112174034118652344e+00 3.804100155830383301e-01 -1.273646489607926924e-06 -6.852536898804828525e-06 -2.437855073367245495e-06 -3.659119727217330365e-07
4.806000000000000000e+03 7.356014251708984375e+00 3.793691694736480713e-01 1.354742380499374121e-06 6.236470653675496578e-06 2.277363819302991033e-06 2.824147884439298650e-07
4.807000000000000000e+03 5.843623161315917969e+00 3.767499327659606934e-01 1.306812578150129411e-06 3.880970780301140621e-06 1.556334950691962149e-06 -7.703663840175067890e-08
4.808000000000000000e+03 5.088051319122314453e+00 3.757717311382293701e-01 -9.009919494928908534e-07 -2.267373929498717189e-06 -9.505097864348499570e-07 5.442665838018001523e-07
4.809000000000000000e+03 3.576755046844482422e+00 3.680583238601684570e-01 -1.274387727789871860e-06 7.422287922054238152e-07 -1.596476835175053566e-07 8.806643450043338817e-07
4.810000000000000000e+03 2.822042465209960938e+00 3.613462746143341064e-01 2.014714482356794178e-06 -1.031855845212703571e-06 2.948575854588852962e-07 -4.135017945827712538e-07
4.811000000000000000e+03 2.068703651428222656e+00 3.577998280525207520e-01 -1.400834321430011187e-06 6.495864681710372679e-07 -2.253743645042050048e-07 2.109341892264637863e-07
4.812000000000000000e+03 2.358754634857177734e+00 1.097799897193908691e+00 4.872035788139328361e-06 5.083082328383170534e-07 1.614103211977635510e-06 6.739860509696882218e-07
4.813000000000000000e+03 1.327708005905151367e+00 3.658417165279388428e-01 3.744319698739673186e-08 -1.041828681991319172e-06 -3.013156231190805556e-07 -1.405853709002258256e-06
4.814000000000000000e+03 1.644779324531555176e+00 1.105841755867004395e+00 -2.468781985953683034e-06 -2.596359763629152440e-06 -1.519542593086953275e-06 -5.599066525974194519e-07
4.815000000000000000e+03 6.509408354759216309e-01 3.937322795391082764e-01 5.228929239819990471e-06 4.473585704545257613e-06 2.910754574259044603e-06 5.754146059189224616e-06
4.816000000000000000e+03 3.482567369937896729e-01 9.569563269615173340e-01 -7.914326488389633596e-06 -5.123626124259317294e-06 -3.911385647370480001e-06 -1.781934315658872947e-06
4.817000000000000000e+03 3.085073232650756836e+00 1.101346254348754883e+00 -5.440165750769665465e-06 -9.454259952690335922e-08 -1.660412408455158584e-06 2.869610398192889988e-07
4.818000000000000000e+03 3.812765598297119141e+00 1.108058333396911621e+00 4.623777840606635436e-06 8.493303766954340972e-07 1.641932499296672177e-06 -1.557325617795868311e-06
4.819000000000000000e+03 4.332499980926513672e+00 3.732680678367614746e-01 1.268534674636612181e-06 5.214486691329511814e-07 5.369950031308690086e-07 -8.924386065700673498e-07
4.820000000000000000e+03 5.998572826385498047e+00 1.116749882698059082e+00 -3.134436155960429460e-06 -3.807165057878592052e-06 -2.082480477838544175e-06 1.436420689060469158e-06
4.821000000000000000e+03 6.600036144256591797e+00 3.784387111663818359e-01 -1.240491883436334319e-06 -5.195670837565558031e-06 -1.930848839037935250e-06 -1.366827575566276209e-07
4.822000000000000000e+03 8.186062812805175781e+00 1.120409965515136719e+00 3.450713620622991584e-06 5.750016043748473749e-06 2.760218876574072056e-06 -2.337978912692051381e-07
4.823000000000000000e+03 8.915593147277832031e+00 1.122819185256958008e+00 -3.435522103245602921e-06 -5.982640686852391809e-06 -2.825448973453603685e-06 -2.757016375198872993e-07
4.824000000000000000e+03 7.456923484802246094e+00 1.119369149208068848e+00 -3.412599426155793481e-06 -5.274554496281780303e-06 -2.606146153993904591e-06 6.955903586458589416e-07
4.825000000000000000e+03 6.727965354919433594e+00 1.118438720703125000e+00 3.411336138015030883e-06 4.637041456589940935e-06 2.414513119219918735e-06 -1.009331299428595230e-06
4.826000000000000000e+03 5.270021438598632812e+00 1.115771770477294922e+00 3.013777131855022162e-06 2.996728426296613179e-06 1.803151690182858147e-06 -1.718543899187352508e-06
4.827000000000000000e+03 4.541490077972412109e+00 1.113268017768859863e+00 -3.232317112633609213e-06 -2.061012992271571420e-06 -1.587999008734186646e-06 2.030082214332651347e-06
4.828000000000000000e+03 9.950323700904846191e-01 1.133732318878173828e+00 -1.849422574196069036e-06 7.246330824273172766e-06 1.619072463654447347e-06 -2.128162805092870258e-06
4.829000000000000000e+03 7.951600551605224609e+00 -3.791473805904388428e-01 1.021171265165321529e-04 5.429080556496046484e-05 4.692238144343718886e-05 -6.776042937417514622e-06
4.830000000000000000e+03 8.812386512756347656e+00 -1.121279358863830566e+00 2.535708190407603979e-04 6.478237628471106291e-05 9.550595859764143825e-05 -1.480470473325112835e-05
4.831000000000000000e+03 9.587816238403320312e+00 -3.863115906715393066e-01 9.300909005105495453e-05 7.490122516173869371e-05 5.037309529143385589e-05 -1.659007830312475562e-05
4.832000000000000000e+03 7.132064342498779297e+00 -3.779651820659637451e-01 -1.042549774865619838e-04 -4.452099892660044134e-05 -4.463279401534236968e-05 1.888739643618464470e-05
4.833000000000000000e+03 6.306247234344482422e+00 -3.772793114185333252e-01 1.405799412168562412e-04 6.962109182495623827e-05 6.306030991254374385e-05 -5.340094867278821766e-05
4.834000000000000000e+03 5.442752361297607422e+00 -3.835102021694183350e-01 -8.926928421715274453e-05 -1.167981099570170045e-04 -6.182021752465516329e-05 5.801942461403086782e-05
4.835000000000000000e+03 4.552286148071289062e+00 -3.399353623390197754e-01 1.008511826512403786e-04 2.008032024605199695e-04 9.049631626112386584e-05 -5.615601185127161443e-05
4.836000000000000000e+03 4.371328830718994141e+00 -8.708365559577941895e-01 -4.262787988409399986e-04 -2.047609450528398156e-04 -1.893119188025593758e-04 -6.436641706386581063e-05
4.837000000000000000e+03 2.785328388214111328e+00 -7.796061038970947266e-01 -2.554322709329426289e-04 3.367977333255112171e-04 2.440963908156845719e-05 -3.891237138304859400e-04
4.838000000000000000e+03 1.180722951889038086e+00 -3.608860373497009277e-01 4.432414425536990166e-04 -1.710845099296420813e-04 8.164708560798317194e-05 1.333704494754783809e-05
4.839000000000000000e+03 4.099212884902954102e-01 -5.526853203773498535e-01 1.554850678076036274e-05 1.517627679277211428e-04 5.019338277634233236e-05 9.001160651678219438e-05
4.840000000000000000e+03 7.477942705154418945e-01 -1.100885987281799316e+00 -1.558379037305712700e-03 -2.851104363799095154e-04 -5.530468188226222992e-04 -3.417489351704716682e-04
4.841000000000000000e+03 9.597747802734375000e+00 -1.126311540603637695e+00 -2.399368968326598406e-04 -7.723783346591517329e-05 -9.515241981716826558e-05 4.361558967502787709e-05
4.842000000000000000e+03 8.026608467102050781e+00 -1.119147419929504395e+00 -2.608085633255541325e-04 -3.366824239492416382e-05 -8.834304026095196605e-05 -1.458504584661568515e-06
4.843000000000000000e+03 7.239610195159912109e+00 -1.117965221405029297e+00 3.021378070116043091e-04 -2.113904884026851505e-05 8.429963054368272424e-05 2.163973704227828421e-06
4.844000000000000000e+03 6.446331024169921875e+00 -1.117279291152954102e+00 -3.099209861829876900e-04 1.234148512594401836e-04 -5.595183756668120623e-05 -6.236492026800988242e-06
4.845000000000000000e+03 5.615375041961669922e+00 -1.123510241508483887e+00 2.441895776428282261e-04 -2.139189455192536116e-04 9.081188181880861521e-06 1.907290425151586533e-05
4.846000000000000000e+03 4.879715442657470703e+00 -1.221276640892028809e+00 -1.587036531418561935e-04 5.183051107451319695e-04 1.078804343705996871e-04 8.966940367827191949e-05
4.847000000000000000e+03 4.223337173461914062e+00 -1.290901184082031250e+00 5.967527977190911770e-04 -4.757438728120177984e-04 3.630268111010082066e-05 -9.260694787371903658e-05
4.848000000000000000e+03 3.489140987396240234e+00 -1.263193726539611816e+00 -5.292991991154849529e-04 2.752404543571174145e-04 -7.621763506904244423e-05 -1.178165985038504004e-04
4.849000000000000000e+03 2.723763942718505859e+00 -1.258556365966796875e+00 1.538006763439625502e-04 1.469738053856417537e-04 9.023234451888129115e-05 2.514995285309851170e-04
4.850000000000000000e+03 1.357383847236633301e+00 -1.202877521514892578e+00 1.300408504903316498e-03 8.741461206227540970e-04 6.523663760162889957e-04 2.174906403524801135e-04
4.851000000000000000e+03 8.769917488098144531e+00 -3.812793791294097900e-01 -8.283386705443263054e-05 -7.083769742166623473e-05 -4.610146788763813674e-05 8.931632692110724747e-06
4.852000000000000000e+03 3.581377506256103516e+00 -7.854385375976562500e-01 3.337090311106294394e-04 -6.261095222725998610e-06 9.823437721934169531e-05 1.547280407976359129e-04
4.853000000000000000e+03 3.695749998092651367e+00 -2.822447717189788818e-01 -6.106530781835317612e-05 -2.506428281776607037e-04 -9.351244807476177812e-05 -3.676152482512407005e-05
4.854000000000000000e+03 2.864297151565551758e+00 -2.810497581958770752e-01 2.142546290997415781e-04 2.121593279298394918e-04 1.279241841984912753e-04 8.109880582196637988e-05
4.855000000000000000e+03 1.994235515594482422e+00 -3.319245874881744385e-01 -1.757605787133798003e-05 -5.177961065783165395e-05 -2.080669946735724807e-05 -1.811925612855702639e-04
4.856000000000000000e+03 1.981270551681518555e+00 -1.274680376052856445e+00 -8.028897354961372912e-06 -8.003335678949952126e-04 -2.425087441224604845e-04 -2.092810027534142137e-04
4.857000000000000000e+03 1.973554253578186035e+00 -8.466050028800964355e-01 -5.651602405123412609e-04 -4.711485526058822870e-04 -3.108926175627857447e-04 7.010727422311902046e-04
4.858000000000000000e+03 1.332448291778564453e+01 -3.621845245361328125e-01 -1.091405138140544295e-04 3.784277942031621933e-05 -2.138932177331298590e-05 -4.431921115610748529e-05
4.859000000000000000e+03 1.426397991180419922e+01 -1.317608714103698730e+00 3.654903266578912735e-04 2.226443029940128326e-04 1.764403859851881862e-04 1.053910964401438832e-04
4.860000000000000000e+03 1.327361392974853516e+01 -1.248556852340698242e+00 4.979841178283095360e-04 4.459815318114124238e-05 1.627746823942288756e-04 -2.974439412355422974e-04
4.861000000000000000e+03 1.480296707153320312e+01 -1.047354817390441895e+00 -2.232363767689093947e-04 -1.421981432940810919e-04 -1.096303531085141003e-04 -6.308069714577868581e-05
4.862000000000000000e+03 1.356446647644042969e+01 -7.579438090324401855e-01 -1.497926568845286965e-04 2.661236067069694400e-06 -4.413942588143981993e-05 2.984981692861765623e-04
4.863000000000000000e+03 1.393659019470214844e+01 -3.302382230758666992e-01 4.039058330818079412e-05 -2.417656105535570532e-05 4.864206857746466994e-06 -9.088457591133192182e-05
4.864000000000000000e+03 1.449034786224365234e+01 -4.399540424346923828e-01 1.137766084866598248e-04 1.382056652801111341e-04 7.559468213003128767e-05 1.869996485766023397e-04
4.865000000000000000e+03 1.380024147033691406e+01 -1.352263331413269043e+00 -7.276897085830569267e-04 -1.182356209028512239e-05 -2.218539884779602289e-04 1.351787359453737736e-04
4.866000000000000000e+03 1.402595424652099609e+01 -9.610455632209777832e-01 -1.146834038081578910e-04 -1.506134140072390437e-05 -3.892342283506877720e-05 -3.303397097624838352e-04
4.867000000000000000e+03 1.185737037658691406e+01 -1.162281751632690430e+00 2.322585933143272996e-04 7.971658487804234028e-05 9.359254909213632345e-05 -7.682851719437167048e-05
4.868000000000000000e+03 1.112013435363769531e+01 -4.102526009082794189e-01 9.137447341345250607e-05 4.457433533389121294e-05 4.078464189660735428e-05 -2.632110044942237437e-05
4.869000000000000000e+03 1.261753940582275391e+01 -4.348734915256500244e-01 1.207985260407440364e-04 -6.150501576485112309e-05 1.778805381036363542e-05 -3.899514922522939742e-05
4.870000000000000000e+03 1.037124824523925781e+01 -3.971002995967864990e-01 -8.357840852113440633e-05 -6.876895349705591798e-05 -4.570420787786133587e-05 2.195857632614206523e-05
4.871000000000000000e+03 1.036389350891113281e+01 -1.137082934379577637e+00 2.723087673075497150e-04 7.118462235666811466e-05 1.030480125336907804e-04 -6.978743476793169975e-05
4.872000000000000000e+03 1.260408973693847656e+01 -1.174751639366149902e+00 -2.881161635741591454e-04 -7.970169099280610681e-05 -1.103453541873022914e-04 1.151840406237170100e-04
4.873000000000000000e+03 1.111074829101562500e+01 -1.150200366973876953e+00 -2.603325410746037960e-04 -5.564328967011533678e-05 -9.479275468038395047e-05 6.941706669749692082e-05
4.874000000000000000e+03 1.186878871917724609e+01 -4.223687946796417236e-01 -6.725915591232478619e-05 2.793267867673421279e-06 -1.933976636792067438e-05 4.640494807972572744e-05
4.875000000000000000e+03 7.277349853515625000e+01 3.086567115783691406e+01 3.123160171508789062e+01 6.537200927734375000e+00 1.133064079284667969e+01 1.234276390075683594e+01
4.876000000000000000e+03 7.277748107910156250e+01 3.084661483764648438e+01 2.826991462707519531e+01 1.903538322448730469e+01 1.419158935546875000e+01 2.353120994567871094e+01
4.877000000000000000e+03 7.278510284423828125e+01 3.082869911193847656e+01 2.573880767822265625e+01 3.119396591186523438e+01 1.707983207702636719e+01 2.739076042175292969e+01
4.878000000000000000e+03 7.279606628417968750e+01 3.081261062622070312e+01 2.174065780639648438e+01 4.366269683837890625e+01 1.962100601196289062e+01 2.841889572143554688e+01
4.879000000000000000e+03 7.280995178222656250e+01 3.079896354675292969e+01 1.830677032470703125e+01 5.503141784667968750e+01 2.200145721435546875e+01 2.640257453918457031e+01
4.880000000000000000e+03 7.282622528076171875e+01 3.078827857971191406e+01 1.502824401855468750e+01 6.472383117675781250e+01 2.392562294006347656e+01 2.189339637756347656e+01
4.881000000000000000e+03 7.284426879882812500e+01 3.078096961975097656e+01 1.345695400238037109e+01 7.166687774658203125e+01 2.553714942932128906e+01 1.563738822937011719e+01
4.882000000000000000e+03 7.286338806152343750e+01 3.077731132507324219e+01 1.357442092895507812e+01 7.552220916748046875e+01 2.672898864746093750e+01 8.279529571533203125e+00
4.883000000000000000e+03 7.288285827636718750e+01 3.077744674682617188e+01 1.584766006469726562e+01 7.616001129150390625e+01 2.760230064392089844e+01 1.135159492492675781e+00
4.884000000000000000e+03 7.290192413330078125e+01 3.078136825561523438e+01 1.975906181335449219e+01 7.385509490966796875e+01 2.808424758911132812e+01 -5.040356159210205078e+00
4.885000000000000000e+03 7.291986846923828125e+01 3.078892707824707031e+01 2.502147865295410156e+01 6.960179901123046875e+01 2.838698196411132812e+01 -9.313557624816894531e+00
4.886000000000000000e+03 7.293599700927734375e+01 3.079983520507812500e+01 3.060756874084472656e+01 6.409020233154296875e+01 2.840933036804199219e+01 -1.148037815093994141e+01
4.887000000000000000e+03 7.294968414306640625e+01 3.081367301940917969e+01 3.603836822509765625e+01 5.862178039550781250e+01 2.839804458618164062e+01 -1.140814399719238281e+01
4.888000000000000000e+03 7.296041870117187500e+01 3.082991218566894531e+01 4.040724182128906250e+01 5.369062042236328125e+01 2.822935867309570312e+01 -9.537032127380371094e+00
4.889000000000000000e+03 7.296778869628906250e+01 3.084793090820312500e+01 4.358676910400390625e+01 5.028839111328125000e+01 2.816254806518554688e+01 -6.238358020782470703e+00
4.890000000000000000e+03 7.297151184082031250e+01 3.086704063415527344e+01 4.512434768676757812e+01 4.838746261596679688e+01 2.805354309082031250e+01 -2.164264202117919922e+00
4.891000000000000000e+03 7.297144317626953125e+01 3.088650894165039062e+01 4.512521743774414062e+01 4.852299499511718750e+01 2.809446334838867188e+01 2.198476314544677734e+00
4.892000000000000000e+03 7.296759033203125000e+01 3.090559005737304688e+01 4.341675567626953125e+01 5.028432083129882812e+01 2.811032295227050781e+01 6.260536670684814453e+00
4.893000000000000000e+03 7.296009063720703125e+01 3.092355537414550781e+01 4.030664062500000000e+01 5.392692947387695312e+01 2.827007102966308594e+01 9.436562538146972656e+00
4.894000000000000000e+03 7.294923400878906250e+01 3.093971824645996094e+01 3.577173614501953125e+01 5.874610137939453125e+01 2.835535049438476562e+01 1.127943038940429688e+01
4.895000000000000000e+03 7.293544006347656250e+01 3.095345687866210938e+01 3.049077606201171875e+01 6.427322387695312500e+01 2.842920112609863281e+01 1.121003913879394531e+01
4.896000000000000000e+03 7.291923522949218750e+01 3.096424865722656250e+01 2.487362289428710938e+01 6.969050598144531250e+01 2.836923980712890625e+01 8.964829444885253906e+00
4.897000000000000000e+03 7.290124511718750000e+01 3.097167968750000000e+01 1.979471206665039062e+01 7.391181945800781250e+01 2.811195755004882812e+01 4.591067314147949219e+00
4.898000000000000000e+03 7.288214874267578125e+01 3.097546577453613281e+01 1.592208862304687500e+01 7.606655883789062500e+01 2.759659576416015625e+01 -1.628872036933898926e+00
4.899000000000000000e+03 7.286267852783203125e+01 3.097546005249023438e+01 1.381849861145019531e+01 7.531363677978515625e+01 2.673964118957519531e+01 -8.778053283691406250e+00
4.900000000000000000e+03 7.284358215332031250e+01 3.097166442871093750e+01 1.383994388580322266e+01 7.133744049072265625e+01 2.555321693420410156e+01 -1.607675552368164062e+01
4.901000000000000000e+03 7.282559204101562500e+01 3.096422576904296875e+01 1.555347251892089844e+01 6.425438690185546875e+01 2.394235610961914062e+01 -2.228173255920410156e+01
4.902000000000000000e+03 7.280939483642578125e+01 3.095342636108398438e+01 1.877571105957031250e+01 5.447308731079101562e+01 2.197463989257812500e+01 -2.667272949218750000e+01
4.903000000000000000e+03 7.279560852050781250e+01 3.093967819213867188e+01 2.228960990905761719e+01 4.313121795654296875e+01 1.962624740600585938e+01 -2.853047943115234375e+01
4.904000000000000000e+03 7.278475952148437500e+01 3.092351150512695312e+01 2.621936607360839844e+01 3.066403007507324219e+01 1.706501960754394531e+01 -2.737007522583007812e+01
4.905000000000000000e+03 7.277727508544921875e+01 3.090554237365722656e+01 2.861517715454101562e+01 1.854285812377929688e+01 1.414741039276123047e+01 -2.341490554809570312e+01
4.906000000000000000e+03 7.277342224121093750e+01 3.088645935058593750e+01 3.139734268188476562e+01 6.350103378295898438e+00 1.132423400878906250e+01 -1.210096740722656250e+01
