# el_label, x, y, sXX, sYY, sZZ, sXY
1.000000000000000000e+00 7.557556152343750000e+01 3.085040855407714844e+01 -8.939269065856933594e+00 -2.795264005661010742e+00 -3.520359992980957031e+00 -3.005239248275756836e+00
2.000000000000000000e+00 7.537765502929687500e+01 3.082924270629882812e+01 -4.675591945648193359e+00 1.061145782470703125e+00 -1.084333777427673340e+00 6.908373832702636719e-01
3.000000000000000000e+00 7.517974090576171875e+01 3.080807495117187500e+01 -6.049493789672851562e+00 -4.542157053947448730e-01 -1.951112866401672363e+00 -1.200330927968025208e-01
4.000000000000000000e+00 7.498182678222656250e+01 3.078690719604492188e+01 -6.388791084289550781e+00 2.464825659990310669e-01 -1.842692494392395020e+00 5.293985828757286072e-02
5.000000000000000000e+00 7.558742523193359375e+01 3.079322242736816406e+01 7.224750518798828125e+00 -2.505882263183593750e+00 1.415660500526428223e+00 2.189529657363891602e+00
6.000000000000000000e+00 7.539742279052734375e+01 3.073393058776855469e+01 -4.594953954219818115e-01 4.181223809719085693e-01 -1.241190079599618912e-02 1.424955368041992188e+00
7.000000000000000000e+00 7.520741271972656250e+01 3.067463684082031250e+01 -7.065102458000183105e-01 9.349307417869567871e-01 6.852614134550094604e-02 2.192233085632324219e+00
8.000000000000000000e+00 7.501741027832031250e+01 3.061534500122070312e+01 -2.101134538650512695e+00 2.454923391342163086e-01 -5.566926598548889160e-01 1.427466511726379395e+00
9.000000000000000000e+00 7.561019134521484375e+01 3.073943710327148438e+01 1.242715263366699219e+01 3.060681581497192383e+00 4.646350383758544922e+00 9.734565734863281250e+00
1.000000000000000000e+01 7.543536376953125000e+01 3.064428901672363281e+01 5.705410003662109375e+00 1.859485030174255371e+00 2.269468545913696289e+00 5.599877834320068359e+00
1.100000000000000000e+01 7.526054382324218750e+01 3.054914283752441406e+01 2.275132179260253906e+00 2.306352615356445312e+00 1.374445438385009766e+00 4.399860382080078125e+00
1.200000000000000000e+01 7.508571624755859375e+01 3.045399475097656250e+01 1.375042200088500977e+00 2.118165493011474609e+00 1.047962307929992676e+00 4.180060863494873047e+00
1.300000000000000000e+01 7.564299774169921875e+01 3.069111442565917969e+01 1.394163703918457031e+01 1.069895935058593750e+01 7.392179012298583984e+00 1.538817882537841797e+01
1.400000000000000000e+01 7.549003601074218750e+01 3.056375312805175781e+01 7.297665119171142578e+00 6.608844757080078125e+00 4.171952724456787109e+00 9.995715141296386719e+00
1.500000000000000000e+01 7.533708190917968750e+01 3.043638992309570312e+01 4.777531623840332031e+00 5.409903526306152344e+00 3.056230545043945312e+00 7.826634407043457031e+00
1.600000000000000000e+01 7.518412017822265625e+01 3.030902671813964844e+01 2.783309698104858398e+00 4.718440532684326172e+00 2.250524997711181641e+00 6.575801849365234375e+00
1.700000000000000000e+01 7.568457794189453125e+01 3.065010452270507812e+01 1.174395847320556641e+01 2.001694107055664062e+01 9.528269767761230469e+00 1.874417304992675781e+01
1.800000000000000000e+01 7.555934143066406250e+01 3.049539947509765625e+01 7.220793247222900391e+00 1.300425529479980469e+01 6.067514896392822266e+00 1.310298252105712891e+01
1.900000000000000000e+01 7.543410491943359375e+01 3.034069633483886719e+01 4.581996917724609375e+00 1.026403427124023438e+01 4.453809261322021484e+00 1.040525531768798828e+01
2.000000000000000000e+01 7.530886840820312500e+01 3.018599128723144531e+01 3.167835474014282227e+00 8.878966331481933594e+00 3.614040613174438477e+00 9.018302917480468750e+00
2.100000000000000000e+01 7.573335266113281250e+01 3.061797332763671875e+01 8.675907135009765625e+00 2.951193428039550781e+01 1.145635223388671875e+01 1.925448608398437500e+01
2.200000000000000000e+01 7.564062500000000000e+01 3.044184684753417969e+01 5.239564418792724609e+00 2.019377899169921875e+01 7.630002975463867188e+00 1.418867206573486328e+01
2.300000000000000000e+01 7.554790496826171875e+01 3.026572227478027344e+01 3.472294807434082031e+00 1.612806320190429688e+01 5.880107402801513672e+00 1.173718547821044922e+01
2.400000000000000000e+01 7.545518493652343750e+01 3.008959770202636719e+01 2.116604328155517578e+00 1.374103355407714844e+01 4.757291316986083984e+00 1.010775756835937500e+01
2.500000000000000000e+01 7.578744506835937500e+01 3.059595108032226562e+01 5.368134975433349609e+00 3.812719345092773438e+01 1.304859828948974609e+01 1.691929817199707031e+01
2.600000000000000000e+01 7.573078918457031250e+01 3.040514373779296875e+01 3.178295135498046875e+00 2.708097076416015625e+01 9.077779769897460938e+00 1.337426376342773438e+01
2.700000000000000000e+01 7.567412567138671875e+01 3.021433830261230469e+01 1.615916848182678223e+00 2.204045677185058594e+01 7.096912384033203125e+00 1.122935867309570312e+01
2.800000000000000000e+01 7.561746978759765625e+01 3.002353096008300781e+01 6.768875718116760254e-01 1.899779319763183594e+01 5.902404308319091797e+00 9.879995346069335938e+00
2.900000000000000000e+01 7.584479522705078125e+01 3.058488082885742188e+01 3.429777860641479492e+00 4.471503067016601562e+01 1.444344234466552734e+01 1.262098407745361328e+01
3.000000000000000000e+01 7.582636260986328125e+01 3.038669395446777344e+01 1.505756258964538574e+00 3.288419723510742188e+01 1.031698608398437500e+01 1.069163799285888672e+01
3.100000000000000000e+01 7.580792999267578125e+01 3.018850898742675781e+01 1.334889978170394897e-01 2.722130393981933594e+01 8.206438064575195312e+00 9.321573257446289062e+00
3.200000000000000000e+01 7.578950500488281250e+01 2.999032211303710938e+01 -6.375416517257690430e-01 2.373191642761230469e+01 6.928312778472900391e+00 8.202120780944824219e+00
3.300000000000000000e+01 7.590319824218750000e+01 3.058518600463867188e+01 3.402304172515869141e+00 4.874624252319335938e+01 1.564456462860107422e+01 7.104386806488037109e+00
3.400000000000000000e+01 7.592369842529296875e+01 3.038720512390136719e+01 9.658721089363098145e-01 3.698650360107421875e+01 1.138571262359619141e+01 6.994092464447021484e+00
3.500000000000000000e+01 7.594420623779296875e+01 3.018922233581542969e+01 -4.324148893356323242e-01 3.103664016723632812e+01 9.181267738342285156e+00 6.207108974456787109e+00
3.600000000000000000e+01 7.596471405029296875e+01 2.999124145507812500e+01 -1.270117640495300293e+00 2.728149223327636719e+01 7.803411960601806641e+00 5.629240989685058594e+00
3.700000000000000000e+01 7.596041870117187500e+01 3.059685707092285156e+01 5.300734043121337891e+00 5.012342834472656250e+01 1.662724876403808594e+01 1.732027411460876465e+00
3.800000000000000000e+01 7.601908111572265625e+01 3.040665626525878906e+01 1.984085679054260254e+00 3.911470413208007812e+01 1.232963657379150391e+01 2.776182651519775391e+00
3.900000000000000000e+01 7.607773590087890625e+01 3.021645545959472656e+01 1.311721354722976685e-01 3.317924880981445312e+01 9.993126869201660156e+00 2.741686105728149414e+00
4.000000000000000000e+01 7.613639831542968750e+01 3.002625465393066406e+01 -7.957201004028320312e-01 2.928380203247070312e+01 8.546424865722656250e+00 2.463079929351806641e+00
4.100000000000000000e+01 7.601428222656250000e+01 3.061944580078125000e+01 9.068180084228515625e+00 4.927052688598632812e+01 1.750161170959472656e+01 -2.726222038269042969e+00
4.200000000000000000e+01 7.610884094238281250e+01 3.044430351257324219e+01 4.216258049011230469e+00 3.934635543823242188e+01 1.306878376007080078e+01 -1.018101453781127930e+00
4.300000000000000000e+01 7.620340728759765625e+01 3.026916122436523438e+01 2.146837472915649414e+00 3.358850097656250000e+01 1.072060108184814453e+01 -5.953861474990844727e-01
4.400000000000000000e+01 7.629797363281250000e+01 3.009401893615722656e+01 5.980118513107299805e-01 2.984234237670898438e+01 9.132105827331542969e+00 -4.678437411785125732e-01
4.500000000000000000e+01 7.606270599365234375e+01 3.065208816528320312e+01 1.350268173217773438e+01 4.690122985839843750e+01 1.812117385864257812e+01 -5.581179618835449219e+00
4.600000000000000000e+01 7.618955993652343750e+01 3.049870681762695312e+01 7.806163311004638672e+00 3.804002380371093750e+01 1.375385665893554688e+01 -3.812404870986938477e+00
4.700000000000000000e+01 7.631641387939453125e+01 3.034532546997070312e+01 4.860335350036621094e+00 3.262906646728515625e+01 1.124682044982910156e+01 -3.150763511657714844e+00
4.800000000000000000e+01 7.644326782226562500e+01 3.019194412231445312e+01 3.249793291091918945e+00 2.902702331542968750e+01 9.683045387268066406e+00 -2.696742773056030273e+00
4.900000000000000000e+01 7.610385894775390625e+01 3.069353294372558594e+01 1.838710212707519531e+01 4.397330856323242188e+01 1.870812225341796875e+01 -6.553067207336425781e+00
5.000000000000000000e+01 7.625814819335937500e+01 3.056778144836425781e+01 1.158747863769531250e+01 3.573374176025390625e+01 1.419636631011962891e+01 -5.292893409729003906e+00
5.100000000000000000e+01 7.641242980957031250e+01 3.044203186035156250e+01 8.391593933105468750e+00 3.079398155212402344e+01 1.175567245483398438e+01 -4.401036262512207031e+00
5.200000000000000000e+01 7.656671905517578125e+01 3.031628036499023438e+01 6.102330684661865234e+00 2.736511611938476562e+01 1.004023456573486328e+01 -3.999675035476684570e+00
5.300000000000000000e+01 7.613615417480468750e+01 3.074219703674316406e+01 2.247003746032714844e+01 4.101511764526367188e+01 1.904554557800292969e+01 -5.966552257537841797e+00
5.400000000000000000e+01 7.631197357177734375e+01 3.064888954162597656e+01 1.539712524414062500e+01 3.330350112915039062e+01 1.461018848419189453e+01 -5.104582309722900391e+00
5.500000000000000000e+01 7.648778533935546875e+01 3.055558204650878906e+01 1.157464599609375000e+01 2.857433128356933594e+01 1.204469299316406250e+01 -4.476152420043945312e+00
5.600000000000000000e+01 7.666360473632812500e+01 3.046227264404296875e+01 9.190205574035644531e+00 2.554797363281250000e+01 1.042145442962646484e+01 -3.943445205688476562e+00
5.700000000000000000e+01 7.615835571289062500e+01 3.079621887207031250e+01 2.552015113830566406e+01 3.884831619262695312e+01 1.931054115295410156e+01 -4.051944732666015625e+00
5.800000000000000000e+01 7.634897613525390625e+01 3.073892402648925781e+01 1.829294776916503906e+01 3.118350601196289062e+01 1.484293651580810547e+01 -3.638494491577148438e+00
5.900000000000000000e+01 7.653958892822265625e+01 3.068162727355957031e+01 1.412328338623046875e+01 2.679536628723144531e+01 1.227559471130371094e+01 -3.212914943695068359e+00
6.000000000000000000e+01 7.673020935058593750e+01 3.062433433532714844e+01 1.143847751617431641e+01 2.386943435668945312e+01 1.059237289428710938e+01 -2.918325185775756836e+00
6.100000000000000000e+01 7.616961669921875000e+01 3.085352706909179688e+01 2.709689140319824219e+01 3.772006988525390625e+01 1.944508934020996094e+01 -1.375738143920898438e+00
6.200000000000000000e+01 7.636774444580078125e+01 3.083443832397460938e+01 1.988648414611816406e+01 2.995891952514648438e+01 1.495362091064453125e+01 -1.234407663345336914e+00
6.300000000000000000e+01 7.656586456298828125e+01 3.081534767150878906e+01 1.551777553558349609e+01 2.585251617431640625e+01 1.241108798980712891e+01 -1.109721064567565918e+00
6.400000000000000000e+01 7.676398468017578125e+01 3.079625892639160156e+01 1.252652740478515625e+01 2.281351470947265625e+01 1.060201263427734375e+01 -9.848072528839111328e-01
6.500000000000000000e+01 7.616950988769531250e+01 3.091193008422851562e+01 2.705923652648925781e+01 3.769253921508789062e+01 1.942553329467773438e+01 1.581194639205932617e+00
6.600000000000000000e+01 7.636755371093750000e+01 3.093177795410156250e+01 1.988291358947753906e+01 3.002345466613769531e+01 1.497191047668457031e+01 1.444637298583984375e+00
6.700000000000000000e+01 7.656560516357421875e+01 3.095162582397460938e+01 1.551166439056396484e+01 2.581198501586914062e+01 1.239709472656250000e+01 1.350629687309265137e+00
6.800000000000000000e+01 7.676365661621093750e+01 3.097147178649902344e+01 1.261682510375976562e+01 2.291180992126464844e+01 1.065859031677246094e+01 1.181557655334472656e+00
6.900000000000000000e+01 7.615802764892578125e+01 3.096919441223144531e+01 2.545482826232910156e+01 3.889938354492187500e+01 1.930626296997070312e+01 4.205232143402099609e+00
7.000000000000000000e+01 7.634842681884765625e+01 3.102721977233886719e+01 1.826172065734863281e+01 3.121896362304687500e+01 1.484420490264892578e+01 3.835137605667114258e+00
7.100000000000000000e+01 7.653881835937500000e+01 3.108524322509765625e+01 1.416248130798339844e+01 2.683151054382324219e+01 1.229819774627685547e+01 3.409629344940185547e+00
7.200000000000000000e+01 7.672921752929687500e+01 3.114326667785644531e+01 1.147536373138427734e+01 2.397582626342773438e+01 1.063535690307617188e+01 3.077752828598022461e+00
7.300000000000000000e+01 7.613562011718750000e+01 3.102313041687011719e+01 2.238609123229980469e+01 4.118423843383789062e+01 1.907109832763671875e+01 6.082906246185302734e+00
7.400000000000000000e+01 7.631107330322265625e+01 3.111710929870605469e+01 1.533053970336914062e+01 3.327484893798828125e+01 1.458161640167236328e+01 5.239409923553466797e+00
7.500000000000000000e+01 7.648653411865234375e+01 3.121109008789062500e+01 1.163380241394042969e+01 2.866101837158203125e+01 1.208844661712646484e+01 4.581241607666015625e+00
7.600000000000000000e+01 7.666198730468750000e+01 3.130507087707519531e+01 9.295233726501464844e+00 2.559884643554687500e+01 1.046822357177734375e+01 4.137589931488037109e+00
7.700000000000000000e+01 7.610313415527343750e+01 3.107167053222656250e+01 1.817537879943847656e+01 4.390897369384765625e+01 1.862530517578125000e+01 6.661439418792724609e+00
7.800000000000000000e+01 7.625694274902343750e+01 3.119800949096679688e+01 1.162878417968750000e+01 3.591482925415039062e+01 1.426308441162109375e+01 5.279353141784667969e+00
7.900000000000000000e+01 7.641074371337890625e+01 3.132435035705566406e+01 8.346693992614746094e+00 3.067811965942382812e+01 1.170744419097900391e+01 4.515393257141113281e+00
8.000000000000000000e+01 7.656455230712890625e+01 3.145069122314453125e+01 6.299742698669433594e+00 2.745367240905761719e+01 1.012602424621582031e+01 3.955151319503784180e+00
8.100000000000000000e+01 7.606182861328125000e+01 3.111295890808105469e+01 1.355231666564941406e+01 4.710509490966796875e+01 1.819722366333007812e+01 5.480092048645019531e+00
8.200000000000000000e+01 7.618809509277343750e+01 3.126682472229003906e+01 7.619810104370117188e+00 3.792470932006835938e+01 1.366335582733154297e+01 3.881096839904785156e+00
8.300000000000000000e+01 7.631435394287109375e+01 3.142069053649902344e+01 5.081878662109375000e+00 3.273457717895507812e+01 1.134493637084960938e+01 3.023859024047851562e+00
8.400000000000000000e+01 7.644062805175781250e+01 3.157455635070800781e+01 3.023370265960693359e+00 2.887302970886230469e+01 9.568920135498046875e+00 2.735382318496704102e+00
8.500000000000000000e+01 7.601327514648437500e+01 3.114541435241699219e+01 8.777531623840332031e+00 4.918571853637695312e+01 1.738897514343261719e+01 2.676712274551391602e+00
8.600000000000000000e+01 7.610717010498046875e+01 3.132091712951660156e+01 4.444184303283691406e+00 3.938052749633789062e+01 1.314741420745849609e+01 8.826778531074523926e-01
8.700000000000000000e+01 7.620105743408203125e+01 3.149641990661621094e+01 1.999038100242614746e+00 3.346519470214843750e+01 1.063926982879638672e+01 5.765666961669921875e-01
8.800000000000000000e+01 7.629495239257812500e+01 3.167192268371582031e+01 8.746839761734008789e-01 2.990649604797363281e+01 9.234354019165039062e+00 4.361970722675323486e-01
8.900000000000000000e+01 7.595932769775390625e+01 3.116779518127441406e+01 5.428092956542968750e+00 5.013384628295898438e+01 1.666858100891113281e+01 -1.905819535255432129e+00
9.000000000000000000e+01 7.601725769042968750e+01 3.135821914672851562e+01 1.923934817314147949e+00 3.892078781127929688e+01 1.225341701507568359e+01 -2.886018991470336914e+00
9.100000000000000000e+01 7.607518768310546875e+01 3.154864501953125000e+01 3.763756155967712402e-01 3.312154769897460938e+01 1.004937648773193359e+01 -2.809857368469238281e+00
9.200000000000000000e+01 7.613311767578125000e+01 3.173906898498535156e+01 -6.841121912002563477e-01 2.909246444702148438e+01 8.522505760192871094e+00 -2.476294040679931641e+00
9.300000000000000000e+01 7.590206146240234375e+01 3.117924690246582031e+01 3.327810049057006836e+00 4.852745056152343750e+01 1.555657863616943359e+01 -7.276761054992675781e+00
9.400000000000000000e+01 7.592180633544921875e+01 3.137730598449707031e+01 1.215407967567443848e+00 3.686006164550781250e+01 1.142264175415039062e+01 -7.142827033996582031e+00
9.500000000000000000e+01 7.594155120849609375e+01 3.157536506652832031e+01 -2.898006737232208252e-01 3.074950408935546875e+01 9.137910842895507812e+00 -6.243659496307373047e+00
9.600000000000000000e+01 7.596130371093750000e+01 3.177342414855957031e+01 -1.021104931831359863e+00 2.708993148803710938e+01 7.820647716522216797e+00 -5.713531970977783203e+00
9.700000000000000000e+01 7.584365081787109375e+01 3.117933082580566406e+01 3.634447574615478516e+00 4.448246765136718750e+01 1.443507480621337891e+01 -1.279846763610839844e+01
9.800000000000000000e+01 7.582446289062500000e+01 3.137744522094726562e+01 1.620028257369995117e+00 3.260807800292968750e+01 1.026843166351318359e+01 -1.076713275909423828e+01
9.900000000000000000e+01 7.580528259277343750e+01 3.157555961608886719e+01 4.948793947696685791e-01 2.699619865417480469e+01 8.247323036193847656e+00 -9.439260482788085938e+00
1.000000000000000000e+02 7.578609466552734375e+01 3.177367210388183594e+01 -4.752909541130065918e-01 2.338608169555664062e+01 6.873237609863281250e+00 -8.193842887878417969e+00
1.010000000000000000e+02 7.578634643554687500e+01 3.116804122924804688e+01 5.503755569458007812e+00 3.777117919921875000e+01 1.298248100280761719e+01 -1.702676773071289062e+01
1.020000000000000000e+02 7.572896575927734375e+01 3.135862922668457031e+01 3.458704471588134766e+00 2.679176521301269531e+01 9.075140953063964844e+00 -1.342035102844238281e+01
1.030000000000000000e+02 7.567157745361328125e+01 3.154921913146972656e+01 1.825551152229309082e+00 2.181509399414062500e+01 7.092193603515625000e+00 -1.124355411529541016e+01
1.040000000000000000e+02 7.561418151855468750e+01 3.173980522155761719e+01 1.044146537780761719e+00 1.885509109497070312e+01 5.969771385192871094e+00 -9.978203773498535156e+00
1.050000000000000000e+02 7.573233795166015625e+01 3.114581298828125000e+01 8.857853889465332031e+00 2.909772872924804688e+01 1.138667488098144531e+01 -1.928183937072753906e+01
1.060000000000000000e+02 7.563894653320312500e+01 3.132158279418945312e+01 5.474979400634765625e+00 1.992700004577636719e+01 7.620593547821044922e+00 -1.413937950134277344e+01
1.070000000000000000e+02 7.554554748535156250e+01 3.149735069274902344e+01 3.716896295547485352e+00 1.588579463958740234e+01 5.880807399749755859e+00 -1.171195888519287109e+01
1.080000000000000000e+02 7.545215606689453125e+01 3.167312049865722656e+01 2.346378803253173828e+00 1.384885120391845703e+01 4.858569145202636719e+00 -9.963320732116699219e+00
1.090000000000000000e+02 7.568369293212890625e+01 3.111349487304687500e+01 1.194025230407714844e+01 1.968538093566894531e+01 9.487689971923828125e+00 -1.862988281250000000e+01
1.100000000000000000e+02 7.555786132812500000e+01 3.126771926879882812e+01 7.369315147399902344e+00 1.268056297302246094e+01 6.014963150024414062e+00 -1.302666473388671875e+01
1.110000000000000000e+02 7.543203735351562500e+01 3.142194175720214844e+01 4.806405067443847656e+00 1.019231605529785156e+01 4.499616146087646484e+00 -1.025098323822021484e+01
1.120000000000000000e+02 7.530621337890625000e+01 3.157616615295410156e+01 3.421635389328002930e+00 8.668765068054199219e+00 3.627120018005371094e+00 -8.751091003417968750e+00
1.130000000000000000e+02 7.564226531982421875e+01 3.107232475280761719e+01 1.396616077423095703e+01 1.030810642242431641e+01 7.282279968261718750e+00 -1.522859001159667969e+01
1.140000000000000000e+02 7.548882293701171875e+01 3.119910049438476562e+01 7.422124862670898438e+00 6.480102062225341797e+00 4.170668125152587891e+00 -9.830800056457519531e+00
1.150000000000000000e+02 7.533538055419921875e+01 3.132587814331054688e+01 4.897018909454345703e+00 5.210473060607910156e+00 3.032247543334960938e+00 -7.639008522033691406e+00
1.160000000000000000e+02 7.518193054199218750e+01 3.145265388488769531e+01 3.078883647918701172e+00 4.642261981964111328e+00 2.316343784332275391e+00 -6.370365619659423828e+00
1.170000000000000000e+02 7.560964965820312500e+01 3.102387619018554688e+01 1.236899280548095703e+01 2.914544582366943359e+00 4.585061073303222656e+00 -9.509056091308593750e+00
1.180000000000000000e+02 7.543446350097656250e+01 3.111835479736328125e+01 5.651811599731445312e+00 1.681717395782470703e+00 2.200058698654174805e+00 -5.445717334747314453e+00
1.190000000000000000e+02 7.525926971435546875e+01 3.121283340454101562e+01 2.392886161804199219e+00 2.261378526687622070e+00 1.396279454231262207e+00 -4.231996536254882812e+00
1.200000000000000000e+02 7.508408355712890625e+01 3.130731201171875000e+01 1.492685079574584961e+00 1.999895334243774414e+00 1.047774076461791992e+00 -3.994205474853515625e+00
1.210000000000000000e+02 7.558708953857421875e+01 3.097000694274902344e+01 6.929233074188232422e+00 -2.632836818695068359e+00 1.288918852806091309e+00 -2.005270481109619141e+00
1.220000000000000000e+02 7.539685821533203125e+01 3.102857017517089844e+01 -5.758921504020690918e-01 4.220287799835205078e-01 -4.615901038050651550e-02 -1.312616229057312012e+00
1.230000000000000000e+02 7.520662689208984375e+01 3.108713531494140625e+01 -7.431309223175048828e-01 8.592420816421508789e-01 3.483334183692932129e-02 -2.117548704147338867e+00
1.240000000000000000e+02 7.501639556884765625e+01 3.114569854736328125e+01 -1.941748380661010742e+00 1.996029913425445557e-01 -5.226436257362365723e-01 -1.302523732185363770e+00
1.250000000000000000e+02 7.557543945312500000e+01 3.091277313232421875e+01 -9.414142608642578125e+00 -2.749089956283569336e+00 -3.648969888687133789e+00 3.030133008956909180e+00
1.260000000000000000e+02 7.537744903564453125e+01 3.093318367004394531e+01 -4.870796680450439453e+00 1.032878875732421875e+00 -1.151375293731689453e+00 -6.985028982162475586e-01
1.270000000000000000e+02 7.517945861816406250e+01 3.095359230041503906e+01 -6.112336158752441406e+00 -4.287565648555755615e-01 -1.962327837944030762e+00 1.315649300813674927e-01
1.280000000000000000e+02 7.498146820068359375e+01 3.097400283813476562e+01 -6.384963989257812500e+00 1.873807758092880249e-01 -1.859274864196777344e+00 -1.008154675364494324e-01
1.290000000000000000e+02 2.333872413635253906e+01 3.602074050903320312e+01 1.263589970767498016e-02 -3.808418478001840413e-05 3.779344726353883743e-03 2.255925908684730530e-03
1.300000000000000000e+02 2.389290046691894531e+01 3.609888076782226562e+01 1.602876372635364532e-02 -1.039199181832373142e-03 4.496869631111621857e-03 1.655817846767604351e-03
1.310000000000000000e+02 2.284308815002441406e+01 3.526721954345703125e+01 4.110805690288543701e-03 -4.085609980393201113e-04 1.110673299990594387e-03 4.971535876393318176e-03
1.320000000000000000e+02 2.421754455566406250e+01 3.556056594848632812e+01 7.936870679259300232e-03 -1.580338459461927414e-03 1.906959572806954384e-03 2.261343644931912422e-03
1.330000000000000000e+02 2.498613166809082031e+01 3.604191207885742188e+01 1.778459548950195312e-02 -4.279883869457989931e-04 5.206982139497995377e-03 -2.917257952503859997e-04
1.340000000000000000e+02 2.485820960998535156e+01 3.530118560791015625e+01 5.852178204804658890e-03 -2.374836476519703865e-03 1.043202471919357777e-03 4.333993128966540098e-04
1.350000000000000000e+02 2.364893722534179688e+01 3.528245925903320312e+01 5.184937734156847000e-03 -1.889265142381191254e-03 9.887018240988254547e-04 3.681940957903862000e-03
1.360000000000000000e+02 2.269410705566406250e+01 3.600639724731445312e+01 8.993525058031082153e-03 -1.700986904324963689e-04 2.647028071805834770e-03 2.474614651873707771e-03
1.370000000000000000e+02 2.440931320190429688e+01 3.610589981079101562e+01 1.818896457552909851e-02 -4.671104761655442417e-05 5.442676134407520294e-03 1.739967992762103677e-04
1.380000000000000000e+02 2.713174057006835938e+01 3.578996658325195312e+01 1.351523678749799728e-02 2.067267050733789802e-04 4.116589203476905823e-03 -4.151541739702224731e-03
1.390000000000000000e+02 2.639669990539550781e+01 3.588855361938476562e+01 1.718426495790481567e-02 1.147865805251058191e-05 5.158722866326570511e-03 -3.372662235051393509e-03
1.400000000000000000e+02 2.560692596435546875e+01 3.524289321899414062e+01 3.296174341812729836e-03 -3.226602682843804359e-03 2.087147186102811247e-05 -2.043180400505661964e-03
1.410000000000000000e+02 2.704477500915527344e+01 3.505500793457031250e+01 -8.026272989809513092e-03 -1.233503571711480618e-03 -2.777932910248637199e-03 -7.544376421719789505e-03
1.420000000000000000e+02 2.786719703674316406e+01 3.568653869628906250e+01 7.053149864077568054e-03 3.548785753082484007e-04 2.222408540546894073e-03 -4.771943204104900360e-03
1.430000000000000000e+02 2.776436805725097656e+01 3.495370483398437500e+01 -1.674718782305717468e-02 -5.819772923132404685e-05 -5.041615571826696396e-03 -9.776392020285129547e-03
1.440000000000000000e+02 2.632559776306152344e+01 3.515146636962890625e+01 -1.519275479950010777e-03 -1.860566087998449802e-03 -1.013952423818409443e-03 -4.559615161269903183e-03
1.450000000000000000e+02 2.566216468811035156e+01 3.598210525512695312e+01 1.790104620158672333e-02 -9.148296085186302662e-04 5.095865111798048019e-03 -1.823133323341608047e-03
1.460000000000000000e+02 2.933965110778808594e+01 3.544803619384765625e+01 -1.395779475569725037e-02 9.733584593050181866e-04 -3.895330708473920822e-03 -4.398548975586891174e-03
1.470000000000000000e+02 2.922042655944824219e+01 3.471769332885742188e+01 -4.237711057066917419e-02 2.173427725210785866e-03 -1.206110510975122452e-02 -1.393481809645891190e-02
1.480000000000000000e+02 2.848941230773925781e+01 3.484096145629882812e+01 -2.812981046736240387e-02 8.296841406263411045e-04 -8.190037682652473450e-03 -1.202834211289882660e-02
1.490000000000000000e+02 3.068212890625000000e+01 3.447154998779296875e+01 -7.876706123352050781e-02 4.600667860358953476e-03 -2.224991843104362488e-02 -1.614406146109104156e-02
1.500000000000000000e+02 2.995129966735839844e+01 3.459505081176757812e+01 -5.904663726687431335e-02 3.111282363533973694e-03 -1.678060740232467651e-02 -1.539739593863487244e-02
1.510000000000000000e+02 3.081263542175292969e+01 3.519998931884765625e+01 -4.628379642963409424e-02 1.209407229907810688e-03 -1.352231670171022415e-02 -1.595131005160510540e-03
1.520000000000000000e+02 2.860299301147460938e+01 3.557225799560546875e+01 -2.027101349085569382e-03 9.595246519893407822e-04 -3.202729858458042145e-04 -4.797094035893678665e-03
1.530000000000000000e+02 3.007616424560546875e+01 3.532444381713867188e+01 -2.882949262857437134e-02 1.324303681030869484e-03 -8.251556195318698883e-03 -3.313260385766625404e-03
1.540000000000000000e+02 3.228277587890625000e+01 3.491655731201171875e+01 -9.383033961057662964e-02 7.983062532730400562e-04 -2.790961042046546936e-02 4.090928938239812851e-03
1.550000000000000000e+02 3.141323661804199219e+01 3.433660507202148438e+01 -1.021354049444198608e-01 5.673935636878013611e-03 -2.893844060599803925e-02 -1.683805137872695923e-02
1.560000000000000000e+02 3.301699829101562500e+01 3.477141952514648438e+01 -1.233004331588745117e-01 8.458474185317754745e-04 -3.673637658357620239e-02 8.128910325467586517e-03
1.570000000000000000e+02 3.287635040283203125e+01 3.404490280151367188e+01 -1.595070809125900269e-01 7.820308208465576172e-03 -4.550603404641151428e-02 -1.681425981223583221e-02
1.580000000000000000e+02 3.360715103149414062e+01 3.390307235717773438e+01 -1.929388493299484253e-01 9.022846817970275879e-03 -5.517479777336120605e-02 -1.558279152959585190e-02
1.590000000000000000e+02 3.375072097778320312e+01 3.462901306152343750e+01 -1.563931554555892944e-01 -4.056707621202804148e-05 -4.693011566996574402e-02 1.292841322720050812e-02
1.600000000000000000e+02 3.214505767822265625e+01 3.418946456909179688e+01 -1.291135251522064209e-01 7.068313192576169968e-03 -3.661356493830680847e-02 -1.713824830949306488e-02
1.610000000000000000e+02 3.154802894592285156e+01 3.506427764892578125e+01 -6.765487790107727051e-02 1.387184485793113708e-03 -1.988030783832073212e-02 9.968446101993322372e-04
1.620000000000000000e+02 3.448552703857421875e+01 3.448280334472656250e+01 -1.937189102172851562e-01 -5.440684617497026920e-04 -5.827889591455459595e-02 1.857426203787326813e-02
1.630000000000000000e+02 3.581328582763671875e+01 3.345945358276367188e+01 -3.176664113998413086e-01 1.037957798689603806e-02 -9.218605607748031616e-02 -9.544127620756626129e-03
1.640000000000000000e+02 3.434083938598632812e+01 3.375708389282226562e+01 -2.306494265794754028e-01 9.516505524516105652e-03 -6.633987277746200562e-02 -1.404529251158237457e-02
1.650000000000000000e+02 3.654941177368164062e+01 3.331057739257812500e+01 -3.657364249229431152e-01 1.044518500566482544e-02 -1.065873727202415466e-01 -6.720357108861207962e-03
1.660000000000000000e+02 3.595657730102539062e+01 3.418545532226562500e+01 -2.820792198181152344e-01 -2.492035739123821259e-03 -8.537137508392333984e-02 3.184926509857177734e-02
1.670000000000000000e+02 3.669200897216796875e+01 3.403672027587890625e+01 -3.339850604534149170e-01 -4.310116171836853027e-03 -1.014885529875755310e-01 3.897679969668388367e-02
1.680000000000000000e+02 3.522108078002929688e+01 3.433415222167968750e+01 -2.357282042503356934e-01 -1.761129708029329777e-03 -7.124680280685424805e-02 2.480058744549751282e-02
1.690000000000000000e+02 3.507709503173828125e+01 3.360829162597656250e+01 -2.721122503280639648e-01 1.040564663708209991e-02 -7.851197570562362671e-02 -1.186511106789112091e-02
1.700000000000000000e+02 3.742828750610351562e+01 3.389342117309570312e+01 -3.879005610942840576e-01 -4.907858557999134064e-03 -1.178425252437591553e-01 4.623865708708763123e-02
1.710000000000000000e+02 3.802332687377929688e+01 3.303014373779296875e+01 -4.720554351806640625e-01 1.068454887717962265e-02 -1.384112685918807983e-01 2.809659577906131744e-03
1.720000000000000000e+02 3.728625106811523438e+01 3.316717147827148438e+01 -4.170322716236114502e-01 1.004885323345661163e-02 -1.220950186252593994e-01 -2.343887230381369591e-03
1.730000000000000000e+02 3.890202331542968750e+01 3.361664962768554688e+01 -5.018544197082519531e-01 -7.282499223947525024e-03 -1.527410745620727539e-01 6.368126720190048218e-02
1.740000000000000000e+02 3.963956451416015625e+01 3.347409820556640625e+01 -5.637331604957580566e-01 -8.362294174730777740e-03 -1.716286391019821167e-01 7.386031001806259155e-02
1.750000000000000000e+02 3.949879837036132812e+01 3.274760437011718750e+01 -5.927560925483703613e-01 1.185928937047719955e-02 -1.742690503597259521e-01 1.437369361519813538e-02
1.760000000000000000e+02 3.876083374023437500e+01 3.289023590087890625e+01 -5.297408699989318848e-01 1.102710515260696411e-02 -1.556141227483749390e-01 8.229381404817104340e-03
1.770000000000000000e+02 3.816493988037109375e+01 3.375647735595703125e+01 -4.426448047161102295e-01 -5.737623199820518494e-03 -1.345147341489791870e-01 5.452445894479751587e-02
1.780000000000000000e+02 4.037628555297851562e+01 3.333070373535156250e+01 -6.320150494575500488e-01 -1.003603078424930573e-02 -1.926153302192687988e-01 8.600327372550964355e-02
1.790000000000000000e+02 4.171068954467773438e+01 3.231314468383789062e+01 -8.090054988861083984e-01 9.146981872618198395e-03 -2.399575561285018921e-01 3.099060058593750000e-02
1.800000000000000000e+02 4.023619079589843750e+01 3.260407638549804688e+01 -6.598885059356689453e-01 1.174220442771911621e-02 -1.944438964128494263e-01 1.971288397908210754e-02
1.810000000000000000e+02 4.244785308837890625e+01 3.216765213012695312e+01 -8.874107599258422852e-01 6.776171736419200897e-03 -2.641903758049011230e-01 3.584690392017364502e-02
1.820000000000000000e+02 4.184893417358398438e+01 3.304013442993164062e+01 -7.902351617813110352e-01 -1.493394747376441956e-02 -2.415507286787033081e-01 1.112718284130096436e-01
1.830000000000000000e+02 4.258517456054687500e+01 3.289482498168945312e+01 -8.826040029525756836e-01 -1.892222650349140167e-02 -2.704578638076782227e-01 1.225406676530838013e-01
1.840000000000000000e+02 4.111263656616210938e+01 3.318542480468750000e+01 -7.082615494728088379e-01 -1.313253771513700485e-02 -2.164182364940643311e-01 9.849010407924652100e-02
1.850000000000000000e+02 4.097346878051757812e+01 3.245861816406250000e+01 -7.311044335365295410e-01 1.123226992785930634e-02 -2.159616500139236450e-01 2.575147151947021484e-02
1.860000000000000000e+02 4.332307434082031250e+01 3.275568008422851562e+01 -9.736319184303283691e-01 -1.954620704054832458e-02 -2.979534566402435303e-01 1.313332021236419678e-01
1.870000000000000000e+02 4.318753814697265625e+01 3.202817916870117188e+01 -9.704974293708801270e-01 4.440346267074346542e-03 -2.898171246051788330e-01 4.383467137813568115e-02
1.880000000000000000e+02 4.392967605590820312e+01 3.189475250244140625e+01 -1.059913039207458496e+00 5.856454838067293167e-03 -3.162169754505157471e-01 5.135235562920570374e-02
1.890000000000000000e+02 4.480221557617187500e+01 3.249026870727539062e+01 -1.156995534896850586e+00 -2.039858512580394745e-02 -3.532182276248931885e-01 1.545234918594360352e-01
1.900000000000000000e+02 4.541445922851562500e+01 3.162938690185546875e+01 -1.245923280715942383e+00 3.557026386260986328e-03 -3.727098703384399414e-01 6.034445017576217651e-02
1.910000000000000000e+02 4.554204177856445312e+01 3.235831069946289062e+01 -1.264611005783081055e+00 -2.410328201949596405e-02 -3.866142928600311279e-01 1.664331853389739990e-01
1.920000000000000000e+02 4.406255722045898438e+01 3.262272644042968750e+01 -1.060922145843505859e+00 -1.893251761794090271e-02 -3.239564001560211182e-01 1.414815783500671387e-01
1.930000000000000000e+02 4.467198181152343750e+01 3.176181983947753906e+01 -1.152104496955871582e+00 5.551154725253582001e-03 -3.439660072326660156e-01 5.546067655086517334e-02
1.940000000000000000e+02 4.628276062011718750e+01 3.223004150390625000e+01 -1.373098969459533691e+00 -2.472730539739131927e-02 -4.193478822708129883e-01 1.763135194778442383e-01
1.950000000000000000e+02 4.764949035644531250e+01 3.125085830688476562e+01 -1.566947460174560547e+00 -2.146652841474860907e-04 -4.701486229896545410e-01 7.133050262928009033e-02
1.960000000000000000e+02 4.615840911865234375e+01 3.150056076049804688e+01 -1.345826864242553711e+00 1.247360487468540668e-03 -4.033738672733306885e-01 6.696384400129318237e-02
1.970000000000000000e+02 4.839503097534179688e+01 3.112652587890625000e+01 -1.672918677330017090e+00 -7.438926026225090027e-03 -5.041072964668273926e-01 6.981058418750762939e-02
1.980000000000000000e+02 4.776623153686523438e+01 3.198161315917968750e+01 -1.602966308593750000e+00 -2.583161555230617523e-02 -4.886393845081329346e-01 2.007697671651840210e-01
1.990000000000000000e+02 4.850796127319335938e+01 3.185791587829589844e+01 -1.749232769012451172e+00 -3.358673304319381714e-02 -5.348458886146545410e-01 2.078329771757125854e-01
2.000000000000000000e+02 4.702449035644531250e+01 3.210565567016601562e+01 -1.481423616409301758e+00 -2.470351383090019226e-02 -4.518381655216217041e-01 1.871606558561325073e-01
2.010000000000000000e+02 4.690394592285156250e+01 3.137553787231445312e+01 -1.453212499618530273e+00 2.669763751327991486e-03 -4.351628124713897705e-01 7.274111360311508179e-02
2.020000000000000000e+02 4.925159072875976562e+01 3.174488639831542969e+01 -1.880325555801391602e+00 -3.122963942587375641e-02 -5.734665393829345703e-01 2.053174227476119995e-01
2.030000000000000000e+02 4.914293289184570312e+01 3.101285552978515625e+01 -1.785795331001281738e+00 -1.185407303273677826e-02 -5.392948389053344727e-01 7.749795168638229370e-02
2.040000000000000000e+02 4.989311599731445312e+01 3.090981101989746094e+01 -1.910360097885131836e+00 -5.275016650557518005e-03 -5.746905207633972168e-01 8.111033588647842407e-02
2.050000000000000000e+02 5.074266433715820312e+01 3.154084205627441406e+01 -2.118363380432128906e+00 -2.377319335937500000e-02 -6.426409482955932617e-01 2.164426892995834351e-01
2.060000000000000000e+02 5.139404296875000000e+01 3.070597648620605469e+01 -2.148111343383789062e+00 -9.874235838651657104e-03 -6.473957300186157227e-01 6.968039274215698242e-02
2.070000000000000000e+02 5.148847579956054688e+01 3.143994712829589844e+01 -2.272619009017944336e+00 -3.017023764550685883e-02 -6.908367872238159180e-01 2.204522639513015747e-01
2.080000000000000000e+02 4.999703216552734375e+01 3.164248847961425781e+01 -1.989523768424987793e+00 -2.370120584964752197e-02 -6.039674878120422363e-01 2.069276273250579834e-01
2.090000000000000000e+02 5.064348983764648438e+01 3.080751800537109375e+01 -2.031980514526367188e+00 -3.932198043912649155e-03 -6.107738018035888672e-01 7.398309558629989624e-02
2.100000000000000000e+02 5.373043823242187500e+01 3.117490577697753906e+01 -2.691606283187866211e+00 -2.108163200318813324e-02 -8.138064146041870117e-01 2.230166643857955933e-01
2.110000000000000000e+02 5.214544677734375000e+01 3.061188697814941406e+01 -2.272546052932739258e+00 -1.311153173446655273e-02 -6.856973171234130859e-01 7.251904159784317017e-02
2.120000000000000000e+02 5.440248107910156250e+01 3.035354614257812500e+01 -2.667574882507324219e+00 -2.017812989652156830e-02 -8.063259124755859375e-01 4.423894360661506653e-02
2.130000000000000000e+02 5.365017700195312500e+01 3.043926048278808594e+01 -2.545719623565673828e+00 -8.700483478605747223e-03 -7.663260698318481445e-01 5.611532554030418396e-02
2.140000000000000000e+02 5.447802734375000000e+01 3.108973121643066406e+01 -2.878261327743530273e+00 -3.194836527109146118e-02 -8.730629086494445801e-01 2.184614837169647217e-01
2.150000000000000000e+02 5.298280715942382812e+01 3.126048088073730469e+01 -2.541602373123168945e+00 -2.155705913901329041e-02 -7.689478397369384766e-01 2.161691486835479736e-01
2.160000000000000000e+02 5.223514938354492188e+01 3.134645080566406250e+01 -2.415213108062744141e+00 -2.807051129639148712e-02 -7.329850792884826660e-01 2.163780629634857178e-01
2.170000000000000000e+02 5.289782714843750000e+01 3.052537536621093750e+01 -2.409018993377685547e+00 -6.714806426316499710e-03 -7.247201204299926758e-01 7.114208489656448364e-02
2.180000000000000000e+02 5.597676467895507812e+01 3.095117187500000000e+01 -3.160725593566894531e+00 -1.566772535443305969e-02 -9.529179930686950684e-01 1.882831454277038574e-01
2.190000000000000000e+02 5.591128540039062500e+01 3.021406745910644531e+01 -2.948345899581909180e+00 -1.341438386589288712e-02 -8.885280489921569824e-01 3.877207636833190918e-02
2.200000000000000000e+02 5.515621185302734375e+01 3.027851104736328125e+01 -2.800013780593872070e+00 -2.485080622136592865e-02 -8.474593162536621094e-01 4.587748274207115173e-02
2.210000000000000000e+02 5.666648483276367188e+01 3.015038108825683594e+01 -3.087594747543334961e+00 -1.279473770409822464e-02 -9.301168322563171387e-01 1.518006157130002975e-02
2.220000000000000000e+02 5.672682952880859375e+01 3.088792037963867188e+01 -3.316075563430786133e+00 -1.458885334432125092e-02 -9.991993308067321777e-01 1.890656352043151855e-01
2.230000000000000000e+02 5.742179489135742188e+01 3.008745574951171875e+01 -3.211751699447631836e+00 -2.467238530516624451e-02 -9.709272384643554688e-01 -1.614756998606026173e-03
2.240000000000000000e+02 5.747700500488281250e+01 3.082542610168457031e+01 -3.511213064193725586e+00 -2.561914734542369843e-02 -1.061049580574035645e+00 1.780545562505722046e-01
2.250000000000000000e+02 5.522682952880859375e+01 3.101518249511718750e+01 -3.037101745605468750e+00 -2.822974510490894318e-02 -9.195994138717651367e-01 1.993135213851928711e-01
2.260000000000000000e+02 5.893249130249023438e+01 2.998887443542480469e+01 -3.499537944793701172e+00 -1.604989543557167053e-02 -1.054676294326782227e+00 -1.758043281733989716e-02
2.270000000000000000e+02 5.817713546752929688e+01 3.003364562988281250e+01 -3.347730159759521484e+00 -2.830080129206180573e-02 -1.012809276580810547e+00 -4.941490013152360916e-03
2.280000000000000000e+02 6.044357681274414062e+01 2.990149307250976562e+01 -3.765348672866821289e+00 -2.811608649790287018e-02 -1.138039469718933105e+00 -6.655578315258026123e-02
2.290000000000000000e+02 5.972956466674804688e+01 3.068365669250488281e+01 -3.972156763076782227e+00 -8.606533519923686981e-03 -1.194229006767272949e+00 1.331381052732467651e-01
2.300000000000000000e+02 5.822756195068359375e+01 3.077196121215820312e+01 -3.677080869674682617e+00 -2.268644049763679504e-02 -1.109930157661437988e+00 1.527502387762069702e-01
2.310000000000000000e+02 6.048074340820312500e+01 3.064058303833007812e+01 -4.177512168884277344e+00 -2.057904936373233795e-02 -1.259427428245544434e+00 1.171543225646018982e-01
2.320000000000000000e+02 5.897850036621093750e+01 3.072744750976562500e+01 -3.807305812835693359e+00 -1.009320560842752457e-02 -1.145219683647155762e+00 1.367780566215515137e-01
2.330000000000000000e+02 5.968797683715820312e+01 2.994482421875000000e+01 -3.639962196350097656e+00 -1.592376083135604858e-02 -1.096765756607055664e+00 -4.629510268568992615e-02
2.340000000000000000e+02 6.198369598388671875e+01 3.057719421386718750e+01 -4.495932102203369141e+00 -6.770322564989328384e-03 -1.350810647010803223e+00 6.744103878736495972e-02
2.350000000000000000e+02 6.195486831665039062e+01 2.983775329589843750e+01 -4.055314540863037109e+00 -1.959552429616451263e-02 -1.222472906112670898e+00 -9.108602255582809448e-02
2.360000000000000000e+02 6.119919967651367188e+01 2.986580848693847656e+01 -3.902844667434692383e+00 -3.185849636793136597e-02 -1.180410981178283691e+00 -7.371178269386291504e-02
2.370000000000000000e+02 6.271061706542968750e+01 2.981033325195312500e+01 -4.194414615631103516e+00 -2.209578081965446472e-02 -1.264953136444091797e+00 -1.244720593094825745e-01
2.380000000000000000e+02 6.273536300659179688e+01 3.054992294311523438e+01 -4.675189495086669922e+00 -5.500932689756155014e-03 -1.404207110404968262e+00 5.931870639324188232e-02
2.390000000000000000e+02 6.346643829345703125e+01 2.978354644775390625e+01 -4.311254501342773438e+00 -3.736011683940887451e-02 -1.304584383964538574e+00 -1.475646048784255981e-01
2.400000000000000000e+02 6.348709869384765625e+01 3.052328491210937500e+01 -4.898935794830322266e+00 -2.055547572672367096e-02 -1.475847363471984863e+00 3.582661598920822144e-02
2.410000000000000000e+02 6.123211288452148438e+01 3.060509872436523438e+01 -4.353758335113525391e+00 -1.847805082798004150e-02 -1.311670899391174316e+00 8.723933249711990356e-02
2.420000000000000000e+02 6.573279571533203125e+01 2.974275588989257812e+01 -4.696888446807861328e+00 -2.588897943496704102e-02 -1.416833162307739258e+00 -2.061620205640792847e-01
2.430000000000000000e+02 6.497737884521484375e+01 2.975337600708007812e+01 -4.580572128295898438e+00 -2.598002366721630096e-02 -1.381965637207031250e+00 -1.733106076717376709e-01
2.440000000000000000e+02 6.422202301025390625e+01 2.976457405090332031e+01 -4.439736843109130859e+00 -4.113003239035606384e-02 -1.344259977340698242e+00 -1.546346098184585571e-01
2.450000000000000000e+02 6.648828125000000000e+01 2.973270988464355469e+01 -4.786906719207763672e+00 -3.729000687599182129e-02 -1.447258949279785156e+00 -2.233113050460815430e-01
2.460000000000000000e+02 6.574242401123046875e+01 3.048269271850585938e+01 -5.410388946533203125e+00 -4.661039914935827255e-03 -1.624514937400817871e+00 -4.183350130915641785e-02
2.470000000000000000e+02 6.499060058593750000e+01 3.049326515197753906e+01 -5.227894306182861328e+00 -6.324453745037317276e-03 -1.570265650749206543e+00 -2.999652922153472900e-02
2.480000000000000000e+02 6.649430847167968750e+01 3.047269821166992188e+01 -5.632543563842773438e+00 -1.949620246887207031e-02 -1.695611953735351562e+00 -6.736235320568084717e-02
2.490000000000000000e+02 6.423884582519531250e+01 3.050441169738769531e+01 -5.084768295288085938e+00 -1.965254545211791992e-02 -1.531326174736022949e+00 -3.690003650262951851e-03
2.500000000000000000e+02 6.724551391601562500e+01 3.046955871582031250e+01 -5.821828842163085938e+00 -1.764849573373794556e-02 -1.751843214035034180e+00 -1.048825010657310486e-01
2.510000000000000000e+02 6.799361419677734375e+01 2.973403739929199219e+01 -4.972802162170410156e+00 -1.854798011481761932e-02 -1.497405052185058594e+00 -2.258539348840713501e-01
2.520000000000000000e+02 6.949829101562500000e+01 3.047536849975585938e+01 -6.331500053405761719e+00 -2.235698886215686798e-02 -1.906157135963439941e+00 -1.488866060972213745e-01
2.530000000000000000e+02 6.724207305908203125e+01 2.972954559326171875e+01 -4.879031181335449219e+00 -3.616717085242271423e-02 -1.474559545516967773e+00 -2.224647700786590576e-01
2.540000000000000000e+02 6.874613189697265625e+01 2.973592948913574219e+01 -5.020355701446533203e+00 -1.051566330716013908e-03 -1.506422162055969238e+00 -2.365711629390716553e-01
2.550000000000000000e+02 6.874639892578125000e+01 3.047593116760253906e+01 -6.146351337432861328e+00 2.802372910082340240e-03 -1.843064665794372559e+00 -1.314995735883712769e-01
2.560000000000000000e+02 6.949961853027343750e+01 2.973537063598632812e+01 -5.026557445526123047e+00 -2.764612436294555664e-02 -1.516261100769042969e+00 -2.282350063323974609e-01
2.570000000000000000e+02 6.799546813964843750e+01 3.047404479980468750e+01 -5.972855091094970703e+00 -7.493367884308099747e-03 -1.794104576110839844e+00 -1.286471039056777954e-01
2.580000000000000000e+02 7.026628112792968750e+01 3.048155403137207031e+01 -6.548952579498291016e+00 -1.095636282116174698e-02 -1.967972636222839355e+00 -1.798509806394577026e-01
2.590000000000000000e+02 7.023088836669921875e+01 2.974142265319824219e+01 -4.944098949432373047e+00 1.595571264624595642e-02 -1.478442907333374023e+00 -1.731456071138381958e-01
2.600000000000000000e+02 7.267858886718750000e+01 2.985043716430664062e+01 -3.973943710327148438e+00 3.406985998153686523e-01 -1.089973568916320801e+00 4.589618146419525146e-01
2.610000000000000000e+02 7.084822845458984375e+01 2.966410255432128906e+01 -4.723711967468261719e+00 6.823241245001554489e-03 -1.415066719055175781e+00 -8.607675135135650635e-02
2.620000000000000000e+02 7.102828979492187500e+01 3.055475807189941406e+01 -6.826841831207275391e+00 -3.692386299371719360e-02 -2.059129714965820312e+00 -2.223944962024688721e-01
2.630000000000000000e+02 7.217373657226562500e+01 3.007028961181640625e+01 -5.271554946899414062e+00 -6.588026881217956543e-03 -1.583442807197570801e+00 1.557120494544506073e-02
2.640000000000000000e+02 7.256865692138671875e+01 3.073004150390625000e+01 -7.637679100036621094e+00 5.273563787341117859e-02 -2.275482892990112305e+00 -1.728890240192413330e-01
2.650000000000000000e+02 7.170671081542968750e+01 3.065416336059570312e+01 -7.220803737640380859e+00 8.067620545625686646e-02 -2.142038345336914062e+00 -1.588873416185379028e-01
2.660000000000000000e+02 7.267619323730468750e+01 3.050901412963867188e+01 -6.656407356262207031e+00 9.138438105583190918e-02 -1.969506978988647461e+00 -1.743721812963485718e-01
2.670000000000000000e+02 7.264867401123046875e+01 3.006719207763671875e+01 -4.828943729400634766e+00 2.386342138051986694e-01 -1.377092957496643066e+00 2.026500552892684937e-01
2.680000000000000000e+02 7.269131469726562500e+01 3.030689430236816406e+01 -5.877288818359375000e+00 1.402606368064880371e-01 -1.721108436584472656e+00 -1.451137661933898926e-02
2.690000000000000000e+02 7.213613128662109375e+01 3.056144332885742188e+01 -7.019701957702636719e+00 -1.483236551284790039e-01 -2.150407791137695312e+00 -1.366523951292037964e-01
2.700000000000000000e+02 7.265209960937500000e+01 2.947870254516601562e+01 -3.119363069534301758e+00 3.855855762958526611e-01 -8.201332688331604004e-01 7.589481472969055176e-01
2.710000000000000000e+02 7.272872161865234375e+01 2.967465972900390625e+01 -3.269459724426269531e+00 3.453635871410369873e-01 -8.772288560867309570e-01 5.288448929786682129e-01
2.720000000000000000e+02 7.201886749267578125e+01 2.963497734069824219e+01 -3.979356050491333008e+00 2.332799285650253296e-01 -1.123822808265686035e+00 2.506657540798187256e-01
2.730000000000000000e+02 7.245500183105468750e+01 2.963557243347167969e+01 -3.540490865707397461e+00 2.851826846599578857e-01 -9.765924215316772461e-01 5.513521432876586914e-01
2.740000000000000000e+02 7.141010284423828125e+01 2.961779594421386719e+01 -4.329423427581787109e+00 1.594796478748321533e-01 -1.250983119010925293e+00 2.435847371816635132e-02
2.750000000000000000e+02 7.125111389160156250e+01 3.006218147277832031e+01 -5.480339050292968750e+00 4.536899179220199585e-02 -1.630491018295288086e+00 -1.000883132219314575e-01
2.760000000000000000e+02 7.238274383544921875e+01 3.036128807067871094e+01 -6.316204547882080078e+00 -1.089390460401773453e-02 -1.898129582405090332e+00 -1.036067977547645569e-01
2.770000000000000000e+02 7.179521942138671875e+01 3.028927993774414062e+01 -5.999183177947998047e+00 1.008251011371612549e-01 -1.769507408142089844e+00 -1.416393667459487915e-01
2.780000000000000000e+02 7.297509765625000000e+01 3.074829101562500000e+01 -7.901523113250732422e+00 -1.252452135086059570e-01 -2.408030509948730469e+00 -9.616713970899581909e-02
2.790000000000000000e+02 7.357818603515625000e+01 3.050305557250976562e+01 -6.209907531738281250e+00 -6.330971373245120049e-04 -1.863162159919738770e+00 6.912586092948913574e-02
2.800000000000000000e+02 7.415750885009765625e+01 3.073175430297851562e+01 -7.272031784057617188e+00 4.453887417912483215e-02 -2.168247938156127930e+00 3.677561134099960327e-02
2.810000000000000000e+02 7.698637390136718750e+01 3.134561920166015625e+01 7.723457336425781250e+00 2.138492393493652344e+01 8.732514381408691406e+00 3.240171909332275391e+00
2.820000000000000000e+02 7.682752990722656250e+01 3.145919036865234375e+01 6.947664737701416016e+00 2.361183166503906250e+01 9.167849540710449219e+00 3.722762584686279297e+00
2.830000000000000000e+02 7.338368225097656250e+01 3.127510643005371094e+01 -5.636472225189208984e+00 1.089448481798171997e-02 -1.687673330307006836e+00 6.266415864229202271e-02
2.840000000000000000e+02 7.437165069580078125e+01 3.227734756469726562e+01 3.775689005851745605e-01 3.644203186035156250e+00 1.206531643867492676e+00 -3.931083679199218750e+00
2.850000000000000000e+02 7.576582336425781250e+01 3.224412155151367188e+01 -1.426661849021911621e+00 1.916181373596191406e+01 5.320545673370361328e+00 -6.353331089019775391e+00
2.860000000000000000e+02 7.665533447265625000e+01 3.208203506469726562e+01 3.160257637500762939e-02 2.406959533691406250e+01 7.230359077453613281e+00 1.488248348236083984e+00
2.870000000000000000e+02 7.298130798339843750e+01 2.948667716979980469e+01 -2.426569223403930664e+00 9.557425379753112793e-01 -4.412480294704437256e-01 1.134251713752746582e+00
2.880000000000000000e+02 7.481298065185546875e+01 3.053853034973144531e+01 -2.434747934341430664e+00 5.998029112815856934e-01 -5.504834651947021484e-01 1.483267188072204590e+00
2.890000000000000000e+02 7.456351470947265625e+01 2.947963714599609375e+01 5.758934095501899719e-02 4.622603416442871094e+00 1.404057860374450684e+00 4.879196166992187500e+00
2.900000000000000000e+02 7.554921722412109375e+01 2.984403610229492188e+01 1.173391044139862061e-01 1.668182182312011719e+01 5.039748191833496094e+00 8.989118576049804688e+00
2.910000000000000000e+02 7.498090362548828125e+01 2.953707885742187500e+01 6.130021214485168457e-01 7.983645439147949219e+00 2.578994274139404297e+00 6.759539127349853516e+00
2.920000000000000000e+02 7.489551544189453125e+01 3.033527374267578125e+01 2.519891560077667236e-01 1.774270653724670410e+00 6.078779101371765137e-01 3.489126682281494141e+00
2.930000000000000000e+02 7.505052947998046875e+01 2.981099510192871094e+01 1.216579794883728027e+00 7.634146690368652344e+00 2.655217885971069336e+00 7.141955852508544922e+00
2.940000000000000000e+02 7.401049804687500000e+01 2.953251266479492188e+01 -8.819070458412170410e-01 2.202048778533935547e+00 3.960425257682800293e-01 2.977325916290283203e+00
2.950000000000000000e+02 7.299944305419921875e+01 2.971228981018066406e+01 -3.306081533432006836e+00 4.115090668201446533e-01 -8.683717846870422363e-01 7.162588834762573242e-01
2.960000000000000000e+02 7.669512939453125000e+01 3.158544731140136719e+01 4.444915771484375000e+00 2.524579429626464844e+01 8.907213211059570312e+00 3.491860389709472656e+00
2.970000000000000000e+02 7.701035308837890625e+01 3.164121437072753906e+01 4.161084175109863281e+00 2.159904479980468750e+01 7.728038787841796875e+00 3.335575103759765625e+00
2.980000000000000000e+02 7.693161010742187500e+01 3.079942512512207031e+01 1.112649345397949219e+01 2.133609580993652344e+01 9.738776206970214844e+00 -8.062455058097839355e-01
2.990000000000000000e+02 7.659153747558593750e+01 3.003235816955566406e+01 1.902318000793457031e+00 2.626113319396972656e+01 8.449034690856933594e+00 -2.542124748229980469e+00
3.000000000000000000e+02 7.702439880371093750e+01 3.014051055908203125e+01 4.396521568298339844e+00 2.146208381652832031e+01 7.757581710815429688e+00 -3.634072780609130859e+00
3.010000000000000000e+02 7.633789825439453125e+01 2.976383018493652344e+01 -1.341354846954345703e+00 2.580287551879882812e+01 7.338456153869628906e+00 7.859104871749877930e-01
3.020000000000000000e+02 7.296880340576171875e+01 3.226976776123046875e+01 -1.855991125106811523e+00 8.439174890518188477e-01 -3.036220967769622803e-01 -7.924256920814514160e-01
3.030000000000000000e+02 7.296321105957031250e+01 3.163699913024902344e+01 -3.994287729263305664e+00 9.746815264225006104e-02 -1.169045805931091309e+00 -1.424641907215118408e-01
3.040000000000000000e+02 7.317666625976562500e+01 3.101262092590332031e+01 -7.163064479827880859e+00 6.817626953125000000e-02 -2.128466367721557617e+00 7.343329489231109619e-02
3.050000000000000000e+02 7.417829895019531250e+01 3.227351379394531250e+01 2.119114995002746582e-01 2.692707061767578125e+00 8.713855743408203125e-01 -3.259943246841430664e+00
3.060000000000000000e+02 7.468290710449218750e+01 3.151017379760742188e+01 -3.498047292232513428e-01 1.378953218460083008e+00 3.087445199489593506e-01 -2.761984109878540039e+00
3.070000000000000000e+02 7.297283935546875000e+01 3.100469970703125000e+01 -7.218048095703125000e+00 -1.390476524829864502e-01 -2.207128763198852539e+00 1.054482534527778625e-02
3.080000000000000000e+02 7.339202880859375000e+01 3.102900314331054688e+01 -7.168401718139648438e+00 -8.290844410657882690e-02 -2.175393104553222656e+00 7.663261890411376953e-02
3.090000000000000000e+02 7.297047424316406250e+01 3.121873092651367188e+01 -6.016932964324951172e+00 -8.702692389488220215e-02 -1.831187963485717773e+00 1.288784891366958618e-01
3.100000000000000000e+02 7.316909027099609375e+01 3.226708602905273438e+01 -1.756188154220581055e+00 7.922772169113159180e-01 -2.891732752323150635e-01 -1.004738688468933105e+00
3.110000000000000000e+02 7.359255218505859375e+01 3.101083183288574219e+01 -7.204596519470214844e+00 -1.508528925478458405e-02 -2.165904521942138672e+00 1.553338319063186646e-01
3.120000000000000000e+02 7.395060729980468750e+01 3.125702285766601562e+01 -5.195923805236816406e+00 8.273049443960189819e-02 -1.533957958221435547e+00 -1.538810878992080688e-01
3.130000000000000000e+02 7.377526855468750000e+01 3.224356460571289062e+01 -6.612977385520935059e-01 1.679448723793029785e+00 3.054452836513519287e-01 -2.125108242034912109e+00
3.140000000000000000e+02 7.489798736572265625e+01 3.140333747863769531e+01 3.808132708072662354e-01 1.496956586837768555e+00 5.633309483528137207e-01 -3.142874240875244141e+00
3.150000000000000000e+02 7.481890106201171875e+01 3.120522880554199219e+01 -2.421300172805786133e+00 4.946320950984954834e-01 -5.780004262924194336e-01 -1.333213329315185547e+00
3.160000000000000000e+02 7.478206634521484375e+01 3.099415588378906250e+01 -6.666861057281494141e+00 -4.138156399130821228e-02 -2.012472867965698242e+00 1.841462776064872742e-02
3.170000000000000000e+02 7.695012664794921875e+01 3.096932411193847656e+01 1.069902420043945312e+01 2.100797271728515625e+01 9.512099266052246094e+00 1.142287611961364746e+00
3.180000000000000000e+02 7.615785217285156250e+01 3.196394348144531250e+01 -1.379694700241088867e+00 2.604050827026367188e+01 7.398244380950927734e+00 -2.774127006530761719e+00
3.190000000000000000e+02 7.556345367431640625e+01 3.195955848693847656e+01 1.795978397130966187e-01 1.691836357116699219e+01 5.129388332366943359e+00 -8.531021118164062500e+00
3.200000000000000000e+02 7.510143280029296875e+01 3.190173339843750000e+01 1.949143290519714355e+00 7.922404766082763672e+00 2.961464405059814453e+00 -7.268375873565673828e+00
3.210000000000000000e+02 7.477856445312500000e+01 3.075993919372558594e+01 -6.708915233612060547e+00 -1.152786239981651306e-01 -2.047258138656616211e+00 -3.442699834704399109e-02
3.220000000000000000e+02 7.518059539794921875e+01 3.001845550537109375e+01 2.069817781448364258e+00 7.892616271972656250e+00 2.988730192184448242e+00 7.827401161193847656e+00
3.230000000000000000e+02 7.615535736083984375e+01 2.953762626647949219e+01 -2.253815650939941406e+00 2.291298675537109375e+01 6.197751045227050781e+00 2.965228080749511719e+00
3.240000000000000000e+02 7.684088134765625000e+01 3.032183456420898438e+01 6.872985839843750000e+00 2.336290931701660156e+01 9.070768356323242188e+00 -3.739577293395996094e+00
3.250000000000000000e+02 7.357228851318359375e+01 3.074580192565917969e+01 -7.751605510711669922e+00 3.075593383982777596e-03 -2.324558973312377930e+00 -9.641399979591369629e-02
3.260000000000000000e+02 7.721246337890625000e+01 3.115470695495605469e+01 7.820921897888183594e+00 1.893242835998535156e+01 8.026004791259765625e+00 1.819177150726318359e+00
3.270000000000000000e+02 7.662437438964843750e+01 2.973422431945800781e+01 -4.313914477825164795e-01 2.373195648193359375e+01 6.990169525146484375e+00 -1.295979976654052734e+00
3.280000000000000000e+02 7.644380950927734375e+01 2.991783905029296875e+01 8.574299514293670654e-03 2.698985671997070312e+01 8.099529266357421875e+00 -7.743211388587951660e-01
3.290000000000000000e+02 7.574991607666015625e+01 2.978666305541992188e+01 -1.137301325798034668e+00 2.088026237487792969e+01 5.922888278961181641e+00 7.611375331878662109e+00
3.300000000000000000e+02 7.535910034179687500e+01 2.991657447814941406e+01 1.324566841125488281e+00 1.239371490478515625e+01 4.115484714508056641e+00 9.066446304321289062e+00
3.310000000000000000e+02 7.672680664062500000e+01 3.016966819763183594e+01 4.556092739105224609e+00 2.494327926635742188e+01 8.849811553955078125e+00 -3.532551527023315430e+00
3.320000000000000000e+02 7.692495727539062500e+01 3.062875938415527344e+01 9.912538528442382812e+00 2.182835388183593750e+01 9.522268295288085938e+00 -2.299195051193237305e+00
3.330000000000000000e+02 7.436002349853515625e+01 3.072319602966308594e+01 -7.064741611480712891e+00 -1.084239333868026733e-01 -2.151949644088745117e+00 -2.140425145626068115e-02
3.340000000000000000e+02 7.555543518066406250e+01 3.223279953002929688e+01 -6.376306414604187012e-01 1.613160324096679688e+01 4.648191452026367188e+00 -7.473444938659667969e+00
3.350000000000000000e+02 7.510653686523437500e+01 3.207738113403320312e+01 9.957252144813537598e-01 9.045130729675292969e+00 3.012256622314453125e+00 -6.915323734283447266e+00
3.360000000000000000e+02 7.656214141845703125e+01 3.169267082214355469e+01 2.498729467391967773e+00 2.718864822387695312e+01 8.906213760375976562e+00 2.775447607040405273e+00
3.370000000000000000e+02 7.670759582519531250e+01 3.173852729797363281e+01 2.794844150543212891e+00 2.498299217224121094e+01 8.333351135253906250e+00 2.925544977188110352e+00
3.380000000000000000e+02 7.596608734130859375e+01 3.224152755737304688e+01 -1.925296306610107422e+00 2.152562904357910156e+01 5.880099773406982422e+00 -4.842215061187744141e+00
3.390000000000000000e+02 7.718870544433593750e+01 3.133932113647460938e+01 7.855718612670898438e+00 1.984933280944824219e+01 8.311515808105468750e+00 2.925056457519531250e+00
3.400000000000000000e+02 7.437996673583984375e+01 3.126054191589355469e+01 -3.819845676422119141e+00 2.750956118106842041e-01 -1.063425064086914062e+00 -7.104446291923522949e-01
3.410000000000000000e+02 7.536667633056640625e+01 3.186704063415527344e+01 1.538088917732238770e+00 1.263976764678955078e+01 4.253356933593750000e+00 -8.887596130371093750e+00
3.420000000000000000e+02 7.417758178710937500e+01 3.125019454956054688e+01 -4.830976963043212891e+00 1.683586835861206055e-01 -1.398785471916198730e+00 -3.558746278285980225e-01
3.430000000000000000e+02 7.576930999755859375e+01 3.198950576782226562e+01 -9.680831432342529297e-01 2.115985870361328125e+01 6.057532310485839844e+00 -7.373314857482910156e+00
3.440000000000000000e+02 7.710280609130859375e+01 3.070228576660156250e+01 8.839418411254882812e+00 1.962697982788085938e+01 8.539919853210449219e+00 -1.344825506210327148e+00
3.450000000000000000e+02 7.634359741210937500e+01 3.219358062744140625e+01 -1.978487372398376465e+00 2.355112266540527344e+01 6.471790313720703125e+00 -1.411139726638793945e+00
3.460000000000000000e+02 7.651541900634765625e+01 3.215773391723632812e+01 -1.220067501068115234e+00 2.406729698181152344e+01 6.854168415069580078e+00 2.999023497104644775e-01
3.470000000000000000e+02 7.648374176025390625e+01 2.962716865539550781e+01 -1.135911464691162109e+00 2.451558303833007812e+01 7.013901710510253906e+00 -1.394449174404144287e-01
3.480000000000000000e+02 7.712416839599609375e+01 3.149421882629394531e+01 6.361980438232421875e+00 2.069451713562011719e+01 8.116949081420898438e+00 3.090972900390625000e+00
3.490000000000000000e+02 7.595869445800781250e+01 2.976816177368164062e+01 -1.747177839279174805e+00 2.382680130004882812e+01 6.623887062072753906e+00 5.283947944641113281e+00
3.500000000000000000e+02 7.713967132568359375e+01 3.054844474792480469e+01 7.804477691650390625e+00 1.993909072875976562e+01 8.323070526123046875e+00 -2.209259510040283203e+00
3.510000000000000000e+02 7.690470886230468750e+01 2.999167251586914062e+01 2.561633825302124023e+00 2.253945541381835938e+01 7.530326843261718750e+00 -3.426647663116455078e+00
3.520000000000000000e+02 7.724771118164062500e+01 3.095607185363769531e+01 8.613965988159179688e+00 1.824783325195312500e+01 8.058539390563964844e+00 5.276751518249511719e-01
3.530000000000000000e+02 7.727370452880859375e+01 3.076492881774902344e+01 8.059597969055175781e+00 1.807641410827636719e+01 7.840803623199462891e+00 -3.390059471130371094e-01
3.540000000000000000e+02 7.698345184326171875e+01 3.045245742797851562e+01 7.986649990081787109e+00 2.156170845031738281e+01 8.864507675170898438e+00 -3.153796911239624023e+00
3.550000000000000000e+02 7.677859497070312500e+01 3.196133422851562500e+01 6.890581250190734863e-01 2.345839309692382812e+01 7.244235515594482422e+00 2.373156785964965820e+00
3.560000000000000000e+02 7.689527893066406250e+01 3.180720710754394531e+01 2.471469402313232422e+00 2.271763229370117188e+01 7.556730270385742188e+00 3.047120332717895508e+00
3.570000000000000000e+02 7.519776916503906250e+01 2.950552749633789062e+01 1.780397891998291016e-01 1.085708904266357422e+01 3.310538768768310547e+00 7.364675045013427734e+00
3.580000000000000000e+02 7.565852355957031250e+01 2.961287307739257812e+01 -1.177728652954101562e+00 1.820182991027832031e+01 5.107230186462402344e+00 7.354891777038574219e+00
3.590000000000000000e+02 7.439131164550781250e+01 2.947532081604003906e+01 -1.758899539709091187e-01 3.604938030242919922e+00 1.028714418411254883e+00 4.160851478576660156e+00
3.600000000000000000e+02 7.539978027343750000e+01 2.948300170898437500e+01 -6.339046955108642578e-01 1.391721248626708984e+01 3.984992265701293945e+00 7.459775924682617188e+00
3.610000000000000000e+02 7.447732543945312500e+01 2.964198112487792969e+01 -1.085751596838235855e-02 3.527266740798950195e+00 1.054922819137573242e+00 4.340516567230224609e+00
3.620000000000000000e+02 7.420964050292968750e+01 2.950690460205078125e+01 -4.516083896160125732e-01 2.984881639480590820e+00 7.599819898605346680e-01 3.652322769165039062e+00
3.630000000000000000e+02 7.317754364013671875e+01 3.074445152282714844e+01 -7.868864059448242188e+00 7.544364035129547119e-02 -2.338026046752929688e+00 -1.456331014633178711e-01
3.640000000000000000e+02 7.576334381103515625e+01 2.948044013977050781e+01 -1.769623398780822754e+00 1.880958175659179688e+01 5.111987590789794922e+00 6.499036312103271484e+00
3.650000000000000000e+02 7.595780181884765625e+01 2.951641845703125000e+01 -2.117925167083740234e+00 2.111059188842773438e+01 5.697800159454345703e+00 4.867333412170410156e+00
3.660000000000000000e+02 7.396125793457031250e+01 3.074567794799804688e+01 -7.508391857147216797e+00 4.681240767240524292e-02 -2.238473892211914062e+00 -3.299754858016967773e-02
3.670000000000000000e+02 7.337641143798828125e+01 3.074318313598632812e+01 -7.834516525268554688e+00 -1.665473729372024536e-02 -2.355351448059082031e+00 -8.821146190166473389e-02
3.680000000000000000e+02 7.297801208496093750e+01 3.053060722351074219e+01 -6.704420089721679688e+00 -3.912255167961120605e-02 -2.023062705993652344e+00 -7.238901406526565552e-02
3.690000000000000000e+02 7.437657928466796875e+01 3.101251983642578125e+01 -7.039428710937500000e+00 5.193410813808441162e-02 -2.096248388290405273e+00 -1.177985314279794693e-02
3.700000000000000000e+02 7.459946441650390625e+01 3.126386642456054688e+01 -3.026783704757690430e+00 2.346813529729843140e-01 -8.376307487487792969e-01 -9.807749390602111816e-01
3.710000000000000000e+02 7.534767913818359375e+01 3.224620819091796875e+01 1.495711598545312881e-02 1.313917541503906250e+01 3.946239709854125977e+00 -7.470944404602050781e+00
3.720000000000000000e+02 7.398094940185546875e+01 3.225294494628906250e+01 -2.742409110069274902e-01 2.092342615127563477e+00 5.454304814338684082e-01 -2.624150276184082031e+00
3.730000000000000000e+02 7.495582580566406250e+01 3.227980041503906250e+01 5.608606338500976562e-01 7.944155216217041016e+00 2.551504611968994141e+00 -6.196152687072753906e+00
3.740000000000000000e+02 7.456524658203125000e+01 3.227817916870117188e+01 7.333191037178039551e-01 4.780999183654785156e+00 1.654295444488525391e+00 -4.732035160064697266e+00
3.750000000000000000e+02 7.356967926025390625e+01 3.225560760498046875e+01 -1.075000286102294922e+00 1.332105398178100586e+00 7.713153213262557983e-02 -1.734175443649291992e+00
3.760000000000000000e+02 7.336931610107421875e+01 3.226252746582031250e+01 -1.419791102409362793e+00 1.171914577484130859e+00 -7.436294853687286377e-02 -1.332839727401733398e+00
3.770000000000000000e+02 7.474556732177734375e+01 3.207449340820312500e+01 1.080044627189636230e+00 4.979985237121582031e+00 1.818008899688720703e+00 -5.315200805664062500e+00
3.780000000000000000e+02 7.372642517089843750e+01 3.174943923950195312e+01 -2.526476144790649414e+00 5.684518218040466309e-01 -5.874072909355163574e-01 -1.007457971572875977e+00
3.790000000000000000e+02 7.298195648193359375e+01 2.992150878906250000e+01 -3.954892873764038086e+00 1.816805303096771240e-01 -1.131963729858398438e+00 4.926632344722747803e-01
3.800000000000000000e+02 7.386607360839843750e+01 2.988943862915039062e+01 -2.075074434280395508e+00 9.099806547164916992e-01 -3.495281338691711426e-01 1.646795272827148438e+00
3.810000000000000000e+02 7.318368530273437500e+01 3.051305389404296875e+01 -6.477231502532958984e+00 4.647982865571975708e-02 -1.929225444793701172e+00 2.312395162880420685e-02
3.820000000000000000e+02 7.296178436279296875e+01 3.011138534545898438e+01 -4.771789073944091797e+00 9.213455021381378174e-02 -1.403896331787109375e+00 2.705412209033966064e-01
3.830000000000000000e+02 7.296506500244140625e+01 3.142827606201171875e+01 -4.997728824615478516e+00 1.275604069232940674e-01 -1.461050510406494141e+00 2.232069969177246094e-01
3.840000000000000000e+02 7.408074188232421875e+01 3.156955337524414062e+01 -2.372224330902099609e+00 5.433292388916015625e-01 -5.486685633659362793e-01 -1.231126785278320312e+00
3.850000000000000000e+02 7.296550750732421875e+01 3.184631729125976562e+01 -3.051578760147094727e+00 2.691321969032287598e-01 -8.347339630126953125e-01 -1.729623824357986450e-01
3.860000000000000000e+02 7.456873321533203125e+01 3.073262405395507812e+01 -6.897525310516357422e+00 9.063321352005004883e-02 -2.042067527770996094e+00 -2.395722083747386932e-02
3.870000000000000000e+02 7.360252380371093750e+01 2.991132354736328125e+01 -2.854422092437744141e+00 6.280178427696228027e-01 -6.679212450981140137e-01 1.181548476219177246e+00
3.880000000000000000e+02 7.379975128173828125e+01 2.954998397827148438e+01 -1.335533738136291504e+00 1.681696534156799316e+00 1.038488075137138367e-01 2.466681957244873047e+00
3.890000000000000000e+02 7.312788391113281250e+01 3.004959678649902344e+01 -4.255460739135742188e+00 2.030465602874755859e-01 -1.215724349021911621e+00 4.184298217296600342e-01
3.900000000000000000e+02 7.323629760742187500e+01 2.969003105163574219e+01 -2.716998338699340820e+00 6.015108227729797363e-01 -6.346462965011596680e-01 1.128008008003234863e+00
3.910000000000000000e+02 7.465234375000000000e+01 2.978583908081054688e+01 5.550345182418823242e-01 4.046305656433105469e+00 1.380402088165283203e+00 4.874053955078125000e+00
3.920000000000000000e+02 7.446310424804687500e+01 2.998711013793945312e+01 -4.998762905597686768e-01 1.885121941566467285e+00 4.155736863613128662e-01 3.174561738967895508e+00
3.930000000000000000e+02 7.371813964843750000e+01 3.118552780151367188e+01 -5.881444454193115234e+00 1.328879892826080322e-01 -1.724566936492919922e+00 -7.407858967781066895e-02
3.940000000000000000e+02 7.436369323730468750e+01 3.184409904479980469e+01 -5.082815885543823242e-01 1.722681403160095215e+00 3.643199205398559570e-01 -2.737847328186035156e+00
3.950000000000000000e+02 7.518274688720703125e+01 3.173429870605468750e+01 2.348611116409301758e+00 7.635679721832275391e+00 2.995287179946899414e+00 -7.658277988433837891e+00
3.960000000000000000e+02 7.338272094726562500e+01 3.024003410339355469e+01 -4.737865447998046875e+00 1.573671549558639526e-01 -1.374149441719055176e+00 3.246242403984069824e-01
3.970000000000000000e+02 7.467324829101562500e+01 3.018558120727539062e+01 -3.746119141578674316e-01 1.761818528175354004e+00 4.161619842052459717e-01 3.213189601898193359e+00
3.980000000000000000e+02 7.526465606689453125e+01 2.973092460632324219e+01 7.765088677406311035e-01 1.131146621704101562e+01 3.626392602920532227e+00 8.113423347473144531e+00
3.990000000000000000e+02 7.492200469970703125e+01 3.188044738769531250e+01 1.841567993164062500e+00 5.528327465057373047e+00 2.210968732833862305e+00 -6.125137805938720703e+00
4.000000000000000000e+02 7.399027252197265625e+01 3.019043731689453125e+01 -3.314666986465454102e+00 4.572608768939971924e-01 -8.572218418121337891e-01 1.079909443855285645e+00
4.010000000000000000e+02 7.317586517333984375e+01 3.027868461608886719e+01 -5.132164478302001953e+00 7.594513148069381714e-02 -1.516865849494934082e+00 1.767537593841552734e-01
4.020000000000000000e+02 7.410172271728515625e+01 2.982887268066406250e+01 -1.153185367584228516e+00 1.579617142677307129e+00 1.279295384883880615e-01 2.560365438461303711e+00
4.030000000000000000e+02 7.423628234863281250e+01 3.011455917358398438e+01 -1.908562421798706055e+00 9.235533475875854492e-01 -2.955027222633361816e-01 1.888376951217651367e+00
4.040000000000000000e+02 7.433079528808593750e+01 3.041748619079589844e+01 -3.667075157165527344e+00 3.869706988334655762e-01 -9.840313196182250977e-01 9.805101156234741211e-01
4.050000000000000000e+02 7.396846771240234375e+01 3.101125335693359375e+01 -7.259309768676757812e+00 -9.960922412574291229e-03 -2.180781126022338867e+00 2.753907442092895508e-02
4.060000000000000000e+02 7.420367431640625000e+01 3.207344818115234375e+01 -1.339351087808609009e-01 2.244113445281982422e+00 6.330534815788269043e-01 -2.965165853500366211e+00
4.070000000000000000e+02 7.445838165283203125e+01 3.164724922180175781e+01 -6.473701596260070801e-01 1.487684965133666992e+00 2.520944476127624512e-01 -2.498908281326293945e+00
4.080000000000000000e+02 7.353978729248046875e+01 3.177267837524414062e+01 -2.720157146453857422e+00 3.966623544692993164e-01 -6.970484256744384766e-01 -7.469022870063781738e-01
4.090000000000000000e+02 7.314551544189453125e+01 3.163699150085449219e+01 -3.727738142013549805e+00 2.005947232246398926e-01 -1.058143019676208496e+00 -1.065159961581230164e-01
4.100000000000000000e+02 7.377317810058593750e+01 3.099457931518554688e+01 -7.308303833007812500e+00 8.343856781721115112e-02 -2.167459487915039062e+00 8.932308107614517212e-02
4.110000000000000000e+02 7.346952056884765625e+01 3.156748580932617188e+01 -3.714349031448364258e+00 2.903572022914886475e-01 -1.027197599411010742e+00 -3.041154146194458008e-01
4.120000000000000000e+02 7.296815490722656250e+01 3.205705642700195312e+01 -2.661265134811401367e+00 5.098795294761657715e-01 -6.454156637191772461e-01 -5.021034479141235352e-01
4.130000000000000000e+02 7.457848358154296875e+01 3.044581985473632812e+01 -2.820583343505859375e+00 3.615149557590484619e-01 -7.377205491065979004e-01 1.312677860260009766e+00
4.140000000000000000e+02 7.392590332031250000e+01 3.051534652709960938e+01 -5.638506412506103516e+00 1.653012186288833618e-01 -1.641961455345153809e+00 2.616075575351715088e-01
4.150000000000000000e+02 7.393102264404296875e+01 3.145253753662109375e+01 -3.446843862533569336e+00 3.212349712848663330e-01 -9.376826286315917969e-01 -5.109261870384216309e-01
4.160000000000000000e+02 7.315615844726562500e+01 3.183957672119140625e+01 -3.021111965179443359e+00 3.346828222274780273e-01 -8.059287667274475098e-01 -4.636023044586181641e-01
4.170000000000000000e+02 7.316616821289062500e+01 3.204994964599609375e+01 -2.245663166046142578e+00 6.609940528869628906e-01 -4.754007458686828613e-01 -7.053974270820617676e-01
4.180000000000000000e+02 7.315103149414062500e+01 3.143887710571289062e+01 -4.775815963745117188e+00 -1.562374085187911987e-02 -1.437431931495666504e+00 3.467724472284317017e-02
4.190000000000000000e+02 7.317084503173828125e+01 3.123523139953613281e+01 -6.060739517211914062e+00 -1.594368554651737213e-02 -1.823004841804504395e+00 1.113062724471092224e-01
4.200000000000000000e+02 7.417318725585937500e+01 3.101223564147949219e+01 -7.170737743377685547e+00 2.690906170755624771e-03 -2.150413990020751953e+00 3.510051220655441284e-02
4.210000000000000000e+02 7.336509704589843750e+01 3.203604507446289062e+01 -2.025550127029418945e+00 6.407998204231262207e-01 -4.154250919818878174e-01 -9.419919252395629883e-01
4.220000000000000000e+02 7.356169128417968750e+01 3.201500701904296875e+01 -1.703092932701110840e+00 9.622517824172973633e-01 -2.222523391246795654e-01 -1.243410468101501465e+00
4.230000000000000000e+02 7.393586730957031250e+01 3.191637992858886719e+01 -1.159517407417297363e+00 1.267856717109680176e+00 3.250179067254066467e-02 -1.930634021759033203e+00
4.240000000000000000e+02 7.437565612792968750e+01 3.206866073608398438e+01 3.767692446708679199e-01 2.789112806320190430e+00 9.497646093368530273e-01 -3.550010442733764648e+00
4.250000000000000000e+02 7.455826568603515625e+01 3.206898880004882812e+01 6.240397095680236816e-01 3.743414402008056641e+00 1.310236215591430664e+00 -4.404376983642578125e+00
4.260000000000000000e+02 7.427187347412109375e+01 3.146303939819335938e+01 -2.412191867828369141e+00 4.331296086311340332e-01 -5.937186479568481445e-01 -1.121035337448120117e+00
4.270000000000000000e+02 7.457990264892578125e+01 3.100982856750488281e+01 -6.855819702148437500e+00 -2.477147057652473450e-02 -2.064177513122558594e+00 -3.463178873062133789e-02
4.280000000000000000e+02 7.502016448974609375e+01 3.158427429199218750e+01 2.055786848068237305e+00 4.121778488159179688e+00 1.853269577026367188e+00 -5.750598907470703125e+00
4.290000000000000000e+02 7.474187469482421875e+01 3.186113739013671875e+01 1.087941884994506836e+00 3.728934526443481445e+00 1.445062875747680664e+00 -4.622046470642089844e+00
4.300000000000000000e+02 7.476036834716796875e+01 3.227943420410156250e+01 7.550618648529052734e-01 6.121688842773437500e+00 2.063025236129760742e+00 -5.648823738098144531e+00
4.310000000000000000e+02 7.493067932128906250e+01 3.207969284057617188e+01 1.263295292854309082e+00 6.993151187896728516e+00 2.476933956146240234e+00 -6.396888732910156250e+00
4.320000000000000000e+02 7.596794891357421875e+01 3.198979187011718750e+01 -1.640098214149475098e+00 2.409272956848144531e+01 6.735789775848388672e+00 -5.201714515686035156e+00
4.330000000000000000e+02 7.297537994384765625e+01 3.031475257873535156e+01 -5.477248191833496094e+00 1.015837341547012329e-01 -1.612699389457702637e+00 7.919655740261077881e-02
4.340000000000000000e+02 7.336287689208984375e+01 2.951321411132812500e+01 -2.186444759368896484e+00 1.014244556427001953e+00 -3.516600728034973145e-01 1.576122164726257324e+00
4.350000000000000000e+02 7.317822265625000000e+01 2.948286056518554688e+01 -2.405784368515014648e+00 7.987923026084899902e-01 -4.820976555347442627e-01 1.379209518432617188e+00
4.360000000000000000e+02 7.338375091552734375e+01 3.050021362304687500e+01 -6.264869213104248047e+00 5.817317962646484375e-02 -1.862008810043334961e+00 1.408244017511606216e-02
4.370000000000000000e+02 7.375965881347656250e+01 3.052774047851562500e+01 -6.147224903106689453e+00 7.683394849300384521e-02 -1.821117281913757324e+00 9.381138533353805542e-02
4.380000000000000000e+02 7.376688385009765625e+01 3.075040245056152344e+01 -7.661972045898437500e+00 6.756990216672420502e-03 -2.296564579010009766e+00 -8.601231127977371216e-02
4.390000000000000000e+02 7.410712432861328125e+01 3.045987892150878906e+01 -4.847252368927001953e+00 1.336231678724288940e-01 -1.414088726043701172e+00 4.138134419918060303e-01
4.400000000000000000e+02 7.357359313964843750e+01 2.955428695678710938e+01 -1.753527760505676270e+00 1.188263535499572754e+00 -1.695792526006698608e-01 1.895814061164855957e+00
4.410000000000000000e+02 7.484695434570312500e+01 2.996590232849121094e+01 1.104350328445434570e+00 4.302332401275634766e+00 1.622004866600036621e+00 5.459639072418212891e+00
4.420000000000000000e+02 7.475895690917968750e+01 2.952827453613281250e+01 4.133051335811614990e-01 6.195496559143066406e+00 1.982640504837036133e+00 5.880890846252441406e+00
4.430000000000000000e+02 7.525960540771484375e+01 3.202455520629882812e+01 1.075776815414428711e+00 1.135441684722900391e+01 3.729058265686035156e+00 -7.978441238403320312e+00
4.440000000000000000e+02 7.515083312988281250e+01 3.227371597290039062e+01 4.996237754821777344e-01 1.009609603881835938e+01 3.178715944290161133e+00 -6.897552967071533203e+00
4.450000000000000000e+02 7.502242279052734375e+01 3.015904235839843750e+01 1.895061492919921875e+00 4.524752616882324219e+00 1.925944328308105469e+00 6.077291488647460938e+00
4.460000000000000000e+02 7.615763092041015625e+01 3.222217559814453125e+01 -2.204708099365234375e+00 2.284102630615234375e+01 6.190895080566406250e+00 -3.018215894699096680e+00
4.470000000000000000e+02 7.635287475585937500e+01 3.197501564025878906e+01 -8.068500757217407227e-01 2.593895721435546875e+01 7.539632320404052734e+00 -5.394914150238037109e-01
4.480000000000000000e+02 7.653247070312500000e+01 3.202036666870117188e+01 -3.621416091918945312e-01 2.473332405090332031e+01 7.311354637145996094e+00 1.179084300994873047e+00
4.490000000000000000e+02 7.661618804931640625e+01 3.188556861877441406e+01 6.003217697143554688e-01 2.519000434875488281e+01 7.737097740173339844e+00 1.936200141906738281e+00
4.500000000000000000e+02 7.695471954345703125e+01 3.115235710144042969e+01 9.933494567871093750e+00 2.144647979736328125e+01 9.413991928100585938e+00 2.482479095458984375e+00
4.510000000000000000e+02 7.727271270751953125e+01 3.059266090393066406e+01 7.086399078369140625e+00 1.856418037414550781e+01 7.695174217224121094e+00 -1.264390707015991211e+00
4.520000000000000000e+02 7.722831726074218750e+01 3.044009017944335938e+01 6.957143306732177734e+00 1.973047256469726562e+01 8.006284713745117188e+00 -2.471170186996459961e+00
4.530000000000000000e+02 7.713375854492187500e+01 3.029274368286132812e+01 5.800901889801025391e+00 2.090206909179687500e+01 8.010890960693359375e+00 -3.368560075759887695e+00
4.540000000000000000e+02 7.676892852783203125e+01 2.985408401489257812e+01 1.159608960151672363e+00 2.341889762878417969e+01 7.373551845550537109e+00 -2.627616405487060547e+00
4.550000000000000000e+02 7.633184814453125000e+01 2.956318855285644531e+01 -1.868810534477233887e+00 2.415468215942382812e+01 6.685761451721191406e+00 1.573330283164978027e+00
4.560000000000000000e+02 7.558646392822265625e+01 2.946261978149414062e+01 -1.253205418586730957e+00 1.624989891052246094e+01 4.499007701873779297e+00 7.298587799072265625e+00
4.570000000000000000e+02 7.546666717529296875e+01 2.967236900329589844e+01 -1.280491054058074951e-01 1.510830783843994141e+01 4.494077682495117188e+00 8.318247795104980469e+00
4.580000000000000000e+02 7.643713378906250000e+01 3.180876731872558594e+01 4.361454248428344727e-01 2.723437881469726562e+01 8.301156997680664062e+00 1.017291188240051270e+00
4.590000000000000000e+02 7.615459442138671875e+01 2.979585647583007812e+01 -1.674979448318481445e+00 2.613019371032714844e+01 7.336564064025878906e+00 2.590146541595458984e+00
4.600000000000000000e+02 7.706488800048828125e+01 3.087068557739257812e+01 9.692094802856445312e+00 2.013298606872558594e+01 8.947524070739746094e+00 1.252764016389846802e-01
4.610000000000000000e+02 7.375733184814453125e+01 3.198985481262207031e+01 -1.427843332290649414e+00 1.057041168212890625e+00 -1.112406477332115173e-01 -1.582883715629577637e+00
4.620000000000000000e+02 7.418624114990234375e+01 3.188335609436035156e+01 -8.090061545372009277e-01 1.549667477607727051e+00 2.221983969211578369e-01 -2.285584688186645508e+00
4.630000000000000000e+02 7.381484222412109375e+01 3.032480430603027344e+01 -4.477214813232421875e+00 2.389908730983734131e-01 -1.271467089653015137e+00 5.161680579185485840e-01
4.640000000000000000e+02 7.360921478271484375e+01 3.023438453674316406e+01 -4.374513626098632812e+00 1.959299147129058838e-01 -1.253575086593627930e+00 4.648572802543640137e-01
4.650000000000000000e+02 7.404904174804687500e+01 3.203739547729492188e+01 -7.974113225936889648e-01 1.624712944030761719e+00 2.481904774904251099e-01 -2.278403520584106445e+00
4.660000000000000000e+02 7.455464172363281250e+01 3.184793281555175781e+01 5.466160178184509277e-01 2.651343345642089844e+00 9.593878388404846191e-01 -3.739741325378417969e+00
4.670000000000000000e+02 7.483968353271484375e+01 3.170230674743652344e+01 1.324443578720092773e+00 3.626146078109741211e+00 1.485176801681518555e+00 -4.851517677307128906e+00
4.680000000000000000e+02 7.407061004638671875e+01 3.176439666748046875e+01 -1.344111084938049316e+00 1.058393955230712891e+00 -8.571515977382659912e-02 -1.741153120994567871e+00
4.690000000000000000e+02 7.430785369873046875e+01 2.975104141235351562e+01 -5.014507770538330078e-01 2.426068067550659180e+00 5.773851871490478516e-01 3.423118591308593750e+00
4.700000000000000000e+02 7.333542633056640625e+01 2.994831848144531250e+01 -3.528263330459594727e+00 3.791500329971313477e-01 -9.447340369224548340e-01 7.638959884643554688e-01
4.710000000000000000e+02 7.334787750244140625e+01 3.181968879699707031e+01 -2.843180179595947266e+00 5.081036090850830078e-01 -7.005230188369750977e-01 -5.807877182960510254e-01
4.720000000000000000e+02 7.360070037841796875e+01 3.139216995239257812e+01 -4.673780918121337891e+00 1.103452891111373901e-01 -1.369030714035034180e+00 -1.941241621971130371e-01
4.730000000000000000e+02 7.332748413085937500e+01 3.146617698669433594e+01 -4.501974582672119141e+00 7.321515679359436035e-02 -1.328627943992614746e+00 -3.184918314218521118e-02
4.740000000000000000e+02 7.331746673583984375e+01 3.163053894042968750e+01 -3.555556297302246094e+00 1.773983240127563477e-01 -1.013447403907775879e+00 -3.544717133045196533e-01
4.750000000000000000e+02 7.377317047119140625e+01 3.153344917297363281e+01 -3.375353574752807617e+00 1.512887179851531982e-01 -9.672194719314575195e-01 -4.680945277214050293e-01
4.760000000000000000e+02 7.390315246582031250e+01 3.174969673156738281e+01 -2.234172105789184570e+00 7.050219178199768066e-01 -4.587450921535491943e-01 -1.100584983825683594e+00
4.770000000000000000e+02 7.391849517822265625e+01 3.159228134155273438e+01 -2.508991479873657227e+00 8.879581093788146973e-01 -4.863100051879882812e-01 -1.112627387046813965e+00
4.780000000000000000e+02 7.271515655517578125e+01 3.122544288635253906e+01 -5.962831974029541016e+00 2.203247398138046265e-01 -1.722752094268798828e+00 3.190367817878723145e-01
4.790000000000000000e+02 7.081835937500000000e+01 3.199632644653320312e+01 -3.643345594406127930e+00 5.095824971795082092e-02 -1.077716112136840820e+00 4.053882658481597900e-01
4.800000000000000000e+02 7.240340423583984375e+01 3.171413612365722656e+01 -3.989288330078125000e+00 3.034139871597290039e-01 -1.105762362480163574e+00 1.106790229678153992e-01
4.810000000000000000e+02 7.196519470214843750e+01 3.207776260375976562e+01 -3.123504877090454102e+00 5.602225288748741150e-02 -9.202447533607482910e-01 7.246441673487424850e-03
4.820000000000000000e+02 7.274759674072265625e+01 3.142792701721191406e+01 -5.334451198577880859e+00 9.826618432998657227e-02 -1.570855498313903809e+00 1.289918832480907440e-02
4.830000000000000000e+02 7.237126922607421875e+01 3.206286239624023438e+01 -3.101583480834960938e+00 3.456395864486694336e-01 -8.267831802368164062e-01 -1.274194866418838501e-01
4.840000000000000000e+02 7.269460296630859375e+01 3.203717803955078125e+01 -2.860943317413330078e+00 2.416296601295471191e-01 -7.857941389083862305e-01 -1.675188094377517700e-01
4.850000000000000000e+02 7.263305664062500000e+01 3.226210784912109375e+01 -2.466986417770385742e+00 4.250126779079437256e-01 -6.125921607017517090e-01 -4.800225794315338135e-01
4.860000000000000000e+02 7.018769836425781250e+01 3.199213981628417969e+01 -3.597296476364135742e+00 4.107985645532608032e-02 -1.066864967346191406e+00 4.194892644882202148e-01
4.870000000000000000e+02 7.093293762207031250e+01 3.125673294067382812e+01 -5.421320915222167969e+00 1.351589150726795197e-02 -1.622341513633728027e+00 1.521136760711669922e-01
4.880000000000000000e+02 7.239617156982421875e+01 3.120595359802246094e+01 -6.204773426055908203e+00 -8.463543653488159180e-02 -1.886822700500488281e+00 1.648562103509902954e-01
4.890000000000000000e+02 7.022730255126953125e+01 3.125227928161621094e+01 -5.061094284057617188e+00 1.984345726668834686e-02 -1.512375235557556152e+00 1.861062347888946533e-01
4.900000000000000000e+02 7.260092163085937500e+01 3.100646400451660156e+01 -6.835626602172851562e+00 7.089144736528396606e-02 -2.029420614242553711e+00 1.276181042194366455e-01
4.910000000000000000e+02 7.274689483642578125e+01 3.161111450195312500e+01 -4.060492515563964844e+00 8.777961134910583496e-02 -1.191813945770263672e+00 3.836957737803459167e-02
4.920000000000000000e+02 7.270796203613281250e+01 3.181244659423828125e+01 -3.425449371337890625e+00 1.340865194797515869e-01 -9.874088168144226074e-01 -9.058476984500885010e-02
4.930000000000000000e+02 7.141940307617187500e+01 3.202445602416992188e+01 -3.316402196884155273e+00 8.984815329313278198e-02 -9.679662585258483887e-01 3.090801239013671875e-01
4.940000000000000000e+02 7.254302215576171875e+01 3.149345970153808594e+01 -4.781816482543945312e+00 8.847181499004364014e-02 -1.408003330230712891e+00 1.126374769955873489e-02
4.950000000000000000e+02 7.160895538330078125e+01 3.128513145446777344e+01 -5.741995334625244141e+00 -1.419568248093128204e-02 -1.726857185363769531e+00 1.602585166692733765e-01
4.960000000000000000e+02 7.209777832031250000e+01 3.147845840454101562e+01 -5.310796260833740234e+00 -4.333717003464698792e-02 -1.606240034103393555e+00 2.692161500453948975e-01
4.970000000000000000e+02 6.949690246582031250e+01 3.125537872314453125e+01 -4.666400432586669922e+00 -1.225262507796287537e-02 -1.403595924377441406e+00 1.927710622549057007e-01
4.980000000000000000e+02 6.874758148193359375e+01 3.125377655029296875e+01 -4.268162727355957031e+00 1.217302866280078888e-02 -1.276796936988830566e+00 1.928232908248901367e-01
4.990000000000000000e+02 6.949558258056640625e+01 3.199537658691406250e+01 -3.457861423492431641e+00 2.155202068388462067e-02 -1.030892848968505859e+00 4.737629294395446777e-01
5.000000000000000000e+02 6.725275421142578125e+01 3.198883247375488281e+01 -2.809061288833618164e+00 -3.335935063660144806e-03 -8.437191247940063477e-01 5.096057057380676270e-01
5.010000000000000000e+02 6.800035095214843750e+01 3.199114227294921875e+01 -3.041335105895996094e+00 1.041782554239034653e-03 -9.120879769325256348e-01 5.062755346298217773e-01
5.020000000000000000e+02 6.724931335449218750e+01 3.124882125854492188e+01 -3.464868783950805664e+00 5.556722637265920639e-03 -1.037793636322021484e+00 1.901136338710784912e-01
5.030000000000000000e+02 6.874784851074218750e+01 3.199378013610839844e+01 -3.260302066802978516e+00 7.914792746305465698e-03 -9.757161736488342285e-01 5.024066567420959473e-01
5.040000000000000000e+02 6.799849700927734375e+01 3.125113487243652344e+01 -3.866019725799560547e+00 -9.605551138520240784e-03 -1.162687540054321289e+00 1.943004578351974487e-01
5.050000000000000000e+02 6.575241088867187500e+01 3.126423072814941406e+01 -2.796606302261352539e+00 -1.336346194148063660e-02 -8.429908752441406250e-01 1.961611509323120117e-01
5.060000000000000000e+02 6.501776123046875000e+01 3.201393890380859375e+01 -2.068412303924560547e+00 -3.199787065386772156e-02 -6.301230192184448242e-01 4.463801980018615723e-01
5.070000000000000000e+02 6.425657653808593750e+01 3.128445243835449219e+01 -2.190697908401489258e+00 -7.556712254881858826e-03 -6.594763398170471191e-01 1.785376518964767456e-01
5.080000000000000000e+02 6.650653839111328125e+01 3.199358749389648438e+01 -2.554416418075561523e+00 -1.541421003639698029e-02 -7.709492444992065430e-01 4.768832027912139893e-01
5.090000000000000000e+02 6.650051116943359375e+01 3.125359916687011719e+01 -3.109759807586669922e+00 2.757864538580179214e-03 -9.321005940437316895e-01 2.006787061691284180e-01
5.100000000000000000e+02 6.427339935302734375e+01 3.202428817749023438e+01 -1.859188318252563477e+00 -2.503727935254573822e-02 -5.652676820755004883e-01 4.118687212467193604e-01
5.110000000000000000e+02 6.576203918457031250e+01 3.200416946411132812e+01 -2.305796384811401367e+00 -2.070059068500995636e-02 -6.979491114616394043e-01 4.626132547855377197e-01
5.120000000000000000e+02 6.500453948974609375e+01 3.127404975891113281e+01 -2.490020275115966797e+00 -3.660364774987101555e-03 -7.481042146682739258e-01 1.841763257980346680e-01
5.130000000000000000e+02 6.204193878173828125e+01 3.210000610351562500e+01 -1.304284930229187012e+00 -4.141237214207649231e-02 -4.037091732025146484e-01 3.279638588428497314e-01
5.140000000000000000e+02 6.201310729980468750e+01 3.136056327819824219e+01 -1.513716340065002441e+00 -1.257966831326484680e-02 -4.578888118267059326e-01 1.541100591421127319e-01
5.150000000000000000e+02 6.126666641235351562e+01 3.138534736633300781e+01 -1.318142175674438477e+00 -1.016016863286495209e-02 -3.984906971454620361e-01 1.426830589771270752e-01
5.160000000000000000e+02 6.276046371459960938e+01 3.133337402343750000e+01 -1.719750881195068359e+00 -1.515090372413396835e-02 -5.204704999923706055e-01 1.704814434051513672e-01
5.170000000000000000e+02 6.352939224243164062e+01 3.204366302490234375e+01 -1.658846974372863770e+00 -3.269353881478309631e-02 -5.074621438980102539e-01 3.796120285987854004e-01
5.180000000000000000e+02 6.350872802734375000e+01 3.130392646789550781e+01 -1.935312032699584961e+00 -3.329584607854485512e-03 -5.815925002098083496e-01 1.761931926012039185e-01
5.190000000000000000e+02 6.129957962036132812e+01 3.212464141845703125e+01 -1.161308050155639648e+00 -3.228417411446571350e-02 -3.580776751041412354e-01 2.973930537700653076e-01
5.200000000000000000e+02 6.278520965576171875e+01 3.207296371459960938e+01 -1.468744039535522461e+00 -3.681879490613937378e-02 -4.516688585281372070e-01 3.484760224819183350e-01
5.210000000000000000e+02 5.902614212036132812e+01 3.150998687744140625e+01 -8.757410645484924316e-01 -1.492720749229192734e-02 -2.672004699707031250e-01 1.160348951816558838e-01
5.220000000000000000e+02 5.907215118408203125e+01 3.224856185913085938e+01 -7.702745795249938965e-01 -3.337592631578445435e-02 -2.410951554775238037e-01 2.375726401805877686e-01
5.230000000000000000e+02 5.828060531616210938e+01 3.155119895935058594e+01 -7.454089522361755371e-01 -7.457403931766748428e-03 -2.258599102497100830e-01 1.076016947627067566e-01
5.240000000000000000e+02 5.977254104614257812e+01 3.146639251708984375e+01 -1.011018395423889160e+00 -1.302658021450042725e-02 -3.072134852409362793e-01 1.302815079689025879e-01
5.250000000000000000e+02 6.055696487426757812e+01 3.215964889526367188e+01 -1.020043015480041504e+00 -3.146621957421302795e-02 -3.154527842998504639e-01 2.734980285167694092e-01
5.260000000000000000e+02 6.051979827880859375e+01 3.142056083679199219e+01 -1.152861237525939941e+00 -8.797498419880867004e-03 -3.484976291656494141e-01 1.362950354814529419e-01
5.270000000000000000e+02 5.833103179931640625e+01 3.228951644897460938e+01 -6.714875102043151855e-01 -3.731241822242736816e-02 -2.126399874687194824e-01 2.080545872449874878e-01
5.280000000000000000e+02 5.981412887573242188e+01 3.220522308349609375e+01 -8.895295262336730957e-01 -3.533435612916946411e-02 -2.774591743946075439e-01 2.490817904472351074e-01
5.290000000000000000e+02 5.604499816894531250e+01 3.173213005065917969e+01 -4.606716036796569824e-01 -1.780145801603794098e-02 -1.435419172048568726e-01 7.915068417787551880e-02
5.300000000000000000e+02 5.611047744750976562e+01 3.246923828125000000e+01 -4.150904417037963867e-01 -2.669916860759258270e-02 -1.325368732213973999e-01 1.528111398220062256e-01
5.310000000000000000e+02 5.530117034912109375e+01 3.179267501831054688e+01 -3.817981481552124023e-01 -5.158443935215473175e-03 -1.160869747400283813e-01 7.029585540294647217e-02
5.320000000000000000e+02 5.678963851928710938e+01 3.166926193237304688e+01 -5.455026626586914062e-01 -7.876728661358356476e-03 -1.660138219594955444e-01 9.172597527503967285e-02
5.330000000000000000e+02 5.759029388427734375e+01 3.234218597412109375e+01 -5.765859484672546387e-01 -2.604012936353683472e-02 -1.807878166437149048e-01 1.919873058795928955e-01
5.340000000000000000e+02 5.753508758544921875e+01 3.160421562194824219e+01 -6.364676952362060547e-01 -1.543934922665357590e-02 -1.955721080303192139e-01 9.802953153848648071e-02
5.350000000000000000e+02 5.537178421020507812e+01 3.252934646606445312e+01 -3.543845117092132568e-01 -3.461079671978950500e-02 -1.166985929012298584e-01 1.332523524761199951e-01
5.360000000000000000e+02 5.684997940063476562e+01 3.240679931640625000e+01 -4.882984161376953125e-01 -4.077511653304100037e-02 -1.587220579385757446e-01 1.681679338216781616e-01
5.370000000000000000e+02 5.315649414062500000e+01 3.277415466308593750e+01 -2.050074040889739990e-01 -1.943708211183547974e-02 -6.733334809541702271e-02 8.961730450391769409e-02
5.380000000000000000e+02 5.307151031494140625e+01 3.203905105590820312e+01 -2.195190936326980591e-01 -1.441897824406623840e-02 -7.018142193555831909e-02 4.683357477188110352e-02
5.390000000000000000e+02 5.232960128784179688e+01 3.212165451049804688e+01 -1.775371879339218140e-01 -3.477585269138216972e-03 -5.430443584918975830e-02 4.054846614599227905e-02
5.400000000000000000e+02 5.381415176391601562e+01 3.195396995544433594e+01 -2.660581171512603760e-01 -5.850300658494234085e-03 -8.157252520322799683e-02 5.661025643348693848e-02
5.410000000000000000e+02 5.463307952880859375e+01 3.260275268554687500e+01 -2.960568368434906006e-01 -2.196107059717178345e-02 -9.540536999702453613e-02 1.172191724181175232e-01
5.420000000000000000e+02 5.455753707885742188e+01 3.186656951904296875e+01 -3.182342648506164551e-01 -1.455487124621868134e-02 -9.983674436807632446e-02 6.214090436697006226e-02
5.430000000000000000e+02 5.241930389404296875e+01 3.285622024536132812e+01 -1.696056574583053589e-01 -2.676545083522796631e-02 -5.891133472323417664e-02 7.539498060941696167e-02
5.440000000000000000e+02 5.389441299438476562e+01 3.268961715698242188e+01 -2.472756654024124146e-01 -3.188542276620864868e-02 -8.374832570552825928e-02 9.986230731010437012e-02
5.450000000000000000e+02 5.010603713989257812e+01 3.241886520385742188e+01 -9.007668495178222656e-02 -8.911957964301109314e-03 -2.969659119844436646e-02 2.340015023946762085e-02
5.460000000000000000e+02 5.020995712280273438e+01 3.315154266357421875e+01 -8.757133781909942627e-02 -1.128407754004001617e-02 -2.965662442147731781e-02 4.923456162214279175e-02
5.470000000000000000e+02 4.936609268188476562e+01 3.251750564575195312e+01 -6.654834002256393433e-02 -8.079741965048015118e-04 -2.020689286291599274e-02 2.126269415020942688e-02
5.480000000000000000e+02 5.084666061401367188e+01 3.231782531738281250e+01 -1.143155694007873535e-01 -3.633860033005475998e-03 -3.538482636213302612e-02 2.978169918060302734e-02
5.490000000000000000e+02 5.168240356445312500e+01 3.294850540161132812e+01 -1.385180354118347168e-01 -1.423666812479496002e-02 -4.582640901207923889e-02 6.436933577060699463e-02
5.500000000000000000e+02 5.158797073364257812e+01 3.221453475952148438e+01 -1.432260721921920776e-01 -1.078404299914836884e-02 -4.620303213596343994e-02 3.421329334378242493e-02
5.510000000000000000e+02 4.947475433349609375e+01 3.324953460693359375e+01 -7.247386872768402100e-02 -1.764796674251556396e-02 -2.703655138611793518e-02 3.690110519528388977e-02
5.520000000000000000e+02 5.094583892822265625e+01 3.305115127563476562e+01 -1.137042865157127380e-01 -2.126612327992916107e-02 -4.049112275242805481e-02 5.461935326457023621e-02
5.530000000000000000e+02 4.727144622802734375e+01 3.360919570922851562e+01 -2.765143290162086487e-02 -3.268820233643054962e-03 -9.276076219975948334e-03 2.381825633347034454e-02
5.540000000000000000e+02 4.715089797973632812e+01 3.287907791137695312e+01 -2.205041795969009399e-02 -1.072503346949815750e-02 -9.832635521888732910e-03 8.059603162109851837e-03
5.550000000000000000e+02 4.641378021240234375e+01 3.299990844726562500e+01 -1.193749811500310898e-02 4.788212478160858154e-03 -2.144785597920417786e-03 7.595896255224943161e-03
5.560000000000000000e+02 4.788861083984375000e+01 3.275563049316406250e+01 -3.411045297980308533e-02 2.884819637984037399e-03 -9.367689490318298340e-03 1.456897426396608353e-02
5.570000000000000000e+02 4.873987197875976562e+01 3.336110687255859375e+01 -5.322190001606941223e-02 -6.716920994222164154e-03 -1.798164658248424530e-02 3.692184761166572571e-02
5.580000000000000000e+02 4.862693405151367188e+01 3.262971878051757812e+01 -4.935114458203315735e-02 -9.704933501780033112e-03 -1.771682314574718475e-02 1.427300553768873215e-02
5.590000000000000000e+02 4.653813171386718750e+01 3.372938919067382812e+01 -1.718990691006183624e-02 -1.498127449303865433e-02 -9.651354514062404633e-03 1.568184792995452881e-02
5.600000000000000000e+02 4.800535202026367188e+01 3.348638153076171875e+01 -3.906312957406044006e-02 -1.708219200372695923e-02 -1.684359647333621979e-02 2.481839060783386230e-02
5.610000000000000000e+02 4.420226669311523438e+01 3.339414215087890625e+01 4.916920792311429977e-03 -5.561607889831066132e-03 -1.934061583597213030e-04 1.925876131281256676e-04
5.620000000000000000e+02 4.433515167236328125e+01 3.412211608886718750e+01 -3.352015046402812004e-04 1.134760444983839989e-03 2.398676733719184995e-04 6.101107224822044373e-03
5.630000000000000000e+02 4.346595001220703125e+01 3.352351760864257812e+01 8.312126621603965759e-03 3.921637311577796936e-03 3.670129226520657539e-03 6.537390290759503841e-04
5.640000000000000000e+02 4.493911361694335938e+01 3.326211166381835938e+01 1.270190929062664509e-03 4.268934018909931183e-03 1.661737449467182159e-03 2.893441822379827499e-03
5.650000000000000000e+02 4.580409240722656250e+01 3.385649871826171875e+01 -1.091820746660232544e-02 -7.182001718319952488e-05 -3.297008341178297997e-03 1.209146436303853989e-02
5.660000000000000000e+02 4.567650985717773438e+01 3.312757492065429688e+01 -4.480371717363595963e-03 -8.321175351738929749e-03 -3.840464167296886444e-03 3.376456210389733315e-03
5.670000000000000000e+02 4.360148620605468750e+01 3.425101852416992188e+01 1.577453454956412315e-03 -6.816651672124862671e-03 -1.571759581565856934e-03 2.732329536229372025e-03
5.680000000000000000e+02 4.506934738159179688e+01 3.399055862426757812e+01 -5.446668248623609543e-03 -1.043291855603456497e-02 -4.763876087963581085e-03 8.586579002439975739e-03
5.690000000000000000e+02 4.139850234985351562e+01 3.467833328247070312e+01 6.727750413119792938e-03 2.768665086477994919e-03 2.848924603313207626e-03 1.081185415387153625e-03
5.700000000000000000e+02 4.199465942382812500e+01 3.380642318725585938e+01 1.162954606115818024e-02 4.617854021489620209e-03 4.874220117926597595e-03 -6.161737255752086639e-04
5.710000000000000000e+02 4.052394866943359375e+01 3.409660720825195312e+01 1.307772379368543625e-02 4.506007302552461624e-03 5.275119096040725708e-03 -1.744450302794575691e-03
5.720000000000000000e+02 4.213290405273437500e+01 3.453341293334960938e+01 5.526555236428976059e-03 -4.433134570717811584e-03 3.280262462794780731e-04 -1.167193695437163115e-04
5.730000000000000000e+02 4.272992324829101562e+01 3.366130447387695312e+01 9.770597331225872040e-03 -4.555013030767440796e-03 1.564675243571400642e-03 -2.079449361190199852e-03
5.740000000000000000e+02 4.286724853515625000e+01 3.438847732543945312e+01 4.530916456133127213e-03 1.802961691282689571e-03 1.900163479149341583e-03 2.825108589604496956e-03
5.750000000000000000e+02 4.066404342651367188e+01 3.482323455810546875e+01 7.626839447766542435e-03 -4.834359046071767807e-03 8.377442136406898499e-04 -1.647714176215231419e-03
5.760000000000000000e+02 4.125933456420898438e+01 3.395152664184570312e+01 1.242976542562246323e-02 -4.303086549043655396e-03 2.438003662973642349e-03 -2.886045025661587715e-03
5.770000000000000000e+02 3.905131912231445312e+01 3.438002777099609375e+01 1.237239036709070206e-02 4.483416210860013962e-03 5.056742113083600998e-03 -1.746047288179397583e-03
5.780000000000000000e+02 3.845631790161132812e+01 3.524533081054687500e+01 7.337239105254411697e-03 4.982350859791040421e-03 3.695877036079764366e-03 -1.936202053911983967e-03
5.790000000000000000e+02 3.757802581787109375e+01 3.465816116333007812e+01 1.037440635263919830e-02 4.374284297227859497e-03 4.424607381224632263e-03 -1.936675980687141418e-03
5.800000000000000000e+02 3.992870712280273438e+01 3.496635818481445312e+01 9.218588471412658691e-03 4.069973714649677277e-03 3.986568655818700790e-03 -6.988490931689739227e-04
5.810000000000000000e+02 3.978794097900390625e+01 3.423986434936523438e+01 1.250366214662790298e-02 -3.492594929412007332e-03 2.703320235013961792e-03 -3.433665027841925621e-03
5.820000000000000000e+02 3.772006225585937500e+01 3.538441467285156250e+01 7.308525964617729187e-03 -3.556078765541315079e-03 1.125734183005988598e-03 -3.161062719300389290e-03
5.830000000000000000e+02 3.919250869750976562e+01 3.510644531250000000e+01 8.360859006643295288e-03 -4.243451170623302460e-03 1.235222443938255310e-03 -3.781016683205962181e-03
5.840000000000000000e+02 3.831470489501953125e+01 3.451899719238281250e+01 1.135257445275783539e-02 -3.509362693876028061e-03 2.352963434532284737e-03 -3.432439640164375305e-03
5.850000000000000000e+02 3.551680755615234375e+01 3.582569122314453125e+01 4.653831012547016144e-03 3.805135376751422882e-03 2.537689870223402977e-03 -1.906271558254957199e-03
5.860000000000000000e+02 3.610754394531250000e+01 3.495201110839843750e+01 8.123923093080520630e-03 3.754577366635203362e-03 3.563550300896167755e-03 -1.679840148426592350e-03
5.870000000000000000e+02 3.463803482055664062e+01 3.524788665771484375e+01 5.783808417618274689e-03 3.169237636029720306e-03 2.685913816094398499e-03 -1.322223106399178505e-03
5.880000000000000000e+02 3.684228134155273438e+01 3.480297470092773438e+01 9.067152626812458038e-03 -2.923294901847839355e-03 1.843157224357128143e-03 -2.965631196275353432e-03
5.890000000000000000e+02 3.698487472534179688e+01 3.552911758422851562e+01 6.286018528044223785e-03 4.310479853302240372e-03 3.178949467837810516e-03 -2.741442061960697174e-03
5.900000000000000000e+02 3.478272247314453125e+01 3.597360992431640625e+01 4.879649728536605835e-03 -2.048989059403538704e-03 8.491982589475810528e-04 -2.309202449396252632e-03
5.910000000000000000e+02 3.625083541870117188e+01 3.567801284790039062e+01 5.169712938368320465e-03 -2.125659259036183357e-03 9.132161503657698631e-04 -3.008832922205328941e-03
5.920000000000000000e+02 3.537281799316406250e+01 3.509983062744140625e+01 6.844616495072841644e-03 -2.421777462586760521e-03 1.326851779595017433e-03 -2.478970680385828018e-03
5.930000000000000000e+02 3.242737579345703125e+01 3.568672943115234375e+01 2.968032611533999443e-03 -1.242144382558763027e-03 5.177664570510387421e-04 -1.200662343762814999e-03
5.940000000000000000e+02 3.169006347656250000e+01 3.583216094970703125e+01 2.364365849643945694e-03 1.665529329329729080e-03 1.208968576975166798e-03 -5.387470009736716747e-04
5.950000000000000000e+02 3.330534362792968750e+01 3.626757049560546875e+01 2.490786835551261902e-03 -5.831337766721844673e-04 5.722959176637232304e-04 -1.536166877485811710e-03
5.960000000000000000e+02 3.316469573974609375e+01 3.554105377197265625e+01 3.869446460157632828e-03 2.234078943729400635e-03 1.831057597883045673e-03 -1.047196448780596256e-03
5.970000000000000000e+02 3.390202713012695312e+01 3.539514541625976562e+01 4.821561742573976517e-03 -1.886103767901659012e-03 8.806373807601630688e-04 -1.704653375782072544e-03
5.980000000000000000e+02 3.404560089111328125e+01 3.612108612060546875e+01 3.174011828377842903e-03 2.905060071498155594e-03 1.823721569962799549e-03 -2.629922004416584969e-03
5.990000000000000000e+02 3.182485580444335938e+01 3.655983352661132812e+01 1.837920048274099827e-03 -4.436106537468731403e-04 4.182928241789340973e-04 -1.234688446857035160e-03
6.000000000000000000e+02 3.256509399414062500e+01 3.641382217407226562e+01 2.181140240281820297e-03 1.813813345506787300e-03 1.198486075736582279e-03 -1.401900546625256538e-03
6.010000000000000000e+02 2.946516418457031250e+01 3.621912765502929688e+01 1.108444179408252239e-03 -6.908906507305800915e-04 1.252660440513864160e-04 -3.741504624485969543e-04
6.020000000000000000e+02 2.958438682556152344e+01 3.694947052001953125e+01 8.013221086002886295e-04 1.270657056011259556e-03 6.215937319211661816e-04 -8.004599949344992638e-04
6.030000000000000000e+02 2.872264671325683594e+01 3.634394836425781250e+01 8.077326347120106220e-04 6.891946541145443916e-04 4.490781866479665041e-04 -2.422981633571907878e-04
6.040000000000000000e+02 3.020768547058105469e+01 3.609378433227539062e+01 1.412627636454999447e-03 1.152772107161581516e-03 7.696199463680386543e-04 -3.821842256002128124e-04
6.050000000000000000e+02 3.095018768310546875e+01 3.596792221069335938e+01 1.914458815008401871e-03 -1.067262957803905010e-03 2.541587455198168755e-04 -6.991465343162417412e-04
6.060000000000000000e+02 3.108069419860839844e+01 3.669636154174804688e+01 1.257142284885048866e-03 1.530063687823712826e-03 8.361617801710963249e-04 -7.848754758015275002e-04
6.070000000000000000e+02 2.883622932434082031e+01 3.707524490356445312e+01 6.041825981810688972e-04 -5.183460889384150505e-04 2.575096368673257530e-05 -3.599854535423219204e-04
6.080000000000000000e+02 3.033255004882812500e+01 3.682317352294921875e+01 1.378809334710240364e-03 -8.841287926770746708e-04 1.484041713410988450e-04 -6.860435823909938335e-04
6.090000000000000000e+02 2.647223281860351562e+01 3.666142654418945312e+01 1.769553637132048607e-04 -4.740521835628896952e-04 -8.912904741009697318e-05 -1.391448022332042456e-04
6.100000000000000000e+02 2.572040748596191406e+01 3.676027679443359375e+01 -8.029078344407025725e-06 4.912762087769806385e-04 1.449741394026204944e-04 -5.544463056139647961e-05
6.110000000000000000e+02 2.731099891662597656e+01 3.729562377929687500e+01 3.137061139568686485e-04 -3.270737652201205492e-04 -4.010289558209478855e-06 -4.423354694154113531e-04
6.120000000000000000e+02 2.722403526306152344e+01 3.656066131591796875e+01 3.034372348338365555e-04 5.490900366567075253e-04 2.557581756263971329e-04 -6.531477265525609255e-05
6.130000000000000000e+02 2.797564125061035156e+01 3.645804595947265625e+01 5.219227750785648823e-04 -4.470351850613951683e-04 2.246627627755515277e-05 -2.660561585798859596e-04
6.140000000000000000e+02 2.807846832275390625e+01 3.719087982177734375e+01 5.481613916344940662e-04 6.784604047425091267e-04 3.679865330923348665e-04 -3.952579281758517027e-04
6.150000000000000000e+02 2.577564430236816406e+01 3.749948883056640625e+01 2.106529864249750972e-04 -4.423916980158537626e-04 -6.952161493245512247e-05 -7.646626909263432026e-05
6.160000000000000000e+02 2.654333496093750000e+01 3.739851379394531250e+01 -4.893619006907101721e-06 6.455830880440771580e-04 1.922068331623449922e-04 -1.486675027990713716e-04
6.170000000000000000e+02 2.340743637084960938e+01 3.754123687744140625e+01 -5.650260209222324193e-05 2.769878483377397060e-04 6.614557787543162704e-05 -1.027373364195227623e-04
6.180000000000000000e+02 2.266618919372558594e+01 3.679620742797851562e+01 -1.077626584446989000e-04 1.697891711955890059e-04 1.860795237007550895e-05 -2.635251257743220776e-05
6.190000000000000000e+02 2.419788742065429688e+01 3.680555725097656250e+01 -1.018789771478623152e-04 2.887796727009117603e-04 5.607020648312754929e-05 -4.602079934556968510e-05
6.200000000000000000e+02 2.496211051940917969e+01 3.680892944335937500e+01 -3.968312739743851125e-05 -3.606406680773943663e-04 -1.200971382786519825e-04 1.932063241838477552e-06
6.210000000000000000e+02 2.499495697021484375e+01 3.754912567138671875e+01 -1.516424254077719525e-05 4.636330995708703995e-04 1.345406635664403439e-04 -2.079752157442271709e-04
6.220000000000000000e+02 2.261228370666503906e+01 3.753591537475585938e+01 -3.018689494638238102e-05 -1.714416284812614322e-04 -6.048855721019208431e-05 1.052507213898934424e-04
6.230000000000000000e+02 2.343242454528808594e+01 3.680136489868164062e+01 -1.007537066470831633e-04 -2.115403767675161362e-04 -9.368822793476283550e-05 3.037398164451587945e-05
6.240000000000000000e+02 2.420181655883789062e+01 3.754558944702148438e+01 -8.056110345933120698e-06 -3.015066613443195820e-04 -9.286883141612634063e-05 7.311163790291175246e-05
6.250000000000000000e+02 1.998039245605468750e+01 3.692026138305664062e+01 -1.057999452314106748e-05 -9.070351370610296726e-05 -3.038505383301526308e-05 -3.919269602192798629e-06
6.260000000000000000e+02 2.062745285034179688e+01 3.732268142700195312e+01 -2.294160185556393117e-05 8.033336052903905511e-05 1.721752596495207399e-05 -3.171012212987989187e-05
6.270000000000000000e+02 2.113145446777343750e+01 3.686664581298828125e+01 -1.149007657659240067e-04 1.102071928471559659e-05 -3.116401421721093357e-05 5.513808355317451060e-05
6.280000000000000000e+02 2.021580696105957031e+01 3.715901565551757812e+01 -1.450733107049018145e-04 -5.251095353742130101e-05 -5.927528036409057677e-05 4.793916741618886590e-05
6.290000000000000000e+02 2.186282539367675781e+01 3.673282623291015625e+01 -6.400648271664977074e-05 -9.302983380621299148e-05 -4.711089422926306725e-05 3.557627860573120415e-05
6.300000000000000000e+02 2.186202239990234375e+01 3.748466491699218750e+01 -5.454653000924736261e-05 1.567908620927482843e-04 3.067329816985875368e-05 -6.525340722873806953e-05
6.310000000000000000e+02 2.119230079650878906e+01 3.743341445922851562e+01 -1.150465050159255043e-05 -1.349464582744985819e-04 -4.393533527036197484e-05 1.121711829910054803e-04
6.320000000000000000e+02 2.068652153015136719e+01 3.649208450317382812e+01 4.613543205778114498e-05 9.772573685040697455e-05 4.315835030865855515e-05 -2.179233888455200940e-05
6.330000000000000000e+02 2.102560424804687500e+01 3.579481887817382812e+01 1.067369361408054829e-03 8.610056829638779163e-04 5.785124958492815495e-04 1.533208182081580162e-03
6.340000000000000000e+02 2.197462081909179688e+01 3.519912338256835938e+01 2.334710210561752319e-03 8.103820728138089180e-04 9.435276733711361885e-04 4.969352390617132187e-03
6.350000000000000000e+02 2.189435958862304688e+01 3.593660354614257812e+01 4.966394044458866119e-03 5.089815822429955006e-04 1.642612623982131481e-03 2.508183009922504425e-03
6.360000000000000000e+02 2.057264900207519531e+01 3.514139175415039062e+01 1.793798728613182902e-04 3.123695496469736099e-03 9.909226791933178902e-04 5.758904735557734966e-04
6.370000000000000000e+02 2.112965202331542969e+01 3.506163787841796875e+01 1.289948588237166405e-03 3.835988696664571762e-03 1.537781208753585815e-03 3.442392218858003616e-03
6.380000000000000000e+02 2.114828872680664062e+01 3.335766601562500000e+01 4.911136420560069382e-05 9.786100126802921295e-03 2.950563561171293259e-03 2.817247295752167702e-03
6.390000000000000000e+02 2.118703651428222656e+01 3.420569992065429688e+01 -1.076446846127510071e-03 5.326656159013509750e-03 1.275062793865799904e-03 3.814633470028638840e-03
6.400000000000000000e+02 2.468593978881835938e+01 3.346669006347656250e+01 -1.741942949593067169e-02 -1.174537558108568192e-02 -8.749442175030708313e-03 -8.022893220186233521e-03
6.410000000000000000e+02 2.698989105224609375e+01 3.426608657836914062e+01 -2.805570885539054871e-02 -3.929699305444955826e-03 -9.595622308552265167e-03 -1.432974636554718018e-02
6.420000000000000000e+02 2.100237274169921875e+01 2.538019180297851562e+01 -1.425406080670654774e-03 -1.019830182194709778e-01 -3.102252818644046783e-02 -2.063779346644878387e-02
6.430000000000000000e+02 2.591909217834472656e+01 1.708410644531250000e+01 -2.888489700853824615e-02 -4.818635284900665283e-01 -1.532245278358459473e-01 -3.167991042137145996e-01
6.440000000000000000e+02 3.296003723144531250e+01 1.223989009857177734e+01 -7.341864518821239471e-03 -4.038206040859222412e-01 -1.233487427234649658e-01 -5.746442675590515137e-01
6.450000000000000000e+02 4.921367645263671875e+01 -3.712089776992797852e+00 4.156704246997833252e-01 8.626809716224670410e-01 3.835054039955139160e-01 -9.956705570220947266e-02
6.460000000000000000e+02 6.099829483032226562e+01 -1.782473945617675781e+01 1.841837465763092041e-01 2.702465772628784180e+00 8.659948706626892090e-01 1.474130749702453613e-01
6.470000000000000000e+02 7.797367858886718750e+01 -3.049409294128417969e+01 5.671463441103696823e-03 4.823278427124023438e+00 1.448684930801391602e+00 1.369047909975051880e-02
6.480000000000000000e+02 7.933473968505859375e+01 -2.646321296691894531e+01 3.553904360160231590e-03 5.002604961395263672e+00 1.501847624778747559e+00 1.411260222084820271e-03
6.490000000000000000e+02 7.795705413818359375e+01 -2.367092895507812500e+01 -2.495687804184854031e-04 4.876112461090087891e+00 1.462758898735046387e+00 1.889674365520477295e-02
6.500000000000000000e+02 7.932031250000000000e+01 -2.228311920166015625e+01 -1.214657328091561794e-03 5.045663356781005859e+00 1.513334512710571289e+00 5.155177321285009384e-03
6.510000000000000000e+02 7.209468078613281250e+01 -1.093836784362792969e+01 7.924314588308334351e-02 4.329722404479980469e+00 1.322689652442932129e+00 2.330806851387023926e-01
6.520000000000000000e+02 6.642389678955078125e+01 -5.416742324829101562e+00 2.877158820629119873e-01 3.422445535659790039e+00 1.113048434257507324e+00 4.030368030071258545e-01
6.530000000000000000e+02 6.046569824218750000e+01 1.223484992980957031e+00 5.672954320907592773e-01 2.163695812225341797e+00 8.192973732948303223e-01 3.563736379146575928e-01
6.540000000000000000e+02 4.939320373535156250e+01 1.305939006805419922e+01 2.279123514890670776e-01 2.115973085165023804e-01 1.318528950214385986e-01 -5.386471748352050781e-01
6.550000000000000000e+02 4.404742813110351562e+01 2.105912780761718750e+01 -4.410814940929412842e-01 -2.557002007961273193e-04 -1.324011534452438354e-01 -6.947413682937622070e-01
6.560000000000000000e+02 3.836512374877929688e+01 2.869971466064453125e+01 -5.754247307777404785e-01 3.869183361530303955e-02 -1.610198616981506348e-01 -2.837752699851989746e-01
6.570000000000000000e+02 3.205337524414062500e+01 3.276029968261718750e+01 -1.860707104206085205e-01 1.045994553714990616e-02 -5.268323048949241638e-02 -6.344734877347946167e-02
6.580000000000000000e+02 2.988408279418945312e+01 3.385538101196289062e+01 -8.620785176753997803e-02 3.229185938835144043e-03 -2.489359863102436066e-02 -3.003818355500698090e-02
6.590000000000000000e+02 1.651248931884765625e+01 -3.860784530639648438e+01 1.390938460826873779e-01 -2.733349055051803589e-02 3.352810442447662354e-02 -2.027518451213836670e-01
6.600000000000000000e+02 1.892655372619628906e+01 -3.768011474609375000e+01 -2.524683475494384766e-01 -1.924605846405029297e+00 -6.531222462654113770e-01 -5.544266104698181152e-01
6.610000000000000000e+02 1.499004650115966797e+01 -4.032240676879882812e+01 -1.394851356744766235e-01 -1.550702601671218872e-01 -8.836662024259567261e-02 3.651994466781616211e-02
6.620000000000000000e+02 1.454167079925537109e+01 -3.640193557739257812e+01 -7.767410483211278915e-03 1.505084335803985596e-02 2.185029676184058189e-03 -7.035458832979202271e-02
6.630000000000000000e+02 1.531691837310791016e+01 -3.754610443115234375e+01 2.621777355670928955e-01 6.764359772205352783e-02 9.894639998674392700e-02 -1.420367322862148285e-02
6.640000000000000000e+02 1.204915428161621094e+01 -3.189843750000000000e+01 5.878273397684097290e-03 8.071791380643844604e-03 4.185019526630640030e-03 -9.272052906453609467e-03
6.650000000000000000e+02 6.512158513069152832e-01 -2.481073760986328125e+01 -2.374970819801092148e-03 -9.024935425259172916e-04 -9.832392679527401924e-04 -5.016430077375844121e-05
6.660000000000000000e+02 6.897953152656555176e-01 -3.045237731933593750e+01 -1.641888287849724293e-03 3.404825692996382713e-04 -3.904217155650258064e-04 7.689341437071561813e-04
6.670000000000000000e+02 7.026513814926147461e-01 -3.186096763610839844e+01 2.030620118603110313e-03 2.316875150427222252e-03 1.304248580709099770e-03 1.116268336772918701e-03
6.680000000000000000e+02 7.324780821800231934e-01 -3.741337966918945312e+01 5.365707445889711380e-03 1.476054545491933823e-02 6.037876009941101074e-03 2.938115969300270081e-03
6.690000000000000000e+02 8.547444343566894531e+00 -3.905091476440429688e+01 -1.443800143897533417e-02 -2.256657462567090988e-03 -5.008397623896598816e-03 2.812058106064796448e-02
6.700000000000000000e+02 1.201425170898437500e+01 -4.134560775756835938e+01 -8.228138834238052368e-02 -1.288149226456880569e-02 -2.854886464774608612e-02 1.947493478655815125e-02
6.710000000000000000e+02 2.107028961181640625e+01 -3.506402587890625000e+01 -2.328637391328811646e-01 -2.042839050292968750e+00 -6.827108860015869141e-01 -1.792021840810775757e-01
6.720000000000000000e+02 1.969810485839843750e+01 -2.801847267150878906e+01 1.882952405139803886e-03 -2.245501756668090820e+00 -6.730856299400329590e-01 -2.233393490314483643e-02
6.730000000000000000e+02 2.311790657043457031e+01 -3.342912292480468750e+01 -1.253958940505981445e-01 -1.734849691390991211e+00 -5.580736994743347168e-01 -9.236834943294525146e-02
6.740000000000000000e+02 1.955438423156738281e+01 -3.499010848999023438e+01 -1.350510120391845703e-01 -2.753912210464477539e+00 -8.666889667510986328e-01 -2.963315546512603760e-01
6.750000000000000000e+02 1.929445838928222656e+01 -3.637022018432617188e+01 -2.585438787937164307e-01 -2.548700332641601562e+00 -8.421732783317565918e-01 -5.180500149726867676e-01
6.760000000000000000e+02 1.977061843872070312e+01 -2.381539726257324219e+01 1.467771083116531372e-02 -2.097689390182495117e+00 -6.249035000801086426e-01 -5.596116185188293457e-02
6.770000000000000000e+02 1.981709861755371094e+01 -2.096710205078125000e+01 -1.265606191009283066e-02 -2.121092796325683594e+00 -6.401246786117553711e-01 -6.825483590364456177e-02
6.780000000000000000e+02 2.148660469055175781e+01 -2.392315864562988281e+01 3.140759095549583435e-02 -1.974955439567565918e+00 -5.830643773078918457e-01 -7.061446458101272583e-02
6.790000000000000000e+02 2.063271903991699219e+01 -1.314509391784667969e+00 -1.534820441156625748e-02 -1.761893987655639648e+00 -5.331726670265197754e-01 -1.043361127376556396e-01
6.800000000000000000e+02 2.035769081115722656e+01 -6.903637409210205078e+00 8.632189594209194183e-03 -1.869131684303283691e+00 -5.581498742103576660e-01 -5.934390425682067871e-02
6.810000000000000000e+02 2.162705612182617188e+01 -1.108428859710693359e+01 -1.250701770186424255e-02 -1.926237106323242188e+00 -5.816231966018676758e-01 -1.099227815866470337e-01
6.820000000000000000e+02 3.821348953247070312e+01 -2.855919456481933594e+01 8.469215780496597290e-02 7.210961077362298965e-03 2.757093682885169983e-02 -3.162040561437606812e-02
6.830000000000000000e+02 4.315720748901367188e+01 -3.723191833496093750e+01 1.010450199246406555e-01 5.917308330535888672e-01 2.078327536582946777e-01 -7.233114913105964661e-03
6.840000000000000000e+02 5.239654922485351562e+01 -4.089605712890625000e+01 8.497659862041473389e-02 1.717009425163269043e+00 5.405958294868469238e-01 6.224540993571281433e-03
6.850000000000000000e+02 4.754499053955078125e+01 -4.086843490600585938e+01 9.783592820167541504e-02 1.126158595085144043e+00 3.671983480453491211e-01 1.933826832100749016e-03
6.860000000000000000e+02 6.208841323852539062e+01 -4.057656478881835938e+01 5.618114024400711060e-02 2.918393373489379883e+00 8.923723101615905762e-01 8.407569490373134613e-03
6.870000000000000000e+02 5.722751235961914062e+01 -4.082586669921875000e+01 7.260177284479141235e-02 2.297584056854248047e+00 7.110557556152343750e-01 2.082064514979720116e-03
6.880000000000000000e+02 5.843990325927734375e+01 -3.027223014831542969e+01 9.182760119438171387e-02 2.431164264678955078e+00 7.568975687026977539e-01 5.853554978966712952e-02
6.890000000000000000e+02 5.561887741088867188e+01 -2.409409141540527344e+01 1.478793919086456299e-01 2.029070615768432617e+00 6.530849933624267578e-01 6.618922948837280273e-02
6.900000000000000000e+02 5.665378952026367188e+01 -1.472889900207519531e+01 2.535049021244049072e-01 2.085577249526977539e+00 7.017245888710021973e-01 1.191031858325004578e-01
6.910000000000000000e+02 5.961067962646484375e+01 -1.023247528076171875e+01 3.075855076313018799e-01 2.417592048645019531e+00 8.175532221794128418e-01 2.083993703126907349e-01
6.920000000000000000e+02 4.798808670043945312e+01 -8.300582885742187500e+00 3.434393703937530518e-01 8.567991852760314941e-01 3.600715696811676025e-01 -8.969721943140029907e-02
6.930000000000000000e+02 5.007894515991210938e+01 -1.346325039863586426e+00 4.604988396167755127e-01 8.768559694290161133e-01 4.012064337730407715e-01 -1.123106181621551514e-01
6.940000000000000000e+02 3.879494857788085938e+01 -1.672148585319519043e+00 2.203198075294494629e-01 -1.363691687583923340e-01 2.518519200384616852e-02 -3.741607666015625000e-01
6.950000000000000000e+02 3.398534011840820312e+01 -2.680151462554931641e+00 1.336438506841659546e-01 -5.140888690948486328e-01 -1.141335144639015198e-01 -3.616597354412078857e-01
6.960000000000000000e+02 2.723837280273437500e+01 -2.534377813339233398e+00 3.492227196693420410e-02 -1.111905574798583984e+00 -3.230949640274047852e-01 -2.824219167232513428e-01
6.970000000000000000e+02 2.056408691406250000e+01 -2.716274023056030273e+00 -2.685654535889625549e-02 -1.832181334495544434e+00 -5.577113628387451172e-01 -1.366124749183654785e-01
6.980000000000000000e+02 2.032778739929199219e+01 -9.712231636047363281e+00 -2.348833344876766205e-02 -2.094666957855224609e+00 -6.354465484619140625e-01 -7.494139671325683594e-02
6.990000000000000000e+02 1.995926094055175781e+01 -1.674654197692871094e+01 2.756995847448706627e-03 -2.051080942153930664e+00 -6.144971847534179688e-01 -1.719401627779006958e-01
7.000000000000000000e+02 2.140574645996093750e+01 -1.673690414428710938e+01 1.633225940167903900e-02 -1.950494050979614258e+00 -5.802485346794128418e-01 -1.097161471843719482e-01
7.010000000000000000e+02 3.061064910888671875e+01 -3.127965927124023438e+01 1.519011612981557846e-02 -8.536300063133239746e-01 -2.515319585800170898e-01 -2.491142787039279938e-02
7.020000000000000000e+02 3.765898132324218750e+01 -4.052216339111328125e+01 9.666160494089126587e-02 -8.413525670766830444e-02 3.757904283702373505e-03 4.071718081831932068e-03
7.030000000000000000e+02 4.266081237792968750e+01 -4.075416564941406250e+01 9.501767903566360474e-02 5.472393631935119629e-01 1.926771104335784912e-01 -3.539341036230325699e-03
7.040000000000000000e+02 1.333478260040283203e+01 -3.568113708496093750e+01 3.091701678931713104e-02 2.507703006267547607e-02 1.679821312427520752e-02 6.896925624459981918e-03
7.050000000000000000e+02 1.368369579315185547e+01 -3.429599380493164062e+01 2.860413119196891785e-02 1.826444081962108612e-02 1.406057178974151611e-02 -1.968703046441078186e-02
7.060000000000000000e+02 1.388756752014160156e+01 -3.285230636596679688e+01 -1.303228270262479782e-02 2.887666632886976004e-04 -3.823054721578955650e-03 3.597888862714171410e-03
7.070000000000000000e+02 1.355447959899902344e+01 -2.739708709716796875e+01 5.502056796103715897e-03 1.705007860437035561e-03 2.162119373679161072e-03 -1.768694375641644001e-03
7.080000000000000000e+02 1.882820010185241699e+00 -1.780265426635742188e+01 -2.240450587123632431e-03 -2.086052263621240854e-04 -7.347167702391743660e-04 -2.071467133646365255e-05
7.090000000000000000e+02 6.497141718864440918e-01 -2.340357017517089844e+01 2.366490429267287254e-03 -6.352963391691446304e-04 5.193582037463784218e-04 -1.350609090877696872e-04
7.100000000000000000e+02 1.441982746124267578e+01 -3.021634292602539062e+01 -1.067773811519145966e-02 -3.543147584423422813e-03 -4.266265779733657837e-03 3.597815986722707748e-03
7.110000000000000000e+02 1.312543869018554688e+01 -2.969413757324218750e+01 6.639558821916580200e-03 3.950315527617931366e-03 3.176962258294224739e-03 -4.549760837107896805e-03
7.120000000000000000e+02 1.423982048034667969e+01 -2.204109001159667969e+01 -4.074263852089643478e-03 -3.095810825470834970e-05 -1.231566537171602249e-03 3.138137399218976498e-04
7.130000000000000000e+02 1.453070926666259766e+01 -1.349407863616943359e+01 -2.005083952099084854e-03 -5.228741792961955070e-05 -6.172113935463130474e-04 2.244262868771329522e-04
7.140000000000000000e+02 1.460857009887695312e+01 -6.574823856353759766e+00 9.192851139232516289e-04 1.484971016907365993e-05 2.802404342219233513e-04 -2.019007115450222045e-05
7.150000000000000000e+02 1.459539031982421875e+01 -3.875304937362670898e+00 4.516475310083478689e-04 2.268988828291185200e-05 1.423012290615588427e-04 2.595717160147614777e-05
7.160000000000000000e+02 1.442107009887695312e+01 -2.849148988723754883e+00 -2.299682964803650975e-04 1.338711881544440985e-04 -2.882913395296782255e-05 -2.253990242024883628e-04
7.170000000000000000e+02 1.030261039733886719e+01 -2.660351753234863281e+00 -3.966325602959841490e-04 -1.852470450103282928e-04 -1.745638728607445955e-04 1.032207001117058098e-04
7.180000000000000000e+02 1.354557323455810547e+01 -1.067785263061523438e+01 1.517929485999047756e-03 6.969231617404147983e-05 4.762865428347140551e-04 -3.474756958894431591e-04
7.190000000000000000e+02 1.281407165527343750e+01 -1.877834701538085938e+01 2.801698399707674980e-03 2.479268878232687712e-04 9.148876415565609932e-04 -1.002771547064185143e-03
7.200000000000000000e+02 1.345217132568359375e+01 -2.499654388427734375e+01 4.450244363397359848e-03 2.368542482145130634e-05 1.342179020866751671e-03 -3.138428146485239267e-04
7.210000000000000000e+02 1.459905338287353516e+01 -2.620610046386718750e+01 7.666922640055418015e-03 -9.721223614178597927e-04 2.008439972996711731e-03 -5.431883619166910648e-04
7.220000000000000000e+02 1.108360671997070312e+01 -1.895371675491333008e+00 -3.579409967642277479e-04 -1.397182495566084981e-04 -1.492977753514423966e-04 3.766579902730882168e-05
7.230000000000000000e+02 4.265020847320556641e+00 -1.881264209747314453e+00 2.208501973655074835e-04 -2.237889275420457125e-04 -8.816183481030748226e-07 -9.032246452989056706e-05
7.240000000000000000e+02 1.749543428421020508e+00 -1.072990417480468750e+01 1.525261672213673592e-03 5.552202492253854871e-05 4.742351011373102665e-04 -8.126181637635454535e-05
7.250000000000000000e+02 6.286343336105346680e-01 -1.777145767211914062e+01 2.035918645560741425e-03 -9.965137724066153169e-05 5.808801506645977497e-04 -7.910525891929864883e-05
7.260000000000000000e+02 2.406393289566040039e+00 -3.817955780029296875e+01 3.346501383930444717e-03 1.433930639177560806e-02 5.305742379277944565e-03 7.361656986176967621e-03
7.270000000000000000e+02 2.074633216857910156e+01 -3.631559371948242188e+01 -2.523640692234039307e-01 -1.974524259567260742e+00 -6.680665016174316406e-01 -1.298998296260833740e-01
7.280000000000000000e+02 2.459878349304199219e+01 -3.884372711181640625e+01 1.106125861406326294e-01 -1.532947659492492676e+00 -4.267005026340484619e-01 7.076159864664077759e-02
7.290000000000000000e+02 2.797989082336425781e+01 -3.839707183837890625e+01 1.221882998943328857e-01 -1.149395465850830078e+00 -3.081621527671813965e-01 5.617335811257362366e-02
7.300000000000000000e+02 1.968684387207031250e+01 -3.080170631408691406e+01 -8.259013295173645020e-03 -2.347547292709350586e+00 -7.067419290542602539e-01 -3.653897345066070557e-02
7.310000000000000000e+02 6.071307754516601562e+01 -3.684313201904296875e+01 5.914337560534477234e-02 2.755407333374023438e+00 8.443652391433715820e-01 2.177930437028408051e-02
7.320000000000000000e+02 6.675202941894531250e+01 -3.081316947937011719e+01 4.399084672331809998e-02 3.501715898513793945e+00 1.063712000846862793e+00 5.869360268115997314e-02
7.330000000000000000e+02 6.324295425415039062e+01 -2.424286460876464844e+01 9.772403538227081299e-02 3.022207975387573242e+00 9.359796047210693359e-01 9.443885833024978638e-02
7.340000000000000000e+02 6.417768096923828125e+01 -1.558088874816894531e+01 1.703139543533325195e-01 3.122209072113037109e+00 9.877568483352661133e-01 1.973474919795989990e-01
7.350000000000000000e+02 6.702323150634765625e+01 -4.060573577880859375e+01 3.116064891219139099e-02 3.491928577423095703e+00 1.056926727294921875e+00 1.209971588104963303e-02
7.360000000000000000e+02 7.070478820800781250e+01 -3.761623382568359375e+01 1.391300652176141739e-02 3.959475994110107422e+00 1.192016720771789551e+00 8.384441025555133820e-03
7.370000000000000000e+02 7.178247833251953125e+01 -3.200030517578125000e+01 1.514079421758651733e-02 4.047410011291503906e+00 1.218765258789062500e+00 2.927947975695133209e-02
7.380000000000000000e+02 7.792926025390625000e+01 -4.161011505126953125e+01 4.126533120870590210e-02 4.794001579284667969e+00 1.450580120086669922e+00 1.156107522547245026e-02
7.390000000000000000e+02 7.787654113769531250e+01 -3.675971984863281250e+01 -2.871066797524690628e-03 4.782039165496826172e+00 1.433750391006469727e+00 2.464356087148189545e-02
7.400000000000000000e+02 7.935244750976562500e+01 -3.335206985473632812e+01 3.015936119481921196e-03 4.962227821350097656e+00 1.489573240280151367e+00 3.329538973048329353e-03
7.410000000000000000e+02 7.792511749267578125e+01 -1.667417716979980469e+01 4.509860649704933167e-03 4.984928131103515625e+00 1.496831417083740234e+00 4.323007538914680481e-02
7.420000000000000000e+02 7.929705810546875000e+01 -1.250872421264648438e+01 2.077230717986822128e-03 5.256981849670410156e+00 1.577717781066894531e+00 1.676242798566818237e-02
7.430000000000000000e+02 7.310090637207031250e+01 -5.199836730957031250e+00 1.024772375822067261e-01 4.641720771789550781e+00 1.423259377479553223e+00 3.302774727344512939e-01
7.440000000000000000e+02 6.491034698486328125e+01 3.091849565505981445e+00 5.443711876869201660e-01 2.947952985763549805e+00 1.047697186470031738e+00 6.090348958969116211e-01
7.450000000000000000e+02 5.902256011962890625e+01 1.168125438690185547e+01 6.689738631248474121e-01 1.116420149803161621e+00 5.356182456016540527e-01 1.534359753131866455e-01
7.460000000000000000e+02 5.248540878295898438e+01 2.102959060668945312e+01 -5.117687582969665527e-01 5.166213214397430420e-02 -1.380319744348526001e-01 -6.565977334976196289e-01
7.470000000000000000e+02 4.508873748779296875e+01 2.813091087341308594e+01 -1.071411490440368652e+00 5.299559980630874634e-02 -3.055247664451599121e-01 -3.370611667633056641e-01
7.480000000000000000e+02 3.719787597656250000e+01 3.246482467651367188e+01 -4.435458183288574219e-01 2.185035496950149536e-02 -1.265086382627487183e-01 -4.774161800742149353e-02
7.490000000000000000e+02 3.572599411010742188e+01 3.275448989868164062e+01 -3.463401794433593750e-01 1.930901594460010529e-02 -9.810934960842132568e-02 -4.818728566169738770e-02
7.500000000000000000e+02 3.279671859741210938e+01 3.333214950561523438e+01 -1.903556287288665771e-01 1.220249943435192108e-02 -5.344593897461891174e-02 -4.208968952298164368e-02
7.510000000000000000e+02 7.796983337402343750e+01 -9.626443862915039062e+00 6.541168782860040665e-03 5.195244312286376953e+00 1.560535550117492676e+00 7.525265961885452271e-02
7.520000000000000000e+02 7.935057067871093750e+01 -5.542210578918457031e+00 1.725217676721513271e-03 5.566362380981445312e+00 1.670426249504089355e+00 3.171877935528755188e-02
7.530000000000000000e+02 7.266899871826171875e+01 1.603125691413879395e+00 1.938313245773315430e-01 4.797410011291503906e+00 1.497372388839721680e+00 5.775240063667297363e-01
7.540000000000000000e+02 6.630593872070312500e+01 8.444969177246093750e+00 6.701548695564270020e-01 3.023285865783691406e+00 1.108032226562500000e+00 8.469479680061340332e-01
7.550000000000000000e+02 5.741386795043945312e+01 2.207579994201660156e+01 -6.184130311012268066e-01 8.152347058057785034e-02 -1.610668599605560303e-01 -5.098338723182678223e-01
7.560000000000000000e+02 5.210884475708007812e+01 2.850559043884277344e+01 -1.898333072662353516e+00 1.087953522801399231e-02 -5.662360787391662598e-01 -2.684728205204010010e-01
7.570000000000000000e+02 4.156344604492187500e+01 3.092979621887207031e+01 -8.207293152809143066e-01 3.821021690964698792e-02 -2.347557395696640015e-01 -1.038275286555290222e-01
7.580000000000000000e+02 4.161691284179687500e+01 3.161018562316894531e+01 -8.162371516227722168e-01 2.636748179793357849e-02 -2.369608879089355469e-01 -4.004904255270957947e-02
7.590000000000000000e+02 3.940838623046875000e+01 3.204598236083984375e+01 -6.137799620628356934e-01 2.596022561192512512e-02 -1.763459295034408569e-01 -4.306713864207267761e-02
7.600000000000000000e+02 7.805839538574218750e+01 -2.735441923141479492e+00 1.198663096874952316e-02 5.573534965515136719e+00 1.675656437873840332e+00 1.352575868368148804e-01
7.610000000000000000e+02 7.935933685302734375e+01 2.782947301864624023e+00 3.294344060122966766e-03 6.291437149047851562e+00 1.888419389724731445e+00 6.794706732034683228e-02
7.620000000000000000e+02 7.346917724609375000e+01 9.555723190307617188e+00 3.063404262065887451e-01 5.440631866455078125e+00 1.724091768264770508e+00 9.955599308013916016e-01
7.630000000000000000e+02 6.322318267822265625e+01 2.052342224121093750e+01 1.360439360141754150e-01 6.625326275825500488e-01 2.395729720592498779e-01 1.573196798563003540e-01
7.640000000000000000e+02 5.743809127807617188e+01 2.868047714233398438e+01 -2.704288721084594727e+00 -2.720699273049831390e-02 -8.194487094879150391e-01 -2.449325472116470337e-01
7.650000000000000000e+02 5.134959030151367188e+01 2.999123954772949219e+01 -2.039311885833740234e+00 3.716499777510762215e-03 -6.106786131858825684e-01 -5.237696319818496704e-02
7.660000000000000000e+02 4.908229064941406250e+01 3.029714775085449219e+01 -1.714812755584716797e+00 9.586840867996215820e-03 -5.115677714347839355e-01 -4.101634770631790161e-02
7.670000000000000000e+02 4.757694625854492188e+01 3.053454017639160156e+01 -1.510632991790771484e+00 1.573306880891323090e-02 -4.484699666500091553e-01 -3.755037486553192139e-02
7.680000000000000000e+02 4.533012008666992188e+01 3.091625595092773438e+01 -1.225264906883239746e+00 2.280162647366523743e-02 -3.607389926910400391e-01 -3.328689560294151306e-02
7.690000000000000000e+02 7.810009765625000000e+01 4.162714958190917969e+00 2.109075896441936493e-02 6.229186058044433594e+00 1.875083088874816895e+00 2.418434917926788330e-01
7.700000000000000000e+02 7.938653564453125000e+01 8.353094100952148438e+00 5.847761873155832291e-03 7.174640655517578125e+00 2.154146432876586914e+00 1.098903119564056396e-01
7.710000000000000000e+02 7.349781036376953125e+01 1.823980140686035156e+01 4.640483558177947998e-01 5.928101062774658203e+00 1.917644858360290527e+00 1.742559671401977539e+00
7.720000000000000000e+02 6.278160095214843750e+01 2.838777351379394531e+01 -3.242761373519897461e+00 -5.028143152594566345e-02 -9.879128336906433105e-01 -3.253629505634307861e-01
7.730000000000000000e+02 5.741016769409179688e+01 2.937411689758300781e+01 -2.953554153442382812e+00 -2.425832860171794891e-02 -8.933437466621398926e-01 -1.327273696660995483e-01
7.740000000000000000e+02 5.665108489990234375e+01 2.943658256530761719e+01 -2.840564250946044922e+00 -2.014634758234024048e-02 -8.582131862640380859e-01 -1.185097023844718933e-01
7.750000000000000000e+02 5.361769485473632812e+01 2.972594642639160156e+01 -2.378211736679077148e+00 -6.359046325087547302e-03 -7.153712511062622070e-01 -7.578033208847045898e-02
7.760000000000000000e+02 7.817736053466796875e+01 1.111306858062744141e+01 4.001915827393531799e-02 7.421118259429931641e+00 2.238341093063354492e+00 4.391608834266662598e-01
7.770000000000000000e+02 7.939635467529296875e+01 1.671408843994140625e+01 1.331552490592002869e-02 9.736451148986816406e+00 2.924930095672607422e+00 2.383138984441757202e-01
7.780000000000000000e+02 6.945387268066406250e+01 2.845000457763671875e+01 -3.040349483489990234e+00 1.714040040969848633e-01 -8.606836199760437012e-01 3.657199814915657043e-02
7.790000000000000000e+02 6.196750259399414062e+01 2.911727714538574219e+01 -3.606658220291137695e+00 -3.953252732753753662e-02 -1.093857288360595703e+00 -2.276966720819473267e-01
7.800000000000000000e+02 6.049048233032226562e+01 2.848138046264648438e+01 -3.042818784713745117e+00 -4.133042693138122559e-02 -9.252448081970214844e-01 -2.970457673072814941e-01
7.810000000000000000e+02 5.968795776367187500e+01 2.922633934020996094e+01 -3.291406631469726562e+00 -3.036574274301528931e-02 -9.965317249298095703e-01 -1.779293566942214966e-01
7.820000000000000000e+02 7.821446228027343750e+01 1.809645271301269531e+01 5.351904407143592834e-02 9.544855117797851562e+00 2.879512310028076172e+00 7.857031226158142090e-01
7.830000000000000000e+02 7.947747039794921875e+01 2.370067787170410156e+01 -6.016798317432403564e-02 1.346423625946044922e+01 4.021220684051513672e+00 1.760476380586624146e-01
7.840000000000000000e+02 6.874437713623046875e+01 2.842597007751464844e+01 -3.183894395828247070e+00 7.265505194664001465e-02 -9.333717823028564453e-01 -9.867467731237411499e-02
7.850000000000000000e+02 7.015223693847656250e+01 2.907168769836425781e+01 -3.711233615875244141e+00 1.272630095481872559e-01 -1.075191259384155273e+00 -1.240891870111227036e-03
7.860000000000000000e+02 6.650163269042968750e+01 2.903529167175292969e+01 -4.050135612487792969e+00 -3.720126301050186157e-02 -1.226201057434082031e+00 -2.829156517982482910e-01
7.870000000000000000e+02 7.952307128906250000e+01 2.509730339050292969e+01 -5.310767143964767456e-02 1.392943763732910156e+01 4.162899017333984375e+00 1.962593384087085724e-02
7.880000000000000000e+02 7.835359954833984375e+01 2.231823348999023438e+01 -7.392680644989013672e-02 1.147775459289550781e+01 3.421148300170898438e+00 8.425706028938293457e-01
7.890000000000000000e+02 7.194944763183593750e+01 2.911949729919433594e+01 -2.894657373428344727e+00 5.154148936271667480e-01 -7.137727141380310059e-01 6.020125150680541992e-01
7.900000000000000000e+02 7.077421569824218750e+01 3.265655517578125000e+01 -2.228890895843505859e+00 1.748080849647521973e-01 -6.162248253822326660e-01 2.865000367164611816e-01
7.910000000000000000e+02 7.292182159423828125e+01 3.259312438964843750e+01 -1.298648357391357422e+00 9.668338894844055176e-01 -9.954431653022766113e-02 -1.105138421058654785e+00
7.920000000000000000e+02 7.772441864013671875e+01 3.861041259765625000e+01 -3.779748380184173584e-01 1.240737247467041016e+01 3.608819484710693359e+00 -1.029539346694946289e+00
7.930000000000000000e+02 7.930379486083984375e+01 3.757078170776367188e+01 -7.946262508630752563e-02 1.409296703338623047e+01 4.204051494598388672e+00 -2.044283151626586914e-01
7.940000000000000000e+02 7.475939941406250000e+01 3.897944259643554688e+01 5.629472732543945312e-01 7.590947628021240234e+00 2.446168422698974609e+00 -6.439363956451416016e-01
7.950000000000000000e+02 6.438132476806640625e+01 3.668228912353515625e+01 2.942581176757812500e-01 -2.122340202331542969e-01 2.460722997784614563e-02 6.755833029747009277e-01
7.960000000000000000e+02 5.341824722290039062e+01 3.803348922729492188e+01 4.590657725930213928e-02 -1.959306150674819946e-01 -4.500721395015716553e-02 1.793787926435470581e-01
7.970000000000000000e+02 4.548147583007812500e+01 3.582078170776367188e+01 -1.080454606562852859e-02 -2.369641698896884918e-02 -1.035028882324695587e-02 2.241176739335060120e-02
7.980000000000000000e+02 4.448795700073242188e+01 3.499617767333984375e+01 -6.539356894791126251e-03 -1.106845960021018982e-02 -5.282344762235879898e-03 1.125550083816051483e-02
7.990000000000000000e+02 4.665912246704101562e+01 3.453257369995117188e+01 -2.094417251646518707e-02 -1.119108777493238449e-02 -9.640578180551528931e-03 2.704930491745471954e-02
8.000000000000000000e+02 4.878742599487304688e+01 3.533617019653320312e+01 -3.777357935905456543e-02 -4.231695458292961121e-02 -2.402716130018234253e-02 6.952679902315139771e-02
8.010000000000000000e+02 4.237591934204101562e+01 3.599607467651367188e+01 -1.427448587492108345e-03 -6.650752387940883636e-03 -2.423460362479090691e-03 5.342896096408367157e-03
8.020000000000000000e+02 4.166627502441406250e+01 3.602708435058593750e+01 1.234166207723319530e-03 -2.613787306472659111e-03 -4.138863587286323309e-04 3.390971105545759201e-03
8.030000000000000000e+02 3.892482376098632812e+01 3.783402633666992188e+01 -1.750095514580607414e-03 2.115304087055847049e-04 -4.615695215761661530e-04 -4.028351046144962311e-03
8.040000000000000000e+02 3.728771591186523438e+01 3.794495773315429688e+01 -1.495642500231042504e-04 2.090118825435638428e-03 5.821663653478026390e-04 -1.848645857535302639e-03
8.050000000000000000e+02 3.557544708251953125e+01 3.691083908081054688e+01 2.520204056054353714e-03 -1.815545547287911177e-04 7.015948649495840073e-04 -2.716781338676810265e-03
8.060000000000000000e+02 3.165812492370605469e+01 3.829711532592773438e+01 1.687489420874044299e-04 1.470684539526700974e-03 4.918300546705722809e-04 -1.750352676026523113e-03
8.070000000000000000e+02 3.221581268310546875e+01 3.776319885253906250e+01 7.149745943024754524e-04 1.167712383903563023e-03 5.648061051033437252e-04 -1.745776273310184479e-03
8.080000000000000000e+02 3.006565666198730469e+01 3.789852905273437500e+01 7.036587921902537346e-04 5.419294211606029421e-06 2.127234329236671329e-04 -8.818511269055306911e-04
8.090000000000000000e+02 2.674644088745117188e+01 3.815588760375976562e+01 2.755779132712632418e-04 -5.683599738404154778e-05 6.562257476616650820e-05 -5.037536611780524254e-04
8.100000000000000000e+02 2.243625450134277344e+01 3.843305969238281250e+01 9.835925084189511836e-06 1.174444769276306033e-04 3.818412005784921348e-05 -8.803096716292202473e-05
8.110000000000000000e+02 2.207417106628417969e+01 3.941922760009765625e+01 -1.504745705460663885e-05 -3.253206887166015804e-05 -1.427385814167791978e-05 1.053914456861093640e-04
8.120000000000000000e+02 1.943277359008789062e+01 3.769661712646484375e+01 -8.354985038749873638e-05 -1.322298921877518296e-04 -6.473392568295821548e-05 1.131988756242208183e-04
8.130000000000000000e+02 1.981410861015319824e+00 2.627036476135253906e+01 2.888087146857287735e-05 1.102222654481010977e-06 8.994928066385909915e-06 1.644791609578533098e-06
8.140000000000000000e+02 1.952263236045837402e+00 3.044158172607421875e+01 -3.238534191041253507e-05 1.470540041736967396e-06 -9.274440344597678632e-06 -6.605839644180377945e-06
8.150000000000000000e+02 4.293279647827148438e+00 3.779187393188476562e+01 -8.080817679001484066e-06 6.748270152456825599e-06 -3.997641897512949072e-07 1.052048901328817010e-05
8.160000000000000000e+02 1.995587587356567383e+00 4.163658523559570312e+01 2.261323606944642961e-05 -4.131150490138679743e-06 5.544625309994444251e-06 7.064928468025755137e-06
8.170000000000000000e+02 1.383200550079345703e+01 3.809186935424804688e+01 1.010241176118142903e-04 1.251386265721521340e-06 3.068265141337178648e-05 -2.626586683618370444e-05
8.180000000000000000e+02 1.298496723175048828e+01 3.399901962280273438e+01 -3.672357706818729639e-05 -3.550847759470343590e-05 -2.166961712646298110e-05 1.459385475754970685e-05
8.190000000000000000e+02 1.464716911315917969e+01 2.294679450988769531e+01 4.779079245054163039e-05 7.268191666298662312e-07 1.455528308724751696e-05 -1.638472781451127958e-06
8.200000000000000000e+02 1.442262458801269531e+01 1.742032432556152344e+01 3.249058499932289124e-05 -1.102059059121529572e-06 9.416557986696716398e-06 -1.098118900699773803e-06
8.210000000000000000e+02 1.455221748352050781e+01 1.043838787078857422e+01 -1.914943823067005724e-05 -3.085994535467762034e-07 -5.837411208631237969e-06 -3.410034139506024076e-07
8.220000000000000000e+02 1.368367004394531250e+01 1.815989017486572266e+00 -2.208515525126131251e-06 -8.968668794295808766e-07 -9.316147497884230688e-07 -2.242790969830821268e-06
8.230000000000000000e+02 1.317661285400390625e+01 1.762938618659973145e+00 8.910130873118760064e-07 2.605305553515790962e-06 1.048895569510932546e-06 1.366154947390896268e-06
8.240000000000000000e+02 6.611577272415161133e-01 3.466571807861328125e+01 -2.844792652467731386e-05 -2.518334213164052926e-06 -9.289878107665572315e-06 4.686679403675952926e-06
8.250000000000000000e+02 6.503916978836059570e-01 2.765617370605468750e+01 2.858997504517901689e-05 -6.281247522110788850e-08 8.558148692827671766e-06 4.761114951179479249e-07
8.260000000000000000e+02 6.134943366050720215e-01 2.058362579345703125e+01 -2.519692316127475351e-05 1.045385786824226670e-07 -7.527715752075891942e-06 -3.023079955255525419e-07
8.270000000000000000e+02 1.889200448989868164e+00 1.633560180664062500e+01 -2.251999649161007255e-05 -3.708464646479114890e-07 -6.867252977826865390e-06 -8.892623526435272652e-08
8.280000000000000000e+02 1.222777557373046875e+01 1.167908477783203125e+01 1.508023706264793873e-05 4.325357167545007542e-06 5.821678314532618970e-06 7.047394774417625740e-06
8.290000000000000000e+02 1.288841724395751953e+01 1.611785316467285156e+01 3.122950147371739149e-05 -1.870364826572767925e-06 8.807741323835216463e-06 8.189896334442892112e-07
8.300000000000000000e+02 1.195801734924316406e+01 1.911915206909179688e+01 -3.377461689524352551e-05 1.819761678234499414e-06 -9.586456144461408257e-06 1.259931991626217496e-06
8.310000000000000000e+02 1.357517719268798828e+01 2.436841201782226562e+01 4.589271702570840716e-05 2.891857775466633029e-06 1.463537228119093925e-05 5.488928991326247342e-07
8.320000000000000000e+02 1.367364501953125000e+01 2.568496894836425781e+01 -4.804849231732077897e-05 -4.721882305602775887e-06 -1.583111225045286119e-05 -3.759138508030446246e-06
8.330000000000000000e+02 1.242412662506103516e+01 2.929966163635253906e+01 -3.484456465230323374e-05 -1.100999179470818490e-05 -1.375636747980024666e-05 -1.632875319046434015e-05
8.340000000000000000e+02 6.279568672180175781e-01 1.492023372650146484e+01 -2.010607386182527989e-05 -3.125904157741388190e-08 -6.041199867468094453e-06 1.994048517417468247e-07
8.350000000000000000e+02 1.703512191772460938e+00 9.131124496459960938e+00 1.651921593293081969e-05 4.545971137304150034e-07 5.092143965157447383e-06 -1.854790184552257415e-06
8.360000000000000000e+02 8.925823211669921875e+00 2.620215654373168945e+00 -4.922276730212615803e-06 -1.683028017396281939e-06 -1.981591367439250462e-06 -1.500146254329592921e-06
8.370000000000000000e+02 9.655716896057128906e+00 1.864761114120483398e+00 -4.155320311838295311e-06 -8.906937409847159870e-07 -1.513804136266116984e-06 -4.625523501999850851e-07
8.380000000000000000e+02 1.092290759086608887e+00 3.778837442398071289e+00 -4.785130386153468862e-06 4.829263161809649318e-06 1.323987763868217371e-08 -9.314540875493548810e-06
8.390000000000000000e+02 5.106620788574218750e-01 6.397202968597412109e+00 -1.377936951030278578e-05 -1.138844140768924262e-06 -4.475463811104418710e-06 5.472523412208829541e-07
8.400000000000000000e+02 3.666401147842407227e+00 3.759487867355346680e+00 -6.069343726267106831e-06 -4.398435976327164099e-06 -3.140334001727751456e-06 3.004973450515535660e-06
8.410000000000000000e+02 1.344489192962646484e+01 1.044156837463378906e+01 1.721577791613526642e-05 1.330596433035680093e-06 5.563912509387591854e-06 2.976385303554707207e-06
8.420000000000000000e+02 1.449272060394287109e+01 2.020021057128906250e+01 4.044232264277525246e-05 4.408883285123010864e-07 1.226496351591777056e-05 -2.892138354582129978e-06
8.430000000000000000e+02 1.534285068511962891e+01 3.119554138183593750e+01 8.633532706880941987e-05 -5.137729203852359205e-06 2.435927854094188660e-05 -3.143388539683655836e-06
8.440000000000000000e+02 1.522605609893798828e+01 2.978270339965820312e+01 -8.431498281424865127e-05 1.944599944181391038e-06 -2.471111474733334035e-05 -5.995415904180845246e-06
8.450000000000000000e+02 1.811923217773437500e+01 3.777428054809570312e+01 4.045511741423979402e-05 -1.976046478375792503e-04 -4.714485839940607548e-05 4.111189991817809641e-05
8.460000000000000000e+02 1.914192008972167969e+01 3.904668045043945312e+01 3.644173921202309430e-05 4.110734880669042468e-05 2.326472713320981711e-05 -5.908105231355875731e-05
8.470000000000000000e+02 1.897526741027832031e+01 4.005430221557617188e+01 4.063432425027713180e-05 -7.735205144854262471e-05 -1.101531779568176717e-05 1.349231315543875098e-04
8.480000000000000000e+02 1.202561855316162109e+01 4.127514266967773438e+01 5.053275162936188281e-05 -5.800792223453754559e-06 1.341958704870194197e-05 5.547482578549534082e-05
8.490000000000000000e+02 1.977005386352539062e+01 3.783001327514648438e+01 4.822119808522984385e-05 -2.059241160168312490e-05 8.288636308861896396e-06 -3.011831176991108805e-05
8.500000000000000000e+02 2.094407844543457031e+01 3.814176177978515625e+01 -1.395422987116035074e-05 8.894303755369037390e-05 2.249664248665794730e-05 -7.078205089783295989e-05
8.510000000000000000e+02 5.031433105468750000e+01 3.412674331665039062e+01 -8.337764441967010498e-02 -3.386392444372177124e-02 -3.517246991395950317e-02 7.177554070949554443e-02
8.520000000000000000e+02 5.180611419677734375e+01 3.382522201538085938e+01 -1.243612691760063171e-01 -4.175094142556190491e-02 -4.983366280794143677e-02 9.622974693775177002e-02
8.530000000000000000e+02 5.690130996704101562e+01 3.321017074584960938e+01 -4.122887849807739258e-01 -5.758417770266532898e-02 -1.409618854522705078e-01 2.411304563283920288e-01
8.540000000000000000e+02 5.763314056396484375e+01 3.317136001586914062e+01 -4.724295437335968018e-01 -7.823185622692108154e-02 -1.651984155178070068e-01 2.673873305320739746e-01
8.550000000000000000e+02 6.205960083007812500e+01 3.292490005493164062e+01 -1.055979967117309570e+00 -7.757347822189331055e-02 -3.400660157203674316e-01 4.655847251415252686e-01
8.560000000000000000e+02 6.353798675537109375e+01 3.282071685791015625e+01 -1.320318102836608887e+00 -7.256253808736801147e-02 -4.178642034530639648e-01 5.428157448768615723e-01
8.570000000000000000e+02 6.501220703125000000e+01 3.280353546142578125e+01 -1.602642416954040527e+00 -6.651232391595840454e-02 -5.007464289665222168e-01 6.212508082389831543e-01
8.580000000000000000e+02 6.805067443847656250e+01 3.368621826171875000e+01 -1.288201570510864258e+00 6.518393754959106445e-02 -3.669052720069885254e-01 7.535694837570190430e-01
8.590000000000000000e+02 7.146649169921875000e+01 3.370755004882812500e+01 -6.187669038772583008e-01 9.323632121086120605e-01 9.407889097929000854e-02 -4.029043614864349365e-01
8.600000000000000000e+02 6.936353302001953125e+01 3.519504928588867188e+01 6.865773350000381470e-02 8.140915036201477051e-01 2.648247778415679932e-01 2.674441039562225342e-01
8.610000000000000000e+02 7.829509735107421875e+01 3.262213897705078125e+01 -2.824640870094299316e-01 1.424991321563720703e+01 4.190234661102294922e+00 2.856346607208251953e+00
8.620000000000000000e+02 7.752588653564453125e+01 3.033498573303222656e+01 4.762759208679199219e+00 1.740467834472656250e+01 6.650230884552001953e+00 -2.673146009445190430e+00
8.630000000000000000e+02 7.748780822753906250e+01 3.077098274230957031e+01 7.392731189727783203e+00 1.717236709594726562e+01 7.369529724121093750e+00 -1.615818142890930176e-01
8.640000000000000000e+02 2.792818832397460938e+01 2.275746917724609375e+01 -9.996994584798812866e-02 -2.270183563232421875e-01 -9.809648990631103516e-02 -3.053100407123565674e-01
8.650000000000000000e+02 2.643718338012695312e+01 2.522235298156738281e+01 -8.115619421005249023e-02 -1.618989408016204834e-01 -7.291653752326965332e-02 -2.004246115684509277e-01
8.660000000000000000e+02 3.690598297119140625e+01 2.899401092529296875e+01 -4.910650253295898438e-01 3.026360645890235901e-02 -1.382404267787933350e-01 -2.587948143482208252e-01
8.670000000000000000e+02 4.423311996459960938e+01 2.757539176940917969e+01 -9.632906913757324219e-01 5.426831915974617004e-02 -2.727067172527313232e-01 -3.843026757240295410e-01
8.680000000000000000e+02 5.055857849121093750e+01 2.798870658874511719e+01 -1.618925213813781738e+00 2.244248427450656891e-02 -4.789448082447052002e-01 -3.365702629089355469e-01
8.690000000000000000e+02 5.819969940185546875e+01 2.862379074096679688e+01 -2.794546127319335938e+00 -3.220982849597930908e-02 -8.480268120765686035e-01 -2.583036422729492188e-01
8.700000000000000000e+02 6.272608947753906250e+01 2.909119033813476562e+01 -3.702681779861450195e+00 -4.135098308324813843e-02 -1.123209834098815918e+00 -2.440429925918579102e-01
8.710000000000000000e+02 5.556679916381835938e+01 3.502318572998046875e+01 -1.507743895053863525e-01 -1.249653026461601257e-01 -8.272191137075424194e-02 2.632904052734375000e-01
8.720000000000000000e+02 5.544451904296875000e+01 3.331133651733398438e+01 -2.989425957202911377e-01 -5.335570871829986572e-02 -1.056894958019256592e-01 1.876176446676254272e-01
8.730000000000000000e+02 3.255059051513671875e+01 1.602305030822753906e+01 -7.756392657756805420e-02 -3.272104859352111816e-01 -1.214323267340660095e-01 -5.595127940177917480e-01
8.740000000000000000e+02 3.251074981689453125e+01 1.724481391906738281e+01 -1.019645780324935913e-01 -2.958129942417144775e-01 -1.193332672119140625e-01 -5.470600724220275879e-01
8.750000000000000000e+02 4.596201324462890625e+01 1.998794555664062500e+01 -3.793435394763946533e-01 1.376265101134777069e-02 -1.096742674708366394e-01 -7.152898311614990234e-01
8.760000000000000000e+02 5.096621704101562500e+01 2.136501693725585938e+01 -5.672897100448608398e-01 4.017652571201324463e-02 -1.581339538097381592e-01 -6.811799407005310059e-01
8.770000000000000000e+02 5.797000503540039062e+01 2.116224861145019531e+01 -3.878397047519683838e-01 1.463055461645126343e-01 -7.246024906635284424e-02 -4.408283233642578125e-01
8.780000000000000000e+02 6.279743194580078125e+01 2.151578712463378906e+01 -1.298827379941940308e-01 4.571036398410797119e-01 9.816627204418182373e-02 -3.774433396756649017e-03
8.790000000000000000e+02 7.243666076660156250e+01 1.844234848022460938e+01 5.641615986824035645e-01 5.100890159606933594e+00 1.699515581130981445e+00 1.749726891517639160e+00
8.800000000000000000e+02 2.710033988952636719e+01 1.714192962646484375e+01 -4.140907898545265198e-02 -4.503494501113891602e-01 -1.475275605916976929e-01 -3.676435053348541260e-01
8.810000000000000000e+02 2.723343849182128906e+01 1.287197589874267578e+01 -1.480077020823955536e-02 -6.231089830398559570e-01 -1.913729161024093628e-01 -4.005922079086303711e-01
8.820000000000000000e+02 2.603042030334472656e+01 4.239753723144531250e+00 -1.359404902905225754e-02 -1.026989102363586426e+00 -3.121749162673950195e-01 -3.175502121448516846e-01
8.830000000000000000e+02 3.569514846801757812e+01 4.725584506988525391e+00 1.296119838953018188e-01 -3.637098371982574463e-01 -7.022935152053833008e-02 -5.148310661315917969e-01
8.840000000000000000e+02 3.434933853149414062e+01 6.194221496582031250e+00 9.075687080621719360e-02 -4.335218966007232666e-01 -1.028295084834098816e-01 -5.312981009483337402e-01
8.850000000000000000e+02 3.427799224853515625e+01 1.138589763641357422e+01 1.567272469401359558e-02 -3.659542202949523926e-01 -1.050844490528106689e-01 -5.958374142646789551e-01
8.860000000000000000e+02 2.856453704833984375e+01 8.636026382446289062e+00 3.271822119131684303e-03 -7.092524766921997070e-01 -2.117941975593566895e-01 -4.399321675300598145e-01
8.870000000000000000e+02 3.874537277221679688e+01 1.134899711608886719e+01 6.432998925447463989e-02 -1.838752627372741699e-01 -3.586358204483985901e-02 -6.413895487785339355e-01
8.880000000000000000e+02 3.917323684692382812e+01 1.242119693756103516e+01 3.941532224416732788e-02 -1.613683700561523438e-01 -3.658591210842132568e-02 -6.611226797103881836e-01
8.890000000000000000e+02 4.775325012207031250e+01 1.584482574462890625e+01 2.322395332157611847e-03 7.913254201412200928e-02 2.443648129701614380e-02 -6.650958061218261719e-01
8.900000000000000000e+02 5.995295715332031250e+01 9.400257110595703125e+00 7.121205925941467285e-01 1.469098448753356934e+00 6.543657183647155762e-01 2.993021905422210693e-01
8.910000000000000000e+02 6.596691894531250000e+01 7.570429801940917969e+00 6.557546257972717285e-01 2.966830253601074219e+00 1.086775422096252441e+00 7.957795262336730957e-01
8.920000000000000000e+02 7.225819396972656250e+01 1.077687835693359375e+01 4.316463768482208252e-01 5.014653682708740234e+00 1.633890032768249512e+00 1.147296786308288574e+00
8.930000000000000000e+02 2.104693984985351562e+01 1.836627960205078125e+01 -1.417777268216013908e-03 -4.739584326744079590e-01 -1.426128596067428589e-01 -3.955531120300292969e-02
8.940000000000000000e+02 2.105289077758789062e+01 1.696024322509765625e+01 -5.465943249873816967e-04 -5.694653391838073730e-01 -1.710035800933837891e-01 -4.199668392539024353e-02
8.950000000000000000e+02 2.106580352783203125e+01 9.921826362609863281e+00 -6.704022525809705257e-04 -1.098358631134033203e+00 -3.297086954116821289e-01 -4.829060286283493042e-02
8.960000000000000000e+02 2.100645828247070312e+01 4.280662059783935547e+00 -3.158550336956977844e-02 -1.612757325172424316e+00 -4.933028519153594971e-01 -1.157617866992950439e-01
8.970000000000000000e+02 2.104891204833984375e+01 5.692858219146728516e+00 -1.366933062672615051e-02 -1.487406969070434570e+00 -4.503228664398193359e-01 -7.025428116321563721e-02
8.980000000000000000e+02 4.962392807006835938e+01 2.136021852493286133e+00 4.742895364761352539e-01 6.874793171882629395e-01 3.485306501388549805e-01 -2.001655995845794678e-01
8.990000000000000000e+02 4.685637664794921875e+01 3.170037031173706055e+00 4.088324010372161865e-01 4.078601300716400146e-01 2.450077682733535767e-01 -3.263984322547912598e-01
9.000000000000000000e+02 5.922450637817382812e+01 1.678562879562377930e+00 5.861767530441284180e-01 1.901041626930236816e+00 7.461655139923095703e-01 2.921664714813232422e-01
9.010000000000000000e+02 6.552194976806640625e+01 4.130505561828613281e+00 5.588344931602478027e-01 3.033811330795288086e+00 1.077793717384338379e+00 6.671290993690490723e-01
9.020000000000000000e+02 7.196365356445312500e+01 4.463407993316650391e+00 2.849724590778350830e-01 4.719362735748291016e+00 1.501300573348999023e+00 7.391592264175415039e-01
9.030000000000000000e+02 2.106403923034667969e+01 1.273797893524169922e+01 -6.450377986766397953e-04 -8.789712786674499512e-01 -2.638849020004272461e-01 -4.636657983064651489e-02
9.040000000000000000e+02 4.062134170532226562e+01 1.691403627395629883e+00 2.636869549751281738e-01 -2.516815997660160065e-02 7.155563682317733765e-02 -4.319109916687011719e-01
9.050000000000000000e+02 6.089814758300781250e+01 -4.704833984375000000e+00 4.168138504028320312e-01 2.471780300140380859e+00 8.665782213211059570e-01 3.100233078002929688e-01
9.060000000000000000e+02 5.597796249389648438e+01 -3.785815477371215820e+00 4.723738133907318115e-01 1.691742420196533203e+00 6.492348909378051758e-01 1.479086428880691528e-01
9.070000000000000000e+02 7.213231658935546875e+01 -1.773007631301879883e+00 1.731645315885543823e-01 4.555079460144042969e+00 1.418473243713378906e+00 4.724116325378417969e-01
9.080000000000000000e+02 2.854949378967285156e+01 -3.756816864013671875e+00 5.524217709898948669e-02 -1.008618235588073730e+00 -2.860128283500671387e-01 -2.956784665584564209e-01
9.090000000000000000e+02 2.719755363464355469e+01 -9.444047927856445312e+00 2.956978790462017059e-02 -1.212757587432861328e+00 -3.549563586711883545e-01 -2.212775945663452148e-01
9.100000000000000000e+02 3.419326019287109375e+01 -1.544813251495361328e+01 1.081111133098602295e-01 -5.014222264289855957e-01 -1.179933324456214905e-01 -1.703513413667678833e-01
9.110000000000000000e+02 4.514599227905273438e+01 -2.722664642333984375e+01 1.276382058858871460e-01 7.946386337280273438e-01 2.766830325126647949e-01 -1.287942752242088318e-02
9.120000000000000000e+02 5.195143127441406250e+01 -3.417059707641601562e+01 1.019758805632591248e-01 1.653706550598144531e+00 5.267047286033630371e-01 1.785796321928501129e-02
9.130000000000000000e+02 5.918035125732421875e+01 -3.341938018798828125e+01 7.591702044010162354e-02 2.543976545333862305e+00 7.859680652618408203e-01 4.610133916139602661e-02
9.140000000000000000e+02 3.428779220581054688e+01 -1.639814853668212891e+00 1.355654746294021606e-01 -4.893676042556762695e-01 -1.061406433582305908e-01 -3.833280503749847412e-01
9.150000000000000000e+02 3.321419143676757812e+01 -1.135125732421875000e+01 1.052668318152427673e-01 -5.978689193725585938e-01 -1.477806121110916138e-01 -2.262042015790939331e-01
9.160000000000000000e+02 4.146976089477539062e+01 -2.041060066223144531e+01 1.555373221635818481e-01 3.330072164535522461e-01 1.465633660554885864e-01 -7.705149799585342407e-02
9.170000000000000000e+02 4.812813568115234375e+01 -2.195319938659667969e+01 1.753674149513244629e-01 1.118097662925720215e+00 3.880395293235778809e-01 3.860635915771126747e-04
9.180000000000000000e+02 5.508442687988281250e+01 -2.716616249084472656e+01 1.240334510803222656e-01 1.995065212249755859e+00 6.357296109199523926e-01 5.282911658287048340e-02
9.190000000000000000e+02 4.205130767822265625e+01 -1.567479014396667480e+00 2.935935258865356445e-01 1.321317702531814575e-01 1.277175843715667725e-01 -3.326369225978851318e-01
9.200000000000000000e+02 4.095533752441406250e+01 -7.132359027862548828e+00 2.449314892292022705e-01 1.303291171789169312e-01 1.125781834125518799e-01 -2.395059615373611450e-01
9.210000000000000000e+02 5.111366271972656250e+01 -1.502781391143798828e+01 2.608059942722320557e-01 1.361797094345092773e+00 4.867809414863586426e-01 2.078359760344028473e-02
9.220000000000000000e+02 5.493193435668945312e+01 -1.418755149841308594e+01 2.733386754989624023e-01 1.835619091987609863e+00 6.326873302459716797e-01 9.363073110580444336e-02
9.230000000000000000e+02 6.726608276367187500e+01 -1.286863994598388672e+01 1.562778800725936890e-01 3.580207109451293945e+00 1.120945453643798828e+00 2.395088225603103638e-01
9.240000000000000000e+02 6.522599792480468750e+01 -1.164620971679687500e+01 2.109833955764770508e-01 3.266764640808105469e+00 1.043324351310729980e+00 2.619906961917877197e-01
9.250000000000000000e+02 7.103661346435546875e+01 -1.024320125579833984e+01 1.050998121500015259e-01 4.177844524383544922e+00 1.284883379936218262e+00 2.657696604728698730e-01
9.260000000000000000e+02 2.711714935302734375e+01 -1.216386604309082031e+01 2.086223289370536804e-02 -1.250670790672302246e+00 -3.689425587654113770e-01 -1.876693516969680786e-01
9.270000000000000000e+02 2.725910568237304688e+01 -1.617898941040039062e+01 2.819427289068698883e-02 -1.269264817237854004e+00 -3.723211586475372314e-01 -1.370895802974700928e-01
9.280000000000000000e+02 3.839678192138671875e+01 -2.211771202087402344e+01 1.191628277301788330e-01 2.264171838760375977e-03 3.642810136079788208e-02 -8.962468802928924561e-02
9.290000000000000000e+02 3.997359848022460938e+01 -3.295332717895507812e+01 9.136470407247543335e-02 2.131270766258239746e-01 9.134753048419952393e-02 -1.069252099841833115e-02
9.300000000000000000e+02 5.180216979980468750e+01 -3.070420265197753906e+01 1.135527640581130981e-01 1.633087992668151855e+00 5.239922404289245605e-01 2.253188379108905792e-02
9.310000000000000000e+02 3.520590972900390625e+01 -8.150187492370605469e+00 1.558431535959243774e-01 -3.923020362854003906e-01 -7.093766331672668457e-02 -2.700028717517852783e-01
9.320000000000000000e+02 4.438224411010742188e+01 -8.115006446838378906e+00 2.992533147335052490e-01 4.867843687534332275e-01 2.358113080263137817e-01 -1.676926910877227783e-01
9.330000000000000000e+02 4.933274459838867188e+01 -1.470837879180908203e+01 2.602302134037017822e-01 1.136949896812438965e+00 4.191540479660034180e-01 -7.167808245867490768e-03
9.340000000000000000e+02 7.250131988525390625e+01 -1.961481666564941406e+01 3.662247210741043091e-02 4.265712261199951172e+00 1.290700435638427734e+00 1.104534044861793518e-01
9.350000000000000000e+02 7.121693420410156250e+01 -1.826760673522949219e+01 4.992492124438285828e-02 4.098925590515136719e+00 1.244655251502990723e+00 1.371281743049621582e-01
9.360000000000000000e+02 2.008096313476562500e+01 -1.534582710266113281e+01 -2.883829176425933838e-02 -2.173862934112548828e+00 -6.608103513717651367e-01 -1.862163245677947998e-01
9.370000000000000000e+02 2.879432487487792969e+01 -1.714229202270507812e+01 4.246652126312255859e-02 -1.115508317947387695e+00 -3.219125568866729736e-01 -1.413207650184631348e-01
9.380000000000000000e+02 3.811791229248046875e+01 -1.659331130981445312e+01 1.422705799341201782e-01 -7.402276992797851562e-02 2.047434449195861816e-02 -1.371427327394485474e-01
9.390000000000000000e+02 4.296669387817382812e+01 -1.554367923736572266e+01 2.038125693798065186e-01 4.460218548774719238e-01 1.949503272771835327e-01 -1.028903126716613770e-01
9.400000000000000000e+02 5.317506408691406250e+01 -1.946203613281250000e+01 1.978780776262283325e-01 1.691316008567810059e+00 5.667582154273986816e-01 4.400386661291122437e-02
9.410000000000000000e+02 2.751345252990722656e+01 -2.866172409057617188e+01 4.737740848213434219e-03 -1.213212728500366211e+00 -3.625425100326538086e-01 -8.414301276206970215e-02
9.420000000000000000e+02 3.725243377685546875e+01 -2.461660194396972656e+01 9.386119991540908813e-02 -1.168954819440841675e-01 -6.910284981131553650e-03 -6.906098872423171997e-02
9.430000000000000000e+02 4.832654571533203125e+01 -2.746271705627441406e+01 1.284450590610504150e-01 1.171905279159545898e+00 3.901050984859466553e-01 5.779829807579517365e-03
9.440000000000000000e+02 6.375363159179687500e+01 -2.669784736633300781e+01 7.892917841672897339e-02 3.107839822769165039e+00 9.560307264328002930e-01 7.574497163295745850e-02
9.450000000000000000e+02 3.466388320922851562e+01 -3.511884307861328125e+01 6.176650524139404297e-02 -4.025549590587615967e-01 -1.022365391254425049e-01 -6.990060210227966309e-03
9.460000000000000000e+02 6.539245605468750000e+01 -3.282709503173828125e+01 5.150282755494117737e-02 3.358666658401489258e+00 1.023050785064697266e+00 5.040866881608963013e-02
9.470000000000000000e+02 7.418323516845703125e+01 -3.313005828857421875e+01 5.867159925401210785e-03 4.374136924743652344e+00 1.314001202583312988e+00 2.610762417316436768e-02
9.480000000000000000e+02 1.072053337097167969e+01 -3.071530532836914062e+01 6.323938257992267609e-03 2.323394874110817909e-03 2.594199962913990021e-03 -3.334296634420752525e-03
9.490000000000000000e+02 1.439014911651611328e+01 -1.766683578491210938e+01 2.471343381330370903e-03 -2.751397369138430804e-05 7.331488304771482944e-04 -4.035403253510594368e-04
9.500000000000000000e+02 1.160593605041503906e+01 -1.711137962341308594e+01 2.243900438770651817e-03 3.267078136559575796e-04 7.711824728175997734e-04 -7.185522699728608131e-04
9.510000000000000000e+02 1.458952140808105469e+01 -1.072428703308105469e+01 -1.687165931798517704e-03 -1.615437759028282017e-05 -5.109960911795496941e-04 1.496996555943042040e-04
9.520000000000000000e+02 1.249190425872802734e+01 -1.060475444793701172e+01 -1.338725094683468342e-03 -1.767849898897111416e-04 -4.546530253719538450e-04 5.016538198105990887e-04
9.530000000000000000e+02 5.847114920616149902e-01 -1.070523548126220703e+01 -1.482670544646680355e-03 -2.000655331357847899e-05 -4.508031124714761972e-04 5.662354669766500592e-05
9.540000000000000000e+02 1.351517868041992188e+01 9.109186172485351562e+00 -1.511361642769770697e-05 -1.316817133556469344e-06 -4.929130227537825704e-06 -1.813948415474442299e-06
9.550000000000000000e+02 2.553498649597167969e+01 3.440838241577148438e+01 -1.152246817946434021e-02 -5.938278045505285263e-03 -5.238223820924758911e-03 -5.929608829319477081e-03
9.560000000000000000e+02 2.383077049255371094e+01 3.440784072875976562e+01 -2.707371953874826431e-03 -4.572300240397453308e-03 -2.183901844546198845e-03 2.228686818853020668e-03
9.570000000000000000e+02 2.099272727966308594e+01 2.958279991149902344e+01 -1.655073952861130238e-03 -1.598027447471395135e-04 -5.444629932753741741e-04 -6.705526728183031082e-03
9.580000000000000000e+02 2.099408721923828125e+01 2.818284988403320312e+01 -1.694800332188606262e-03 -2.221315167844295502e-02 -7.172385230660438538e-03 -1.096808537840843201e-02
9.590000000000000000e+02 2.215891265869140625e+01 2.396192359924316406e+01 -7.810495328158140182e-03 -1.862045377492904663e-01 -5.820450931787490845e-02 -7.363125681877136230e-02
9.600000000000000000e+02 2.101155853271484375e+01 2.397951507568359375e+01 -2.056863391771912575e-03 -1.585585772991180420e-01 -4.818463325500488281e-02 -2.499529905617237091e-02
9.610000000000000000e+02 2.103203964233398438e+01 2.117513084411621094e+01 -1.786878681741654873e-03 -3.007701039314270020e-01 -9.076709300279617310e-02 -3.329923376441001892e-02
9.620000000000000000e+02 2.229908752441406250e+01 1.556395626068115234e+01 -2.648108173161745071e-03 -6.453197002410888672e-01 -1.943903416395187378e-01 -1.291143894195556641e-01
9.630000000000000000e+02 2.105752372741699219e+01 1.555329513549804688e+01 -9.221737855114042759e-04 -6.694032549858093262e-01 -2.010976225137710571e-01 -4.383149370551109314e-02
9.640000000000000000e+02 2.106117248535156250e+01 1.414579772949218750e+01 -1.714028185233473778e-04 -7.728361487388610840e-01 -2.319022566080093384e-01 -4.527574777603149414e-02
9.650000000000000000e+02 2.232436752319335938e+01 1.133063125610351562e+01 -1.813965616747736931e-03 -9.287268519401550293e-01 -2.791622579097747803e-01 -1.398901641368865967e-01
9.660000000000000000e+02 2.106399154663085938e+01 8.513210296630859375e+00 -1.138608437031507492e-03 -1.213181853294372559e+00 -3.642961382865905762e-01 -5.053328722715377808e-02
9.670000000000000000e+02 2.105852890014648438e+01 7.103962898254394531e+00 -1.017802860587835312e-03 -1.333761692047119141e+00 -4.004338383674621582e-01 -5.310946702957153320e-02
9.680000000000000000e+02 2.223286437988281250e+01 4.246798992156982422e+00 -4.960335791110992432e-02 -1.388164520263671875e+00 -4.313303530216217041e-01 -1.670553237199783325e-01
9.690000000000000000e+02 2.090934371948242188e+01 2.873070955276489258e+00 -2.600445039570331573e-02 -1.631159424781799316e+00 -4.971491396427154541e-01 -1.566267311573028564e-01
9.700000000000000000e+02 2.078321838378906250e+01 1.475288033485412598e+00 -3.396122483536601067e-03 -1.587993383407592773e+00 -4.774168729782104492e-01 -1.530027538537979126e-01
9.710000000000000000e+02 2.068397331237792969e+01 8.290313184261322021e-02 1.867354847490787506e-02 -1.610381007194519043e+00 -4.775122404098510742e-01 -1.142390966415405273e-01
9.720000000000000000e+02 2.046314430236816406e+01 -4.113642692565917969e+00 4.618712700903415680e-03 -1.772157907485961914e+00 -5.302617549896240234e-01 -1.344165503978729248e-01
9.730000000000000000e+02 2.186502456665039062e+01 -2.723773241043090820e+00 -2.250224538147449493e-02 -1.616398096084594727e+00 -4.916701018810272217e-01 -1.399526596069335938e-01
9.740000000000000000e+02 2.034593200683593750e+01 -8.305016517639160156e+00 1.167402006103657186e-04 -1.988494992256164551e+00 -5.965134501457214355e-01 -5.070915445685386658e-02
9.750000000000000000e+02 2.023454856872558594e+01 -1.252694702148437500e+01 -4.354598466306924820e-03 -2.156537771224975586e+00 -6.482677459716796875e-01 -8.752086758613586426e-02
9.760000000000000000e+02 2.027798843383789062e+01 -1.111948013305664062e+01 1.826495630666613579e-03 -2.089514970779418945e+00 -6.263065338134765625e-01 -8.989575505256652832e-02
9.770000000000000000e+02 2.158070945739746094e+01 -1.249796485900878906e+01 -2.645233646035194397e-02 -1.955814957618713379e+00 -5.946801900863647461e-01 -1.482615470886230469e-01
9.780000000000000000e+02 1.981726837158203125e+01 -1.955176162719726562e+01 2.694161236286163330e-02 -2.015817642211914062e+00 -5.966627597808837891e-01 -8.302471786737442017e-02
9.790000000000000000e+02 2.136644554138183594e+01 -1.813799476623535156e+01 4.672711342573165894e-02 -1.934507012367248535e+00 -5.663340091705322266e-01 -1.109772995114326477e-01
9.800000000000000000e+02 1.980318260192871094e+01 -2.239138984680175781e+01 2.134537789970636368e-03 -2.132854700088500977e+00 -6.392160654067993164e-01 -7.415638118982315063e-02
9.810000000000000000e+02 1.972937774658203125e+01 -2.662794685363769531e+01 5.265030195005238056e-04 -2.201507091522216797e+00 -6.602941751480102539e-01 -2.415538392961025238e-02
9.820000000000000000e+02 1.975390052795410156e+01 -2.522962379455566406e+01 1.044837012887001038e-02 -2.150555849075317383e+00 -6.420322656631469727e-01 -3.437801823019981384e-02
9.830000000000000000e+02 1.968235206604003906e+01 -2.941090774536132812e+01 -4.786747507750988007e-03 -2.290614366531372070e+00 -6.886203289031982422e-01 -2.452024817466735840e-02
9.840000000000000000e+02 1.969399833679199219e+01 -3.219990158081054688e+01 -1.783827692270278931e-02 -2.436065435409545898e+00 -7.361710667610168457e-01 -5.989706143736839294e-02
9.850000000000000000e+02 2.135217857360839844e+01 -3.366933059692382812e+01 -1.445793509483337402e-01 -2.067176103591918945e+00 -6.635265946388244629e-01 -1.723416149616241455e-01
9.860000000000000000e+02 1.968434143066406250e+01 -3.360265731811523438e+01 -6.861082464456558228e-02 -2.629969120025634766e+00 -8.095740079879760742e-01 -1.379962116479873657e-01
9.870000000000000000e+02 1.422699737548828125e+01 -3.152727699279785156e+01 1.286829449236392975e-02 1.887198304757475853e-03 4.426647908985614777e-03 -6.093838717788457870e-03
9.880000000000000000e+02 1.459484958648681641e+01 -2.755298805236816406e+01 -8.861889131367206573e-03 -2.791708568111062050e-03 -3.496079472824931145e-03 1.851948094554245472e-03
9.890000000000000000e+02 1.317161655426025391e+01 -2.376535797119140625e+01 -3.441848559305071831e-03 -3.671232552733272314e-04 -1.142691588029265404e-03 3.855646355077624321e-04
9.900000000000000000e+02 1.443948364257812500e+01 -2.347752571105957031e+01 5.396178457885980606e-03 -7.648352184332907200e-04 1.389403012581169605e-03 3.858229320030659437e-04
9.910000000000000000e+02 1.419562149047851562e+01 -2.054043960571289062e+01 2.918020123615860939e-03 -1.035589302773587406e-04 8.443383267149329185e-04 -3.531799593474715948e-04
9.920000000000000000e+02 1.297442722320556641e+01 -1.741137886047363281e+01 -2.414972521364688873e-03 -3.130104159936308861e-04 -8.183948812074959278e-04 7.903756923042237759e-04
9.930000000000000000e+02 1.443579578399658203e+01 -1.627049255371093750e+01 -2.288807183504104614e-03 -1.369183592032641172e-04 -7.277176482602953911e-04 3.796337405219674110e-04
9.940000000000000000e+02 1.460125637054443359e+01 -9.341469764709472656e+00 1.435790443792939186e-03 2.509414480300620198e-05 4.382653860375285149e-04 -1.050616119755432010e-04
9.950000000000000000e+02 1.253927898406982422e+01 -1.925682425498962402e+00 -2.646193315740674734e-04 -2.203107578679919243e-04 -1.454790181014686823e-04 3.029547224286943674e-05
9.960000000000000000e+02 1.299646854400634766e+01 -2.830662488937377930e+00 -2.897431259043514729e-04 -4.896555328741669655e-04 -2.338196063647046685e-04 3.649100544862449169e-04
9.970000000000000000e+02 1.428309917449951172e+01 -2.026084184646606445e+00 8.050716860452666879e-05 1.178398233605548739e-04 5.950409831712022424e-05 1.130360906245186925e-04
9.980000000000000000e+02 1.373213577270507812e+01 -2.035315513610839844e+00 -5.226604407653212547e-04 4.724841346614994109e-05 -1.426236121915280819e-04 3.880497752106748521e-05
9.990000000000000000e+02 1.317213439941406250e+01 -1.981786251068115234e+00 4.412718699313700199e-04 1.989379234146326780e-04 1.920629292726516724e-04 -2.741337229963392019e-04
1.000000000000000000e+03 1.181845855712890625e+01 -1.904407024383544922e+00 3.302555414848029613e-04 1.562653342261910439e-04 1.459562627132982016e-04 3.535495852702297270e-05
1.001000000000000000e+03 9.586661338806152344e+00 -1.880195975303649902e+00 -2.710913831833750010e-04 -1.981306268135085702e-04 -1.407666131854057312e-04 2.730823689489625394e-05
1.002000000000000000e+03 1.034088897705078125e+01 -1.886792182922363281e+00 3.187675611115992069e-04 1.755228586262091994e-04 1.482871302869170904e-04 -6.659005885012447834e-05
1.003000000000000000e+03 8.822110176086425781e+00 -1.877951383590698242e+00 2.605404297355562449e-04 2.043163985945284367e-04 1.394570426782593131e-04 2.033042255789041519e-05
1.004000000000000000e+03 7.290277957916259766e+00 -1.877827286720275879e+00 2.831976162269711494e-04 1.598152302904054523e-04 1.329038495896384120e-04 1.729170180624350905e-04
1.005000000000000000e+03 5.770154476165771484e+00 -1.874923944473266602e+00 3.212215378880500793e-04 3.609294435591436923e-05 1.071943479473702610e-04 1.774405391188338399e-04
1.006000000000000000e+03 3.511972188949584961e+00 -1.918897628784179688e+00 -1.411223493050783873e-04 1.891998690553009510e-04 1.442325901734875515e-05 1.329035421804292127e-05
1.007000000000000000e+03 5.017237186431884766e+00 -1.872691035270690918e+00 -2.524995070416480303e-04 8.689247624715790153e-05 -4.968210487277247012e-05 1.547713145555462688e-05
1.008000000000000000e+03 4.355070114135742188e+00 -2.633511781692504883e+00 -3.897795395459979773e-04 5.297382813296280801e-05 -1.010417108773253858e-04 1.235380768775939941e-04
1.009000000000000000e+03 2.756266117095947266e+00 -1.995589017868041992e+00 -4.595188329403754324e-06 3.491037887215497904e-06 -3.312451042347674957e-07 -7.003668724792078137e-05
1.010000000000000000e+03 1.996371150016784668e+00 -2.098021745681762695e+00 -1.438686595065519214e-04 -1.032333311741240323e-04 -7.413059938699007034e-05 1.335839078819844872e-05
1.011000000000000000e+03 1.218052387237548828e+00 -2.177932977676391602e+00 7.720992434769868851e-04 4.792343679582700133e-05 2.460067917127162218e-04 6.306106661213561893e-05
1.012000000000000000e+03 2.004319906234741211e+00 -4.164714050292968750e+01 -4.009210504591464996e-03 2.146124094724655151e-02 5.235609132796525955e-03 1.203727209940552711e-03
1.013000000000000000e+03 3.305081605911254883e+00 -3.920165252685546875e+01 -5.444977432489395142e-03 1.398326642811298370e-02 2.561486558988690376e-03 5.691954400390386581e-03
1.014000000000000000e+03 8.951966166496276855e-01 -3.875053405761718750e+01 -5.590962246060371399e-03 1.756483688950538635e-02 3.592162393033504486e-03 6.090783281251788139e-04
1.015000000000000000e+03 7.071408629417419434e-01 -3.465892791748046875e+01 3.056599292904138565e-03 8.121983148157596588e-03 3.353574546054005623e-03 2.358258003368973732e-03
1.016000000000000000e+03 7.094801664352416992e-01 -3.326327896118164062e+01 -1.998558640480041504e-03 4.530164413154125214e-03 7.594817434437572956e-04 1.137689338065683842e-03
1.017000000000000000e+03 6.752691268920898438e-01 -2.904036712646484375e+01 2.184407087042927742e-03 -5.883565754629671574e-04 4.788152000401169062e-04 1.581200776854529977e-04
1.018000000000000000e+03 6.626190543174743652e-01 -2.762852859497070312e+01 -2.161168493330478668e-03 -9.897979907691478729e-04 -9.452899103052914143e-04 1.619962422410026193e-04
1.019000000000000000e+03 6.547672152519226074e-01 -2.621856880187988281e+01 2.375766634941101074e-03 -9.997667511925101280e-04 4.127999709453433752e-04 -1.006711318041197956e-04
1.020000000000000000e+03 6.458953022956848145e-01 -2.199677848815917969e+01 -2.347830682992935181e-03 -5.275401053950190544e-04 -8.626112248748540878e-04 -2.362493069085758179e-05
1.021000000000000000e+03 6.385917067527770996e-01 -2.058967971801757812e+01 2.265588846057653427e-03 -3.103742783423513174e-04 5.865643615834414959e-04 -1.151081160060130060e-04
1.022000000000000000e+03 1.911645174026489258e+00 -2.060052108764648438e+01 -2.613601740449666977e-03 -2.332369331270456314e-04 -8.540516137145459652e-04 -3.710496093844994903e-05
1.023000000000000000e+03 6.257024407386779785e-01 -1.636233139038085938e+01 -1.917290734127163887e-03 -1.152155891759321094e-04 -6.097519071772694588e-04 4.169571911916136742e-05
1.024000000000000000e+03 6.204711198806762695e-01 -1.495121288299560547e+01 1.784968888387084007e-03 -1.567267099744640291e-05 5.307888495735824108e-04 -8.136204269248992205e-05
1.025000000000000000e+03 6.118710041046142578e-01 -1.353627872467041016e+01 -1.675157109275460243e-03 -3.958825982408598065e-05 -5.144235910847783089e-04 5.768681876361370087e-05
1.026000000000000000e+03 1.828077673912048340e+00 -1.357108116149902344e+01 1.713647972792387009e-03 3.217459379811771214e-05 5.237467703409492970e-04 -9.212979784933850169e-05
1.027000000000000000e+03 5.690464377403259277e-01 -9.293841361999511719e+00 1.393978949636220932e-03 2.025590401899535209e-05 4.242704308126121759e-04 -5.903706914978101850e-05
1.028000000000000000e+03 5.535684227943420410e-01 -7.884897708892822266e+00 -1.289366860873997211e-03 -3.428643594816094264e-06 -3.878386633004993200e-04 5.102750583318993449e-05
1.029000000000000000e+03 5.406556129455566406e-01 -6.472120285034179688e+00 1.166111440397799015e-03 2.613499418657738715e-05 3.576739400159567595e-04 -5.072986095910891891e-05
1.030000000000000000e+03 7.481284332275390625e+01 -4.012381744384765625e+01 1.946765556931495667e-02 4.456359386444091797e+00 1.342748045921325684e+00 -2.206733636558055878e-02
1.031000000000000000e+03 5.217214584350585938e+01 -3.759256362915039062e+01 9.388596564531326294e-02 1.686901569366455078e+00 5.342362523078918457e-01 1.289800088852643967e-02
1.032000000000000000e+03 3.259671783447265625e+01 -4.069873809814453125e+01 1.136389747262001038e-01 -6.371090412139892578e-01 -1.570410132408142090e-01 1.021184772253036499e-02
1.033000000000000000e+03 1.132992362976074219e+01 -3.910632324218750000e+01 -2.657681144773960114e-02 -2.742695435881614685e-02 -1.620112918317317963e-02 4.689011350274085999e-02
1.034000000000000000e+03 7.805761718750000000e+01 4.169380950927734375e+01 7.970950603485107422e-01 1.235260200500488281e+01 3.944909095764160156e+00 -2.242461144924163818e-01
1.035000000000000000e+03 7.884836578369140625e+01 4.022610473632812500e+01 -3.224768042564392090e-01 1.274771595001220703e+01 3.727571964263916016e+00 -6.409114003181457520e-01
1.036000000000000000e+03 7.748658752441406250e+01 3.058548927307128906e+01 5.749890327453613281e+00 1.717846870422363281e+01 6.878508090972900391e+00 -1.281435012817382812e+00
1.037000000000000000e+03 7.843141937255859375e+01 2.374476051330566406e+01 -1.903602927923202515e-01 1.223903083801269531e+01 3.614601135253906250e+00 6.425471305847167969e-01
1.038000000000000000e+03 7.943113708496093750e+01 2.090157508850097656e+01 -9.483929723501205444e-03 1.191204547882080078e+01 3.570768356323242188e+00 2.959247827529907227e-01
1.039000000000000000e+03 7.941692352294921875e+01 1.950441169738769531e+01 1.643058843910694122e-02 1.110977458953857422e+01 3.337861537933349609e+00 2.851555943489074707e-01
1.040000000000000000e+03 7.709564971923828125e+01 1.950246238708496094e+01 1.058278977870941162e-01 9.118805885314941406e+00 2.767390012741088867e+00 1.267822861671447754e+00
1.041000000000000000e+03 7.940505218505859375e+01 1.810853576660156250e+01 3.452798118814826012e-03 1.038374233245849609e+01 3.116158485412597656e+00 2.594118118286132812e-01
1.042000000000000000e+03 7.938883209228515625e+01 1.392863273620605469e+01 9.147764183580875397e-03 8.658125877380371094e+00 2.600182056427001953e+00 1.867628544569015503e-01
1.043000000000000000e+03 7.938909912109375000e+01 1.253321933746337891e+01 1.014592219144105911e-02 8.212921142578125000e+00 2.466920137405395508e+00 1.638087779283523560e-01
1.044000000000000000e+03 7.939001464843750000e+01 1.113878345489501953e+01 7.065046578645706177e-03 7.821362972259521484e+00 2.348528385162353516e+00 1.432457864284515381e-01
1.045000000000000000e+03 7.938096618652343750e+01 6.960514545440673828e+00 5.087069235742092133e-03 6.910266399383544922e+00 2.074605941772460938e+00 9.706535935401916504e-02
1.046000000000000000e+03 7.937393951416015625e+01 5.567164897918701172e+00 4.224563948810100555e-03 6.677437305450439453e+00 2.004498481750488281e+00 8.619819581508636475e-02
1.047000000000000000e+03 7.936602783203125000e+01 4.174591541290283203e+00 4.255491774529218674e-03 6.472311019897460938e+00 1.942969918251037598e+00 7.651482522487640381e-02
1.048000000000000000e+03 7.935034942626953125e+01 8.006393909454345703e-03 3.057901514694094658e-03 5.990047454833984375e+00 1.797931551933288574e+00 5.285363271832466125e-02
1.049000000000000000e+03 7.934955596923828125e+01 -1.379638075828552246e+00 2.498754765838384628e-03 5.864983081817626953e+00 1.760244488716125488e+00 4.677250608801841736e-02
1.050000000000000000e+03 7.806093597412109375e+01 -4.108433246612548828e+00 1.088292803615331650e-02 5.482437610626220703e+00 1.647996068000793457e+00 1.204046979546546936e-01
1.051000000000000000e+03 7.935113525390625000e+01 -4.155174732208251953e+00 2.128518419340252876e-03 5.654441356658935547e+00 1.696970939636230469e+00 3.597624972462654114e-02
1.052000000000000000e+03 7.933504486083984375e+01 -8.320498466491699219e+00 1.562878023833036423e-03 5.419454574584960938e+00 1.626305222511291504e+00 2.424868755042552948e-02
1.053000000000000000e+03 7.791886138916015625e+01 -1.103252220153808594e+01 6.373923737555742264e-03 5.140332221984863281e+00 1.544011831283569336e+00 6.780634075403213501e-02
1.054000000000000000e+03 7.930791473388671875e+01 -1.111283206939697266e+01 1.143649918958544731e-03 5.304457664489746094e+00 1.591680407524108887e+00 2.003500796854496002e-02
1.055000000000000000e+03 7.930022430419921875e+01 -1.530190086364746094e+01 2.991238376125693321e-03 5.177912235260009766e+00 1.554271101951599121e+00 1.270719338208436966e-02
1.056000000000000000e+03 7.795309448242187500e+01 -1.807984352111816406e+01 2.540613291785120964e-03 4.958978652954101562e+00 1.488455772399902344e+00 3.696357831358909607e-02
1.057000000000000000e+03 7.931671142578125000e+01 -1.809952163696289062e+01 2.236511325463652611e-03 5.114530563354492188e+00 1.535030126571655273e+00 1.013532467186450958e-02
1.058000000000000000e+03 7.931851959228515625e+01 -2.368046760559082031e+01 1.772558316588401794e-03 5.028913021087646484e+00 1.509205579757690430e+00 4.604270216077566147e-03
1.059000000000000000e+03 7.795908355712890625e+01 -2.507726097106933594e+01 2.501496579498052597e-03 4.864140510559082031e+00 1.459992647171020508e+00 1.798202283680438995e-02
1.060000000000000000e+03 7.932280731201171875e+01 -2.507527160644531250e+01 -1.137455576099455357e-03 5.013918876647949219e+00 1.503834366798400879e+00 3.892368637025356293e-03
1.061000000000000000e+03 7.934458160400390625e+01 -2.922461509704589844e+01 8.681917679496109486e-04 4.983363151550292969e+00 1.495269417762756348e+00 3.996249753981828690e-03
1.062000000000000000e+03 7.801081085205078125e+01 -3.185722160339355469e+01 -1.283854595385491848e-03 4.812040805816650391e+00 1.443227052688598633e+00 5.882523488253355026e-03
1.063000000000000000e+03 7.934545898437500000e+01 -3.197811317443847656e+01 -5.527258850634098053e-03 4.971573829650878906e+00 1.489814043045043945e+00 1.735545345582067966e-03
1.064000000000000000e+03 7.934763336181640625e+01 -3.605720520019531250e+01 3.848654450848698616e-03 4.924830913543701172e+00 1.478603959083557129e+00 8.542395196855068207e-03
1.065000000000000000e+03 7.923124694824218750e+01 -3.736729049682617188e+01 -1.239642221480607986e-02 4.886766433715820312e+00 1.462310910224914551e+00 2.240226976573467255e-02
1.066000000000000000e+03 7.897792816162109375e+01 -3.865589141845703125e+01 4.643380176275968552e-03 4.849152088165283203e+00 1.456138610839843750e+00 2.252297103404998779e-02
1.067000000000000000e+03 7.859171295166015625e+01 -4.001123809814453125e+01 -1.534515060484409332e-02 4.809418201446533203e+00 1.438221931457519531e+00 3.584591671824455261e-02
1.068000000000000000e+03 4.787291049957275391e+00 4.049033737182617188e+01 -3.498854857753030956e-05 5.623314336844487116e-06 -8.809570317680481821e-06 1.572336441313382238e-05
1.069000000000000000e+03 2.742560768127441406e+01 3.804731369018554688e+01 1.409298565704375505e-04 6.251177983358502388e-04 2.298142935615032911e-04 -3.276356728747487068e-04
1.070000000000000000e+03 4.658437347412109375e+01 3.615462875366210938e+01 -1.094032172113656998e-02 -3.766304254531860352e-02 -1.458100974559783936e-02 2.855460159480571747e-02
1.071000000000000000e+03 6.852680206298828125e+01 3.797379302978515625e+01 1.223337888717651367e+00 9.136897325515747070e-01 6.411082744598388672e-01 3.170686960220336914e-01
1.072000000000000000e+03 6.664595007896423340e-01 3.014691829681396484e+00 6.549432782776420936e-06 -2.736976284722913988e-06 1.143736994890787173e-06 9.969701750378590077e-06
1.073000000000000000e+03 3.093731880187988281e+00 2.752590894699096680e+00 -5.812818471895297989e-06 -4.635299319488694891e-06 -3.134435246465727687e-06 1.272480517400254030e-06
1.074000000000000000e+03 5.267173290252685547e+00 2.700839757919311523e+00 2.045782821369357407e-06 4.668642304750392213e-06 2.014327492361189798e-06 -2.679830686247441918e-07
1.075000000000000000e+03 1.547839641571044922e+00 6.255918979644775391e+00 1.324713593930937350e-05 1.644329131522681564e-06 4.467439339350676164e-06 -2.933538780780509114e-06
1.076000000000000000e+03 5.700506567955017090e-01 9.230053901672363281e+00 -1.555836388433817774e-05 8.874756218801849172e-08 -4.640884526452282444e-06 1.457098505852627568e-06
1.077000000000000000e+03 6.012332439422607422e-01 1.207697105407714844e+01 -1.794552736100740731e-05 1.262833109194616554e-07 -5.345772933651460335e-06 8.282514727397938259e-07
1.078000000000000000e+03 1.787239789962768555e+00 1.201988887786865234e+01 1.968152537301648408e-05 -9.867970902632805519e-07 5.608418632618850097e-06 -1.217278736476146150e-06
1.079000000000000000e+03 6.290140748023986816e-01 1.633918762207031250e+01 2.127748302882537246e-05 1.598167500560521148e-07 6.431189831346273422e-06 -2.073304585792357102e-07
1.080000000000000000e+03 1.866929650306701660e+00 1.775949096679687500e+01 2.427689651085529476e-05 2.925222020166984294e-07 7.370825187535956502e-06 1.166173291267114109e-08
1.081000000000000000e+03 6.225530505180358887e-01 1.775496482849121094e+01 -2.277547719131689519e-05 -5.303611771978467004e-08 -6.848554221505764872e-06 2.178580871259327978e-07
1.082000000000000000e+03 6.215871572494506836e-01 2.199833106994628906e+01 2.579400825197808444e-05 -1.989064202234658296e-08 7.732234735158272088e-06 6.271492338782991283e-07
1.083000000000000000e+03 6.366732716560363770e-01 2.341383171081542969e+01 -2.600043990241829306e-05 2.351321271021333814e-08 -7.793078111717477441e-06 -8.964577205006207805e-07
1.084000000000000000e+03 1.904341816902160645e+00 2.340663528442382812e+01 2.755038985924329609e-05 2.901131495036679553e-07 8.352150871360208839e-06 2.363747171330032870e-06
1.085000000000000000e+03 6.513676047325134277e-01 2.483087158203125000e+01 2.619952829263638705e-05 3.352080284457770176e-07 7.960420589370187372e-06 8.596678071626229212e-07
1.086000000000000000e+03 6.445077657699584961e-01 2.906125450134277344e+01 -2.886767651943955570e-05 2.927869786617520731e-07 -8.572466867917682976e-06 -1.034812385114491917e-06
1.087000000000000000e+03 6.475489735603332520e-01 3.046650314331054688e+01 2.768960803223308176e-05 -2.317249681027533370e-08 8.299930414068512619e-06 1.511377945462299976e-06
1.088000000000000000e+03 1.996504545211791992e+00 3.182080650329589844e+01 2.960805795737542212e-05 1.957219865289516747e-06 9.469583346799481660e-06 6.502877567982068285e-06
1.089000000000000000e+03 6.572806239128112793e-01 3.186958122253417969e+01 -2.546954237914178520e-05 -1.548599897205349407e-07 -7.687321158300619572e-06 -1.511573827883694321e-06
1.090000000000000000e+03 6.573770046234130859e-01 3.604571533203125000e+01 3.820101483142934740e-05 5.529062946152407676e-06 1.311902269662823528e-05 -1.060727299773134291e-05
1.091000000000000000e+03 1.962312936782836914e+00 3.712913131713867188e+01 3.498180012684315443e-05 7.608200576214585453e-06 1.277699993806891143e-05 -1.939562389452476054e-05
1.092000000000000000e+03 8.607717752456665039e-01 3.873303604125976562e+01 5.309049447532743216e-05 5.025113750889431685e-06 1.743468237691558897e-05 -1.324875483987852931e-05
1.093000000000000000e+03 1.243361473083496094e+00 4.008069992065429688e+01 -4.639551843865774572e-05 2.898143520724261180e-06 -1.304921261180425063e-05 7.979792826517950743e-06
1.094000000000000000e+03 1.039120101928710938e+01 1.847038388252258301e+00 4.275763785699382424e-06 5.214770339989627246e-07 1.439172251593845431e-06 -2.795642046748980647e-07
1.095000000000000000e+03 8.933220863342285156e+00 1.871615529060363770e+00 3.689279765239916742e-06 1.467516085540410131e-06 1.547038777971465606e-06 8.304592142849287484e-07
1.096000000000000000e+03 8.212245941162109375e+00 1.875287413597106934e+00 -3.380640237082843669e-06 -1.991965291381347924e-06 -1.611781613064522389e-06 -8.946772709350625519e-07
1.097000000000000000e+03 8.191613197326660156e+00 2.632707595825195312e+00 4.466447535378392786e-06 2.308530838490696624e-06 2.032493512160726823e-06 1.370205495732079726e-06
1.098000000000000000e+03 7.493728637695312500e+00 1.878636956214904785e+00 3.204253971489379182e-06 2.502758889022516087e-06 1.712103880890936125e-06 8.549029644200345501e-07
1.099000000000000000e+03 5.327641487121582031e+00 1.898717284202575684e+00 -2.022000671786372550e-06 -3.975384515797486529e-06 -1.799215624487260357e-06 7.463002020813291892e-07
1.100000000000000000e+03 4.603296279907226562e+00 1.910542726516723633e+00 2.427640310997958295e-06 4.162672667007427663e-06 1.977093916138983332e-06 -1.459976942896901164e-06
1.101000000000000000e+03 3.888244628906250000e+00 1.914785265922546387e+00 -3.558894377420074306e-06 -4.159430773142958060e-06 -2.315497567906277254e-06 1.855832920227840077e-06
1.102000000000000000e+03 3.185057878494262695e+00 1.905249118804931641e+00 4.825908035854808986e-06 3.795301381614990532e-06 2.586362825240939856e-06 -1.100235863304988015e-06
1.103000000000000000e+03 2.490700006484985352e+00 1.888292551040649414e+00 -4.143740625295322388e-06 -3.985705006925854832e-06 -2.438833689666353166e-06 -1.582191799798238208e-07
1.104000000000000000e+03 1.801753282546997070e+00 1.882050633430480957e+00 2.192418605773127638e-06 4.542731858236948028e-06 2.020545025516184978e-06 4.418957644247711869e-07
1.105000000000000000e+03 1.186842346191406250e+01 1.776704668998718262e+00 3.305224936411832459e-06 8.638165809315978549e-07 1.250712443834345322e-06 -1.428049586138513405e-06
1.106000000000000000e+03 1.435987949371337891e+01 2.974348545074462891e+00 -1.204781256092246622e-06 -2.185059884141082875e-06 -1.016952410282101482e-06 4.028164312330773100e-06
1.107000000000000000e+03 1.459918022155761719e+01 3.779654026031494141e+00 7.712614205956924707e-06 1.467279730604786891e-06 2.753968374236137606e-06 -2.120638100677751936e-06
1.108000000000000000e+03 1.479443073272705078e+01 2.010864496231079102e+00 -5.076875368104083464e-06 -1.094755816666292958e-06 -1.851489400905848015e-06 -3.478252210697974078e-07
1.109000000000000000e+03 1.461775875091552734e+01 6.345983982086181641e+00 1.311915366386529058e-05 5.036068273511773441e-07 4.086828084837179631e-06 -1.343473513770732097e-06
1.110000000000000000e+03 1.460260391235351562e+01 7.700541496276855469e+00 -1.507272190792718902e-05 -5.001599561182956677e-07 -4.671864644478773698e-06 7.964529231685446575e-07
1.111000000000000000e+03 1.458000755310058594e+01 9.066505432128906250e+00 1.702751251286827028e-05 3.245814070851338329e-07 5.205628440307918936e-06 -2.018382616597591550e-07
1.112000000000000000e+03 1.451402759552001953e+01 1.181654834747314453e+01 2.128277810697909445e-05 -1.173160342204937479e-07 6.349639079417102039e-06 5.598267875939200167e-07
1.113000000000000000e+03 1.445733642578125000e+01 1.320800113677978516e+01 -2.285349728481378406e-05 6.474724614236038178e-07 -6.661807674390729517e-06 6.362378712765348610e-08
1.114000000000000000e+03 1.439326763153076172e+01 1.461376476287841797e+01 2.447185943310614675e-05 2.552031048708158778e-07 7.418118912028148770e-06 -4.031541607218969148e-07
1.115000000000000000e+03 1.438066864013671875e+01 1.601967430114746094e+01 -2.797463275783229619e-05 -5.435826011535027646e-08 -8.408697794948238879e-06 2.962130096761939058e-08
1.116000000000000000e+03 1.323209667205810547e+01 2.033903312683105469e+01 -3.740678948815912008e-05 -9.696661891211988404e-07 -1.151293599832570180e-05 2.806175643854658119e-06
1.117000000000000000e+03 1.455421352386474609e+01 2.157385253906250000e+01 -4.404738501762039959e-05 -3.523883833622676320e-07 -1.331993280473398045e-05 2.478440819686511531e-06
1.118000000000000000e+03 1.485933113098144531e+01 2.568021965026855469e+01 5.805322143714874983e-05 1.631436248317186255e-06 1.790539681678637862e-05 1.714815425657434389e-06
1.119000000000000000e+03 1.345388126373291016e+01 2.303380393981933594e+01 -4.275959872757084668e-05 -7.569356057501863688e-07 -1.305496061831945553e-05 8.650591780678951181e-07
1.120000000000000000e+03 1.495914936065673828e+01 2.704622268676757812e+01 -6.484037294285371900e-05 -1.040583356370916590e-06 -1.976428575289901346e-05 -4.133113179705105722e-06
1.121000000000000000e+03 1.509258270263671875e+01 2.841164207458496094e+01 7.431802077917382121e-05 2.020414285652805120e-06 2.290153133799321949e-05 6.920228770468384027e-06
1.122000000000000000e+03 1.571155357360839844e+01 3.263043212890625000e+01 -9.286712156608700752e-05 -1.251455159945180640e-06 -2.823557406372856349e-05 9.116117325902450830e-06
1.123000000000000000e+03 1.628215980529785156e+01 3.399696731567382812e+01 1.125023554777726531e-04 -3.332181904625031166e-06 3.275105336797423661e-05 -2.145405596820637584e-05
1.124000000000000000e+03 1.524956130981445312e+01 3.562384414672851562e+01 1.194597207359038293e-04 -1.426415929017821327e-05 3.155866943416185677e-05 -2.577591840235982090e-05
1.125000000000000000e+03 1.717119789123535156e+01 3.647547912597656250e+01 1.658527035033330321e-04 3.942149123759008944e-05 6.158225733088329434e-05 2.263699207105673850e-05
1.126000000000000000e+03 1.940503883361816406e+01 3.843331909179687500e+01 -1.091847589123062789e-04 -5.981441063340753317e-06 -3.454985926509834826e-05 8.971536590252071619e-05
1.127000000000000000e+03 2.165122795104980469e+01 3.829824447631835938e+01 -3.771512638195417821e-05 -8.109507325571030378e-05 -3.564306098269298673e-05 1.274545211344957352e-04
1.128000000000000000e+03 2.416861343383789062e+01 3.861168670654296875e+01 -5.129843339091166854e-05 3.188674745615571737e-04 8.027070725802332163e-05 -1.403858477715402842e-04
1.129000000000000000e+03 2.328505706787109375e+01 3.853882598876953125e+01 -2.599570871097967029e-05 -1.066580225597135723e-04 -3.979611938120797276e-05 1.368834782624617219e-04
1.130000000000000000e+03 2.515081214904785156e+01 3.866020202636718750e+01 1.850934131653048098e-05 -4.101422018720768392e-05 -6.751463843102101237e-06 -7.444201037287712097e-05
1.131000000000000000e+03 2.824240684509277344e+01 3.809006881713867188e+01 1.237010728800669312e-04 5.517865793081000447e-05 5.366391997085884213e-05 -6.205966346897184849e-04
1.132000000000000000e+03 2.917673110961914062e+01 3.807504272460937500e+01 4.902065848000347614e-04 7.595210918225347996e-04 3.749183088075369596e-04 -8.504767902195453644e-04
1.133000000000000000e+03 3.147466468811035156e+01 3.734107589721679688e+01 1.028161728754639626e-03 6.014990503899753094e-04 4.888982512056827545e-04 -1.446779002435505390e-03
1.134000000000000000e+03 3.260551071166992188e+01 3.732706451416015625e+01 1.986275659874081612e-03 9.483463363721966743e-04 8.803866221569478512e-04 -1.696951920166611671e-03
1.135000000000000000e+03 3.262281036376953125e+01 3.696018981933593750e+01 1.533029950223863125e-03 5.672384286299347878e-04 6.300805252976715565e-04 -1.402342342771589756e-03
1.136000000000000000e+03 3.384671783447265625e+01 3.729695510864257812e+01 8.074616198427975178e-04 1.509864232502877712e-03 6.951977848075330257e-04 -1.312505686655640602e-03
1.137000000000000000e+03 3.473539352416992188e+01 3.721974563598632812e+01 7.806036737747490406e-04 2.536521293222904205e-03 9.951374959200620651e-04 -2.999075921252369881e-03
1.138000000000000000e+03 3.634436798095703125e+01 3.679475784301757812e+01 2.879513427615165710e-03 2.392754424363374710e-03 1.581680378876626492e-03 -2.862213645130395889e-03
1.139000000000000000e+03 3.809628677368164062e+01 3.778615570068359375e+01 -5.394201143644750118e-04 -1.554331043735146523e-03 -6.281253299675881863e-04 -1.215869560837745667e-03
1.140000000000000000e+03 3.791176986694335938e+01 3.646741104125976562e+01 2.527938457205891609e-03 2.282748464494943619e-03 1.443206099793314934e-03 -2.789147198200225830e-03
1.141000000000000000e+03 3.966548919677734375e+01 3.634515762329101562e+01 2.958557335659861565e-03 1.664797855482902378e-05 8.925615693442523479e-04 6.966540240682661533e-04
1.142000000000000000e+03 4.045890045166015625e+01 3.603980255126953125e+01 1.226417953148484230e-03 -3.109554061666131020e-03 -5.649408558383584023e-04 -9.796097874641418457e-04
1.143000000000000000e+03 4.099890518188476562e+01 3.557988357543945312e+01 3.770962590351700783e-03 -9.932995308190584183e-04 8.332988945767283440e-04 2.293239347636699677e-03
1.144000000000000000e+03 4.467901611328125000e+01 3.605897140502929688e+01 -5.534349940717220306e-03 -1.360791735351085663e-02 -5.742680281400680542e-03 1.640114746987819672e-02
1.145000000000000000e+03 4.373201751708984375e+01 3.510221099853515625e+01 -1.941937021911144257e-03 -3.948158584535121918e-03 -1.767028588801622391e-03 8.719955570995807648e-03
1.146000000000000000e+03 4.522740936279296875e+01 3.483857345581054688e+01 -8.317420259118080139e-03 -6.502530071884393692e-03 -4.445985425263643265e-03 1.378697436302900314e-02
1.147000000000000000e+03 4.809067916870117188e+01 3.434490966796875000e+01 -3.685460984706878662e-02 -1.884084567427635193e-02 -1.670863665640354156e-02 4.346279799938201904e-02
1.148000000000000000e+03 4.881885528564453125e+01 3.426924133300781250e+01 -4.846230521798133850e-02 -2.987691201269626617e-02 -2.350176498293876648e-02 4.921012744307518005e-02
1.149000000000000000e+03 5.106483840942382812e+01 3.398441696166992188e+01 -9.889290481805801392e-02 -3.152261301875114441e-02 -3.912465646862983704e-02 8.412958681583404541e-02
1.150000000000000000e+03 4.955947494506835938e+01 3.421692276000976562e+01 -6.242321804165840149e-02 -2.625161781907081604e-02 -2.660245075821876526e-02 6.509824842214584351e-02
1.151000000000000000e+03 5.254252243041992188e+01 3.368165206909179688e+01 -1.510589122772216797e-01 -3.734698891639709473e-02 -5.652177333831787109e-02 1.106322780251502991e-01
1.152000000000000000e+03 5.327010726928710938e+01 3.356489181518554688e+01 -1.814195513725280762e-01 -5.080806091427803040e-02 -6.966828554868698120e-02 1.249257251620292664e-01
1.153000000000000000e+03 5.471611022949218750e+01 3.337959671020507812e+01 -2.592127025127410889e-01 -5.759062618017196655e-02 -9.504099935293197632e-02 1.618411391973495483e-01
1.154000000000000000e+03 5.551468276977539062e+01 3.415053558349609375e+01 -2.423063218593597412e-01 -9.607545286417007446e-02 -1.015145331621170044e-01 2.313500195741653442e-01
1.155000000000000000e+03 5.617206954956054688e+01 3.325783157348632812e+01 -3.527698218822479248e-01 -6.803416460752487183e-02 -1.262412071228027344e-01 2.135242223739624023e-01
1.156000000000000000e+03 5.909959030151367188e+01 3.310385131835937500e+01 -6.316177845001220703e-01 -7.477685064077377319e-02 -2.119183987379074097e-01 3.328064978122711182e-01
1.157000000000000000e+03 5.984008026123046875e+01 3.305469894409179688e+01 -7.208077907562255859e-01 -6.981138139963150024e-02 -2.371857613325119019e-01 3.729041516780853271e-01
1.158000000000000000e+03 6.058303833007812500e+01 3.300688171386718750e+01 -8.287537693977355957e-01 -7.118293642997741699e-02 -2.699809968471527100e-01 3.994083106517791748e-01
1.159000000000000000e+03 6.417938232421875000e+01 3.429514694213867188e+01 -7.090055942535400391e-01 -1.736384332180023193e-01 -2.647932171821594238e-01 7.490630149841308594e-01
1.160000000000000000e+03 6.279861450195312500e+01 3.287139129638671875e+01 -1.182289958000183105e+00 -8.062202483415603638e-02 -3.788736164569854736e-01 5.073248744010925293e-01
1.161000000000000000e+03 6.427593994140625000e+01 3.279726409912109375e+01 -1.463349938392639160e+00 -7.045290619134902954e-02 -4.601408541202545166e-01 5.855627655982971191e-01
1.162000000000000000e+03 6.568546295166015625e+01 3.373553085327148438e+01 -1.125929355621337891e+00 -9.851631522178649902e-02 -3.673336803913116455e-01 7.785911560058593750e-01
1.163000000000000000e+03 6.574861907958984375e+01 3.281760787963867188e+01 -1.737712860107421875e+00 -5.870884284377098083e-02 -5.389265418052673340e-01 6.657471060752868652e-01
1.164000000000000000e+03 6.649232482910156250e+01 3.282588958740234375e+01 -1.895975589752197266e+00 -3.675111010670661926e-02 -5.798180103302001953e-01 6.956773400306701660e-01
1.165000000000000000e+03 6.800368499755859375e+01 3.279245758056640625e+01 -2.162564992904663086e+00 1.329393405467271805e-02 -6.447813510894775391e-01 7.114198803901672363e-01
1.166000000000000000e+03 6.949501037597656250e+01 3.271596145629882812e+01 -2.368077993392944336e+00 1.072697937488555908e-01 -6.782424449920654297e-01 5.694234371185302734e-01
1.167000000000000000e+03 7.136640930175781250e+01 3.263029479980468750e+01 -2.249762535095214844e+00 2.787258327007293701e-01 -5.913109779357910156e-01 6.661853939294815063e-02
1.168000000000000000e+03 7.016719818115234375e+01 3.268417739868164062e+01 -2.357105493545532227e+00 1.162210702896118164e-01 -6.722653508186340332e-01 4.669072031974792480e-01
1.169000000000000000e+03 7.251517486572265625e+01 3.260283279418945312e+01 -1.576437473297119141e+00 7.455496788024902344e-01 -2.492663562297821045e-01 -6.948935389518737793e-01
1.170000000000000000e+03 7.355079650878906250e+01 3.250071716308593750e+01 -5.861068964004516602e-01 1.836184501647949219e+00 3.750233054161071777e-01 -2.110791683197021484e+00
1.171000000000000000e+03 7.520371246337890625e+01 3.250698089599609375e+01 5.409666150808334351e-02 1.107283592224121094e+01 3.338079690933227539e+00 -6.678282260894775391e+00
1.172000000000000000e+03 7.657217407226562500e+01 3.242127609252929688e+01 -2.059020042419433594e+00 2.195196342468261719e+01 5.967883110046386719e+00 -1.423411518335342407e-01
1.173000000000000000e+03 7.746872711181640625e+01 3.216424179077148438e+01 8.588581681251525879e-01 1.813152313232421875e+01 5.697113990783691406e+00 3.092613935470581055e+00
1.174000000000000000e+03 7.726588439941406250e+01 3.184083747863769531e+01 2.690044641494750977e+00 1.921797370910644531e+01 6.572405815124511719e+00 3.194516420364379883e+00
1.175000000000000000e+03 7.755126190185546875e+01 3.140740776062011719e+01 5.380984306335449219e+00 1.742756843566894531e+01 6.842566013336181641e+00 2.333125591278076172e+00
1.176000000000000000e+03 7.696298217773437500e+01 2.966244316101074219e+01 4.041481614112854004e-01 2.116257286071777344e+01 6.470016002655029297e+00 -2.584510326385498047e+00
1.177000000000000000e+03 7.684182739257812500e+01 2.948787879943847656e+01 -6.899368166923522949e-01 2.161986923217773438e+01 6.278979778289794922e+00 -1.653429269790649414e+00
1.178000000000000000e+03 7.577870941162109375e+01 2.926359367370605469e+01 -2.212770223617553711e+00 1.783380699157714844e+01 4.686311244964599609e+00 5.812530994415283203e+00
1.179000000000000000e+03 7.420922088623046875e+01 2.919672584533691406e+01 -3.760482966899871826e-01 3.835451364517211914e+00 1.037820935249328613e+00 4.032629489898681641e+00
1.180000000000000000e+03 7.384575653076171875e+01 2.886265754699707031e+01 -6.598687171936035156e-01 3.457027673721313477e+00 8.391477465629577637e-01 3.421414613723754883e+00
1.181000000000000000e+03 7.251115417480468750e+01 2.912793350219726562e+01 -2.422225475311279297e+00 7.519694566726684570e-01 -5.010768175125122070e-01 1.102581501007080078e+00
1.182000000000000000e+03 7.076210784912109375e+01 2.908523559570312500e+01 -3.587633848190307617e+00 1.360962688922882080e-01 -1.035461306571960449e+00 1.264436542987823486e-01
1.183000000000000000e+03 6.947922515869140625e+01 2.906279563903808594e+01 -3.891170501708984375e+00 3.751847147941589355e-02 -1.156095623970031738e+00 -1.323673129081726074e-01
1.184000000000000000e+03 6.725202941894531250e+01 2.903698539733886719e+01 -4.071894168853759766e+00 -2.635708451271057129e-02 -1.229475498199462891e+00 -2.732725739479064941e-01
1.185000000000000000e+03 6.574948120117187500e+01 2.903938865661621094e+01 -4.010824680328369141e+00 -4.089936241507530212e-02 -1.215517163276672363e+00 -2.832159101963043213e-01
1.186000000000000000e+03 6.424127197265625000e+01 2.905271148681640625e+01 -3.874096155166625977e+00 -4.529149830341339111e-02 -1.175816297531127930e+00 -2.692051827907562256e-01
1.187000000000000000e+03 6.044753265380859375e+01 2.918266296386718750e+01 -3.397260904312133789e+00 -3.446125984191894531e-02 -1.029516696929931641e+00 -1.950146108865737915e-01
1.188000000000000000e+03 6.120783233642578125e+01 2.914615440368652344e+01 -3.502598047256469727e+00 -3.571482375264167786e-02 -1.061493873596191406e+00 -2.113475352525711060e-01
1.189000000000000000e+03 5.816935729980468750e+01 2.931904220581054688e+01 -3.066978693008422852e+00 -2.585558593273162842e-02 -9.278503060340881348e-01 -1.467810124158859253e-01
1.190000000000000000e+03 5.513318252563476562e+01 2.956712722778320312e+01 -2.607848882675170898e+00 -1.434948015958070755e-02 -7.866594791412353516e-01 -9.489528089761734009e-02
1.191000000000000000e+03 5.589250183105468750e+01 2.950088119506835938e+01 -2.725262403488159180e+00 -1.818849332630634308e-02 -8.230352997779846191e-01 -1.054344251751899719e-01
1.192000000000000000e+03 5.286187744140625000e+01 2.981151008605957031e+01 -2.266168355941772461e+00 -1.689530210569500923e-03 -6.803573966026306152e-01 -6.656087934970855713e-02
1.193000000000000000e+03 4.832795715332031250e+01 3.041127586364746094e+01 -1.611333727836608887e+00 1.116725057363510132e-02 -4.800499379634857178e-01 -3.881945088505744934e-02
1.194000000000000000e+03 4.983861160278320312e+01 3.019250869750976562e+01 -1.821196079254150391e+00 6.752005778253078461e-03 -5.443332195281982422e-01 -4.289944842457771301e-02
1.195000000000000000e+03 5.059452819824218750e+01 3.009073448181152344e+01 -1.929908514022827148e+00 6.335907150059938431e-03 -5.770717859268188477e-01 -4.668202623724937439e-02
1.196000000000000000e+03 4.682730102539062500e+01 3.065968704223632812e+01 -1.414662361145019531e+00 1.957161165773868561e-02 -4.185272455215454102e-01 -3.514308482408523560e-02
1.197000000000000000e+03 4.235448074340820312e+01 3.146355247497558594e+01 -8.910281658172607422e-01 2.489981614053249359e-02 -2.598384916782379150e-01 -3.829262033104896545e-02
1.198000000000000000e+03 4.309579086303710938e+01 3.132159996032714844e+01 -9.691731333732604980e-01 2.486631087958812714e-02 -2.832920551300048828e-01 -3.666989877820014954e-02
1.199000000000000000e+03 4.384006881713867188e+01 3.118497467041015625e+01 -1.051041364669799805e+00 2.383701503276824951e-02 -3.081612884998321533e-01 -3.486212715506553650e-02
1.200000000000000000e+03 4.088036727905273438e+01 3.175703430175781250e+01 -7.463715672492980957e-01 2.723499573767185211e-02 -2.157409787178039551e-01 -4.080111905932426453e-02
1.201000000000000000e+03 3.646126556396484375e+01 3.260801696777343750e+01 -3.933866024017333984e-01 2.026649378240108490e-02 -1.119360327720642090e-01 -4.823788255453109741e-02
1.202000000000000000e+03 3.936495208740234375e+01 3.136950111389160156e+01 -6.295655369758605957e-01 3.609677404165267944e-02 -1.780406236648559570e-01 -9.574803709983825684e-02
1.203000000000000000e+03 3.499131774902343750e+01 3.290121459960937500e+01 -3.027265667915344238e-01 1.773544959723949432e-02 -8.549733459949493408e-02 -4.730495810508728027e-02
1.204000000000000000e+03 3.425704193115234375e+01 3.304741287231445312e+01 -2.617188394069671631e-01 1.627793721854686737e-02 -7.363227009773254395e-02 -4.589330032467842102e-02
1.205000000000000000e+03 3.352567672729492188e+01 3.319103622436523438e+01 -2.245248407125473022e-01 1.406626682728528976e-02 -6.313757598400115967e-02 -4.425801709294319153e-02
1.206000000000000000e+03 3.061194419860839844e+01 3.373711776733398438e+01 -1.075038537383079529e-01 5.279602482914924622e-03 -3.066727519035339355e-02 -3.349105268716812134e-02
1.207000000000000000e+03 3.206783676147460938e+01 3.347199249267578125e+01 -1.595689803361892700e-01 9.764193557202816010e-03 -4.494143649935722351e-02 -3.962714970111846924e-02
1.208000000000000000e+03 2.915575218200683594e+01 3.397071075439453125e+01 -6.761762499809265137e-02 1.000742428004741669e-03 -1.998506486415863037e-02 -2.627119049429893494e-02
1.209000000000000000e+03 2.842836761474609375e+01 3.408229827880859375e+01 -5.177594348788261414e-02 -6.358280661515891552e-04 -1.572353206574916840e-02 -2.224866300821304321e-02
1.210000000000000000e+03 2.770714187622070312e+01 3.418100357055664062e+01 -3.873940929770469666e-02 -2.487805671989917755e-03 -1.236816402524709702e-02 -1.839077472686767578e-02
1.211000000000000000e+03 2.472268104553222656e+01 3.443024444580078125e+01 -6.540874019265174866e-03 -6.222456693649291992e-03 -3.828999120742082596e-03 -1.782439765520393848e-03
1.212000000000000000e+03 2.626747894287109375e+01 3.434323120117187500e+01 -1.890481635928153992e-02 -5.865697748959064484e-03 -7.431154139339923859e-03 -1.010006479918956757e-02
1.213000000000000000e+03 2.204107475280761719e+01 3.430258178710937500e+01 -5.320464842952787876e-04 1.790675916709005833e-03 3.775888180825859308e-04 5.314846988767385483e-03
1.214000000000000000e+03 7.558734130859375000e+01 2.924367332458496094e+01 -1.620872139930725098e+00 1.576853179931640625e+01 4.244297981262207031e+00 6.679432392120361328e+00
1.215000000000000000e+03 7.815562438964843750e+01 3.616772842407226562e+01 -6.627199053764343262e-01 1.328633117675781250e+01 3.787083625793457031e+00 1.634352207183837891e-01
1.216000000000000000e+03 7.957234954833984375e+01 2.792184448242187500e+01 -2.019513249397277832e-01 1.171588039398193359e+01 3.454178810119628906e+00 -9.940426945686340332e-01
1.217000000000000000e+03 7.641690826416015625e+01 2.919645500183105469e+01 -2.584155559539794922e+00 2.102771186828613281e+01 5.533067226409912109e+00 1.317070722579956055e+00
1.218000000000000000e+03 7.713822174072265625e+01 3.200429534912109375e+01 1.184164047241210938e+00 2.029022598266601562e+01 6.442317008972167969e+00 2.944703102111816406e+00
1.219000000000000000e+03 7.750376892089843750e+01 3.096064949035644531e+01 7.454966068267822266e+00 1.691810417175292969e+01 7.311921119689941406e+00 6.255673170089721680e-01
1.220000000000000000e+03 7.799574279785156250e+01 3.040472793579101562e+01 3.637287616729736328e+00 1.478336143493652344e+01 5.526194572448730469e+00 -1.792116761207580566e+00
1.221000000000000000e+03 7.725154113769531250e+01 2.992011833190917969e+01 2.332078456878662109e+00 1.977693748474121094e+01 6.632705211639404297e+00 -3.445525169372558594e+00
1.222000000000000000e+03 7.820862579345703125e+01 2.977813339233398438e+01 1.670010447502136230e+00 1.429182147979736328e+01 4.788549423217773438e+00 -2.816144943237304688e+00
1.223000000000000000e+03 7.946624755859375000e+01 3.486177062988281250e+01 -1.618717759847640991e-01 1.350050163269042969e+01 4.001588821411132812e+00 5.743565559387207031e-01
1.224000000000000000e+03 7.960137176513671875e+01 2.934816360473632812e+01 1.486221849918365479e-01 8.522115707397460938e+00 2.601221323013305664e+00 -1.168900728225708008e+00
1.225000000000000000e+03 7.822414398193359375e+01 3.090009689331054688e+01 3.619758844375610352e+00 1.379129409790039062e+01 5.223315715789794922e+00 3.831562027335166931e-02
1.226000000000000000e+03 7.938955688476562500e+01 3.622554779052734375e+01 -2.155006676912307739e-01 1.426654624938964844e+01 4.215313434600830078e+00 1.095839515328407288e-01
1.227000000000000000e+03 7.538998413085937500e+01 2.925524520874023438e+01 -1.115319848060607910e+00 1.379524898529052734e+01 3.803978681564331055e+00 6.794684886932373047e+00
1.228000000000000000e+03 7.500659179687500000e+01 2.922681617736816406e+01 -3.111673593521118164e-01 9.205173492431640625e+00 2.668201684951782227e+00 6.390722274780273438e+00
1.229000000000000000e+03 7.442641448974609375e+01 2.919086647033691406e+01 -7.896557450294494629e-02 4.937267780303955078e+00 1.457490682601928711e+00 4.773435592651367188e+00
1.230000000000000000e+03 7.400225830078125000e+01 2.919980049133300781e+01 -6.014060974121093750e-01 3.158958911895751953e+00 7.672657966613769531e-01 3.539435625076293945e+00
1.231000000000000000e+03 7.520607757568359375e+01 2.924101448059082031e+01 -6.149986982345581055e-01 1.106227684020996094e+01 3.134183406829833984e+00 6.558143138885498047e+00
1.232000000000000000e+03 7.337940216064453125e+01 2.915821266174316406e+01 -1.289966583251953125e+00 1.622062087059020996e+00 9.962864220142364502e-02 2.198355436325073242e+00
1.233000000000000000e+03 7.857380676269531250e+01 2.515376281738281250e+01 -3.423368632793426514e-01 1.288006782531738281e+01 3.761319398880004883e+00 1.862196326255798340e-01
1.234000000000000000e+03 7.578427886962890625e+01 3.251934814453125000e+01 -1.808789491653442383e+00 1.735890960693359375e+01 4.665036201477050781e+00 -5.681737422943115234e+00
1.235000000000000000e+03 7.193403625488281250e+01 3.309919357299804688e+01 -1.118575453758239746e+00 7.610000371932983398e-01 -1.072726175189018250e-01 -5.061914920806884766e-01
1.236000000000000000e+03 7.316658020019531250e+01 3.255776214599609375e+01 -1.038944602012634277e+00 1.300803899765014648e+00 7.855776697397232056e-02 -1.318722605705261230e+00
1.237000000000000000e+03 7.458975219726562500e+01 3.259011077880859375e+01 4.314507842063903809e-01 6.145551681518554688e+00 1.973100781440734863e+00 -5.020786285400390625e+00
1.238000000000000000e+03 7.373598480224609375e+01 3.253353500366210938e+01 -3.326941132545471191e-01 2.139857769012451172e+00 5.421490669250488281e-01 -2.508181571960449219e+00
1.239000000000000000e+03 7.481004333496093750e+01 3.259292602539062500e+01 4.149867892265319824e-01 7.612847328186035156e+00 2.408350229263305664e+00 -5.582210063934326172e+00
1.240000000000000000e+03 7.450559997558593750e+01 3.291506195068359375e+01 1.589315682649612427e-01 6.361661434173583984e+00 1.956177949905395508e+00 -4.773478031158447266e+00
1.241000000000000000e+03 7.516790771484375000e+01 3.285490036010742188e+01 -6.888116002082824707e-01 1.125506782531738281e+01 3.169876813888549805e+00 -5.684015274047851562e+00
1.242000000000000000e+03 7.393971252441406250e+01 3.255938720703125000e+01 -1.181197538971900940e-01 2.831483125686645508e+00 8.140090107917785645e-01 -2.956165790557861328e+00
1.243000000000000000e+03 7.538238525390625000e+01 3.250476837158203125e+01 -6.274979114532470703e-01 1.375383090972900391e+01 3.937899827957153320e+00 -6.516363143920898438e+00
1.244000000000000000e+03 2.027784729003906250e+01 3.798348236083984375e+01 -6.840583955636247993e-05 -7.685150194447487593e-05 -4.357720536063425243e-05 8.853369217831641436e-05
1.245000000000000000e+03 1.420742893218994141e+01 1.885032534599304199e+00 2.109364686475601047e-06 7.037925797703792341e-07 8.439471343990589958e-07 -4.888946705250418745e-07
1.246000000000000000e+03 1.257521152496337891e+01 1.747557401657104492e+00 -1.687364260760659818e-06 -1.619974568711768370e-06 -9.922016488417284563e-07 9.105609137805004138e-07
1.247000000000000000e+03 7.134762573242187500e+01 2.797602272033691406e+01 -1.620369434356689453e+00 9.492092728614807129e-01 -2.013480514287948608e-01 1.026923060417175293e+00
1.248000000000000000e+03 7.134336090087890625e+01 2.855299377441406250e+01 -2.363256692886352539e+00 5.651047825813293457e-01 -5.394455790519714355e-01 6.821029186248779297e-01
1.249000000000000000e+03 7.191149139404296875e+01 2.858866119384765625e+01 -2.039908170700073242e+00 8.729070425033569336e-01 -3.501003384590148926e-01 1.054229259490966797e+00
1.250000000000000000e+03 7.136157989501953125e+01 2.910267829895019531e+01 -3.308644056320190430e+00 2.979752123355865479e-01 -9.032006263732910156e-01 3.494503200054168701e-01
1.251000000000000000e+03 7.074545288085937500e+01 2.851239395141601562e+01 -2.609595537185668945e+00 3.778612315654754639e-01 -6.695202589035034180e-01 3.966817557811737061e-01
1.252000000000000000e+03 6.874345397949218750e+01 2.905428695678710938e+01 -4.025542736053466797e+00 8.802574127912521362e-03 -1.205022096633911133e+00 -2.147108316421508789e-01
1.253000000000000000e+03 7.012429046630859375e+01 2.786785888671875000e+01 -2.087894201278686523e+00 4.627328217029571533e-01 -4.875484406948089600e-01 4.414476454257965088e-01
1.254000000000000000e+03 6.875660705566406250e+01 3.275350570678710938e+01 -2.300824403762817383e+00 4.949894919991493225e-02 -6.753976345062255859e-01 6.681530475616455078e-01
1.255000000000000000e+03 7.195000457763671875e+01 3.261106491088867188e+01 -1.949421405792236328e+00 3.851213455200195312e-01 -4.692900180816650391e-01 -1.624672561883926392e-01
1.256000000000000000e+03 7.081773376464843750e+01 3.323910903930664062e+01 -1.439936399459838867e+00 4.255419373512268066e-01 -3.043183386325836182e-01 1.098122820258140564e-01
1.257000000000000000e+03 7.138631439208984375e+01 3.315833663940429688e+01 -1.249585509300231934e+00 4.994010031223297119e-01 -2.250553369522094727e-01 -1.218967214226722717e-01
1.258000000000000000e+03 7.245371246337890625e+01 3.307149505615234375e+01 -8.305619359016418457e-01 1.202777028083801270e+00 1.116645261645317078e-01 -9.315328001976013184e-01
1.259000000000000000e+03 2.052143669128417969e+01 3.900099563598632812e+01 -1.114869618845659716e-07 -1.007989849313162267e-04 -3.027314232895150781e-05 1.596764341229572892e-04
1.260000000000000000e+03 2.298501396179199219e+01 3.977538681030273438e+01 2.182878961320966482e-04 4.402743070386350155e-05 7.869459659559652209e-05 -1.811436814023181796e-04
1.261000000000000000e+03 6.053835391998291016e+00 1.889120578765869141e+00 2.321722377018886618e-06 3.589192147046560422e-06 1.773274448169104289e-06 1.723271338960330468e-07
1.262000000000000000e+03 9.664680480957031250e+00 2.602460384368896484e+00 5.771261839981889352e-06 7.684566298848949373e-07 1.961915586434770375e-06 1.290027739742072299e-06
1.263000000000000000e+03 6.775984764099121094e+00 1.883331894874572754e+00 -2.867471266654320061e-06 -3.004523705385508947e-06 -1.761598468874581158e-06 -6.461512498390220571e-07
1.264000000000000000e+03 7.466710567474365234e+00 2.645855903625488281e+00 -4.350386916485149413e-06 -2.815628022290184163e-06 -2.149804458895232528e-06 -1.326745064034184907e-06
1.265000000000000000e+03 8.184669494628906250e+00 3.410495996475219727e+00 -5.024913662055041641e-06 -2.738961484283208847e-06 -2.329162498426740058e-06 -1.761717498993675690e-06
1.266000000000000000e+03 5.967719078063964844e+00 4.215673923492431641e+00 -3.736999133252538741e-06 -4.725050985143752769e-06 -2.538615035518887453e-06 -2.003807139772106893e-06
1.267000000000000000e+03 1.624636411666870117e+00 7.700969696044921875e+00 -1.597929622221272439e-05 5.994908125472875327e-09 -4.791990704688942060e-06 1.852923332990030758e-06
1.268000000000000000e+03 3.748742938041687012e-01 3.770637512207031250e+00 -1.628153222554828972e-05 -2.750830844888696447e-06 -5.709709057555301115e-06 -3.447345534368650988e-06
1.269000000000000000e+03 1.818561315536499023e+00 2.615850448608398438e+00 -4.741233169625047594e-06 -3.560502818800159730e-06 -2.490520728315459564e-06 -1.293034188165620435e-06
1.270000000000000000e+03 3.829108476638793945e-01 2.093630552291870117e+00 5.355286702979356050e-06 3.293589998065726832e-06 2.594662873889319599e-06 -2.181043555538053624e-06
1.271000000000000000e+03 1.111958503723144531e+00 1.932265281677246094e+00 8.382819487451342866e-07 -5.322277502273209393e-06 -1.345198711533157621e-06 1.794781354647057015e-07
1.272000000000000000e+03 1.113601398468017578e+01 1.815559148788452148e+00 -4.089107278559822589e-06 -5.425478093457059003e-07 -1.389496560477709863e-06 1.001450868898245972e-06
1.273000000000000000e+03 9.691713333129882812e+00 3.353409528732299805e+00 -7.389018719550222158e-06 -7.949622045089199673e-07 -2.455194362482870929e-06 -2.455248022670275532e-06
1.274000000000000000e+03 2.699158096313476562e+01 3.265743255615234375e+01 -5.997555330395698547e-02 -1.382487546652555466e-02 -2.214012853801250458e-02 -3.716777637600898743e-02
1.275000000000000000e+03 2.624752426147460938e+01 3.350060272216796875e+01 -3.458931669592857361e-02 -1.018502935767173767e-02 -1.343230344355106354e-02 -1.961555704474449158e-02
1.276000000000000000e+03 2.293379020690917969e+01 3.437670898437500000e+01 -1.033389940857887268e-03 -2.126785926520824432e-03 -9.480527369305491447e-04 4.906309302896261215e-03
1.277000000000000000e+03 2.417138099670410156e+01 3.117367553710937500e+01 -2.953659370541572571e-02 -3.218065574765205383e-02 -1.851517520844936371e-02 -3.114731423556804657e-02
1.278000000000000000e+03 2.770377159118652344e+01 3.338396835327148438e+01 -5.822259187698364258e-02 -6.181348580867052078e-03 -1.932118274271488190e-02 -3.007476218044757843e-02
1.279000000000000000e+03 2.915189933776855469e+01 3.321076965332031250e+01 -9.018957614898681641e-02 -1.702859299257397652e-03 -2.756773121654987335e-02 -4.173982888460159302e-02
1.280000000000000000e+03 2.987892913818359375e+01 3.311046218872070312e+01 -1.101495847105979919e-01 9.704364929348230362e-04 -3.275374695658683777e-02 -4.745306447148323059e-02
1.281000000000000000e+03 2.842645835876464844e+01 3.330306243896484375e+01 -7.287521660327911377e-02 -4.399159923195838928e-03 -2.318231202661991119e-02 -3.588763251900672913e-02
1.282000000000000000e+03 5.343391799926757812e+01 3.442193222045898438e+01 -1.492318063974380493e-01 -6.592848896980285645e-02 -6.454809010028839111e-02 1.602561473846435547e-01
1.283000000000000000e+03 5.621940231323242188e+01 3.411639404296875000e+01 -2.668480277061462402e-01 -9.344102442264556885e-02 -1.080867201089859009e-01 2.583023607730865479e-01
1.284000000000000000e+03 5.692840194702148438e+01 3.495843887329101562e+01 -1.968488991260528564e-01 -1.408834755420684814e-01 -1.013197153806686401e-01 3.147881329059600830e-01
1.285000000000000000e+03 5.836498641967773438e+01 3.314070892333984375e+01 -5.465362071990966797e-01 -6.784597784280776978e-02 -1.843146681785583496e-01 3.101322650909423828e-01
1.286000000000000000e+03 5.763998031616210938e+01 3.409980392456054688e+01 -3.493601977825164795e-01 -1.067996397614479065e-01 -1.368479430675506592e-01 3.435773849487304688e-01
1.287000000000000000e+03 5.175711441040039062e+01 3.629970932006835938e+01 -3.618274629116058350e-02 -9.872047603130340576e-02 -4.047096520662307739e-02 1.365318745374679565e-01
1.288000000000000000e+03 5.127407836914062500e+01 3.513698959350585938e+01 -7.516026496887207031e-02 -6.578855961561203003e-02 -4.228464514017105103e-02 1.092665717005729675e-01
1.289000000000000000e+03 5.300027465820312500e+01 3.543220138549804688e+01 -8.496277034282684326e-02 -8.849094063043594360e-02 -5.203611403703689575e-02 1.541587561368942261e-01
1.290000000000000000e+03 5.201565551757812500e+01 3.482449340820312500e+01 -9.295362234115600586e-02 -6.383261829614639282e-02 -4.703587293624877930e-02 1.254884302616119385e-01
1.291000000000000000e+03 5.273680496215820312e+01 3.458097076416015625e+01 -1.204955950379371643e-01 -7.410335540771484375e-02 -5.837968364357948303e-02 1.421020925045013428e-01
1.292000000000000000e+03 5.399170684814453125e+01 3.346623229980468750e+01 -2.172140479087829590e-01 -4.316210374236106873e-02 -7.811284810304641724e-02 1.460984945297241211e-01
1.293000000000000000e+03 5.480664443969726562e+01 3.420321273803710938e+01 -1.993292868137359619e-01 -8.153578639030456543e-02 -8.425951749086380005e-02 2.078605294227600098e-01
1.294000000000000000e+03 6.132246398925781250e+01 3.296761703491210938e+01 -9.373324513435363770e-01 -7.535374909639358521e-02 -3.038058578968048096e-01 4.362574219703674316e-01
1.295000000000000000e+03 5.836713409423828125e+01 3.413317489624023438e+01 -3.836165070533752441e-01 -1.377521455287933350e-01 -1.564105898141860962e-01 3.737275302410125732e-01
1.296000000000000000e+03 5.911162567138671875e+01 3.410369110107421875e+01 -4.295468330383300781e-01 -1.296575963497161865e-01 -1.677613258361816406e-01 4.344525933265686035e-01
1.297000000000000000e+03 6.060253143310546875e+01 3.395428848266601562e+01 -5.845147371292114258e-01 -1.215768232941627502e-01 -2.118274718523025513e-01 5.108770132064819336e-01
1.298000000000000000e+03 6.354811096191406250e+01 3.361073303222656250e+01 -9.690527319908142090e-01 -1.274597048759460449e-01 -3.289537429809570312e-01 6.487708687782287598e-01
1.299000000000000000e+03 6.134213638305664062e+01 3.392602157592773438e+01 -6.663349270820617676e-01 -1.282997578382492065e-01 -2.383904010057449341e-01 5.425263643264770508e-01
1.300000000000000000e+03 4.737253189086914062e+01 3.444097137451171875e+01 -2.612177655100822449e-02 -2.413127198815345764e-02 -1.507591456174850464e-02 3.141642361879348755e-02
1.301000000000000000e+03 4.594548034667968750e+01 3.466434097290039062e+01 -1.223432738333940506e-02 -1.945785060524940491e-02 -9.507653303444385529e-03 1.999278739094734192e-02
1.302000000000000000e+03 6.724626922607421875e+01 3.281991195678710938e+01 -2.026997566223144531e+00 -2.444226481020450592e-02 -6.154319047927856445e-01 7.018044590950012207e-01
1.303000000000000000e+03 6.644849395751953125e+01 3.378660583496093750e+01 -1.119250655174255371e+00 -7.130055874586105347e-02 -3.571653366088867188e-01 8.107901215553283691e-01
1.304000000000000000e+03 6.425251770019531250e+01 3.358178710937500000e+01 -1.055864334106445312e+00 -1.164779290556907654e-01 -3.517026901245117188e-01 6.938903331756591797e-01
1.305000000000000000e+03 6.728450012207031250e+01 3.594164276123046875e+01 2.832005918025970459e-01 1.593293249607086182e-01 1.327589750289916992e-01 6.427643299102783203e-01
1.306000000000000000e+03 3.277935409545898438e+01 3.262845611572265625e+01 -2.173430472612380981e-01 1.336839143186807632e-02 -6.119239702820777893e-02 -6.851233541965484619e-02
1.307000000000000000e+03 3.133946228027343750e+01 3.360942077636718750e+01 -1.318038552999496460e-01 7.688893005251884460e-03 -3.723448887467384338e-02 -3.661028295755386353e-02
1.308000000000000000e+03 3.132878875732421875e+01 3.288600921630859375e+01 -1.579401344060897827e-01 7.062272168695926666e-03 -4.526335746049880981e-02 -5.837370082736015320e-02
1.309000000000000000e+03 3.060485267639160156e+01 3.300254058837890625e+01 -1.326885372400283813e-01 4.140947945415973663e-03 -3.856427595019340515e-02 -5.294413864612579346e-02
1.310000000000000000e+03 4.613935089111328125e+01 3.550912857055664062e+01 -1.403355877846479416e-02 -1.646224223077297211e-02 -9.148740209639072418e-03 2.471941523253917694e-02
1.311000000000000000e+03 4.494190979003906250e+01 3.720337677001953125e+01 -7.955986075103282928e-03 -2.908453717827796936e-02 -1.111215725541114807e-02 2.144536934792995453e-02
1.312000000000000000e+03 4.298859405517578125e+01 3.517155456542968750e+01 4.148738516960293055e-04 -8.032733574509620667e-03 -2.285357797518372536e-03 4.765518475323915482e-03
1.313000000000000000e+03 1.176346302032470703e+01 -2.669016361236572266e+00 -5.746470415033400059e-04 1.373712257191073149e-05 -1.682729780441150069e-04 5.729769782192306593e-06
1.314000000000000000e+03 1.026113319396972656e+01 -3.458570718765258789e+00 4.380252794362604618e-04 2.332811127416789532e-04 2.013919147429987788e-04 -1.478073245380073786e-04
1.315000000000000000e+03 1.104294967651367188e+01 -2.668622493743896484e+00 4.911098512820899487e-04 1.050133942044340074e-04 1.788369845598936081e-04 -1.230502675753086805e-04
1.316000000000000000e+03 6.724893951416015625e+01 3.377812957763671875e+01 -1.185957551002502441e+00 -9.885320439934730530e-03 -3.587528467178344727e-01 8.156012892723083496e-01
1.317000000000000000e+03 6.821400451660156250e+01 3.465377044677734375e+01 -3.863733112812042236e-01 2.616440057754516602e-01 -3.741879761219024658e-02 6.841398477554321289e-01
1.318000000000000000e+03 6.954589843750000000e+01 3.343042373657226562e+01 -1.433776140213012695e+00 2.463320791721343994e-01 -3.562332391738891602e-01 5.080450177192687988e-01
1.319000000000000000e+03 4.366563796997070312e+01 3.720470809936523438e+01 -4.145645070821046829e-03 -1.626463420689105988e-02 -6.123083643615245819e-03 1.309103611856698990e-02
1.320000000000000000e+03 4.269722366333007812e+01 3.674597167968750000e+01 -1.285549718886613846e-03 -8.343879133462905884e-03 -2.888828748837113380e-03 7.972773164510726929e-03
1.321000000000000000e+03 4.158816909790039062e+01 3.536553192138671875e+01 2.218515146523714066e-03 -3.098781919106841087e-03 -2.640800666995346546e-04 8.117868565022945404e-04
1.322000000000000000e+03 3.712437057495117188e+01 3.661249923706054688e+01 2.730875974521040916e-03 -9.194192825816571712e-04 5.434369668364524841e-04 -2.343790838494896889e-03
1.323000000000000000e+03 3.727568435668945312e+01 3.918004989624023438e+01 -2.915514400228857994e-03 -5.408722208812832832e-04 -1.036916044540703297e-03 -1.384999486617743969e-03
1.324000000000000000e+03 4.010069274902343750e+01 3.822739028930664062e+01 -6.911760283401235938e-05 -1.106873340904712677e-02 -3.341355361044406891e-03 1.089922734536230564e-03
1.325000000000000000e+03 3.785132598876953125e+01 3.096296882629394531e+01 -5.306564569473266602e-01 3.660022467374801636e-02 -1.482168734073638916e-01 -1.381119638681411743e-01
1.326000000000000000e+03 3.789620971679687500e+01 3.164654922485351562e+01 -5.170572400093078613e-01 3.173097223043441772e-02 -1.455978751182556152e-01 -9.233251959085464478e-02
1.327000000000000000e+03 3.867182540893554688e+01 3.218590164184570312e+01 -5.535395741462707520e-01 2.486194670200347900e-02 -1.586032807826995850e-01 -4.455677047371864319e-02
1.328000000000000000e+03 4.009647369384765625e+01 3.122609329223632812e+01 -6.905937790870666504e-01 3.735040128231048584e-02 -1.959730237722396851e-01 -9.835106134414672852e-02
1.329000000000000000e+03 3.793481826782226562e+01 3.232516860961914062e+01 -4.965497553348541260e-01 2.287649922072887421e-02 -1.421019732952117920e-01 -4.632113128900527954e-02
1.330000000000000000e+03 3.863131713867187500e+01 3.150884246826171875e+01 -5.717033147811889648e-01 3.364010527729988098e-02 -1.614189743995666504e-01 -9.407490491867065430e-02
1.331000000000000000e+03 3.496225357055664062e+01 3.221214294433593750e+01 -3.282062411308288574e-01 2.222791686654090881e-02 -9.179349988698959351e-02 -8.154064416885375977e-02
1.332000000000000000e+03 3.350540542602539062e+01 3.249297714233398438e+01 -2.512949109077453613e-01 1.666731946170330048e-02 -7.038827985525131226e-02 -7.309731841087341309e-02
1.333000000000000000e+03 3.423268127441406250e+01 3.235408782958984375e+01 -2.884495854377746582e-01 1.931708119809627533e-02 -8.073975145816802979e-02 -7.753624767065048218e-02
1.334000000000000000e+03 4.014426040649414062e+01 3.190303993225097656e+01 -6.778316497802734375e-01 2.720169164240360260e-02 -1.951889842748641968e-01 -4.131020605564117432e-02
1.335000000000000000e+03 4.082904815673828125e+01 3.107892990112304688e+01 -7.536398768424987793e-01 3.825041279196739197e-02 -2.146168500185012817e-01 -1.009669974446296692e-01
1.336000000000000000e+03 4.304278564453125000e+01 3.063410758972167969e+01 -9.629487991333007812e-01 3.773574903607368469e-02 -2.775638997554779053e-01 -1.092594563961029053e-01
1.337000000000000000e+03 6.799951171875000000e+01 2.904475784301757812e+01 -4.064389705657958984e+00 -1.066254545003175735e-02 -1.222515702247619629e+00 -2.483633905649185181e-01
1.338000000000000000e+03 6.728038787841796875e+01 2.838258171081542969e+01 -3.347911357879638672e+00 8.773493464104831219e-04 -1.004110217094421387e+00 -2.422270625829696655e-01
1.339000000000000000e+03 6.945983123779296875e+01 2.781984710693359375e+01 -2.296582460403442383e+00 3.163090348243713379e-01 -5.940819978713989258e-01 2.232854962348937988e-01
1.340000000000000000e+03 1.246595478057861328e+01 2.308450460433959961e+00 2.839580474756076001e-06 1.294226649406482466e-06 1.240142069036664907e-06 -1.910478886202326976e-06
1.341000000000000000e+03 1.040847682952880859e+01 2.567360401153564453e+00 -6.442889116442529485e-06 1.831741656133090146e-07 -1.877914428405347280e-06 -2.726083607740292791e-07
1.342000000000000000e+03 1.337088489532470703e+01 2.530479431152343750e+00 2.812852471834048629e-06 2.797482011374086142e-06 1.683100322225072887e-06 4.493719188758404925e-06
1.343000000000000000e+03 4.378922271728515625e+01 3.049194908142089844e+01 -1.038800001144409180e+00 3.809457272291183472e-02 -3.002116084098815918e-01 -1.119249090552330017e-01
1.344000000000000000e+03 4.607770919799804688e+01 3.078614616394042969e+01 -1.317560434341430664e+00 2.228953503072261810e-02 -3.885812461376190186e-01 -3.304050490260124207e-02
1.345000000000000000e+03 4.458480453491210938e+01 3.104997825622558594e+01 -1.136422395706176758e+00 2.402192540466785431e-02 -3.337201476097106934e-01 -3.345250710844993591e-02
1.346000000000000000e+03 4.230020523071289062e+01 3.078061485290527344e+01 -8.896700739860534668e-01 3.837788477540016174e-02 -2.553876638412475586e-01 -1.066636964678764343e-01
1.347000000000000000e+03 3.317193222045898438e+01 3.700358963012695312e+01 2.024893881753087044e-03 7.662437856197357178e-04 8.373413002118468285e-04 -1.910628168843686581e-03
1.348000000000000000e+03 6.505004119873046875e+01 2.835889816284179688e+01 -3.369082927703857422e+00 -4.208884760737419128e-02 -1.023351550102233887e+00 -3.195263445377349854e-01
1.349000000000000000e+03 6.579561614990234375e+01 2.836166191101074219e+01 -3.383144378662109375e+00 -3.577252104878425598e-02 -1.025675058364868164e+00 -3.052281737327575684e-01
1.350000000000000000e+03 6.499639892578125000e+01 2.904514312744140625e+01 -3.949909925460815430e+00 -4.572272300720214844e-02 -1.198689818382263184e+00 -2.776317298412322998e-01
1.351000000000000000e+03 6.429850006103515625e+01 2.836086273193359375e+01 -3.338776588439941406e+00 -4.901270940899848938e-02 -1.016336798667907715e+00 -3.266941308975219727e-01
1.352000000000000000e+03 4.679137802124023438e+01 2.995812034606933594e+01 -1.369773507118225098e+00 3.194977715611457825e-02 -4.013471007347106934e-01 -1.280388981103897095e-01
1.353000000000000000e+03 4.830386352539062500e+01 2.971149444580078125e+01 -1.548187851905822754e+00 2.439786493778228760e-02 -4.571369886398315430e-01 -1.382778435945510864e-01
1.354000000000000000e+03 4.528521728515625000e+01 3.021862983703613281e+01 -1.199162960052490234e+00 3.670105338096618652e-02 -3.487385511398315430e-01 -1.183465421199798584e-01
1.355000000000000000e+03 6.125529479980468750e+01 2.844344902038574219e+01 -3.116133451461791992e+00 -4.616580531001091003e-02 -9.486897587776184082e-01 -3.091198205947875977e-01
1.356000000000000000e+03 6.354140090942382812e+01 2.837013053894042969e+01 -3.294887781143188477e+00 -4.903374239802360535e-02 -1.003176450729370117e+00 -3.286077380180358887e-01
1.357000000000000000e+03 6.348413848876953125e+01 2.906795692443847656e+01 -3.791357040405273438e+00 -4.558540880680084229e-02 -1.151082754135131836e+00 -2.576693594455718994e-01
1.358000000000000000e+03 6.283308029174804688e+01 2.767836189270019531e+01 -2.793232917785644531e+00 -4.585368558764457703e-02 -8.517259955406188965e-01 -3.725130558013916016e-01
1.359000000000000000e+03 5.669043350219726562e+01 2.804178047180175781e+01 -2.378784179687500000e+00 -2.554879337549209595e-02 -7.212998867034912109e-01 -3.286639750003814697e-01
1.360000000000000000e+03 5.892874908447265625e+01 2.927171516418457031e+01 -3.180643796920776367e+00 -2.936523593962192535e-02 -9.630027413368225098e-01 -1.615122854709625244e-01
1.361000000000000000e+03 5.437429428100585938e+01 2.964208221435546875e+01 -2.492247581481933594e+00 -1.190839521586894989e-02 -7.512468099594116211e-01 -8.466710150241851807e-02
1.362000000000000000e+03 5.059279632568359375e+01 2.938880920410156250e+01 -1.833001613616943359e+00 1.396421622484922409e-02 -5.457112193107604980e-01 -1.548088937997817993e-01
1.363000000000000000e+03 5.210541152954101562e+01 2.989826393127441406e+01 -2.151098489761352539e+00 2.210071543231606483e-03 -6.446665525436401367e-01 -5.820940434932708740e-02
1.364000000000000000e+03 4.983013534545898438e+01 2.948945236206054688e+01 -1.736555695533752441e+00 1.804589480161666870e-02 -5.155529379844665527e-01 -1.487278044223785400e-01
1.365000000000000000e+03 4.906620407104492188e+01 2.959679031372070312e+01 -1.641760349273681641e+00 2.014004439115524292e-02 -4.864860773086547852e-01 -1.430175006389617920e-01
1.366000000000000000e+03 5.515303802490234375e+01 2.887635803222656250e+01 -2.420750379562377930e+00 -1.463417056947946548e-02 -7.306153774261474609e-01 -2.092070877552032471e-01
1.367000000000000000e+03 5.592695236206054688e+01 2.810778999328613281e+01 -2.304091930389404297e+00 -2.101458236575126648e-02 -6.975319385528564453e-01 -3.181735873222351074e-01
1.368000000000000000e+03 5.591548538208007812e+01 2.880683326721191406e+01 -2.516644001007080078e+00 -1.818982139229774475e-02 -7.604501247406005859e-01 -2.209354043006896973e-01
1.369000000000000000e+03 5.667654037475585938e+01 2.874168395996093750e+01 -2.611537933349609375e+00 -2.404393255710601807e-02 -7.906745076179504395e-01 -2.326216846704483032e-01
1.370000000000000000e+03 3.099588966369628906e+01 3.903705596923828125e+01 -5.099612753838300705e-04 1.516560092568397522e-03 3.019796276930719614e-04 -8.045195718295872211e-04
1.371000000000000000e+03 2.732370376586914062e+01 3.872898864746093750e+01 -1.180656181531958282e-04 2.530471538193523884e-04 4.049446579301729798e-05 -1.685435854597017169e-04
1.372000000000000000e+03 3.079937362670898438e+01 3.761695480346679688e+01 5.873111076653003693e-04 9.328052401542663574e-04 4.560349043458700180e-04 -7.558073266409337521e-04
1.373000000000000000e+03 3.284424591064453125e+01 3.832863616943359375e+01 4.293110760045237839e-05 5.393741885200142860e-04 1.746915804687887430e-04 -1.419617910869419575e-03
1.374000000000000000e+03 8.056208610534667969e+00 -1.877323508262634277e+00 -2.584548201411962509e-04 -2.018126106122508645e-04 -1.380802277708426118e-04 -8.575020910939201713e-05
1.375000000000000000e+03 9.551238059997558594e+00 -2.647861003875732422e+00 3.442503802943974733e-04 2.038050297414883971e-04 1.644166186451911926e-04 -5.049770334153436124e-05
1.376000000000000000e+03 7.272276401519775391e+00 -2.641837835311889648e+00 -3.034836554434150457e-04 -1.903178344946354628e-04 -1.481404469814151525e-04 -1.940421789186075330e-04
1.377000000000000000e+03 8.032703399658203125e+00 -2.636935710906982422e+00 3.190860152244567871e-04 1.929636637214571238e-04 1.536149065941572189e-04 9.450984362047165632e-05
1.378000000000000000e+03 8.792524337768554688e+00 -2.639475822448730469e+00 -3.212510491721332073e-04 -2.101754507748410106e-04 -1.594279456185176969e-04 -1.862221506598871201e-05
1.379000000000000000e+03 6.527345180511474609e+00 -1.877536296844482422e+00 -3.113170969299972057e-04 -1.053003798006102443e-04 -1.249852357432246208e-04 -2.432045876048505306e-04
1.380000000000000000e+03 6.518687248229980469e+00 -2.648326158523559570e+00 3.808463516179472208e-04 1.382411428494378924e-04 1.557262439746409655e-04 3.038583090528845787e-04
1.381000000000000000e+03 5.060636520385742188e+00 -2.632590055465698242e+00 6.612654542550444603e-04 -1.145786809502169490e-04 1.640060363570228219e-04 5.344821693142876029e-05
1.382000000000000000e+03 1.659805536270141602e+00 -7.927839756011962891e+00 1.379474415443837643e-03 3.571007255231961608e-05 4.245553282089531422e-04 -8.240829629357904196e-05
1.383000000000000000e+03 3.874788761138916016e+00 -3.426061868667602539e+00 3.195402969140559435e-04 -1.529030996607616544e-04 4.999115844839252532e-05 -5.426330608315765858e-05
1.384000000000000000e+03 4.749827384948730469e-01 -3.620249509811401367e+00 1.080736750736832619e-03 -5.584890095633454621e-05 3.074663691222667694e-04 -6.652695446973666549e-05
1.385000000000000000e+03 4.103113114833831787e-01 -2.205102920532226562e+00 -1.034002285450696945e-03 8.371339390578214079e-07 -3.099495661444962025e-04 2.498742651368957013e-05
1.386000000000000000e+03 5.242362618446350098e-01 -5.046918869018554688e+00 -1.086994307115674019e-03 -4.531508238869719207e-05 -3.396928368601948023e-04 8.539677946828305721e-05
1.387000000000000000e+03 2.605419731140136719e+01 3.848939514160156250e+01 -1.354514097329229116e-04 4.959049401804804802e-04 1.081360533135011792e-04 -1.778461009962484241e-04
1.388000000000000000e+03 2.827935981750488281e+01 3.910552597045898438e+01 6.363237480400130153e-05 8.897150983102619648e-04 2.860042441170662642e-04 -8.288540993817150593e-04
1.389000000000000000e+03 2.966666793823242188e+01 3.939846801757812500e+01 -3.705518902279436588e-04 3.066264325752854347e-04 -1.917763256642501801e-05 -6.641595973633229733e-04
1.390000000000000000e+03 2.462226295471191406e+01 4.118077468872070312e+01 -3.886045888066291809e-04 5.460642860271036625e-04 4.723790334537625313e-05 1.718620769679546356e-04
1.391000000000000000e+03 2.399528884887695312e+01 3.995970535278320312e+01 9.027805208461359143e-05 -1.723271852824836969e-04 -2.461473923176527023e-05 2.845539420377463102e-04
1.392000000000000000e+03 2.522480392456054688e+01 4.004981613159179688e+01 -1.494629395892843604e-04 6.759603857062757015e-04 1.579492382006719708e-04 -2.858529333025217056e-04
1.393000000000000000e+03 2.206662940979003906e+01 3.327427291870117188e+01 -2.786195138469338417e-03 9.084938792511820793e-04 -5.633104010485112667e-04 3.557362128049135208e-03
1.394000000000000000e+03 2.565282440185546875e+01 3.193432044982910156e+01 -4.623847082257270813e-02 -2.420330420136451721e-02 -2.113253250718116760e-02 -3.590148314833641052e-02
1.395000000000000000e+03 2.060666275024414062e+01 3.400068664550781250e+01 -1.928995625348761678e-04 1.198351290076971054e-02 3.537183860316872597e-03 4.338259459473192692e-04
1.396000000000000000e+03 2.099025726318359375e+01 3.230566024780273438e+01 -1.209008740261197090e-03 1.405290793627500534e-02 3.853169735521078110e-03 5.571731599047780037e-04
1.397000000000000000e+03 1.988658142089843750e+01 3.876599884033203125e+01 1.277728879358619452e-04 -5.660518218064680696e-05 2.135031354555394500e-05 -5.666784272762015462e-05
1.398000000000000000e+03 2.341398239135742188e+01 -4.125931930541992188e+01 2.890908122062683105e-01 -1.650683641433715820e+00 -4.084778428077697754e-01 4.773266986012458801e-02
1.399000000000000000e+03 1.309782600402832031e+01 -3.700642776489257812e+01 9.121241420507431030e-02 -2.181595563888549805e-02 2.081893756985664368e-02 -4.695887863636016846e-02
1.400000000000000000e+03 1.781041717529296875e+01 -4.131561279296875000e+01 7.101819664239883423e-02 -8.052144050598144531e-01 -2.202588617801666260e-01 -1.770966053009033203e-01
1.401000000000000000e+03 1.247789096832275391e+01 2.569345855712890625e+01 3.900618685293011367e-05 8.682168299856130034e-06 1.430650627298746258e-05 4.217643436277285218e-06
1.402000000000000000e+03 1.305854892730712891e+01 3.205184173583984375e+01 5.213462827668990940e-06 -3.073784682783298194e-05 -7.657315109099727124e-06 4.305719630792737007e-05
1.403000000000000000e+03 1.362391471862792969e+01 3.092071914672851562e+01 -5.345235331333242357e-05 7.090518010954838246e-06 -1.390855049976380542e-05 -1.960318149940576404e-05
1.404000000000000000e+03 1.375517177581787109e+01 2.699982452392578125e+01 5.064665674581192434e-05 5.703344413632294163e-06 1.690499993856064975e-05 8.501330739818513393e-06
1.405000000000000000e+03 1.672978973388671875e+01 3.528128814697265625e+01 -1.162242042482830584e-04 -4.441563305590534583e-06 -3.619972994783893228e-05 3.119940083706751466e-05
1.406000000000000000e+03 1.705695343017578125e+01 3.772883605957031250e+01 -1.487263652961701155e-04 9.602957288734614849e-05 -1.580904063303023577e-05 -6.826225580880418420e-05
1.407000000000000000e+03 1.493108081817626953e+01 3.442053604125976562e+01 -7.898249168647453189e-05 -1.071026417776010931e-06 -2.401605524937622249e-05 1.651815182412974536e-05
1.408000000000000000e+03 1.446338939666748047e+01 1.881625366210937500e+01 -3.657628985820338130e-05 2.730650123794475803e-07 -1.089096804207656533e-05 2.637432316987542436e-06
1.409000000000000000e+03 1.318309020996093750e+01 1.896495056152343750e+01 3.527674925862811506e-05 -1.382101572744431905e-06 1.016839451040141284e-05 -2.712358536882675253e-06
1.410000000000000000e+03 1.475786113739013672e+01 2.431585311889648438e+01 -5.275829971651546657e-05 -6.342900178424315527e-07 -1.601777694304473698e-05 4.097359749266615836e-07
1.411000000000000000e+03 1.380092430114746094e+01 2.831301879882812500e+01 -5.204438639339059591e-05 -7.043924142635660246e-06 -1.772649375197943300e-05 -1.351335686194943264e-05
1.412000000000000000e+03 1.211035251617431641e+01 3.034683036804199219e+01 4.498805355979129672e-05 -1.983471338462550193e-05 7.546001597802387550e-06 2.434943235130049288e-05
1.413000000000000000e+03 1.307497119903564453e+01 1.756833267211914062e+01 -3.388561162864789367e-05 2.973941718664718792e-06 -9.273500836570747197e-06 1.822719355004664976e-06
1.414000000000000000e+03 1.334851169586181641e+01 1.178408527374267578e+01 -1.988185067602898926e-05 -8.611601174379757140e-07 -6.222903266461798921e-06 -4.243246166879544035e-06
1.415000000000000000e+03 1.293562316894531250e+01 1.461423397064208984e+01 -2.687237065401859581e-05 4.921806748825474642e-07 -7.914057277957908809e-06 -4.102973889530403540e-06
1.416000000000000000e+03 1.462128067016601562e+01 5.019104003906250000e+00 -1.077786146197468042e-05 -5.986762516840826720e-07 -3.412961405047099106e-06 1.675731482464470901e-06
1.417000000000000000e+03 1.185125637054443359e+01 2.409488916397094727e+00 -4.537564109341474250e-06 -3.261868073423102032e-07 -1.459125314795528539e-06 1.890640305646229535e-06
1.418000000000000000e+03 1.052983760833740234e+01 4.069545269012451172e+00 -1.070156940841116011e-05 2.051064882380160270e-07 -3.148938958474900573e-06 -2.999610387632856146e-06
1.419000000000000000e+03 1.356897258758544922e+01 7.793867111206054688e+00 1.349774265690939501e-05 9.836387562245363370e-07 4.344414719525957480e-06 9.998303767133620568e-07
1.420000000000000000e+03 1.319083023071289062e+01 1.315906620025634766e+01 2.326324647583533078e-05 -6.315124210232170299e-07 6.789520284655736759e-06 5.232118382991757244e-06
1.421000000000000000e+03 7.934674072265625000e+01 -2.784690475463867188e+01 -3.412767080590128899e-03 4.994161605834960938e+00 1.497224688529968262e+00 1.331995124928653240e-03
1.422000000000000000e+03 7.722190856933593750e+01 -3.770134735107421875e+01 -1.104126684367656708e-02 4.718779087066650391e+00 1.412321329116821289e+00 3.482545539736747742e-02
1.423000000000000000e+03 7.935858917236328125e+01 -3.471237182617187500e+01 -6.190493702888488770e-03 4.946170330047607422e+00 1.481993913650512695e+00 8.312495425343513489e-03
1.424000000000000000e+03 7.932273864746093750e+01 -2.088867950439453125e+01 2.266370225697755814e-03 5.064708232879638672e+00 1.520092368125915527e+00 6.248826626688241959e-03
1.425000000000000000e+03 7.804022216796875000e+01 -2.781802177429199219e+01 -4.745549813378602266e-04 4.842019557952880859e+00 1.452463507652282715e+00 1.113966200500726700e-02
1.426000000000000000e+03 7.799379730224609375e+01 -2.645961952209472656e+01 4.431437700986862183e-03 4.852439403533935547e+00 1.457061290740966797e+00 1.518866326659917831e-02
1.427000000000000000e+03 7.933882904052734375e+01 -3.059931564331054688e+01 3.729538293555378914e-03 4.976175785064697266e+00 1.493971586227416992e+00 -1.175650744698941708e-03
1.428000000000000000e+03 7.803499603271484375e+01 -3.450151062011718750e+01 1.063577248714864254e-03 4.814988613128662109e+00 1.444815635681152344e+00 1.233689673244953156e-02
1.429000000000000000e+03 7.801787567138671875e+01 -3.319197082519531250e+01 -9.261147119104862213e-03 4.811220645904541016e+00 1.440587878227233887e+00 1.210169214755296707e-02
1.430000000000000000e+03 7.491309356689453125e+01 -3.719035339355468750e+01 -6.357252597808837891e-03 4.487961292266845703e+00 1.344481229782104492e+00 -2.857899665832519531e-02
1.431000000000000000e+03 7.628711700439453125e+01 -3.880830764770507812e+01 -3.048720071092247963e-03 4.687236785888671875e+00 1.405256390571594238e+00 8.395167998969554901e-03
1.432000000000000000e+03 7.816889190673828125e+01 1.390898036956787109e+01 5.064578726887702942e-02 8.125808715820312500e+00 2.452936410903930664e+00 5.627877116203308105e-01
1.433000000000000000e+03 7.939108276367187500e+01 1.532162475585937500e+01 1.008803490549325943e-02 9.162370681762695312e+00 2.751737594604492188e+00 2.099404335021972656e-01
1.434000000000000000e+03 7.829965972900390625e+01 2.090566825866699219e+01 2.466008253395557404e-02 1.076906108856201172e+01 3.238116264343261719e+00 8.803383708000183105e-01
1.435000000000000000e+03 7.944938659667968750e+01 2.230017662048339844e+01 -1.398780476301908493e-02 1.273627281188964844e+01 3.816685438156127930e+00 2.692058086395263672e-01
1.436000000000000000e+03 7.956739044189453125e+01 3.205579376220703125e+01 2.735119760036468506e-01 7.828090667724609375e+00 2.430480718612670898e+00 1.182262778282165527e+00
1.437000000000000000e+03 7.949941253662109375e+01 3.346223449707031250e+01 -2.653382420539855957e-01 1.107682609558105469e+01 3.243446588516235352e+00 1.191592335700988770e+00
1.438000000000000000e+03 7.964108276367187500e+01 3.070086669921875000e+01 4.121721982955932617e-01 5.845072269439697266e+00 1.877173304557800293e+00 -1.367810815572738647e-01
1.439000000000000000e+03 7.891178894042968750e+01 3.078274345397949219e+01 1.464900612831115723e+00 1.018299484252929688e+01 3.494368791580200195e+00 -3.493611216545104980e-01
1.440000000000000000e+03 7.956912231445312500e+01 2.648970413208007812e+01 -1.762575358152389526e-01 1.368744468688964844e+01 4.053356170654296875e+00 -3.381392657756805420e-01
1.441000000000000000e+03 7.696175384521484375e+01 1.667228889465332031e+01 1.452599018812179565e-01 8.209388732910156250e+00 2.506394624710083008e+00 1.084968209266662598e+00
1.442000000000000000e+03 7.817117309570312500e+01 1.530352401733398438e+01 5.567491799592971802e-02 8.545216560363769531e+00 2.580267667770385742e+00 6.384271383285522461e-01
1.443000000000000000e+03 7.818576049804687500e+01 1.669728660583496094e+01 5.793244391679763794e-02 9.011894226074218750e+00 2.720947980880737305e+00 7.082456350326538086e-01
1.444000000000000000e+03 7.698220825195312500e+01 1.106891155242919922e+01 9.993688017129898071e-02 6.971829414367675781e+00 2.121529817581176758e+00 6.761381030082702637e-01
1.445000000000000000e+03 7.816647338867187500e+01 8.334156990051269531e+00 3.098266758024692535e-02 6.864128589630126953e+00 2.068533420562744141e+00 3.401083350181579590e-01
1.446000000000000000e+03 7.938966369628906250e+01 9.745471954345703125e+00 7.586807478219270706e-03 7.476912975311279297e+00 2.245349884033203125e+00 1.258468329906463623e-01
1.447000000000000000e+03 7.616057586669921875e+01 2.921160125732421875e+01 -2.657035112380981445e+00 2.005475425720214844e+01 5.219316005706787109e+00 3.052707433700561523e+00
1.448000000000000000e+03 7.932170104980468750e+01 -1.949493217468261719e+01 -3.732653567567467690e-04 5.087424755096435547e+00 1.526115417480468750e+00 8.200592361390590668e-03
1.449000000000000000e+03 7.929472351074218750e+01 -1.390377616882324219e+01 -5.283269565552473068e-04 5.215254306793212891e+00 1.564417839050292969e+00 1.528668962419033051e-02
1.450000000000000000e+03 7.934529113769531250e+01 -6.930055618286132812e+00 1.792654860764741898e-03 5.488038063049316406e+00 1.646949291229248047e+00 2.788708545267581940e-02
1.451000000000000000e+03 7.805059051513671875e+01 1.895850896835327148e-02 1.601893641054630280e-02 5.788815498352050781e+00 1.741450309753417969e+00 1.722698360681533813e-01
1.452000000000000000e+03 7.935398864746093750e+01 1.394368410110473633e+00 3.616386558860540390e-03 6.131281375885009766e+00 1.840469241142272949e+00 6.025613471865653992e-02
1.453000000000000000e+03 7.743456268310546875e+01 2.961463356018066406e+01 1.459710836410522461e+00 1.909658432006835938e+01 6.166888713836669922e+00 -3.344317197799682617e+00
1.454000000000000000e+03 7.711077117919921875e+01 3.962558364868164062e+01 -7.372495718300342560e-03 1.250980281829833984e+01 3.750729084014892578e+00 -5.894694328308105469e-01
1.455000000000000000e+03 7.917066192626953125e+01 3.890131759643554688e+01 -4.440855979919433594e-02 1.354681205749511719e+01 4.050721168518066406e+00 -3.157035112380981445e-01
1.456000000000000000e+03 7.817568969726562500e+01 9.722729682922363281e+00 3.596452251076698303e-02 7.126104831695556641e+00 2.148620843887329102e+00 3.844689726829528809e-01
1.457000000000000000e+03 7.805995178222656250e+01 1.392719388008117676e+00 1.774011552333831787e-02 5.917337894439697266e+00 1.780523419380187988e+00 1.925848871469497681e-01
1.458000000000000000e+03 7.807697296142578125e+01 2.773677825927734375e+00 2.014455199241638184e-02 6.062628269195556641e+00 1.824831843376159668e+00 2.164106220006942749e-01
1.459000000000000000e+03 7.676242828369140625e+01 -1.351865649223327637e+00 3.497450798749923706e-02 5.463449478149414062e+00 1.649527192115783691e+00 2.482137829065322876e-01
1.460000000000000000e+03 7.935039520263671875e+01 -2.767896652221679688e+00 2.598488470539450645e-03 5.753484725952148438e+00 1.726824998855590820e+00 4.113033041357994080e-02
1.461000000000000000e+03 7.805976867675781250e+01 -5.479413032531738281e+00 1.035528723150491714e-02 5.401317596435546875e+00 1.623501896858215332e+00 1.059660539031028748e-01
1.462000000000000000e+03 7.932199859619140625e+01 -9.715368270874023438e+00 6.554335705004632473e-04 5.358862400054931641e+00 1.607855319976806641e+00 2.196782641112804413e-02
1.463000000000000000e+03 7.786747741699218750e+01 -1.384314823150634766e+01 7.206175476312637329e-03 5.048325061798095703e+00 1.516659379005432129e+00 5.369208008050918579e-02
1.464000000000000000e+03 7.787661743164062500e+01 -1.243769264221191406e+01 6.066392175853252411e-03 5.089713573455810547e+00 1.528733968734741211e+00 6.318838149309158325e-02
1.465000000000000000e+03 7.930860900878906250e+01 -1.670166778564453125e+01 -1.327591715380549431e-03 5.144898414611816406e+00 1.543071269989013672e+00 1.111112069338560104e-02
1.466000000000000000e+03 7.796913909912109375e+01 -1.947564697265625000e+01 5.315593909472227097e-03 4.935934066772460938e+00 1.482374906539916992e+00 3.242704272270202637e-02
1.467000000000000000e+03 7.701220703125000000e+01 3.221424102783203125e+01 7.247935235500335693e-02 2.120221138000488281e+01 6.382407188415527344e+00 2.487299442291259766e+00
1.468000000000000000e+03 2.207372856140136719e+01 1.434847593307495117e+00 9.927232749760150909e-03 -1.510210037231445312e+00 -4.500848352909088135e-01 -1.536584794521331787e-01
1.469000000000000000e+03 2.336146736145019531e+01 1.415523290634155273e+00 -5.642928648740053177e-03 -1.378776669502258301e+00 -4.153258800506591797e-01 -2.040930390357971191e-01
1.470000000000000000e+03 2.018728446960449219e+01 -1.393823909759521484e+01 -4.946393892168998718e-02 -2.269579648971557617e+00 -6.957131028175354004e-01 -1.374780535697937012e-01
1.471000000000000000e+03 1.366755962371826172e+01 -3.855446243286132812e+01 8.729223906993865967e-02 -1.968887075781822205e-02 2.028101123869419098e-02 7.187470048666000366e-02
1.472000000000000000e+03 1.986591720581054688e+01 -1.814667129516601562e+01 1.396005973219871521e-02 -1.997518181800842285e+00 -5.950674414634704590e-01 -1.304009407758712769e-01
1.473000000000000000e+03 2.038866233825683594e+01 -5.507443904876708984e+00 2.101079747080802917e-02 -1.775462269783020020e+00 -5.263354182243347168e-01 -9.259255975484848022e-02
1.474000000000000000e+03 2.199301910400390625e+01 5.236263573169708252e-02 1.555970218032598495e-02 -1.566346287727355957e+00 -4.652359783649444580e-01 -1.793899536132812500e-01
1.475000000000000000e+03 2.169540023803710938e+01 -8.267838478088378906e+00 -7.952535524964332581e-03 -1.812165737152099609e+00 -5.460354685783386230e-01 -1.357347369194030762e-01
1.476000000000000000e+03 2.136319351196289062e+01 -1.954522895812988281e+01 3.282888233661651611e-02 -1.939155459403991699e+00 -5.718979835510253906e-01 -1.241191253066062927e-01
1.477000000000000000e+03 2.175593566894531250e+01 -5.494926929473876953e+00 3.488057851791381836e-02 -1.724424958229064941e+00 -5.068633556365966797e-01 -1.381087899208068848e-01
1.478000000000000000e+03 2.146705627441406250e+01 -1.533117771148681641e+01 -3.030176088213920593e-02 -1.955729246139526367e+00 -5.958092808723449707e-01 -9.993773698806762695e-02
1.479000000000000000e+03 2.152964782714843750e+01 -1.391568756103515625e+01 -5.789106711745262146e-02 -1.927693724632263184e+00 -5.956754684448242188e-01 -1.316663175821304321e-01
1.480000000000000000e+03 2.180489540100097656e+01 -4.112895965576171875e+00 1.762885041534900665e-02 -1.685179233551025391e+00 -5.002651214599609375e-01 -1.243803650140762329e-01
1.481000000000000000e+03 2.230796432495117188e+01 7.087173461914062500e+00 -1.119150221347808838e-02 -1.233418822288513184e+00 -3.733831048011779785e-01 -1.580173224210739136e-01
1.482000000000000000e+03 2.477941131591796875e+01 -2.228456306457519531e+01 3.325706347823143005e-02 -1.563827037811279297e+00 -4.591709971427917480e-01 -1.044691205024719238e-01
1.483000000000000000e+03 2.215988731384277344e+01 2.832265377044677734e+00 -3.346794471144676208e-02 -1.449858427047729492e+00 -4.449979066848754883e-01 -1.542208045721054077e-01
1.484000000000000000e+03 1.454953670501708984e+01 -2.484876632690429688e+01 -6.523738615214824677e-03 -1.314382418058812618e-03 -2.351436298340559006e-03 1.570256281411275268e-04
1.485000000000000000e+03 1.261789798736572266e+01 -2.625703430175781250e+01 2.913238946348428726e-03 1.357510220259428024e-03 1.281224773265421391e-03 -1.644865958951413631e-03
1.486000000000000000e+03 2.139921760559082031e+01 -2.678505516052246094e+01 6.643163505941629410e-03 -2.001346588134765625e+00 -5.984110832214355469e-01 -7.063318043947219849e-02
1.487000000000000000e+03 2.099547958374023438e+01 2.678030204772949219e+01 -2.231606049463152885e-03 -5.605278164148330688e-02 -1.748531684279441833e-02 -1.593824289739131927e-02
1.488000000000000000e+03 2.549081993103027344e+01 3.350936126708984375e+01 -2.524807117879390717e-02 -1.203157939016819000e-02 -1.118389517068862915e-02 -1.389665622264146805e-02
1.489000000000000000e+03 2.106558799743652344e+01 1.133001232147216797e+01 -2.534419218136463314e-05 -9.874319434165954590e-01 -2.962372004985809326e-01 -4.733794927597045898e-02
1.490000000000000000e+03 2.098530197143554688e+01 3.096720123291015625e+01 -1.417994732037186623e-03 1.161533221602439880e-02 3.059201175346970558e-03 -2.824727213010191917e-03
1.491000000000000000e+03 1.482968521118164062e+01 -2.152530193328857422e+00 -1.628584141144528985e-04 -2.230381651315838099e-04 -1.157689766841940582e-04 1.327420904999598861e-04
1.492000000000000000e+03 2.166719245910644531e+01 -9.672251701354980469e+00 -2.009092085063457489e-02 -1.846369624137878418e+00 -5.599381327629089355e-01 -1.158299669623374939e-01
1.493000000000000000e+03 2.172145080566406250e+01 -6.877077579498291016e+00 2.570481225848197937e-02 -1.759065389633178711e+00 -5.200081467628479004e-01 -1.378808915615081787e-01
1.494000000000000000e+03 2.232572364807128906e+01 9.917647361755371094e+00 -2.423171885311603546e-03 -1.027317166328430176e+00 -3.089221119880676270e-01 -1.434100419282913208e-01
1.495000000000000000e+03 2.350704574584960938e+01 1.699641227722167969e+01 -9.638832882046699524e-03 -5.362562537193298340e-01 -1.637685298919677734e-01 -1.954212635755538940e-01
1.496000000000000000e+03 2.102141189575195312e+01 2.257765579223632812e+01 -1.423839246854186058e-03 -2.251762598752975464e-01 -6.798002868890762329e-02 -2.936006337404251099e-02
1.497000000000000000e+03 2.323815155029296875e+01 2.531123924255371094e+01 -2.043369784951210022e-02 -1.528887599706649780e-01 -5.199673771858215332e-02 -9.823418408632278442e-02
1.498000000000000000e+03 2.104041099548339844e+01 1.977126502990722656e+01 -9.475417900830507278e-04 -3.840027749538421631e-01 -1.154850944876670837e-01 -3.666803985834121704e-02
1.499000000000000000e+03 2.224747657775878906e+01 1.977999877929687500e+01 -6.087261717766523361e-03 -3.903789818286895752e-01 -1.189398691058158875e-01 -1.075380444526672363e-01
1.500000000000000000e+03 2.344297790527343750e+01 1.980137443542480469e+01 -1.430432964116334915e-02 -3.876566588878631592e-01 -1.205882951617240906e-01 -1.706655174493789673e-01
1.501000000000000000e+03 2.228461265563964844e+01 1.697233772277832031e+01 -4.143856000155210495e-03 -5.560781955718994141e-01 -1.680666208267211914e-01 -1.232424452900886536e-01
1.502000000000000000e+03 2.226794815063476562e+01 1.837766647338867188e+01 -4.542293958365917206e-03 -4.708596467971801758e-01 -1.426205784082412720e-01 -1.161395460367202759e-01
1.503000000000000000e+03 2.211099052429199219e+01 2.812298393249511719e+01 -9.447818621993064880e-03 -5.480729416012763977e-02 -1.927653327584266663e-02 -3.462850674986839294e-02
1.504000000000000000e+03 2.328804588317871094e+01 2.394751548767089844e+01 -2.001930400729179382e-02 -2.021181732416152954e-01 -6.664124131202697754e-02 -1.181070804595947266e-01
1.505000000000000000e+03 2.231081390380859375e+01 1.415361022949218750e+01 -2.449500374495983124e-03 -7.375318408012390137e-01 -2.219944000244140625e-01 -1.335481703281402588e-01
1.506000000000000000e+03 1.321462440490722656e+01 -1.468220806121826172e+01 -2.022585598751902580e-03 -2.410298911854624748e-04 -6.790846236981451511e-04 4.656584642361849546e-04
1.507000000000000000e+03 1.358813667297363281e+01 -8.018982887268066406e+00 1.153929159045219421e-03 4.230757258483208716e-05 3.588710096664726734e-04 -2.453572233207523823e-04
1.508000000000000000e+03 1.460662746429443359e+01 -7.956946372985839844e+00 -1.169686904177069664e-03 -1.670513665885664523e-05 -3.559176111593842506e-04 5.755803795182146132e-05
1.509000000000000000e+03 1.101403903961181641e+01 -3.479207754135131836e+00 -5.452409386634826660e-04 -1.546197308925911784e-04 -2.099582052323967218e-04 2.252748818136751652e-04
1.510000000000000000e+03 1.348388195037841797e+01 -1.200168228149414062e+01 -1.723623136058449745e-03 -5.531655915547162294e-05 -5.336818867363035679e-04 3.911071107722818851e-04
1.511000000000000000e+03 1.456799793243408203e+01 -1.210712909698486328e+01 1.876814058050513268e-03 1.539916956971865147e-05 5.676639848388731480e-04 -1.788811787264421582e-04
1.512000000000000000e+03 1.359886455535888672e+01 -5.364578247070312500e+00 8.497779490426182747e-04 3.762727283174172044e-05 2.662215556483715773e-04 -1.274271635338664055e-04
1.513000000000000000e+03 1.460878086090087891e+01 -5.204695224761962891e+00 -6.812107167206704617e-04 -6.335524176392937079e-06 -2.062638814095407724e-04 -4.348733000369975343e-06
1.514000000000000000e+03 1.448213863372802734e+01 -1.488213920593261719e+01 2.132164547219872475e-03 3.503535481286235154e-05 6.501599564217031002e-04 -2.750989806372672319e-04
1.515000000000000000e+03 1.432254981994628906e+01 -1.907640838623046875e+01 -2.658254699781537056e-03 -1.101293310057371855e-04 -8.305151714012026787e-04 4.036690224893391132e-04
1.516000000000000000e+03 1.358096599578857422e+01 -2.621317291259765625e+01 -5.154385697096586227e-03 -2.019452163949608803e-03 -2.152151195332407951e-03 1.539849559776484966e-03
1.517000000000000000e+03 2.211865043640136719e+01 2.952041435241699219e+01 -7.795695681124925613e-03 -2.959351800382137299e-02 -1.121676340699195862e-02 -2.162581495940685272e-02
1.518000000000000000e+03 2.320444297790527344e+01 2.803309440612792969e+01 -2.151612564921379089e-02 -7.715778052806854248e-02 -2.960217185318470001e-02 -5.987552553415298462e-02
1.519000000000000000e+03 1.267856597900390625e+00 -4.010135269165039062e+01 4.637348465621471405e-03 2.002107538282871246e-02 7.397526875138282776e-03 2.348809735849499702e-03
1.520000000000000000e+03 6.920571327209472656e-01 3.740526962280273438e+01 -4.912879012408666313e-05 -1.294554976993822493e-06 -1.512700328021310270e-05 1.330412305833306164e-05
1.521000000000000000e+03 6.642146706581115723e-01 3.327157592773437500e+01 2.451181717333383858e-05 2.260531346109928563e-06 8.031704055611044168e-06 -6.216340011633292306e-07
1.522000000000000000e+03 2.302396059036254883e+00 3.814110946655273438e+01 -3.817905599134974182e-05 -9.604240403859876096e-06 -1.433498891856288537e-05 1.856351263995748013e-05
1.523000000000000000e+03 6.561614274978637695e-01 2.624699211120605469e+01 -2.714619586186017841e-05 -3.492770872526307357e-07 -8.248642188846133649e-06 -4.843903411710925866e-07
1.524000000000000000e+03 1.937543272972106934e+00 2.906215858459472656e+01 3.300557727925479412e-05 -1.977864940272411332e-06 9.308313565270509571e-06 3.739669409696944058e-06
1.525000000000000000e+03 7.026292681694030762e-01 -3.604462814331054688e+01 -4.278611391782760620e-03 1.086919941008090973e-02 1.977176638320088387e-03 5.708913085982203484e-04
1.526000000000000000e+03 2.154873847961425781e+00 -3.317996215820312500e+01 3.246018895879387856e-03 4.281409084796905518e-03 2.258228370919823647e-03 4.399442113935947418e-03
1.527000000000000000e+03 3.293277978897094727e+00 2.776239776611328125e+01 3.639111309894360602e-05 -2.192120973631972447e-06 1.025969777401769534e-05 2.355906417506048456e-06
1.528000000000000000e+03 3.277533054351806641e+00 2.483402633666992188e+01 2.811762897181324661e-05 2.516423137421952561e-06 9.190215678245294839e-06 3.980322162533411756e-06
1.529000000000000000e+03 2.029631137847900391e+00 3.320954895019531250e+01 -2.618973121570888907e-05 -5.541529390029609203e-06 -9.519378181721549481e-06 -3.423829866733285598e-06
1.530000000000000000e+03 3.210178375244140625e+00 3.915773773193359375e+01 2.887887603719718754e-05 7.908420229796320200e-07 8.900915418053045869e-06 -1.695513310551177710e-05
1.531000000000000000e+03 2.067247152328491211e+00 -3.038705062866210938e+01 3.570907283574342728e-03 8.661291212774813175e-04 1.331110950559377670e-03 1.207629102282226086e-03
1.532000000000000000e+03 1.976013898849487305e+00 -2.757486152648925781e+01 3.246244974434375763e-03 -3.141814086120575666e-04 8.796190377324819565e-04 -2.150413492927327752e-04
1.533000000000000000e+03 2.078321218490600586e+00 -3.713906097412109375e+01 -4.000192508101463318e-03 1.147542335093021393e-02 2.242569345980882645e-03 3.315240144729614258e-03
1.534000000000000000e+03 1.937135815620422363e+00 -2.199663734436035156e+01 2.678692340850830078e-03 -1.819573371903970838e-04 7.490205462090671062e-04 -3.764257708098739386e-04
1.535000000000000000e+03 6.148240566253662109e-01 1.916900062561035156e+01 2.414574191789142787e-05 -4.484698834517075738e-08 7.230268238345161080e-06 -3.183348695756649249e-08
1.536000000000000000e+03 6.174657344818115234e-01 1.349975776672363281e+01 1.909031925606541336e-05 -1.406762493161295424e-07 5.684893039870075881e-06 -4.454500128758809296e-07
1.537000000000000000e+03 5.448365807533264160e-01 7.812008380889892578e+00 1.422404329787241295e-05 3.545462448073521955e-07 4.373576757643604651e-06 -1.492097680966253392e-06
1.538000000000000000e+03 3.664306163787841797e+00 -3.453513717651367188e+01 3.561005461961030960e-03 3.943481016904115677e-03 2.251345897093415260e-03 8.095026016235351562e-03
1.539000000000000000e+03 2.153406858444213867e+00 -3.455619049072265625e+01 -2.014576690271496773e-03 5.431492347270250320e-03 1.025074743665754795e-03 3.978405613452196121e-03
1.540000000000000000e+03 2.120498657226562500e+00 -3.178919410705566406e+01 -1.369114266708493233e-03 1.322414027526974678e-03 -1.401007193635450676e-05 3.088481491431593895e-03
1.541000000000000000e+03 3.253820180892944336e+00 -2.752561187744140625e+01 -3.285314887762069702e-03 3.603590303100645542e-04 -8.774867746978998184e-04 9.754892089404165745e-04
1.542000000000000000e+03 1.950255990028381348e+00 -2.339096069335937500e+01 -2.822934184223413467e-03 -4.626346344593912363e-04 -9.856706019490957260e-04 -2.506544478819705546e-05
1.543000000000000000e+03 1.955812692642211914e+00 -2.617747497558593750e+01 -2.835100982338190079e-03 -3.688485885504633188e-04 -9.611848508939146996e-04 2.069644979201257229e-04
1.544000000000000000e+03 3.169529199600219727e+00 -2.061756324768066406e+01 2.906861715018749237e-03 -7.070825085975229740e-05 8.508460014127194881e-04 -3.021251177415251732e-04
1.545000000000000000e+03 6.320532560348510742e-01 -1.918088150024414062e+01 -2.175821457058191299e-03 -2.471978659741580486e-04 -7.269058260135352612e-04 1.449861656510620378e-06
1.546000000000000000e+03 1.891222834587097168e+00 -1.920171165466308594e+01 2.367730252444744110e-03 -6.978056626394391060e-05 6.893848767504096031e-04 -1.711797085590660572e-04
1.547000000000000000e+03 1.873904347419738770e+00 -1.640279960632324219e+01 2.021657302975654602e-03 4.268969496479257941e-05 6.193040753714740276e-04 -1.307792845182120800e-04
1.548000000000000000e+03 5.992855429649353027e-01 -1.211995697021484375e+01 1.571014989167451859e-03 1.320010505878599361e-05 4.752645327243953943e-04 -6.356737139867618680e-05
1.549000000000000000e+03 1.790719866752624512e+00 -1.214630222320556641e+01 -1.617456204257905483e-03 -7.043327059363946319e-05 -5.063668359071016312e-04 5.823401443194597960e-05
1.550000000000000000e+03 5.064773559570312500e+00 -3.441760063171386719e+00 -1.107963151298463345e-03 1.158077793661504984e-04 -2.976466203108429909e-04 -1.135084748966619372e-04
1.551000000000000000e+03 3.663423061370849609e+00 -2.720171451568603516e+00 1.584782730787992477e-04 -1.087788259610533714e-04 1.490983413532376289e-05 7.210975354610127397e-07
1.552000000000000000e+03 2.855131626129150391e+00 -4.172801017761230469e+00 1.162502681836485863e-03 6.592269055545330048e-04 5.465188878588378429e-04 -5.967392935417592525e-04
1.553000000000000000e+03 1.427904605865478516e+00 -3.576328992843627930e+00 -9.408066398464143276e-04 2.109075721818953753e-04 -2.189697115682065487e-04 -5.539636549656279385e-05
1.554000000000000000e+03 4.495570063591003418e-01 5.020355701446533203e+00 1.540324046800378710e-05 1.320238197877188213e-06 5.017043804400600493e-06 1.222939545186818577e-06
1.555000000000000000e+03 2.355954408645629883e+00 4.448683261871337891e+00 -2.722427780099678785e-06 1.614372877156711183e-06 -3.324164765672321664e-07 -6.627195489272708073e-06
1.556000000000000000e+03 1.739258766174316406e+00 1.057479095458984375e+01 -1.783819243428297341e-05 4.039446537262847414e-07 -5.230274382483912632e-06 2.085454525513341650e-06
1.557000000000000000e+03 5.856282711029052734e-01 1.065195751190185547e+01 1.674546183494385332e-05 -2.466427773128998524e-08 5.016239356336882338e-06 -1.134786771217477508e-06
1.558000000000000000e+03 1.846306920051574707e+00 1.345841598510742188e+01 -2.067636523861438036e-05 5.738187951465079095e-07 -6.030763870512600988e-06 3.011469402736111078e-07
1.559000000000000000e+03 1.827306628227233887e+00 2.058123588562011719e+01 2.736454734986182302e-05 -7.836363238311605528e-07 7.974273103172890842e-06 1.162976900559442583e-06
1.560000000000000000e+03 1.836038470268249512e+00 1.917106819152832031e+01 -2.597086495370604098e-05 3.833236235095682787e-07 -7.676262612221762538e-06 -2.677498400771582965e-07
1.561000000000000000e+03 1.959591746330261230e+00 2.483733940124511719e+01 -2.778461930574849248e-05 -8.993408755486598238e-07 -8.605188668298069388e-06 -2.030202267633285373e-06
1.562000000000000000e+03 7.680661773681640625e+01 3.236189270019531250e+01 -1.087591528892517090e+00 2.137922096252441406e+01 6.087489128112792969e+00 1.400278449058532715e+00
1.563000000000000000e+03 7.500730895996093750e+01 2.897240829467773438e+01 -6.438918709754943848e-01 9.908837318420410156e+00 2.779483556747436523e+00 6.084007740020751953e+00
1.564000000000000000e+03 7.364504241943359375e+01 2.879751014709472656e+01 -7.085210084915161133e-01 2.894994735717773438e+00 6.559420824050903320e-01 3.064998388290405273e+00
1.565000000000000000e+03 7.478106689453125000e+01 2.902927970886230469e+01 -4.113702178001403809e-01 7.695562362670898438e+00 2.185257673263549805e+00 5.658751964569091797e+00
1.566000000000000000e+03 7.462164306640625000e+01 2.922302246093750000e+01 2.161309123039245605e-01 6.022525787353515625e+00 1.871596932411193848e+00 5.512015819549560547e+00
1.567000000000000000e+03 7.315646362304687500e+01 2.914034271240234375e+01 -1.628577589988708496e+00 1.391494512557983398e+00 -7.112490385770797729e-02 1.767475724220275879e+00
1.568000000000000000e+03 7.379657745361328125e+01 2.919623947143554688e+01 -8.105480074882507324e-01 2.516272783279418945e+00 5.117174386978149414e-01 3.006576776504516602e+00
1.569000000000000000e+03 7.874591064453125000e+01 2.786110877990722656e+01 -7.039741277694702148e-01 1.316549777984619141e+01 3.738456964492797852e+00 -1.831480145454406738e+00
1.570000000000000000e+03 7.595787811279296875e+01 2.925643157958984375e+01 -2.519427537918090820e+00 1.897164154052734375e+01 4.935664176940917969e+00 4.421800613403320312e+00
1.571000000000000000e+03 7.406542968750000000e+01 3.297680664062500000e+01 1.670330762863159180e-01 4.566379070281982422e+00 1.420023560523986816e+00 -3.712788105010986328e+00
1.572000000000000000e+03 7.598009490966796875e+01 3.252914810180664062e+01 -2.339424371719360352e+00 1.930401420593261719e+01 5.089376926422119141e+00 -3.955936431884765625e+00
1.573000000000000000e+03 7.534082031250000000e+01 3.273197555541992188e+01 -9.336530566215515137e-01 1.276073646545410156e+01 3.548125028610229492e+00 -5.906704902648925781e+00
1.574000000000000000e+03 7.636824035644531250e+01 3.244793701171875000e+01 -2.368901491165161133e+00 2.180793952941894531e+01 5.831711769104003906e+00 -1.382058739662170410e+00
1.575000000000000000e+03 7.744120025634765625e+01 3.008633995056152344e+01 3.643210887908935547e+00 1.816282653808593750e+01 6.541811466217041016e+00 -3.104445695877075195e+00
1.576000000000000000e+03 7.718572235107421875e+01 2.924488449096679688e+01 -9.368135929107666016e-01 1.912487792968750000e+01 5.456418991088867188e+00 -2.151458024978637695e+00
1.577000000000000000e+03 7.640143585205078125e+01 2.863329696655273438e+01 -2.885493993759155273e+00 1.765799522399902344e+01 4.431750297546386719e+00 1.851062417030334473e+00
1.578000000000000000e+03 7.666474914550781250e+01 2.929872322082519531e+01 -1.911222696304321289e+00 2.147368240356445312e+01 5.868737697601318359e+00 -2.646845877170562744e-01
1.579000000000000000e+03 7.754653167724609375e+01 3.115473747253417969e+01 6.384179115295410156e+00 1.703218269348144531e+01 7.024909019470214844e+00 1.268494725227355957e+00
1.580000000000000000e+03 7.771378326416015625e+01 3.068230438232421875e+01 5.463302135467529297e+00 1.614828300476074219e+01 6.483475208282470703e+00 -6.755226254463195801e-01
1.581000000000000000e+03 7.718840789794921875e+01 2.674206542968750000e+01 -1.843456387519836426e+00 1.364008998870849609e+01 3.538990020751953125e+00 3.559441566467285156e-01
1.582000000000000000e+03 7.742870330810546875e+01 3.167194366455078125e+01 3.873791933059692383e+00 1.843333435058593750e+01 6.692137718200683594e+00 3.271070957183837891e+00
1.583000000000000000e+03 7.840824890136718750e+01 3.487640380859375000e+01 -9.475171566009521484e-01 1.357928180694580078e+01 3.789529323577880859e+00 1.072136759757995605e+00
1.584000000000000000e+03 7.283850860595703125e+01 2.862799835205078125e+01 -1.301197648048400879e+00 1.588213443756103516e+00 8.610474318265914917e-02 1.973910212516784668e+00
1.585000000000000000e+03 7.349633026123046875e+01 3.319627380371093750e+01 -5.789594352245330811e-02 3.064742565155029297e+00 9.020540118217468262e-01 -2.591804504394531250e+00
1.586000000000000000e+03 7.012155914306640625e+01 2.847660827636718750e+01 -2.874212026596069336e+00 2.382184565067291260e-01 -7.907980680465698242e-01 1.770821362733840942e-01
1.587000000000000000e+03 7.190788269042968750e+01 2.801792716979980469e+01 -1.353207349777221680e+00 1.354853510856628418e+00 4.938425845466554165e-04 1.433336615562438965e+00
1.588000000000000000e+03 7.166224670410156250e+01 3.426871490478515625e+01 3.221294283866882324e-02 1.510380148887634277e+00 4.627779126167297363e-01 -7.661643028259277344e-01
1.589000000000000000e+03 7.020940399169921875e+01 3.332705688476562500e+01 -1.443995714187622070e+00 3.043344318866729736e-01 -3.418983817100524902e-01 3.154248297214508057e-01
1.590000000000000000e+03 7.093843078613281250e+01 3.385031509399414062e+01 -5.991480946540832520e-01 6.830845475196838379e-01 2.518094144761562347e-02 -1.670413613319396973e-01
1.591000000000000000e+03 7.244261169433593750e+01 3.355056762695312500e+01 -2.966168820858001709e-01 1.584810137748718262e+00 3.864579796791076660e-01 -1.182844758033752441e+00
1.592000000000000000e+03 6.882205963134765625e+01 3.355215454101562500e+01 -1.360511779785156250e+00 1.802370250225067139e-01 -3.540824353694915771e-01 6.477112174034118652e-01
1.593000000000000000e+03 6.801675415039062500e+01 2.840207862854003906e+01 -3.293030023574829102e+00 3.778605163097381592e-02 -9.765731692314147949e-01 -1.864076554775238037e-01
1.594000000000000000e+03 7.015231323242187500e+01 2.723965835571289062e+01 -1.477779865264892578e+00 7.406625747680664062e-01 -2.211351990699768066e-01 7.007908821105957031e-01
1.595000000000000000e+03 2.698057174682617188e+01 3.345218658447265625e+01 -4.564875736832618713e-02 -8.499735035002231598e-03 -1.624454744160175323e-02 -2.467646077275276184e-02
1.596000000000000000e+03 2.988108634948730469e+01 3.237202453613281250e+01 -1.300832182168960571e-01 -2.910675015300512314e-03 -3.989816829562187195e-02 -6.684496998786926270e-02
1.597000000000000000e+03 2.055924987792968750e+01 3.991805267333984375e+01 -1.561897515784949064e-04 1.047281984938308597e-04 -1.543846337881404907e-05 7.268181070685386658e-05
1.598000000000000000e+03 2.125377655029296875e+01 3.917515945434570312e+01 4.303742753108963370e-05 1.004712903522886336e-04 4.305261609260924160e-05 -9.753242920851334929e-05
1.599000000000000000e+03 1.386923885345458984e+01 2.688550949096679688e+00 -7.391476628981763497e-06 2.869653371817548759e-06 -1.356547045361367054e-06 -1.518047270110400859e-06
1.600000000000000000e+03 3.788887739181518555e+00 2.782730579376220703e+00 4.827207703783642501e-06 4.131927198613993824e-06 2.687740334295085631e-06 -1.864223918346397113e-06
1.601000000000000000e+03 6.012790203094482422e+00 2.669083356857299805e+00 -2.894644467232865281e-06 -4.022228949907002971e-06 -2.075061956929857843e-06 -8.135510825013625436e-07
1.602000000000000000e+03 5.990601539611816406e+00 3.453818082809448242e+00 3.044813638553023338e-06 4.565094968711491674e-06 2.282972445755149238e-06 1.528092866465158295e-06
1.603000000000000000e+03 6.728163719177246094e+00 3.453563451766967773e+00 -4.966564119968097657e-06 -3.716563469424727373e-06 -2.604938345029950142e-06 -2.318693077540956438e-06
1.604000000000000000e+03 8.935003280639648438e+00 3.381216526031494141e+00 5.850740762980422005e-06 2.000663698709104210e-06 2.355421202082652599e-06 2.484928472767933272e-06
1.605000000000000000e+03 6.745913982391357422e+00 2.656712532043457031e+00 3.814159299508901313e-06 3.463676875981036574e-06 2.183350943596451543e-06 1.319953753409208730e-06
1.606000000000000000e+03 7.450488567352294922e+00 3.443473339080810547e+00 5.559576948144240305e-06 2.967769660244812258e-06 2.558203959779348224e-06 1.515135522822674830e-06
1.607000000000000000e+03 4.473343849182128906e+00 3.618317365646362305e+00 1.970870471268426627e-06 5.439835149445571005e-06 2.223211595264729112e-06 -1.365546381748572458e-06
1.608000000000000000e+03 4.519929409027099609e+00 2.750016927719116211e+00 -2.698563775993534364e-06 -4.572971192828845233e-06 -2.181460558858816512e-06 1.795028424567135517e-06
1.609000000000000000e+03 2.430655717849731445e+00 2.688349723815917969e+00 6.581169600394787267e-06 3.589944526538602076e-06 3.051334260817384347e-06 -1.161732825494254939e-06
1.610000000000000000e+03 1.114774703979492188e+01 2.503957986831665039e+00 6.001789643050869927e-06 -3.440608224991592579e-07 1.697318680271564517e-06 -1.165639901046233717e-06
1.611000000000000000e+03 1.122554206848144531e+01 3.221704483032226562e+00 -8.997612894745543599e-06 1.721164721857348923e-06 -2.182934622396714985e-06 8.899964996089693159e-07
1.612000000000000000e+03 2.383498954772949219e+01 3.338711929321289062e+01 -1.179572381079196930e-02 -9.632837958633899689e-03 -6.428568623960018158e-03 -3.300515236333012581e-03
1.613000000000000000e+03 2.475064849853515625e+01 3.252244186401367188e+01 -2.701492421329021454e-02 -2.039503864943981171e-02 -1.422298885881900787e-02 -1.945672556757926941e-02
1.614000000000000000e+03 5.626409912109375000e+01 3.501656341552734375e+01 -1.832647770643234253e-01 -1.478007733821868896e-01 -9.931966662406921387e-02 2.973347008228302002e-01
1.615000000000000000e+03 5.489217376708984375e+01 3.501945877075195312e+01 -1.456803381443023682e-01 -1.256535053253173828e-01 -8.140015602111816406e-02 2.310998588800430298e-01
1.616000000000000000e+03 4.955610656738281250e+01 3.548031234741210938e+01 -4.785592481493949890e-02 -5.395337194204330444e-02 -3.054278902709484100e-02 8.093193918466567993e-02
1.617000000000000000e+03 3.060199928283691406e+01 3.227648544311523438e+01 -1.535183787345886230e-01 6.651561707258224487e-04 -4.585596546530723572e-02 -7.430042326450347900e-02
1.618000000000000000e+03 3.132015228271484375e+01 3.217074203491210938e+01 -1.792315691709518433e-01 4.756756592541933060e-03 -5.234244465827941895e-02 -8.141488581895828247e-02
1.619000000000000000e+03 5.756137847900390625e+01 3.502737808227539062e+01 -1.657070666551589966e-01 -1.992160528898239136e-01 -1.094769388437271118e-01 3.744705915451049805e-01
1.620000000000000000e+03 2.205332183837890625e+01 3.216124343872070312e+01 -5.901527125388383865e-03 -3.835410811007022858e-03 -2.921081380918622017e-03 -1.889542676508426666e-03
1.621000000000000000e+03 2.391678047180175781e+01 3.232109451293945312e+01 -1.845250651240348816e-02 -1.833025552332401276e-02 -1.103482861071825027e-02 -1.253165118396282196e-02
1.622000000000000000e+03 5.264839935302734375e+01 3.668342971801757812e+01 -2.063604630529880524e-02 -1.208984628319740295e-01 -4.246035218238830566e-02 1.514265388250350952e-01
1.623000000000000000e+03 6.282551956176757812e+01 3.372914123535156250e+01 -8.622102141380310059e-01 -1.285118758678436279e-01 -2.972166240215301514e-01 6.089904308319091797e-01
1.624000000000000000e+03 5.993705749511718750e+01 3.493606567382812500e+01 -2.755326628684997559e-01 -1.810686886310577393e-01 -1.369803994894027710e-01 5.324313640594482422e-01
1.625000000000000000e+03 6.135035324096679688e+01 3.493953704833984375e+01 -3.723748922348022461e-01 -1.941866129636764526e-01 -1.699684411287307739e-01 6.193010210990905762e-01
1.626000000000000000e+03 6.636901855468750000e+01 3.484477996826171875e+01 -4.529755711555480957e-01 -7.847804576158523560e-02 -1.594360768795013428e-01 7.991963028907775879e-01
1.627000000000000000e+03 4.192090988159179688e+01 3.861077880859375000e+01 -2.537919674068689346e-03 -1.173244602978229523e-02 -4.281109664589166641e-03 9.316024370491504669e-03
1.628000000000000000e+03 2.843555641174316406e+01 3.253266906738281250e+01 -9.055594354867935181e-02 -9.614334441721439362e-03 -3.005108423531055450e-02 -5.200416594743728638e-02
1.629000000000000000e+03 2.771311378479003906e+01 3.259958648681640625e+01 -7.407561689615249634e-02 -1.231859065592288971e-02 -2.591826394200325012e-02 -4.436487704515457153e-02
1.630000000000000000e+03 5.692556762695312500e+01 3.408840942382812500e+01 -2.978207767009735107e-01 -1.190381646156311035e-01 -1.250576823949813843e-01 2.981352508068084717e-01
1.631000000000000000e+03 5.830862045288085938e+01 3.522623062133789062e+01 -1.970359981060028076e-01 -1.888812780380249023e-01 -1.157751828432083130e-01 4.492591619491577148e-01
1.632000000000000000e+03 5.555866241455078125e+01 3.592462158203125000e+01 -7.707690447568893433e-02 -1.712974011898040771e-01 -7.451229542493820190e-02 2.588888406753540039e-01
1.633000000000000000e+03 5.236166381835937500e+01 3.574197769165039062e+01 -7.619258761405944824e-02 -9.308063238859176636e-02 -5.078196525573730469e-02 1.491003483533859253e-01
1.634000000000000000e+03 5.044888305664062500e+01 3.541550445556640625e+01 -5.464391037821769714e-02 -5.437517538666725159e-02 -3.270572796463966370e-02 9.842586517333984375e-02
1.635000000000000000e+03 5.363861465454101562e+01 3.531513214111328125e+01 -8.964569121599197388e-02 -1.207054555416107178e-01 -6.310534477233886719e-02 1.814092844724655151e-01
1.636000000000000000e+03 5.411557769775390625e+01 3.430130004882812500e+01 -1.715017706155776978e-01 -8.510313928127288818e-02 -7.698146998882293701e-02 1.746569126844406128e-01
1.637000000000000000e+03 5.985984420776367188e+01 3.401466751098632812e+01 -5.086009502410888672e-01 -1.231190934777259827e-01 -1.895160228013992310e-01 4.644581079483032227e-01
1.638000000000000000e+03 6.208444213867187500e+01 3.385422134399414062e+01 -7.535971403121948242e-01 -1.352728456258773804e-01 -2.666609883308410645e-01 5.843338370323181152e-01
1.639000000000000000e+03 4.812189865112304688e+01 3.532627105712890625e+01 -2.860102243721485138e-02 -3.830321878194808960e-02 -2.007127180695533752e-02 4.949270188808441162e-02
1.640000000000000000e+03 4.742707824707031250e+01 3.541834640502929688e+01 -2.377040684223175049e-02 -2.697520516812801361e-02 -1.522368378937244415e-02 4.753792285919189453e-02
1.641000000000000000e+03 6.360472869873046875e+01 3.432022476196289062e+01 -6.772963404655456543e-01 -1.668991297483444214e-01 -2.532586455345153809e-01 6.946704983711242676e-01
1.642000000000000000e+03 6.495903778076171875e+01 3.364859771728515625e+01 -1.104339361190795898e+00 -1.095651462674140930e-01 -3.641713261604309082e-01 7.466648221015930176e-01
1.643000000000000000e+03 3.276030349731445312e+01 3.193005180358886719e+01 -2.388597279787063599e-01 1.269571110606193542e-02 -6.784920394420623779e-02 -9.578948467969894409e-02
1.644000000000000000e+03 3.348138809204101562e+01 3.179896163940429688e+01 -2.727614939212799072e-01 1.633918471634387970e-02 -7.692669332027435303e-02 -1.028581708669662476e-01
1.645000000000000000e+03 4.675046157836914062e+01 3.538692092895507812e+01 -1.218279916793107986e-02 -3.621399402618408203e-02 -1.451903767883777618e-02 3.364235907793045044e-02
1.646000000000000000e+03 1.257054328918457031e+01 2.780952453613281250e+00 -1.792442503756319638e-06 -3.262399559389450587e-07 -6.356047492772631813e-07 2.623532964207697660e-06
1.647000000000000000e+03 9.507758140563964844e+00 -3.429580211639404297e+00 -3.897071001119911671e-04 -2.348789566894993186e-04 -1.873758155852556229e-04 4.186531805316917598e-05
1.648000000000000000e+03 1.359971714019775391e+01 -4.099287509918212891e+00 -8.240680326707661152e-04 4.642097701434977353e-05 -2.332941221538931131e-04 1.370441896142438054e-04
1.649000000000000000e+03 9.448311805725097656e+00 -4.220109462738037109e+00 4.121643723919987679e-04 2.818655921146273613e-04 2.082089922623708844e-04 -6.841860886197537184e-05
1.650000000000000000e+03 4.003887176513671875e+01 3.054533195495605469e+01 -6.942852735519409180e-01 4.444543644785881042e-02 -1.949519515037536621e-01 -1.531833261251449585e-01
1.651000000000000000e+03 6.730405426025390625e+01 3.484323501586914062e+01 -3.550924658775329590e-01 4.780926555395126343e-02 -9.218496084213256836e-02 7.543029189109802246e-01
1.652000000000000000e+03 1.242783927917480469e+01 -2.664478540420532227e+00 3.360605041962116957e-04 1.179423634312115610e-04 1.362008624710142612e-04 1.356392604066058993e-04
1.653000000000000000e+03 7.034384155273437500e+01 3.399019622802734375e+01 -6.751124262809753418e-01 6.508396863937377930e-01 -7.281813770532608032e-03 7.914263010025024414e-02
1.654000000000000000e+03 6.970610809326171875e+01 3.416460800170898438e+01 -6.496949791908264160e-01 5.134826302528381348e-01 -4.086370766162872314e-02 3.410467505455017090e-01
1.655000000000000000e+03 3.716064071655273438e+01 3.178513336181640625e+01 -4.653211236000061035e-01 2.899597957730293274e-02 -1.308975368738174438e-01 -9.042836725711822510e-02
1.656000000000000000e+03 3.931293869018554688e+01 3.068905830383300781e+01 -6.376981139183044434e-01 4.213455319404602051e-02 -1.786690652370452881e-01 -1.477703899145126343e-01
1.657000000000000000e+03 3.642551040649414062e+01 3.192612075805664062e+01 -4.166545271873474121e-01 2.702584117650985718e-02 -1.168886050581932068e-01 -8.810694515705108643e-02
1.658000000000000000e+03 3.858376693725585938e+01 3.082727241516113281e+01 -5.829040408134460449e-01 3.995959088206291199e-02 -1.628833413124084473e-01 -1.427281647920608521e-01
1.659000000000000000e+03 3.569306564331054688e+01 3.206892776489257812e+01 -3.711158931255340576e-01 2.442417666316032410e-02 -1.040075123310089111e-01 -8.507072180509567261e-02
1.660000000000000000e+03 3.779648971557617188e+01 3.027231216430664062e+01 -5.378579497337341309e-01 3.931256383657455444e-02 -1.495636105537414551e-01 -1.831112504005432129e-01
1.661000000000000000e+03 3.420304489135742188e+01 3.166307640075683594e+01 -3.090047836303710938e-01 2.033790759742259979e-02 -8.660005778074264526e-02 -1.095836758613586426e-01
1.662000000000000000e+03 3.492750167846679688e+01 3.152295112609863281e+01 -3.481829762458801270e-01 2.368923649191856384e-02 -9.734811633825302124e-02 -1.161285266280174255e-01
1.663000000000000000e+03 3.638380432128906250e+01 3.123943710327148438e+01 -4.340484738349914551e-01 3.038219548761844635e-02 -1.210998818278312683e-01 -1.279984563589096069e-01
1.664000000000000000e+03 4.149954986572265625e+01 3.024652290344238281e+01 -8.155897855758666992e-01 4.670417308807373047e-02 -2.306656986474990845e-01 -1.652834713459014893e-01
1.665000000000000000e+03 6.510630798339843750e+01 2.765448188781738281e+01 -2.805933713912963867e+00 -2.357067540287971497e-02 -8.488512635231018066e-01 -3.162974417209625244e-01
1.666000000000000000e+03 7.075221252441406250e+01 2.792310714721679688e+01 -1.892515659332275391e+00 6.620728373527526855e-01 -3.691328465938568115e-01 6.988160610198974609e-01
1.667000000000000000e+03 4.372859191894531250e+01 2.979936027526855469e+01 -1.017795562744140625e+00 4.688734933733940125e-02 -2.912724614143371582e-01 -1.844826340675354004e-01
1.668000000000000000e+03 4.297880935668945312e+01 2.994501686096191406e+01 -9.474381208419799805e-01 4.750028252601623535e-02 -2.699813544750213623e-01 -1.779919117689132690e-01
1.669000000000000000e+03 4.447937393188476562e+01 2.965857124328613281e+01 -1.089762449264526367e+00 4.689970612525939941e-02 -3.128588199615478516e-01 -1.907957643270492554e-01
1.670000000000000000e+03 4.453655242919921875e+01 3.035374450683593750e+01 -1.117781162261962891e+00 3.702212125062942505e-02 -3.242277204990386963e-01 -1.150943711400032043e-01
1.671000000000000000e+03 4.603698730468750000e+01 3.008672523498535156e+01 -1.284312844276428223e+00 3.457212820649147034e-02 -3.749222159385681152e-01 -1.232203990221023560e-01
1.672000000000000000e+03 1.354419612884521484e+01 4.214881420135498047e+00 -1.236611024069134146e-05 1.379812744062292040e-07 -3.668438694148790091e-06 -7.805940072103112470e-07
1.673000000000000000e+03 6.658390045166015625e+01 2.768097496032714844e+01 -2.735318422317504883e+00 2.261913008987903595e-02 -8.138097524642944336e-01 -2.286045849323272705e-01
1.674000000000000000e+03 6.584646606445312500e+01 2.766333770751953125e+01 -2.781141519546508789e+00 -2.339542144909501076e-03 -8.350443243980407715e-01 -2.790046632289886475e-01
1.675000000000000000e+03 6.653912353515625000e+01 2.836920356750488281e+01 -3.379434823989868164e+00 -1.881440728902816772e-02 -1.019474744796752930e+00 -2.812493741512298584e-01
1.676000000000000000e+03 4.754616165161132812e+01 2.983264350891113281e+01 -1.458681821823120117e+00 2.781624533236026764e-02 -4.292596876621246338e-01 -1.330640614032745361e-01
1.677000000000000000e+03 4.598780059814453125e+01 2.938868331909179688e+01 -1.239976406097412109e+00 4.341929033398628235e-02 -3.589671552181243896e-01 -2.051308900117874146e-01
1.678000000000000000e+03 6.201969909667968750e+01 2.841238784790039062e+01 -3.182447910308837891e+00 -4.682912677526473999e-02 -9.687830805778503418e-01 -3.192090690135955811e-01
1.679000000000000000e+03 6.359740447998046875e+01 2.766095733642578125e+01 -2.809238672256469727e+00 -4.404363036155700684e-02 -8.559846878051757812e-01 -3.610826134681701660e-01
1.680000000000000000e+03 6.206620025634765625e+01 2.770437049865722656e+01 -2.767763376235961914e+00 -4.991704225540161133e-02 -8.453041315078735352e-01 -3.766636550426483154e-01
1.681000000000000000e+03 6.129544067382812500e+01 2.773742675781250000e+01 -2.732995510101318359e+00 -4.816865175962448120e-02 -8.343492746353149414e-01 -3.761730194091796875e-01
1.682000000000000000e+03 5.972682952880859375e+01 2.852495956420898438e+01 -2.964114665985107422e+00 -3.973519057035446167e-02 -9.011549353599548340e-01 -2.845984995365142822e-01
1.683000000000000000e+03 5.896289062500000000e+01 2.857227706909179688e+01 -2.881300926208496094e+00 -3.477849438786506653e-02 -8.748238086700439453e-01 -2.715571522712707520e-01
1.684000000000000000e+03 5.362944412231445312e+01 2.903204154968261719e+01 -2.225051879882812500e+00 -3.544268663972616196e-03 -6.685788035392761230e-01 -1.887663602828979492e-01
1.685000000000000000e+03 5.439016342163085938e+01 2.895131874084472656e+01 -2.322044610977172852e+00 -8.432062342762947083e-03 -6.991430521011352539e-01 -1.989302933216094971e-01
1.686000000000000000e+03 5.287088012695312500e+01 2.911644935607910156e+01 -2.126899480819702148e+00 2.742650685831904411e-03 -6.372470259666442871e-01 -1.790673136711120605e-01
1.687000000000000000e+03 5.135251617431640625e+01 2.929362487792968750e+01 -1.930500745773315430e+00 1.185947936028242111e-02 -5.755923986434936523e-01 -1.615121215581893921e-01
1.688000000000000000e+03 5.211192703247070312e+01 2.920321846008300781e+01 -2.029771566390991211e+00 7.075641304254531860e-03 -6.068087816238403320e-01 -1.700249165296554565e-01
1.689000000000000000e+03 4.981383895874023438e+01 2.878846740722656250e+01 -1.644411921501159668e+00 2.359873428940773010e-02 -4.862439632415771484e-01 -2.433114647865295410e-01
1.690000000000000000e+03 4.827185821533203125e+01 2.901197814941406250e+01 -1.478056073188781738e+00 3.201083466410636902e-02 -4.338135421276092529e-01 -2.280434370040893555e-01
1.691000000000000000e+03 5.592042160034179688e+01 2.740406608581542969e+01 -2.087648153305053711e+00 -2.090066485106945038e-02 -6.325646638870239258e-01 -3.995285034179687500e-01
1.692000000000000000e+03 5.516210174560546875e+01 2.817904281616210938e+01 -2.225757598876953125e+00 -1.404052600264549255e-02 -6.719394326210021973e-01 -3.083153665065765381e-01
1.693000000000000000e+03 5.438457107543945312e+01 2.755460929870605469e+01 -1.964800953865051270e+00 -7.998662069439888000e-03 -5.918399095535278320e-01 -3.824751973152160645e-01
1.694000000000000000e+03 4.523158264160156250e+01 2.952189445495605469e+01 -1.164488554000854492e+00 4.515779018402099609e-02 -3.357992470264434814e-01 -1.979907453060150146e-01
1.695000000000000000e+03 4.223498916625976562e+01 3.009475517272949219e+01 -8.804470300674438477e-01 4.689606651663780212e-02 -2.500652968883514404e-01 -1.717188209295272827e-01
1.696000000000000000e+03 6.508411407470703125e+00 -3.456851482391357422e+00 -3.611399442888796329e-04 -2.325180248590186238e-04 -1.780973834684118629e-04 -3.261444799136370420e-04
1.697000000000000000e+03 2.775602340698242188e+00 -7.970924377441406250e+00 -1.340751186944544315e-03 -7.606274448335170746e-05 -4.250441852491348982e-04 1.009226689347997308e-04
1.698000000000000000e+03 7.960185050964355469e+00 -4.966411590576171875e+00 -7.469332194887101650e-04 -9.139352914644405246e-05 -2.514980151318013668e-04 -3.452108940109610558e-04
1.699000000000000000e+03 5.775877475738525391e+00 -3.476344108581542969e+00 7.055064779706299305e-04 1.125425696955062449e-04 2.454147324897348881e-04 4.371991381049156189e-04
1.700000000000000000e+03 5.781177997589111328e+00 -2.646508932113647461e+00 -5.785443354398012161e-04 1.755067387421149760e-05 -1.682980946497991681e-04 -2.933332871180027723e-04
1.701000000000000000e+03 2.266348123550415039e+00 -3.301676034927368164e+00 9.824168955674394965e-05 -4.476889153011143208e-04 -1.048341728164814413e-04 9.557393059367313981e-05
1.702000000000000000e+03 4.938272476196289062e+00 -4.345724582672119141e+00 1.375351217575371265e-03 1.204044310725294054e-04 4.487266996875405312e-04 2.401554811513051391e-04
1.703000000000000000e+03 1.583609342575073242e+00 -5.055289745330810547e+00 1.094039995223283768e-03 8.187193452613428235e-05 3.527735825628042221e-04 -6.497597496490925550e-05
1.704000000000000000e+03 8.754371643066406250e+00 -3.411158084869384766e+00 3.984473296441137791e-04 1.987262949114665389e-04 1.791520917322486639e-04 2.472279447829350829e-05
1.705000000000000000e+03 5.975651550292968750e+01 2.782215499877929688e+01 -2.640069484710693359e+00 -4.313587769865989685e-02 -8.049616217613220215e-01 -3.656509518623352051e-01
1.706000000000000000e+03 6.052514648437500000e+01 2.777719688415527344e+01 -2.690338611602783203e+00 -4.731332510709762573e-02 -8.212956190109252930e-01 -3.724318742752075195e-01
1.707000000000000000e+03 5.745466232299804688e+01 2.798032951354980469e+01 -2.450968027114868164e+00 -3.171785920858383179e-02 -7.448057532310485840e-01 -3.388391137123107910e-01
1.708000000000000000e+03 2.670930862426757812e+01 4.030550003051757812e+01 -1.987584255402907729e-04 3.404872550163418055e-04 4.251864811521954834e-05 -2.916102239396423101e-04
1.709000000000000000e+03 2.788567924499511719e+01 3.998014831542968750e+01 -4.540557856671512127e-04 9.032361558638513088e-04 1.347541110590100288e-04 -2.833271864801645279e-04
1.710000000000000000e+03 2.296281814575195312e+01 3.331128692626953125e+01 -6.472875829786062241e-03 -6.055112462490797043e-03 -3.758396254852414131e-03 7.783678011037409306e-04
1.711000000000000000e+03 2.213180541992187500e+01 4.170545578002929688e+01 1.260811404790729284e-04 -5.541229256778024137e-05 2.120065437338780612e-05 1.920416398206725717e-04
1.712000000000000000e+03 1.885453987121582031e+01 3.771964263916015625e+01 6.826368462498066947e-06 1.291314110858365893e-04 4.078733400092460215e-05 3.142054765703505836e-06
1.713000000000000000e+03 1.144954204559326172e+01 1.650027847290039062e+01 -2.235266947536729276e-05 2.713222784223034978e-07 -6.624403795285616070e-06 5.213836629991419613e-06
1.714000000000000000e+03 1.234829139709472656e+01 1.040149593353271484e+01 -1.387907468597404659e-05 -3.428312311370973475e-06 -5.192216121940873563e-06 -4.232384071656269953e-06
1.715000000000000000e+03 1.255282497406005859e+01 2.692952346801757812e+01 -4.151807661401107907e-05 -9.532967851555440575e-06 -1.531531233922578394e-05 -7.018165888439398259e-06
1.716000000000000000e+03 2.298643302917480469e+01 -1.103218746185302734e+01 -2.150897495448589325e-02 -1.716675996780395508e+00 -5.214555263519287109e-01 -1.572918593883514404e-01
1.717000000000000000e+03 2.329371833801269531e+01 3.662039339542388916e-02 2.843950409442186356e-03 -1.418067336082458496e+00 -4.245670139789581299e-01 -2.045003920793533325e-01
1.718000000000000000e+03 2.448049926757812500e+01 -6.781486511230468750e+00 2.520254068076610565e-02 -1.467959165573120117e+00 -4.328269958496093750e-01 -1.982537060976028442e-01
1.719000000000000000e+03 2.308762741088867188e+01 -6.840001583099365234e+00 2.168595418334007263e-02 -1.625262260437011719e+00 -4.810729026794433594e-01 -1.754479855298995972e-01
1.720000000000000000e+03 2.286074447631835938e+01 -1.807766723632812500e+01 3.188603743910789490e-02 -1.785929441452026367e+00 -5.262129902839660645e-01 -1.113674119114875793e-01
1.721000000000000000e+03 2.192666435241699219e+01 -1.331608414649963379e+00 -1.306861732155084610e-02 -1.577481985092163086e+00 -4.771651625633239746e-01 -1.822243779897689819e-01
1.722000000000000000e+03 2.323312377929687500e+01 -1.335845232009887695e+00 1.873584813438355923e-03 -1.461585402488708496e+00 -4.379135668277740479e-01 -1.967819482088088989e-01
1.723000000000000000e+03 1.163261890411376953e+01 3.129969215393066406e+01 -4.937949779559858143e-05 4.248980985721573234e-05 -2.066906745312735438e-06 -3.606476821005344391e-05
1.724000000000000000e+03 1.419231510162353516e+01 3.317640304565429688e+01 5.395468906499445438e-05 3.165099042234942317e-05 2.568170384620316327e-05 -2.350615613977424800e-05
1.725000000000000000e+03 1.331952095031738281e+01 2.168850708007812500e+01 4.003196590929292142e-05 1.336556692876911256e-06 1.241055724676698446e-05 -1.379801688017323613e-06
1.726000000000000000e+03 1.180557155609130859e+01 1.782000350952148438e+01 3.055980778299272060e-05 -2.484689730408717878e-06 8.422534847341012210e-06 -3.527544095049961470e-06
1.727000000000000000e+03 2.285733604431152344e+01 -1.667701339721679688e+01 1.268847379833459854e-02 -1.777331948280334473e+00 -5.293930172920227051e-01 -9.692358225584030151e-02
1.728000000000000000e+03 1.161673164367675781e+01 1.424611473083496094e+01 1.151442211266839877e-05 4.370449005364207551e-06 4.765461198985576630e-06 1.190665170724969357e-05
1.729000000000000000e+03 1.360110855102539062e+01 6.513222694396972656e+00 -1.199379767058417201e-05 -7.185792014752223622e-07 -3.813713192357681692e-06 -5.363812078940100037e-07
1.730000000000000000e+03 1.059922695159912109e+01 4.868422985076904297e+00 1.112859536078758538e-05 1.261133434127259534e-06 3.716918627105769701e-06 4.285464456188492477e-06
1.731000000000000000e+03 1.100155639648437500e+01 1.267008495330810547e+01 7.491403266612906009e-06 9.605387276678811759e-06 5.129037162987515330e-06 8.104315384116489440e-06
1.732000000000000000e+03 1.360169696807861328e+01 5.294933319091796875e+00 1.111988876800751314e-05 6.331871560405488708e-08 3.354962245794013143e-06 3.078661734434717800e-07
1.733000000000000000e+03 8.968873023986816406e+00 4.149509906768798828e+00 -6.813504114688839763e-06 -2.254716491734143347e-06 -2.720466227401630022e-06 -3.441503167778137140e-06
1.734000000000000000e+03 1.267397499084472656e+01 -3.078373146057128906e+01 -3.922024276107549667e-03 -3.433563280850648880e-03 -2.206676173955202103e-03 3.093189327046275139e-03
1.735000000000000000e+03 1.190421676635742188e+01 2.048436737060546875e+01 3.612806176533922553e-05 1.195538970932830125e-06 1.119708031183108687e-05 -2.672165066996967653e-07
1.736000000000000000e+03 7.509513854980468750e+01 -3.483229064941406250e+01 -1.366406958550214767e-02 4.466969490051269531e+00 1.335991621017456055e+00 -3.264027647674083710e-03
1.737000000000000000e+03 7.702847290039062500e+01 -3.580168151855468750e+01 -1.548597682267427444e-02 4.686550617218017578e+00 1.401319384574890137e+00 1.980100572109222412e-02
1.738000000000000000e+03 7.530966949462890625e+01 -2.362440681457519531e+01 1.330895815044641495e-02 4.562990188598632812e+00 1.372889757156372070e+00 5.227708071470260620e-02
1.739000000000000000e+03 7.801217651367187500e+01 -2.915125465393066406e+01 -2.290719421580433846e-03 4.836947441101074219e+00 1.450397014617919922e+00 8.279478177428245544e-03
1.740000000000000000e+03 7.338064575195312500e+01 -3.763499450683593750e+01 -6.974320858716964722e-04 4.239868640899658203e+00 1.271751284599304199e+00 8.799577481113374233e-04
1.741000000000000000e+03 7.825362396240234375e+01 1.949975204467773438e+01 4.581345245242118835e-02 1.013526344299316406e+01 3.054322957992553711e+00 8.369046449661254883e-01
1.742000000000000000e+03 7.581830596923828125e+01 1.808221817016601562e+01 2.413806617259979248e-01 7.672285556793212891e+00 2.374099969863891602e+00 1.465393543243408203e+00
1.743000000000000000e+03 7.477128601074218750e+01 3.318478393554687500e+01 -2.864528298377990723e-01 8.319293975830078125e+00 2.409852266311645508e+00 -4.914549827575683594e+00
1.744000000000000000e+03 7.081619262695312500e+01 2.666200637817382812e+01 -8.208878040313720703e-01 1.414613366127014160e+00 1.781176477670669556e-01 1.262339234352111816e+00
1.745000000000000000e+03 7.796717071533203125e+01 -2.226137161254882812e+01 4.148970823734998703e-03 4.892025947570800781e+00 1.468852519989013672e+00 2.186316065490245819e-02
1.746000000000000000e+03 7.660765075683593750e+01 -2.366402244567871094e+01 6.105915643274784088e-03 4.714587688446044922e+00 1.416208028793334961e+00 3.253174945712089539e-02
1.747000000000000000e+03 7.647636413574218750e+01 -3.039482879638671875e+01 5.818418227136135101e-03 4.653813838958740234e+00 1.397889614105224609e+00 1.290343794971704483e-02
1.748000000000000000e+03 7.663485717773437500e+01 -2.902171134948730469e+01 -6.892387173138558865e-04 4.662892818450927734e+00 1.398661017417907715e+00 1.938845776021480560e-02
1.749000000000000000e+03 7.661371612548828125e+01 -2.652463340759277344e+01 5.370154511183500290e-03 4.703067302703857422e+00 1.412531137466430664e+00 2.775292657315731049e-02
1.750000000000000000e+03 7.677460479736328125e+01 -2.782879829406738281e+01 5.478417500853538513e-03 4.702811241149902344e+00 1.412486910820007324e+00 2.353971637785434723e-02
1.751000000000000000e+03 7.660039520263671875e+01 -3.305325317382812500e+01 -6.343677639961242676e-03 4.649213790893554688e+00 1.392861008644104004e+00 1.079144328832626343e-02
1.752000000000000000e+03 7.657888031005859375e+01 -3.442550659179687500e+01 -1.263583078980445862e-02 4.647038936614990234e+00 1.390320897102355957e+00 1.790166273713111877e-02
1.753000000000000000e+03 7.282694244384765625e+01 -2.954822540283203125e+01 1.931921578943729401e-02 4.207664966583251953e+00 1.268095135688781738e+00 4.166240617632865906e-02
1.754000000000000000e+03 7.697129821777343750e+01 1.246179866790771484e+01 1.091353669762611389e-01 7.232843875885009766e+00 2.202593803405761719e+00 7.698982357978820801e-01
1.755000000000000000e+03 7.817350006103515625e+01 1.250853919982910156e+01 4.312030971050262451e-02 7.755017280578613281e+00 2.339441299438476562e+00 4.975498914718627930e-01
1.756000000000000000e+03 7.453128051757812500e+01 1.362994861602783203e+01 3.185817301273345947e-01 6.222989559173583984e+00 1.962471365928649902e+00 1.222003936767578125e+00
1.757000000000000000e+03 7.872375488281250000e+01 2.651512718200683594e+01 -6.477497220039367676e-01 1.315856170654296875e+01 3.753243684768676758e+00 -6.387876868247985840e-01
1.758000000000000000e+03 7.695233917236328125e+01 1.386687469482421875e+01 1.197330504655838013e-01 7.532310962677001953e+00 2.295613288879394531e+00 8.686511516571044922e-01
1.759000000000000000e+03 7.797340393066406250e+01 -2.086620712280273438e+01 3.296044189482927322e-03 4.912715435028076172e+00 1.474803447723388672e+00 2.714771777391433716e-02
1.760000000000000000e+03 7.663259124755859375e+01 -2.224026870727539062e+01 9.048688225448131561e-03 4.737147808074951172e+00 1.423859000205993652e+00 4.102505370974540710e-02
1.761000000000000000e+03 7.814955902099609375e+01 6.944769859313964844e+00 2.700650133192539215e-02 6.627617835998535156e+00 1.996387243270874023e+00 3.020469248294830322e-01
1.762000000000000000e+03 7.503327941894531250e+01 -1.529408931732177734e+01 2.345340326428413391e-02 4.651598930358886719e+00 1.402515649795532227e+00 1.098519787192344666e-01
1.763000000000000000e+03 7.545466613769531250e+01 -7.975291728973388672e+00 3.779906034469604492e-02 4.918915748596191406e+00 1.487014412879943848e+00 1.917150318622589111e-01
1.764000000000000000e+03 7.789167785644531250e+01 -1.525807476043701172e+01 2.886058762669563293e-03 5.015818595886230469e+00 1.505611419677734375e+00 4.808001965284347534e-02
1.765000000000000000e+03 7.549016571044921875e+01 -1.374873876571655273e+00 6.452041864395141602e-02 5.228504657745361328e+00 1.587907552719116211e+00 3.308360576629638672e-01
1.766000000000000000e+03 7.801387023925781250e+01 -8.231847763061523438e+00 8.611142635345458984e-03 5.258765220642089844e+00 1.580212831497192383e+00 8.435605466365814209e-02
1.767000000000000000e+03 7.812656402587890625e+01 5.553409099578857422e+00 2.406752482056617737e-02 6.416888236999511719e+00 1.932286620140075684e+00 2.692991793155670166e-01
1.768000000000000000e+03 7.550157165527343750e+01 2.765791893005371094e+00 9.447045624256134033e-02 5.516199588775634766e+00 1.683200955390930176e+00 4.598555564880371094e-01
1.769000000000000000e+03 7.737056732177734375e+01 2.382835197448730469e+01 -3.761121332645416260e-01 1.107397556304931641e+01 3.209358930587768555e+00 1.154999375343322754e+00
1.770000000000000000e+03 7.717927551269531250e+01 2.091802597045898438e+01 6.625211238861083984e-02 9.661150932312011719e+00 2.918220996856689453e+00 1.306765079498291016e+00
1.771000000000000000e+03 7.688985443115234375e+01 5.542302131652832031e+00 6.113372743129730225e-02 6.122681140899658203e+00 1.855144381523132324e+00 4.302417933940887451e-01
1.772000000000000000e+03 7.805225372314453125e+01 -1.357755899429321289e+00 1.386141777038574219e-02 5.674602985382080078e+00 1.706539392471313477e+00 1.523708850145339966e-01
1.773000000000000000e+03 7.678348541259765625e+01 -2.718248367309570312e+00 3.072075732052326202e-02 5.374091148376464844e+00 1.621443629264831543e+00 2.206386625766754150e-01
1.774000000000000000e+03 7.663525390625000000e+01 -9.504076004028320312e+00 2.008524164557456970e-02 5.025128364562988281e+00 1.513564109802246094e+00 1.278387755155563354e-01
1.775000000000000000e+03 7.653990936279296875e+01 -1.667894935607910156e+01 9.865553118288516998e-03 4.816439628601074219e+00 1.447891473770141602e+00 7.088507711887359619e-02
1.776000000000000000e+03 7.792045593261718750e+01 3.743542480468750000e+01 -4.587948322296142578e-01 1.310128021240234375e+01 3.792745828628540039e+00 -3.118554055690765381e-01
1.777000000000000000e+03 7.692610931396484375e+01 3.598746871948242188e+01 -1.110002040863037109e+00 1.243868350982666016e+01 3.398604393005371094e+00 -5.262100696563720703e-01
1.778000000000000000e+03 7.784397888183593750e+01 2.866538429260253906e+01 -1.208941221237182617e+00 1.572977638244628906e+01 4.356250762939453125e+00 -2.367778062820434570e+00
1.779000000000000000e+03 7.853430175781250000e+01 3.360753631591796875e+01 -7.673419117927551270e-01 1.368990230560302734e+01 3.876768112182617188e+00 2.250209331512451172e+00
1.780000000000000000e+03 7.701960754394531250e+01 1.808543205261230469e+01 1.370923370122909546e-01 8.630376815795898438e+00 2.630240678787231445e+00 1.182350635528564453e+00
1.781000000000000000e+03 7.697907257080078125e+01 9.687962532043457031e+00 8.715183287858963013e-02 6.734661102294921875e+00 2.046543836593627930e+00 6.003438234329223633e-01
1.782000000000000000e+03 7.693151855468750000e+01 6.928379535675048828e+00 6.795473396778106689e-02 6.310522556304931641e+00 1.913543224334716797e+00 4.782956838607788086e-01
1.783000000000000000e+03 7.646324920654296875e+01 -1.524121379852294922e+01 1.201824657618999481e-02 4.837017059326171875e+00 1.454710602760314941e+00 8.326996117830276489e-02
1.784000000000000000e+03 7.804547882080078125e+01 -6.851826190948486328e+00 8.844393305480480194e-03 5.327899932861328125e+00 1.601023316383361816e+00 9.385015070438385010e-02
1.785000000000000000e+03 7.671816253662109375e+01 -8.120765686035156250e+00 2.044282481074333191e-02 5.091197013854980469e+00 1.533491969108581543e+00 1.406017094850540161e-01
1.786000000000000000e+03 7.559092712402343750e+01 4.157904624938964844e+00 1.022434681653976440e-01 5.656417846679687500e+00 1.727598428726196289e+00 5.101065635681152344e-01
1.787000000000000000e+03 7.674690246582031250e+01 1.715615391731262207e-02 4.111551120877265930e-02 5.560600757598876953e+00 1.680514812469482422e+00 2.781884968280792236e-01
1.788000000000000000e+03 7.684041595458984375e+01 4.152741432189941406e+00 5.579235777258872986e-02 5.953048706054687500e+00 1.802652359008789062e+00 3.859100043773651123e-01
1.789000000000000000e+03 7.677033996582031250e+01 -6.763226509094238281e+00 2.320469915866851807e-02 5.157185077667236328e+00 1.554116964340209961e+00 1.553236395120620728e-01
1.790000000000000000e+03 7.679402923583984375e+01 -4.072102069854736328e+00 2.909317985177040100e-02 5.295272827148437500e+00 1.597309827804565430e+00 1.949414908885955811e-01
1.791000000000000000e+03 7.553817749023437500e+01 -2.724697351455688477e+00 5.866405740380287170e-02 5.162027835845947266e+00 1.566207528114318848e+00 2.913710474967956543e-01
1.792000000000000000e+03 7.640905761718750000e+01 -1.234488201141357422e+01 1.748755760490894318e-02 4.908301353454589844e+00 1.477736711502075195e+00 1.029817759990692139e-01
1.793000000000000000e+03 7.639096832275390625e+01 -1.378797817230224609e+01 1.446752529591321945e-02 4.870285987854003906e+00 1.465425968170166016e+00 9.542855620384216309e-02
1.794000000000000000e+03 7.652012634277343750e+01 -1.091618633270263672e+01 1.684416830539703369e-02 4.958347797393798828e+00 1.492557644844055176e+00 1.159528195858001709e-01
1.795000000000000000e+03 7.663461303710937500e+01 -2.085325050354003906e+01 1.061650644987821579e-02 4.760195732116699219e+00 1.431243658065795898e+00 4.845018312335014343e-02
1.796000000000000000e+03 7.659243011474609375e+01 -1.808807182312011719e+01 1.090124528855085373e-02 4.798156261444091797e+00 1.442717194557189941e+00 6.156874075531959534e-02
1.797000000000000000e+03 7.517057800292968750e+01 -1.673711967468261719e+01 2.158900536596775055e-02 4.645839691162109375e+00 1.400228500366210938e+00 9.397238492965698242e-02
1.798000000000000000e+03 7.552484130859375000e+01 4.072282409667968750e+01 6.053392887115478516e-01 9.471334457397460938e+00 3.023002147674560547e+00 1.078854054212570190e-01
1.799000000000000000e+03 2.228148269653320312e+01 5.667773723602294922e+00 -3.458628803491592407e-02 -1.319607257843017578e+00 -4.062580466270446777e-01 -1.722929924726486206e-01
1.800000000000000000e+03 2.358081245422363281e+01 9.919115066528320312e+00 -5.747881252318620682e-03 -9.521228671073913574e-01 -2.873612344264984131e-01 -2.247077375650405884e-01
1.801000000000000000e+03 2.332934570312500000e+01 -2.558343505859375000e+01 2.411041595041751862e-02 -1.778983354568481445e+00 -5.264618992805480957e-01 -9.444780647754669189e-02
1.802000000000000000e+03 2.144999694824218750e+01 -2.244086456298828125e+01 1.219663675874471664e-02 -1.925879478454589844e+00 -5.741048455238342285e-01 -7.382196933031082153e-02
1.803000000000000000e+03 2.208908843994140625e+01 3.088865470886230469e+01 -7.183200679719448090e-03 -1.341295335441827774e-02 -6.178846117109060287e-03 -1.095814909785985947e-02
1.804000000000000000e+03 2.356723403930664062e+01 1.275579929351806641e+01 -4.653503652662038803e-03 -7.820572853088378906e-01 -2.360132485628128052e-01 -2.170200794935226440e-01
1.805000000000000000e+03 1.250586032867431641e+01 -2.717747116088867188e+01 -2.577278995886445045e-03 -3.820839338004589081e-03 -1.919435570016503334e-03 1.423007110133767128e-03
1.806000000000000000e+03 2.497337722778320312e+01 3.163088989257812500e+01 -3.995169326663017273e-02 -2.824505604803562164e-02 -2.045902423560619354e-02 -3.409941121935844421e-02
1.807000000000000000e+03 2.211049461364746094e+01 2.673095130920410156e+01 -8.411916904151439667e-03 -8.989221602678298950e-02 -2.949124015867710114e-02 -4.759749397635459900e-02
1.808000000000000000e+03 2.320452499389648438e+01 2.666728973388671875e+01 -2.105801366269588470e-02 -1.111927032470703125e-01 -3.967521339654922485e-02 -7.856702804565429688e-02
1.809000000000000000e+03 1.358521270751953125e+01 -6.682306766510009766e+00 -9.699956863187253475e-04 -4.496828842093236744e-05 -3.044891927856951952e-04 1.939485227921977639e-04
1.810000000000000000e+03 2.213013076782226562e+01 2.534767723083496094e+01 -8.493786677718162537e-03 -1.334496736526489258e-01 -4.258304089307785034e-02 -6.054885312914848328e-02
1.811000000000000000e+03 2.448417282104492188e+01 2.259032630920410156e+01 -3.393559902906417847e-02 -2.599079310894012451e-01 -8.815305680036544800e-02 -1.838668286800384521e-01
1.812000000000000000e+03 2.127884674072265625e+01 -2.813265419006347656e+01 -5.396449705585837364e-04 -2.048689842224121094e+00 -6.147688627243041992e-01 -6.496264785528182983e-02
1.813000000000000000e+03 2.218895339965820312e+01 2.257169723510742188e+01 -7.675695698708295822e-03 -2.472809851169586182e-01 -7.648700475692749023e-02 -8.581700176000595093e-02
1.814000000000000000e+03 2.334431648254394531e+01 2.257540893554687500e+01 -1.825124770402908325e-02 -2.580068111419677734e-01 -8.287741988897323608e-02 -1.371985375881195068e-01
1.815000000000000000e+03 2.339768600463867188e+01 2.119340515136718750e+01 -1.692167297005653381e-02 -3.201378881931304932e-01 -1.011178717017173767e-01 -1.548275351524353027e-01
1.816000000000000000e+03 2.222039794921875000e+01 2.117828178405761719e+01 -6.424227729439735413e-03 -3.154964745044708252e-01 -9.657620638608932495e-02 -9.731958806514739990e-02
1.817000000000000000e+03 2.462723731994628906e+01 1.983828735351562500e+01 -2.725030109286308289e-02 -3.772085011005401611e-01 -1.213376373052597046e-01 -2.271496057510375977e-01
1.818000000000000000e+03 1.308129787445068359e+01 -1.603748703002929688e+01 2.150316955521702766e-03 1.747112692100927234e-04 6.975085125304758549e-04 -5.437445361167192459e-04
1.819000000000000000e+03 1.141509246826171875e+01 -1.837423515319824219e+01 -2.338211284950375557e-03 -1.139294938184320927e-03 -1.043251832015812397e-03 1.311112544499337673e-03
1.820000000000000000e+03 1.169129943847656250e+01 -1.573804759979248047e+01 -2.047627232968807220e-03 -3.135388542432337999e-04 -7.083498057909309864e-04 7.765926420688629150e-04
1.821000000000000000e+03 1.253626060485839844e+01 -9.358236312866210938e+00 1.173730124719440937e-03 1.786556240404024720e-04 4.057157202623784542e-04 -3.505905042402446270e-04
1.822000000000000000e+03 1.357786369323730469e+01 -9.352743148803710938e+00 -1.337154419161379337e-03 -7.007403473835438490e-05 -4.221685521770268679e-04 2.914047800004482269e-04
1.823000000000000000e+03 1.240970993041992188e+01 -1.184286308288574219e+01 1.518321456387639046e-03 1.518107601441442966e-04 5.010396707803010941e-04 -6.056919810362160206e-04
1.824000000000000000e+03 2.355272102355957031e+01 1.417143058776855469e+01 -5.460396874696016312e-03 -6.982038617134094238e-01 -2.110992670059204102e-01 -2.119187712669372559e-01
1.825000000000000000e+03 2.353174591064453125e+01 1.558602428436279297e+01 -7.945215329527854919e-03 -6.158682107925415039e-01 -1.871440410614013672e-01 -2.045391350984573364e-01
1.826000000000000000e+03 2.231909561157226562e+01 1.274263286590576172e+01 -1.438216422684490681e-03 -8.321928977966308594e-01 -2.500893473625183105e-01 -1.371629089117050171e-01
1.827000000000000000e+03 2.357693862915039062e+01 1.133853340148925781e+01 -3.837399650365114212e-03 -8.673484921455383301e-01 -2.613557577133178711e-01 -2.215716242790222168e-01
1.828000000000000000e+03 1.108577823638916016e+01 -1.952990722656250000e+01 1.829776912927627563e-03 1.991630299016833305e-03 1.146422117017209530e-03 -7.378517766483128071e-04
1.829000000000000000e+03 1.204223060607910156e+01 -2.424538421630859375e+01 2.165568526834249496e-03 -4.061189247295260429e-04 5.278348689898848534e-04 3.135517545160837471e-05
1.830000000000000000e+03 2.232101058959960938e+01 8.503640174865722656e+00 -4.487935453653335571e-03 -1.126754164695739746e+00 -3.393726348876953125e-01 -1.466818302869796753e-01
1.831000000000000000e+03 2.356061363220214844e+01 7.073352813720703125e+00 -2.239114046096801758e-02 -1.115074515342712402e+00 -3.412396907806396484e-01 -2.345219552516937256e-01
1.832000000000000000e+03 2.311330223083496094e+01 -5.466926097869873047e+00 2.947477810084819794e-02 -1.586615920066833496e+00 -4.671423435211181641e-01 -1.669492274522781372e-01
1.833000000000000000e+03 2.314422035217285156e+01 -4.089702129364013672e+00 1.267539244145154953e-02 -1.538998842239379883e+00 -4.578970372676849365e-01 -1.728518009185791016e-01
1.834000000000000000e+03 3.259503126144409180e+00 3.041948699951171875e+01 3.909001679858192801e-05 -4.245674062985926867e-06 1.045330191118409857e-05 1.186985446111066267e-05
1.835000000000000000e+03 1.960862398147583008e+00 2.767833709716796875e+01 -3.128759999526664615e-05 3.740593683687620796e-07 -9.274061994801741093e-06 -1.846395321081217844e-06
1.836000000000000000e+03 4.986118793487548828e+00 3.315917205810546875e+01 -3.130616460111923516e-05 -9.530576789984479547e-06 -1.225102278112899512e-05 -9.759743988979607821e-06
1.837000000000000000e+03 3.070631504058837891e+00 3.721206665039062500e+01 -4.823486051463987678e-06 -4.545081992546329275e-06 -2.810570322253624909e-06 -6.865872705930087250e-07
1.838000000000000000e+03 3.224288225173950195e+00 2.910434532165527344e+01 -4.056366378790698946e-05 6.677094006590778008e-06 -1.016597070702118799e-05 -7.945835932332556695e-06
1.839000000000000000e+03 2.022550344467163086e+00 3.458419418334960938e+01 2.532118560338858515e-05 9.256646080757491291e-06 1.037335005094064400e-05 -3.520176505844574422e-06
1.840000000000000000e+03 3.466506004333496094e+00 3.460650634765625000e+01 -2.003543704631738365e-05 -1.451510252081789076e-05 -1.036516187014058232e-05 -4.067400368512608111e-06
1.841000000000000000e+03 4.832632064819335938e+00 3.164947891235351562e+01 3.124354407191276550e-05 8.179973519872874022e-06 1.182705545943463221e-05 1.418121610186062753e-05
1.842000000000000000e+03 3.382827281951904297e+00 3.176996231079101562e+01 -3.231093069189228117e-05 -3.191570385752129368e-06 -1.065075048245489597e-05 -1.337769845122238621e-05
1.843000000000000000e+03 3.547073125839233398e+00 -3.593732070922851562e+01 -1.238752622157335281e-03 5.612096749246120453e-03 1.312003238126635551e-03 8.216409012675285339e-03
1.844000000000000000e+03 3.428634405136108398e+00 -3.030685615539550781e+01 -1.274258596822619438e-03 -2.868339070118963718e-04 -4.683277511503547430e-04 3.031855681911110878e-03
1.845000000000000000e+03 2.014716625213623047e+00 -2.898008918762207031e+01 -2.200660761445760727e-03 3.007640771102160215e-05 -6.511752726510167122e-04 1.262149657122790813e-03
1.846000000000000000e+03 1.852807521820068359e+00 2.199031066894531250e+01 -2.784450225590262562e-05 4.496250198826601263e-07 -8.218463335651904345e-06 -2.159979658244992606e-06
1.847000000000000000e+03 3.148326396942138672e+00 2.337322044372558594e+01 -3.105872383457608521e-05 3.062143036913766991e-07 -9.225753274222370237e-06 -4.339967290434287861e-06
1.848000000000000000e+03 3.133132219314575195e+00 -1.923342895507812500e+01 -2.831628313288092613e-03 -1.068628189386799932e-04 -8.815473411232233047e-04 -1.311649684794247150e-04
1.849000000000000000e+03 2.963797807693481445e+00 -1.216040992736816406e+01 1.650314661674201488e-03 9.910349763231351972e-05 5.248254747129976749e-04 -6.895363185321912169e-05
1.850000000000000000e+03 1.705302715301513672e+00 -9.325015068054199219e+00 -1.448091585189104080e-03 -4.565392373478971422e-05 -4.481236392166465521e-04 7.503668166464194655e-05
1.851000000000000000e+03 3.116605997085571289e+00 1.779861831665039062e+01 -2.624646913318429142e-05 -2.955631543954950757e-07 -7.962609743117354810e-06 -3.684712339691031957e-07
1.852000000000000000e+03 2.931992292404174805e+00 1.194846916198730469e+01 -2.215321364928968251e-05 2.568787294876528904e-06 -5.875328042748151347e-06 1.660321004237630405e-06
1.853000000000000000e+03 1.856763124465942383e+00 -1.499310779571533203e+01 -1.878231996670365334e-03 -1.093579849111847579e-04 -5.962770082987844944e-04 4.591991091729141772e-05
1.854000000000000000e+03 3.023180007934570312e+00 -1.359742832183837891e+01 -1.791923074051737785e-03 -9.265906555810943246e-05 -5.653746775351464748e-04 2.598423270683269948e-05
1.855000000000000000e+03 4.699233531951904297e+00 5.257937908172607422e+00 2.572735411376925185e-06 1.042135409079492092e-06 1.084461246136925183e-06 -2.474870143487351015e-06
1.856000000000000000e+03 2.700009584426879883e+00 7.557250976562500000e+00 1.404610156896524131e-05 5.609080631074903067e-07 4.382102815725374967e-06 -3.914382887160172686e-06
1.857000000000000000e+03 1.884104609489440918e+00 1.489748287200927734e+01 2.138702075171750039e-05 7.933053325359651353e-08 6.439905519073363394e-06 3.849105212339054560e-08
1.858000000000000000e+03 3.159805774688720703e+00 1.634966468811035156e+01 2.335152748855762184e-05 6.594885348931711633e-07 7.203304903669049963e-06 3.033872246760438429e-07
1.859000000000000000e+03 2.842291355133056641e+00 9.021512985229492188e+00 -1.767281719367019832e-05 -7.521663292209268548e-07 -5.527494977286551148e-06 3.894510882673785090e-06
1.860000000000000000e+03 5.765593051910400391e+00 -4.391967773437500000e+00 -6.615868187509477139e-04 -2.841818495653569698e-04 -2.837305946741253138e-04 -4.890625714324414730e-04
1.861000000000000000e+03 2.666984558105468750e+00 -5.216245651245117188e+00 -1.068945042788982391e-03 -3.240615187678486109e-04 -4.179019888397306204e-04 3.104251809418201447e-04
1.862000000000000000e+03 1.615971684455871582e+00 -6.522205352783203125e+00 -1.296446775086224079e-03 -5.140156281413510442e-05 -4.043545050080865622e-04 8.638198778498917818e-05
1.863000000000000000e+03 3.319648027420043945e+00 -2.891141510009765625e+01 5.054329521954059601e-03 1.538856849947478622e-05 1.520915422588586807e-03 -4.850771074416115880e-05
1.864000000000000000e+03 3.229275941848754883e+00 -2.200870895385742188e+01 -3.220777725800871849e-03 -8.741677447687834501e-05 -9.924583137035369873e-04 2.392384340055286884e-05
1.865000000000000000e+03 2.113975524902343750e+00 -3.589875030517578125e+01 2.731976797804236412e-03 9.584223851561546326e-03 3.694860264658927917e-03 6.366040091961622238e-03
1.866000000000000000e+03 5.068418025970458984e+00 -3.619437408447265625e+01 2.020632382482290268e-03 9.614587761461734772e-04 8.946273010224103928e-04 1.095252763479948044e-02
1.867000000000000000e+03 3.259586811065673828e+00 -2.339831924438476562e+01 3.285708371549844742e-03 1.756964193191379309e-04 1.038421411067247391e-03 -5.657124565914273262e-04
1.868000000000000000e+03 3.120441913604736328e+00 -1.645480918884277344e+01 -2.182862954214215279e-03 -2.192812680732458830e-04 -7.206432637758553028e-04 -3.495243436191231012e-05
1.869000000000000000e+03 3.051446676254272461e+00 2.196921920776367188e+01 3.211545845260843635e-05 -1.730091412355250213e-06 9.115609827858861536e-06 2.850872988346964121e-06
1.870000000000000000e+03 2.906648874282836914e+00 -1.074429607391357422e+01 -1.559829572215676308e-03 -1.104109178413636982e-04 -5.010721506550908089e-04 5.780842911917716265e-05
1.871000000000000000e+03 2.844351291656494141e+00 -9.349583625793457031e+00 1.446646405383944511e-03 8.052863995544612408e-05 4.581525281537324190e-04 -8.845805859891697764e-05
1.872000000000000000e+03 3.649724483489990234e+00 -3.311933135986328125e+01 3.117611922789365053e-04 -5.760168278357014060e-05 7.624785939697176218e-05 6.080442108213901520e-03
1.873000000000000000e+03 5.253021240234375000e+00 -3.459459686279296875e+01 2.221379196271300316e-03 -2.554156817495822906e-03 -9.983326890505850315e-05 1.004901528358459473e-02
1.874000000000000000e+03 1.951656937599182129e+00 -2.478416824340820312e+01 2.953315619379281998e-03 -3.144489892292767763e-04 7.916599861346185207e-04 -3.930170205421745777e-04
1.875000000000000000e+03 4.602355480194091797e+00 -2.343391227722167969e+01 -3.477776655927300453e-03 -3.014076501131057739e-04 -1.133755315095186234e-03 1.005057274596765637e-04
1.876000000000000000e+03 3.235908746719360352e+00 -2.615307617187500000e+01 4.119833931326866150e-03 -1.276230177609249949e-04 1.197663368657231331e-03 -4.218625836074352264e-04
1.877000000000000000e+03 3.081968069076538086e+00 -1.503617477416992188e+01 1.898906077258288860e-03 9.349966421723365784e-05 5.977217224426567554e-04 -1.119541338994167745e-04
1.878000000000000000e+03 2.839443922042846680e+00 1.050778675079345703e+01 2.109182605636306107e-05 -1.837613581301411614e-06 5.776263606094289571e-06 -2.898151933550252579e-06
1.879000000000000000e+03 3.069191217422485352e+00 1.339425659179687500e+01 2.247420343337580562e-05 -1.520678210908954497e-06 6.286057669058209285e-06 -2.672885273113934090e-07
1.880000000000000000e+03 3.035369157791137695e+00 1.920093154907226562e+01 2.860052154574077576e-05 -1.047152863975497894e-06 8.266010809165891260e-06 1.086596284949337132e-06
1.881000000000000000e+03 2.342809867858886719e+01 2.812160968780517578e+00 -2.265536785125732422e-02 -1.315747380256652832e+00 -4.015208184719085693e-01 -2.031905800104141235e-01
1.882000000000000000e+03 2.302860641479492188e+01 -9.616609573364257812e+00 -7.053656503558158875e-03 -1.693322777748107910e+00 -5.101129412651062012e-01 -1.575172096490859985e-01
1.883000000000000000e+03 1.117201995849609375e+01 3.225625610351562500e+01 4.966028791386634111e-05 -2.865570786525495350e-05 6.301373559836065397e-06 3.278211806900799274e-05
1.884000000000000000e+03 1.377181243896484375e+01 2.961927032470703125e+01 5.294216316542588174e-05 2.320545036127441563e-06 1.657881330174859613e-05 1.868132858362514526e-05
1.885000000000000000e+03 1.225690269470214844e+01 2.316423988342285156e+01 3.771497358684428036e-05 1.834630779740109574e-06 1.186488043458666652e-05 -5.797676749352831393e-06
1.886000000000000000e+03 1.576690578460693359e+01 3.698867797851562500e+01 -8.418764628004282713e-05 -5.579066782956942916e-05 -4.199349496047943830e-05 4.178094241069629788e-05
1.887000000000000000e+03 2.287681007385253906e+01 -1.527174091339111328e+01 -1.966488733887672424e-02 -1.759349942207336426e+00 -5.337044596672058105e-01 -1.165931150317192078e-01
1.888000000000000000e+03 2.294236564636230469e+01 -1.244938182830810547e+01 -3.413256630301475525e-02 -1.737994551658630371e+00 -5.316381454467773438e-01 -1.362962871789932251e-01
1.889000000000000000e+03 1.157234287261962891e+01 -3.532544708251953125e+01 1.916576549410820007e-02 -1.230477821081876755e-02 2.058296231552958488e-03 -2.552289701998233795e-02
1.890000000000000000e+03 2.353145408630371094e+01 5.647782325744628906e+00 -3.420463204383850098e-02 -1.186245679855346680e+00 -3.661350905895233154e-01 -2.293780893087387085e-01
1.891000000000000000e+03 3.846899032592773438e+01 3.888095855712890625e+01 -2.207243815064430237e-03 2.403151243925094604e-03 5.877226431039161980e-05 -1.737888669595122337e-03
1.892000000000000000e+03 1.391063785552978516e+01 3.523127746582031250e+01 2.680547549971379340e-05 3.556025694706477225e-05 1.870971937023568898e-05 -1.882508877315558493e-05
1.893000000000000000e+03 4.376773071289062500e+01 3.862930679321289062e+01 -5.001919809728860855e-03 -2.136131189763545990e-02 -7.908969186246395111e-03 1.224391907453536987e-02
1.894000000000000000e+03 3.733423614501953125e+01 4.115190887451171875e+01 -4.794583655893802643e-03 5.800741928396746516e-05 -1.420972868800163269e-03 -1.409187447279691696e-03
1.895000000000000000e+03 3.644557952880859375e+01 3.832970809936523438e+01 -1.023713033646345139e-03 -1.918733585625886917e-03 -8.827339624986052513e-04 -2.377050928771495819e-03
1.896000000000000000e+03 3.962665557861328125e+01 4.023088836669921875e+01 -4.714352544397115707e-03 -9.271853603422641754e-03 -4.195861984044313431e-03 -2.446256577968597412e-03
1.897000000000000000e+03 4.166048049926757812e+01 3.691553115844726562e+01 -1.958874985575675964e-03 -8.001289330422878265e-03 -2.988049294799566269e-03 4.581758752465248108e-03
1.898000000000000000e+03 2.318353652954101562e+01 -2.711213588714599609e+00 8.189389482140541077e-03 -1.498654842376708984e+00 -4.471396207809448242e-01 -1.880674660205841064e-01
1.899000000000000000e+03 2.290446472167968750e+01 -1.948151397705078125e+01 3.465386107563972473e-02 -1.763881325721740723e+00 -5.187682509422302246e-01 -1.102573573589324951e-01
1.900000000000000000e+03 1.255257606506347656e+01 2.813938522338867188e+01 3.911277599399909377e-05 1.160300416813697666e-05 1.521473404864082113e-05 9.141253940470051020e-06
1.901000000000000000e+03 1.139479160308837891e+01 2.688596916198730469e+01 4.022504799650050700e-05 8.224899829656351358e-06 1.453498407499864697e-05 5.096220320410793647e-06
1.902000000000000000e+03 3.262614440917968750e+01 3.958035659790039062e+01 -2.144067548215389252e-04 1.515605254098773003e-03 3.903595497831702232e-04 -1.796930213458836079e-03
1.903000000000000000e+03 2.140101242065429688e+01 -2.097629356384277344e+01 1.328078750520944595e-02 -1.904956579208374023e+00 -5.675027370452880859e-01 -1.106536015868186951e-01
1.904000000000000000e+03 2.288632583618164062e+01 -3.211915969848632812e+01 -1.055250018835067749e-01 -1.843786001205444336e+00 -5.847933292388916016e-01 -1.241792812943458557e-01
1.905000000000000000e+03 2.148050308227539062e+01 -2.538489151000976562e+01 1.392315421253442764e-02 -1.972031354904174805e+00 -5.874324440956115723e-01 -7.215166836977005005e-02
1.906000000000000000e+03 2.123129844665527344e+01 -2.947452545166015625e+01 -9.683328680694103241e-03 -2.087301731109619141e+00 -6.290954947471618652e-01 -6.709437072277069092e-02
1.907000000000000000e+03 2.285127449035644531e+01 -2.835713958740234375e+01 9.176158346235752106e-03 -1.831005454063415527e+00 -5.465487837791442871e-01 -8.953907340764999390e-02
1.908000000000000000e+03 2.469161224365234375e+01 -3.668643951416015625e+01 3.843324026092886925e-03 -1.510432243347167969e+00 -4.519766867160797119e-01 4.384855553507804871e-02
1.909000000000000000e+03 4.861965179443359375e+00 -4.050977706909179688e+01 -3.758682636544108391e-03 7.787108886986970901e-03 1.208527944982051849e-03 9.704252704977989197e-03
1.910000000000000000e+03 7.914280414581298828e+00 -4.135007476806640625e+01 -2.573175169527530670e-02 6.198906805366277695e-03 -5.859853699803352356e-03 4.317890852689743042e-03
1.911000000000000000e+03 7.404541778564453125e+01 2.885287284851074219e+01 -4.306448400020599365e-01 4.133407592773437500e+00 1.110828876495361328e+00 3.994212150573730469e+00
1.912000000000000000e+03 7.448931121826171875e+01 2.881370162963867188e+01 -3.205975592136383057e-01 6.401883125305175781e+00 1.824385643005371094e+00 5.112809658050537109e+00
1.913000000000000000e+03 7.425701141357421875e+01 2.883759689331054688e+01 -2.849071919918060303e-01 4.856313228607177734e+00 1.371421813964843750e+00 4.449737071990966797e+00
1.914000000000000000e+03 7.571787261962890625e+01 2.582260704040527344e+01 -1.359394669532775879e+00 1.040779399871826172e+01 2.714519977569580078e+00 2.295859813690185547e+00
1.915000000000000000e+03 7.586026763916015625e+01 2.737944030761718750e+01 -2.128064155578613281e+00 1.241394805908203125e+01 3.085765361785888672e+00 2.901249885559082031e+00
1.916000000000000000e+03 7.428713226318359375e+01 3.320117950439453125e+01 9.793073683977127075e-02 5.820872306823730469e+00 1.775640845298767090e+00 -4.185392856597900391e+00
1.917000000000000000e+03 7.617812347412109375e+01 3.250505828857421875e+01 -2.493334531784057617e+00 2.069423866271972656e+01 5.460271358489990234e+00 -2.919233798980712891e+00
1.918000000000000000e+03 7.683496856689453125e+01 3.332592010498046875e+01 -2.537662029266357422e+00 1.770957565307617188e+01 4.551573753356933594e+00 2.836299361661076546e-03
1.919000000000000000e+03 7.771641540527343750e+01 3.370761871337890625e+01 -1.622993588447570801e+00 1.573804664611816406e+01 4.234515666961669922e+00 1.693677783012390137e+00
1.920000000000000000e+03 7.289488220214843750e+01 3.355927658081054688e+01 -1.091694012284278870e-01 2.315892219543457031e+00 6.620168685913085938e-01 -1.752667903900146484e+00
1.921000000000000000e+03 7.242620849609375000e+01 2.861059951782226562e+01 -1.653023004531860352e+00 1.295740127563476562e+00 -1.071848571300506592e-01 1.469752550125122070e+00
1.922000000000000000e+03 7.242114257812500000e+01 2.805259704589843750e+01 -1.088467955589294434e+00 1.860838532447814941e+00 2.317111790180206299e-01 1.899802684783935547e+00
1.923000000000000000e+03 7.588050842285156250e+01 3.278817367553710938e+01 -2.242725133895874023e+00 1.707799720764160156e+01 4.450581550598144531e+00 -4.213363170623779297e+00
1.924000000000000000e+03 7.777428436279296875e+01 3.095954513549804688e+01 6.040771961212158203e+00 1.619932174682617188e+01 6.672028064727783203e+00 3.076877892017364502e-01
1.925000000000000000e+03 7.812415313720703125e+01 3.156266784667968750e+01 2.903826475143432617e+00 1.452780151367187500e+01 5.229488372802734375e+00 2.308517932891845703e+00
1.926000000000000000e+03 7.784366607666015625e+01 3.202973556518554688e+01 1.699678778648376465e+00 1.618167877197265625e+01 5.364407539367675781e+00 3.102027654647827148e+00
1.927000000000000000e+03 7.773099517822265625e+01 2.966837501525878906e+01 1.558105826377868652e+00 1.681263542175292969e+01 5.511222362518310547e+00 -3.127972364425659180e+00
1.928000000000000000e+03 7.709001159667968750e+01 2.979594230651855469e+01 1.857647657394409180e+00 2.076406669616699219e+01 6.786514282226562500e+00 -3.570585489273071289e+00
1.929000000000000000e+03 7.323929595947265625e+01 3.292895507812500000e+01 -4.265008866786956787e-01 2.132759571075439453e+00 5.118775963783264160e-01 -1.901051521301269531e+00
1.930000000000000000e+03 7.885630798339843750e+01 2.966277694702148438e+01 8.238033056259155273e-01 1.138207149505615234e+01 3.661762237548828125e+00 -2.300302028656005859e+00
1.931000000000000000e+03 7.077694702148437500e+01 2.730905532836914062e+01 -1.274012446403503418e+00 1.016145348548889160e+00 -7.736013829708099365e-02 9.951133131980895996e-01
1.932000000000000000e+03 7.000267791748046875e+01 3.491974258422851562e+01 6.660990417003631592e-03 9.600995182991027832e-01 2.900281548500061035e-01 4.877056926488876343e-02
1.933000000000000000e+03 7.197311401367187500e+01 2.679892349243164062e+01 -5.537651181221008301e-01 2.422599315643310547e+00 5.606502294540405273e-01 1.982076406478881836e+00
1.934000000000000000e+03 7.136871337890625000e+01 2.736998176574707031e+01 -1.089996457099914551e+00 1.386686801910400391e+00 8.900711685419082642e-02 1.345704197883605957e+00
1.935000000000000000e+03 7.196186065673828125e+01 3.359756851196289062e+01 -4.541306197643280029e-01 1.210048675537109375e+00 2.267754077911376953e-01 -7.828573584556579590e-01
1.936000000000000000e+03 7.117764282226562500e+01 3.452559280395507812e+01 5.441724322736263275e-03 1.255465626716613770e+00 3.782722055912017822e-01 -5.264267921447753906e-01
1.937000000000000000e+03 6.900831604003906250e+01 3.437504196166992188e+01 -5.738052129745483398e-01 3.877121508121490479e-01 -5.582791566848754883e-02 5.213866829872131348e-01
1.938000000000000000e+03 7.280760955810546875e+01 3.406794357299804688e+01 1.717884391546249390e-01 2.921401262283325195e+00 9.279568791389465332e-01 -1.827725052833557129e+00
1.939000000000000000e+03 6.876303863525390625e+01 2.777745437622070312e+01 -2.449537038803100586e+00 2.146589905023574829e-01 -6.704633831977844238e-01 7.057857513427734375e-02
1.940000000000000000e+03 6.949085998535156250e+01 2.717261695861816406e+01 -1.643562555313110352e+00 5.419591069221496582e-01 -3.304810225963592529e-01 4.646180272102355957e-01
1.941000000000000000e+03 2.628720855712890625e+01 3.195140647888183594e+01 -5.787314474582672119e-02 -2.337153814733028412e-02 -2.437340468168258667e-02 -4.360420629382133484e-02
1.942000000000000000e+03 2.553168869018554688e+01 3.266908645629882812e+01 -3.728589043021202087e-02 -1.827698014676570892e-02 -1.666886173188686371e-02 -2.523713000118732452e-02
1.943000000000000000e+03 7.286656188964843750e+01 2.809587860107421875e+01 -8.416872620582580566e-01 2.468000888824462891e+00 4.878940582275390625e-01 2.400008201599121094e+00
1.944000000000000000e+03 5.898675155639648438e+01 2.787066459655761719e+01 -2.581953763961791992e+00 -4.070572927594184875e-02 -7.867978811264038086e-01 -3.577946424484252930e-01
1.945000000000000000e+03 2.698970794677734375e+01 3.184785270690917969e+01 -7.173217087984085083e-02 -2.195774577558040619e-02 -2.810697443783283234e-02 -5.193304270505905151e-02
1.946000000000000000e+03 8.209986686706542969e+00 4.209219932556152344e+00 5.393118954089004546e-06 2.916301582445157692e-06 2.492826070010778494e-06 2.539332854212261736e-06
1.947000000000000000e+03 1.045715236663818359e+01 3.309372901916503906e+00 8.715760486666113138e-06 -5.955399160484375898e-07 2.436066324662533589e-06 1.476816350987064652e-06
1.948000000000000000e+03 2.627028846740722656e+01 3.270117568969726562e+01 -4.837491735816001892e-02 -1.610581204295158386e-02 -1.934421993792057037e-02 -3.071326762437820435e-02
1.949000000000000000e+03 2.540467453002929688e+01 3.091641616821289062e+01 -5.075016990303993225e-02 -3.698267415165901184e-02 -2.631985396146774292e-02 -5.075667425990104675e-02
1.950000000000000000e+03 7.020349502563476562e+00 5.603393077850341797e+00 -2.140501237590797246e-06 1.749091438796313014e-06 -1.174229637967982853e-07 1.005900571726670023e-06
1.951000000000000000e+03 5.254254341125488281e+00 4.273785591125488281e+00 2.502735924281296320e-06 4.578435891744447872e-06 2.124351567545090802e-06 2.193008725726031116e-07
1.952000000000000000e+03 4.909849643707275391e+00 5.968638420104980469e+00 -4.425810828934118035e-08 -8.889061859918001574e-07 -2.799492904159706086e-07 3.881513748638099059e-06
1.953000000000000000e+03 5.238395214080810547e+00 3.506499767303466797e+00 -2.333069460291881114e-06 -4.789357717527309433e-06 -2.136728198820492253e-06 -1.797779987100511789e-07
1.954000000000000000e+03 2.879610538482666016e+00 5.240639686584472656e+00 1.163350316346623003e-05 -3.309274006824125536e-06 2.497268724255263805e-06 5.051740117778535932e-06
1.955000000000000000e+03 2.917298507690429688e+01 3.170384025573730469e+01 -1.248253658413887024e-01 -1.300430577248334885e-02 -4.134890064597129822e-02 -7.914222031831741333e-02
1.956000000000000000e+03 2.927898406982421875e+00 3.680094480514526367e+00 5.492205673363059759e-06 6.425339051929768175e-06 3.575263463062583469e-06 3.671553656658943510e-07
1.957000000000000000e+03 1.395494818687438965e+00 4.869044780731201172e+00 -6.457516974478494376e-06 -2.234437260995036922e-06 -2.607586338854162022e-06 4.805002390639856458e-06
1.958000000000000000e+03 1.628228783607482910e+00 3.302344322204589844e+00 1.103369049815228209e-05 -2.725829801875079283e-07 3.228332388971466571e-06 1.734170609779539518e-06
1.959000000000000000e+03 5.953470993041992188e+01 3.923071670532226562e+01 5.042888522148132324e-01 -4.618469178676605225e-01 1.273258216679096222e-02 3.438986241817474365e-01
1.960000000000000000e+03 2.988963890075683594e+01 3.163569641113281250e+01 -1.466701328754425049e-01 -8.908326737582683563e-03 -4.667353630065917969e-02 -8.815283328294754028e-02
1.961000000000000000e+03 3.060214614868164062e+01 3.155425071716308594e+01 -1.703245043754577637e-01 -4.321007989346981049e-03 -5.239365249872207642e-02 -9.688001126050949097e-02
1.962000000000000000e+03 5.807089996337890625e+01 3.653659439086914062e+01 5.018277466297149658e-02 -3.047136962413787842e-01 -7.635927945375442505e-02 4.163601696491241455e-01
1.963000000000000000e+03 3.202325057983398438e+01 3.135515403747558594e+01 -2.246908992528915405e-01 4.958291072398424149e-03 -6.591978669166564941e-02 -1.146777421236038208e-01
1.964000000000000000e+03 5.347351837158203125e+01 3.613252639770507812e+01 -4.260218888521194458e-02 -1.371002048254013062e-01 -5.391071736812591553e-02 1.743768155574798584e-01
1.965000000000000000e+03 5.075851058959960938e+01 3.689389801025390625e+01 -2.567742578685283661e-02 -9.627772122621536255e-02 -3.658654540777206421e-02 1.158953160047531128e-01
1.966000000000000000e+03 6.294341659545898438e+01 3.457266998291015625e+01 -5.493574738502502441e-01 -1.748431324958801270e-01 -2.172601819038391113e-01 6.818935871124267578e-01
1.967000000000000000e+03 6.060453033447265625e+01 3.486410522460937500e+01 -3.427068293094635010e-01 -1.682704091072082520e-01 -1.532931774854660034e-01 5.655784606933593750e-01
1.968000000000000000e+03 6.480253601074218750e+01 3.450029754638671875e+01 -6.281460523605346680e-01 -1.484393626451492310e-01 -2.329756170511245728e-01 7.832258343696594238e-01
1.969000000000000000e+03 6.387309265136718750e+01 3.486014175415039062e+01 -4.671250581741333008e-01 -2.204574644565582275e-01 -2.062747627496719360e-01 7.384835481643676758e-01
1.970000000000000000e+03 9.737845420837402344e+00 4.115922927856445312e+00 8.639415682409889996e-06 1.308498326579865534e-06 2.984374077641405165e-06 3.827746240858687088e-06
1.971000000000000000e+03 6.443456268310546875e+01 3.530279159545898438e+01 -2.635885477066040039e-01 -2.074262946844100952e-01 -1.413044482469558716e-01 7.589761614799499512e-01
1.972000000000000000e+03 1.010670185089111328e+01 -5.146312236785888672e+00 5.854988703504204750e-04 3.247571003157645464e-04 2.730767882894724607e-04 -2.822166716214269400e-04
1.973000000000000000e+03 1.020345592498779297e+01 -4.283938884735107422e+00 -4.886480746790766716e-04 -2.711966808419674635e-04 -2.279534237459301949e-04 1.438085309928283095e-04
1.974000000000000000e+03 2.915800857543945312e+01 3.245679092407226562e+01 -1.092457994818687439e-01 -6.526458077132701874e-03 -3.473167866468429565e-02 -5.945928767323493958e-02
1.975000000000000000e+03 1.178107643127441406e+01 -4.351246833801269531e+00 -6.889396463520824909e-04 -2.049935719696804881e-04 -2.681799523998051882e-04 4.283480520825833082e-04
1.976000000000000000e+03 6.324567794799804688e+01 3.534703826904296875e+01 -2.516242861747741699e-01 -2.073517590761184692e-01 -1.376928091049194336e-01 7.251487374305725098e-01
1.977000000000000000e+03 3.273686599731445312e+01 3.123782539367675781e+01 -2.556327581405639648e-01 9.401017799973487854e-03 -7.386952638626098633e-02 -1.238265782594680786e-01
1.978000000000000000e+03 6.622087860107421875e+01 3.606809616088867188e+01 1.980942934751510620e-01 -6.670619547367095947e-02 3.941642865538597107e-02 7.153807878494262695e-01
1.979000000000000000e+03 6.553475189208984375e+01 3.472721862792968750e+01 -5.164225101470947266e-01 -1.289184391498565674e-01 -1.936022788286209106e-01 8.099334239959716797e-01
1.980000000000000000e+03 6.216823959350585938e+01 3.483506011962890625e+01 -4.374403655529022217e-01 -1.858055442571640015e-01 -1.869737654924392700e-01 6.502505540847778320e-01
1.981000000000000000e+03 2.773232078552246094e+01 3.181304550170898438e+01 -8.759672194719314575e-02 -2.003407105803489685e-02 -3.228923678398132324e-02 -6.126880273222923279e-02
1.982000000000000000e+03 2.845508384704589844e+01 3.176249313354492188e+01 -1.054148077964782715e-01 -1.673873513936996460e-02 -3.664606437087059021e-02 -7.025481015443801880e-02
1.983000000000000000e+03 3.203917694091796875e+01 3.205485534667968750e+01 -2.077380716800689697e-01 8.494148962199687958e-03 -5.977317318320274353e-02 -8.875063806772232056e-02
1.984000000000000000e+03 3.131174659729003906e+01 3.146051216125488281e+01 -1.963984072208404541e-01 6.434239912778139114e-05 -5.890021845698356628e-02 -1.059189289808273315e-01
1.985000000000000000e+03 3.924897003173828125e+01 3.000168418884277344e+01 -6.381602883338928223e-01 4.576709493994712830e-02 -1.777179539203643799e-01 -1.982116848230361938e-01
1.986000000000000000e+03 3.996908187866210938e+01 2.985868644714355469e+01 -6.913990974426269531e-01 4.795373231172561646e-02 -1.930336058139801025e-01 -2.063402682542800903e-01
1.987000000000000000e+03 6.804576110839843750e+01 2.773890495300292969e+01 -2.572522640228271484e+00 1.202972903847694397e-01 -7.356676459312438965e-01 -6.491287797689437866e-02
1.988000000000000000e+03 6.954014587402343750e+01 2.650591087341308594e+01 -1.116051912307739258e+00 8.184424638748168945e-01 -8.928284794092178345e-02 6.853059530258178711e-01
1.989000000000000000e+03 3.711746978759765625e+01 3.109982109069824219e+01 -4.810220599174499512e-01 3.389442712068557739e-02 -1.341382861137390137e-01 -1.332053989171981812e-01
1.990000000000000000e+03 3.852540969848632812e+01 3.013831520080566406e+01 -5.871243476867675781e-01 4.230235144495964050e-02 -1.634466052055358887e-01 -1.905503123998641968e-01
1.991000000000000000e+03 3.565417861938476562e+01 3.138096618652343750e+01 -3.896856606006622314e-01 2.735448256134986877e-02 -1.086993589997291565e-01 -1.223084479570388794e-01
1.992000000000000000e+03 3.772707366943359375e+01 2.956772232055664062e+01 -5.384294986724853516e-01 3.816149383783340454e-02 -1.500803977251052856e-01 -2.278213948011398315e-01
1.993000000000000000e+03 4.076758956909179688e+01 3.039731407165527344e+01 -7.541769146919250488e-01 4.563047364354133606e-02 -2.125639468431472778e-01 -1.591841131448745728e-01
1.994000000000000000e+03 3.345044708251953125e+01 3.111057662963867188e+01 -2.887789607048034668e-01 1.428450830280780792e-02 -8.234833180904388428e-02 -1.327797621488571167e-01
1.995000000000000000e+03 3.416477584838867188e+01 3.097618865966796875e+01 -3.243436813354492188e-01 1.852643117308616638e-02 -9.174517542123794556e-02 -1.417730897665023804e-01
1.996000000000000000e+03 4.365550613403320312e+01 2.910713958740234375e+01 -9.882850050926208496e-01 5.303044244647026062e-02 -2.805763781070709229e-01 -2.516629993915557861e-01
1.997000000000000000e+03 7.254778385162353516e+00 -3.424582958221435547e+00 3.323272394482046366e-04 2.102039288729429245e-04 1.627593446755781770e-04 1.738561259116977453e-04
1.998000000000000000e+03 1.166835498809814453e+01 -5.355515480041503906e+00 3.930141974706202745e-04 5.864474223926663399e-04 2.938385005109012127e-04 -4.759086295962333679e-04
1.999000000000000000e+03 4.290255355834960938e+01 2.925505256652832031e+01 -9.246588945388793945e-01 5.263308808207511902e-02 -2.616077363491058350e-01 -2.426012903451919556e-01
2.000000000000000000e+03 6.435698699951171875e+01 2.765350723266601562e+01 -2.813497304916381836e+00 -3.390321135520935059e-02 -8.542202115058898926e-01 -3.430777788162231445e-01
2.001000000000000000e+03 6.209997177124023438e+01 2.699219894409179688e+01 -2.367085456848144531e+00 -3.957769647240638733e-02 -7.219989895820617676e-01 -4.044281840324401855e-01
2.002000000000000000e+03 4.669257736206054688e+01 2.856084632873535156e+01 -1.258463978767395020e+00 4.560350626707077026e-02 -3.638581633567810059e-01 -2.898879051208496094e-01
2.003000000000000000e+03 4.674714660644531250e+01 2.925882148742675781e+01 -1.318459987640380859e+00 4.002267494797706604e-02 -3.835311830043792725e-01 -2.129099667072296143e-01
2.004000000000000000e+03 6.287282943725585938e+01 2.696116828918457031e+01 -2.359143257141113281e+00 -3.424782678484916687e-02 -7.180173397064208984e-01 -3.870096504688262939e-01
2.005000000000000000e+03 3.488267898559570312e+01 3.083592414855957031e+01 -3.621622622013092041e-01 2.317980490624904633e-02 -1.016947403550148010e-01 -1.506678014993667603e-01
2.006000000000000000e+03 3.560448837280273438e+01 3.069256019592285156e+01 -4.026165008544921875e-01 2.720748260617256165e-02 -1.126227080821990967e-01 -1.593152880668640137e-01
2.007000000000000000e+03 5.058294677734375000e+01 2.868830108642578125e+01 -1.729106307029724121e+00 2.045966871082782745e-02 -5.125939846038818359e-01 -2.511207163333892822e-01
2.008000000000000000e+03 4.904202651977539062e+01 2.889672851562500000e+01 -1.560159802436828613e+00 2.855477295815944672e-02 -4.594815075397491455e-01 -2.356639355421066284e-01
2.009000000000000000e+03 4.973616409301757812e+01 2.738953208923339844e+01 -1.441388964653015137e+00 2.912725321948528290e-02 -4.236785173416137695e-01 -4.015987515449523926e-01
2.010000000000000000e+03 5.439582061767578125e+01 2.825482177734375000e+01 -2.146393775939941406e+00 -8.911157958209514618e-03 -6.465914249420166016e-01 -2.979346811771392822e-01
2.011000000000000000e+03 5.668632125854492188e+01 2.733736419677734375e+01 -2.144781827926635742e+00 -2.848966978490352631e-02 -6.519814133644104004e-01 -4.068736732006072998e-01
2.012000000000000000e+03 4.750741195678710938e+01 2.913284873962402344e+01 -1.396776556968688965e+00 3.671549633145332336e-02 -4.080183506011962891e-01 -2.205619812011718750e-01
2.013000000000000000e+03 4.870638656616210938e+01 3.879994583129882812e+01 3.845647722482681274e-02 -1.103249862790107727e-01 -2.156055346131324768e-02 5.828494951128959656e-02
2.014000000000000000e+03 1.196331882476806641e+01 3.053929328918457031e+00 5.919378963881172240e-06 -6.994858949838089757e-07 1.565967863825790118e-06 -3.491865072646760382e-06
2.015000000000000000e+03 1.224082183837890625e+01 3.712479829788208008e+00 -1.011752010526834056e-05 2.775600478344131261e-06 -2.202575842602527700e-06 3.469070861683576368e-06
2.016000000000000000e+03 5.363308334350585938e+01 2.833480072021484375e+01 -2.064448118209838867e+00 -1.117234351113438606e-03 -6.196696162223815918e-01 -2.879930436611175537e-01
2.017000000000000000e+03 4.440984344482421875e+01 2.896434402465820312e+01 -1.054125666618347168e+00 5.192963033914566040e-02 -3.006587922573089600e-01 -2.612522542476654053e-01
2.018000000000000000e+03 4.069380569458007812e+01 2.971096801757812500e+01 -7.459732294082641602e-01 5.005581304430961609e-02 -2.087752372026443481e-01 -2.148996144533157349e-01
2.019000000000000000e+03 4.142247009277343750e+01 2.955959892272949219e+01 -8.036714196205139160e-01 5.123872682452201843e-02 -2.257298082113265991e-01 -2.240597605705261230e-01
2.020000000000000000e+03 9.028134346008300781e+00 4.913987636566162109e+00 7.765295777062419802e-06 2.334849796170601621e-06 3.030043671969906427e-06 3.881359589286148548e-06
2.021000000000000000e+03 4.592902755737304688e+01 2.869172668457031250e+01 -1.189767479896545410e+00 4.826376959681510925e-02 -3.424510955810546875e-01 -2.803922295570373535e-01
2.022000000000000000e+03 5.287137603759765625e+01 2.841894149780273438e+01 -1.982752203941345215e+00 3.840859979391098022e-03 -5.936734080314636230e-01 -2.781418263912200928e-01
2.023000000000000000e+03 4.978424835205078125e+01 2.808864402770996094e+01 -1.545413017272949219e+00 2.821575663983821869e-02 -4.551591575145721436e-01 -3.274611532688140869e-01
2.024000000000000000e+03 4.246688842773437500e+00 -4.014240741729736328e+00 -1.024720259010791779e-03 -3.182558575645089149e-04 -4.028928233310580254e-04 2.923949214164167643e-04
2.025000000000000000e+03 6.662874698638916016e+00 -5.201347827911376953e+00 1.777783327270299196e-04 7.660996197955682874e-05 7.631648622918874025e-05 -1.008760955301113427e-04
2.026000000000000000e+03 8.005400657653808594e+00 -3.407880067825317383e+00 -3.736853832378983498e-04 -1.999138912651687860e-04 -1.720797736197710037e-04 -8.707900269655510783e-05
2.027000000000000000e+03 4.423889160156250000e+00 -3.354213714599609375e+00 7.865864317864179611e-04 1.343624626315431669e-05 2.400068042334169149e-04 -3.789953771047294140e-04
2.028000000000000000e+03 3.915926456451416016e+00 -8.014547348022460938e+00 1.226474414579570293e-03 9.280980884796008468e-05 3.957852604798972607e-04 -5.026626968174241483e-05
2.029000000000000000e+03 3.650367736816406250e+00 -4.381421566009521484e+00 -4.599080421030521393e-04 -1.472799776820465922e-04 -1.821564073907211423e-04 -7.770266965962946415e-04
2.030000000000000000e+03 3.831395864486694336e+00 -6.678592205047607422e+00 -1.041968469507992268e-03 -1.269875210709869862e-04 -3.506868088152259588e-04 1.020043896460265387e-06
2.031000000000000000e+03 2.705562829971313477e+00 -6.598322868347167969e+00 1.217611250467598438e-03 1.279413554584607482e-04 4.036657919641584158e-04 -1.519304205430671573e-04
2.032000000000000000e+03 6.364440536499023438e+01 2.693884086608886719e+01 -2.340792655944824219e+00 -1.861492916941642761e-02 -7.078222632408142090e-01 -3.605874776840209961e-01
2.033000000000000000e+03 6.132200622558593750e+01 2.702908325195312500e+01 -2.362166166305541992e+00 -4.520764201879501343e-02 -7.222121953964233398e-01 -4.161031842231750488e-01
2.034000000000000000e+03 6.054375076293945312e+01 2.707159042358398438e+01 -2.346733570098876953e+00 -4.455784335732460022e-02 -7.173874378204345703e-01 -4.213069081306457520e-01
2.035000000000000000e+03 6.211056900024414062e+01 2.627529335021972656e+01 -1.986512064933776855e+00 -2.173115871846675873e-02 -6.024729609489440918e-01 -4.078406989574432373e-01
2.036000000000000000e+03 7.055892944335937500e+01 3.466296386718750000e+01 -1.026389561593532562e-02 1.034030437469482422e+00 3.071299791336059570e-01 -2.217938005924224854e-01
2.037000000000000000e+03 5.899539947509765625e+01 2.716729927062988281e+01 -2.287192106246948242e+00 -4.096959903836250305e-02 -6.984485387802124023e-01 -4.218489527702331543e-01
2.038000000000000000e+03 5.821915435791015625e+01 2.792320060729980469e+01 -2.518575668334960938e+00 -3.558515012264251709e-02 -7.662482857704162598e-01 -3.484192490577697754e-01
2.039000000000000000e+03 6.731781005859375000e+01 2.770636940002441406e+01 -2.671358108520507812e+00 6.914128363132476807e-02 -7.806650400161743164e-01 -1.590467691421508789e-01
2.040000000000000000e+03 1.265367603302001953e+01 -4.257299423217773438e+00 8.133543306030333042e-04 -4.547319986158981919e-05 2.303643414052203298e-04 -1.677375403232872486e-04
2.041000000000000000e+03 1.176594734191894531e+01 -3.466264009475708008e+00 8.109103655442595482e-04 -7.284286402864381671e-05 2.214202395407482982e-04 -2.172688255086541176e-04
2.042000000000000000e+03 1.293855476379394531e+01 3.200200080871582031e+00 -2.584808100891677896e-07 -3.014410367541131563e-06 -9.818672879191581160e-07 -5.479236733663128689e-06
2.043000000000000000e+03 1.136071491241455078e+01 3.961063385009765625e+00 1.201333179778885096e-05 -1.847567773438640870e-06 3.049729002668755129e-06 8.898639407561859116e-07
2.044000000000000000e+03 1.357450389862060547e+01 3.375189304351806641e+00 1.415771930624032393e-05 -1.485592520111822523e-06 3.801638058575917967e-06 1.667751803324790671e-06
2.045000000000000000e+03 2.319025993347167969e+01 3.088786315917968750e+01 -1.815423928201198578e-02 -2.848487906157970428e-02 -1.399173587560653687e-02 -2.278230898082256317e-02
2.046000000000000000e+03 1.251319885253906250e+01 -3.352037191390991211e+00 -7.256183307617902756e-04 3.868072526529431343e-04 -1.016433307086117566e-04 -2.272764977533370256e-04
2.047000000000000000e+03 1.363871669769287109e+01 -2.993206501007080078e+00 8.344500092789530754e-04 -2.218118061136920005e-05 2.436806535115465522e-04 -1.468608679715543985e-04
2.048000000000000000e+03 6.808700561523437500e+01 2.705775070190429688e+01 -1.937776327133178711e+00 2.644614279270172119e-01 -5.019944310188293457e-01 9.775245189666748047e-02
2.049000000000000000e+03 2.302392005920410156e+01 3.217839813232421875e+01 -1.236015092581510544e-02 -1.257625594735145569e-02 -7.480921689420938492e-03 -7.212071679532527924e-03
2.050000000000000000e+03 1.223763656616210938e+01 -1.309290409088134766e+01 -1.696048071607947350e-03 -2.047803573077544570e-04 -5.702485213987529278e-04 6.882015150040388107e-04
2.051000000000000000e+03 1.191690540313720703e+01 -1.437493228912353516e+01 1.795025425963103771e-03 3.873653186019510031e-04 6.547172670252621174e-04 -6.013309466652572155e-04
2.052000000000000000e+03 1.251139640808105469e+01 -6.789987087249755859e+00 1.043595257215201855e-03 1.060182057699421421e-05 3.162591310683637857e-04 -2.339864004170522094e-04
2.053000000000000000e+03 1.254782295227050781e+01 -8.093650817871093750e+00 -1.115248189307749271e-03 -8.615897968411445618e-05 -3.604221565183252096e-04 2.330754650756716728e-04
2.054000000000000000e+03 5.477096939086914062e+01 3.580384063720703125e+01 -8.400088548660278320e-02 -1.452070772647857666e-01 -6.876239180564880371e-02 2.395479828119277954e-01
2.055000000000000000e+03 1.251356124877929688e+01 7.858481884002685547e+00 -1.253168466064380482e-05 -1.798162998056795914e-06 -4.298954081605188549e-06 -2.412658204775652848e-06
2.056000000000000000e+03 4.596347808837890625e+01 3.681631469726562500e+01 -6.944805849343538284e-03 -2.695809677243232727e-02 -1.017087046056985855e-02 2.686981484293937683e-02
2.057000000000000000e+03 4.232254791259765625e+01 4.112768554687500000e+01 -7.554172771051526070e-04 -2.589377574622631073e-02 -7.994757965207099915e-03 5.586774554103612900e-03
2.058000000000000000e+03 2.717353630065917969e+01 4.171852493286132812e+01 -3.142838831990957260e-04 8.879987872205674648e-04 1.721144799375906587e-04 -4.317634156905114651e-04
2.059000000000000000e+03 7.485044860839843750e+01 2.843675994873046875e+01 -1.065291762351989746e+00 8.599449157714843750e+00 2.260246992111206055e+00 5.075459957122802734e+00
2.060000000000000000e+03 1.817972564697265625e+01 4.160761260986328125e+01 8.014339255169034004e-05 -8.045973117987159640e-06 2.162922464776784182e-05 -1.508908462710678577e-04
2.061000000000000000e+03 2.460063362121582031e+01 4.212392866611480713e-02 4.410138819366693497e-03 -1.294419646263122559e+00 -3.870028257369995117e-01 -2.376183569431304932e-01
2.062000000000000000e+03 2.451526641845703125e+01 -2.677681684494018555e+00 1.460595149546861649e-02 -1.368967294692993164e+00 -4.063084125518798828e-01 -2.200420200824737549e-01
2.063000000000000000e+03 2.437893295288085938e+01 -1.796173477172851562e+01 2.802280709147453308e-02 -1.602557301521301270e+00 -4.723603427410125732e-01 -1.058888286352157593e-01
2.064000000000000000e+03 2.447649383544921875e+01 -1.935177421569824219e+01 3.579019010066986084e-02 -1.602820634841918945e+00 -4.701091647148132324e-01 -1.080231890082359314e-01
2.065000000000000000e+03 2.470769500732421875e+01 2.810042381286621094e+00 -1.752301305532455444e-02 -1.193319916725158691e+00 -3.632528781890869141e-01 -2.567700147628784180e-01
2.066000000000000000e+03 2.432473564147949219e+01 -1.656781196594238281e+01 1.321668457239866257e-02 -1.601788640022277832e+00 -4.765715897083282471e-01 -1.193728521466255188e-01
2.067000000000000000e+03 2.306126403808593750e+01 -8.218610763549804688e+00 6.864118389785289764e-03 -1.647410511970520020e+00 -4.921639263629913330e-01 -1.668950766324996948e-01
2.068000000000000000e+03 2.448407936096191406e+01 -5.417394161224365234e+00 2.506410330533981323e-02 -1.441656708717346191e+00 -4.249777793884277344e-01 -2.060219198465347290e-01
2.069000000000000000e+03 1.337049007415771484e+01 -1.333844375610351562e+01 1.866666134446859360e-03 6.450200453400611877e-05 5.793504533357918262e-04 -3.623337252065539360e-04
2.070000000000000000e+03 2.432067298889160156e+01 -1.237586498260498047e+01 -1.563239842653274536e-02 -1.567400574684143066e+00 -4.749098718166351318e-01 -1.584884971380233765e-01
2.071000000000000000e+03 1.127838420867919922e+01 2.573066711425781250e+01 -3.210231079719960690e-05 -1.218544457515235990e-05 -1.328632697550347075e-05 -5.219017111812718213e-06
2.072000000000000000e+03 4.741697788238525391e+00 1.046868705749511719e+01 1.322067146247718483e-05 1.928205392687232234e-06 4.544662715488811955e-06 -2.191750127167324536e-06
2.073000000000000000e+03 1.244457149505615234e+01 9.116669654846191406e+00 1.318329759669722989e-05 2.372231847402872518e-06 4.666658696805825457e-06 2.986375193358981051e-06
2.074000000000000000e+03 1.006358146667480469e+01 1.889839553833007812e+01 7.587423169752582908e-06 -2.265895273012574762e-05 -4.521458777162479237e-06 -2.984875209222082049e-06
2.075000000000000000e+03 1.074561786651611328e+01 1.530643558502197266e+01 6.228545771591598168e-06 -1.885318056338292081e-06 1.302968257732572965e-06 -1.414951111655682325e-05
2.076000000000000000e+03 7.578602600097656250e+01 1.238181686401367188e+01 1.956606209278106689e-01 6.684597969055175781e+00 2.064077615737915039e+00 9.647616744041442871e-01
2.077000000000000000e+03 7.426513671875000000e+01 -1.451820492744445801e+00 9.981720149517059326e-02 4.991261959075927734e+00 1.527323722839355469e+00 3.899839222431182861e-01
2.078000000000000000e+03 7.566979217529296875e+01 5.542579650878906250e+00 1.121073365211486816e-01 5.807220935821533203e+00 1.775798439979553223e+00 5.636054873466491699e-01
2.079000000000000000e+03 7.675675964355468750e+01 1.384817242622375488e+00 4.690179973840713501e-02 5.673432826995849609e+00 1.716100335121154785e+00 3.130704462528228760e-01
2.080000000000000000e+03 7.543112182617187500e+01 -5.713701248168945312e-03 7.621674984693527222e-02 5.311720371246337891e+00 1.616381049156188965e+00 3.737715482711791992e-01
2.081000000000000000e+03 7.407753753662109375e+01 -9.066192626953125000e+00 5.515150353312492371e-02 4.680258274078369141e+00 1.420622944831848145e+00 2.181659191846847534e-01
2.082000000000000000e+03 7.555753326416015625e+01 -4.048032760620117188e+00 5.217242240905761719e-02 5.100769996643066406e+00 1.545882701873779297e+00 2.592430412769317627e-01
2.083000000000000000e+03 7.679340362548828125e+01 -5.417904376983642578e+00 2.556323818862438202e-02 5.224984169006347656e+00 1.575164318084716797e+00 1.732386499643325806e-01
2.084000000000000000e+03 7.555414581298828125e+01 -5.355342864990234375e+00 4.715613648295402527e-02 5.039583683013916016e+00 1.526021957397460938e+00 2.328369617462158203e-01
2.085000000000000000e+03 7.679188537597656250e+01 2.763717412948608398e+00 4.971907660365104675e-02 5.804988861083984375e+00 1.756412386894226074e+00 3.475646972656250000e-01
2.086000000000000000e+03 7.696183013916015625e+01 8.309496879577636719e+00 7.708119601011276245e-02 6.512829303741455078e+00 1.976973176002502441e+00 5.345078110694885254e-01
2.087000000000000000e+03 7.573153686523437500e+01 6.918510913848876953e+00 1.221061274409294128e-01 5.967452049255371094e+00 1.826867461204528809e+00 6.249916553497314453e-01
2.088000000000000000e+03 7.366204833984375000e+01 -1.548720645904541016e+01 3.823910281062126160e-02 4.478006839752197266e+00 1.354873776435852051e+00 1.329200416803359985e-01
2.089000000000000000e+03 7.532624816894531250e+01 -2.221953392028808594e+01 1.717236451804637909e-02 4.590424537658691406e+00 1.382279038429260254e+00 5.970373004674911499e-02
2.090000000000000000e+03 7.580606079101562500e+01 1.100498962402343750e+01 1.734148710966110229e-01 6.500658988952636719e+00 2.002222061157226562e+00 8.604751229286193848e-01
2.091000000000000000e+03 7.513096618652343750e+01 -1.071819210052490234e+01 3.549022227525711060e-02 4.778689384460449219e+00 1.444253802299499512e+00 1.638410538434982300e-01
2.092000000000000000e+03 7.484484863281250000e+01 -1.219705104827880859e+01 3.486011549830436707e-02 4.693291187286376953e+00 1.418445467948913574e+00 1.512771248817443848e-01
2.093000000000000000e+03 7.533283233642578125e+01 -9.323579788208007812e+00 3.588464856147766113e-02 4.852699279785156250e+00 1.466575264930725098e+00 1.769278645515441895e-01
2.094000000000000000e+03 7.580122375488281250e+01 9.644665718078613281e+00 1.545735299587249756e-01 6.315101146697998047e+00 1.940902471542358398e+00 7.694232463836669922e-01
2.095000000000000000e+03 7.523941040039062500e+01 -1.813400268554687500e+01 1.620686613023281097e-02 4.633605957031250000e+00 1.394943833351135254e+00 8.286883682012557983e-02
2.096000000000000000e+03 7.662158203125000000e+01 -1.947595214843750000e+01 8.041905239224433899e-03 4.779224395751953125e+00 1.436179995536804199e+00 5.366063117980957031e-02
2.097000000000000000e+03 7.527420806884765625e+01 -1.950417327880859375e+01 1.751103810966014862e-02 4.617776870727539062e+00 1.390586376190185547e+00 7.459174096584320068e-02
2.098000000000000000e+03 7.436559295654296875e+01 -2.892775154113769531e+01 8.564564399421215057e-03 4.412096500396728516e+00 1.326198339462280273e+00 2.697223238646984100e-02
2.099000000000000000e+03 7.411434936523437500e+01 -2.351955223083496094e+01 2.356442064046859741e-02 4.437594413757324219e+00 1.338347673416137695e+00 6.160030514001846313e-02
2.100000000000000000e+03 7.594387054443359375e+01 1.951695632934570312e+01 2.067252248525619507e-01 8.074668884277343750e+00 2.484418153762817383e+00 1.583514332771301270e+00
2.101000000000000000e+03 7.694105529785156250e+01 1.526819705963134766e+01 1.393150389194488525e-01 7.845792293548583984e+00 2.395532131195068359e+00 9.700886607170104980e-01
2.102000000000000000e+03 7.573634338378906250e+01 1.378474998474121094e+01 2.161101996898651123e-01 6.869284152984619141e+00 2.125618219375610352e+00 1.096731066703796387e+00
2.103000000000000000e+03 7.513551330566406250e+01 -2.512468338012695312e+01 1.143130194395780563e-02 4.515669345855712891e+00 1.358130216598510742e+00 4.216161370277404785e-02
2.104000000000000000e+03 7.656896972656250000e+01 -2.510690879821777344e+01 2.643689513206481934e-03 4.702415466308593750e+00 1.411517739295959473e+00 2.659712173044681549e-02
2.105000000000000000e+03 7.288902282714843750e+01 -2.570653915405273438e+01 2.516475319862365723e-02 4.257198810577392578e+00 1.284709095954895020e+00 5.848656967282295227e-02
2.106000000000000000e+03 7.491503143310546875e+01 2.097125434875488281e+01 2.077053338289260864e-01 7.373334407806396484e+00 2.274311780929565430e+00 1.907676696777343750e+00
2.107000000000000000e+03 7.570404815673828125e+01 1.663585472106933594e+01 2.577417492866516113e-01 7.352769374847412109e+00 2.283153295516967773e+00 1.344149470329284668e+00
2.108000000000000000e+03 7.368972778320312500e+01 -3.583360671997070312e+01 -9.264865075238049030e-04 4.281040191650390625e+00 1.284034013748168945e+00 4.040677100419998169e-03
2.109000000000000000e+03 7.668205261230468750e+01 -3.181589126586914062e+01 -2.487783087417483330e-03 4.665968894958496094e+00 1.399044275283813477e+00 2.045557275414466858e-02
2.110000000000000000e+03 7.564087677001953125e+01 -2.823003387451171875e+01 6.893845740705728531e-03 4.563968658447265625e+00 1.371258735656738281e+00 2.700066938996315002e-02
2.111000000000000000e+03 7.550991821289062500e+01 -3.225916290283203125e+01 2.113708527758717537e-03 4.522984504699707031e+00 1.357529401779174805e+00 9.778399951756000519e-03
2.112000000000000000e+03 7.727244567871093750e+01 2.234127044677734375e+01 -9.497079998254776001e-02 1.026286983489990234e+01 3.050369739532470703e+00 1.318881750106811523e+00
2.113000000000000000e+03 7.605767822265625000e+01 2.093786239624023438e+01 1.022723689675331116e-01 8.560469627380371094e+00 2.598822593688964844e+00 1.660878181457519531e+00
2.114000000000000000e+03 7.193258666992187500e+01 2.741698646545410156e+01 -8.748763799667358398e-01 1.894464254379272461e+00 3.058763742446899414e-01 1.754688978195190430e+00
2.115000000000000000e+03 7.628897094726562500e+01 2.376597785949707031e+01 -4.652732610702514648e-01 9.805854797363281250e+00 2.802174329757690430e+00 1.675070405006408691e+00
2.116000000000000000e+03 7.649333953857421875e+01 3.731900405883789062e+01 -5.857754945755004883e-01 1.108182811737060547e+01 3.148815870285034180e+00 -7.223306894302368164e-01
2.117000000000000000e+03 2.482146644592285156e+01 1.135711765289306641e+01 -7.153241895139217377e-03 -8.037431836128234863e-01 -2.432689219713211060e-01 -2.916336655616760254e-01
2.118000000000000000e+03 1.270653915405273438e+01 -2.248329544067382812e+01 2.351661911234259605e-03 -1.784118125215172768e-03 1.702631270745769143e-04 4.735096008516848087e-04
2.119000000000000000e+03 1.251945877075195312e+01 -2.015648078918457031e+01 -2.753994427621364594e-03 -1.947230426594614983e-03 -1.410367432981729507e-03 1.886821934022009373e-03
2.120000000000000000e+03 2.290605354309082031e+01 -1.386167812347412109e+01 -2.675568498671054840e-02 -1.762490153312683105e+00 -5.367737412452697754e-01 -1.294851601123809814e-01
2.121000000000000000e+03 2.430373764038085938e+01 -1.377381038665771484e+01 -1.856194622814655304e-02 -1.578224420547485352e+00 -4.790359139442443848e-01 -1.373417675495147705e-01
2.122000000000000000e+03 7.645127868652343750e+01 3.860689544677734375e+01 -3.629727065563201904e-01 1.149378108978271484e+01 3.339242458343505859e+00 -1.866651773452758789e-01
2.123000000000000000e+03 2.482893180847167969e+01 9.931606292724609375e+00 -7.076617795974016190e-03 -8.780708909034729004e-01 -2.655442655086517334e-01 -2.947835624217987061e-01
2.124000000000000000e+03 2.480599594116210938e+01 1.278003597259521484e+01 -7.630847860127687454e-03 -7.298390865325927734e-01 -2.212409675121307373e-01 -2.874012589454650879e-01
2.125000000000000000e+03 5.887451171875000000e+00 -2.497530174255371094e+01 -4.445231053978204727e-03 -1.592545595485717058e-05 -1.338346861302852631e-03 1.741689338814467192e-04
2.126000000000000000e+03 1.145800876617431641e+01 -2.983532142639160156e+01 2.975460607558488846e-03 5.140610504895448685e-03 2.434821333736181259e-03 -1.826163148507475853e-03
2.127000000000000000e+03 2.561710739135742188e+01 2.262046432495117188e+01 -5.230926349759101868e-02 -2.545530498027801514e-01 -9.205869585275650024e-02 -2.268349677324295044e-01
2.128000000000000000e+03 2.456272888183593750e+01 2.122276306152343750e+01 -3.046413138508796692e-02 -3.161891400814056396e-01 -1.039959862828254700e-01 -2.067871689796447754e-01
2.129000000000000000e+03 2.478234100341796875e+01 1.420183181762695312e+01 -1.098076812922954559e-02 -6.555043458938598633e-01 -1.999455392360687256e-01 -2.804461121559143066e-01
2.130000000000000000e+03 2.347888183593750000e+01 1.840156364440917969e+01 -1.255786418914794922e-02 -4.598911106586456299e-01 -1.417346894741058350e-01 -1.841859221458435059e-01
2.131000000000000000e+03 2.467869377136230469e+01 1.844053077697753906e+01 -2.256741002202033997e-02 -4.424669444561004639e-01 -1.395103037357330322e-01 -2.449180185794830322e-01
2.132000000000000000e+03 2.471957588195800781e+01 1.703404045104980469e+01 -1.879092864692211151e-02 -5.110669732093811035e-01 -1.589573770761489868e-01 -2.596116662025451660e-01
2.133000000000000000e+03 1.010550498962402344e+01 -1.797574424743652344e+01 1.994104823097586632e-03 1.324597280472517014e-03 9.956106077879667282e-04 -4.767138161696493626e-04
2.134000000000000000e+03 2.326284027099609375e+01 2.945818138122558594e+01 -2.124775014817714691e-02 -4.911338537931442261e-02 -2.110834047198295593e-02 -4.095517471432685852e-02
2.135000000000000000e+03 2.478649330139160156e+01 3.025143814086914062e+01 -4.149265587329864502e-02 -4.687932133674621582e-02 -2.651159279048442841e-02 -5.280973762273788452e-02
2.136000000000000000e+03 2.357564544677734375e+01 8.498123168945312500e+00 -8.953315205872058868e-03 -1.038707256317138672e+00 -3.142981827259063721e-01 -2.298640906810760498e-01
2.137000000000000000e+03 2.482773017883300781e+01 8.503162384033203125e+00 -1.347895152866840363e-02 -9.471698999404907227e-01 -2.881946563720703125e-01 -2.961587607860565186e-01
2.138000000000000000e+03 2.427254676818847656e+01 2.658470344543457031e+01 -3.776808455586433411e-02 -1.234595254063606262e-01 -4.836828261613845825e-02 -1.090362519025802612e-01
2.139000000000000000e+03 2.439824676513671875e+01 2.393828964233398438e+01 -3.569408878684043884e-02 -2.087688744068145752e-01 -7.333888858556747437e-02 -1.592376530170440674e-01
2.140000000000000000e+03 2.432422828674316406e+01 2.527120590209960938e+01 -3.746729344129562378e-02 -1.629161685705184937e-01 -6.011503934860229492e-02 -1.341516971588134766e-01
2.141000000000000000e+03 7.421275138854980469e+00 -7.946259021759033203e+00 -8.194312686100602150e-04 1.335476845270022750e-04 -2.057650708593428135e-04 -2.840882225427776575e-04
2.142000000000000000e+03 2.426458930969238281e+01 2.788001251220703125e+01 -3.754059970378875732e-02 -9.041763097047805786e-02 -3.838746994733810425e-02 -8.554609864950180054e-02
2.143000000000000000e+03 2.561317634582519531e+01 2.973812103271484375e+01 -5.942432954907417297e-02 -5.772830545902252197e-02 -3.514578938484191895e-02 -7.713994383811950684e-02
2.144000000000000000e+03 2.481616783142089844e+01 7.071854591369628906e+00 -1.936618983745574951e-02 -1.013685584068298340e+00 -3.099155128002166748e-01 -2.921366989612579346e-01
2.145000000000000000e+03 1.057419586181640625e+01 -2.058319282531738281e+01 -1.988457981497049332e-03 -1.149027608335018158e-03 -9.412456420250236988e-04 8.110926137305796146e-04
2.146000000000000000e+03 3.130457878112792969e+00 -1.785086441040039062e+01 2.399668795987963676e-03 1.641596609260886908e-04 7.691485225223004818e-04 -8.545911259716376662e-05
2.147000000000000000e+03 4.289906978607177734e+00 -1.507002925872802734e+01 -2.059129998087882996e-03 -8.907709707273170352e-05 -6.444621249102056026e-04 2.636091664953710278e-07
2.148000000000000000e+03 4.211174011230468750e+00 2.192737770080566406e+01 -3.248140637879259884e-05 6.600803317269310355e-07 -9.546397450321819633e-06 -2.467094645908218808e-06
2.149000000000000000e+03 3.005831003189086914e+00 2.058711051940917969e+01 -3.022145756403915584e-05 1.758335315571457613e-06 -8.538936526747420430e-06 -1.783386778697604313e-06
2.150000000000000000e+03 4.387227535247802734e+00 -1.793380355834960938e+01 -2.635448705404996872e-03 -3.904323093593120575e-04 -9.077643044292926788e-04 -3.531939291860908270e-04
2.151000000000000000e+03 4.378233909606933594e+00 -1.651948547363281250e+01 2.068461850285530090e-03 3.804493171628564596e-04 7.346733473241329193e-04 -8.905134018277749419e-05
2.152000000000000000e+03 6.207141876220703125e+00 2.675433731079101562e+01 -2.455018875480163842e-05 -6.130180281616048887e-06 -9.204110938298981637e-06 -1.077256365533685312e-05
2.153000000000000000e+03 4.473692893981933594e+00 2.923988533020019531e+01 4.594836718752048910e-05 -1.651992897677700967e-05 8.828530553728342056e-06 1.630663791729602963e-05
2.154000000000000000e+03 4.470415592193603516e+00 -2.749429702758789062e+01 6.346269510686397552e-03 -5.721267079934477806e-04 1.732242759317159653e-03 -6.308362935669720173e-04
2.155000000000000000e+03 3.250555276870727539e+00 -2.478023338317871094e+01 -3.383993636816740036e-03 -1.644813164602965117e-04 -1.064542564563453197e-03 8.971816714620217681e-05
2.156000000000000000e+03 4.531944274902343750e+00 -2.201828193664550781e+01 3.449632320553064346e-03 1.361064350930973887e-04 1.075721578672528267e-03 -7.263792795129120350e-04
2.157000000000000000e+03 4.401295185089111328e+00 1.790596580505371094e+01 2.702029996726196259e-05 1.561297381158510689e-06 8.574478670198004693e-06 2.893034888984402642e-06
2.158000000000000000e+03 4.194099903106689453e+00 1.929074668884277344e+01 -3.117101005045697093e-05 1.736739477564697154e-06 -8.830281331029254943e-06 -3.151397095280117355e-06
2.159000000000000000e+03 4.449730396270751953e+00 1.638797378540039062e+01 -2.666927139216568321e-05 1.094600179385452066e-06 -7.672400897718034685e-06 -2.040770141320535913e-06
2.160000000000000000e+03 4.389147281646728516e+00 -2.062781333923339844e+01 -3.884888952597975731e-03 5.738397594541311264e-04 -9.933147812262177467e-04 -9.594408766133710742e-05
2.161000000000000000e+03 4.346497058868408203e+00 -1.928630256652832031e+01 3.318003844469785690e-03 1.172835163743002340e-05 9.989195968955755234e-04 2.123838639818131924e-04
2.162000000000000000e+03 3.342577695846557617e+00 2.632658004760742188e+01 -2.898844468290917575e-05 -2.689442453629453667e-06 -9.503366527496837080e-06 -1.483201231167186052e-06
2.163000000000000000e+03 4.600746154785156250e+00 2.477600669860839844e+01 -3.629795173765160143e-05 8.731852574328513583e-08 -1.086319025489501655e-05 -3.444880576353170909e-06
2.164000000000000000e+03 4.336792945861816406e+00 2.328512001037597656e+01 3.541640762705355883e-05 -6.632488975810701959e-07 1.042594794853357598e-05 4.685702208462316776e-07
2.165000000000000000e+03 9.707312583923339844e+00 -2.311374282836914062e+01 -1.904148492030799389e-03 2.197156427428126335e-03 8.790239371592178941e-05 -7.929674466140568256e-04
2.166000000000000000e+03 4.558420658111572266e+00 -2.482476425170898438e+01 4.421803168952465057e-03 4.123838734813034534e-04 1.450256095267832279e-03 -3.094484563916921616e-04
2.167000000000000000e+03 3.147794008255004883e+00 1.486625862121582031e+01 -2.235939609818160534e-05 -1.416775319285079604e-07 -6.750322427251376212e-06 -4.581489463362231618e-07
2.168000000000000000e+03 4.016677379608154297e+00 1.183202171325683594e+01 2.108700391545426100e-05 -2.606602947707870044e-06 5.544120540434960276e-06 -3.690463017846923321e-06
2.169000000000000000e+03 4.318075656890869141e+00 1.327095794677734375e+01 -2.224572926934342831e-05 2.426105538688716479e-06 -5.945887096459046006e-06 3.282162879258976318e-06
2.170000000000000000e+03 4.065890312194824219e+00 -1.075615024566650391e+01 1.506355940364301205e-03 1.764876651577651501e-04 5.048530874773859978e-04 -1.428438281436683610e-05
2.171000000000000000e+03 3.998896121978759766e+00 -9.373054504394531250e+00 -1.376115484163165092e-03 -1.320264273090288043e-04 -4.524425603449344635e-04 3.912011743523180485e-05
2.172000000000000000e+03 4.182193756103515625e+00 -1.360888862609863281e+01 1.826848252676427364e-03 8.365308167412877083e-05 5.731504061259329319e-04 -2.046220515694585629e-06
2.173000000000000000e+03 4.801284790039062500e+00 3.628582382202148438e+01 -8.448502740066032857e-06 -2.125035462086088955e-05 -8.909657481126487255e-06 -1.454672565159853548e-05
2.174000000000000000e+03 3.346999645233154297e+00 3.597491073608398438e+01 1.689894997980445623e-05 1.240126948687247932e-05 8.790065294306259602e-06 -1.302548412240867037e-06
2.175000000000000000e+03 3.553917884826660156e+00 -3.170988845825195312e+01 5.574450362473726273e-03 1.225144835188984871e-03 2.039878629148006439e-03 3.103776136413216591e-03
2.176000000000000000e+03 4.558480262756347656e+00 -2.882934379577636719e+01 -3.535056719556450844e-03 6.077256402932107449e-04 -8.781993528828024864e-04 2.218762412667274475e-03
2.177000000000000000e+03 4.116236686706542969e+00 -1.216602706909179688e+01 -1.718520186841487885e-03 -1.694364327704533935e-04 -5.663869669660925865e-04 -5.718879037885926664e-05
2.178000000000000000e+03 5.878267288208007812e+00 -5.452303886413574219e+00 6.394999218173325062e-04 9.167983080260455608e-05 2.193539257859811187e-04 3.772665804717689753e-04
2.179000000000000000e+03 3.856968641281127930e+00 1.048699569702148438e+01 -2.087481880153063685e-05 1.575210376358882058e-06 -5.789882379758637398e-06 1.587116230439278297e-06
2.180000000000000000e+03 5.660503387451171875e+00 2.985658073425292969e+01 2.619034603412728757e-05 4.929202077619265765e-07 8.004979463294148445e-06 -2.381387275818269700e-05
2.181000000000000000e+03 3.471279382705688477e+00 3.318173217773437500e+01 2.445351492497138679e-05 1.023311415337957442e-05 1.040598908730316907e-05 9.304949344368651509e-06
2.182000000000000000e+03 4.986767768859863281e+00 3.473316955566406250e+01 2.706898703763727099e-05 1.220151989400619641e-05 1.178115235234145075e-05 1.606046134838834405e-05
2.183000000000000000e+03 4.746303558349609375e+00 -3.018895339965820312e+01 7.951253093779087067e-03 -1.877794711617752910e-04 2.329042181372642517e-03 -3.186587418895214796e-04
2.184000000000000000e+03 4.980856418609619141e+00 -3.159298896789550781e+01 1.626042881980538368e-03 -3.144221380352973938e-03 -4.554535262286663055e-04 5.038721952587366104e-03
2.185000000000000000e+03 4.450695037841796875e+00 7.992783546447753906e+00 -1.606729892955627292e-05 2.504715212126029655e-06 -4.068775069754337892e-06 -2.664947260200278834e-06
2.186000000000000000e+03 3.774679899215698242e+00 -5.390234947204589844e+00 7.621352560818195343e-04 2.538723347242921591e-04 3.048022917937487364e-04 1.697704574326053262e-04
2.187000000000000000e+03 5.900526046752929688e+00 4.873879432678222656e+00 7.203093900898238644e-06 2.912952140832203440e-06 3.034813744307029992e-06 2.499411948519991711e-06
2.188000000000000000e+03 1.340667247772216797e+01 -2.855572891235351562e+01 -5.582037381827831268e-03 -3.579176962375640869e-03 -2.748364349827170372e-03 3.591160289943218231e-03
2.189000000000000000e+03 7.246798706054687500e+01 4.135499954223632812e+01 1.313429594039916992e+00 5.036371231079101562e+00 1.904940247535705566e+00 -2.569211423397064209e-01
2.190000000000000000e+03 3.235989570617675781e+00 -3.722592544555664062e+01 -7.412470295093953609e-04 9.252921678125858307e-03 2.553502330556511879e-03 7.974377833306789398e-03
2.191000000000000000e+03 5.952416896820068359e+00 3.854254531860351562e+01 6.100741757109062746e-06 -2.102580947394017130e-05 -4.477520633372478187e-06 -2.643715379235800356e-05
2.192000000000000000e+03 2.311630821228027344e+01 -2.241672897338867188e+01 3.113786503672599792e-02 -1.751273870468139648e+00 -5.160408020019531250e-01 -1.058122515678405762e-01
2.193000000000000000e+03 1.728180313110351562e+01 3.914065933227539062e+01 1.849638501880690455e-04 -1.693429658189415932e-05 5.040886389906518161e-05 -3.451061638770624995e-05
2.194000000000000000e+03 1.120977115631103516e+01 3.892831039428710938e+01 -6.878440035507082939e-05 1.094061099138343707e-05 -1.735313708195462823e-05 -2.828163269441574812e-05
2.195000000000000000e+03 2.430478858947753906e+01 -1.517007637023925781e+01 -9.697498753666877747e-04 -1.594920873641967773e+00 -4.787671864032745361e-01 -1.216760501265525818e-01
2.196000000000000000e+03 4.834929656982421875e+01 3.628067398071289062e+01 -6.353937089443206787e-03 -5.959940329194068909e-02 -1.978600211441516876e-02 6.958568841218948364e-02
2.197000000000000000e+03 2.348620605468750000e+01 4.225926399230957031e+00 -3.942266106605529785e-02 -1.251161456108093262e+00 -3.871752321720123291e-01 -2.182772606611251831e-01
2.198000000000000000e+03 2.465484428405761719e+01 1.415509700775146484e+00 -4.184038843959569931e-03 -1.243998765945434570e+00 -3.744548261165618896e-01 -2.447065114974975586e-01
2.199000000000000000e+03 2.479136848449707031e+01 5.642909526824951172e+00 -2.763301506638526917e-02 -1.074400424957275391e+00 -3.306100368499755859e-01 -2.840093374252319336e-01
2.200000000000000000e+03 1.204640483856201172e+01 -2.904635047912597656e+01 -1.547376974485814571e-03 -2.281126100569963455e-03 -1.148550887592136860e-03 1.953760860487818718e-03
2.201000000000000000e+03 3.464828109741210938e+01 4.032244491577148438e+01 -2.752398140728473663e-03 2.960829762741923332e-03 6.252950697671622038e-05 -4.628890892490744591e-04
2.202000000000000000e+03 1.258912372589111328e+01 3.621579742431640625e+01 -8.081016858341172338e-05 -5.587221949099330232e-06 -2.591921656858175993e-05 1.691719262453261763e-05
2.203000000000000000e+03 7.433261394500732422e+00 2.863771820068359375e+01 -4.076472396263852715e-05 -1.528905158920679241e-05 -1.681613321125041693e-05 1.128916846937499940e-05
2.204000000000000000e+03 2.436071777343750000e+01 -1.096382904052734375e+01 -1.101814862340688705e-02 -1.546686053276062012e+00 -4.673112630844116211e-01 -1.674150675535202026e-01
2.205000000000000000e+03 2.126034736633300781e+01 -3.081795310974121094e+01 -4.256644472479820251e-02 -2.110654115676879883e+00 -6.459662318229675293e-01 -8.868528902530670166e-02
2.206000000000000000e+03 2.277558708190917969e+01 -2.952070236206054688e+01 -3.543152660131454468e-02 -1.858639121055603027e+00 -5.682212114334106445e-01 -9.560962021350860596e-02
2.207000000000000000e+03 2.449171447753906250e+01 -4.044662475585937500e+00 2.703329548239707947e-02 -1.406431198120117188e+00 -4.138193726539611816e-01 -2.118742167949676514e-01
2.208000000000000000e+03 5.917410659790039062e+01 3.518457794189453125e+01 -2.360431253910064697e-01 -2.025415748357772827e-01 -1.315754055976867676e-01 4.723678827285766602e-01
2.209000000000000000e+03 5.943718338012695312e+01 3.642947769165039062e+01 6.138729676604270935e-02 -2.938193082809448242e-01 -6.972960382699966431e-02 5.041726231575012207e-01
2.210000000000000000e+03 2.941561889648437500e+01 4.088572692871093750e+01 -2.373667812207713723e-04 6.796420202590525150e-04 1.326825731666758657e-04 -7.674950174987316132e-04
2.211000000000000000e+03 2.181237030029296875e+01 4.039345550537109375e+01 3.583363286452367902e-05 1.199118414660915732e-04 4.672364229918457568e-05 -1.422606874257326126e-04
2.212000000000000000e+03 1.202858829498291016e+01 1.295555877685546875e+01 -1.517211876489454880e-05 -4.855938641412649304e-06 -6.008417130942689255e-06 -1.074108513421379030e-05
2.213000000000000000e+03 1.141195583343505859e+01 2.796834945678710938e+01 -4.059541606693528593e-05 -1.007683295028982684e-05 -1.520167552371276543e-05 1.325577045463433024e-06
2.214000000000000000e+03 5.914852619171142578e+00 1.111438465118408203e+01 -6.782339028177375440e-07 4.435035862115910277e-06 1.127040604842477478e-06 -1.351885771327943075e-06
2.215000000000000000e+03 7.169876575469970703e+00 1.780597305297851562e+01 -8.737973985262215137e-06 -1.027254347718553618e-05 -5.703155238734325394e-06 -4.454171175893861800e-06
2.216000000000000000e+03 2.230623626708984375e+01 -3.886674118041992188e+01 1.348952651023864746e-01 -1.745932698249816895e+00 -4.833112359046936035e-01 7.060118019580841064e-02
2.217000000000000000e+03 2.299301528930664062e+01 -2.091655349731445312e+01 3.306240215897560120e-02 -1.765219449996948242e+00 -5.196471214294433594e-01 -1.031595692038536072e-01
2.218000000000000000e+03 1.115316009521484375e+01 -3.697449493408203125e+01 6.269867718219757080e-02 -2.885670401155948639e-02 1.015259232372045517e-02 1.933682709932327271e-02
2.219000000000000000e+03 1.189747238159179688e+01 -3.406511688232421875e+01 3.701541805639863014e-03 -1.078331563621759415e-02 -2.124532358720898628e-03 -1.400045119225978851e-02
2.220000000000000000e+03 2.538010978698730469e+01 -2.576570320129394531e+01 1.821339689195156097e-02 -1.473496317863464355e+00 -4.365848600864410400e-01 -1.096814349293708801e-01
2.221000000000000000e+03 2.319725227355957031e+01 -2.708888053894042969e+01 -1.717340666800737381e-03 -1.804295301437377930e+00 -5.418037772178649902e-01 -8.655764162540435791e-02
2.222000000000000000e+03 1.238103485107421875e+01 2.444032096862792969e+01 -3.641892908490262926e-05 -7.788953553244937211e-06 -1.326236451859585941e-05 1.497303628639201634e-06
2.223000000000000000e+03 3.234598159790039062e+01 4.145387649536132812e+01 -2.121796598657965660e-03 1.499267644248902798e-03 -1.867587125161662698e-04 -1.049702987074851990e-04
2.224000000000000000e+03 3.532166290283203125e+01 3.838379287719726562e+01 -1.183953601866960526e-03 1.440119463950395584e-03 7.684976299060508609e-05 -3.251966787502169609e-03
2.225000000000000000e+03 7.376875305175781250e+01 2.845426559448242188e+01 -5.366991162300109863e-01 4.176739692687988281e+00 1.092012166976928711e+00 3.581044197082519531e+00
2.226000000000000000e+03 7.341569519042968750e+01 2.872723579406738281e+01 -8.646907210350036621e-01 2.577518463134765625e+00 5.138483643531799316e-01 2.742518901824951172e+00
2.227000000000000000e+03 7.495900726318359375e+01 3.295302581787109375e+01 -3.783222734928131104e-01 9.298419952392578125e+00 2.676029205322265625e+00 -5.400509357452392578e+00
2.228000000000000000e+03 7.323410034179687500e+01 2.817365646362304688e+01 -7.100824713706970215e-01 2.974071264266967773e+00 6.791966557502746582e-01 2.865135431289672852e+00
2.229000000000000000e+03 7.408470916748046875e+01 3.417136001586914062e+01 -1.412361115217208862e-01 6.542020797729492188e+00 1.920235395431518555e+00 -3.335738897323608398e+00
2.230000000000000000e+03 7.536948394775390625e+01 2.848990249633789062e+01 -1.780174970626831055e+00 1.242348384857177734e+01 3.192992687225341797e+00 4.913502216339111328e+00
2.231000000000000000e+03 7.522425842285156250e+01 2.882315826416015625e+01 -1.272134780883789062e+00 1.181291007995605469e+01 3.162232398986816406e+00 5.690215587615966797e+00
2.232000000000000000e+03 7.475695037841796875e+01 2.875499534606933594e+01 -5.097099542617797852e-01 8.040907859802246094e+00 2.259359359741210938e+00 5.483738899230957031e+00
2.233000000000000000e+03 7.376419830322265625e+01 2.548588752746582031e+01 -4.181351065635681152e-01 6.168615341186523438e+00 1.725144028663635254e+00 2.828085422515869141e+00
2.234000000000000000e+03 7.521575927734375000e+01 3.314712905883789062e+01 -1.062909841537475586e+00 1.147526931762695312e+01 3.123707771301269531e+00 -5.150079250335693359e+00
2.235000000000000000e+03 7.601557159423828125e+01 3.547951126098632812e+01 -1.328089594841003418e+00 1.148948478698730469e+01 3.048418521881103516e+00 -1.515250802040100098e+00
2.236000000000000000e+03 7.792409515380859375e+01 2.657617759704589844e+01 -1.294867634773254395e+00 1.346213531494140625e+01 3.650180339813232422e+00 -4.235845804214477539e-01
2.237000000000000000e+03 7.847801208496093750e+01 2.894753074645996094e+01 -5.067730545997619629e-01 1.341716670989990234e+01 3.873118162155151367e+00 -2.720879554748535156e+00
2.238000000000000000e+03 7.663369750976562500e+01 3.451240158081054688e+01 -2.083065509796142578e+00 1.446996498107910156e+01 3.716069698333740234e+00 -7.472177147865295410e-01
2.239000000000000000e+03 7.596064758300781250e+01 3.344946670532226562e+01 -2.241518020629882812e+00 1.501299285888671875e+01 3.831442594528198242e+00 -3.150517463684082031e+00
2.240000000000000000e+03 7.677436065673828125e+01 2.788205146789550781e+01 -2.633096694946289062e+00 1.575214767456054688e+01 3.935715198516845703e+00 7.694327831268310547e-01
2.241000000000000000e+03 7.246678924560546875e+01 2.746149635314941406e+01 -6.947511434555053711e-01 2.528964281082153320e+00 5.502639412879943848e-01 2.220172405242919922e+00
2.242000000000000000e+03 7.315293884277343750e+01 2.866647911071777344e+01 -1.066922903060913086e+00 2.112937211990356445e+00 3.138042986392974854e-01 2.431360483169555664e+00
2.243000000000000000e+03 7.204307556152343750e+01 3.406919479370117188e+01 -4.258365184068679810e-02 1.629611611366271973e+00 4.761083722114562988e-01 -1.063433885574340820e+00
2.244000000000000000e+03 7.732659149169921875e+01 2.769298934936523438e+01 -2.193482875823974609e+00 1.529464244842529297e+01 3.930347919464111328e+00 -5.094392895698547363e-01
2.245000000000000000e+03 7.685757446289062500e+01 2.849420928955078125e+01 -2.550739765167236328e+00 1.742679977416992188e+01 4.462817668914794922e+00 4.800591617822647095e-02
2.246000000000000000e+03 7.143401336669921875e+01 3.534548187255859375e+01 4.759062528610229492e-01 2.089662075042724609e+00 7.696704864501953125e-01 -8.784978985786437988e-01
2.247000000000000000e+03 7.619019317626953125e+01 2.234313964843750000e+01 -5.264677107334136963e-02 9.108799934387207031e+00 2.716845989227294922e+00 1.682827591896057129e+00
2.248000000000000000e+03 7.206738281250000000e+01 3.453236770629882812e+01 2.296119630336761475e-01 2.134760618209838867e+00 7.093117833137512207e-01 -1.151334285736083984e+00
2.249000000000000000e+03 7.878471374511718750e+01 3.186946105957031250e+01 1.114818215370178223e+00 1.151680564880371094e+01 3.789487123489379883e+00 2.165237665176391602e+00
2.250000000000000000e+03 7.743586730957031250e+01 3.475577163696289062e+01 -1.804276704788208008e+00 1.432856273651123047e+01 3.757285833358764648e+00 3.724431395530700684e-01
2.251000000000000000e+03 7.762683868408203125e+01 2.528592491149902344e+01 -8.349413871765136719e-01 1.214314460754394531e+01 3.392460823059082031e+00 6.367172002792358398e-01
2.252000000000000000e+03 7.244242095947265625e+01 3.400744628906250000e+01 3.913487121462821960e-02 1.970448732376098633e+00 6.028750538825988770e-01 -1.306570291519165039e+00
2.253000000000000000e+03 7.642875671386718750e+01 2.750130271911621094e+01 -2.397336006164550781e+00 1.419705963134765625e+01 3.539917230606079102e+00 1.630591630935668945e+00
2.254000000000000000e+03 6.866300201416015625e+01 3.553199005126953125e+01 2.089419811964035034e-01 5.766648650169372559e-01 2.356820553541183472e-01 5.118811130523681641e-01
2.255000000000000000e+03 6.879966735839843750e+01 2.711280632019042969e+01 -1.806882739067077637e+00 3.839638829231262207e-01 -4.268756508827209473e-01 2.546377778053283691e-01
2.256000000000000000e+03 7.019913482666015625e+01 2.658361434936523438e+01 -9.647400975227355957e-01 1.080056428909301758e+00 3.459488973021507263e-02 9.651509523391723633e-01
2.257000000000000000e+03 2.705792808532714844e+01 3.102657127380371094e+01 -8.073810487985610962e-02 -3.256815671920776367e-02 -3.399188071489334106e-02 -6.958638876676559448e-02
2.258000000000000000e+03 6.440918731689453125e+01 2.692659759521484375e+01 -2.311332941055297852e+00 -3.081208327785134315e-03 -6.943241953849792480e-01 -3.215536475181579590e-01
2.259000000000000000e+03 6.515896606445312500e+01 2.692481613159179688e+01 -2.264784336090087891e+00 2.318657562136650085e-02 -6.724792718887329102e-01 -2.726522684097290039e-01
2.260000000000000000e+03 3.727388620376586914e+00 4.729427814483642578e+00 1.720748400657612365e-06 2.645668701006798074e-06 1.309925096393271815e-06 -5.297253210301278159e-06
2.261000000000000000e+03 4.524210929870605469e+00 4.461541652679443359e+00 -2.418868461973033845e-06 -3.714001650223508477e-06 -1.839861056396330241e-06 7.722628652118146420e-07
2.262000000000000000e+03 6.701259136199951172e+00 4.306495666503906250e+00 5.604373654932714999e-06 4.436246854311320931e-06 3.012186198247945867e-06 3.087304548898828216e-06
2.263000000000000000e+03 5.412174224853515625e+00 5.889541149139404297e+00 1.308280570810893551e-05 4.773057682427861437e-08 3.939160706067923456e-06 6.374854820023756474e-06
2.264000000000000000e+03 2.437143707275390625e+01 2.919383239746093750e+01 -3.806001693010330200e-02 -6.281971186399459839e-02 -3.026391752064228058e-02 -6.369096040725708008e-02
2.265000000000000000e+03 5.334053039550781250e+00 4.957389354705810547e+00 -2.036684918493847363e-06 -1.947620603459654376e-06 -1.195291588373947889e-06 4.140371743233117741e-07
2.266000000000000000e+03 9.078047752380371094e+00 5.670670986175537109e+00 -8.121453902276698500e-06 -2.865705255317152478e-06 -3.296147724540787749e-06 -1.697756260909955017e-06
2.267000000000000000e+03 7.452990055084228516e+00 4.315765857696533203e+00 -5.926339781581191346e-06 -3.174244511683355086e-06 -2.730175310716731474e-06 -1.225000573867873754e-06
2.268000000000000000e+03 8.301554679870605469e+00 4.993252754211425781e+00 -6.990883775870315731e-06 -1.597822006260685157e-06 -2.576611677795881405e-06 -2.900841991504421458e-06
2.269000000000000000e+03 6.275074768066406250e+01 3.804752349853515625e+01 5.468198060989379883e-01 -2.905440330505371094e-01 7.688272744417190552e-02 5.433532595634460449e-01
2.270000000000000000e+03 2.990490913391113281e+01 3.089383316040039062e+01 -1.599629819393157959e-01 -1.641993969678878784e-02 -5.291487649083137512e-02 -1.108826845884323120e-01
2.271000000000000000e+03 8.706276893615722656e+00 -4.186427116394042969e+00 -4.280723806004971266e-04 -2.503784489817917347e-04 -2.035352517850697041e-04 -1.104807088267989457e-04
2.272000000000000000e+03 2.777725028991699219e+01 3.101686286926269531e+01 -9.878674894571304321e-02 -2.937122806906700134e-02 -3.844739124178886414e-02 -8.035101741552352905e-02
2.273000000000000000e+03 2.919810295104980469e+01 3.094492530822753906e+01 -1.379628628492355347e-01 -2.143707498908042908e-02 -4.781998321413993835e-02 -1.009849980473518372e-01
2.274000000000000000e+03 7.799811553955078125e+01 2.770521163940429688e+01 -1.472014665603637695e+00 1.440966701507568359e+01 3.881295680999755859e+00 -1.489349961280822754e+00
2.275000000000000000e+03 3.130463409423828125e+01 3.075093269348144531e+01 -2.096438407897949219e-01 -6.038785912096500397e-03 -6.470479071140289307e-02 -1.310451924800872803e-01
2.276000000000000000e+03 3.200550079345703125e+01 3.065902900695800781e+01 -2.377272397279739380e-01 -9.256901685148477554e-04 -7.159587740898132324e-02 -1.415224671363830566e-01
2.277000000000000000e+03 7.980679035186767578e+00 -4.184728622436523438e+00 5.651041283272206783e-04 9.748573938850313425e-05 1.987769501283764839e-04 1.293487293878570199e-04
2.278000000000000000e+03 1.145676517486572266e+01 -9.363966941833496094e+00 -9.579543839208781719e-04 -3.380164853297173977e-04 -3.887912607751786709e-04 3.258518700022250414e-04
2.279000000000000000e+03 3.060592269897460938e+01 3.082860374450683594e+01 -1.839820146560668945e-01 -1.149704307317733765e-02 -5.864371731877326965e-02 -1.211226135492324829e-01
2.280000000000000000e+03 6.755948638916015625e+01 3.696287155151367188e+01 7.979030609130859375e-01 2.859455347061157227e-01 3.251545727252960205e-01 5.066110491752624512e-01
2.281000000000000000e+03 6.520536804199218750e+01 3.582751846313476562e+01 2.489878423511981964e-02 -1.627500057220458984e-01 -4.135536774992942810e-02 7.423171997070312500e-01
2.282000000000000000e+03 2.848852729797363281e+01 3.098444366455078125e+01 -1.172959655523300171e-01 -2.580938860774040222e-02 -4.293160513043403625e-02 -9.057859331369400024e-02
2.283000000000000000e+03 6.380318450927734375e+01 3.596824264526367188e+01 -1.030500456690788269e-01 -2.448889464139938354e-01 -1.043816953897476196e-01 7.363339662551879883e-01
2.284000000000000000e+03 6.238029098510742188e+01 3.592080688476562500e+01 -5.120222643017768860e-02 -2.472472637891769409e-01 -8.953484892845153809e-02 6.776322126388549805e-01
2.285000000000000000e+03 7.542819976806640625e+01 3.368069458007812500e+01 -1.582221865653991699e+00 1.222592258453369141e+01 3.193110227584838867e+00 -3.786534309387207031e+00
2.286000000000000000e+03 3.917065429687500000e+01 2.930079269409179688e+01 -6.321874856948852539e-01 4.565425962209701538e-02 -1.759599745273590088e-01 -2.470730990171432495e-01
2.287000000000000000e+03 3.270799255371093750e+01 3.055100822448730469e+01 -2.678396105766296387e-01 4.690987523645162582e-03 -7.894458621740341187e-02 -1.518483608961105347e-01
2.288000000000000000e+03 3.706486892700195312e+01 3.040878677368164062e+01 -4.905025064945220947e-01 3.517181053757667542e-02 -1.365992128849029541e-01 -1.757219582796096802e-01
2.289000000000000000e+03 3.845246124267578125e+01 2.943352699279785156e+01 -5.847813487052917480e-01 4.273136705160140991e-02 -1.626150012016296387e-01 -2.374401092529296875e-01
2.290000000000000000e+03 3.988561630249023438e+01 2.916168022155761719e+01 -6.804936528205871582e-01 4.891945421695709229e-02 -1.894722580909729004e-01 -2.576007843017578125e-01
2.291000000000000000e+03 3.633196258544921875e+01 3.054927062988281250e+01 -4.451790153980255127e-01 3.151015937328338623e-02 -1.241006553173065186e-01 -1.676244437694549561e-01
2.292000000000000000e+03 4.215703201293945312e+01 2.940664482116699219e+01 -8.625113368034362793e-01 5.247805267572402954e-02 -2.430099993944168091e-01 -2.331502437591552734e-01
2.293000000000000000e+03 3.341065216064453125e+01 3.042835807800292969e+01 -3.000703752040863037e-01 9.604666382074356079e-03 -8.713971823453903198e-02 -1.627055555582046509e-01
2.294000000000000000e+03 7.293791770935058594e+00 -4.986841201782226562e+00 8.938570972532033920e-04 -2.176586422137916088e-04 2.028595336014404893e-04 5.093809886602684855e-05
2.295000000000000000e+03 4.206595230102539062e+01 2.871465301513671875e+01 -8.385216593742370605e-01 5.423355847597122192e-02 -2.352864295244216919e-01 -2.911826372146606445e-01
2.296000000000000000e+03 4.499768829345703125e+01 2.743400955200195312e+01 -1.015623688697814941e+00 5.320956185460090637e-02 -2.887242436408996582e-01 -3.970527052879333496e-01
2.297000000000000000e+03 3.411475372314453125e+01 3.029428100585937500e+01 -3.343889713287353516e-01 1.506834384053945541e-02 -9.579618275165557861e-02 -1.736347675323486328e-01
2.298000000000000000e+03 3.482331466674804688e+01 3.015180587768554688e+01 -3.708280920982360840e-01 1.979549787938594818e-02 -1.053097769618034363e-01 -1.846187412738800049e-01
2.299000000000000000e+03 6.208633804321289062e+01 2.555282020568847656e+01 -1.633558273315429688e+00 1.034661754965782166e-02 -4.869634807109832764e-01 -3.902416825294494629e-01
2.300000000000000000e+03 4.060729598999023438e+01 2.901708030700683594e+01 -7.320264577865600586e-01 5.111382901668548584e-02 -2.042737901210784912e-01 -2.684270739555358887e-01
2.301000000000000000e+03 4.822772216796875000e+01 2.831292724609375000e+01 -1.399637460708618164e+00 3.753480687737464905e-02 -4.086308181285858154e-01 -3.089917898178100586e-01
2.302000000000000000e+03 4.516666412353515625e+01 2.882610511779785156e+01 -1.120637536048889160e+00 5.093771219253540039e-02 -3.209099471569061279e-01 -2.706061601638793945e-01
2.303000000000000000e+03 5.515409469604492188e+01 2.747710227966308594e+01 -2.028557538986206055e+00 -1.582028903067111969e-02 -6.133133769035339355e-01 -3.910508155822753906e-01
2.304000000000000000e+03 5.898210906982421875e+01 2.646224784851074219e+01 -2.000272989273071289e+00 -3.867844119668006897e-02 -6.116854548454284668e-01 -4.662448763847351074e-01
2.305000000000000000e+03 3.699730682373046875e+01 2.970897293090820312e+01 -4.936701655387878418e-01 3.423549234867095947e-02 -1.378304064273834229e-01 -2.171850353479385376e-01
2.306000000000000000e+03 4.356922149658203125e+01 2.841464805603027344e+01 -9.523538947105407715e-01 5.501340702176094055e-02 -2.692021429538726807e-01 -3.140996992588043213e-01
2.307000000000000000e+03 4.900566482543945312e+01 2.819715499877929688e+01 -1.472533583641052246e+00 3.224036097526550293e-02 -4.320879578590393066e-01 -3.183766305446624756e-01
2.308000000000000000e+03 7.253677845001220703e+00 -4.219205379486083984e+00 -4.189642204437404871e-04 -1.350745296804234385e-04 -1.662116264924407005e-04 -5.731692726840265095e-05
2.309000000000000000e+03 8.011938095092773438e+00 -6.618179798126220703e+00 -2.493505016900599003e-04 -1.801722974050790071e-04 -1.288568309973925352e-04 -1.364607887808233500e-04
2.310000000000000000e+03 5.134699630737304688e+01 2.859472846984863281e+01 -1.814361453056335449e+00 1.497979555279016495e-02 -5.398144721984863281e-01 -2.597225904464721680e-01
2.311000000000000000e+03 1.255432605743408203e+01 6.656129360198974609e+00 1.189925296785077080e-05 1.126585516431077849e-06 3.907751761289546266e-06 1.789499378901382443e-06
2.312000000000000000e+03 4.432749938964843750e+01 2.827056503295898438e+01 -1.010949611663818359e+00 5.471356958150863647e-02 -2.868708074092864990e-01 -3.254851698875427246e-01
2.313000000000000000e+03 6.522473335266113281e+00 -4.309734344482421875e+00 2.226365904789417982e-04 3.128727839794009924e-04 1.606528094271197915e-04 2.490291080903261900e-04
2.314000000000000000e+03 7.180417060852050781e+00 -5.721242427825927734e+00 -1.565474434755742550e-03 -1.384119968861341476e-04 -5.111659411340951920e-04 -2.766172692645341158e-04
2.315000000000000000e+03 6.053813934326171875e+01 2.636522865295410156e+01 -2.018005132675170898e+00 -3.677029907703399658e-02 -6.164326667785644531e-01 -4.488076269626617432e-01
2.316000000000000000e+03 4.133262252807617188e+01 2.886709213256835938e+01 -7.838524580001831055e-01 5.302547663450241089e-02 -2.192481011152267456e-01 -2.794862091541290283e-01
2.317000000000000000e+03 6.736293029785156250e+01 2.700839996337890625e+01 -2.047672986984252930e+00 1.672540158033370972e-01 -5.641257166862487793e-01 -3.315473347902297974e-02
2.318000000000000000e+03 5.822300338745117188e+01 2.721962547302246094e+01 -2.245066165924072266e+00 -3.837307170033454895e-02 -6.850317716598510742e-01 -4.183185696601867676e-01
2.319000000000000000e+03 5.588823318481445312e+01 2.669843101501464844e+01 -1.872982263565063477e+00 -2.185483835637569427e-02 -5.684511661529541016e-01 -4.644209146499633789e-01
2.320000000000000000e+03 5.743196105957031250e+01 2.656994438171386719e+01 -1.947867751121520996e+00 -3.190735727548599243e-02 -5.939325094223022461e-01 -4.696538746356964111e-01
2.321000000000000000e+03 6.663315582275390625e+01 2.696770477294921875e+01 -2.140160083770751953e+00 1.065094023942947388e-01 -6.100952625274658203e-01 -1.324753463268280029e-01
2.322000000000000000e+03 5.132649612426757812e+01 2.789550781250000000e+01 -1.690970182418823242e+00 1.784566789865493774e-02 -5.019373297691345215e-01 -3.454043865203857422e-01
2.323000000000000000e+03 1.256764984130859375e+01 -5.478575706481933594e+00 -9.080090676434338093e-04 -1.144428242696449161e-04 -3.067355719394981861e-04 2.342901425436139107e-04
2.324000000000000000e+03 4.662315750122070312e+01 2.786294937133789062e+01 -1.193365097045898438e+00 4.765130206942558289e-02 -3.437141478061676025e-01 -3.597097694873809814e-01
2.325000000000000000e+03 6.289138793945312500e+01 2.623489761352539062e+01 -1.949851989746093750e+00 -4.195481538772583008e-03 -5.862142443656921387e-01 -3.738111257553100586e-01
2.326000000000000000e+03 5.745399475097656250e+01 2.727615356445312500e+01 -2.197031736373901367e+00 -3.205320239067077637e-02 -6.687254905700683594e-01 -4.132180213928222656e-01
2.327000000000000000e+03 5.208985900878906250e+01 2.780650520324707031e+01 -1.762562274932861328e+00 1.140542794018983841e-02 -5.253470540046691895e-01 -3.547224104404449463e-01
2.328000000000000000e+03 5.435129928588867188e+01 2.685337257385253906e+01 -1.783088326454162598e+00 -8.612193167209625244e-03 -5.375101566314697266e-01 -4.524731636047363281e-01
2.329000000000000000e+03 6.959812164306640625e+01 2.581791305541992188e+01 -6.719612479209899902e-01 1.124722123146057129e+00 1.358282566070556641e-01 9.064459204673767090e-01
2.330000000000000000e+03 6.946646881103515625e+01 3.603515625000000000e+01 5.787060856819152832e-01 1.148950934410095215e+00 5.182970762252807617e-01 1.491799205541610718e-01
2.331000000000000000e+03 7.053468322753906250e+01 3.630047225952148438e+01 7.358117699623107910e-01 2.001718044281005859e+00 8.212589025497436523e-01 -3.908337950706481934e-01
2.332000000000000000e+03 6.913523101806640625e+01 3.697439956665039062e+01 9.454069733619689941e-01 1.245315194129943848e+00 6.572166681289672852e-01 2.488480508327484131e-01
2.333000000000000000e+03 4.684978866577148438e+01 3.792514419555664062e+01 1.817094394937157631e-03 -6.244809925556182861e-02 -1.818930171430110931e-02 3.267342224717140198e-02
2.334000000000000000e+03 1.247688961029052734e+01 4.519707202911376953e+00 1.187851830763975158e-05 -1.747790889794487157e-07 3.511121803967398591e-06 2.705338886244135210e-07
2.335000000000000000e+03 1.042188835144042969e+01 7.858620643615722656e+00 -1.209441052196780220e-05 -3.089741312578553334e-06 -4.555245595838641748e-06 -4.802088369615375996e-06
2.336000000000000000e+03 7.771722412109375000e+01 3.292621612548828125e+01 -9.562681913375854492e-01 1.670760726928710938e+01 4.725401401519775391e+00 2.633692026138305664e+00
2.337000000000000000e+03 5.975922012329101562e+01 2.641346740722656250e+01 -2.014333963394165039e+00 -3.677147626876831055e-02 -6.153316497802734375e-01 -4.593815803527832031e-01
2.338000000000000000e+03 5.513853073120117188e+01 3.999995422363281250e+01 2.408939450979232788e-01 -3.006045222282409668e-01 -1.791317015886306763e-02 1.423195600509643555e-01
2.339000000000000000e+03 4.539456176757812500e+01 3.858836364746093750e+01 1.944414922036230564e-03 -4.190464317798614502e-02 -1.198806893080472946e-02 2.055248618125915527e-02
2.340000000000000000e+03 6.064579772949218750e+01 3.749017715454101562e+01 3.076499402523040771e-01 -3.175853490829467773e-01 -2.980619901791214943e-03 5.540951490402221680e-01
2.341000000000000000e+03 6.032450103759765625e+01 3.567314529418945312e+01 -8.371203392744064331e-02 -2.076333165168762207e-01 -8.740360289812088013e-02 5.835944414138793945e-01
2.342000000000000000e+03 6.816592407226562500e+01 3.625219345092773438e+01 5.265817642211914062e-01 4.254920184612274170e-01 2.856221497058868408e-01 5.578501224517822266e-01
2.343000000000000000e+03 1.148705768585205078e+01 4.763989925384521484e+00 -1.225566302309744060e-05 -3.841632079115697707e-08 -3.688223614517482929e-06 -2.573113988546538167e-06
2.344000000000000000e+03 2.455250930786132812e+01 -1.318657636642456055e+00 1.189539674669504166e-02 -1.330733180046081543e+00 -3.956513404846191406e-01 -2.305260747671127319e-01
2.345000000000000000e+03 2.595810127258300781e+01 1.435863375663757324e+00 3.058447036892175674e-03 -1.125644326210021973e+00 -3.367757797241210938e-01 -2.876027524471282959e-01
2.346000000000000000e+03 3.274185180664062500e+00 6.056509017944335938e+00 -6.541524271597154438e-06 8.092341886367648840e-06 4.652452787468064344e-07 -2.455704589010565542e-06
2.347000000000000000e+03 2.491492986679077148e+00 6.226972579956054688e+00 -1.409100786986527964e-05 -3.257371872678049840e-06 -5.204513854550896212e-06 1.434475507267052308e-06
2.348000000000000000e+03 2.592279052734375000e+01 -1.778174400329589844e+01 3.400119394063949585e-02 -1.424701690673828125e+00 -4.172101616859436035e-01 -1.232677176594734192e-01
2.349000000000000000e+03 2.580056762695312500e+01 -1.640249443054199219e+01 1.960859447717666626e-02 -1.427195429801940918e+00 -4.222760498523712158e-01 -1.233785822987556458e-01
2.350000000000000000e+03 2.585226249694824219e+01 -3.967155218124389648e+00 2.885666303336620331e-02 -1.267249107360839844e+00 -3.715177178382873535e-01 -2.447165250778198242e-01
2.351000000000000000e+03 2.445822143554687500e+01 -8.148101806640625000e+00 1.518122199922800064e-02 -1.500001192092895508e+00 -4.454459846019744873e-01 -1.952906996011734009e-01
2.352000000000000000e+03 2.588315010070800781e+01 -5.333447933197021484e+00 3.788042441010475159e-02 -1.291726589202880859e+00 -3.761538267135620117e-01 -2.357916533946990967e-01
2.353000000000000000e+03 1.033857536315917969e+01 -1.562668037414550781e+01 1.550477580167353153e-03 3.001175937242805958e-04 5.551785579882562160e-04 -3.423097077757120132e-04
2.354000000000000000e+03 1.126265144348144531e+01 1.033134269714355469e+01 1.203508873004466295e-05 4.231724687997484580e-06 4.880043888988438994e-06 3.095467718594591133e-06
2.355000000000000000e+03 9.807355880737304688e+00 5.709648609161376953e+00 7.360717518167803064e-06 4.626639110938413069e-06 3.596206852307659574e-06 4.888810508418828249e-06
2.356000000000000000e+03 1.018085861206054688e+01 1.716076087951660156e+01 1.650877129577565938e-05 2.101453674185904674e-06 5.583067377301631495e-06 -1.388983378092234489e-06
2.357000000000000000e+03 1.141486358642578125e+01 -1.052096843719482422e+01 1.033601234667003155e-03 3.081683826167136431e-04 4.025308880954980850e-04 -5.124285235069692135e-04
2.358000000000000000e+03 1.119998550415039062e+01 -1.274923610687255859e+01 1.197112840600311756e-03 4.710563807748258114e-04 5.004507838748395443e-04 -8.053128258325159550e-04
2.359000000000000000e+03 2.592167663574218750e+01 7.078106701374053955e-02 1.391097065061330795e-02 -1.166388273239135742e+00 -3.457432091236114502e-01 -2.742780148983001709e-01
2.360000000000000000e+03 8.372583389282226562e+00 -3.252988433837890625e+01 1.990075781941413879e-02 -1.789615838788449764e-03 5.433342885226011276e-03 -3.734295256435871124e-03
2.361000000000000000e+03 8.065229415893554688e+00 -2.906940269470214844e+01 -9.449174394831061363e-04 -2.467224840074777603e-03 -1.023642718791961670e-03 -1.748624723404645920e-03
2.362000000000000000e+03 5.705839920043945312e+01 3.809086990356445312e+01 1.965509206056594849e-01 -3.211559653282165527e-01 -3.738151490688323975e-02 2.992248237133026123e-01
2.363000000000000000e+03 7.484290313720703125e+01 3.734130859375000000e+01 2.313386835157871246e-02 8.395661354064941406e+00 2.525638580322265625e+00 -1.322421312332153320e+00
2.364000000000000000e+03 7.484231567382812500e+01 3.527341079711914062e+01 -7.558742165565490723e-01 9.145949363708496094e+00 2.517022609710693359e+00 -2.610826492309570312e+00
2.365000000000000000e+03 1.533951377868652344e+01 4.030619812011718750e+01 -1.640344562474638224e-04 4.833098500967025757e-06 -4.776040805154480040e-05 3.089604797423817217e-05
2.366000000000000000e+03 1.833720970153808594e+01 3.857297897338867188e+01 -1.286890183109790087e-04 -5.364464959711767733e-05 -5.470010000863112509e-05 1.595226058270782232e-05
2.367000000000000000e+03 2.574390220642089844e+01 -1.088870811462402344e+01 4.898253828287124634e-03 -1.384748697280883789e+00 -4.139551222324371338e-01 -1.906145215034484863e-01
2.368000000000000000e+03 2.441313362121582031e+01 -9.544859886169433594e+00 2.179828938096761703e-03 -1.519512653350830078e+00 -4.551998376846313477e-01 -1.872795075178146362e-01
2.369000000000000000e+03 7.493543243408203125e+01 -3.065478134155273438e+01 6.874511018395423889e-03 4.466845989227294922e+00 1.342116117477416992e+00 2.569005824625492096e-02
2.370000000000000000e+03 7.339975738525390625e+01 -3.132038307189941406e+01 3.751243697479367256e-03 4.273977279663085938e+00 1.283318519592285156e+00 2.355942316353321075e-02
2.371000000000000000e+03 2.593096923828125000e+01 -6.697411537170410156e+00 3.011184744536876678e-02 -1.317838430404663086e+00 -3.863179683685302734e-01 -2.276548296213150024e-01
2.372000000000000000e+03 7.371619415283203125e+01 1.956983566284179688e+01 4.074988961219787598e-01 6.161160469055175781e+00 1.970597743988037109e+00 1.874365925788879395e+00
2.373000000000000000e+03 7.530073547363281250e+01 -2.085976791381835938e+01 1.479371264576911926e-02 4.603099822998046875e+00 1.385368108749389648e+00 6.512756645679473877e-02
2.374000000000000000e+03 7.401712799072265625e+01 -2.223375892639160156e+01 2.278829365968704224e-02 4.431525230407714844e+00 1.336294054985046387e+00 7.147880643606185913e-02
2.375000000000000000e+03 7.462316131591796875e+01 1.225789070129394531e+01 2.846718132495880127e-01 6.140420913696289062e+00 1.927527904510498047e+00 1.100103497505187988e+00
2.376000000000000000e+03 7.383865356445312500e+01 -1.685848045349121094e+01 3.038060292601585388e-02 4.476173400878906250e+00 1.351966261863708496e+00 1.158683747053146362e-01
2.377000000000000000e+03 7.447329711914062500e+01 5.566614627838134766e+00 1.703864783048629761e-01 5.478906154632568359e+00 1.694787859916687012e+00 6.701833009719848633e-01
2.378000000000000000e+03 7.433734893798828125e+01 -2.757059097290039062e+00 8.957622945308685303e-02 4.950175285339355469e+00 1.511925458908081055e+00 3.478257656097412109e-01
2.379000000000000000e+03 7.481251525878906250e+01 -1.376171302795410156e+01 3.174005821347236633e-02 4.653588771820068359e+00 1.405598759651184082e+00 1.316778361797332764e-01
2.380000000000000000e+03 7.328901672363281250e+01 -1.406755828857421875e+01 4.668775200843811035e-02 4.450545310974121094e+00 1.349169969558715820e+00 1.603695303201675415e-01
2.381000000000000000e+03 7.552277374267578125e+01 -6.658606052398681641e+00 4.210884124040603638e-02 4.979999542236328125e+00 1.506632447242736816e+00 2.101544439792633057e-01
2.382000000000000000e+03 7.422191619873046875e+01 -7.792475223541259766e+00 5.984210595488548279e-02 4.739947795867919922e+00 1.439936995506286621e+00 2.369682639837265015e-01
2.383000000000000000e+03 7.435982513427734375e+01 4.200318813323974609e+00 1.586511880159378052e-01 5.349129199981689453e+00 1.652334094047546387e+00 6.089066267013549805e-01
2.384000000000000000e+03 7.434705352783203125e+01 -4.028169631958007812e+00 7.999320328235626221e-02 4.898449897766113281e+00 1.493532896041870117e+00 3.138550519943237305e-01
2.385000000000000000e+03 7.432886505126953125e+01 -5.285478115081787109e+00 7.266277819871902466e-02 4.847604274749755859e+00 1.476080179214477539e+00 2.847489416599273682e-01
2.386000000000000000e+03 7.542997741699218750e+01 1.374194145202636719e+00 8.578795194625854492e-02 5.403859138488769531e+00 1.646894097328186035e+00 4.136686325073242188e-01
2.387000000000000000e+03 7.380297851562500000e+01 -1.036450290679931641e+01 5.585744604468345642e-02 4.606883049011230469e+00 1.398822069168090820e+00 2.037930935621261597e-01
2.388000000000000000e+03 7.334764862060546875e+01 -1.170051002502441406e+01 5.856549367308616638e-02 4.504004001617431641e+00 1.368770837783813477e+00 1.901131868362426758e-01
2.389000000000000000e+03 7.389516448974609375e+01 -1.821311759948730469e+01 2.859028615057468414e-02 4.462363719940185547e+00 1.347286105155944824e+00 1.022057831287384033e-01
2.390000000000000000e+03 7.383862304687500000e+01 -2.472534751892089844e+01 1.741459220647811890e-02 4.374244213104248047e+00 1.317497730255126953e+00 6.216838955879211426e-02
2.391000000000000000e+03 7.481365966796875000e+01 1.954406929016113281e+01 3.042391240596771240e-01 7.080942630767822266e+00 2.215554475784301758e+00 1.768840074539184570e+00
2.392000000000000000e+03 7.577577209472656250e+01 8.285004615783691406e+00 1.366435438394546509e-01 6.139821529388427734e+00 1.882939577102661133e+00 6.918770074844360352e-01
2.393000000000000000e+03 7.568026733398437500e+01 1.520078182220458984e+01 2.389410287141799927e-01 7.100932598114013672e+00 2.201961994171142578e+00 1.231024026870727539e+00
2.394000000000000000e+03 7.429093933105468750e+01 -6.537675380706787109e+00 6.584601104259490967e-02 4.795058727264404297e+00 1.458271503448486328e+00 2.598730623722076416e-01
2.395000000000000000e+03 7.408093261718750000e+01 -7.718031108379364014e-02 1.211269423365592957e-01 5.023074626922607422e+00 1.543260455131530762e+00 4.487333297729492188e-01
2.396000000000000000e+03 7.421404266357421875e+01 2.813153743743896484e+00 1.459509730339050293e-01 5.220520973205566406e+00 1.609941601753234863e+00 5.572590231895446777e-01
2.397000000000000000e+03 7.460724639892578125e+01 8.267552375793457031e+00 2.038958668708801270e-01 5.748315811157226562e+00 1.785663485527038574e+00 8.163630366325378418e-01
2.398000000000000000e+03 7.464414215087890625e+01 1.092433929443359375e+01 2.558324038982391357e-01 6.016505241394042969e+00 1.881701231002807617e+00 9.911043643951416016e-01
2.399000000000000000e+03 7.393938446044921875e+01 -2.090209770202636719e+01 2.562557719647884369e-02 4.438084602355957031e+00 1.339112997055053711e+00 8.353465795516967773e-02
2.400000000000000000e+03 7.434520721435546875e+01 1.507204532623291016e+01 3.691530227661132812e-01 6.245764255523681641e+00 1.984475135803222656e+00 1.387610197067260742e+00
2.401000000000000000e+03 7.463059997558593750e+01 1.811566352844238281e+01 3.599885702133178711e-01 6.762403011322021484e+00 2.136717557907104492e+00 1.659857869148254395e+00
2.402000000000000000e+03 7.516854858398437500e+01 -2.671841621398925781e+01 9.463541209697723389e-03 4.509273052215576172e+00 1.355620980262756348e+00 3.029925003647804260e-02
2.403000000000000000e+03 7.609393310546875000e+01 2.496529579162597656e+01 -8.638513088226318359e-01 1.027902603149414062e+01 2.824552297592163086e+00 1.802633047103881836e+00
2.404000000000000000e+03 5.692151546478271484e+00 -2.871924781799316406e+01 9.633189067244529724e-03 -1.270761131308972836e-03 2.508728299289941788e-03 -1.055497792549431324e-03
2.405000000000000000e+03 1.179450511932373047e+01 -2.137160110473632812e+01 6.424636812880635262e-04 2.069155452772974968e-03 8.134857052937150002e-04 -1.393223879858851433e-03
2.406000000000000000e+03 4.531148910522460938e+00 3.034799957275390625e+01 -4.669696136261336505e-05 9.233685887011233717e-06 -1.123898255173116922e-05 -1.917830559250432998e-05
2.407000000000000000e+03 1.019316768646240234e+01 3.062347030639648438e+01 3.791692142840474844e-05 -3.019690302608069032e-05 2.316006202818243764e-06 3.484408807707950473e-05
2.408000000000000000e+03 2.606892585754394531e+01 9.958849906921386719e+00 -8.950016461312770844e-03 -8.035717010498046875e-01 -2.437565177679061890e-01 -3.535633087158203125e-01
2.409000000000000000e+03 5.708705425262451172e+00 -2.627701187133789062e+01 6.647754926234483719e-03 -4.760177980642765760e-04 1.851521199569106102e-03 -5.716864252462983131e-04
2.410000000000000000e+03 4.664356708526611328e+00 2.799280738830566406e+01 -3.419864151510410011e-05 5.746611577706062235e-07 -1.008719391393242404e-05 -4.412913312989985570e-06
2.411000000000000000e+03 2.572120475769042969e+01 2.126991462707519531e+01 -4.828299209475517273e-02 -3.055009245872497559e-01 -1.061351746320724487e-01 -2.537992000579833984e-01
2.412000000000000000e+03 2.586882972717285156e+01 1.849416351318359375e+01 -3.629663214087486267e-02 -4.197579026222229004e-01 -1.368163675069808960e-01 -2.992959022521972656e-01
2.413000000000000000e+03 2.580411529541015625e+01 1.989183616638183594e+01 -4.222711548209190369e-02 -3.607514500617980957e-01 -1.208935752511024475e-01 -2.783014774322509766e-01
2.414000000000000000e+03 2.599666023254394531e+01 2.828670978546142578e+00 -5.139743909239768982e-03 -1.076193928718566895e+00 -3.244001269340515137e-01 -3.000028133392333984e-01
2.415000000000000000e+03 2.605389404296875000e+01 1.139011573791503906e+01 -8.134574629366397858e-03 -7.411426305770874023e-01 -2.247831672430038452e-01 -3.522564470767974854e-01
2.416000000000000000e+03 2.602994346618652344e+01 1.281819057464599609e+01 -1.215783599764108658e-02 -6.762867569923400879e-01 -2.065333724021911621e-01 -3.480686247348785400e-01
2.417000000000000000e+03 2.607713317871093750e+01 8.522389411926269531e+00 -9.683785960078239441e-03 -8.640007376670837402e-01 -2.621053755283355713e-01 -3.505859971046447754e-01
2.418000000000000000e+03 1.453854751586914062e+01 -2.888895225524902344e+01 9.936028160154819489e-03 -9.305186104029417038e-04 2.701652934774756432e-03 -2.741187578067183495e-03
2.419000000000000000e+03 2.475290679931640625e+01 1.562095355987548828e+01 -1.401596330106258392e-02 -5.824616551399230957e-01 -1.789432764053344727e-01 -2.714537084102630615e-01
2.420000000000000000e+03 5.468798637390136719e+00 2.314567184448242188e+01 -3.090921381954103708e-05 -3.398229409867781214e-06 -1.029223312798421830e-05 4.032925971841905266e-06
2.421000000000000000e+03 1.082473468780517578e+01 2.231072616577148438e+01 2.006531394727062434e-05 -2.746018708421615884e-06 5.195788617129437625e-06 -1.512873586761998013e-05
2.422000000000000000e+03 6.511238574981689453e+00 -1.083060550689697266e+01 1.321629737503826618e-03 2.469837781973183155e-04 4.705840547103434801e-04 1.155821591964922845e-04
2.423000000000000000e+03 5.180514812469482422e+00 -9.393342018127441406e+00 1.303278142586350441e-03 1.309266081079840660e-04 4.302614252083003521e-04 2.585028414614498615e-05
2.424000000000000000e+03 2.531710624694824219e+01 2.649471282958984375e+01 -5.841565504670143127e-02 -1.286954581737518311e-01 -5.613333359360694885e-02 -1.395362019538879395e-01
2.425000000000000000e+03 2.593767547607421875e+01 3.042657089233398438e+01 -6.071085110306739807e-02 -4.519444704055786133e-02 -3.177158907055854797e-02 -6.649252027273178101e-02
2.426000000000000000e+03 2.599822235107421875e+01 1.424455547332763672e+01 -1.607302017509937286e-02 -6.110440492630004883e-01 -1.881351172924041748e-01 -3.409066498279571533e-01
2.427000000000000000e+03 2.596164894104003906e+01 1.566691875457763672e+01 -2.279318496584892273e-02 -5.458765029907226562e-01 -1.706009060144424438e-01 -3.304724395275115967e-01
2.428000000000000000e+03 2.529588890075683594e+01 2.769570541381835938e+01 -5.790169164538383484e-02 -9.785020351409912109e-02 -4.672556743025779724e-02 -1.129995882511138916e-01
2.429000000000000000e+03 2.630259895324707031e+01 2.858520317077636719e+01 -8.004766702651977539e-02 -7.770000398159027100e-02 -4.732429981231689453e-02 -1.156112253665924072e-01
2.430000000000000000e+03 5.865941524505615234e+00 -2.195436477661132812e+01 -4.050014540553092957e-03 7.218244136311113834e-04 -9.984570788219571114e-04 -6.358984683174639940e-05
2.431000000000000000e+03 1.008598899841308594e+01 2.586028671264648438e+01 3.567917519831098616e-05 1.023235927277710289e-05 1.377346052322536707e-05 1.196722223539836705e-06
2.432000000000000000e+03 5.704547405242919922e+00 2.438152694702148438e+01 2.696562296478077769e-05 -5.298385531204985455e-06 6.500171366496942937e-06 -5.927768143010325730e-06
2.433000000000000000e+03 5.666612625122070312e+00 -1.658363533020019531e+01 -2.380271442234516144e-03 -4.387124790810048580e-04 -8.456951472908258438e-04 -1.130588643718510866e-04
2.434000000000000000e+03 5.468204498291015625e+00 -1.506055641174316406e+01 1.998882507905364037e-03 -2.360333928663749248e-05 5.925837322138249874e-04 1.584672136232256889e-04
2.435000000000000000e+03 7.968082904815673828e+00 1.571351337432861328e+01 -8.128662557282950729e-06 4.227624685881892219e-06 -1.170311293208214920e-06 7.897736395534593612e-06
2.436000000000000000e+03 4.128040790557861328e+00 2.060470771789550781e+01 3.209718124708160758e-05 -2.656130845934967510e-06 8.832314961182419211e-06 3.719086180353770033e-06
2.437000000000000000e+03 8.191295623779296875e+00 -1.673626899719238281e+01 -4.771770036313682795e-04 -1.063884468749165535e-03 -4.623184504453092813e-04 2.630114031489938498e-04
2.438000000000000000e+03 4.487788677215576172e+00 -2.616987228393554688e+01 -4.422177560627460480e-03 6.753727211616933346e-04 -1.124041504226624966e-03 4.405898798722773790e-04
2.439000000000000000e+03 4.434898853302001953e+00 1.481374263763427734e+01 2.544736526033375412e-05 -1.204590034831198864e-06 7.272832590388134122e-06 -7.134395332286658231e-07
2.440000000000000000e+03 6.127229690551757812e+00 2.852569580078125000e+01 2.834760380210354924e-05 6.418845259759109467e-06 1.042993517330614850e-05 1.498752590123331174e-05
2.441000000000000000e+03 4.764029502868652344e+00 2.642350578308105469e+01 3.022058808710426092e-05 4.574756530928425491e-06 1.043860356730874628e-05 5.675020474882330745e-06
2.442000000000000000e+03 6.901738166809082031e+00 -2.658471870422363281e+01 -3.965735435485839844e-03 1.383628812618553638e-03 -7.746319752186536789e-04 1.304890029132366180e-03
2.443000000000000000e+03 2.659390068054199219e+01 2.396592521667480469e+01 -7.847295701503753662e-02 -2.008221149444580078e-01 -8.378852158784866333e-02 -2.339208126068115234e-01
2.444000000000000000e+03 2.539165115356445312e+01 2.523483085632324219e+01 -5.736549943685531616e-02 -1.657845377922058105e-01 -6.694500893354415894e-02 -1.681357920169830322e-01
2.445000000000000000e+03 9.268698692321777344e+00 -1.160174369812011719e+01 -6.573362625204026699e-04 3.339980321470648050e-05 -1.871809363365173340e-04 -7.569066656287759542e-05
2.446000000000000000e+03 6.363647937774658203e+00 3.131828308105468750e+01 -5.143898670212365687e-05 -3.285152160970028490e-06 -1.641724156797863543e-05 -1.421713932359125465e-06
2.447000000000000000e+03 5.386075496673583984e+00 2.185097122192382812e+01 2.698240678000729531e-05 2.922659405157901347e-06 8.971520401246380061e-06 1.183378685709612910e-06
2.448000000000000000e+03 5.680774688720703125e+00 1.833576393127441406e+01 -1.354800406261347234e-05 -8.986798093246761709e-06 -6.760440555808600038e-06 -4.710845132649410516e-06
2.449000000000000000e+03 5.149549961090087891e+00 2.061507797241210938e+01 -2.841976856871042401e-05 1.245844032382592559e-06 -8.152177542797289789e-06 -4.118162905797362328e-06
2.450000000000000000e+03 5.500754356384277344e+00 -2.058429718017578125e+01 3.920020535588264465e-03 -7.512769661843776703e-04 9.506230708211660385e-04 3.060517192352563143e-04
2.451000000000000000e+03 5.701529979705810547e+00 -1.811403465270996094e+01 2.562188543379306793e-03 8.648797520436346531e-04 1.028120517730712891e-03 2.116446266882121563e-04
2.452000000000000000e+03 6.587207794189453125e+00 3.490140914916992188e+01 -3.793783253058791161e-05 -6.147093245090218261e-06 -1.322547814197605476e-05 -2.767998375929892063e-05
2.453000000000000000e+03 7.105131149291992188e+00 1.641566848754882812e+01 1.173939745058305562e-05 -1.051594244927400723e-05 3.670364776553469710e-07 -7.083259333739988506e-06
2.454000000000000000e+03 5.506483554840087891e+00 1.283739185333251953e+01 7.436380201397696510e-06 5.244459089226438664e-07 2.388247821727418341e-06 -6.643580491072498262e-06
2.455000000000000000e+03 6.298799037933349609e+00 1.393288326263427734e+01 4.163579887972446159e-06 5.269464509183308110e-07 1.407157924404600635e-06 1.096901360142510384e-05
2.456000000000000000e+03 5.184545516967773438e+00 -3.306060791015625000e+01 8.110537193715572357e-03 -4.722059529740363359e-04 2.291499404236674309e-03 5.862375255674123764e-03
2.457000000000000000e+03 9.745720863342285156e+00 -3.172477149963378906e+01 5.436649662442505360e-04 -4.908405244350433350e-03 -1.309422077611088753e-03 -4.525043535977602005e-03
2.458000000000000000e+03 1.021786212921142578e+01 1.022965145111083984e+01 -1.321710624324623495e-05 -3.579428266675677150e-06 -5.038960352976573631e-06 -2.741349589996389113e-06
2.459000000000000000e+03 3.949845790863037109e+00 9.148346900939941406e+00 1.831360714277252555e-05 3.089643598741531605e-07 5.586771749221952632e-06 1.374306890511434176e-07
2.460000000000000000e+03 5.022586345672607422e+00 1.157662773132324219e+01 -1.014706049318192527e-05 -1.513944539510703180e-06 -3.498301566651207395e-06 4.721544883068418130e-06
2.461000000000000000e+03 7.509609222412109375e+01 2.236738204956054688e+01 -7.291967631317675114e-04 7.817821025848388672e+00 2.345127582550048828e+00 2.012195110321044922e+00
2.462000000000000000e+03 5.274939537048339844e+00 -1.359640789031982422e+01 -1.871439511887729168e-03 -1.294442918151617050e-04 -6.002651061862707138e-04 -3.016250266227871180e-04
2.463000000000000000e+03 5.251161098480224609e+00 -1.077816867828369141e+01 -1.422127010300755501e-03 -2.597121056169271469e-04 -5.045517464168369770e-04 -3.881470183841884136e-05
2.464000000000000000e+03 5.074623584747314453e+00 -8.045092582702636719e+00 -1.148808980360627174e-03 -8.291303674923256040e-05 -3.695165796671062708e-04 -8.109121699817478657e-05
2.465000000000000000e+03 3.649059534072875977e+00 7.110989570617675781e+00 3.105704536210396327e-06 -3.241717877244809642e-06 -4.080400373140946613e-08 1.913978849188424647e-06
2.466000000000000000e+03 5.454424381256103516e+00 8.682170867919921875e+00 1.518624594609718770e-05 -4.045286914333701134e-06 3.342287755003781058e-06 8.022719271139067132e-07
2.467000000000000000e+03 7.087642669677734375e+01 2.597276878356933594e+01 -4.528720676898956299e-01 1.840462327003479004e+00 4.162770807743072510e-01 1.492291569709777832e+00
2.468000000000000000e+03 8.673385620117187500e+00 -2.382531738281250000e+01 9.782919660210609436e-04 1.699739368632435799e-03 8.034093771129846573e-04 6.283540278673171997e-04
2.469000000000000000e+03 1.241140460968017578e+01 -2.525810241699218750e+01 -2.114350907504558563e-03 -1.486841822043061256e-03 -1.080357818864285946e-03 1.613161875866353512e-03
2.470000000000000000e+03 1.110389328002929688e+01 -2.483782005310058594e+01 -4.635342338588088751e-04 1.325742690823972225e-03 2.586625341791659594e-04 -1.210839371196925640e-03
2.471000000000000000e+03 1.061443328857421875e+01 1.356522464752197266e+01 -5.027041424909839407e-06 -2.445755740154709201e-07 -1.581485093993251212e-06 -1.073401472240220755e-05
2.472000000000000000e+03 4.867116451263427734e+00 -5.448209285736083984e+00 -1.054536201991140842e-03 -9.034455433720722795e-05 -3.434642276261001825e-04 -1.582385448273271322e-04
2.473000000000000000e+03 2.571354866027832031e+01 -1.227952766418457031e+01 -2.050217241048812866e-03 -1.405009388923645020e+00 -4.221178889274597168e-01 -1.691753715276718140e-01
2.474000000000000000e+03 7.392778396606445312e+00 -2.810900306701660156e+01 3.339452436193823814e-03 1.683255541138350964e-03 1.506812404841184616e-03 1.462106010876595974e-03
2.475000000000000000e+03 2.475406837463378906e+01 4.221889972686767578e+00 -2.464534714818000793e-02 -1.134064078330993652e+00 -3.476128280162811279e-01 -2.678832113742828369e-01
2.476000000000000000e+03 2.607320022583007812e+01 7.087486743927001953e+00 -1.454539317637681961e-02 -9.201193451881408691e-01 -2.803994119167327881e-01 -3.443472087383270264e-01
2.477000000000000000e+03 7.013617706298828125e+01 3.889949035644531250e+01 1.406710863113403320e+00 2.556728124618530273e+00 1.189031720161437988e+00 -8.353265374898910522e-02
2.478000000000000000e+03 2.590519142150878906e+01 -8.066287994384765625e+00 2.595460787415504456e-02 -1.336539149284362793e+00 -3.931753635406494141e-01 -2.167383730411529541e-01
2.479000000000000000e+03 1.201048564910888672e+01 2.185145187377929688e+01 -3.920813105651177466e-05 1.113097368943272159e-06 -1.142850942414952442e-05 3.578030828066403046e-06
2.480000000000000000e+03 1.064159011840820312e+01 2.032304954528808594e+01 -1.731790689518675208e-05 -8.371471267309971154e-06 -7.706813448749016970e-06 -1.107962634705472738e-05
2.481000000000000000e+03 2.460280609130859375e+01 -2.077292633056640625e+01 3.660319373011589050e-02 -1.582246780395507812e+00 -4.636930823326110840e-01 -1.114645153284072876e-01
2.482000000000000000e+03 2.325497055053710938e+01 -2.398764801025390625e+01 2.627398446202278137e-02 -1.738306522369384766e+00 -5.136097669601440430e-01 -1.003996133804321289e-01
2.483000000000000000e+03 1.112404060363769531e+01 1.154871177673339844e+01 -1.000916836346732453e-05 -7.608005034853704274e-06 -5.285151928546838462e-06 -4.154807356826495379e-06
2.484000000000000000e+03 1.030722904205322266e+01 2.887615203857421875e+01 -4.847332820645533502e-05 -1.787189648894127458e-05 -1.990356759051792324e-05 2.777086592686828226e-05
2.485000000000000000e+03 1.068071556091308594e+01 1.819585418701171875e+01 -2.235131614725105464e-05 3.068574642384191975e-06 -5.784822860732674599e-06 1.460125758967478760e-06
2.486000000000000000e+03 1.089697360992431641e+01 1.918056869506835938e+01 2.252016020065639168e-05 5.762386081187287346e-06 8.484764293825719506e-06 5.855762992723612115e-06
2.487000000000000000e+03 9.733733177185058594e+00 -2.949124145507812500e+01 2.541218185797333717e-03 -3.334377193823456764e-03 -2.379476791247725487e-04 -8.496728260070085526e-04
2.488000000000000000e+03 2.586321830749511719e+01 -2.618606805801391602e+00 2.688011527061462402e-02 -1.237504124641418457e+00 -3.631871938705444336e-01 -2.520735561847686768e-01
2.489000000000000000e+03 2.605652809143066406e+01 5.659982204437255859e+00 -1.452674996107816696e-02 -9.743439555168151855e-01 -2.966612279415130615e-01 -3.308369219303131104e-01
2.490000000000000000e+03 2.571357345581054688e+01 -1.365494060516357422e+01 4.606925882399082184e-03 -1.419274210929870605e+00 -4.244001805782318115e-01 -1.536401063203811646e-01
2.491000000000000000e+03 5.125897598266601562e+01 3.881110000610351562e+01 6.712893396615982056e-02 -1.586825102567672729e-01 -2.746607363224029541e-02 1.187320202589035034e-01
2.492000000000000000e+03 2.293064498901367188e+01 -3.079516792297363281e+01 -7.099062949419021606e-02 -1.869223594665527344e+00 -5.820642709732055664e-01 -1.197174936532974243e-01
2.493000000000000000e+03 2.483261871337890625e+01 -3.071724128723144531e+01 -6.798464059829711914e-02 -1.554607629776000977e+00 -4.867776930332183838e-01 -8.854252099990844727e-02
2.494000000000000000e+03 1.129162311553955078e+01 2.895653724670410156e+01 2.607110764074604958e-05 1.864445948740467429e-05 1.341467032034415752e-05 -2.318866563655319624e-06
2.495000000000000000e+03 8.725731849670410156e+00 2.476581573486328125e+01 2.483603930159006268e-05 1.282601533603155985e-05 1.129861630033701658e-05 3.679576821014052257e-07
2.496000000000000000e+03 6.542994499206542969e+00 3.314128494262695312e+01 5.011661414755508304e-05 -1.327305653830990195e-06 1.463679291191510856e-05 1.831925692385993898e-05
2.497000000000000000e+03 7.296496582031250000e+01 2.752001380920410156e+01 -6.021521687507629395e-01 3.341818571090698242e+00 8.218998908996582031e-01 2.712975502014160156e+00
2.498000000000000000e+03 7.396762084960937500e+01 3.598741531372070312e+01 1.305566281080245972e-01 6.956943511962890625e+00 2.126250028610229492e+00 -1.907056808471679688e+00
2.499000000000000000e+03 7.397403717041015625e+01 2.815137863159179688e+01 -5.946885347366333008e-01 5.235210895538330078e+00 1.392156720161437988e+00 3.937362194061279297e+00
2.500000000000000000e+03 7.504753875732421875e+01 2.821863746643066406e+01 -1.426284551620483398e+00 9.901752471923828125e+00 2.542640447616577148e+00 4.894670486450195312e+00
2.501000000000000000e+03 7.507797241210937500e+01 2.769391059875488281e+01 -1.584913372993469238e+00 1.023736763000488281e+01 2.595736265182495117e+00 4.215856552124023438e+00
2.502000000000000000e+03 7.631533050537109375e+01 3.272391891479492188e+01 -2.700678586959838867e+00 1.989019012451171875e+01 5.156853199005126953e+00 -2.038566112518310547e+00
2.503000000000000000e+03 7.373148345947265625e+01 3.388966369628906250e+01 2.685904130339622498e-02 4.930045127868652344e+00 1.487071156501770020e+00 -3.019376516342163086e+00
2.504000000000000000e+03 7.400970458984375000e+01 3.352058792114257812e+01 1.420135609805583954e-02 5.288345813751220703e+00 1.590764164924621582e+00 -3.519954681396484375e+00
2.505000000000000000e+03 7.417131805419921875e+01 2.699631309509277344e+01 -8.115106225013732910e-01 6.782304286956787109e+00 1.791238069534301758e+00 3.575397014617919922e+00
2.506000000000000000e+03 7.556182098388671875e+01 3.326102066040039062e+01 -1.806833386421203613e+00 1.374191093444824219e+01 3.580523252487182617e+00 -4.421479701995849609e+00
2.507000000000000000e+03 7.525647735595703125e+01 3.408423614501953125e+01 -1.239692211151123047e+00 1.085507011413574219e+01 2.884613513946533203e+00 -3.541134595870971680e+00
2.508000000000000000e+03 7.759494781494140625e+01 2.927000999450683594e+01 -2.919839620590209961e-01 1.741768264770507812e+01 5.137709617614746094e+00 -2.782469749450683594e+00
2.509000000000000000e+03 7.572919464111328125e+01 2.855635833740234375e+01 -2.421894311904907227e+00 1.492511463165283203e+01 3.750966072082519531e+00 4.385244369506835938e+00
2.510000000000000000e+03 7.060936737060546875e+01 3.536422729492187500e+01 3.457328081130981445e-01 1.457878947257995605e+00 5.410835146903991699e-01 -3.900728821754455566e-01
2.511000000000000000e+03 7.628319549560546875e+01 2.623341178894042969e+01 -1.684842586517333984e+00 1.171862316131591797e+01 3.010134220123291016e+00 1.808663725852966309e+00
2.512000000000000000e+03 7.446488952636718750e+01 2.465724945068359375e+01 -4.448290765285491943e-01 7.429562091827392578e+00 2.095419883728027344e+00 2.557482481002807617e+00
2.513000000000000000e+03 7.681985473632812500e+01 3.380804443359375000e+01 -2.399115324020385742e+00 1.615646934509277344e+01 4.127206325531005859e+00 -2.370866388082504272e-01
2.514000000000000000e+03 7.613346099853515625e+01 3.417369842529296875e+01 -2.103541135787963867e+00 1.366938591003417969e+01 3.469753503799438477e+00 -2.041879653930664062e+00
2.515000000000000000e+03 6.589828491210937500e+01 2.693832015991210938e+01 -2.208088874816894531e+00 5.401554331183433533e-02 -6.462219953536987305e-01 -2.124144583940505981e-01
2.516000000000000000e+03 6.741738128662109375e+01 2.629036331176757812e+01 -1.501110553741455078e+00 3.180313706398010254e-01 -3.549237549304962158e-01 1.209293156862258911e-01
2.517000000000000000e+03 7.630711364746093750e+01 2.804801368713378906e+01 -2.793826341629028320e+00 1.545902633666992188e+01 3.799559831619262695e+00 2.193093538284301758e+00
2.518000000000000000e+03 7.580373382568359375e+01 2.800732612609863281e+01 -2.434188842773437500e+00 1.376427555084228516e+01 3.399025917053222656e+00 3.432247161865234375e+00
2.519000000000000000e+03 6.885143280029296875e+01 2.643466758728027344e+01 -1.248727798461914062e+00 6.001166701316833496e-01 -1.945833265781402588e-01 4.679698348045349121e-01
2.520000000000000000e+03 6.891181945800781250e+01 2.574770736694335938e+01 -8.123152256011962891e-01 8.476232886314392090e-01 1.059240940958261490e-02 6.605305671691894531e-01
2.521000000000000000e+03 7.140242004394531250e+01 2.673754882812500000e+01 -6.622530817985534668e-01 1.848274111747741699e+00 3.558063209056854248e-01 1.596640467643737793e+00
2.522000000000000000e+03 7.306946563720703125e+01 2.689092254638671875e+01 -4.489264488220214844e-01 4.065145492553710938e+00 1.084865689277648926e+00 2.841541528701782227e+00
2.523000000000000000e+03 5.051576995849609375e+01 2.728945350646972656e+01 -1.503079533576965332e+00 2.433556132018566132e-02 -4.436231851577758789e-01 -4.109600484371185303e-01
2.524000000000000000e+03 4.585615539550781250e+01 2.799524307250976562e+01 -1.131794095039367676e+00 5.104083567857742310e-02 -3.242259919643402100e-01 -3.482427000999450684e-01
2.525000000000000000e+03 7.219196319580078125e+01 3.517917633056640625e+01 4.943231046199798584e-01 2.807682275772094727e+00 9.906015992164611816e-01 -1.345805048942565918e+00
2.526000000000000000e+03 6.128914833068847656e+00 6.470485687255859375e+00 -1.771999222910380922e-06 -3.470456476861727424e-06 -1.572736664456897415e-06 2.285420208636423922e-07
2.527000000000000000e+03 8.436187744140625000e+00 5.706653118133544922e+00 1.049276124831521884e-05 -6.379503929565544240e-07 2.956443495349958539e-06 1.576592921992414631e-06
2.528000000000000000e+03 9.789830207824707031e+00 4.896159172058105469e+00 -9.165030860458500683e-06 -2.315117171747260727e-06 -3.444044523348566145e-06 -4.559771696222014725e-06
2.529000000000000000e+03 6.550516605377197266e+00 6.114984035491943359e+00 2.249624685646267608e-06 -2.031040139627293684e-06 6.557534248941010446e-08 -4.808567268810293172e-07
2.530000000000000000e+03 7.609849452972412109e+00 5.191940784454345703e+00 5.930288352828938514e-06 3.526448608681675978e-07 1.884880020952550694e-06 2.089200989985329215e-07
2.531000000000000000e+03 2.599299240112304688e+01 3.139109039306640625e+01 -5.927636474370956421e-02 -2.974611520767211914e-02 -2.670674398541450500e-02 -4.964548721909523010e-02
2.532000000000000000e+03 2.650712203979492188e+01 3.021794700622558594e+01 -7.658260315656661987e-02 -4.747818782925605774e-02 -3.721823915839195251e-02 -8.197084069252014160e-02
2.533000000000000000e+03 7.031649017333984375e+01 2.514962768554687500e+01 -2.353274077177047729e-01 1.872471332550048828e+00 4.911431968212127686e-01 1.370458245277404785e+00
2.534000000000000000e+03 5.843852519989013672e+00 6.107654094696044922e+00 -1.017649810819420964e-05 3.467660860678734025e-07 -2.948919700429541990e-06 -7.538113095506560057e-06
2.535000000000000000e+03 3.993609905242919922e+00 5.618831634521484375e+00 4.391057700559031218e-06 -4.540940608421806246e-06 -4.496477856719138799e-08 3.772295031012617983e-06
2.536000000000000000e+03 6.500397205352783203e+00 5.086992263793945312e+00 -5.687260909326141700e-06 -3.429056732784374617e-06 -2.734895360845257528e-06 -3.683830982481595129e-06
2.537000000000000000e+03 6.143867492675781250e+00 5.667116165161132812e+00 6.389723239408340305e-06 9.730581496114609763e-07 2.208834303019102663e-06 5.971535756543744355e-06
2.538000000000000000e+03 9.359793663024902344e+00 -4.988469600677490234e+00 -3.745169087778776884e-04 -3.991005360148847103e-04 -2.320852363482117653e-04 3.115143772447481751e-05
2.539000000000000000e+03 8.649981498718261719e+00 -4.952435493469238281e+00 4.370449751149863005e-04 2.971370122395455837e-04 2.202546020271256566e-04 2.160820877179503441e-04
2.540000000000000000e+03 8.397990226745605469e+00 6.377849102020263672e+00 -1.600519863131921738e-05 1.716376345939352177e-06 -4.286646799300797284e-06 -8.047239816733053885e-07
2.541000000000000000e+03 1.061976432800292969e+01 5.750289440155029297e+00 -1.072912709787487984e-05 -2.290937572979601100e-06 -3.906019173882668838e-06 -4.973504928784677759e-06
2.542000000000000000e+03 2.992915725708007812e+01 3.013629531860351562e+01 -1.709444820880889893e-01 -2.610294334590435028e-02 -5.911422520875930786e-02 -1.356389671564102173e-01
2.543000000000000000e+03 2.923388290405273438e+01 3.016557312011718750e+01 -1.485904306173324585e-01 -3.147394955158233643e-02 -5.401931330561637878e-02 -1.245044469833374023e-01
2.544000000000000000e+03 6.367112350463867188e+01 2.620069885253906250e+01 -1.897110581398010254e+00 1.739627867937088013e-02 -5.639142990112304688e-01 -3.301982879638671875e-01
2.545000000000000000e+03 6.444477844238281250e+01 2.539497184753417969e+01 -1.390977501869201660e+00 1.266283839941024780e-01 -3.793047368526458740e-01 -1.989648044109344482e-01
2.546000000000000000e+03 3.061699676513671875e+01 3.009306335449218750e+01 -1.944668740034103394e-01 -2.009689621627330780e-02 -6.436913460493087769e-02 -1.463879942893981934e-01
2.547000000000000000e+03 3.198778915405273438e+01 2.996598434448242188e+01 -2.469934970140457153e-01 -7.993868552148342133e-03 -7.649621367454528809e-02 -1.682089865207672119e-01
2.548000000000000000e+03 2.853352737426757812e+01 3.018246650695800781e+01 -1.279452890157699585e-01 -3.692245483398437500e-02 -4.946032166481018066e-02 -1.138948872685432434e-01
2.549000000000000000e+03 2.783474731445312500e+01 3.019878196716308594e+01 -1.081731989979743958e-01 -4.141142591834068298e-02 -4.487538710236549377e-02 -1.024582833051681519e-01
2.550000000000000000e+03 2.715008926391601562e+01 3.020923805236816406e+01 -9.140873700380325317e-02 -4.547188803553581238e-02 -4.106418788433074951e-02 -9.210849553346633911e-02
2.551000000000000000e+03 3.267422866821289062e+01 2.987041282653808594e+01 -2.760083377361297607e-01 -2.412320114672183990e-03 -8.352620154619216919e-02 -1.800355464220046997e-01
2.552000000000000000e+03 3.907670974731445312e+01 2.857218551635742188e+01 -6.191941499710083008e-01 4.374323040246963501e-02 -1.726352721452713013e-01 -2.955583631992340088e-01
2.553000000000000000e+03 3.979127120971679688e+01 2.844915962219238281e+01 -6.642997860908508301e-01 4.665715619921684265e-02 -1.852927803993225098e-01 -3.064660131931304932e-01
2.554000000000000000e+03 3.626457214355468750e+01 2.985474586486816406e+01 -4.506916999816894531e-01 2.955144084990024567e-02 -1.263420730829238892e-01 -2.068245410919189453e-01
2.555000000000000000e+03 3.825372695922851562e+01 2.790613746643066406e+01 -5.624591112136840820e-01 3.384835645556449890e-02 -1.585832387208938599e-01 -3.293885588645935059e-01
2.556000000000000000e+03 3.336071014404296875e+01 2.975315093994140625e+01 -3.070578873157501221e-01 3.692169440910220146e-03 -9.100972115993499756e-02 -1.920693069696426392e-01
2.557000000000000000e+03 4.051248550415039062e+01 2.831487274169921875e+01 -7.106052637100219727e-01 4.922359064221382141e-02 -1.984145045280456543e-01 -3.192964494228363037e-01
2.558000000000000000e+03 3.553911590576171875e+01 3.000393104553222656e+01 -4.093077182769775391e-01 2.492693439126014709e-02 -1.153142377734184265e-01 -1.958029270172119141e-01
2.559000000000000000e+03 3.677566528320312500e+01 2.825791549682617188e+01 -4.796292483806610107e-01 2.297410555183887482e-02 -1.369965374469757080e-01 -2.986430525779724121e-01
2.560000000000000000e+03 4.271252822875976562e+01 2.786724281311035156e+01 -8.582526445388793945e-01 5.439640581607818604e-02 -2.411568760871887207e-01 -3.579426705837249756e-01
2.561000000000000000e+03 3.404880905151367188e+01 2.961791419982910156e+01 -3.395941555500030518e-01 8.923523128032684326e-03 -9.920119494199752808e-02 -2.046226263046264648e-01
2.562000000000000000e+03 4.281299972534179688e+01 2.856315422058105469e+01 -8.942949175834655762e-01 5.541475489735603333e-02 -2.516640424728393555e-01 -3.023310899734497070e-01
2.563000000000000000e+03 4.412883758544921875e+01 2.687571716308593750e+01 -9.101537466049194336e-01 5.215337872505187988e-02 -2.574001252651214600e-01 -4.373861849308013916e-01
2.564000000000000000e+03 6.814161682128906250e+01 2.636339759826660156e+01 -1.388929843902587891e+00 4.423529505729675293e-01 -2.839730978012084961e-01 2.784969210624694824e-01
2.565000000000000000e+03 7.099366760253906250e+01 2.431273651123046875e+01 6.510417908430099487e-02 2.779185533523559570e+00 8.532869219779968262e-01 1.766665458679199219e+00
2.566000000000000000e+03 9.418128967285156250e+00 7.920417785644531250e+00 1.269282893190393224e-05 2.062892917820136063e-06 4.426716259331442416e-06 3.054535000046598725e-06
2.567000000000000000e+03 4.123145675659179688e+01 2.816512298583984375e+01 -7.596690058708190918e-01 5.187850818037986755e-02 -2.123371362686157227e-01 -3.325290083885192871e-01
2.568000000000000000e+03 3.763976669311523438e+01 2.883994293212890625e+01 -5.333120226860046387e-01 3.511852398514747620e-02 -1.494580507278442383e-01 -2.710762023925781250e-01
2.569000000000000000e+03 3.474454879760742188e+01 2.947028160095214844e+01 -3.739698529243469238e-01 1.464910339564085007e-02 -1.077962219715118408e-01 -2.177603691816329956e-01
2.570000000000000000e+03 6.121819686889648438e+01 2.488456153869628906e+01 -1.372284054756164551e+00 2.514760196208953857e-02 -4.041409194469451904e-01 -4.120895266532897949e-01
2.571000000000000000e+03 6.132487869262695312e+01 2.631894302368164062e+01 -2.009062528610229492e+00 -3.010535426437854767e-02 -6.117503643035888672e-01 -4.311657547950744629e-01
2.572000000000000000e+03 4.347171783447265625e+01 2.772034645080566406e+01 -9.101643562316894531e-01 5.497968569397926331e-02 -2.565554082393646240e-01 -3.711367249488830566e-01
2.573000000000000000e+03 9.251470565795898438e+00 -5.656221389770507812e+00 5.217386642470955849e-04 2.577302802819758654e-04 2.338406775379553437e-04 9.758536907611414790e-05
2.574000000000000000e+03 4.895212554931640625e+01 2.749790954589843750e+01 -1.378623008728027344e+00 3.497565537691116333e-02 -4.030942022800445557e-01 -3.915093839168548584e-01
2.575000000000000000e+03 4.745658111572265625e+01 2.843418693542480469e+01 -1.328945279121398926e+00 4.128679633140563965e-02 -3.862975537776947021e-01 -2.996230721473693848e-01
2.576000000000000000e+03 4.336764907836914062e+01 2.702166748046875000e+01 -8.646407723426818848e-01 5.217392742633819580e-02 -2.437400519847869873e-01 -4.233417212963104248e-01
2.577000000000000000e+03 5.512168502807617188e+01 2.677324104309082031e+01 -1.829515337944030762e+00 -1.463211607187986374e-02 -5.532442331314086914e-01 -4.589864015579223633e-01
2.578000000000000000e+03 5.660605621337890625e+01 2.592319107055664062e+01 -1.686452031135559082e+00 -2.355125918984413147e-02 -5.130009651184082031e-01 -5.136276483535766602e-01
2.579000000000000000e+03 4.196309280395507812e+01 2.801510238647460938e+01 -8.078951239585876465e-01 5.400975421071052551e-02 -2.261656075716018677e-01 -3.446173965930938721e-01
2.580000000000000000e+03 7.046587371826171875e+01 3.751080703735351562e+01 1.095798254013061523e+00 2.531821489334106445e+00 1.088285923004150391e+00 -3.198751211166381836e-01
2.581000000000000000e+03 5.665873336791992188e+01 2.663107299804687500e+01 -1.912045955657958984e+00 -2.654608897864818573e-02 -5.815775990486145020e-01 -4.681590795516967773e-01
2.582000000000000000e+03 5.285609817504882812e+01 2.771928024291992188e+01 -1.831954240798950195e+00 5.511166993528604507e-03 -5.479329228401184082e-01 -3.639933466911315918e-01
2.583000000000000000e+03 5.362071609497070312e+01 2.763482856750488281e+01 -1.899948716163635254e+00 -1.783081679604947567e-03 -5.705195069313049316e-01 -3.734422326087951660e-01
2.584000000000000000e+03 6.287532043457031250e+01 2.549856758117675781e+01 -1.570677042007446289e+00 3.623711690306663513e-02 -4.603319764137268066e-01 -3.419230282306671143e-01
2.585000000000000000e+03 6.744626617431640625e+01 3.892346954345703125e+01 1.299128770828247070e+00 4.503945708274841309e-01 5.248569846153259277e-01 2.733369767665863037e-01
2.586000000000000000e+03 4.816854476928710938e+01 2.761362838745117188e+01 -1.316388964653015137e+00 3.933581337332725525e-02 -3.831159472465515137e-01 -3.813669979572296143e-01
2.587000000000000000e+03 6.366243743896484375e+01 2.544448852539062500e+01 -1.489674091339111328e+00 7.560034841299057007e-02 -4.242221117019653320e-01 -2.762921452522277832e-01
2.588000000000000000e+03 6.444367980957031250e+01 2.617503929138183594e+01 -1.831848502159118652e+00 5.638512969017028809e-02 -5.326390266418457031e-01 -2.721038162708282471e-01
2.589000000000000000e+03 2.538202857971191406e+01 2.881061553955078125e+01 -5.988537520170211792e-02 -7.404696941375732422e-02 -4.017970338463783264e-02 -9.204947203397750854e-02
2.590000000000000000e+03 5.976904296875000000e+01 2.711828422546386719e+01 -2.321637153625488281e+00 -4.416562989354133606e-02 -7.097408175468444824e-01 -4.234256148338317871e-01
2.591000000000000000e+03 7.464892578125000000e+01 2.827009773254394531e+01 -9.752839207649230957e-01 7.847102165222167969e+00 2.061545610427856445e+00 4.812027454376220703e+00
2.592000000000000000e+03 7.025988769531250000e+01 2.588986015319824219e+01 -5.541706085205078125e-01 1.479922056198120117e+00 2.777254283428192139e-01 1.187011599540710449e+00
2.593000000000000000e+03 2.640255737304687500e+01 3.087050056457519531e+01 -6.879565119743347168e-02 -3.617801144719123840e-02 -3.149209916591644287e-02 -6.380813568830490112e-02
2.594000000000000000e+03 1.152186107635498047e+01 6.745354652404785156e+00 -1.134141984948655590e-05 -2.067942659778054804e-06 -4.022808752779383212e-06 -2.874920255635515787e-06
2.595000000000000000e+03 5.972106933593750000e+01 2.570623397827148438e+01 -1.722442626953125000e+00 -2.542624995112419128e-02 -5.243606567382812500e-01 -4.782827794551849365e-01
2.596000000000000000e+03 1.255268573760986328e+01 5.529956817626953125e+00 -1.161135332949925214e-05 -4.789862373399955686e-07 -3.627101932579535060e-06 -1.126762754211085849e-06
2.597000000000000000e+03 8.218101501464843750e+00 1.224044227600097656e+01 4.513099611358484253e-06 4.725486846268722729e-08 1.368106268273550086e-06 7.257453489728504792e-06
2.598000000000000000e+03 6.646362304687500000e+01 3.745926284790039062e+01 8.193902373313903809e-01 9.220201522111892700e-02 2.734776735305786133e-01 5.205775499343872070e-01
2.599000000000000000e+03 1.117478942871093750e+01 2.452039146423339844e+01 2.590327130747027695e-05 1.426224298484157771e-05 1.204965428769355640e-05 -3.442924310093076201e-07
2.600000000000000000e+03 9.611178398132324219e+00 1.975606346130371094e+01 -3.950280188291799277e-06 7.144475148379569873e-06 9.582583970768610016e-07 3.269045919296331704e-06
2.601000000000000000e+03 4.352542400360107422e+00 6.450818538665771484e+00 -5.771908035967499018e-06 1.235974877999979071e-06 -1.360779947390255984e-06 -5.572017016675090417e-07
2.602000000000000000e+03 6.315591812133789062e+01 3.672580337524414062e+01 2.488638162612915039e-01 -2.634543180465698242e-01 -4.377152305096387863e-03 6.820247173309326172e-01
2.603000000000000000e+03 6.249475860595703125e+01 4.162812042236328125e+01 1.045891523361206055e+00 -4.695926308631896973e-01 1.728896796703338623e-01 1.196837276220321655e-01
2.604000000000000000e+03 2.610411834716796875e+01 -1.915650367736816406e+01 3.827710822224617004e-02 -1.414146065711975098e+00 -4.127606749534606934e-01 -1.145588085055351257e-01
2.605000000000000000e+03 2.744463539123535156e+01 -1.751212501525878906e+01 3.540492430329322815e-02 -1.246489405632019043e+00 -3.633253276348114014e-01 -1.257600486278533936e-01
2.606000000000000000e+03 4.961689472198486328e+00 -6.723816394805908203e+00 9.989838581532239914e-04 7.610532338730990887e-05 3.225267573725432158e-04 1.104846814996562898e-04
2.607000000000000000e+03 7.441863250732421875e+01 3.442433929443359375e+01 -5.248603224754333496e-01 7.742898464202880859e+00 2.165411472320556641e+00 -3.413434267044067383e+00
2.608000000000000000e+03 7.342359161376953125e+01 3.692639160156250000e+01 5.429105162620544434e-01 5.717150688171386719e+00 1.878018379211425781e+00 -1.460544705390930176e+00
2.609000000000000000e+03 7.065219879150390625e+00 8.193617820739746094e+00 1.062762203218881041e-05 4.917118531011510640e-06 4.663422259909566492e-06 -3.666976908789365552e-06
2.610000000000000000e+03 2.729268455505371094e+01 2.874279022216796875e+00 7.716632448136806488e-03 -9.697322845458984375e-01 -2.886047065258026123e-01 -3.425250947475433350e-01
2.611000000000000000e+03 9.044854164123535156e+00 1.767437553405761719e+01 -1.561249518999829888e-05 -8.112967407214455307e-06 -7.117639142961706966e-06 1.679926867836911697e-06
2.612000000000000000e+03 8.892037391662597656e+00 1.502291202545166016e+01 3.993345217168098316e-06 -1.864450069888334838e-07 1.142070004789275117e-06 -1.088682438421528786e-05
2.613000000000000000e+03 7.363698005676269531e+00 2.087156486511230469e+01 6.527894129249034449e-06 1.306057356487144716e-06 2.350185468458221294e-06 -1.083190545614343137e-05
2.614000000000000000e+03 1.008539867401123047e+01 2.326324081420898438e+01 1.175926627183798701e-05 1.416502072970615700e-05 7.777285645715892315e-06 8.869505109032616019e-06
2.615000000000000000e+03 6.518180370330810547e+00 1.213506507873535156e+01 -1.543629196021356620e-06 -4.755419809043814894e-07 -6.057513246560120024e-07 4.710077973868465051e-06
2.616000000000000000e+03 2.744577026367187500e+01 -8.020055770874023438e+00 4.119261726737022400e-02 -1.168301582336425781e+00 -3.381326794624328613e-01 -2.383362650871276855e-01
2.617000000000000000e+03 2.721185111999511719e+01 -3.850116729736328125e+00 4.219594597816467285e-02 -1.133547186851501465e+00 -3.274053633213043213e-01 -2.682411670684814453e-01
2.618000000000000000e+03 1.080069255828857422e+01 -1.378985118865966797e+01 -9.082567994482815266e-04 -7.473431178368628025e-04 -4.966799751855432987e-04 6.381759885698556900e-04
2.619000000000000000e+03 1.135915946960449219e+01 -1.165354156494140625e+01 -1.203560852445662022e-03 -2.993440721184015274e-04 -4.508714773692190647e-04 7.069035782478749752e-04
2.620000000000000000e+03 7.501407623291015625e+01 3.446813201904296875e+01 -1.066165328025817871e+00 9.694119453430175781e+00 2.588386297225952148e+00 -3.378726005554199219e+00
2.621000000000000000e+03 7.501772308349609375e+01 3.608691406250000000e+01 -5.412439703941345215e-01 9.168187141418457031e+00 2.588082790374755859e+00 -1.971523761749267578e+00
2.622000000000000000e+03 6.976013183593750000e+01 -2.592913627624511719e+01 4.161319881677627563e-02 3.873499631881713867e+00 1.174533843994140625e+00 8.279082179069519043e-02
2.623000000000000000e+03 7.011083984375000000e+01 -3.247342681884765625e+01 3.622157871723175049e-02 3.876981019973754883e+00 1.173960804939270020e+00 4.681939259171485901e-02
2.624000000000000000e+03 1.033761024475097656e+01 2.696378517150878906e+01 -4.245148011250421405e-05 -4.816984528588363901e-06 -1.418053943780250847e-05 6.015082817611983046e-06
2.625000000000000000e+03 5.577003860473632812e+01 3.691323471069335938e+01 2.518904954195022583e-02 -2.113727182149887085e-01 -5.585510283708572388e-02 2.638770639896392822e-01
2.626000000000000000e+03 7.301914978027343750e+01 -2.370460700988769531e+01 2.572974562644958496e-02 4.273609161376953125e+00 1.289801716804504395e+00 7.422438263893127441e-02
2.627000000000000000e+03 7.182382202148437500e+01 -2.429273986816406250e+01 3.461948037147521973e-02 4.123572826385498047e+00 1.247457623481750488e+00 8.790183067321777344e-02
2.628000000000000000e+03 7.348197937011718750e+01 1.209308052062988281e+01 3.655648231506347656e-01 5.608908653259277344e+00 1.792341947555541992e+00 1.171673297882080078e+00
2.629000000000000000e+03 7.336633300781250000e+01 1.334945964813232422e+01 4.162715971469879150e-01 5.630198001861572266e+00 1.813940763473510742e+00 1.298095822334289551e+00
2.630000000000000000e+03 7.372303009033203125e+01 -2.723231887817382812e+01 1.700900867581367493e-02 4.335899829864501953e+00 1.305872678756713867e+00 4.756667837500572205e-02
2.631000000000000000e+03 7.240179443359375000e+01 -1.578207397460937500e+01 5.444122478365898132e-02 4.298135757446289062e+00 1.305773138999938965e+00 1.574561446905136108e-01
2.632000000000000000e+03 7.255192565917968750e+01 -1.700365447998046875e+01 4.609897360205650330e-02 4.302765846252441406e+00 1.304659485816955566e+00 1.322178989648818970e-01
2.633000000000000000e+03 7.258754730224609375e+01 -9.879713058471679688e+00 8.149199932813644409e-02 4.428484916687011719e+00 1.352993011474609375e+00 2.322836965322494507e-01
2.634000000000000000e+03 7.312750244140625000e+01 -1.614276051521301270e+00 1.330801993608474731e-01 4.776838779449462891e+00 1.472975730895996094e+00 4.344719350337982178e-01
2.635000000000000000e+03 7.318321228027343750e+01 -2.797385454177856445e+00 1.215425729751586914e-01 4.739152908325195312e+00 1.458208560943603516e+00 3.951971232891082764e-01
2.636000000000000000e+03 7.463528442382812500e+01 9.599976539611816406e+00 2.290834784507751465e-01 5.889012813568115234e+00 1.835428833961486816e+00 8.985574245452880859e-01
2.637000000000000000e+03 7.080086517333984375e+01 4.680546283721923828e+00 3.514899015426635742e-01 4.400849819183349609e+00 1.425701975822448730e+00 7.825635075569152832e-01
2.638000000000000000e+03 7.330142211914062500e+01 5.625937461853027344e+00 2.356712073087692261e-01 5.146909713745117188e+00 1.614774227142333984e+00 7.497115731239318848e-01
2.639000000000000000e+03 7.455492401123046875e+01 6.922882556915283203e+00 1.871828138828277588e-01 5.612529754638671875e+00 1.739913702011108398e+00 7.386978864669799805e-01
2.640000000000000000e+03 7.339984893798828125e+01 6.946246147155761719e+00 2.552511990070343018e-01 5.250901222229003906e+00 1.651845693588256836e+00 8.225044012069702148e-01
2.641000000000000000e+03 7.315122985839843750e+01 -3.990916252136230469e+00 1.124845519661903381e-01 4.691255092620849609e+00 1.441121816635131836e+00 3.611477315425872803e-01
2.642000000000000000e+03 7.294709777832031250e+01 2.963796615600585938e+00 2.063494324684143066e-01 4.925797939300537109e+00 1.539644241333007812e+00 6.255671977996826172e-01
2.643000000000000000e+03 7.246543884277343750e+01 -1.282212924957275391e+01 6.514549255371093750e-02 4.363151073455810547e+00 1.328489065170288086e+00 1.899352818727493286e-01
2.644000000000000000e+03 7.250412750244140625e+01 -2.098857879638671875e+01 3.454806283116340637e-02 4.253016471862792969e+00 1.286269307136535645e+00 9.680661559104919434e-02
2.645000000000000000e+03 7.390989685058593750e+01 -1.955981636047363281e+01 2.320686541497707367e-02 4.449908256530761719e+00 1.341934442520141602e+00 9.105329960584640503e-02
2.646000000000000000e+03 8.414365768432617188e+00 3.695338439941406250e+01 -4.225962402415461838e-05 -2.637206534927827306e-06 -1.346904900856316090e-05 -3.591741187847219408e-05
2.647000000000000000e+03 7.345140838623046875e+01 8.257239341735839844e+00 2.807953953742980957e-01 5.347838878631591797e+00 1.688590288162231445e+00 9.050039052963256836e-01
2.648000000000000000e+03 7.347675323486328125e+01 1.083581924438476562e+01 3.410184085369110107e-01 5.544199943542480469e+00 1.765565395355224609e+00 1.085846066474914551e+00
2.649000000000000000e+03 7.081755065917968750e+01 -2.842536926269531250e+01 2.626573480665683746e-02 3.965313434600830078e+00 1.197473764419555664e+00 6.775691360235214233e-02
2.650000000000000000e+03 5.256329536437988281e+00 -1.218017292022705078e+01 1.573698478750884533e-03 3.442276210989803076e-04 5.753778386861085892e-04 1.564059930387884378e-04
2.651000000000000000e+03 1.138493919372558594e+01 9.088632583618164062e+00 -1.218461147800553590e-05 -2.995469003508333117e-06 -4.554024144454160705e-06 -3.547086407706956379e-06
2.652000000000000000e+03 1.031844997406005859e+01 -1.686452674865722656e+01 -2.143578138202428818e-03 -4.255892999935895205e-04 -7.707502227276563644e-04 8.225202327594161034e-04
2.653000000000000000e+03 2.627543449401855469e+01 2.756085586547851562e+01 -8.097342401742935181e-02 -1.003543362021446228e-01 -5.439832806587219238e-02 -1.396339088678359985e-01
2.654000000000000000e+03 2.830423927307128906e+01 1.578331279754638672e+01 -4.135490953922271729e-02 -4.694233536720275879e-01 -1.532334834337234497e-01 -4.278157949447631836e-01
2.655000000000000000e+03 2.704600715637207031e+01 1.855517005920410156e+01 -5.117432773113250732e-02 -3.934621512889862061e-01 -1.333909481763839722e-01 -3.484342098236083984e-01
2.656000000000000000e+03 7.310684967041015625e+01 1.683673477172851562e+01 5.012615323066711426e-01 5.597882747650146484e+00 1.829743266105651855e+00 1.617079973220825195e+00
2.657000000000000000e+03 7.437457275390625000e+01 1.660336494445800781e+01 3.854309320449829102e-01 6.406210422515869141e+00 2.037492513656616211e+00 1.531525254249572754e+00
2.658000000000000000e+03 9.412138938903808594e+00 -2.002119255065917969e+01 2.267372328788042068e-03 1.179871382191777229e-03 1.034173066727817059e-03 -6.520893657580018044e-04
2.659000000000000000e+03 2.732209014892578125e+01 8.563345909118652344e+00 -5.542642902582883835e-03 -7.847434878349304199e-01 -2.370858341455459595e-01 -3.989644050598144531e-01
2.660000000000000000e+03 2.729902458190917969e+01 1.000547409057617188e+01 -5.684510339051485062e-03 -7.334134578704833984e-01 -2.217293828725814819e-01 -4.032898843288421631e-01
2.661000000000000000e+03 2.988959503173828125e+01 7.317342281341552734e+00 1.998615078628063202e-02 -6.693189144134521484e-01 -1.947998255491256714e-01 -4.650523364543914795e-01
2.662000000000000000e+03 9.970334053039550781e+00 2.146732711791992188e+01 -1.266014692191674840e-06 7.316266419366002083e-06 1.815075620470452122e-06 1.497206176281906664e-05
2.663000000000000000e+03 7.302563476562500000e+01 1.461026096343994141e+01 4.720249772071838379e-01 5.503207683563232422e+00 1.792569875717163086e+00 1.431652307510375977e+00
2.664000000000000000e+03 6.236776351928710938e+00 -8.037460327148437500e+00 1.073125051334500313e-03 5.231963314145104960e-06 3.235070907976478338e-04 2.166080230381339788e-04
2.665000000000000000e+03 2.714992904663085938e+01 1.572238540649414062e+01 -3.102709352970123291e-02 -5.079501271247863770e-01 -1.616931706666946411e-01 -3.824860453605651855e-01
2.666000000000000000e+03 7.634658336639404297e+00 2.531108665466308594e+01 -1.792317925719544291e-05 -2.004443558689672500e-05 -1.139028427132871002e-05 8.233334483520593494e-06
2.667000000000000000e+03 8.681056976318359375e+00 -2.617900085449218750e+01 -5.362021620385348797e-04 -4.960142541676759720e-04 -3.096649306826293468e-04 -2.439176023472100496e-04
2.668000000000000000e+03 7.463236808776855469e+00 -2.386621856689453125e+01 -3.043488832190632820e-03 -1.556166680529713631e-03 -1.379896653816103935e-03 1.488367794081568718e-03
2.669000000000000000e+03 6.026923656463623047e+00 -2.350753593444824219e+01 4.040441010147333145e-03 1.156665617600083351e-03 1.559131895191967487e-03 -6.368189351633191109e-04
2.670000000000000000e+03 5.520497322082519531e+00 -1.942324829101562500e+01 -4.292232915759086609e-03 4.597325460053980350e-04 -1.149750081822276115e-03 -4.189242026768624783e-04
2.671000000000000000e+03 2.639930725097656250e+01 2.947021293640136719e+01 -7.939923554658889771e-02 -6.027101725339889526e-02 -4.190107434988021851e-02 -9.730844944715499878e-02
2.672000000000000000e+03 9.625488281250000000e+00 2.754546928405761719e+01 -1.360446276521543041e-05 -1.037022457239800133e-06 -4.392445589473936707e-06 3.650554560863383813e-07
2.673000000000000000e+03 5.598680019378662109e+00 1.621179199218750000e+01 1.991329190786927938e-05 -2.954232513729948550e-06 5.087717909191269428e-06 -5.084151553091942333e-07
2.674000000000000000e+03 1.074396419525146484e+01 -2.232044410705566406e+01 1.344806049019098282e-03 -2.332017756998538971e-03 -2.961635473184287548e-04 1.632827683351933956e-03
2.675000000000000000e+03 1.148044586181640625e+01 -2.326119422912597656e+01 -2.610412659123539925e-03 2.382182516157627106e-03 -6.846901669632643461e-05 -3.813549410551786423e-04
2.676000000000000000e+03 6.909558773040771484e+00 1.991975784301757812e+01 -8.828076715872157365e-06 -1.539567347208503634e-05 -7.267125056387158111e-06 7.489734798582503572e-06
2.677000000000000000e+03 5.289739608764648438e+00 1.953828811645507812e+01 2.430156928312499076e-05 -1.637748709981678985e-06 6.799145921831950545e-06 6.662498435616726056e-06
2.678000000000000000e+03 6.440531730651855469e+00 1.560589027404785156e+01 -4.537321729003451765e-06 6.035964815964689478e-06 4.495929886161320610e-07 -1.577670445840340108e-06
2.679000000000000000e+03 7.208113193511962891e+00 1.481603431701660156e+01 -4.109063524992961902e-07 -6.541083621414145455e-07 -3.195044087078713346e-07 -7.104569704097229987e-06
2.680000000000000000e+03 8.314656257629394531e+00 -1.960770797729492188e+01 -2.073812764137983322e-03 -9.226676775142550468e-04 -8.989440975710749626e-04 1.204753993079066277e-03
2.681000000000000000e+03 2.549846839904785156e+01 2.394014930725097656e+01 -5.595959722995758057e-02 -2.076928019523620605e-01 -7.909572124481201172e-02 -1.979453414678573608e-01
2.682000000000000000e+03 2.675858116149902344e+01 2.267098808288574219e+01 -7.518967241048812866e-02 -2.428802251815795898e-01 -9.542096406221389771e-02 -2.671344578266143799e-01
2.683000000000000000e+03 2.861243438720703125e+01 -1.465846920013427734e+01 4.206703230738639832e-02 -1.109200835227966309e+00 -3.201401531696319580e-01 -1.672307997941970825e-01
2.684000000000000000e+03 5.603656291961669922e+00 1.498203849792480469e+01 -1.882344804471358657e-05 -1.923368699863203801e-06 -6.224045137059874833e-06 -3.827217824436957017e-06
2.685000000000000000e+03 7.194737434387207031e+00 -1.467122745513916016e+01 1.435338053852319717e-03 -4.811901817447505891e-05 4.161657125223428011e-04 -1.078156987205147743e-03
2.686000000000000000e+03 3.064520072937011719e+01 2.934781455993652344e+01 -2.030505985021591187e-01 -3.059324808418750763e-02 -7.009315490722656250e-02 -1.731364428997039795e-01
2.687000000000000000e+03 1.054723644256591797e+01 -2.873483276367187500e+01 1.143454923294484615e-03 3.352199913933873177e-03 1.348696416243910789e-03 -3.653262276202440262e-03
2.688000000000000000e+03 4.870145797729492188e+00 9.531574249267578125e+00 -1.632243038329761475e-05 7.094807301655237097e-07 -4.683884526457404718e-06 1.859717599472787697e-06
2.689000000000000000e+03 7.897019863128662109e+00 8.556905746459960938e+00 -2.283675826220132876e-08 -8.370618161279708147e-06 -2.518036581022897735e-06 3.351020268382853828e-06
2.690000000000000000e+03 5.236984252929687500e+00 6.414584636688232422e+00 -1.264912589249433950e-05 5.843493227075668983e-07 -3.619432845880510285e-06 -7.258160167111782357e-06
2.691000000000000000e+03 5.680593490600585938e+00 7.221596240997314453e+00 -4.403329057822702453e-06 -7.146024017856689170e-06 -3.464806013653287664e-06 2.698461003092234023e-06
2.692000000000000000e+03 1.002463722229003906e+01 1.267256259918212891e+01 -9.617737305234186351e-06 -5.411701295088278130e-06 -4.508831352723063901e-06 4.000561148131964728e-06
2.693000000000000000e+03 7.434554100036621094e+00 -1.273136425018310547e+01 8.261758484877645969e-04 7.187269511632621288e-04 4.634708457160741091e-04 -5.747649120166897774e-04
2.694000000000000000e+03 7.378295135498046875e+01 2.086225700378417969e+01 3.216316103935241699e-01 6.260986804962158203e+00 1.974785566329956055e+00 2.001677989959716797e+00
2.695000000000000000e+03 7.648471832275390625e+00 9.362238883972167969e+00 -1.466314270004431819e-08 1.057315148500492796e-05 3.167546537952148356e-06 7.287541166078881361e-07
2.696000000000000000e+03 7.920069694519042969e+00 -1.365715694427490234e+01 6.764406571164727211e-04 1.459694904042407870e-04 2.467230369802564383e-04 -1.134484700742177665e-04
2.697000000000000000e+03 7.527772521972656250e+01 2.363863754272460938e+01 -3.675841093063354492e-01 8.384046554565429688e+00 2.404938697814941406e+00 2.145744800567626953e+00
2.698000000000000000e+03 7.523336791992187500e+01 2.471607208251953125e+01 -6.174378395080566406e-01 8.716862678527832031e+00 2.429827451705932617e+00 2.315267086029052734e+00
2.699000000000000000e+03 6.065825939178466797e+00 -6.703708171844482422e+00 -8.685993961989879608e-04 -8.589364006184041500e-05 -2.863479021470993757e-04 -2.913908683694899082e-04
2.700000000000000000e+03 2.784266662597656250e+01 -1.887490653991699219e+01 4.765951633453369141e-02 -1.206486463546752930e+00 -3.476480841636657715e-01 -1.234851554036140442e-01
2.701000000000000000e+03 7.413864135742187500e+01 2.265260124206542969e+01 4.869223386049270630e-02 6.694725990295410156e+00 2.023025512695312500e+00 2.195661783218383789e+00
2.702000000000000000e+03 2.581551742553710938e+01 -9.472278594970703125e+00 1.553753111511468887e-02 -1.362056255340576172e+00 -4.039556086063385010e-01 -2.010109573602676392e-01
2.703000000000000000e+03 2.573972129821777344e+01 -1.502801418304443359e+01 7.166337221860885620e-03 -1.426939129829406738e+00 -4.259318411350250244e-01 -1.372327804565429688e-01
2.704000000000000000e+03 2.733157539367675781e+01 7.127735137939453125e+00 -3.650578903034329414e-03 -8.335742950439453125e-01 -2.511674761772155762e-01 -3.883368670940399170e-01
2.705000000000000000e+03 2.727096176147460938e+01 1.486749053001403809e+00 1.669333502650260925e-02 -1.008729219436645508e+00 -2.976107597351074219e-01 -3.243284821510314941e-01
2.706000000000000000e+03 2.861110687255859375e+01 4.356601715087890625e+00 1.712424308061599731e-02 -8.292119503021240234e-01 -2.436263114213943481e-01 -3.979217410087585449e-01
2.707000000000000000e+03 6.482178497314453125e+01 3.795599746704101562e+01 7.400902509689331055e-01 -1.541149616241455078e-01 1.757925897836685181e-01 5.402060747146606445e-01
2.708000000000000000e+03 9.617315292358398438e+00 1.604962730407714844e+01 -1.145660735346609727e-05 1.706386228761402890e-06 -2.925066382886143401e-06 9.330271495855413377e-06
2.709000000000000000e+03 1.057531452178955078e+01 -3.427813720703125000e+01 2.662526443600654602e-02 3.428539726883172989e-03 9.016141295433044434e-03 -9.452326223254203796e-03
2.710000000000000000e+03 2.719247245788574219e+01 1.429933071136474609e+01 -2.319728396832942963e-02 -5.655377507209777832e-01 -1.766204982995986938e-01 -3.934183120727539062e-01
2.711000000000000000e+03 9.985915184020996094e+00 -1.445528984069824219e+01 -7.801128667779266834e-04 3.153556608594954014e-04 -1.394271675962954760e-04 -3.780972328968346119e-04
2.712000000000000000e+03 1.084292793273925781e+01 2.974615669250488281e+01 -5.592110937868710607e-06 1.769053415046073496e-05 3.629527100201812573e-06 -3.841952275251969695e-05
2.713000000000000000e+03 2.625299644470214844e+01 -2.055838775634765625e+01 3.764805197715759277e-02 -1.406265497207641602e+00 -4.105852246284484863e-01 -1.086244136095046997e-01
2.714000000000000000e+03 2.731408119201660156e+01 4.283848285675048828e+00 2.064774278551340103e-03 -9.250589013099670410e-01 -2.768982350826263428e-01 -3.583201766014099121e-01
2.715000000000000000e+03 2.423894882202148438e+01 -2.914081192016601562e+01 -2.382008917629718781e-02 -1.638612627983093262e+00 -4.987297952175140381e-01 -1.013785600662231445e-01
2.716000000000000000e+03 4.792177581787109375e+01 4.120205307006835938e+01 3.292212635278701782e-02 -9.669278562068939209e-02 -1.913119852542877197e-02 9.426615200936794281e-03
2.717000000000000000e+03 4.492964172363281250e+01 4.027449798583984375e+01 6.696342024952173233e-03 -4.001644253730773926e-02 -9.996030479669570923e-03 1.355662103742361069e-02
2.718000000000000000e+03 2.524253082275390625e+01 -2.774652671813964844e+01 -1.627511461265385151e-03 -1.513969421386718750e+00 -4.546790719032287598e-01 -1.103841662406921387e-01
2.719000000000000000e+03 1.167553997039794922e+01 3.465776062011718750e+01 6.763450073776766658e-05 4.887092018179828301e-06 2.175647750846110284e-05 -6.517465862998506054e-06
2.720000000000000000e+03 1.142977142333984375e+01 -7.028666973114013672e+00 -8.521507261320948601e-04 2.789973405015189201e-05 -2.472753112670034170e-04 1.323566812061471865e-05
2.721000000000000000e+03 9.827035903930664062e+00 -5.853379726409912109e+00 -1.845847582444548607e-04 -6.041646120138466358e-04 -2.366248081671074033e-04 5.867137806490063667e-04
2.722000000000000000e+03 1.043453788757324219e+01 2.788283729553222656e+01 4.478145638131536543e-05 4.239638656144961715e-06 1.470632832933915779e-05 -1.542599420645274222e-05
2.723000000000000000e+03 2.676032638549804688e+01 -2.361039924621582031e+01 2.844119258224964142e-02 -1.334284305572509766e+00 -3.917529284954071045e-01 -1.068566218018531799e-01
2.724000000000000000e+03 7.265006256103515625e+01 -2.238262939453125000e+01 3.606936708092689514e-02 4.258348941802978516e+00 1.288325548171997070e+00 8.623507618904113770e-02
2.725000000000000000e+03 7.199816131591796875e+01 -1.464809417724609375e+01 5.964738875627517700e-02 4.249392509460449219e+00 1.292711973190307617e+00 1.744672805070877075e-01
2.726000000000000000e+03 6.810839176177978516e+00 -3.652376174926757812e+01 3.641900093498406932e-06 -3.240530611947178841e-03 -9.710665908642113209e-04 1.682318001985549927e-02
2.727000000000000000e+03 8.905542373657226562e+00 -3.676361465454101562e+01 1.497426722198724747e-02 -2.092536725103855133e-02 -1.785330125130712986e-03 1.785458996891975403e-02
2.728000000000000000e+03 2.725008964538574219e+01 -1.211439251899719238e+00 3.374253213405609131e-02 -1.078812718391418457e+00 -3.135210573673248291e-01 -2.958921790122985840e-01
2.729000000000000000e+03 2.588978385925292969e+01 -1.276666879653930664e+00 1.863367296755313873e-02 -1.206526756286621094e+00 -3.563679158687591553e-01 -2.624758780002593994e-01
2.730000000000000000e+03 7.302711486816406250e+01 -7.593549728393554688e+00 8.326792716979980469e-02 4.560192584991455078e+00 1.393038153648376465e+00 2.780010700225830078e-01
2.731000000000000000e+03 1.057688426971435547e+01 3.683664703369140625e+01 6.979361933190375566e-05 -7.124279363779351115e-06 1.880080344562884420e-05 1.977561078092548996e-05
2.732000000000000000e+03 9.762788772583007812e+00 3.335125350952148438e+01 5.577390038524754345e-05 -8.018120752240065485e-06 1.432673434464959428e-05 2.583419154689181596e-05
2.733000000000000000e+03 8.334328651428222656e+00 3.905456924438476562e+01 2.686929292394779623e-05 1.080550919141387567e-05 1.130244072555797175e-05 3.888963692588731647e-05
2.734000000000000000e+03 7.404376220703125000e+01 1.372023820877075195e+00 1.399726569652557373e-01 5.092257499694824219e+00 1.569669008255004883e+00 5.050157308578491211e-01
2.735000000000000000e+03 1.031279754638671875e+01 -1.152158832550048828e+01 8.930240874178707600e-04 2.493405481800436974e-04 3.427093906793743372e-04 -4.227579338476061821e-04
2.736000000000000000e+03 9.458603858947753906e+00 -1.353870582580566406e+01 -6.117315497249364853e-04 5.021982360631227493e-04 -3.285998172941617668e-05 5.651964456774294376e-04
2.737000000000000000e+03 5.446256637573242188e+01 3.684870147705078125e+01 5.119428504258394241e-03 -1.940697431564331055e-01 -5.668509379029273987e-02 2.272402197122573853e-01
2.738000000000000000e+03 7.317415618896484375e+01 3.416797637939453125e+01 1.612923145294189453e-01 3.706426858901977539e+00 1.160315752029418945e+00 -2.152851581573486328e+00
2.739000000000000000e+03 7.432537078857421875e+01 3.382081604003906250e+01 -2.639040946960449219e-01 6.899947643280029297e+00 1.990813016891479492e+00 -3.842910766601562500e+00
2.740000000000000000e+03 7.439725494384765625e+01 2.852082633972167969e+01 -5.267363190650939941e-01 6.425276279449462891e+00 1.769562005996704102e+00 4.857243537902832031e+00
2.741000000000000000e+03 7.417494201660156250e+01 2.834712791442871094e+01 -5.732592344284057617e-01 5.825965404510498047e+00 1.575811862945556641e+00 4.324696540832519531e+00
2.742000000000000000e+03 7.252774047851562500e+01 2.684405517578125000e+01 -4.771187305450439453e-01 3.177850246429443359e+00 8.102194070816040039e-01 2.412658929824829102e+00
2.743000000000000000e+03 7.457461547851562500e+01 2.796368598937988281e+01 -9.679154753684997559e-01 7.808744430541992188e+00 2.052248716354370117e+00 4.459953308105468750e+00
2.744000000000000000e+03 7.535262298583984375e+01 2.804905128479003906e+01 -1.863377928733825684e+00 1.161683273315429688e+01 2.926036357879638672e+00 4.369927406311035156e+00
2.745000000000000000e+03 7.456240081787109375e+01 3.349853897094726562e+01 -2.789123654365539551e-01 7.595192909240722656e+00 2.194884061813354492e+00 -4.348266124725341797e+00
2.746000000000000000e+03 7.507954406738281250e+01 3.346168136596679688e+01 -9.601088166236877441e-01 1.060112857818603516e+01 2.892306089401245117e+00 -4.633419990539550781e+00
2.747000000000000000e+03 7.488727569580078125e+01 3.379563903808593750e+01 -8.014848828315734863e-01 9.350551605224609375e+00 2.564719915390014648e+00 -4.176808357238769531e+00
2.748000000000000000e+03 7.313537597656250000e+01 2.621530342102050781e+01 -3.391738533973693848e-01 4.653714656829833984e+00 1.294362187385559082e+00 2.817909955978393555e+00
2.749000000000000000e+03 7.352912902832031250e+01 2.830029869079589844e+01 -6.366556286811828613e-01 3.489203691482543945e+00 8.557643890380859375e-01 3.204592227935791016e+00
2.750000000000000000e+03 7.600283813476562500e+01 2.676958274841308594e+01 -1.996889710426330566e+00 1.191509342193603516e+01 2.975461244583129883e+00 2.449893474578857422e+00
2.751000000000000000e+03 7.376934814453125000e+01 2.785573196411132812e+01 -5.892736911773681641e-01 4.930019855499267578e+00 1.302223801612854004e+00 3.626804351806640625e+00
2.752000000000000000e+03 7.466150665283203125e+01 3.412363052368164062e+01 -5.857597589492797852e-01 8.444465637207031250e+00 2.357611656188964844e+00 -3.791031122207641602e+00
2.753000000000000000e+03 7.324703979492187500e+01 3.462822723388671875e+01 2.602692544460296631e-01 4.353950023651123047e+00 1.384265780448913574e+00 -2.152593135833740234e+00
2.754000000000000000e+03 5.820395278930664062e+01 2.651389122009277344e+01 -1.977389812469482422e+00 -3.494919836521148682e-02 -6.037017107009887695e-01 -4.691344797611236572e-01
2.755000000000000000e+03 6.050102615356445312e+01 2.565644645690917969e+01 -1.706898093223571777e+00 -1.818453520536422729e-02 -5.175247788429260254e-01 -4.571668505668640137e-01
2.756000000000000000e+03 7.654805755615234375e+01 2.687238502502441406e+01 -2.082621812820434570e+00 1.311004924774169922e+01 3.308228254318237305e+00 1.443206310272216797e+00
2.757000000000000000e+03 7.145227050781250000e+01 2.607943534851074219e+01 -3.958723247051239014e-01 2.300884246826171875e+00 5.715035796165466309e-01 1.775393962860107422e+00
2.758000000000000000e+03 7.506204223632812500e+01 2.560584259033203125e+01 -9.355211257934570312e-01 8.925608634948730469e+00 2.397026300430297852e+00 2.617059707641601562e+00
2.759000000000000000e+03 7.169314575195312500e+01 3.635151672363281250e+01 7.746266126632690430e-01 3.040215730667114258e+00 1.144452691078186035e+00 -1.114228010177612305e+00
2.760000000000000000e+03 7.212847137451171875e+01 3.758567810058593750e+01 9.206303358078002930e-01 4.161511421203613281e+00 1.524642467498779297e+00 -1.094986557960510254e+00
2.761000000000000000e+03 8.305491447448730469e+00 7.203864097595214844e+00 1.146912291005719453e-05 3.157277888021781109e-06 4.387920398585265502e-06 4.997506266590789892e-07
2.762000000000000000e+03 7.570827484130859375e+01 3.432867050170898438e+01 -1.663657188415527344e+00 1.222627258300781250e+01 3.168784618377685547e+00 -2.634593725204467773e+00
2.763000000000000000e+03 5.696911334991455078e+00 6.566919326782226562e+00 1.401524514221819118e-05 1.089052943825663533e-06 4.531289505393942818e-06 1.693209014774765819e-06
2.764000000000000000e+03 2.714503288269042969e+01 2.848261070251464844e+01 -1.014743968844413757e-01 -7.645700871944427490e-02 -5.337942019104957581e-02 -1.360438615083694458e-01
2.765000000000000000e+03 7.546488952636718750e+01 2.654371452331542969e+01 -1.611037850379943848e+00 1.051995944976806641e+01 2.672676324844360352e+00 2.859754323959350586e+00
2.766000000000000000e+03 7.098140716552734375e+01 2.519817733764648438e+01 -1.526284515857696533e-01 2.379363059997558594e+00 6.680203676223754883e-01 1.692305088043212891e+00
2.767000000000000000e+03 4.888064956665039062e+01 2.679522323608398438e+01 -1.280739188194274902e+00 3.486197441816329956e-02 -3.737631738185882568e-01 -4.561190903186798096e-01
2.768000000000000000e+03 4.576698303222656250e+01 2.729598236083984375e+01 -1.069371342658996582e+00 5.087674036622047424e-02 -3.055483698844909668e-01 -4.098686575889587402e-01
2.769000000000000000e+03 7.401928901672363281e+00 6.336362361907958984e+00 8.119062840705737472e-06 -1.246347324013186153e-06 2.061814711851184256e-06 -2.643767516019579489e-07
2.770000000000000000e+03 6.820994567871093750e+01 2.566547393798828125e+01 -9.185826182365417480e-01 6.459513306617736816e-01 -8.178938180208206177e-02 4.674922823905944824e-01
2.771000000000000000e+03 6.964488983154296875e+01 2.511376953125000000e+01 -3.536181151866912842e-01 1.439120650291442871e+00 3.256507515907287598e-01 1.085247635841369629e+00
2.772000000000000000e+03 2.632401466369628906e+01 2.642868995666503906e+01 -8.071836829185485840e-02 -1.283440440893173218e-01 -6.271872669458389282e-02 -1.678085178136825562e-01
2.773000000000000000e+03 3.134642601013183594e+01 2.860484886169433594e+01 -2.334455549716949463e-01 -3.432155027985572815e-02 -8.033013343811035156e-02 -2.116274684667587280e-01
2.774000000000000000e+03 3.131259155273437500e+01 2.932328033447265625e+01 -2.271917611360549927e-01 -2.359315939247608185e-02 -7.523547857999801636e-02 -1.839025765657424927e-01
2.775000000000000000e+03 3.197485923767089844e+01 2.927683258056640625e+01 -2.532053291797637939e-01 -1.708567701280117035e-02 -8.108729869127273560e-02 -1.955169290304183960e-01
2.776000000000000000e+03 3.130216979980468750e+01 3.003848075866699219e+01 -2.199770659208297729e-01 -1.423608697950839996e-02 -7.026394456624984741e-02 -1.574061810970306396e-01
2.777000000000000000e+03 3.263733291625976562e+01 2.919967460632324219e+01 -2.809312939643859863e-01 -1.029874384403228760e-02 -8.736900985240936279e-02 -2.072497606277465820e-01
2.778000000000000000e+03 5.128659439086914062e+01 2.719611930847167969e+01 -1.564049363136291504e+00 1.804172992706298828e-02 -4.638023078441619873e-01 -4.199676215648651123e-01
2.779000000000000000e+03 5.281783294677734375e+01 2.702049827575683594e+01 -1.678854584693908691e+00 5.512122530490159988e-03 -5.020027756690979004e-01 -4.371473491191864014e-01
2.780000000000000000e+03 3.197688484191894531e+01 2.859418869018554688e+01 -2.568700909614562988e-01 -2.666595391929149628e-02 -8.506081253290176392e-02 -2.216085493564605713e-01
2.781000000000000000e+03 2.792025375366210938e+01 2.845767211914062500e+01 -1.216028779745101929e-01 -7.186146825551986694e-02 -5.803930386900901794e-02 -1.518743634223937988e-01
2.782000000000000000e+03 2.799729347229003906e+01 2.750175476074218750e+01 -1.256438642740249634e-01 -9.184005111455917358e-02 -6.524517387151718140e-02 -1.809448450803756714e-01
2.783000000000000000e+03 1.051702404022216797e+01 6.750154495239257812e+00 1.045338558469666168e-05 3.185562491125892848e-06 4.091684331797296181e-06 4.525052645476534963e-06
2.784000000000000000e+03 3.329758834838867188e+01 2.908757400512695312e+01 -3.096472620964050293e-01 -4.761816468089818954e-03 -9.432272613048553467e-02 -2.205660641193389893e-01
2.785000000000000000e+03 3.897450637817382812e+01 2.779220008850097656e+01 -5.976459980010986328e-01 3.622252866625785828e-02 -1.684270501136779785e-01 -3.415473103523254395e-01
2.786000000000000000e+03 3.617294311523437500e+01 2.915330123901367188e+01 -4.491330683231353760e-01 2.503816969692707062e-02 -1.272284686565399170e-01 -2.449631392955780029e-01
2.787000000000000000e+03 3.732370758056640625e+01 2.725750923156738281e+01 -4.958437383174896240e-01 1.704028248786926270e-02 -1.436410397291183472e-01 -3.577716946601867676e-01
2.788000000000000000e+03 3.396049118041992188e+01 2.894680404663085938e+01 -3.403918743133544922e-01 1.573897083289921284e-03 -1.016453877091407776e-01 -2.346497923135757446e-01
2.789000000000000000e+03 3.545158386230468750e+01 2.931399536132812500e+01 -4.107324481010437012e-01 1.972062140703201294e-02 -1.173035502433776855e-01 -2.311024963855743408e-01
2.790000000000000000e+03 3.604513931274414062e+01 2.844268226623535156e+01 -4.423252046108245850e-01 1.755147054791450500e-02 -1.274321228265762329e-01 -2.816276252269744873e-01
2.791000000000000000e+03 7.932717323303222656e+00 -5.758195400238037109e+00 6.361494306474924088e-04 3.224682004656642675e-04 2.875852806027978659e-04 4.624318389687687159e-04
2.792000000000000000e+03 7.679877758026123047e+00 -9.287908554077148438e+00 8.238794398494064808e-04 3.087324730586260557e-04 3.397835826035588980e-04 2.021029795287176967e-04
2.793000000000000000e+03 4.401761627197265625e+01 2.616630554199218750e+01 -8.545561432838439941e-01 4.769358038902282715e-02 -2.420587688684463501e-01 -4.853791594505310059e-01
2.794000000000000000e+03 3.533239364624023438e+01 2.862145614624023438e+01 -4.055870771408081055e-01 1.211589481681585312e-02 -1.180413514375686646e-01 -2.650797069072723389e-01
2.795000000000000000e+03 3.463845062255859375e+01 2.879000091552734375e+01 -3.722719848155975342e-01 6.807149853557348251e-03 -1.096394509077072144e-01 -2.490215748548507690e-01
2.796000000000000000e+03 4.185211944580078125e+01 2.730259132385253906e+01 -7.710794210433959961e-01 4.999217391014099121e-02 -2.163261771202087402e-01 -3.952299952507019043e-01
2.797000000000000000e+03 3.658226013183593750e+01 2.750049209594726562e+01 -4.626193940639495850e-01 1.243385393172502518e-02 -1.350556612014770508e-01 -3.360159099102020264e-01
2.798000000000000000e+03 6.129336929321289062e+01 2.560564613342285156e+01 -1.678599596023559570e+00 -7.948281243443489075e-03 -5.059643387794494629e-01 -4.289631843566894531e-01
2.799000000000000000e+03 6.189891433715820312e+01 2.408206748962402344e+01 -1.019043087959289551e+00 1.011281013488769531e-01 -2.753745019435882568e-01 -3.242723345756530762e-01
2.800000000000000000e+03 1.043496799468994141e+01 -7.306033611297607422e+00 1.049321843311190605e-03 -4.560781235340982676e-05 3.011141961906105280e-04 -2.271632365591358393e-05
2.801000000000000000e+03 8.618298530578613281e+00 -5.692415237426757812e+00 -4.698946722783148289e-04 -2.340322243981063366e-04 -2.111780777340754867e-04 -1.721009321045130491e-04
2.802000000000000000e+03 5.045285415649414062e+01 2.658814239501953125e+01 -1.384566307067871094e+00 2.391039952635765076e-02 -4.081967771053314209e-01 -4.752423167228698730e-01
2.803000000000000000e+03 5.205069732666015625e+01 2.710735511779785156e+01 -1.622116446495056152e+00 1.235280837863683701e-02 -4.829291105270385742e-01 -4.286789894104003906e-01
2.804000000000000000e+03 7.263140106201171875e+01 3.602112197875976562e+01 6.566636562347412109e-01 3.908824205398559570e+00 1.369646310806274414e+00 -1.532414913177490234e+00
2.805000000000000000e+03 6.896710205078125000e+01 2.505950736999511719e+01 -4.616366028785705566e-01 1.112032532691955566e+00 1.951187700033187866e-01 8.364061117172241211e-01
2.806000000000000000e+03 4.966949462890625000e+01 2.668771171569824219e+01 -1.333065509796142578e+00 2.991612628102302551e-02 -3.909448087215423584e-01 -4.659477472305297852e-01
2.807000000000000000e+03 4.739128875732421875e+01 2.773521423339843750e+01 -1.253848791122436523e+00 4.421266168355941772e-02 -3.628908395767211914e-01 -3.705883324146270752e-01
2.808000000000000000e+03 4.260757446289062500e+01 2.716441535949707031e+01 -8.176709413528442383e-01 5.176341161131858826e-02 -2.297722548246383667e-01 -4.094033837318420410e-01
2.809000000000000000e+03 6.281339263916015625e+01 2.475332641601562500e+01 -1.228624463081359863e+00 9.045202285051345825e-02 -3.414517343044281006e-01 -2.959336638450622559e-01
2.810000000000000000e+03 4.731045532226562500e+01 2.703181648254394531e+01 -1.174791812896728516e+00 4.419779032468795776e-02 -3.391782045364379883e-01 -4.342941343784332275e-01
2.811000000000000000e+03 5.506051254272460938e+01 2.607051658630371094e+01 -1.634143352508544922e+00 -1.350981090217828751e-02 -4.942959547042846680e-01 -5.127341747283935547e-01
2.812000000000000000e+03 5.738122940063476562e+01 2.586094093322753906e+01 -1.705422997474670410e+00 -2.596017904579639435e-02 -5.194149613380432129e-01 -5.101416110992431641e-01
2.813000000000000000e+03 5.894078826904296875e+01 2.575454902648925781e+01 -1.724935054779052734e+00 -2.825391851365566254e-02 -5.259566903114318848e-01 -4.926994144916534424e-01
2.814000000000000000e+03 7.149598693847656250e+01 2.315258598327636719e+01 2.802001237869262695e-01 3.690619468688964844e+00 1.191245913505554199e+00 1.955466747283935547e+00
2.815000000000000000e+03 6.360546493530273438e+01 2.467514801025390625e+01 -1.127221107482910156e+00 1.451999992132186890e-01 -2.946063280105590820e-01 -2.154293358325958252e-01
2.816000000000000000e+03 5.358491897583007812e+01 2.693550109863281250e+01 -1.732081770896911621e+00 -1.137811457738280296e-03 -5.199658870697021484e-01 -4.449455440044403076e-01
2.817000000000000000e+03 5.352434539794921875e+01 2.623814773559570312e+01 -1.566054344177246094e+00 -7.879324839450418949e-04 -4.700526893138885498e-01 -5.039839148521423340e-01
2.818000000000000000e+03 1.154413032531738281e+01 5.693775653839111328e+00 1.138697371061425656e-05 1.079390017366677057e-06 3.739909061550861225e-06 2.558750793468789198e-06
2.819000000000000000e+03 1.146374034881591797e+01 7.882225990295410156e+00 1.180400158773409203e-05 2.675372115845675580e-06 4.343812179286032915e-06 3.442520664975745603e-06
2.820000000000000000e+03 4.643671035766601562e+01 2.644935035705566406e+01 -1.046450257301330566e+00 4.634198173880577087e-02 -3.000324666500091553e-01 -4.784614145755767822e-01
2.821000000000000000e+03 4.566416549682617188e+01 2.658851432800292969e+01 -1.001248121261596680e+00 4.928812384605407715e-02 -2.855879962444305420e-01 -4.649391770362854004e-01
2.822000000000000000e+03 6.201752853393554688e+01 2.482291793823242188e+01 -1.310143828392028809e+00 5.104792863130569458e-02 -3.777287602424621582e-01 -3.617134690284729004e-01
2.823000000000000000e+03 5.815570068359375000e+01 2.580495071411132812e+01 -1.718646407127380371e+00 -2.881812676787376404e-02 -5.242393612861633301e-01 -5.036345124244689941e-01
2.824000000000000000e+03 1.109973812103271484e+01 -6.060444831848144531e+00 6.642602384090423584e-04 -5.244678468443453312e-04 4.193771383143030107e-05 4.664578009396791458e-04
2.825000000000000000e+03 1.089097881317138672e+01 -5.226996898651123047e+00 -4.806295910384505987e-04 -2.508584584575146437e-04 -2.194464032072573900e-04 -7.558767720183823258e-06
2.826000000000000000e+03 8.902827262878417969e+00 1.119239425659179688e+01 -9.480871085543185472e-06 -5.056317604612559080e-06 -4.361156697996193543e-06 -2.983158083225134760e-06
2.827000000000000000e+03 7.279901981353759766e+00 1.309506511688232422e+01 8.844338026392506436e-07 -1.654544917073508259e-06 -2.310333258037644555e-07 -9.482435416430234909e-06
2.828000000000000000e+03 6.668560028076171875e+01 2.622367286682128906e+01 -1.590914726257324219e+00 2.173005342483520508e-01 -4.120842516422271729e-01 -6.225728895515203476e-03
2.829000000000000000e+03 6.599854278564453125e+01 2.536969184875488281e+01 -1.188308238983154297e+00 2.751880586147308350e-01 -2.739360332489013672e-01 1.645574904978275299e-02
2.830000000000000000e+03 9.827139854431152344e+00 1.430009746551513672e+01 1.532890564703848213e-06 -3.138093916277284734e-06 -4.815609599972958677e-07 1.222344235429773107e-05
2.831000000000000000e+03 7.735714912414550781e+00 1.714664077758789062e+01 -1.269371023226995021e-05 6.142483471194282174e-06 -1.965367800949024968e-06 9.775897524377796799e-06
2.832000000000000000e+03 8.040689468383789062e+00 -1.469478034973144531e+01 -1.750178402289748192e-03 2.868539752398646669e-07 -5.249674431979656219e-04 1.717999257380142808e-04
2.833000000000000000e+03 5.191093826293945312e+01 2.570765876770019531e+01 -1.338924288749694824e+00 1.314669381827116013e-02 -3.977332711219787598e-01 -5.430439114570617676e-01
2.834000000000000000e+03 1.037036037445068359e+01 9.028283119201660156e+00 1.278395484405336902e-05 2.909063368861097842e-06 4.707905191025929525e-06 4.001210982096381485e-06
2.835000000000000000e+03 5.275763702392578125e+01 2.632314300537109375e+01 -1.524668455123901367e+00 6.619807798415422440e-03 -4.554145932197570801e-01 -4.977971315383911133e-01
2.836000000000000000e+03 7.545219421386718750e+01 3.487725830078125000e+01 -1.322543263435363770e+00 1.096476268768310547e+01 2.892665863037109375e+00 -2.664650678634643555e+00
2.837000000000000000e+03 6.520399475097656250e+01 2.616407012939453125e+01 -1.759235382080078125e+00 9.274791926145553589e-02 -4.999462366104125977e-01 -1.970355212688446045e-01
2.838000000000000000e+03 7.417441558837890625e+01 3.528696060180664062e+01 -2.435884773731231689e-01 7.315362930297851562e+00 2.121532201766967773e+00 -2.520741939544677734e+00
2.839000000000000000e+03 7.324291992187500000e+01 3.551341247558593750e+01 4.203191697597503662e-01 4.912075996398925781e+00 1.599718570709228516e+00 -1.820748448371887207e+00
2.840000000000000000e+03 7.370511627197265625e+01 2.623645782470703125e+01 -5.083592534065246582e-01 5.895631313323974609e+00 1.616181612014770508e+00 3.067686796188354492e+00
2.841000000000000000e+03 2.725662994384765625e+01 1.275401413440704346e-01 2.413321472704410553e-02 -1.046520948410034180e+00 -3.067163228988647461e-01 -3.109637498855590820e-01
2.842000000000000000e+03 2.993681907653808594e+01 4.462344169616699219e+00 3.528181836009025574e-02 -7.338883280754089355e-01 -2.095819413661956787e-01 -4.308760166168212891e-01
2.843000000000000000e+03 4.965970516204833984e+00 7.089925289154052734e+00 1.151216656580800191e-05 2.872077175197773613e-06 4.315273145039100200e-06 1.223689650942105800e-06
2.844000000000000000e+03 5.457986354827880859e+00 1.016668128967285156e+01 5.138241704116808251e-06 -5.569537279370706528e-06 -1.293886526809728821e-07 -6.293818728408950847e-07
2.845000000000000000e+03 9.988020896911621094e+00 1.147791576385498047e+01 1.328796588495606557e-05 5.943948963249567896e-06 5.769574272562749684e-06 -5.187257556826807559e-07
2.846000000000000000e+03 1.039604377746582031e+01 -8.282514572143554688e+00 -8.416676428169012070e-04 -4.295101389288902283e-04 -3.813533403445035219e-04 7.122336683096364141e-05
2.847000000000000000e+03 1.027859115600585938e+01 -1.046414566040039062e+01 -8.715685107745230198e-04 -2.955793752335011959e-04 -3.501443425193428993e-04 4.206325684208422899e-04
2.848000000000000000e+03 1.030191421508789062e+01 -9.355338096618652344e+00 7.395333377644419670e-04 4.935056786052882671e-04 3.699116932693868876e-04 -2.934612566605210304e-04
2.849000000000000000e+03 7.242037200927734375e+01 3.924236679077148438e+01 1.145456194877624512e+00 4.985569953918457031e+00 1.839307785034179688e+00 -8.456658720970153809e-01
2.850000000000000000e+03 6.913901805877685547e+00 9.210209846496582031e+00 -3.401426511118188500e-06 -9.352388588013127446e-06 -3.826144620688864961e-06 3.835769803117727861e-06
2.851000000000000000e+03 7.077036285400390625e+01 -2.514563179016113281e+01 4.087249189615249634e-02 4.004904747009277344e+00 1.213733077049255371e+00 9.317620843648910522e-02
2.852000000000000000e+03 1.148538970947265625e+01 -8.200203895568847656e+00 9.015894611366093159e-04 2.261152985738590360e-04 3.383114235475659370e-04 -1.347325451206415892e-04
2.853000000000000000e+03 7.098702239990234375e+01 -2.573151826858520508e+00 1.987921744585037231e-01 4.307742118835449219e+00 1.351960301399230957e+00 4.677900373935699463e-01
2.854000000000000000e+03 8.988111495971679688e+00 2.598583793640136719e+01 -3.272045069024898112e-05 -1.269414678972680122e-05 -1.362437888019485399e-05 -7.055468358885264024e-06
2.855000000000000000e+03 9.936377525329589844e+00 2.453564071655273438e+01 -2.913955904659815133e-05 -1.372084716422250494e-05 -1.285812140849884599e-05 -7.922033546492457390e-06
2.856000000000000000e+03 7.315166473388671875e+01 4.300964832305908203e+00 2.188179194927215576e-01 5.035419464111328125e+00 1.576271176338195801e+00 6.864209771156311035e-01
2.857000000000000000e+03 7.213591003417968750e+01 4.693694114685058594e-01 2.021062672138214111e-01 4.659293651580810547e+00 1.458420038223266602e+00 5.509750843048095703e-01
2.858000000000000000e+03 7.265529632568359375e+01 1.961713600158691406e+01 5.131703019142150879e-01 5.206274032592773438e+00 1.715833306312561035e+00 1.871529102325439453e+00
2.859000000000000000e+03 7.146452331542968750e+01 1.865679931640625000e+01 6.362929940223693848e-01 4.358838081359863281e+00 1.498539328575134277e+00 1.709343194961547852e+00
2.860000000000000000e+03 2.987178611755371094e+01 -2.059930229187011719e+01 5.335818976163864136e-02 -9.841850399971008301e-01 -2.792480587959289551e-01 -1.199919879436492920e-01
2.861000000000000000e+03 6.396791458129882812e+00 -9.385786056518554688e+00 -1.210884307511150837e-03 -1.517520722700282931e-04 -4.087909182999283075e-04 -1.574687048560008407e-04
2.862000000000000000e+03 9.781713485717773438e+00 -1.900131797790527344e+01 -2.095659961923956871e-03 -1.595976180396974087e-03 -1.107490854337811470e-03 6.880231667309999466e-04
2.863000000000000000e+03 8.956963539123535156e+00 -2.105508422851562500e+01 -4.124916624277830124e-03 4.423150385264307261e-04 -1.104780472815036774e-03 1.628248865017667413e-04
2.864000000000000000e+03 7.229472351074218750e+01 9.502048492431640625e+00 3.913452029228210449e-01 4.984210014343261719e+00 1.612666606903076172e+00 1.047767996788024902e+00
2.865000000000000000e+03 7.093759155273437500e+01 -1.519304561614990234e+01 7.320722937583923340e-02 4.098905086517333984e+00 1.251633644104003906e+00 1.804747581481933594e-01
2.866000000000000000e+03 7.050624847412109375e+01 3.472559213638305664e+00 3.347921073436737061e-01 4.298101425170898438e+00 1.389868140220642090e+00 7.293521761894226074e-01
2.867000000000000000e+03 7.289801788330078125e+01 -8.751933097839355469e+00 8.124182373285293579e-02 4.500474452972412109e+00 1.374514818191528320e+00 2.555858194828033447e-01
2.868000000000000000e+03 7.150459289550781250e+01 -9.348895072937011719e+00 1.038625091314315796e-01 4.279920101165771484e+00 1.315134763717651367e+00 2.760472595691680908e-01
2.869000000000000000e+03 7.195761108398437500e+01 -3.897718667984008789e+00 1.467822045087814331e-01 4.478905677795410156e+00 1.387706279754638672e+00 4.035850763320922852e-01
2.870000000000000000e+03 7.202409362792968750e+01 1.728325462341308594e+01 5.957447886466979980e-01 4.836764335632324219e+00 1.629752755165100098e+00 1.645963311195373535e+00
2.871000000000000000e+03 7.305915069580078125e+01 -6.409686565399169922e+00 9.470850229263305664e-02 4.600090503692626953e+00 1.408439755439758301e+00 3.009362518787384033e-01
2.872000000000000000e+03 6.442597389221191406e+00 2.351146125793457031e+01 -1.012452685245079920e-05 1.418565352651057765e-05 1.218338070430036169e-06 4.856118721363600343e-06
2.873000000000000000e+03 7.235794067382812500e+00 2.258122444152832031e+01 1.028000042424537241e-05 -3.820504389295820147e-06 1.937848992383806035e-06 -1.339187383564421907e-05
2.874000000000000000e+03 2.726997375488281250e+01 1.144145393371582031e+01 -1.019049342721700668e-02 -6.790393590927124023e-01 -2.067689448595046997e-01 -4.042536616325378418e-01
2.875000000000000000e+03 2.697924804687500000e+01 1.995583152770996094e+01 -6.087522953748703003e-02 -3.395652174949645996e-01 -1.201321333646774292e-01 -3.245224654674530029e-01
2.876000000000000000e+03 3.141705894470214844e+01 2.789102363586425781e+01 -2.379541993141174316e-01 -4.559610784053802490e-02 -8.506508916616439819e-02 -2.398121953010559082e-01
2.877000000000000000e+03 2.963598442077636719e+01 1.162295341491699219e+01 -9.700560942292213440e-03 -5.612887740135192871e-01 -1.712968051433563232e-01 -4.875692427158355713e-01
2.878000000000000000e+03 2.934447288513183594e+01 1.862379646301269531e+01 -8.310092240571975708e-02 -3.393551707267761230e-01 -1.267368346452713013e-01 -4.326877892017364502e-01
2.879000000000000000e+03 8.874662399291992188e+00 -1.753942680358886719e+01 -2.098475117236375809e-03 -7.641295087523758411e-04 -8.587813936173915863e-04 5.216242279857397079e-04
2.880000000000000000e+03 2.816298103332519531e+01 2.001340675354003906e+01 -8.171633630990982056e-02 -3.145163059234619141e-01 -1.188697889447212219e-01 -3.686685562133789062e-01
2.881000000000000000e+03 7.024455070495605469e+00 -1.675059890747070312e+01 1.940622692927718163e-03 8.975160308182239532e-04 8.514416404068470001e-04 -1.567737199366092682e-04
2.882000000000000000e+03 7.131494903564453125e+01 -1.707862663269042969e+01 6.415136158466339111e-02 4.138486385345458984e+00 1.260791301727294922e+00 1.548150330781936646e-01
2.883000000000000000e+03 7.285744190216064453e+00 -2.534217071533203125e+01 4.519665613770484924e-03 1.640343107283115387e-03 1.848002546466886997e-03 -7.700441055931150913e-04
2.884000000000000000e+03 6.600061416625976562e+00 -2.761298179626464844e+01 7.996069267392158508e-03 -1.680995570495724678e-03 1.894522225484251976e-03 -1.975808292627334595e-03
2.885000000000000000e+03 6.265954017639160156e+00 1.721106529235839844e+01 -3.202725565643049777e-06 9.405019227415323257e-06 1.860688144006417133e-06 9.740289897308684886e-06
2.886000000000000000e+03 8.603151321411132812e+00 1.664169502258300781e+01 1.478371814300771803e-05 -3.039211151190102100e-06 3.523352006595814601e-06 -8.193592293537221849e-06
2.887000000000000000e+03 6.898592472076416016e+00 1.879361534118652344e+01 1.187355883303098381e-05 1.494471598562086001e-05 8.045481990848202258e-06 -4.152983365202089772e-06
2.888000000000000000e+03 6.389323234558105469e+00 -2.014742279052734375e+01 5.079362308606505394e-04 -6.088124937377870083e-04 -3.026287777174729854e-05 -8.500277181155979633e-04
2.889000000000000000e+03 8.104477882385253906e+00 -1.569077777862548828e+01 1.452483935281634331e-03 1.138592255301773548e-03 7.773228571750223637e-04 1.094963881769217551e-04
2.890000000000000000e+03 7.133310317993164062e+00 -1.367932701110839844e+01 -9.200486238114535809e-04 -4.786524805240333080e-04 -4.196103254798799753e-04 1.076068030670285225e-03
2.891000000000000000e+03 9.144689559936523438e+00 -1.567807865142822266e+01 -1.158620463684201241e-03 -8.021487155929207802e-04 -5.882307305000722408e-04 6.574986618943512440e-04
2.892000000000000000e+03 6.416068077087402344e+00 -1.226437568664550781e+01 -1.814567833207547665e-03 -3.482095198705792427e-04 -6.488332292065024376e-04 -1.104956900235265493e-04
2.893000000000000000e+03 2.835527992248535156e+01 1.436652755737304688e+01 -2.850478515028953552e-02 -5.209095478057861328e-01 -1.648242920637130737e-01 -4.386810064315795898e-01
2.894000000000000000e+03 7.126612091064453125e+01 1.465900421142578125e+01 6.146509647369384766e-01 4.521776676177978516e+00 1.540928363800048828e+00 1.407388329505920410e+00
2.895000000000000000e+03 7.231366729736328125e+01 1.559688377380371094e+01 5.525720715522766113e-01 5.128679275512695312e+00 1.704375386238098145e+00 1.514807581901550293e+00
2.896000000000000000e+03 2.787657737731933594e+01 2.934864425659179688e+01 -1.166269555687904358e-01 -5.551556870341300964e-02 -5.164275690913200378e-02 -1.267713457345962524e-01
2.897000000000000000e+03 2.728310585021972656e+01 -5.184729099273681641e+00 4.209719970822334290e-02 -1.143818855285644531e+00 -3.305164873600006104e-01 -2.607615590095520020e-01
2.898000000000000000e+03 3.016843032836914062e+01 -2.223121643066406250e+00 7.123462855815887451e-02 -8.436139225959777832e-01 -2.317137867212295532e-01 -3.409528732299804688e-01
2.899000000000000000e+03 2.688959503173828125e+01 2.133341407775878906e+01 -6.827739626169204712e-02 -2.893250882625579834e-01 -1.072807461023330688e-01 -2.974918484687805176e-01
2.900000000000000000e+03 9.916727066040039062e+00 -2.150199127197265625e+01 2.974951348733156919e-04 1.672735670581459999e-03 5.910692270845174789e-04 -4.649887559935450554e-04
2.901000000000000000e+03 6.255167770385742188e+01 3.982855224609375000e+01 9.251074790954589844e-01 -3.196561932563781738e-01 1.816353946924209595e-01 3.780885934829711914e-01
2.902000000000000000e+03 1.057641506195068359e+01 -2.570293617248535156e+01 -2.268624491989612579e-03 -4.785428754985332489e-03 -2.116216113790869713e-03 3.593243018258363008e-04
2.903000000000000000e+03 1.042439937591552734e+01 -2.407304000854492188e+01 2.061811741441488266e-03 -2.375640207901597023e-03 -9.414851956535130739e-05 1.255032722838222980e-03
2.904000000000000000e+03 7.039116668701171875e+01 -1.106400871276855469e+01 1.097622066736221313e-01 4.075638771057128906e+00 1.255620241165161133e+00 2.503872215747833252e-01
2.905000000000000000e+03 7.137105560302734375e+01 -1.187834453582763672e+01 9.388355165719985962e-02 4.215888023376464844e+00 1.292931556701660156e+00 2.300863564014434814e-01
2.906000000000000000e+03 9.561683654785156250e+00 -6.739802360534667969e+00 1.281363307498395443e-03 -9.099113522097468376e-04 1.114355982281267643e-04 -1.804890780476853251e-05
2.907000000000000000e+03 2.841073417663574219e+01 1.294387340545654297e+01 -1.912403292953968048e-02 -5.706993341445922852e-01 -1.769470125436782837e-01 -4.460426867008209229e-01
2.908000000000000000e+03 6.146876335144042969e+00 9.573200225830078125e+00 -8.005141353351064026e-06 8.326698662131093442e-06 9.646721821354731219e-08 -8.267905400316521991e-07
2.909000000000000000e+03 7.272002410888671875e+01 2.072751998901367188e+01 4.311749935150146484e-01 5.163670063018798828e+00 1.678453564643859863e+00 1.970884561538696289e+00
2.910000000000000000e+03 6.673729419708251953e+00 1.054219436645507812e+01 5.457582574308617041e-06 -5.383375082601560280e-06 2.226229689483716356e-08 1.465991999793914147e-06
2.911000000000000000e+03 2.937348937988281250e+01 2.148774909973144531e+01 -1.219615414738655090e-01 -2.414114028215408325e-01 -1.090118810534477234e-01 -3.805063068866729736e-01
2.912000000000000000e+03 5.599968433380126953e+00 -2.750319480895996094e+01 -5.607277620583772659e-03 1.845237566158175468e-03 -1.128611969761550426e-03 1.410344964824616909e-03
2.913000000000000000e+03 7.997532844543457031e+00 -2.726042747497558594e+01 2.488259458914399147e-03 -1.998044608626514673e-04 6.865364848636090755e-04 -1.186190638691186905e-03
2.914000000000000000e+03 2.749799728393554688e+01 -6.578059673309326172e+00 4.614471644163131714e-02 -1.144572973251342773e+00 -3.295284807682037354e-01 -2.529956698417663574e-01
2.915000000000000000e+03 2.859862327575683594e+01 7.201121807098388672e+00 6.507568061351776123e-03 -7.509589791297912598e-01 -2.233354151248931885e-01 -4.298671483993530273e-01
2.916000000000000000e+03 8.156678199768066406e+00 3.322349929809570312e+01 -4.942931627738289535e-05 5.846043222845764831e-06 -1.307498132518958300e-05 -2.958941695396788418e-05
2.917000000000000000e+03 8.562502861022949219e+00 2.982536506652832031e+01 -1.343700205325149000e-05 1.355094082100549713e-05 3.418174898683901120e-08 -3.456911144894547760e-05
2.918000000000000000e+03 2.985577583312988281e+01 -1.048313426971435547e+01 5.689461901783943176e-02 -9.414359331130981445e-01 -2.653623819351196289e-01 -2.223269641399383545e-01
2.919000000000000000e+03 2.844563674926757812e+01 -9.492294311523437500e+00 3.918481618165969849e-02 -1.096765398979187012e+00 -3.172741830348968506e-01 -2.258110642433166504e-01
2.920000000000000000e+03 2.732813262939453125e+01 5.702855110168457031e+00 -3.314309753477573395e-03 -8.804491758346557617e-01 -2.651290595531463623e-01 -3.762135207653045654e-01
2.921000000000000000e+03 2.861408615112304688e+01 5.775499343872070312e+00 1.175418123602867126e-02 -7.898817062377929688e-01 -2.334382534027099609e-01 -4.140959978103637695e-01
2.922000000000000000e+03 7.226937866210937500e+01 6.989935398101806641e+00 3.245027363300323486e-01 4.891833305358886719e+00 1.564900755882263184e+00 8.803864121437072754e-01
2.923000000000000000e+03 7.355277538299560547e+00 1.141349983215332031e+01 -4.453094334166962653e-06 1.435769718227675185e-06 -9.051973393070511520e-07 -3.728539468283997849e-06
2.924000000000000000e+03 9.225034713745117188e+00 2.864480209350585938e+01 1.917574445542413741e-05 6.820308954047504812e-06 7.798816113790962845e-06 3.119975190202239901e-06
2.925000000000000000e+03 8.812850952148437500e+00 2.699531555175781250e+01 3.148315590806305408e-05 -8.329156116815283895e-06 6.946199391677509993e-06 5.093003892397973686e-06
2.926000000000000000e+03 2.863476943969726562e+01 -1.111200213432312012e+00 4.726234823465347290e-02 -9.531411528587341309e-01 -2.717636227607727051e-01 -3.281355798244476318e-01
2.927000000000000000e+03 7.336212921142578125e+01 2.308934020996093750e+01 7.236411422491073608e-02 5.653550624847412109e+00 1.717774391174316406e+00 2.306829690933227539e+00
2.928000000000000000e+03 7.440770721435546875e+01 2.370141410827636719e+01 -2.014929950237274170e-01 7.213795185089111328e+00 2.103690624237060547e+00 2.323585987091064453e+00
2.929000000000000000e+03 8.804147720336914062e+00 -3.029012680053710938e+01 1.002875436097383499e-02 2.627769950777292252e-03 3.796957200393080711e-03 5.783808301202952862e-04
2.930000000000000000e+03 7.284796905517578125e+01 -4.350655078887939453e-01 1.595012098550796509e-01 4.753103256225585938e+00 1.473781228065490723e+00 4.959668815135955811e-01
2.931000000000000000e+03 7.138732910156250000e+01 1.959264874458312988e+00 2.587288916110992432e-01 4.481825828552246094e+00 1.422166466712951660e+00 6.393367648124694824e-01
2.932000000000000000e+03 7.125357818603515625e+01 -2.071682810783386230e-01 2.252117693424224854e-01 4.404209136962890625e+00 1.388826251029968262e+00 5.449309945106506348e-01
2.933000000000000000e+03 2.996937179565429688e+01 2.935756683349609375e+01 -1.795326322317123413e-01 -3.723412007093429565e-02 -6.503002345561981201e-02 -1.619121581315994263e-01
2.934000000000000000e+03 2.859498977661132812e+01 1.576945066452026367e+00 3.185921907424926758e-02 -9.001133441925048828e-01 -2.604762315750122070e-01 -3.601641058921813965e-01
2.935000000000000000e+03 7.186642456054687500e+01 -5.084241867065429688e+00 1.377574056386947632e-01 4.426571846008300781e+00 1.369298696517944336e+00 3.732089698314666748e-01
2.936000000000000000e+03 7.184431457519531250e+01 -8.431909561157226562e+00 1.073050573468208313e-01 4.346294403076171875e+00 1.336079835891723633e+00 2.759982049465179443e-01
2.937000000000000000e+03 1.219178867340087891e+01 3.290250396728515625e+01 2.368928289797622710e-05 2.190202940255403519e-05 1.367739423585589975e-05 -2.446998951199930161e-05
2.938000000000000000e+03 2.639677619934082031e+01 -2.203736495971679688e+01 4.260662943124771118e-02 -1.379479646682739258e+00 -4.010618925094604492e-01 -1.053623035550117493e-01
2.939000000000000000e+03 2.505112266540527344e+01 -2.392845344543457031e+01 3.228905797004699707e-02 -1.530842065811157227e+00 -4.495658874511718750e-01 -1.025744602084159851e-01
2.940000000000000000e+03 6.450511455535888672e+00 3.668498992919921875e+01 2.185499761253595352e-05 1.688668453425634652e-05 1.162250464403769001e-05 3.502270192257128656e-05
2.941000000000000000e+03 6.565385341644287109e+00 2.529551887512207031e+01 6.177577233756892383e-06 1.386693838867358863e-05 6.013354777678614482e-06 1.413102654623799026e-05
2.942000000000000000e+03 7.129128265380859375e+01 -1.363072681427001953e+01 7.712727040052413940e-02 4.173728942871093750e+00 1.275256872177124023e+00 1.962677389383316040e-01
2.943000000000000000e+03 2.981885337829589844e+01 -2.870767021179199219e+01 1.648582331836223602e-02 -9.530751705169677734e-01 -2.809768021106719971e-01 -5.981942638754844666e-02
2.944000000000000000e+03 2.742001342773437500e+01 -2.535130882263183594e+01 2.400178089737892151e-02 -1.248668551445007324e+00 -3.674000203609466553e-01 -9.369921684265136719e-02
2.945000000000000000e+03 6.938345336914062500e+01 -1.933754158020019531e+01 6.622405350208282471e-02 3.848978281021118164e+00 1.174560666084289551e+00 1.427453756332397461e-01
2.946000000000000000e+03 7.092721557617187500e+01 -2.108088874816894531e+01 4.782564938068389893e-02 4.052681446075439453e+00 1.230152249336242676e+00 1.128221526741981506e-01
2.947000000000000000e+03 5.201638031005859375e+01 4.121349334716796875e+01 1.517047882080078125e-01 -2.403756231069564819e-01 -2.660125121474266052e-02 4.529087245464324951e-02
2.948000000000000000e+03 6.952323913574218750e+01 -3.077369880676269531e+01 2.944476343691349030e-02 3.813627719879150391e+00 1.152921676635742188e+00 6.409091502428054810e-02
2.949000000000000000e+03 7.166537475585937500e+01 -2.647183990478515625e+01 3.080849535763263702e-02 4.092087268829345703e+00 1.236868739128112793e+00 7.340361177921295166e-02
2.950000000000000000e+03 7.394990444183349609e+00 2.726389503479003906e+01 3.862892481265589595e-05 -5.421756668511079624e-06 9.962150215869769454e-06 -7.434854524035472423e-06
2.951000000000000000e+03 1.030551433563232422e+01 -1.243573188781738281e+01 -9.552412084303796291e-04 -4.697147815022617579e-04 -4.274867824278771877e-04 5.544368177652359009e-04
2.952000000000000000e+03 8.963642120361328125e+00 -1.464903926849365234e+01 1.278125680983066559e-03 1.043514930643141270e-04 4.147431754972785711e-04 -1.219929617946036160e-04
2.953000000000000000e+03 2.858188819885253906e+01 -1.333522319793701172e+01 4.070840775966644287e-02 -1.096776247024536133e+00 -3.168203532695770264e-01 -1.844272911548614502e-01
2.954000000000000000e+03 2.867223930358886719e+01 -1.593969917297363281e+01 4.730550572276115417e-02 -1.111281156539916992e+00 -3.191927075386047363e-01 -1.502541154623031616e-01
2.955000000000000000e+03 8.922357559204101562e+00 2.067823028564453125e+01 -2.257501421354390914e-07 -6.820931957918219268e-06 -2.114004473696695641e-06 -3.361972858328954317e-06
2.956000000000000000e+03 8.247918128967285156e+00 2.791406059265136719e+01 -1.742794484016485512e-05 8.778908522799611092e-06 -2.594710622361162677e-06 1.396230891259619966e-05
2.957000000000000000e+03 8.037876129150390625e+00 2.633319091796875000e+01 -6.326868970063515007e-06 2.034175486187450588e-05 4.204465767543297261e-06 -4.581696430250303820e-06
2.958000000000000000e+03 8.917868614196777344e+00 -1.286332225799560547e+01 1.710882526822388172e-03 -3.983174392487853765e-04 3.937695291824638844e-04 -6.469234940595924854e-04
2.959000000000000000e+03 7.114826965332031250e+01 -3.008366394042968750e+01 3.065136261284351349e-02 3.993647813796997070e+00 1.207289814949035645e+00 5.521835759282112122e-02
2.960000000000000000e+03 7.230735015869140625e+01 -2.792586898803710938e+01 2.170613780617713928e-02 4.162191867828369141e+00 1.255169391632080078e+00 5.119060352444648743e-02
2.961000000000000000e+03 9.089176177978515625e+00 2.260391998291015625e+01 6.401665359589969739e-06 -9.947601029125507921e-06 -1.063780587173823733e-06 -9.692389539850410074e-06
2.962000000000000000e+03 7.417060089111328125e+01 2.757814598083496094e+01 -7.758108377456665039e-01 6.469562053680419922e+00 1.708125352859497070e+00 3.920411109924316406e+00
2.963000000000000000e+03 7.342559814453125000e+01 2.762004089355468750e+01 -5.653775930404663086e-01 4.274897098541259766e+00 1.112855792045593262e+00 3.230106830596923828e+00
2.964000000000000000e+03 7.257350921630859375e+01 2.619850540161132812e+01 -2.731695175170898438e-01 3.670814990997314453e+00 1.019293665885925293e+00 2.486029624938964844e+00
2.965000000000000000e+03 7.386978149414062500e+01 3.457584762573242188e+01 -8.977632224559783936e-02 6.102819442749023438e+00 1.803912997245788574e+00 -2.860408067703247070e+00
2.966000000000000000e+03 5.199022293090820312e+01 2.640824890136718750e+01 -1.480727434158325195e+00 1.207314711064100266e-02 -4.405962824821472168e-01 -4.912425875663757324e-01
2.967000000000000000e+03 7.280354309082031250e+01 3.491654205322265625e+01 4.475281238555908203e-01 3.627413988113403320e+00 1.222482562065124512e+00 -1.772272467613220215e+00
2.968000000000000000e+03 7.529356384277343750e+01 2.719565582275390625e+01 -1.753386497497558594e+00 1.064659786224365234e+01 2.667963504791259766e+00 3.537108659744262695e+00
2.969000000000000000e+03 5.953591918945312500e+01 2.426537895202636719e+01 -1.189427018165588379e+00 1.990789175033569336e-02 -3.508557081222534180e-01 -4.757637381553649902e-01
2.970000000000000000e+03 7.201460266113281250e+01 2.616465187072753906e+01 -3.150264322757720947e-01 2.942484140396118164e+00 7.882372736930847168e-01 2.139794111251831055e+00
2.971000000000000000e+03 7.191623687744140625e+01 2.494973754882812500e+01 -6.157894060015678406e-02 3.402939081192016602e+00 1.002408027648925781e+00 2.149665832519531250e+00
2.972000000000000000e+03 5.807445907592773438e+01 2.509048652648925781e+01 -1.471216797828674316e+00 -1.604585163295269012e-02 -4.461787939071655273e-01 -5.236628055572509766e-01
2.973000000000000000e+03 2.928282928466796875e+01 2.935441970825195312e+01 -1.573857814073562622e-01 -4.407844319939613342e-02 -6.043926998972892761e-02 -1.507619023323059082e-01
2.974000000000000000e+03 3.079010963439941406e+01 2.783667945861816406e+01 -2.148067802190780640e-01 -5.512440204620361328e-02 -8.097935467958450317e-02 -2.301724255084991455e-01
2.975000000000000000e+03 2.858567237854003906e+01 2.934754562377929688e+01 -1.362627297639846802e-01 -4.994000494480133057e-02 -5.586082115769386292e-02 -1.388349235057830811e-01
2.976000000000000000e+03 3.031932830810546875e+01 2.695257568359375000e+01 -1.958282291889190674e-01 -8.000655472278594971e-02 -8.275043219327926636e-02 -2.504917085170745850e-01
2.977000000000000000e+03 4.489431381225585938e+01 2.673088455200195312e+01 -9.565815925598144531e-01 5.089086294174194336e-02 -2.717072367668151855e-01 -4.514375030994415283e-01
2.978000000000000000e+03 3.321465301513671875e+01 2.843285942077636719e+01 -3.100020587444305420e-01 -1.351201348006725311e-02 -9.705422073602676392e-02 -2.479481399059295654e-01
2.979000000000000000e+03 2.947064208984375000e+01 2.765092658996582031e+01 -1.692309677600860596e-01 -7.471179217100143433e-02 -7.318282872438430786e-02 -2.086925506591796875e-01
2.980000000000000000e+03 2.717633819580078125e+01 2.749914360046386719e+01 -1.031592488288879395e-01 -9.729562699794769287e-02 -6.013646349310874939e-02 -1.617043167352676392e-01
2.981000000000000000e+03 2.865223884582519531e+01 2.847525596618652344e+01 -1.427213549613952637e-01 -6.583656370639801025e-02 -6.256737560033798218e-02 -1.663424819707870483e-01
2.982000000000000000e+03 3.810047149658203125e+01 2.699248313903808594e+01 -5.349398255348205566e-01 2.236022613942623138e-02 -1.537738889455795288e-01 -3.826921880245208740e-01
2.983000000000000000e+03 3.751781845092773438e+01 2.807352256774902344e+01 -5.211257338523864746e-01 2.864762581884860992e-02 -1.477434337139129639e-01 -3.161569535732269287e-01
2.984000000000000000e+03 7.015970611572265625e+01 2.361416435241699219e+01 1.689409017562866211e-01 2.331803560256958008e+00 7.502233386039733887e-01 1.500947117805480957e+00
2.985000000000000000e+03 3.383815383911132812e+01 2.827320289611816406e+01 -3.360404074192047119e-01 -8.471127599477767944e-03 -1.033534631133079529e-01 -2.621482014656066895e-01
2.986000000000000000e+03 3.449349975585937500e+01 2.810685348510742188e+01 -3.646267950534820557e-01 -3.389151766896247864e-03 -1.104047819972038269e-01 -2.793811559677124023e-01
2.987000000000000000e+03 4.389781570434570312e+01 2.543952560424804688e+01 -7.940769195556640625e-01 4.201426729559898376e-02 -2.256187945604324341e-01 -5.286356210708618164e-01
2.988000000000000000e+03 3.517090606689453125e+01 2.792535209655761719e+01 -3.965085446834564209e-01 2.163863042369484901e-03 -1.183034032583236694e-01 -2.968066632747650146e-01
2.989000000000000000e+03 4.653659057617187500e+01 2.716099739074707031e+01 -1.121529102325439453e+00 4.818838089704513550e-02 -3.220022320747375488e-01 -4.220992624759674072e-01
2.990000000000000000e+03 4.477922439575195312e+01 2.601425743103027344e+01 -8.920833468437194824e-01 4.715909063816070557e-02 -2.534772753715515137e-01 -5.002096295356750488e-01
2.991000000000000000e+03 4.111646652221679688e+01 2.744365882873535156e+01 -7.285941839218139648e-01 4.864504933357238770e-02 -2.039847522974014282e-01 -3.804013729095458984e-01
2.992000000000000000e+03 5.267659759521484375e+01 2.562502098083496094e+01 -1.373101115226745605e+00 7.381326984614133835e-03 -4.097159504890441895e-01 -5.476773381233215332e-01
2.993000000000000000e+03 5.122425460815429688e+01 2.649561309814453125e+01 -1.433361411094665527e+00 1.877467706799507141e-02 -4.243760108947753906e-01 -4.836872518062591553e-01
2.994000000000000000e+03 6.269702148437500000e+01 2.399663734436035156e+01 -9.257757663726806641e-01 1.533202826976776123e-01 -2.317366451025009155e-01 -2.461358010768890381e-01
2.995000000000000000e+03 4.040922546386718750e+01 2.760168075561523438e+01 -6.890094876289367676e-01 4.613685980439186096e-02 -1.928617954254150391e-01 -3.681863844394683838e-01
2.996000000000000000e+03 4.326246261596679688e+01 2.631602478027343750e+01 -8.149699568748474121e-01 4.792631790041923523e-02 -2.301130890846252441e-01 -4.704788327217102051e-01
2.997000000000000000e+03 5.574007034301757812e+01 2.528593635559082031e+01 -1.458579540252685547e+00 -1.382497511804103851e-02 -4.417213499546051025e-01 -5.517118573188781738e-01
2.998000000000000000e+03 5.429169464111328125e+01 2.615329170227050781e+01 -1.601971864700317383e+00 -6.859667599201202393e-03 -4.826494753360748291e-01 -5.088167190551757812e-01
2.999000000000000000e+03 4.809317398071289062e+01 2.691017341613769531e+01 -1.227515578269958496e+00 4.022677615284919739e-02 -3.561866581439971924e-01 -4.453061521053314209e-01
3.000000000000000000e+03 4.879464721679687500e+01 2.608222770690917969e+01 -1.179087638854980469e+00 3.466542437672615051e-02 -3.433266580104827881e-01 -5.123746395111083984e-01
3.001000000000000000e+03 6.748799896240234375e+01 2.556117439270019531e+01 -1.024044275283813477e+00 5.077689290046691895e-01 -1.548825949430465698e-01 2.974070310592651367e-01
3.002000000000000000e+03 6.899931335449218750e+01 2.437760543823242188e+01 -2.127496302127838135e-01 1.355421662330627441e+00 3.428016304969787598e-01 9.712275862693786621e-01
3.003000000000000000e+03 7.240155029296875000e+01 2.409271430969238281e+01 9.596066176891326904e-02 4.359001636505126953e+00 1.336488723754882812e+00 2.269033670425415039e+00
3.004000000000000000e+03 4.800336837768554688e+01 2.619580841064453125e+01 -1.135210394859313965e+00 3.875060006976127625e-02 -3.289379477500915527e-01 -5.022630691528320312e-01
3.005000000000000000e+03 5.729518890380859375e+01 2.514733886718750000e+01 -1.472428679466247559e+00 -1.718538627028465271e-02 -4.468842446804046631e-01 -5.368585586547851562e-01
3.006000000000000000e+03 9.050613403320312500e+00 6.391909122467041016e+00 9.109031452680937946e-06 1.844568032538518310e-06 3.286079845565836877e-06 -3.407969416002742946e-06
3.007000000000000000e+03 5.582968902587890625e+01 2.599311065673828125e+01 -1.661633253097534180e+00 -1.862105727195739746e-02 -5.040763020515441895e-01 -5.145432949066162109e-01
3.008000000000000000e+03 5.651909637451171875e+01 2.521229553222656250e+01 -1.467582464218139648e+00 -1.544121932238340378e-02 -4.449070990085601807e-01 -5.461057424545288086e-01
3.009000000000000000e+03 5.496871566772460938e+01 2.536715316772460938e+01 -1.443935871124267578e+00 -9.306021034717559814e-03 -4.359725713729858398e-01 -5.535786747932434082e-01
3.010000000000000000e+03 6.674790191650390625e+01 2.544352912902832031e+01 -1.112932205200195312e+00 3.790218830108642578e-01 -2.201730757951736450e-01 1.411298364400863647e-01
3.011000000000000000e+03 6.042657852172851562e+01 2.494078826904296875e+01 -1.417455911636352539e+00 6.590768229216337204e-03 -4.232595562934875488e-01 -4.525704085826873779e-01
3.012000000000000000e+03 5.964830398559570312e+01 2.499270057678222656e+01 -1.446392297744750977e+00 -5.855036899447441101e-03 -4.356742203235626221e-01 -4.820646047592163086e-01
3.013000000000000000e+03 4.027154541015625000e+01 2.688159561157226562e+01 -6.544817090034484863e-01 3.946730494499206543e-02 -1.845043152570724487e-01 -4.114866852760314941e-01
3.014000000000000000e+03 6.595003509521484375e+01 2.617857742309570312e+01 -1.677782058715820312e+00 1.516892313957214355e-01 -4.578278362751007080e-01 -1.073532029986381531e-01
3.015000000000000000e+03 4.632556915283203125e+01 2.572109603881835938e+01 -9.663955569267272949e-01 4.354542121291160583e-02 -2.768550515174865723e-01 -5.281915068626403809e-01
3.016000000000000000e+03 7.426424407958984375e+01 3.477738571166992188e+01 -3.139499425888061523e-01 7.450764656066894531e+00 2.141044378280639648e+00 -2.932341575622558594e+00
3.017000000000000000e+03 7.466541290283203125e+01 3.475062942504882812e+01 -6.933603882789611816e-01 8.714361190795898438e+00 2.406300306320190430e+00 -3.153194665908813477e+00
3.018000000000000000e+03 7.353566741943359375e+01 2.186794281005859375e+01 2.688533961772918701e-01 6.063716888427734375e+00 1.899770975112915039e+00 2.104939460754394531e+00
3.019000000000000000e+03 7.166825103759765625e+01 1.969956970214843750e+01 5.722888708114624023e-01 4.394866943359375000e+00 1.490146756172180176e+00 1.773029685020446777e+00
3.020000000000000000e+03 6.759217071533203125e+01 2.485266494750976562e+01 -6.260783076286315918e-01 7.099729776382446289e-01 2.516839094460010529e-02 4.662183523178100586e-01
3.021000000000000000e+03 4.250799179077148438e+01 2.645617485046386719e+01 -7.749359607696533203e-01 4.670191183686256409e-02 -2.184702306985855103e-01 -4.561227858066558838e-01
3.022000000000000000e+03 7.077100372314453125e+01 -3.710488796234130859e+00 1.843952089548110962e-01 4.245037078857421875e+00 1.328829646110534668e+00 4.330116510391235352e-01
3.023000000000000000e+03 7.104718780517578125e+01 7.663356065750122070e-01 2.567657828330993652e-01 4.394559383392333984e+00 1.395397543907165527e+00 5.927365422248840332e-01
3.024000000000000000e+03 7.170909118652343750e+01 3.200394153594970703e+00 2.719373703002929688e-01 4.607280731201171875e+00 1.463765501976013184e+00 6.844813227653503418e-01
3.025000000000000000e+03 3.969747924804687500e+01 2.772074890136718750e+01 -6.394288539886474609e-01 4.116091504693031311e-02 -1.794803738594055176e-01 -3.556428551673889160e-01
3.026000000000000000e+03 3.774958038330078125e+01 2.604726028442382812e+01 -4.940025210380554199e-01 6.121937651187181473e-03 -1.463641673326492310e-01 -4.247454702854156494e-01
3.027000000000000000e+03 9.587603569030761719e+00 -7.363608360290527344e+00 -1.159741892479360104e-03 -1.419723848812282085e-04 -3.905142948497086763e-04 4.879488842561841011e-04
3.028000000000000000e+03 9.319169998168945312e+00 -6.204242229461669922e+00 -1.045320765115320683e-03 8.699548779986798763e-04 -5.260978286969475448e-05 -2.514786901883780956e-04
3.029000000000000000e+03 7.488406372070312500e+01 2.637235832214355469e+01 -1.206779599189758301e+00 8.879636764526367188e+00 2.301857233047485352e+00 3.187722682952880859e+00
3.030000000000000000e+03 6.522811889648437500e+01 2.536365509033203125e+01 -1.282875776290893555e+00 2.026459276676177979e-01 -3.240689635276794434e-01 -9.773733466863632202e-02
3.031000000000000000e+03 8.396651268005371094e+00 9.737237930297851562e+00 -4.720916422229493037e-06 -7.153415481297997758e-06 -3.562299525583512150e-06 -1.700696088846598286e-06
3.032000000000000000e+03 9.259128570556640625e+00 1.004137516021728516e+01 1.033208172884769738e-05 5.113695806358009577e-06 4.633733169612241909e-06 3.698281943798065186e-06
3.033000000000000000e+03 7.440179443359375000e+01 2.550937271118164062e+01 -6.194420456886291504e-01 7.468466758728027344e+00 2.054707288742065430e+00 2.849005222320556641e+00
3.034000000000000000e+03 6.963332366943359375e+01 -8.810597419738769531e+00 1.528731286525726318e-01 3.972913026809692383e+00 1.237735867500305176e+00 3.117135167121887207e-01
3.035000000000000000e+03 9.266379356384277344e+00 -8.173624992370605469e+00 1.103147282265126705e-03 4.664644075091928244e-04 4.708835040219128132e-04 -2.211923565482720733e-04
3.036000000000000000e+03 2.820834350585937500e+01 1.860630226135253906e+01 -6.756507605314254761e-02 -3.667086958885192871e-01 -1.302821338176727295e-01 -3.933325707912445068e-01
3.037000000000000000e+03 2.809345626831054688e+01 2.140885162353515625e+01 -9.296433627605438232e-02 -2.676455974578857422e-01 -1.081829741597175598e-01 -3.379231393337249756e-01
3.038000000000000000e+03 9.182890892028808594e+00 7.076440811157226562e+00 -1.271482415177160874e-05 1.213299469782214146e-06 -3.450457370490767062e-06 1.100400595532846637e-06
3.039000000000000000e+03 7.439291954040527344e+00 7.178387165069580078e+00 -1.144802718044957146e-05 -4.140767941862577572e-06 -4.676638582168379799e-06 -7.280276292931375792e-08
3.040000000000000000e+03 3.014431571960449219e+01 2.775190162658691406e+01 -1.915205121040344238e-01 -6.483852863311767578e-02 -7.690771669149398804e-02 -2.199113368988037109e-01
3.041000000000000000e+03 7.206690216064453125e+01 -2.774597644805908203e+00 1.561494618654251099e-01 4.528007030487060547e+00 1.405246973037719727e+00 4.321668148040771484e-01
3.042000000000000000e+03 7.128625488281250000e+01 -1.599398374557495117e+00 2.032352685928344727e-01 4.383304595947265625e+00 1.375961899757385254e+00 4.839826822280883789e-01
3.043000000000000000e+03 7.016279602050781250e+01 -9.604526519775390625e+00 1.338031888008117676e-01 4.046906471252441406e+00 1.254212856292724609e+00 2.825677096843719482e-01
3.044000000000000000e+03 2.846571540832519531e+01 1.151636505126953125e+01 -8.996278047561645508e-03 -6.191589832305908203e-01 -1.884465813636779785e-01 -4.487649202346801758e-01
3.045000000000000000e+03 7.012779998779296875e+01 -1.699263572692871094e+01 7.722461223602294922e-02 3.972361564636230469e+00 1.214875817298889160e+00 1.665051877498626709e-01
3.046000000000000000e+03 6.997160339355468750e+01 -1.806376075744628906e+01 7.159201055765151978e-02 3.940365552902221680e+00 1.203587293624877930e+00 1.543683111667633057e-01
3.047000000000000000e+03 3.045624923706054688e+01 1.725249481201171875e+01 -7.851471006870269775e-02 -3.549766540527343750e-01 -1.300474107265472412e-01 -4.870604872703552246e-01
3.048000000000000000e+03 6.945628356933593750e+01 -2.460508155822753906e+01 5.297983437776565552e-02 3.852472066879272461e+00 1.171635508537292480e+00 9.324904531240463257e-02
3.049000000000000000e+03 6.822623443603515625e+01 -2.928480339050292969e+01 4.010831937193870544e-02 3.677026271820068359e+00 1.115140318870544434e+00 7.079865038394927979e-02
3.050000000000000000e+03 7.128708648681640625e+01 -1.603950309753417969e+01 6.797830760478973389e-02 4.143841743469238281e+00 1.263545989990234375e+00 1.621579378843307495e-01
3.051000000000000000e+03 7.137451934814453125e+01 1.622757911682128906e+01 6.400700211524963379e-01 4.533443927764892578e+00 1.552054166793823242e+00 1.545619010925292969e+00
3.052000000000000000e+03 7.233203125000000000e+01 1.297448062896728516e+01 4.940654039382934570e-01 5.109904766082763672e+00 1.681190967559814453e+00 1.329155206680297852e+00
3.053000000000000000e+03 2.856860733032226562e+01 -4.909828662872314453e+00 5.215831473469734192e-02 -1.031597614288330078e+00 -2.938317954540252686e-01 -2.796933650970458984e-01
3.054000000000000000e+03 2.996604347229003906e+01 3.733583688735961914e-01 5.679602921009063721e-02 -8.159872293472290039e-01 -2.277573496103286743e-01 -3.721698522567749023e-01
3.055000000000000000e+03 7.230960083007812500e+01 8.247626304626464844e+00 3.564221560955047607e-01 4.950333595275878906e+00 1.592026710510253906e+00 9.583225846290588379e-01
3.056000000000000000e+03 2.825353431701660156e+01 1.719631576538085938e+01 -5.332965031266212463e-02 -4.180632233619689941e-01 -1.414178609848022461e-01 -4.122010469436645508e-01
3.057000000000000000e+03 3.077578926086425781e+01 1.177199840545654297e+01 -7.794612552970647812e-03 -5.062457323074340820e-01 -1.542121022939682007e-01 -5.200134515762329102e-01
3.058000000000000000e+03 7.076958465576171875e+01 1.974477386474609375e+01 6.162955164909362793e-01 3.766406297683715820e+00 1.314810514450073242e+00 1.683282017707824707e+00
3.059000000000000000e+03 2.972008514404296875e+01 1.019369697570800781e+01 3.139084205031394958e-03 -6.000157594680786133e-01 -1.790630072355270386e-01 -4.850378036499023438e-01
3.060000000000000000e+03 2.851657104492187500e+01 1.008008384704589844e+01 -2.925690496340394020e-03 -6.657363176345825195e-01 -2.005985975265502930e-01 -4.472053349018096924e-01
3.061000000000000000e+03 7.970876216888427734e+00 -2.266256713867187500e+01 1.768332440406084061e-04 5.974377272650599480e-04 2.322812943020835519e-04 -2.857379848137497902e-03
3.062000000000000000e+03 9.023253440856933594e+00 -9.274423599243164062e+00 -8.506661397404968739e-04 -4.706922336481511593e-04 -3.964075003750622272e-04 1.964646653505042195e-04
3.063000000000000000e+03 7.807001590728759766e+00 -1.071224021911621094e+01 -6.287113646976649761e-04 -2.611404052004218102e-04 -2.669555251486599445e-04 -2.489427861291915178e-04
3.064000000000000000e+03 8.099059104919433594e+00 1.403455543518066406e+01 -1.355493395749363117e-06 -1.031928036354656797e-07 -4.376058484467648668e-07 9.613537258701398969e-06
3.065000000000000000e+03 7.237278747558593750e+01 1.196731472015380859e+01 4.529117047786712646e-01 5.098709583282470703e+00 1.665486454963684082e+00 1.234655499458312988e+00
3.066000000000000000e+03 7.101206207275390625e+01 1.060219860076904297e+01 5.112091898918151855e-01 4.503487586975097656e+00 1.504409074783325195e+00 1.146579384803771973e+00
3.067000000000000000e+03 7.215327453613281250e+01 5.725964069366455078e+00 3.047496378421783447e-01 4.809303760528564453e+00 1.534216046333312988e+00 8.072351813316345215e-01
3.068000000000000000e+03 6.933134460449218750e+01 3.796377897262573242e+00 4.006476700305938721e-01 3.996882200241088867e+00 1.319258928298950195e+00 7.483969330787658691e-01
3.069000000000000000e+03 2.948047828674316406e+01 1.444591140747070312e+01 -3.573733568191528320e-02 -4.770723879337310791e-01 -1.538429111242294312e-01 -4.781993925571441650e-01
3.070000000000000000e+03 6.012825012207031250e+00 2.030173683166503906e+01 2.388451321166940033e-06 1.171570511360187083e-05 4.231247203279053792e-06 -4.864260972681222484e-06
3.071000000000000000e+03 8.048075675964355469e+00 1.793529701232910156e+01 1.398333915858529508e-05 1.251001594937406480e-05 7.948006896185688674e-06 -4.218870799377327785e-06
3.072000000000000000e+03 2.880496215820312500e+01 -8.344818115234375000e+00 5.454289168119430542e-02 -1.039968967437744141e+00 -2.956278026103973389e-01 -2.458482533693313599e-01
3.073000000000000000e+03 7.094549179077148438e+00 -1.824446487426757812e+01 -2.133013680577278137e-03 -1.247344771400094032e-03 -1.014107489027082920e-03 -6.727581494487822056e-04
3.074000000000000000e+03 7.945088863372802734e+00 -2.058101272583007812e+01 1.548977917991578579e-03 3.118890454061329365e-04 5.582601297646760941e-04 -1.630418119020760059e-03
3.075000000000000000e+03 2.904244232177734375e+01 -6.115442752838134766e+00 5.704456940293312073e-02 -9.974152445793151855e-01 -2.821111977100372314e-01 -2.731481194496154785e-01
3.076000000000000000e+03 2.956120491027832031e+01 -4.236910820007324219e+00 6.618555635213851929e-02 -9.227396249771118164e-01 -2.569662332534790039e-01 -3.036266863346099854e-01
3.077000000000000000e+03 7.188749694824218750e+01 1.387655162811279297e+01 5.476572513580322266e-01 4.836911201477050781e+00 1.615370631217956543e+00 1.372666239738464355e+00
3.078000000000000000e+03 8.159338951110839844e+00 2.170377922058105469e+01 -4.898019597021630034e-06 4.347552930994424969e-06 -1.651400225455290638e-07 1.020406853058375418e-05
3.079000000000000000e+03 7.188203430175781250e+01 -9.538608789443969727e-01 1.887959092855453491e-01 4.504908084869384766e+00 1.408111214637756348e+00 5.018942356109619141e-01
3.080000000000000000e+03 6.928715515136718750e+01 4.050466918945312500e+01 1.656876444816589355e+00 1.799665212631225586e+00 1.036962509155273438e+00 8.351251482963562012e-02
3.081000000000000000e+03 1.079897689819335938e+01 -2.692864227294921875e+01 2.889530500397086143e-03 3.374363994225859642e-03 1.879168441519141197e-03 -2.350863767787814140e-03
3.082000000000000000e+03 9.490292549133300781e+00 -2.504424667358398438e+01 7.220518455142155290e-05 3.000672208145260811e-03 9.218631894327700138e-04 -3.771383489947766066e-04
3.083000000000000000e+03 3.003636360168457031e+01 2.855995559692382812e+01 -1.864053905010223389e-01 -5.051086470484733582e-02 -7.107488065958023071e-02 -1.901143789291381836e-01
3.084000000000000000e+03 2.767913246154785156e+01 2.404074859619140625e+01 -1.060636565089225769e-01 -1.867925524711608887e-01 -8.785686641931533813e-02 -2.674746513366699219e-01
3.085000000000000000e+03 9.790049552917480469e+00 3.186472511291503906e+01 -4.842492853640578687e-05 1.479726870456943288e-05 -1.008829894999507815e-05 -2.660610880411695689e-05
3.086000000000000000e+03 2.803097724914550781e+01 -2.034496116638183594e+01 4.719245061278343201e-02 -1.191009879112243652e+00 -3.431452512741088867e-01 -1.173637658357620239e-01
3.087000000000000000e+03 3.054062271118164062e+01 -2.298066139221191406e+01 5.282047018408775330e-02 -9.095726609230041504e-01 -2.570256590843200684e-01 -9.838784486055374146e-02
3.088000000000000000e+03 6.707835388183593750e+01 -2.119132614135742188e+01 8.038334548473358154e-02 3.546286344528198242e+00 1.088000893592834473e+00 1.265953928232192993e-01
3.089000000000000000e+03 7.100984954833984375e+01 -1.959941101074218750e+01 5.028990656137466431e-02 4.070325851440429688e+00 1.236184835433959961e+00 1.232323497533798218e-01
3.090000000000000000e+03 1.002665615081787109e+01 -1.310602951049804688e+01 1.300694188103079796e-03 -1.288149942411109805e-04 3.515637654345482588e-04 -3.823817241936922073e-04
3.091000000000000000e+03 9.560294151306152344e+00 -1.246318435668945312e+01 -2.583462919574230909e-04 3.373986692167818546e-04 2.371571645198855549e-05 6.001837900839745998e-04
3.092000000000000000e+03 2.993222999572753906e+01 5.886527538299560547e+00 2.639618702232837677e-02 -7.021349072456359863e-01 -2.027216255664825439e-01 -4.506409168243408203e-01
3.093000000000000000e+03 2.854460525512695312e+01 -1.201384449005126953e+01 3.348410129547119141e-02 -1.095442771911621094e+00 -3.185876011848449707e-01 -1.952231526374816895e-01
3.094000000000000000e+03 8.150139808654785156e+00 2.358737182617187500e+01 -1.930840699060354382e-05 3.625932095019379631e-06 -4.704742423200514168e-06 1.034637534758076072e-05
3.095000000000000000e+03 1.135767936706542969e+01 -2.815839576721191406e+01 -4.577057261485606432e-04 -1.316545763984322548e-03 -5.322754732333123684e-04 1.650204416364431381e-03
3.096000000000000000e+03 2.981077384948730469e+01 8.751659393310546875e+00 1.173175591975450516e-02 -6.369440555572509766e-01 -1.875636875629425049e-01 -4.777659475803375244e-01
3.097000000000000000e+03 2.744263839721679688e+01 2.526127815246582031e+01 -1.056424155831336975e-01 -1.528026461601257324e-01 -7.753351330757141113e-02 -2.277153879404067993e-01
3.098000000000000000e+03 2.860013008117675781e+01 2.953336238861083984e+00 2.476626448333263397e-02 -8.652319312095642090e-01 -2.521397173404693604e-01 -3.775242865085601807e-01
3.099000000000000000e+03 7.113070678710937500e+01 -2.270739173889160156e+01 3.953718021512031555e-02 4.060734272003173828e+00 1.230081439018249512e+00 1.030884534120559692e-01
3.100000000000000000e+03 6.909568786621093750e+01 -2.104103279113769531e+01 6.465864926576614380e-02 3.808582544326782227e+00 1.161972403526306152e+00 1.295047998428344727e-01
3.101000000000000000e+03 2.993032836914062500e+01 3.064984560012817383e+00 4.310947284102439880e-02 -7.654706239700317383e-01 -2.167083323001861572e-01 -4.113028645515441895e-01
3.102000000000000000e+03 2.955597305297851562e+01 1.303885364532470703e+01 -2.086998149752616882e-02 -5.203685760498046875e-01 -1.623715758323669434e-01 -4.846486151218414307e-01
3.103000000000000000e+03 8.241723060607910156e+00 -1.200656604766845703e+01 -2.464357239659875631e-04 -1.666525786276906729e-04 -1.239264965988695621e-04 5.966407479718327522e-04
3.104000000000000000e+03 7.118305206298828125e+01 8.217473030090332031e+00 4.265677928924560547e-01 4.557521343231201172e+00 1.495226740837097168e+00 9.894096255302429199e-01
3.105000000000000000e+03 3.004439544677734375e+01 -1.451624774932861328e+01 6.337586790323257446e-02 -9.355462193489074707e-01 -2.616510987281799316e-01 -1.801986247301101685e-01
3.106000000000000000e+03 6.844252014160156250e+01 -3.212078857421875000e+01 4.618744179606437683e-02 3.685149192810058594e+00 1.119400978088378906e+00 5.910429358482360840e-02
3.107000000000000000e+03 7.042382049560546875e+01 -1.270268154144287109e+01 1.036089509725570679e-01 4.071524620056152344e+00 1.252539992332458496e+00 2.216206789016723633e-01
3.108000000000000000e+03 6.963013458251953125e+01 -1.183286666870117188e+01 1.252519637346267700e-01 3.972577810287475586e+00 1.229348897933959961e+00 2.451827526092529297e-01
3.109000000000000000e+03 8.305144309997558594e+00 3.504437637329101562e+01 4.920304490951821208e-05 -1.330185568804154173e-06 1.436185812053736299e-05 3.327528611407615244e-05
3.110000000000000000e+03 7.187341308593750000e+01 -7.469187259674072266e+00 1.119951382279396057e-01 4.358839988708496094e+00 1.341250538825988770e+00 3.086901009082794189e-01
3.111000000000000000e+03 6.949637603759765625e+01 -1.030966854095458984e+01 1.356625556945800781e-01 3.939167261123657227e+00 1.222448945045471191e+00 2.783718705177307129e-01
3.112000000000000000e+03 7.063853454589843750e+01 -4.915909767150878906e+00 1.761780232191085815e-01 4.214994907379150391e+00 1.317351937294006348e+00 3.969427049160003662e-01
3.113000000000000000e+03 6.944541931152343750e+01 -2.800463294982910156e+01 4.071253165602684021e-02 3.814261674880981445e+00 1.156492233276367188e+00 7.182183116674423218e-02
3.114000000000000000e+03 6.842279052734375000e+01 -2.663737869262695312e+01 5.100688710808753967e-02 3.710045814514160156e+00 1.128315806388854980e+00 8.149193227291107178e-02
3.115000000000000000e+03 7.047770690917968750e+01 -2.710279273986816406e+01 4.193037375807762146e-02 3.941364288330078125e+00 1.194988489151000977e+00 8.218576759099960327e-02
3.116000000000000000e+03 2.993625831604003906e+01 1.701993346214294434e+00 5.021557211875915527e-02 -7.918121218681335449e-01 -2.224789708852767944e-01 -3.899851143360137939e-01
3.117000000000000000e+03 7.155256652832031250e+01 1.234841060638427734e+01 5.382289290428161621e-01 4.689686298370361328e+00 1.568374514579772949e+00 1.256323814392089844e+00
3.118000000000000000e+03 2.934253883361816406e+01 2.002553749084472656e+01 -1.022843122482299805e-01 -2.921798825263977051e-01 -1.183392554521560669e-01 -4.109148979187011719e-01
3.119000000000000000e+03 2.216681289672851562e+01 -3.581756210327148438e+01 -1.517927646636962891e-01 -1.779491543769836426e+00 -5.793852806091308594e-01 -1.601329632103443146e-02
3.120000000000000000e+03 2.922919845581054688e+01 -2.205776596069335938e+01 4.794761538505554199e-02 -1.051738977432250977e+00 -3.011374175548553467e-01 -1.108653172850608826e-01
3.121000000000000000e+03 7.034423065185546875e+01 -3.474842834472656250e+01 1.059093885123729706e-02 3.891085624694824219e+00 1.170502901077270508e+00 2.780602127313613892e-02
3.122000000000000000e+03 9.046735763549804688e+00 1.322666454315185547e+01 9.555910764902364463e-07 2.826193622240680270e-06 1.134535409619275015e-06 -7.273480150615796447e-06
3.123000000000000000e+03 7.360825347900390625e+01 2.696154403686523438e+01 -5.608827471733093262e-01 5.273388385772705078e+00 1.413751721382141113e+00 3.276442527770996094e+00
3.124000000000000000e+03 7.362490081787109375e+01 3.502173614501953125e+01 1.398289799690246582e-01 5.745172500610351562e+00 1.765500426292419434e+00 -2.275524616241455078e+00
3.125000000000000000e+03 7.257746124267578125e+01 2.552767944335937500e+01 -1.629084050655364990e-01 4.007276058197021484e+00 1.153310298919677734e+00 2.443700551986694336e+00
3.126000000000000000e+03 7.428871154785156250e+01 2.628058433532714844e+01 -7.854250669479370117e-01 7.244513511657714844e+00 1.937726497650146484e+00 3.169946670532226562e+00
3.127000000000000000e+03 6.031045913696289062e+01 2.421114349365234375e+01 -1.147260785102844238e+00 3.905282169580459595e-02 -3.324623703956604004e-01 -4.367837011814117432e-01
3.128000000000000000e+03 5.886567687988281250e+01 2.504084777832031250e+01 -1.464179158210754395e+00 -1.309533696621656418e-02 -4.431823492050170898e-01 -5.055595040321350098e-01
3.129000000000000000e+03 7.204981994628906250e+01 2.554207038879394531e+01 -1.283881366252899170e-01 3.296330213546752930e+00 9.503825902938842773e-01 2.223237037658691406e+00
3.130000000000000000e+03 7.172025299072265625e+01 2.415095520019531250e+01 1.105896830558776855e-01 3.558542728424072266e+00 1.100739717483520508e+00 2.062454938888549805e+00
3.131000000000000000e+03 3.259943771362304688e+01 2.854692077636718750e+01 -2.816992402076721191e-01 -2.053851075470447540e-02 -9.067132323980331421e-02 -2.340955883264541626e-01
3.132000000000000000e+03 3.069928550720214844e+01 2.859236907958984375e+01 -2.092913538217544556e-01 -4.225375875830650330e-02 -7.546353340148925781e-02 -2.008860707283020020e-01
3.133000000000000000e+03 3.225321578979492188e+01 2.655916213989257812e+01 -2.667855024337768555e-01 -5.846457183361053467e-02 -9.757502377033233643e-02 -3.068863153457641602e-01
3.134000000000000000e+03 2.935503196716308594e+01 2.851444816589355469e+01 -1.641595810651779175e-01 -5.820515379309654236e-02 -6.670942157506942749e-02 -1.787047237157821655e-01
3.135000000000000000e+03 3.093144989013671875e+01 2.711567497253417969e+01 -2.178585529327392578e-01 -6.867352128028869629e-02 -8.595962077379226685e-02 -2.596973776817321777e-01
3.136000000000000000e+03 2.893545341491699219e+01 2.659369850158691406e+01 -1.512417048215866089e-01 -1.041650921106338501e-01 -7.662203907966613770e-02 -2.290974855422973633e-01
3.137000000000000000e+03 2.726984977722167969e+01 2.641669845581054688e+01 -1.049662455916404724e-01 -1.233538612723350525e-01 -6.849603354930877686e-02 -1.931658536195755005e-01
3.138000000000000000e+03 4.721585845947265625e+01 2.631768798828125000e+01 -1.090399861335754395e+00 4.326355829834938049e-02 -3.141408860683441162e-01 -4.905291497707366943e-01
3.139000000000000000e+03 3.700314331054687500e+01 2.642194938659667969e+01 -4.665627181529998779e-01 3.044755198061466217e-03 -1.390553861856460571e-01 -3.937888145446777344e-01
3.140000000000000000e+03 4.092097091674804688e+01 2.588619422912597656e+01 -6.493693590164184570e-01 3.238493204116821289e-02 -1.850953251123428345e-01 -4.719203114509582520e-01
3.141000000000000000e+03 3.586640167236328125e+01 2.772314071655273438e+01 -4.280068278312683105e-01 7.246481254696846008e-03 -1.262281090021133423e-01 -3.156397342681884766e-01
3.142000000000000000e+03 3.629577255249023438e+01 2.673142814636230469e+01 -4.370792806148529053e-01 -1.334545202553272247e-03 -1.315241456031799316e-01 -3.691334724426269531e-01
3.143000000000000000e+03 3.269373321533203125e+01 2.738858032226562500e+01 -2.864918112754821777e-01 -3.715968877077102661e-02 -9.709544479846954346e-02 -2.818071246147155762e-01
3.144000000000000000e+03 4.554853820800781250e+01 2.586521339416503906e+01 -9.302135705947875977e-01 4.559123516082763672e-02 -2.653867006301879883e-01 -5.147607326507568359e-01
3.145000000000000000e+03 3.562014770507812500e+01 2.700071334838867188e+01 -4.098501801490783691e-01 -5.569017026573419571e-03 -1.246257573366165161e-01 -3.464655578136444092e-01
3.146000000000000000e+03 3.430606842041015625e+01 2.742233085632324219e+01 -3.545698225498199463e-01 -1.506454870104789734e-02 -1.108903139829635620e-01 -3.069163262844085693e-01
3.147000000000000000e+03 3.495970916748046875e+01 2.723060989379882812e+01 -3.809560835361480713e-01 -1.041137147694826126e-02 -1.174102351069450378e-01 -3.256682455539703369e-01
3.148000000000000000e+03 3.590126037597656250e+01 2.596732139587402344e+01 -4.073548913002014160e-01 -1.775523833930492401e-02 -1.275330334901809692e-01 -3.972363770008087158e-01
3.149000000000000000e+03 4.315610122680664062e+01 2.560260963439941406e+01 -7.632062435150146484e-01 4.141643270850181580e-02 -2.165369391441345215e-01 -5.128868818283081055e-01
3.150000000000000000e+03 4.174623107910156250e+01 2.657731246948242188e+01 -7.322092652320861816e-01 4.493462666869163513e-02 -2.061824053525924683e-01 -4.427613317966461182e-01
3.151000000000000000e+03 4.242238235473632812e+01 2.575135993957519531e+01 -7.295747399330139160e-01 4.046565294265747070e-02 -2.067327201366424561e-01 -4.975184500217437744e-01
3.152000000000000000e+03 6.964724731445312500e+01 2.441224670410156250e+01 -1.019518375396728516e-01 1.733308434486389160e+00 4.894069731235504150e-01 1.219434022903442383e+00
3.153000000000000000e+03 7.473973846435546875e+01 2.703027343750000000e+01 -1.186455249786376953e+00 8.583515167236328125e+00 2.219117879867553711e+00 3.697555065155029297e+00
3.154000000000000000e+03 4.860437774658203125e+01 2.460228538513183594e+01 -9.692062735557556152e-01 3.125506266951560974e-02 -2.813853621482849121e-01 -6.033611297607421875e-01
3.155000000000000000e+03 4.958679580688476562e+01 2.597720146179199219e+01 -1.222235083580017090e+00 2.880022302269935608e-02 -3.580304682254791260e-01 -5.218507051467895508e-01
3.156000000000000000e+03 4.869952774047851562e+01 2.535280036926269531e+01 -1.074831485748291016e+00 3.248232975602149963e-02 -3.127047717571258545e-01 -5.616906285285949707e-01
3.157000000000000000e+03 5.420236587524414062e+01 2.545354652404785156e+01 -1.425356745719909668e+00 -4.473150707781314850e-03 -4.289489686489105225e-01 -5.532386898994445801e-01
3.158000000000000000e+03 5.468338394165039062e+01 2.392944335937500000e+01 -1.082134246826171875e+00 6.111397407948970795e-03 -3.228068649768829346e-01 -6.054192185401916504e-01
3.159000000000000000e+03 6.828876495361328125e+01 2.497911071777343750e+01 -5.696400403976440430e-01 8.615509271621704102e-01 8.757326751947402954e-02 6.309470534324645996e-01
3.160000000000000000e+03 6.835730743408203125e+01 2.430459022521972656e+01 -2.900651693344116211e-01 1.101416468620300293e+00 2.434054017066955566e-01 7.829021215438842773e-01
3.161000000000000000e+03 6.173188400268554688e+01 2.332999038696289062e+01 -7.590869069099426270e-01 1.576391905546188354e-01 -1.804343163967132568e-01 -2.852079272270202637e-01
3.162000000000000000e+03 6.252560043334960938e+01 2.322870635986328125e+01 -6.600822806358337402e-01 2.203073948621749878e-01 -1.319324523210525513e-01 -1.974405795335769653e-01
3.163000000000000000e+03 5.795767593383789062e+01 2.436597442626953125e+01 -1.237627983093261719e+00 9.141162154264748096e-04 -3.710141777992248535e-01 -5.323632359504699707e-01
3.164000000000000000e+03 6.109708786010742188e+01 2.415079116821289062e+01 -1.091825366020202637e+00 6.557907164096832275e-02 -3.078738749027252197e-01 -3.879774212837219238e-01
3.165000000000000000e+03 6.093523788452148438e+01 2.340406227111816406e+01 -8.390190005302429199e-01 1.128659099340438843e-01 -2.178459316492080688e-01 -3.572227656841278076e-01
3.166000000000000000e+03 5.484406661987304688e+01 2.465619850158691406e+01 -1.259931921958923340e+00 -3.677942324429750443e-03 -3.790829479694366455e-01 -5.841786861419677734e-01
3.167000000000000000e+03 5.561411666870117188e+01 2.457053184509277344e+01 -1.261319518089294434e+00 -4.768891260027885437e-03 -3.798265159130096436e-01 -5.776212811470031738e-01
3.168000000000000000e+03 6.520947265625000000e+01 2.452306938171386719e+01 -8.712826371192932129e-01 3.243345320224761963e-01 -1.640844196081161499e-01 1.208818517625331879e-02
3.169000000000000000e+03 6.439987182617187500e+01 2.459421157836914062e+01 -1.005918383598327637e+00 2.172497510910034180e-01 -2.366005778312683105e-01 -1.117559671401977539e-01
3.170000000000000000e+03 4.096742248535156250e+01 2.667766761779785156e+01 -6.883504986763000488e-01 4.154450446367263794e-02 -1.940417885780334473e-01 -4.288868010044097900e-01
3.171000000000000000e+03 6.685284423828125000e+01 2.462034225463867188e+01 -6.518434286117553711e-01 5.889467000961303711e-01 -1.886900886893272400e-02 3.148115277290344238e-01
3.172000000000000000e+03 4.711103439331054688e+01 2.558607101440429688e+01 -1.003283977508544922e+00 4.043141752481460571e-02 -2.888557910919189453e-01 -5.411322116851806641e-01
3.173000000000000000e+03 7.268479919433593750e+01 2.348248863220214844e+01 1.104812994599342346e-01 4.813982963562011719e+00 1.477339267730712891e+00 2.294066667556762695e+00
3.174000000000000000e+03 2.715254974365234375e+01 2.937223815917968750e+01 -9.723442047834396362e-02 -5.962680652737617493e-02 -4.705836996436119080e-02 -1.130858212709426880e-01
3.175000000000000000e+03 3.963911437988281250e+01 2.700230979919433594e+01 -6.212788224220275879e-01 3.506116941571235657e-02 -1.758652925491333008e-01 -3.966470956802368164e-01
3.176000000000000000e+03 5.639294433593750000e+01 2.449370193481445312e+01 -1.258997797966003418e+00 -5.005175247788429260e-03 -3.792009055614471436e-01 -5.671989321708679199e-01
3.177000000000000000e+03 5.875220489501953125e+01 2.431490325927734375e+01 -1.217298865318298340e+00 8.894424885511398315e-03 -3.625213503837585449e-01 -5.068555474281311035e-01
3.178000000000000000e+03 8.398118019104003906e+00 -7.563207149505615234e+00 -1.994711055886000395e-05 -5.763420485891401768e-04 -1.788867521099746227e-04 1.404641952831298113e-04
3.179000000000000000e+03 9.008158683776855469e+00 -7.038903236389160156e+00 -4.815105930902063847e-04 1.088018878363072872e-03 1.819524622987955809e-04 -3.144040820188820362e-04
3.180000000000000000e+03 2.872070693969726562e+01 2.420924758911132812e+01 -1.342188864946365356e-01 -1.672502756118774414e-01 -9.044074267148971558e-02 -2.917727231979370117e-01
3.181000000000000000e+03 7.117807865142822266e+00 -6.696021556854248047e+00 8.740622433833777905e-04 1.404736540280282497e-04 3.043607575818896294e-04 2.606896159704774618e-04
3.182000000000000000e+03 5.343850708007812500e+01 2.554086685180664062e+01 -1.401358842849731445e+00 1.761571038514375687e-03 -4.198791682720184326e-01 -5.509493350982666016e-01
3.183000000000000000e+03 8.498398780822753906e+00 8.074160575866699219e+00 -9.754326129041146487e-06 -1.653956246627785731e-06 -3.422484496695687994e-06 -1.783383254405634943e-06
3.184000000000000000e+03 6.959922790527343750e+01 -3.435320854187011719e+00 2.321059107780456543e-01 4.011185646057128906e+00 1.272987365722656250e+00 4.551216661930084229e-01
3.185000000000000000e+03 6.915296936035156250e+01 -7.773303508758544922e+00 1.722998917102813721e-01 3.920158147811889648e+00 1.227737426757812500e+00 3.393927514553070068e-01
3.186000000000000000e+03 1.025638961791992188e+01 -6.448306560516357422e+00 -8.608630741946399212e-04 6.196973845362663269e-04 -7.234970689751207829e-05 -2.369013236602768302e-04
3.187000000000000000e+03 7.072139739990234375e+01 1.168842601776123047e+01 5.637376308441162109e-01 4.370364189147949219e+00 1.480230569839477539e+00 1.216023921966552734e+00
3.188000000000000000e+03 7.098581695556640625e+01 1.314955997467041016e+01 5.970119237899780273e-01 4.416305541992187500e+00 1.503995299339294434e+00 1.288076281547546387e+00
3.189000000000000000e+03 5.037179565429687500e+01 2.588106346130371094e+01 -1.263433456420898438e+00 2.403636835515499115e-02 -3.718191385269165039e-01 -5.301018357276916504e-01
3.190000000000000000e+03 7.272221374511718750e+01 2.166554069519042969e+01 4.091430902481079102e-01 5.164560794830322266e+00 1.672111272811889648e+00 2.035105228424072266e+00
3.191000000000000000e+03 7.223165130615234375e+01 2.278421974182128906e+01 2.769410014152526855e-01 4.487500190734863281e+00 1.429332375526428223e+00 2.096390247344970703e+00
3.192000000000000000e+03 8.721082687377929688e+00 -1.362578964233398438e+01 -1.554448856040835381e-03 1.956360756594222039e-05 -4.604655550792813301e-04 3.323211058159358799e-05
3.193000000000000000e+03 6.862778472900390625e+01 -1.232460403442382812e+01 1.401013880968093872e-01 3.798623323440551758e+00 1.181617379188537598e+00 2.470297962427139282e-01
3.194000000000000000e+03 4.932786178588867188e+01 2.374543190002441406e+01 -8.831744194030761719e-01 2.679237723350524902e-02 -2.569146156311035156e-01 -6.428643465042114258e-01
3.195000000000000000e+03 7.364891052246093750e+01 2.387579154968261719e+01 -6.382840871810913086e-02 6.028407096862792969e+00 1.789373636245727539e+00 2.417773485183715820e+00
3.196000000000000000e+03 7.249706268310546875e+01 2.484086799621582031e+01 -6.994511932134628296e-02 4.192784786224365234e+00 1.236851930618286133e+00 2.362802267074584961e+00
3.197000000000000000e+03 7.995424270629882812e+00 1.061741828918457031e+01 5.943280939391115680e-06 2.679598992472165264e-06 2.586863956821616739e-06 1.544965925859287381e-06
3.198000000000000000e+03 2.875713729858398438e+01 2.755834197998046875e+01 -1.474075913429260254e-01 -8.345259726047515869e-02 -6.925805658102035522e-02 -1.958459168672561646e-01
3.199000000000000000e+03 3.044332695007324219e+01 1.858900642395019531e+01 -9.977266937494277954e-02 -3.130953013896942139e-01 -1.238603964447975159e-01 -4.691667258739471436e-01
3.200000000000000000e+03 3.060838699340820312e+01 -3.413016557693481445e+00 8.303700387477874756e-02 -8.178024291992187500e-01 -2.204296290874481201e-01 -3.308132290840148926e-01
3.201000000000000000e+03 3.185009384155273438e+01 -2.869143724441528320e+00 9.959506243467330933e-02 -6.926338672637939453e-01 -1.779116392135620117e-01 -3.507509827613830566e-01
3.202000000000000000e+03 6.909815216064453125e+01 -1.735953330993652344e+01 8.540591597557067871e-02 3.848056077957153320e+00 1.180038571357727051e+00 1.688227206468582153e-01
3.203000000000000000e+03 7.107275390625000000e+01 1.766023445129394531e+01 6.624481678009033203e-01 4.227833747863769531e+00 1.467084527015686035e+00 1.613632798194885254e+00
3.204000000000000000e+03 7.054286193847656250e+01 1.530598926544189453e+01 6.842001676559448242e-01 4.157324314117431641e+00 1.452457427978515625e+00 1.424975752830505371e+00
3.205000000000000000e+03 6.322931289672851562e+00 7.082821846008300781e+00 6.058302915334934369e-06 4.943427029502345249e-06 3.300518983451183885e-06 4.462434844754170626e-06
3.206000000000000000e+03 6.879417419433593750e+00 6.762292861938476562e+00 -2.243969447590643540e-06 1.419841851202363614e-06 -2.472382334417488892e-07 -2.720965085245552473e-06
3.207000000000000000e+03 3.090650939941406250e+01 1.036385250091552734e+01 6.331377662718296051e-03 -5.368025302886962891e-01 -1.591413468122482300e-01 -5.185317397117614746e-01
3.208000000000000000e+03 2.941913604736328125e+01 1.584355258941650391e+01 -4.978996887803077698e-02 -4.323123991489410400e-01 -1.446307152509689331e-01 -4.668262898921966553e-01
3.209000000000000000e+03 2.915639114379882812e+01 2.292324256896972656e+01 -1.336199194192886353e-01 -2.012071162462234497e-01 -1.004481092095375061e-01 -3.419097363948822021e-01
3.210000000000000000e+03 3.211858749389648438e+01 2.726282501220703125e+01 -2.658294141292572021e-01 -4.601881280541419983e-02 -9.355446696281433105e-02 -2.765120863914489746e-01
3.211000000000000000e+03 2.937287139892578125e+01 1.723525810241699219e+01 -6.694640964269638062e-02 -3.859972655773162842e-01 -1.358830928802490234e-01 -4.521418809890747070e-01
3.212000000000000000e+03 7.117765808105468750e+01 7.051530361175537109e+00 3.964732587337493896e-01 4.533003807067871094e+00 1.478843092918395996e+00 9.089379906654357910e-01
3.213000000000000000e+03 6.777507781982421875e+01 -2.501335525512695312e+01 6.257161498069763184e-02 3.629216194152832031e+00 1.107536315917968750e+00 9.981347620487213135e-02
3.214000000000000000e+03 6.738330841064453125e+01 -2.319849395751953125e+01 6.701867282390594482e-02 3.586596488952636719e+00 1.096084475517272949e+00 1.093542426824569702e-01
3.215000000000000000e+03 7.178810882568359375e+01 -6.321785449981689453e+00 1.288169175386428833e-01 4.380840778350830078e+00 1.352897286415100098e+00 3.403646051883697510e-01
3.216000000000000000e+03 6.875231933593750000e+01 -9.454300880432128906e+00 1.661106646060943604e-01 3.836509466171264648e+00 1.200785994529724121e+00 3.094837963581085205e-01
3.217000000000000000e+03 7.088977813720703125e+00 -2.146222305297851562e+01 3.976343432441353798e-04 4.429481632541865110e-04 2.521747665014117956e-04 1.485467655584216118e-03
3.218000000000000000e+03 6.997345733642578125e+01 1.970157432556152344e+01 6.537857651710510254e-01 3.234168767929077148e+00 1.166386365890502930e+00 1.541122794151306152e+00
3.219000000000000000e+03 7.022565460205078125e+01 1.800428581237792969e+01 7.023243904113769531e-01 3.682144165039062500e+00 1.315340518951416016e+00 1.530449748039245605e+00
3.220000000000000000e+03 9.178600311279296875e+00 -1.667560195922851562e+01 1.155529753305017948e-03 9.378771064803004265e-04 6.280220695771276951e-04 -1.008143299259245396e-03
3.221000000000000000e+03 3.005499076843261719e+01 -1.316640090942382812e+01 4.956679791212081909e-02 -9.374301433563232422e-01 -2.663590013980865479e-01 -1.912919133901596069e-01
3.222000000000000000e+03 6.924695587158203125e+01 -1.529798030853271484e+01 9.692517668008804321e-02 3.869987726211547852e+00 1.190073847770690918e+00 1.854889690876007080e-01
3.223000000000000000e+03 7.294710540771484375e+01 2.239699935913085938e+01 2.438247203826904297e-01 5.378960609436035156e+00 1.686835646629333496e+00 2.158772945404052734e+00
3.224000000000000000e+03 2.790155792236328125e+01 -2.178442382812500000e+01 4.163621738553047180e-02 -1.209642648696899414e+00 -3.504019379615783691e-01 -1.135420203208923340e-01
3.225000000000000000e+03 3.128694534301757812e+01 -4.419636726379394531e+00 9.514591097831726074e-02 -7.608614563941955566e-01 -1.997146606445312500e-01 -3.214840292930603027e-01
3.226000000000000000e+03 7.053804779052734375e+01 -8.808772087097167969e+00 1.289244443178176880e-01 4.115711212158203125e+00 1.273390650749206543e+00 3.069151341915130615e-01
3.227000000000000000e+03 3.152405738830566406e+01 -1.723757553100585938e+01 7.318241894245147705e-02 -7.863319516181945801e-01 -2.139448523521423340e-01 -1.489472985267639160e-01
3.228000000000000000e+03 6.970578765869140625e+01 1.136878681182861328e+01 6.181556582450866699e-01 3.937067747116088867e+00 1.366567015647888184e+00 1.150198221206665039e+00
3.229000000000000000e+03 6.981290435791015625e+01 1.035450649261474609e+01 5.838963985443115234e-01 4.008810043334960938e+00 1.377811908721923828e+00 1.103128790855407715e+00
3.230000000000000000e+03 3.106491661071777344e+01 8.934591293334960938e+00 2.299376763403415680e-02 -5.636104345321655273e-01 -1.621849983930587769e-01 -5.112437009811401367e-01
3.231000000000000000e+03 3.066195106506347656e+01 1.316234493255615234e+01 -2.447037771344184875e-02 -4.721840918064117432e-01 -1.489963382482528687e-01 -5.186207294464111328e-01
3.232000000000000000e+03 3.130814743041992188e+01 4.596716403961181641e+00 5.457837507128715515e-02 -6.397875547409057617e-01 -1.755627542734146118e-01 -4.614587426185607910e-01
3.233000000000000000e+03 3.131451034545898438e+01 6.045257568359375000e+00 4.419407621026039124e-02 -6.130256056785583496e-01 -1.706494539976119995e-01 -4.816857576370239258e-01
3.234000000000000000e+03 3.049722099304199219e+01 1.590096473693847656e+01 -6.002178415656089783e-02 -3.958500623703002930e-01 -1.367615610361099243e-01 -5.017086267471313477e-01
3.235000000000000000e+03 1.105672264099121094e+01 -3.295087814331054688e+01 2.214562892913818359e-02 2.108329135808162391e-05 6.650013383477926254e-03 4.710245120804756880e-04
3.236000000000000000e+03 7.679048538208007812e+00 -3.094738006591796875e+01 -3.184268251061439514e-03 -2.334026619791984558e-03 -1.655488507822155952e-03 3.651746374089270830e-04
3.237000000000000000e+03 3.065914535522460938e+01 2.131015777587890625e+01 -1.476974189281463623e-01 -2.224934548139572144e-01 -1.110572665929794312e-01 -4.232096076011657715e-01
3.238000000000000000e+03 2.822954940795898438e+01 -2.303278160095214844e+01 3.859178721904754639e-02 -1.166879057884216309e+00 -3.384861946105957031e-01 -1.057944297790527344e-01
3.239000000000000000e+03 3.272532653808593750e+01 4.721127986907958984e+00 7.751949876546859741e-02 -5.469799637794494629e-01 -1.408381462097167969e-01 -4.862372875213623047e-01
3.240000000000000000e+03 8.906786918640136719e+00 -2.829377174377441406e+01 2.470010193064808846e-03 2.814208855852484703e-03 1.585265737958252430e-03 -1.002804841846227646e-03
3.241000000000000000e+03 5.983940601348876953e+00 -2.998848533630371094e+01 -3.593191038817167282e-03 -2.835427585523575544e-04 -1.163020147942006588e-03 2.900362946093082428e-03
3.242000000000000000e+03 3.110711669921875000e+01 -3.447168350219726562e+01 4.153820127248764038e-02 -8.086583614349365234e-01 -2.301360517740249634e-01 1.231134124100208282e-02
3.243000000000000000e+03 6.934673309326171875e+01 -4.125488698482513428e-01 2.968593835830688477e-01 4.005372047424316406e+00 1.290669441223144531e+00 5.659474134445190430e-01
3.244000000000000000e+03 6.854029846191406250e+01 1.339311599731445312e+00 3.686932325363159180e-01 3.812531471252441406e+00 1.254367470741271973e+00 6.347343921661376953e-01
3.245000000000000000e+03 5.938314819335937500e+01 2.351688575744628906e+01 -9.471598267555236816e-01 5.269047990441322327e-02 -2.683407962322235107e-01 -4.610688090324401855e-01
3.246000000000000000e+03 6.604556274414062500e+01 2.447996902465820312e+01 -7.259379029273986816e-01 4.601515233516693115e-01 -7.973591983318328857e-02 1.746905595064163208e-01
3.247000000000000000e+03 5.780598831176757812e+01 2.362508392333984375e+01 -1.017755508422851562e+00 2.558581158518791199e-02 -2.976509034633636475e-01 -5.323353409767150879e-01
3.248000000000000000e+03 7.315380096435546875e+01 2.550273132324218750e+01 -2.579625844955444336e-01 5.025155544281005859e+00 1.430157780647277832e+00 2.678760766983032227e+00
3.249000000000000000e+03 3.364678573608398438e+01 2.757902908325195312e+01 -3.267213702201843262e-01 -2.096807397902011871e-02 -1.043068394064903259e-01 -2.905274033546447754e-01
3.250000000000000000e+03 3.201437759399414062e+01 2.792007637023925781e+01 -2.616921365261077881e-01 -3.650734573602676392e-02 -8.945984393358230591e-02 -2.490100562572479248e-01
3.251000000000000000e+03 2.966127967834472656e+01 2.676536560058593750e+01 -1.740351021289825439e-01 -9.170855581760406494e-02 -7.972309738397598267e-02 -2.412311583757400513e-01
3.252000000000000000e+03 4.465327835083007812e+01 2.527471160888671875e+01 -8.249948620796203613e-01 4.147189483046531677e-02 -2.350568920373916626e-01 -5.442607998847961426e-01
3.253000000000000000e+03 4.790397644042968750e+01 2.546434020996093750e+01 -1.039347410202026367e+00 3.724604472517967224e-02 -3.006303906440734863e-01 -5.516305565834045410e-01
3.254000000000000000e+03 2.997444152832031250e+01 2.586973190307617188e+01 -1.795309185981750488e-01 -1.094035431742668152e-01 -8.668033778667449951e-02 -2.764666378498077393e-01
3.255000000000000000e+03 3.655852127075195312e+01 2.560991668701171875e+01 -4.277735650539398193e-01 -1.567575149238109589e-02 -1.330347955226898193e-01 -4.254868030548095703e-01
3.256000000000000000e+03 4.166342544555664062e+01 2.518141555786132812e+01 -6.530717015266418457e-01 2.868577092885971069e-02 -1.873157769441604614e-01 -5.198429822921752930e-01
3.257000000000000000e+03 2.837881469726562500e+01 2.537711906433105469e+01 -1.310779452323913574e-01 -1.406222432851791382e-01 -8.151005208492279053e-02 -2.505888044834136963e-01
3.258000000000000000e+03 2.814024925231933594e+01 2.647204017639160156e+01 -1.283435076475143433e-01 -1.143295988440513611e-01 -7.280193269252777100e-02 -2.129500210285186768e-01
3.259000000000000000e+03 7.186927795410156250e+01 2.181930923461914062e+01 4.526939988136291504e-01 4.268652439117431641e+00 1.416403889656066895e+00 1.944368720054626465e+00
3.260000000000000000e+03 6.902207183837890625e+01 2.370922660827636719e+01 2.410360798239707947e-02 1.613369464874267578e+00 4.912419319152832031e-01 1.087526917457580566e+00
3.261000000000000000e+03 5.408372116088867188e+01 2.474851417541503906e+01 -1.253516316413879395e+00 7.094967877492308617e-04 -3.758420348167419434e-01 -5.867114067077636719e-01
3.262000000000000000e+03 5.333279800415039062e+01 2.484062004089355469e+01 -1.242152094841003418e+00 5.168747622519731522e-03 -3.710950016975402832e-01 -5.878810882568359375e-01
3.263000000000000000e+03 4.376024627685546875e+01 2.468796920776367188e+01 -7.302592992782592773e-01 3.403659909963607788e-02 -2.088668048381805420e-01 -5.673575401306152344e-01
3.264000000000000000e+03 4.451493453979492188e+01 2.450197410583496094e+01 -7.518740892410278320e-01 3.443861007690429688e-02 -2.152306437492370605e-01 -5.839988589286804199e-01
3.265000000000000000e+03 3.307283020019531250e+01 2.779701805114746094e+01 -3.018555939197540283e-01 -2.669361792504787445e-02 -9.856476634740829468e-02 -2.730680108070373535e-01
3.266000000000000000e+03 3.469281387329101562e+01 2.655398559570312500e+01 -3.619909882545471191e-01 -2.560713700950145721e-02 -1.162794381380081177e-01 -3.513926565647125244e-01
3.267000000000000000e+03 6.348793029785156250e+01 2.389286613464355469e+01 -8.120076656341552734e-01 2.212876230478286743e-01 -1.772160232067108154e-01 -1.512610763311386108e-01
3.268000000000000000e+03 6.594679260253906250e+01 2.353076934814453125e+01 -3.695995807647705078e-01 6.287522912025451660e-01 7.774581015110015869e-02 2.889785170555114746e-01
3.269000000000000000e+03 4.168321609497070312e+01 2.585738182067871094e+01 -6.936305165290832520e-01 3.739230707287788391e-02 -1.968714594841003418e-01 -4.835274815559387207e-01
3.270000000000000000e+03 4.542305374145507812e+01 2.511729812622070312e+01 -8.538174033164978027e-01 4.067193344235420227e-02 -2.439436465501785278e-01 -5.589873790740966797e-01
3.271000000000000000e+03 5.162990951538085938e+01 2.360131645202636719e+01 -9.391239881515502930e-01 1.724141836166381836e-02 -2.765647768974304199e-01 -6.404846906661987305e-01
3.272000000000000000e+03 4.303244781494140625e+01 2.488460922241210938e+01 -7.073216438293457031e-01 3.412790596485137939e-02 -2.019581198692321777e-01 -5.502429604530334473e-01
3.273000000000000000e+03 4.233580780029296875e+01 2.506561851501464844e+01 -6.832724809646606445e-01 3.243214637041091919e-02 -1.952521055936813354e-01 -5.338380932807922363e-01
3.274000000000000000e+03 4.940282821655273438e+01 2.450882530212402344e+01 -9.957621693611145020e-01 2.703962475061416626e-02 -2.906167507171630859e-01 -6.102020740509033203e-01
3.275000000000000000e+03 4.949404907226562500e+01 2.525185775756835938e+01 -1.109346270561218262e+00 2.866392955183982849e-02 -3.242046833038330078e-01 -5.695676207542419434e-01
3.276000000000000000e+03 6.015559387207031250e+01 2.346363067626953125e+01 -9.004002809524536133e-01 7.727049291133880615e-02 -2.469389289617538452e-01 -4.154375195503234863e-01
3.277000000000000000e+03 5.683539962768554688e+01 2.293466567993164062e+01 -8.440724611282348633e-01 3.746950253844261169e-02 -2.419808804988861084e-01 -5.561174750328063965e-01
3.278000000000000000e+03 5.623510360717773438e+01 2.376082420349121094e+01 -1.058992266654968262e+00 1.018075644969940186e-02 -3.146434426307678223e-01 -5.784118771553039551e-01
3.279000000000000000e+03 5.717295455932617188e+01 2.442529106140136719e+01 -1.250882148742675781e+00 -2.359740668907761574e-03 -3.759725689888000488e-01 -5.523496270179748535e-01
3.280000000000000000e+03 6.130788040161132812e+01 2.182058906555175781e+01 -3.309646248817443848e-01 2.834314405918121338e-01 -1.425995863974094391e-02 -2.046334296464920044e-01
3.281000000000000000e+03 6.330752944946289062e+01 2.309926033020019531e+01 -5.403326749801635742e-01 3.033648431301116943e-01 -7.109035551548004150e-02 -9.155403077602386475e-02
3.282000000000000000e+03 4.700202941894531250e+01 2.483074951171875000e+01 -9.122946858406066895e-01 3.720792010426521301e-02 -2.625260353088378906e-01 -5.846258997917175293e-01
3.283000000000000000e+03 6.958424377441406250e+01 2.376249504089355469e+01 7.620310783386230469e-02 1.917151570320129395e+00 5.980064272880554199e-01 1.287682294845581055e+00
3.284000000000000000e+03 4.017030715942382812e+01 2.570986747741699219e+01 -5.996794700622558594e-01 2.367612719535827637e-02 -1.728010028600692749e-01 -4.711634516716003418e-01
3.285000000000000000e+03 4.620680618286132812e+01 2.496891021728515625e+01 -8.840166926383972168e-01 3.917949646711349487e-02 -2.534511387348175049e-01 -5.730078220367431641e-01
3.286000000000000000e+03 3.890287780761718750e+01 2.690916824340820312e+01 -5.763636827468872070e-01 2.900519035756587982e-02 -1.642075479030609131e-01 -3.946533203125000000e-01
3.287000000000000000e+03 3.910111236572265625e+01 2.605428695678710938e+01 -5.600818991661071777e-01 1.976647600531578064e-02 -1.620946377515792847e-01 -4.440274834632873535e-01
3.288000000000000000e+03 5.860012435913085938e+01 2.356929779052734375e+01 -9.874130487442016602e-01 3.539014235138893127e-02 -2.856068611145019531e-01 -4.990994930267333984e-01
3.289000000000000000e+03 5.701791381835937500e+01 2.368893814086914062e+01 -1.041067600250244141e+00 1.466297451406717300e-02 -3.079213798046112061e-01 -5.591871142387390137e-01
3.290000000000000000e+03 5.114298248291015625e+01 2.579203414916992188e+01 -1.302582263946533203e+00 1.826558820903301239e-02 -3.852950036525726318e-01 -5.371515750885009766e-01
3.291000000000000000e+03 7.079676055908203125e+01 2.341137886047363281e+01 2.565897703170776367e-01 2.940546035766601562e+00 9.591407179832458496e-01 1.732354998588562012e+00
3.292000000000000000e+03 6.773246002197265625e+01 2.422779083251953125e+01 -3.844146430492401123e-01 9.071962237358093262e-01 1.568344682455062866e-01 6.090497374534606934e-01
3.293000000000000000e+03 6.942546081542968750e+01 2.230825805664062500e+01 3.987184464931488037e-01 2.347910642623901367e+00 8.239887356758117676e-01 1.388035535812377930e+00
3.294000000000000000e+03 5.545386123657226562e+01 2.383992958068847656e+01 -1.073336005210876465e+00 6.726700346916913986e-03 -3.199827671051025391e-01 -5.941362977027893066e-01
3.295000000000000000e+03 7.376219940185546875e+01 2.469572067260742188e+01 -2.320417761802673340e-01 6.251738548278808594e+00 1.805909037590026855e+00 2.619618177413940430e+00
3.296000000000000000e+03 3.195979881286621094e+01 2.356266212463378906e+01 -2.201998531818389893e-01 -1.325175911188125610e-01 -1.058152318000793457e-01 -3.997340202331542969e-01
3.297000000000000000e+03 6.782968139648437500e+01 -1.034430217742919922e+01 1.755668520927429199e-01 3.674434185028076172e+00 1.155000329017639160e+00 2.869898378849029541e-01
3.298000000000000000e+03 3.026904296875000000e+01 2.343091964721679688e+01 -1.673642247915267944e-01 -1.694381982088088989e-01 -1.010407283902168274e-01 -3.603978455066680908e-01
3.299000000000000000e+03 7.171566772460937500e+01 2.076815414428710938e+01 5.218241810798645020e-01 4.312850952148437500e+00 1.450402498245239258e+00 1.849305987358093262e+00
3.300000000000000000e+03 7.044215393066406250e+01 2.260151863098144531e+01 3.805445432662963867e-01 2.875711679458618164e+00 9.768768548965454102e-01 1.645619511604309082e+00
3.301000000000000000e+03 8.606242179870605469e+00 8.870266914367675781e+00 5.951528692094143480e-06 6.532056886499049142e-06 3.745075673577957787e-06 8.537833764421520755e-07
3.302000000000000000e+03 6.882668304443359375e+01 -1.730185985565185547e+00 2.874618768692016602e-01 3.878554582595825195e+00 1.249804973602294922e+00 5.180661082267761230e-01
3.303000000000000000e+03 7.007218933105468750e+01 8.102245330810546875e+00 4.927948415279388428e-01 4.169872283935546875e+00 1.398800134658813477e+00 9.746653437614440918e-01
3.304000000000000000e+03 7.110500335693359375e+01 9.391815185546875000e+00 4.710202813148498535e-01 4.557866573333740234e+00 1.508666157722473145e+00 1.065384507179260254e+00
3.305000000000000000e+03 3.722199249267578125e+01 2.518346214294433594e+01 -4.429852366447448730e-01 -1.557355467230081558e-02 -1.375676393508911133e-01 -4.569868445396423340e-01
3.306000000000000000e+03 3.150125694274902344e+01 1.725082588195800781e+01 -9.142006933689117432e-02 -3.247510194778442383e-01 -1.248513236641883850e-01 -5.188784599304199219e-01
3.307000000000000000e+03 3.150278282165527344e+01 1.850835609436035156e+01 -1.135515347123146057e-01 -2.881141006946563721e-01 -1.204996928572654724e-01 -5.019678473472595215e-01
3.308000000000000000e+03 7.073594665527343750e+01 2.067108154296875000e+01 5.685138106346130371e-01 3.593745231628417969e+00 1.248677730560302734e+00 1.707218050956726074e+00
3.309000000000000000e+03 6.822032928466796875e+01 1.930639076232910156e+01 6.556052565574645996e-01 2.377367973327636719e+00 9.098919630050659180e-01 1.201452255249023438e+00
3.310000000000000000e+03 6.956802368164062500e+01 1.222791862487792969e+01 6.521785855293273926e-01 3.848575353622436523e+00 1.350226163864135742e+00 1.183009386062622070e+00
3.311000000000000000e+03 3.153942108154296875e+01 1.595818996429443359e+01 -6.800165772438049316e-02 -3.611152172088623047e-01 -1.287350654602050781e-01 -5.320358276367187500e-01
3.312000000000000000e+03 3.206636810302734375e+01 1.061314296722412109e+01 1.096890121698379517e-02 -4.769502580165863037e-01 -1.397944092750549316e-01 -5.464272499084472656e-01
3.313000000000000000e+03 3.188270187377929688e+01 1.197504711151123047e+01 -7.683292031288146973e-03 -4.539402723312377930e-01 -1.384870707988739014e-01 -5.494328141212463379e-01
3.314000000000000000e+03 3.231323623657226562e+01 9.225502967834472656e+00 3.010034561157226562e-02 -4.938430786132812500e-01 -1.391228288412094116e-01 -5.411353707313537598e-01
3.315000000000000000e+03 3.049039077758789062e+01 1.992619323730468750e+01 -1.198507025837898254e-01 -2.709886133670806885e-01 -1.172517985105514526e-01 -4.471108913421630859e-01
3.316000000000000000e+03 6.856497955322265625e+01 5.318310260772705078e+00 4.851523339748382568e-01 3.766059160232543945e+00 1.275363445281982422e+00 8.103861212730407715e-01
3.317000000000000000e+03 7.103398132324218750e+01 5.871030807495117188e+00 3.713097870349884033e-01 4.487968444824218750e+00 1.457783460617065430e+00 8.376075029373168945e-01
3.318000000000000000e+03 6.808663177490234375e+01 5.666287243366241455e-02 3.579712510108947754e-01 3.720813512802124023e+00 1.223635435104370117e+00 5.875110030174255371e-01
3.319000000000000000e+03 6.981247711181640625e+01 9.349259734153747559e-01 3.087255358695983887e-01 4.114830493927001953e+00 1.327066898345947266e+00 6.174044609069824219e-01
3.320000000000000000e+03 7.103142261505126953e+00 -2.964040565490722656e+01 1.171490643173456192e-02 -4.636948578990995884e-04 3.375363536179065704e-03 -4.455490397958783433e-06
3.321000000000000000e+03 6.881805419921875000e+01 1.879669570922851562e+01 6.996985673904418945e-01 2.765150070190429688e+00 1.039454579353332520e+00 1.327009797096252441e+00
3.322000000000000000e+03 7.060267639160156250e+01 1.885424041748046875e+01 6.629209518432617188e-01 3.783596515655517578e+00 1.333955287933349609e+00 1.605961084365844727e+00
3.323000000000000000e+03 6.538687896728515625e+01 -2.370572090148925781e+01 7.975330948829650879e-02 3.320886611938476562e+00 1.020192027091979980e+00 1.018263623118400574e-01
3.324000000000000000e+03 6.592023468017578125e+01 -2.575788497924804688e+01 6.960509717464447021e-02 3.406641244888305664e+00 1.042873859405517578e+00 9.138409793376922607e-02
3.325000000000000000e+03 3.056547546386718750e+01 1.453823947906494141e+01 -4.068400710821151733e-02 -4.355101287364959717e-01 -1.428582370281219482e-01 -5.117640495300292969e-01
3.326000000000000000e+03 3.027657318115234375e+01 -5.259575843811035156e+00 7.535011321306228638e-02 -8.579710721969604492e-01 -2.347863018512725830e-01 -2.998082339763641357e-01
3.327000000000000000e+03 9.757688522338867188e+00 -2.745436477661132812e+01 1.487575704231858253e-03 -1.220416626892983913e-03 8.014772174647077918e-05 1.351948129013180733e-03
3.328000000000000000e+03 3.122963905334472656e+01 7.498270034790039062e+00 3.375322371721267700e-02 -5.894946455955505371e-01 -1.667224317789077759e-01 -4.991440176963806152e-01
3.329000000000000000e+03 3.158116531372070312e+01 1.972815704345703125e+01 -1.391722410917282104e-01 -2.492527067661285400e-01 -1.165274828672409058e-01 -4.835248589515686035e-01
3.330000000000000000e+03 3.117900276184082031e+01 -6.257477760314941406e+00 8.544902503490447998e-02 -7.850982546806335449e-01 -2.098947614431381226e-01 -2.925087809562683105e-01
3.331000000000000000e+03 3.128962898254394531e+01 3.197340965270996094e+00 6.319684535264968872e-02 -6.647108197212219238e-01 -1.804541945457458496e-01 -4.390065670013427734e-01
3.332000000000000000e+03 7.016222381591796875e+01 2.241435289382934570e+00 3.207727968692779541e-01 4.209490299224853516e+00 1.359078884124755859e+00 6.754631400108337402e-01
3.333000000000000000e+03 3.326030731201171875e+01 2.627525329589843750e+01 -3.007844686508178711e-01 -4.950505867600440979e-02 -1.050868630409240723e-01 -3.342316746711730957e-01
3.334000000000000000e+03 7.031206512451171875e+01 1.382108116149902344e+01 6.578274369239807129e-01 4.075486660003662109e+00 1.419994235038757324e+00 1.320439100265502930e+00
3.335000000000000000e+03 3.280712890625000000e+01 6.237856388092041016e+00 6.448634713888168335e-02 -5.191174149513244629e-01 -1.363893151283264160e-01 -5.124694108963012695e-01
3.336000000000000000e+03 3.173316383361816406e+01 1.331966209411621094e+01 -2.642215788364410400e-02 -4.263231754302978516e-01 -1.358235925436019897e-01 -5.472601056098937988e-01
3.337000000000000000e+03 3.161644172668457031e+01 1.464682197570800781e+01 -4.742762818932533264e-02 -3.951995670795440674e-01 -1.327881664037704468e-01 -5.418320894241333008e-01
3.338000000000000000e+03 7.921438217163085938e+00 2.005149269104003906e+01 6.239963113330304623e-06 1.357687415293185040e-05 5.945051270828116685e-06 1.349476974610297475e-06
3.339000000000000000e+03 3.265400314331054688e+01 7.778804302215576172e+00 5.020342394709587097e-02 -5.021550059318542480e-01 -1.355854868888854980e-01 -5.298630595207214355e-01
3.340000000000000000e+03 3.157429695129394531e+01 -1.306143379211425781e+01 7.723817974328994751e-02 -7.808285355567932129e-01 -2.110771089792251587e-01 -1.963986903429031372e-01
3.341000000000000000e+03 3.267418670654296875e+01 3.326946496963500977e+00 8.417143672704696655e-02 -5.700504779815673828e-01 -1.457637250423431396e-01 -4.620518684387207031e-01
3.342000000000000000e+03 6.933244323730468750e+01 -2.294361877441406250e+01 4.982643201947212219e-02 3.832371234893798828e+00 1.164659261703491211e+00 1.096516996622085571e-01
3.343000000000000000e+03 2.932877540588378906e+01 -1.819696998596191406e+01 5.152793601155281067e-02 -1.044001936912536621e+00 -2.977421879768371582e-01 -1.370810866355895996e-01
3.344000000000000000e+03 3.254040527343750000e+01 -1.961038589477539062e+01 7.706034183502197266e-02 -6.821017861366271973e-01 -1.815124303102493286e-01 -1.320706605911254883e-01
3.345000000000000000e+03 2.915520668029785156e+01 -2.429528045654296875e+01 3.983304277062416077e-02 -1.058339238166809082e+00 -3.055518567562103271e-01 -9.718814492225646973e-02
3.346000000000000000e+03 3.156802177429199219e+01 -1.570455741882324219e+01 8.515032380819320679e-02 -7.683210968971252441e-01 -2.049512267112731934e-01 -1.669074296951293945e-01
3.347000000000000000e+03 6.986223602294921875e+01 9.194506645202636719e+00 5.476600527763366699e-01 4.083227634429931641e+00 1.389266371726989746e+00 1.041062355041503906e+00
3.348000000000000000e+03 5.919918441772460938e+01 2.274146080017089844e+01 -7.270113229751586914e-01 9.002041071653366089e-02 -1.910972744226455688e-01 -4.388030469417572021e-01
3.349000000000000000e+03 3.152980613708496094e+01 2.721040344238281250e+01 -2.435530424118041992e-01 -5.633096396923065186e-02 -8.996520191431045532e-02 -2.693478763103485107e-01
3.350000000000000000e+03 4.608856964111328125e+01 2.418729782104492188e+01 -7.973264455795288086e-01 3.403623029589653015e-02 -2.289870679378509521e-01 -6.112921833992004395e-01
3.351000000000000000e+03 2.922559928894042969e+01 2.558417510986328125e+01 -1.562934219837188721e-01 -1.248315870761871338e-01 -8.433750271797180176e-02 -2.664288282394409180e-01
3.352000000000000000e+03 5.997180938720703125e+01 2.269358444213867188e+01 -6.728093624114990234e-01 1.213604435324668884e-01 -1.654346734285354614e-01 -3.873141407966613770e-01
3.353000000000000000e+03 3.604080200195312500e+01 2.483616638183593750e+01 -3.851228356361389160e-01 -3.848376497626304626e-02 -1.270819753408432007e-01 -4.486011266708374023e-01
3.354000000000000000e+03 3.843082809448242188e+01 2.547309684753417969e+01 -5.083519220352172852e-01 5.277878604829311371e-03 -1.509222090244293213e-01 -4.617726802825927734e-01
3.355000000000000000e+03 5.320555496215820312e+01 2.413685989379882812e+01 -1.086961984634399414e+00 1.081882882863283157e-02 -3.228429555892944336e-01 -6.145205497741699219e-01
3.356000000000000000e+03 3.409419250488281250e+01 2.675463867187500000e+01 -3.377914428710937500e-01 -2.949242293834686279e-02 -1.101851612329483032e-01 -3.298752605915069580e-01
3.357000000000000000e+03 3.540525817871093750e+01 2.522503471374511719e+01 -3.694124817848205566e-01 -3.923474624752998352e-02 -1.225941628217697144e-01 -4.190413355827331543e-01
3.358000000000000000e+03 5.762282943725585938e+01 2.286223983764648438e+01 -8.098312616348266602e-01 5.102798715233802795e-02 -2.276409864425659180e-01 -5.262041687965393066e-01
3.359000000000000000e+03 4.159049224853515625e+01 2.333972930908203125e+01 -5.401327013969421387e-01 3.977323416620492935e-03 -1.608466058969497681e-01 -6.005261540412902832e-01
3.360000000000000000e+03 3.349253463745117188e+01 2.689592552185058594e+01 -3.169432282447814941e-01 -3.311827033758163452e-02 -1.050184518098831177e-01 -3.129227459430694580e-01
3.361000000000000000e+03 3.434909820556640625e+01 2.593524169921875000e+01 -3.407902419567108154e-01 -4.153544828295707703e-02 -1.146977096796035767e-01 -3.740305304527282715e-01
3.362000000000000000e+03 3.482453536987304688e+01 2.558779144287109375e+01 -3.563979268074035645e-01 -3.878863155841827393e-02 -1.185559704899787903e-01 -3.933653533458709717e-01
3.363000000000000000e+03 4.435887527465820312e+01 2.368558883666992188e+01 -6.769417524337768555e-01 2.594676055014133453e-02 -1.952984929084777832e-01 -6.185182332992553711e-01
3.364000000000000000e+03 4.780295944213867188e+01 2.470945739746093750e+01 -9.411796331405639648e-01 3.415808081626892090e-02 -2.721064686775207520e-01 -5.954488515853881836e-01
3.365000000000000000e+03 4.846847915649414062e+01 2.303048896789550781e+01 -7.565074563026428223e-01 2.793554030358791351e-02 -2.185715734958648682e-01 -6.663652062416076660e-01
3.366000000000000000e+03 3.998675155639648438e+01 2.395075798034667969e+01 -5.158017277717590332e-01 -1.164058456197381020e-03 -1.550897508859634399e-01 -5.529020428657531738e-01
3.367000000000000000e+03 4.219966506958007812e+01 2.441947555541992188e+01 -6.337345838546752930e-01 2.285197004675865173e-02 -1.832647770643234253e-01 -5.629826784133911133e-01
3.368000000000000000e+03 4.529228210449218750e+01 2.433686065673828125e+01 -7.758173942565917969e-01 3.454583138227462769e-02 -2.223814576864242554e-01 -5.987499952316284180e-01
3.369000000000000000e+03 6.074246215820312500e+01 2.264476013183593750e+01 -6.122457981109619141e-01 1.639749109745025635e-01 -1.344812661409378052e-01 -3.258995115756988525e-01
3.370000000000000000e+03 5.899751663208007812e+01 2.192433357238769531e+01 -5.159519314765930176e-01 1.426732093095779419e-01 -1.119836196303367615e-01 -4.138901233673095703e-01
3.371000000000000000e+03 4.771180343627929688e+01 2.392921638488769531e+01 -8.416424393653869629e-01 3.165582939982414246e-02 -2.429959774017333984e-01 -6.318235397338867188e-01
3.372000000000000000e+03 6.510021209716796875e+01 2.365681648254394531e+01 -5.355874300003051758e-01 4.409906566143035889e-01 -2.837902493774890900e-02 1.076659113168716431e-01
3.373000000000000000e+03 6.428500366210937500e+01 2.377751541137695312e+01 -6.814588904380798340e-01 3.191443979740142822e-01 -1.086943373084068298e-01 -3.337791934609413147e-02
3.374000000000000000e+03 5.171962356567382812e+01 2.430310249328613281e+01 -1.064995527267456055e+00 1.626680232584476471e-02 -3.146186172962188721e-01 -6.184269785881042480e-01
3.375000000000000000e+03 5.028025436401367188e+01 2.516258049011230469e+01 -1.142064809799194336e+00 2.286224998533725739e-02 -3.357607424259185791e-01 -5.759811401367187500e-01
3.376000000000000000e+03 6.152730560302734375e+01 2.257201194763183594e+01 -5.334506034851074219e-01 2.195110768079757690e-01 -9.418186545372009277e-02 -2.456642091274261475e-01
3.377000000000000000e+03 6.230821228027343750e+01 2.245633316040039062e+01 -4.295376539230346680e-01 2.886723279953002930e-01 -4.225959628820419312e-02 -1.504825055599212646e-01
3.378000000000000000e+03 5.841450119018554688e+01 2.279747200012207031e+01 -7.716227769851684570e-01 7.238980382680892944e-02 -2.097698897123336792e-01 -4.861428737640380859e-01
3.379000000000000000e+03 6.837928009033203125e+01 2.360142326354980469e+01 -3.623121976852416992e-02 1.343939423561096191e+00 3.923124670982360840e-01 9.183338284492492676e-01
3.380000000000000000e+03 4.689818191528320312e+01 2.404916763305664062e+01 -8.198747038841247559e-01 3.286458924412727356e-02 -2.361030429601669312e-01 -6.234584450721740723e-01
3.381000000000000000e+03 6.771767425537109375e+01 2.365373229980468750e+01 -1.358466893434524536e-01 1.107999205589294434e+00 2.916457653045654297e-01 7.077071070671081543e-01
3.382000000000000000e+03 5.393468856811523438e+01 2.403079795837402344e+01 -1.086602210998535156e+00 6.628202740103006363e-03 -3.239921927452087402e-01 -6.121860146522521973e-01
3.383000000000000000e+03 5.605063629150390625e+01 2.301160621643066406e+01 -8.728262782096862793e-01 2.777185477316379547e-02 -2.535163462162017822e-01 -5.823706984519958496e-01
3.384000000000000000e+03 6.930922698974609375e+01 2.323006248474121094e+01 1.852040886878967285e-01 1.919888496398925781e+00 6.315277814865112305e-01 1.241327166557312012e+00
3.385000000000000000e+03 3.180559921264648438e+01 2.090654182434082031e+01 -1.669394373893737793e-01 -2.098820507526397705e-01 -1.130464524030685425e-01 -4.679897725582122803e-01
3.386000000000000000e+03 4.163142776489257812e+01 2.460156250000000000e+01 -6.197148561477661133e-01 2.172332629561424255e-02 -1.793974637985229492e-01 -5.483551621437072754e-01
3.387000000000000000e+03 2.965946769714355469e+01 2.453396987915039062e+01 -1.602784544229507446e-01 -1.482037305831909180e-01 -9.254465252161026001e-02 -3.084439635276794434e-01
3.388000000000000000e+03 3.261417388916015625e+01 2.453282356262207031e+01 -2.542994916439056396e-01 -9.906367957592010498e-02 -1.060089468955993652e-01 -3.862542212009429932e-01
3.389000000000000000e+03 3.045769119262695312e+01 2.499963188171386719e+01 -1.886862069368362427e-01 -1.250408440828323364e-01 -9.411811083555221558e-02 -3.184769451618194580e-01
3.390000000000000000e+03 7.047210693359375000e+01 2.145729064941406250e+01 5.337679982185363770e-01 3.302381038665771484e+00 1.150844693183898926e+00 1.662701010704040527e+00
3.391000000000000000e+03 6.750854492187500000e+01 2.298360061645507812e+01 4.668327048420906067e-02 1.193943142890930176e+00 3.721879422664642334e-01 7.293867468833923340e-01
3.392000000000000000e+03 6.716430664062500000e+01 2.394869613647460938e+01 -3.441419601440429688e-01 8.121194839477539062e-01 1.403932720422744751e-01 4.886641800403594971e-01
3.393000000000000000e+03 5.181759262084960938e+01 2.500582504272460938e+01 -1.200551271438598633e+00 1.439305953681468964e-02 -3.558474779129028320e-01 -5.850399136543273926e-01
3.394000000000000000e+03 3.353481292724609375e+01 1.610713005065917969e+01 -8.524730801582336426e-02 -2.947610020637512207e-01 -1.140024885535240173e-01 -5.838015675544738770e-01
3.395000000000000000e+03 3.251809310913085938e+01 1.841278839111328125e+01 -1.280459910631179810e-01 -2.634601891040802002e-01 -1.174518540501594543e-01 -5.323946475982666016e-01
3.396000000000000000e+03 6.866983032226562500e+01 1.028972148895263672e+01 6.367526650428771973e-01 3.639008283615112305e+00 1.282728314399719238e+00 1.038571953773498535e+00
3.397000000000000000e+03 3.256738662719726562e+01 2.793723869323730469e+01 -2.811894416809082031e-01 -2.897093072533607483e-02 -9.304811060428619385e-02 -2.554273605346679688e-01
3.398000000000000000e+03 7.050300598144531250e+01 1.673306655883789062e+01 6.910222172737121582e-01 3.996628522872924805e+00 1.406295180320739746e+00 1.502451419830322266e+00
3.399000000000000000e+03 6.901094055175781250e+01 1.511550712585449219e+01 7.506135702133178711e-01 3.393802881240844727e+00 1.243324995040893555e+00 1.291157245635986328e+00
3.400000000000000000e+03 3.984016418457031250e+01 2.637136459350585938e+01 -6.163232326507568359e-01 3.169411048293113708e-02 -1.753887236118316650e-01 -4.340542554855346680e-01
3.401000000000000000e+03 3.224546432495117188e+01 2.200015258789062500e+01 -1.970985978841781616e-01 -1.737561374902725220e-01 -1.112564206123352051e-01 -4.552721381187438965e-01
3.402000000000000000e+03 3.118922424316406250e+01 2.255363464355468750e+01 -1.788321286439895630e-01 -1.777226030826568604e-01 -1.069664210081100464e-01 -4.085597693920135498e-01
3.403000000000000000e+03 3.667864227294921875e+01 2.438101387023925781e+01 -3.967868983745574951e-01 -3.807957470417022705e-02 -1.304599493741989136e-01 -4.782123267650604248e-01
3.404000000000000000e+03 3.513542556762695312e+01 9.216888427734375000e+00 6.426744908094406128e-02 -3.498616516590118408e-01 -8.567825704813003540e-02 -5.865861177444458008e-01
3.405000000000000000e+03 6.977133941650390625e+01 2.041009712219238281e+01 5.769925117492675781e-01 2.937322616577148438e+00 1.054294586181640625e+00 1.486025333404541016e+00
3.406000000000000000e+03 7.108928680419921875e+01 2.218139648437500000e+01 4.371657371520996094e-01 3.572902441024780273e+00 1.203020453453063965e+00 1.804548263549804688e+00
3.407000000000000000e+03 7.027538299560546875e+01 1.251564407348632812e+01 6.147559881210327148e-01 4.139169692993164062e+00 1.426177620887756348e+00 1.264252662658691406e+00
3.408000000000000000e+03 3.278262710571289062e+01 1.351429367065429688e+01 -3.024437278509140015e-02 -3.819458484649658203e-01 -1.236570701003074646e-01 -5.734835267066955566e-01
3.409000000000000000e+03 6.966363525390625000e+01 4.962252140045166016e+00 4.185097515583038330e-01 4.077953815460205078e+00 1.348939061164855957e+00 8.100646734237670898e-01
3.410000000000000000e+03 7.016819000244140625e+01 7.131295204162597656e+00 4.552084207534790039e-01 4.240907192230224609e+00 1.408834695816040039e+00 9.141920804977416992e-01
3.411000000000000000e+03 6.775596618652343750e+01 3.020137786865234375e+00 4.498154819011688232e-01 3.601440191268920898e+00 1.215376734733581543e+00 6.952192187309265137e-01
3.412000000000000000e+03 3.319212341308593750e+01 1.095850467681884766e+01 1.402281504124403000e-02 -4.203315675258636475e-01 -1.218926310539245605e-01 -5.722398757934570312e-01
3.413000000000000000e+03 6.478818416595458984e+00 2.148880577087402344e+01 -1.033535954775288701e-05 -7.367170383076881990e-06 -5.310759206622606143e-06 6.832892722741235048e-06
3.414000000000000000e+03 7.019269561767578125e+01 -1.438653373718261719e+01 8.404743671417236328e-02 4.009082317352294922e+00 1.227939009666442871e+00 1.998196244239807129e-01
3.415000000000000000e+03 6.874499511718750000e+01 -1.119556140899658203e+01 1.423548758029937744e-01 3.813076734542846680e+00 1.186629533767700195e+00 2.605089247226715088e-01
3.416000000000000000e+03 6.815039062500000000e+01 -8.387997627258300781e+00 1.888196915388107300e-01 3.724457502365112305e+00 1.173983097076416016e+00 3.292610943317413330e-01
3.417000000000000000e+03 3.081394958496093750e+01 -8.625476837158203125e+00 8.240032196044921875e-02 -8.306909203529357910e-01 -2.244871854782104492e-01 -2.611707150936126709e-01
3.418000000000000000e+03 2.993286132812500000e+01 -7.321534156799316406e+00 7.095909863710403442e-02 -9.154927730560302734e-01 -2.533601224422454834e-01 -2.688301801681518555e-01
3.419000000000000000e+03 2.860536193847656250e+01 2.272450476884841919e-01 3.909860178828239441e-02 -9.278885126113891602e-01 -2.666369676589965820e-01 -3.418455421924591064e-01
3.420000000000000000e+03 3.129876327514648438e+01 1.850227832794189453e+00 7.110709697008132935e-02 -6.882039308547973633e-01 -1.851290613412857056e-01 -4.182879328727722168e-01
3.421000000000000000e+03 3.134456634521484375e+01 5.516152381896972656e-01 7.709491997957229614e-02 -7.039917707443237305e-01 -1.880690604448318481e-01 -3.965498208999633789e-01
3.422000000000000000e+03 3.157220268249511719e+01 -1.831686854362487793e+00 8.917756378650665283e-02 -7.062138915061950684e-01 -1.851108968257904053e-01 -3.648496568202972412e-01
3.423000000000000000e+03 2.848502159118652344e+01 -1.072051334381103516e+01 4.054071009159088135e-02 -1.096214413642883301e+00 -3.167021274566650391e-01 -2.130449563264846802e-01
3.424000000000000000e+03 3.001129150390625000e+01 -1.180842208862304688e+01 5.640120804309844971e-02 -9.345627427101135254e-01 -2.634484469890594482e-01 -2.079140245914459229e-01
3.425000000000000000e+03 3.264429855346679688e+01 1.477600479125976562e+01 -5.243026837706565857e-02 -3.564925789833068848e-01 -1.226768493652343750e-01 -5.681053400039672852e-01
3.426000000000000000e+03 6.762980461120605469e+00 -3.290873718261718750e+01 7.449124939739704132e-03 -9.058081544935703278e-03 -4.826869699172675610e-04 6.137809250503778458e-03
3.427000000000000000e+03 6.992730712890625000e+01 -2.186519861221313477e+00 2.413854002952575684e-01 4.088619709014892578e+00 1.299001574516296387e+00 4.960293769836425781e-01
3.428000000000000000e+03 7.043038177490234375e+01 -1.008942604064941406e+00 2.446756213903427124e-01 4.223613739013671875e+00 1.340486764907836914e+00 5.300236344337463379e-01
3.429000000000000000e+03 3.154758071899414062e+01 -1.157528305053710938e+01 7.729554921388626099e-02 -7.803643345832824707e-01 -2.109206318855285645e-01 -2.212373614311218262e-01
3.430000000000000000e+03 6.930194854736328125e+01 7.490302085876464844e+00 5.205787420272827148e-01 3.937456369400024414e+00 1.337410569190979004e+00 9.416422843933105469e-01
3.431000000000000000e+03 3.143532752990722656e+01 -1.444847202301025391e+01 6.602862477302551270e-02 -7.918682098388671875e-01 -2.177518755197525024e-01 -1.775722056627273560e-01
3.432000000000000000e+03 3.001055717468261719e+01 -1.705937004089355469e+01 5.571515485644340515e-02 -9.524937868118286133e-01 -2.690336108207702637e-01 -1.532321721315383911e-01
3.433000000000000000e+03 6.807009124755859375e+01 -1.837840652465820312e+01 8.975103497505187988e-02 3.674172639846801758e+00 1.129177093505859375e+00 1.585769355297088623e-01
3.434000000000000000e+03 3.555952072143554688e+01 3.453566551208496094e+00 1.358572989702224731e-01 -3.808096349239349365e-01 -7.348570227622985840e-02 -4.888213574886322021e-01
3.435000000000000000e+03 3.418403625488281250e+01 4.759292602539062500e+00 9.919625520706176758e-02 -4.592457711696624756e-01 -1.080148592591285706e-01 -5.027546286582946777e-01
3.436000000000000000e+03 6.873064422607421875e+01 1.127183723449707031e+01 6.596900224685668945e-01 3.580098152160644531e+00 1.271936535835266113e+00 1.084509015083312988e+00
3.437000000000000000e+03 4.486058235168457031e+00 -3.779501724243164062e+01 -9.631013381294906139e-04 6.316666025668382645e-03 1.606069505214691162e-03 1.276155654340982437e-02
3.438000000000000000e+03 6.504078674316406250e+01 -2.162797164916992188e+01 9.914766997098922729e-02 3.256966590881347656e+00 1.006834268569946289e+00 1.201860904693603516e-01
3.439000000000000000e+03 6.685128784179687500e+01 -2.765783500671386719e+01 5.387557297945022583e-02 3.509357213973999023e+00 1.068969845771789551e+00 8.486571907997131348e-02
3.440000000000000000e+03 3.161226844787597656e+01 -2.138830566406250000e+01 7.107112556695938110e-02 -7.798181176185607910e-01 -2.126241028308868408e-01 -1.141387224197387695e-01
3.441000000000000000e+03 5.977896499633789062e+01 2.188237380981445312e+01 -4.680876731872558594e-01 1.695366650819778442e-01 -8.956530690193176270e-02 -3.543010354042053223e-01
3.442000000000000000e+03 4.516347503662109375e+01 2.351955795288085938e+01 -6.914576292037963867e-01 2.714870311319828033e-02 -1.992926746606826782e-01 -6.327556967735290527e-01
3.443000000000000000e+03 3.417699432373046875e+01 2.492325210571289062e+01 -3.164302110671997070e-01 -6.358658522367477417e-02 -1.140050366520881653e-01 -4.049673080444335938e-01
3.444000000000000000e+03 3.113511466979980469e+01 2.647860145568847656e+01 -2.222518324851989746e-01 -7.916252315044403076e-02 -9.042430669069290161e-02 -2.864016592502593994e-01
3.445000000000000000e+03 3.549876403808593750e+01 2.411549758911132812e+01 -3.455539941787719727e-01 -6.184573844075202942e-02 -1.222199201583862305e-01 -4.664783179759979248e-01
3.446000000000000000e+03 3.904646682739257812e+01 2.483463668823242188e+01 -5.146980285644531250e-01 2.659168327227234840e-03 -1.536116600036621094e-01 -5.034500360488891602e-01
3.447000000000000000e+03 6.054486465454101562e+01 2.187125587463378906e+01 -4.135789871215820312e-01 2.212524712085723877e-01 -5.769795924425125122e-02 -2.896410524845123291e-01
3.448000000000000000e+03 3.484221267700195312e+01 2.450899696350097656e+01 -3.296874165534973145e-01 -6.473387777805328369e-02 -1.183263882994651794e-01 -4.356846511363983154e-01
3.449000000000000000e+03 3.289562225341796875e+01 2.675850677490234375e+01 -2.921765148639678955e-01 -4.528199881315231323e-02 -1.012375578284263611e-01 -3.103715479373931885e-01
3.450000000000000000e+03 4.259020614624023438e+01 2.350094223022460938e+01 -5.868288874626159668e-01 1.334252674132585526e-02 -1.720459163188934326e-01 -6.067466735839843750e-01
3.451000000000000000e+03 4.285675048828125000e+01 2.417208862304687500e+01 -6.472028493881225586e-01 2.497003972530364990e-02 -1.866698414087295532e-01 -5.830927491188049316e-01
3.452000000000000000e+03 4.113565063476562500e+01 2.457287597656250000e+01 -5.958383083343505859e-01 1.805391535162925720e-02 -1.733353137969970703e-01 -5.436928272247314453e-01
3.453000000000000000e+03 4.505703735351562500e+01 2.267163467407226562e+01 -6.114062070846557617e-01 1.982358843088150024e-02 -1.774747818708419800e-01 -6.639111042022705078e-01
3.454000000000000000e+03 4.358313369750976562e+01 2.390716552734375000e+01 -6.615841984748840332e-01 2.566939219832420349e-02 -1.907744407653808594e-01 -6.026154160499572754e-01
3.455000000000000000e+03 4.845173263549804688e+01 2.221025848388671875e+01 -6.509382128715515137e-01 2.872138470411300659e-02 -1.866650581359863281e-01 -6.883339881896972656e-01
3.456000000000000000e+03 4.852267074584960938e+01 2.382779884338378906e+01 -8.623888492584228516e-01 2.910761348903179169e-02 -2.499843835830688477e-01 -6.387724876403808594e-01
3.457000000000000000e+03 5.246985626220703125e+01 2.423065567016601562e+01 -1.081887602806091309e+00 1.405446045100688934e-02 -3.203499615192413330e-01 -6.175975203514099121e-01
3.458000000000000000e+03 5.448991012573242188e+01 2.318136978149414062e+01 -9.109805226325988770e-01 1.822317577898502350e-02 -2.678272128105163574e-01 -6.182873249053955078e-01
3.459000000000000000e+03 5.257988357543945312e+01 2.492643737792968750e+01 -1.223329424858093262e+00 9.785559028387069702e-03 -3.640631735324859619e-01 -5.871053934097290039e-01
3.460000000000000000e+03 5.019065856933593750e+01 2.443056106567382812e+01 -1.022013902664184570e+00 2.411307208240032196e-02 -2.993702590465545654e-01 -6.142818331718444824e-01
3.461000000000000000e+03 5.096178054809570312e+01 2.436478614807128906e+01 -1.045264124870300293e+00 1.845691911876201630e-02 -3.080421686172485352e-01 -6.160048842430114746e-01
3.462000000000000000e+03 5.526528549194335938e+01 2.309174919128417969e+01 -8.927351832389831543e-01 2.236013300716876984e-02 -2.611125111579895020e-01 -6.023238301277160645e-01
3.463000000000000000e+03 5.878159332275390625e+01 2.105203437805175781e+01 -3.155021965503692627e-01 1.960478723049163818e-01 -3.583629801869392395e-02 -3.803809583187103271e-01
3.464000000000000000e+03 4.598336029052734375e+01 2.337510299682617188e+01 -7.102077603340148926e-01 2.793524786829948425e-02 -2.046817541122436523e-01 -6.458714008331298828e-01
3.465000000000000000e+03 4.681290054321289062e+01 2.324314308166503906e+01 -7.270570993423461914e-01 2.899577654898166656e-02 -2.094183862209320068e-01 -6.549562811851501465e-01
3.466000000000000000e+03 4.764286041259765625e+01 2.312730789184570312e+01 -7.420493364334106445e-01 2.922846749424934387e-02 -2.138462662696838379e-01 -6.621929407119750977e-01
3.467000000000000000e+03 6.205803680419921875e+01 2.168891716003417969e+01 -2.355455607175827026e-01 3.536351621150970459e-01 3.542687743902206421e-02 -1.135475262999534607e-01
3.468000000000000000e+03 4.101046371459960938e+01 2.516148185729980469e+01 -6.159279346466064453e-01 2.290772274136543274e-02 -1.779060512781143188e-01 -5.143960118293762207e-01
3.469000000000000000e+03 6.307379913330078125e+01 2.230460166931152344e+01 -3.116507828235626221e-01 3.825394809246063232e-01 2.126661501824855804e-02 -4.250520095229148865e-02
3.470000000000000000e+03 5.506314086914062500e+01 2.233190917968750000e+01 -7.287030220031738281e-01 4.028863459825515747e-02 -2.065243124961853027e-01 -6.046456098556518555e-01
3.471000000000000000e+03 5.374644851684570312e+01 2.329416275024414062e+01 -9.280397891998291016e-01 1.550152711570262909e-02 -2.737614810466766357e-01 -6.288099288940429688e-01
3.472000000000000000e+03 6.799230194091796875e+01 2.123934364318847656e+01 4.376989006996154785e-01 1.816788196563720703e+00 6.763461232185363770e-01 1.044162511825561523e+00
3.473000000000000000e+03 5.663066101074218750e+01 2.216255950927734375e+01 -6.635246276855468750e-01 6.311959773302078247e-02 -1.801215112209320068e-01 -5.473589897155761719e-01
3.474000000000000000e+03 7.310908508300781250e+01 2.477344703674316406e+01 -1.153735965490341187e-01 5.156433105468750000e+00 1.512317776679992676e+00 2.536319732666015625e+00
3.475000000000000000e+03 3.970676803588867188e+01 2.469999313354492188e+01 -5.354226827621459961e-01 5.694778170436620712e-03 -1.589183807373046875e-01 -5.175209045410156250e-01
3.476000000000000000e+03 6.843209838867187500e+01 -3.066907644271850586e+00 2.762905657291412354e-01 3.794820308685302734e+00 1.221333265304565430e+00 4.748438000679016113e-01
3.477000000000000000e+03 6.994567108154296875e+01 6.087069034576416016e+00 4.351775944232940674e-01 4.171017646789550781e+00 1.381858587265014648e+00 8.689865469932556152e-01
3.478000000000000000e+03 6.833740234375000000e+01 7.965443611145019531e+00 5.780862569808959961e-01 3.625527620315551758e+00 1.261084198951721191e+00 9.265120625495910645e-01
3.479000000000000000e+03 7.012046813964843750e+01 -7.091192722320556641e+00 1.603417545557022095e-01 4.077946662902832031e+00 1.271486401557922363e+00 3.436279296875000000e-01
3.480000000000000000e+03 3.788277053833007812e+01 2.464283180236816406e+01 -4.523531198501586914e-01 -1.659017242491245270e-02 -1.406829804182052612e-01 -4.886588156223297119e-01
3.481000000000000000e+03 3.279989624023437500e+01 2.055501556396484375e+01 -1.805996894836425781e-01 -1.992672532796859741e-01 -1.139600872993469238e-01 -5.031611919403076172e-01
3.482000000000000000e+03 3.497663116455078125e+01 2.238755035400390625e+01 -2.804391682147979736e-01 -1.098692044615745544e-01 -1.170925125479698181e-01 -5.099986791610717773e-01
3.483000000000000000e+03 6.964429473876953125e+01 2.119774055480957031e+01 5.569292902946472168e-01 2.721240043640136719e+00 9.834508299827575684e-01 1.460197925567626953e+00
3.484000000000000000e+03 6.880967712402343750e+01 2.126119995117187500e+01 5.072141289710998535e-01 2.285974502563476562e+00 8.379565477371215820e-01 1.262378096580505371e+00
3.485000000000000000e+03 6.727474212646484375e+01 1.811301589012145996e+00 4.299422204494476318e-01 3.508010387420654297e+00 1.181385755538940430e+00 6.371350884437561035e-01
3.486000000000000000e+03 6.895409393310546875e+01 2.590156793594360352e+00 3.840270936489105225e-01 3.906773328781127930e+00 1.287240147590637207e+00 6.876505613327026367e-01
3.487000000000000000e+03 3.109214591979980469e+01 2.551894187927246094e+01 -2.154476642608642578e-01 -1.003309115767478943e-01 -9.473357349634170532e-02 -3.178469240665435791e-01
3.488000000000000000e+03 3.112398910522460938e+01 2.421028137207031250e+01 -2.044731378555297852e-01 -1.309546828269958496e-01 -1.006283462047576904e-01 -3.618444800376892090e-01
3.489000000000000000e+03 6.825833892822265625e+01 2.284705924987792969e+01 1.781104356050491333e-01 1.551642179489135742e+00 5.189257860183715820e-01 9.673666954040527344e-01
3.490000000000000000e+03 5.105163955688476562e+01 2.508236694335937500e+01 -1.172315359115600586e+00 1.876028813421726227e-02 -3.460665345191955566e-01 -5.816941261291503906e-01
3.491000000000000000e+03 6.782420349121093750e+01 1.133050918579101562e+01 7.013420462608337402e-01 3.279693841934204102e+00 1.194310784339904785e+00 1.035286188125610352e+00
3.492000000000000000e+03 6.994198608398437500e+01 2.191846847534179688e+01 4.754117429256439209e-01 2.721259832382202148e+00 9.590014815330505371e-01 1.519210577011108398e+00
3.493000000000000000e+03 6.893264007568359375e+01 2.267790031433105469e+01 2.594879567623138428e-01 1.893340706825256348e+00 6.458486318588256836e-01 1.182258009910583496e+00
3.494000000000000000e+03 3.142818641662597656e+01 -6.875003576278686523e-01 8.127362281084060669e-02 -7.129282951354980469e-01 -1.894963979721069336e-01 -3.799417018890380859e-01
3.495000000000000000e+03 3.283422851562500000e+01 -4.908352494239807129e-01 1.048733219504356384e-01 -5.965085029602050781e-01 -1.474905610084533691e-01 -3.946144282817840576e-01
3.496000000000000000e+03 3.612089538574218750e+01 2.364327430725097656e+01 -3.583638668060302734e-01 -5.916481092572212219e-02 -1.252586096525192261e-01 -4.953485727310180664e-01
3.497000000000000000e+03 3.217303848266601562e+01 2.576969718933105469e+01 -2.548675239086151123e-01 -7.759166508913040161e-02 -9.973775595426559448e-02 -3.334678113460540771e-01
3.498000000000000000e+03 3.288745117187500000e+01 2.302204704284667969e+01 -2.349695116281509399e-01 -1.327414214611053467e-01 -1.103132814168930054e-01 -4.406352341175079346e-01
3.499000000000000000e+03 6.969621276855468750e+01 1.719007873535156250e+01 7.307047247886657715e-01 3.496767759323120117e+00 1.268241763114929199e+00 1.439941406250000000e+00
3.500000000000000000e+03 6.873466491699218750e+01 1.217560100555419922e+01 6.877913475036621094e-01 3.536918163299560547e+00 1.267412900924682617e+00 1.137230634689331055e+00
3.501000000000000000e+03 6.409236145019531250e+01 2.295052337646484375e+01 -4.051434099674224854e-01 4.140686988830566406e-01 2.677586162462830544e-03 3.190471976995468140e-02
3.502000000000000000e+03 6.488925933837890625e+01 2.278593826293945312e+01 -2.510771453380584717e-01 5.621440410614013672e-01 9.332006424665451050e-02 1.854975670576095581e-01
3.503000000000000000e+03 6.762638854980468750e+01 1.857992553710937500e+01 6.913601756095886230e-01 2.256456136703491211e+00 8.843449354171752930e-01 1.105067849159240723e+00
3.504000000000000000e+03 6.895257568359375000e+01 1.763862037658691406e+01 7.437580227851867676e-01 3.041895627975463867e+00 1.135696053504943848e+00 1.349771380424499512e+00
3.505000000000000000e+03 3.349458694458007812e+01 1.833361816406250000e+01 -1.398834884166717529e-01 -2.400700896978378296e-01 -1.139860749244689941e-01 -5.589807629585266113e-01
3.506000000000000000e+03 3.385187149047851562e+01 2.613234710693359375e+01 -3.174508810043334961e-01 -4.723631218075752258e-02 -1.094061657786369324e-01 -3.512150943279266357e-01
3.507000000000000000e+03 3.298381423950195312e+01 2.550487518310546875e+01 -2.848473787307739258e-01 -6.884673237800598145e-02 -1.061082333326339722e-01 -3.616062700748443604e-01
3.508000000000000000e+03 3.541307449340820312e+01 1.639004898071289062e+01 -1.087467744946479797e-01 -2.302979528903961182e-01 -1.017134189605712891e-01 -6.232405900955200195e-01
3.509000000000000000e+03 6.763421630859375000e+01 -1.256854891777038574e+00 3.413992822170257568e-01 3.638986110687255859e+00 1.194115638732910156e+00 5.343328714370727539e-01
3.510000000000000000e+03 3.483390045166015625e+01 7.489145278930664062e+00 8.142839372158050537e-02 -3.968411982059478760e-01 -9.462383389472961426e-02 -5.558649301528930664e-01
3.511000000000000000e+03 3.463812637329101562e+01 1.024919986724853516e+01 3.834515437483787537e-02 -3.658484518527984619e-01 -9.825099259614944458e-02 -5.916426181793212891e-01
3.512000000000000000e+03 3.381481552124023438e+01 1.375195598602294922e+01 -3.340600430965423584e-02 -3.391459882259368896e-01 -1.117655932903289795e-01 -5.963433384895324707e-01
3.513000000000000000e+03 3.365036010742187500e+01 1.493529987335205078e+01 -5.948102101683616638e-02 -3.186205923557281494e-01 -1.134304851293563843e-01 -5.920136570930480957e-01
3.514000000000000000e+03 6.891316223144531250e+01 6.422431468963623047e+00 5.042626261711120605e-01 3.826948642730712891e+00 1.299363374710083008e+00 8.768613338470458984e-01
3.515000000000000000e+03 6.968258666992187500e+01 1.301262283325195312e+01 6.688163876533508301e-01 3.844933748245239258e+00 1.354125022888183594e+00 1.248117208480834961e+00
3.516000000000000000e+03 6.963841247558593750e+01 1.446825313568115234e+01 7.035396695137023926e-01 3.745835781097412109e+00 1.334812641143798828e+00 1.317885518074035645e+00
3.517000000000000000e+03 2.955400848388671875e+01 -9.254455566406250000e+00 5.987694486975669861e-02 -9.624626636505126953e-01 -2.707757055759429932e-01 -2.378876358270645142e-01
3.518000000000000000e+03 3.128698921203613281e+01 -1.010248088836669922e+01 8.379211276769638062e-02 -7.919359207153320312e-01 -2.124431431293487549e-01 -2.432468235492706299e-01
3.519000000000000000e+03 3.399166870117187500e+01 8.406162261962890625e+00 6.188308075070381165e-02 -4.253209829330444336e-01 -1.090313717722892761e-01 -5.595926046371459961e-01
3.520000000000000000e+03 3.401589965820312500e+01 1.256474685668945312e+01 -9.779776446521282196e-03 -3.551569879055023193e-01 -1.094810292124748230e-01 -5.976935625076293945e-01
3.521000000000000000e+03 7.095947265625000000e+01 -7.888560771942138672e+00 1.349977999925613403e-01 4.199599266052246094e+00 1.300379157066345215e+00 3.166422843933105469e-01
3.522000000000000000e+03 6.482908630371093750e+01 -8.758442878723144531e+00 2.542104423046112061e-01 3.179422378540039062e+00 1.030089855194091797e+00 3.078307211399078369e-01
3.523000000000000000e+03 6.665536499023437500e+01 -1.117639923095703125e+01 1.871927678585052490e-01 3.490283250808715820e+00 1.103242754936218262e+00 2.732937932014465332e-01
3.524000000000000000e+03 3.529624176025390625e+01 -1.821652221679687500e+01 1.064972355961799622e-01 -3.683277368545532227e-01 -7.854914665222167969e-02 -1.377668678760528564e-01
3.525000000000000000e+03 3.268526077270507812e+01 -1.481082916259765625e+01 8.403311669826507568e-02 -6.563113927841186523e-01 -1.716834902763366699e-01 -1.802355945110321045e-01
3.526000000000000000e+03 3.273655319213867188e+01 7.304247021675109863e-01 1.016375645995140076e-01 -5.935187339782714844e-01 -1.475643515586853027e-01 -4.183501899242401123e-01
3.527000000000000000e+03 3.267829895019531250e+01 2.005537986755371094e+00 9.306012094020843506e-02 -5.835725069046020508e-01 -1.471537053585052490e-01 -4.397259354591369629e-01
3.528000000000000000e+03 3.409078979492187500e+01 8.916932344436645508e-01 1.258993595838546753e-01 -4.889757931232452393e-01 -1.089229285717010498e-01 -4.317153096199035645e-01
3.529000000000000000e+03 3.230539321899414062e+01 -3.807485103607177734e+00 1.097451522946357727e-01 -6.597336530685424805e-01 -1.649965494871139526e-01 -3.372574448585510254e-01
3.530000000000000000e+03 3.199151229858398438e+01 -5.246458053588867188e+00 1.051822304725646973e-01 -7.057990431785583496e-01 -1.801850497722625732e-01 -3.148994147777557373e-01
3.531000000000000000e+03 3.297022628784179688e+01 -5.649488925933837891e+00 1.156476810574531555e-01 -6.179515719413757324e-01 -1.506911665201187134e-01 -3.150757253170013428e-01
3.532000000000000000e+03 6.563812255859375000e+01 -1.343867492675781250e+01 1.745590120553970337e-01 3.337550163269042969e+00 1.053632736206054688e+00 2.322602719068527222e-01
3.533000000000000000e+03 3.313696289062500000e+01 -1.313055801391601562e+01 9.836399555206298828e-02 -6.040446758270263672e-01 -1.517042070627212524e-01 -2.035677582025527954e-01
3.534000000000000000e+03 3.044003868103027344e+01 -2.572890853881835938e+01 3.883044794201850891e-02 -9.219083189964294434e-01 -2.649233639240264893e-01 -7.975807040929794312e-02
3.535000000000000000e+03 5.820446777343750000e+01 2.199405860900878906e+01 -5.670863986015319824e-01 1.082934886217117310e-01 -1.376378834247589111e-01 -4.681848287582397461e-01
3.536000000000000000e+03 4.590560913085937500e+01 2.254099273681640625e+01 -6.249750256538391113e-01 2.291915193200111389e-02 -1.806167662143707275e-01 -6.722491979598999023e-01
3.537000000000000000e+03 5.691849517822265625e+01 2.044730758666992188e+01 -2.973311841487884521e-01 1.522344201803207397e-01 -4.352902621030807495e-02 -4.691827893257141113e-01
3.538000000000000000e+03 3.440853118896484375e+01 2.299668312072753906e+01 -2.815548777580261230e-01 -1.041215285658836365e-01 -1.157029271125793457e-01 -4.769063889980316162e-01
3.539000000000000000e+03 3.732828903198242188e+01 2.382950592041015625e+01 -4.065411388874053955e-01 -3.766028955578804016e-02 -1.332604289054870605e-01 -5.117403268814086914e-01
3.540000000000000000e+03 5.225064849853515625e+01 2.290800857543945312e+01 -8.343605399131774902e-01 2.093398012220859528e-02 -2.440279722213745117e-01 -6.509507298469543457e-01
3.541000000000000000e+03 6.041463851928710938e+01 2.106327629089355469e+01 -2.158382534980773926e-01 2.877092063426971436e-01 2.156128920614719391e-02 -2.443382740020751953e-01
3.542000000000000000e+03 4.500471115112304688e+01 2.178904724121093750e+01 -5.336341261863708496e-01 1.263611111789941788e-02 -1.562994122505187988e-01 -6.837225556373596191e-01
3.543000000000000000e+03 4.415174865722656250e+01 2.191215705871582031e+01 -5.227823257446289062e-01 9.210580959916114807e-03 -1.540715247392654419e-01 -6.762430667877197266e-01
3.544000000000000000e+03 4.117055892944335938e+01 2.285298728942871094e+01 -4.992539882659912109e-01 -6.021573208272457123e-03 -1.515826582908630371e-01 -6.116859316825866699e-01
3.545000000000000000e+03 6.110164642333984375e+01 2.110808753967285156e+01 -1.742202043533325195e-01 3.362420797348022461e-01 4.860656335949897766e-02 -1.738440096378326416e-01
3.546000000000000000e+03 6.142134475708007812e+01 2.019011306762695312e+01 5.293294787406921387e-02 4.805394113063812256e-01 1.600417047739028931e-01 -5.253456905484199524e-02
3.547000000000000000e+03 4.759749603271484375e+01 2.147993087768554688e+01 -5.466710925102233887e-01 2.531496062874794006e-02 -1.564068496227264404e-01 -7.010416984558105469e-01
3.548000000000000000e+03 4.103761672973632812e+01 2.377427291870117188e+01 -5.480291843414306641e-01 5.706570111215114594e-03 -1.626967787742614746e-01 -5.746145248413085938e-01
3.549000000000000000e+03 4.928637695312500000e+01 2.295822334289550781e+01 -7.703319191932678223e-01 2.666911855340003967e-02 -2.230988442897796631e-01 -6.689256429672241211e-01
3.550000000000000000e+03 5.011847686767578125e+01 2.368386268615722656e+01 -9.028311371803283691e-01 2.417172864079475403e-02 -2.635978162288665771e-01 -6.454293131828308105e-01
3.551000000000000000e+03 4.061925506591796875e+01 2.431403541564941406e+01 -5.626198053359985352e-01 1.099638734012842178e-02 -1.654870212078094482e-01 -5.469525456428527832e-01
3.552000000000000000e+03 4.418273925781250000e+01 2.281140518188476562e+01 -5.922865271568298340e-01 1.672550104558467865e-02 -1.726682931184768677e-01 -6.507088541984558105e-01
3.553000000000000000e+03 5.304880142211914062e+01 2.343550872802734375e+01 -9.411005377769470215e-01 1.896918192505836487e-02 -2.766394019126892090e-01 -6.354113817214965820e-01
3.554000000000000000e+03 5.427848434448242188e+01 2.241871833801269531e+01 -7.477894425392150879e-01 3.473091870546340942e-02 -2.139175534248352051e-01 -6.254514455795288086e-01
3.555000000000000000e+03 4.675742721557617188e+01 2.241963577270507812e+01 -6.341441869735717773e-01 2.536158449947834015e-02 -1.826347857713699341e-01 -6.794790625572204590e-01
3.556000000000000000e+03 4.760599899291992188e+01 2.230779075622558594e+01 -6.425044536590576172e-01 2.644363977015018463e-02 -1.848182529211044312e-01 -6.852683424949645996e-01
3.557000000000000000e+03 5.584822463989257812e+01 2.224864006042480469e+01 -6.993313431739807129e-01 5.068319290876388550e-02 -1.945944577455520630e-01 -5.780181884765625000e-01
3.558000000000000000e+03 6.248782730102539062e+01 2.073332595825195312e+01 2.323431149125099182e-02 5.321597456932067871e-01 1.666182130575180054e-01 3.507370874285697937e-02
3.559000000000000000e+03 5.718070220947265625e+01 2.126961898803710938e+01 -4.470874369144439697e-01 1.155024915933609009e-01 -9.947548806667327881e-02 -4.905947148799896240e-01
3.560000000000000000e+03 5.640727615356445312e+01 2.137543487548828125e+01 -4.981690347194671631e-01 9.338267892599105835e-02 -1.214359104633331299e-01 -5.317065119743347168e-01
3.561000000000000000e+03 5.348989868164062500e+01 2.252681159973144531e+01 -7.684215903282165527e-01 2.595885470509529114e-02 -2.227388173341751099e-01 -6.414595246315002441e-01
3.562000000000000000e+03 6.729237365722656250e+01 2.217309570312500000e+01 2.175924032926559448e-01 1.300455570220947266e+00 4.554144144058227539e-01 7.993745803833007812e-01
3.563000000000000000e+03 6.675692749023437500e+01 2.327131080627441406e+01 -1.722713410854339600e-01 8.612444996833801270e-01 2.066919505596160889e-01 5.039535760879516602e-01
3.564000000000000000e+03 6.808187866210937500e+01 2.206420707702636719e+01 3.301890492439270020e-01 1.692167043685913086e+00 6.067068576812744141e-01 9.862551689147949219e-01
3.565000000000000000e+03 6.818465423583984375e+01 4.187124729156494141e+00 4.649739563465118408e-01 3.689287662506103516e+00 1.246278524398803711e+00 7.520584464073181152e-01
3.566000000000000000e+03 3.408815765380859375e+01 3.421876192092895508e+00 1.098347902297973633e-01 -4.750374555587768555e-01 -1.095608025789260864e-01 -4.789789319038391113e-01
3.567000000000000000e+03 3.579311752319335938e+01 8.329408645629882812e+00 8.502198010683059692e-02 -3.313166201114654541e-01 -7.388839125633239746e-02 -5.804067254066467285e-01
3.568000000000000000e+03 3.351552200317382812e+01 9.680048942565917969e+00 3.532603010535240173e-02 -4.296513199806213379e-01 -1.182975843548774719e-01 -5.674157142639160156e-01
3.569000000000000000e+03 6.948587799072265625e+01 -6.076697826385498047e+00 1.947617381811141968e-01 3.957889795303344727e+00 1.245795488357543945e+00 3.838171660900115967e-01
3.570000000000000000e+03 6.758694458007812500e+01 -7.176011085510253906e+00 2.265701740980148315e-01 3.615097522735595703e+00 1.152500271797180176e+00 3.579640984535217285e-01
3.571000000000000000e+03 3.378390884399414062e+01 2.549823760986328125e+01 -3.111129701137542725e-01 -5.888685956597328186e-02 -1.109999492764472961e-01 -3.789626061916351318e-01
3.572000000000000000e+03 3.555641555786132812e+01 2.297736740112304688e+01 -3.186967670917510986e-01 -8.272525668144226074e-02 -1.204266101121902466e-01 -5.040285587310791016e-01
3.573000000000000000e+03 3.674493408203125000e+01 2.307797813415527344e+01 -3.588442802429199219e-01 -6.197234615683555603e-02 -1.262449920177459717e-01 -5.261880159378051758e-01
3.574000000000000000e+03 6.649026489257812500e+01 2.237891387939453125e+01 6.324525922536849976e-02 1.016082406044006348e+00 3.237983286380767822e-01 5.617055296897888184e-01
3.575000000000000000e+03 6.831974792480468750e+01 2.055614280700683594e+01 5.543228387832641602e-01 2.162572860717773438e+00 8.150687217712402344e-01 1.185891270637512207e+00
3.576000000000000000e+03 3.297200775146484375e+01 -2.553102016448974609e+00 1.158627867698669434e-01 -5.964985489845275879e-01 -1.441907286643981934e-01 -3.634064793586730957e-01
3.577000000000000000e+03 6.736401367187500000e+01 9.360253334045410156e+00 6.633276939392089844e-01 3.236812114715576172e+00 1.170041918754577637e+00 9.285947084426879883e-01
3.578000000000000000e+03 6.859735107421875000e+01 9.165212631225585938e+00 6.051472425460815430e-01 3.667250871658325195e+00 1.281719446182250977e+00 9.884502291679382324e-01
3.579000000000000000e+03 6.711493682861328125e+01 2.125133895874023438e+01 3.774206638336181641e-01 1.495558023452758789e+00 5.618935823440551758e-01 8.518102169036865234e-01
3.580000000000000000e+03 6.890967559814453125e+01 1.997634506225585938e+01 6.137005090713500977e-01 2.588800907135009766e+00 9.607504010200500488e-01 1.314453244209289551e+00
3.581000000000000000e+03 6.642961883544921875e+01 1.828818511962890625e+01 6.702173352241516113e-01 1.870491027832031250e+00 7.622125148773193359e-01 8.825141787528991699e-01
3.582000000000000000e+03 6.697650909423828125e+01 1.904311752319335938e+01 6.219544410705566406e-01 1.911972045898437500e+00 7.601779699325561523e-01 9.563373327255249023e-01
3.583000000000000000e+03 6.384112548828125000e+01 2.212897872924804688e+01 -1.808016598224639893e-01 5.040586590766906738e-01 9.697709232568740845e-02 8.700893819332122803e-02
3.584000000000000000e+03 3.259969329833984375e+01 1.951635360717773438e+01 -1.528887450695037842e-01 -2.315682321786880493e-01 -1.153370961546897888e-01 -5.171500444412231445e-01
3.585000000000000000e+03 3.740313720703125000e+01 2.238780593872070312e+01 -3.554636240005493164e-01 -6.525795161724090576e-02 -1.262164711952209473e-01 -5.609088540077209473e-01
3.586000000000000000e+03 3.348620605468750000e+01 1.725297164916992188e+01 -1.138893067836761475e-01 -2.672535777091979980e-01 -1.143428683280944824e-01 -5.729001164436340332e-01
3.587000000000000000e+03 6.824268341064453125e+01 1.446280097961425781e+01 7.588942050933837891e-01 3.137845993041992188e+00 1.169022083282470703e+00 1.186542510986328125e+00
3.588000000000000000e+03 6.905112457275390625e+01 1.640468215942382812e+01 7.560349702835083008e-01 3.267853975296020508e+00 1.207166671752929688e+00 1.335809946060180664e+00
3.589000000000000000e+03 6.937744903564453125e+01 -4.775091648101806641e+00 2.144813984632492065e-01 3.955140113830566406e+00 1.250886440277099609e+00 4.145455360412597656e-01
3.590000000000000000e+03 3.860675430297851562e+01 2.402178192138671875e+01 -4.633874595165252686e-01 -1.615614444017410278e-02 -1.438630819320678711e-01 -5.276174545288085938e-01
3.591000000000000000e+03 3.655774688720703125e+01 1.135736846923828125e+01 3.795294463634490967e-02 -2.719312310218811035e-01 -7.019348442554473877e-02 -6.278932094573974609e-01
3.592000000000000000e+03 3.176517105102539062e+01 2.497676467895507812e+01 -2.334462553262710571e-01 -1.015081182122230530e-01 -1.004863157868385315e-01 -3.511822521686553955e-01
3.593000000000000000e+03 3.163940620422363281e+01 2.658364105224609375e+01 -2.420901358127593994e-01 -6.877342611551284790e-02 -9.325906634330749512e-02 -2.944472730159759521e-01
3.594000000000000000e+03 3.152345848083496094e+01 2.603333282470703125e+01 -2.329464703798294067e-01 -8.279088884592056274e-02 -9.472120553255081177e-02 -3.096358478069305420e-01
3.595000000000000000e+03 3.483838653564453125e+01 1.403882598876953125e+01 -3.957011550664901733e-02 -2.967862188816070557e-01 -1.009068936109542847e-01 -6.174835562705993652e-01
3.596000000000000000e+03 3.003065681457519531e+01 -9.296784996986389160e-01 6.232380867004394531e-02 -8.336250185966491699e-01 -2.313903570175170898e-01 -3.544910848140716553e-01
3.597000000000000000e+03 6.650526428222656250e+01 1.093035697937011719e+01 7.365325093269348145e-01 2.869050025939941406e+00 1.081674814224243164e+00 9.221020340919494629e-01
3.598000000000000000e+03 6.723864746093750000e+01 -2.610782384872436523e+00 3.210869431495666504e-01 3.562622547149658203e+00 1.165112853050231934e+00 4.873774349689483643e-01
3.599000000000000000e+03 3.531147766113281250e+01 1.184616947174072266e+01 1.293124258518218994e-02 -3.150286972522735596e-01 -9.062923491001129150e-02 -6.163834929466247559e-01
3.600000000000000000e+03 3.726335906982421875e+01 1.259897136688232422e+01 9.609587490558624268e-03 -2.309303283691406250e-01 -6.639622151851654053e-02 -6.464861035346984863e-01
3.601000000000000000e+03 3.410184097290039062e+01 -8.885694503784179688e+00 1.317857205867767334e-01 -5.094867348670959473e-01 -1.133103072643280029e-01 -2.640246748924255371e-01
3.602000000000000000e+03 3.316271591186523438e+01 2.152108764648437500e+01 -2.103846669197082520e-01 -1.658464372158050537e-01 -1.128693297505378723e-01 -4.892913699150085449e-01
3.603000000000000000e+03 3.434709930419921875e+01 2.374142837524414062e+01 -2.966006994247436523e-01 -8.931055665016174316e-02 -1.157733798027038574e-01 -4.537903666496276855e-01
3.604000000000000000e+03 6.633245086669921875e+01 -7.616499662399291992e-01 3.977124392986297607e-01 3.363990545272827148e+00 1.128510951995849609e+00 5.387656092643737793e-01
3.605000000000000000e+03 6.598852539062500000e+01 -2.137078285217285156e+00 3.716122210025787354e-01 3.305715799331665039e+00 1.103198409080505371e+00 4.923068881034851074e-01
3.606000000000000000e+03 6.751476287841796875e+01 5.730062007904052734e+00 5.397942662239074707e-01 3.471988201141357422e+00 1.203534722328186035e+00 7.964010834693908691e-01
3.607000000000000000e+03 6.660118103027343750e+01 3.533018350601196289e+00 5.074335336685180664e-01 3.312157154083251953e+00 1.145877242088317871e+00 6.870930194854736328e-01
3.608000000000000000e+03 6.571104431152343750e+01 -8.482657432556152344e+00 2.425651550292968750e-01 3.316913127899169922e+00 1.067843437194824219e+00 3.232594430446624756e-01
3.609000000000000000e+03 6.716870117187500000e+01 -9.065553665161132812e+00 2.059065252542495728e-01 3.562026500701904297e+00 1.130379915237426758e+00 3.117406070232391357e-01
3.610000000000000000e+03 6.677053070068359375e+01 5.589495301246643066e-01 4.119491875171661377e-01 3.430573463439941406e+00 1.152756810188293457e+00 5.832284688949584961e-01
3.611000000000000000e+03 6.852388763427734375e+01 -6.624958038330078125e+00 2.103169113397598267e-01 3.818539142608642578e+00 1.208656787872314453e+00 3.774636685848236084e-01
3.612000000000000000e+03 3.405510330200195312e+01 2.145032167434692383e+00 1.155469492077827454e-01 -4.871308505535125732e-01 -1.114751771092414856e-01 -4.548748433589935303e-01
3.613000000000000000e+03 3.654238510131835938e+01 1.020443081855773926e+00 1.645237505435943604e-01 -3.081783056259155273e-01 -4.309636726975440979e-02 -4.400339722633361816e-01
3.614000000000000000e+03 3.561812973022460938e+01 1.540536975860595703e+01 -7.445528358221054077e-02 -2.449192702770233154e-01 -9.581236541271209717e-02 -6.338626742362976074e-01
3.615000000000000000e+03 3.449124526977539062e+01 1.622263526916503906e+01 -9.479306638240814209e-02 -2.631069123744964600e-01 -1.073699891567230225e-01 -6.056286692619323730e-01
3.616000000000000000e+03 3.243152999877929688e+01 -6.848133087158203125e+00 1.021760255098342896e-01 -6.740397810935974121e-01 -1.715591400861740112e-01 -2.936527132987976074e-01
3.617000000000000000e+03 3.344460296630859375e+01 -7.586009025573730469e+00 1.222055479884147644e-01 -5.806677937507629395e-01 -1.375386714935302734e-01 -2.872346341609954834e-01
3.618000000000000000e+03 3.281626129150390625e+01 -4.664937019348144531e+00 1.163444370031356812e-01 -6.190209984779357910e-01 -1.508029699325561523e-01 -3.262688517570495605e-01
3.619000000000000000e+03 3.654839706420898438e+01 1.579442977905273438e+01 -9.037595987319946289e-02 -2.082059681415557861e-01 -8.957457542419433594e-02 -6.490536332130432129e-01
3.620000000000000000e+03 6.791247558593750000e+01 6.820500850677490234e+00 5.593236088752746582e-01 3.539263963699340820e+00 1.229576230049133301e+00 8.494529128074645996e-01
3.621000000000000000e+03 6.708607482910156250e+01 4.643202304840087891e+00 5.236046314239501953e-01 3.395376682281494141e+00 1.175694346427917480e+00 7.424561977386474609e-01
3.622000000000000000e+03 6.814984130859375000e+01 -1.429481792449951172e+01 1.219414398074150085e-01 3.694035768508911133e+00 1.144793152809143066e+00 2.062658965587615967e-01
3.623000000000000000e+03 6.611763763427734375e+01 -9.703033447265625000e+00 2.201253324747085571e-01 3.397588729858398438e+00 1.085314154624938965e+00 3.064636886119842529e-01
3.624000000000000000e+03 6.493781280517578125e+01 -1.007572746276855469e+01 2.363235056400299072e-01 3.212267637252807617e+00 1.034577369689941406e+00 2.882208824157714844e-01
3.625000000000000000e+03 3.337460708618164062e+01 -1.758650779724121094e+01 9.039466828107833862e-02 -5.863274931907653809e-01 -1.487798541784286499e-01 -1.509152501821517944e-01
3.626000000000000000e+03 4.055320739746093750e+01 2.332504653930664062e+01 -5.025439262390136719e-01 -5.663087591528892517e-03 -1.524620950222015381e-01 -5.868443250656127930e-01
3.627000000000000000e+03 4.333308792114257812e+01 2.310060691833496094e+01 -5.858716368675231934e-01 1.462677400559186935e-02 -1.713734567165374756e-01 -6.326920390129089355e-01
3.628000000000000000e+03 4.289505386352539062e+01 2.241818428039550781e+01 -5.219522118568420410e-01 3.261880017817020416e-03 -1.556070894002914429e-01 -6.497214436531066895e-01
3.629000000000000000e+03 4.143560028076171875e+01 2.416010856628417969e+01 -5.852475762367248535e-01 1.483134459704160690e-02 -1.711248606443405151e-01 -5.656576156616210938e-01
3.630000000000000000e+03 4.586874771118164062e+01 2.168748664855957031e+01 -5.376658439636230469e-01 1.847082749009132385e-02 -1.557585000991821289e-01 -6.919959187507629395e-01
3.631000000000000000e+03 3.500198364257812500e+01 2.346360969543457031e+01 -3.173357248306274414e-01 -8.033566176891326904e-02 -1.193014159798622131e-01 -4.792948663234710693e-01
3.632000000000000000e+03 3.397507476806640625e+01 2.107958793640136719e+01 -2.216202169656753540e-01 -1.584496647119522095e-01 -1.140209659934043884e-01 -5.227066874504089355e-01
3.633000000000000000e+03 5.157407379150390625e+01 2.290258598327636719e+01 -8.198906779289245605e-01 2.593062445521354675e-02 -2.381880134344100952e-01 -6.597580909729003906e-01
3.634000000000000000e+03 5.961930084228515625e+01 2.096552467346191406e+01 -2.474032044410705566e-01 2.457731515169143677e-01 -4.890154814347624779e-04 -3.071530461311340332e-01
3.635000000000000000e+03 6.589820098876953125e+01 1.760167694091796875e+01 6.855853199958801270e-01 1.816784262657165527e+00 7.507109045982360840e-01 8.174302577972412109e-01
3.636000000000000000e+03 5.850529098510742188e+01 2.014958763122558594e+01 -1.608071476221084595e-01 2.413168400526046753e-01 2.415290661156177521e-02 -3.486749827861785889e-01
3.637000000000000000e+03 6.461906433105468750e+01 2.193299102783203125e+01 -3.855160251259803772e-02 6.719900965690612793e-01 1.900315582752227783e-01 2.435938715934753418e-01
3.638000000000000000e+03 6.704956817626953125e+01 1.784758758544921875e+01 7.149379253387451172e-01 2.169952392578125000e+00 8.654670715332031250e-01 1.015599250793457031e+00
3.639000000000000000e+03 6.177145767211914062e+01 2.092978477478027344e+01 -9.301456809043884277e-02 4.172883629798889160e-01 9.728214144706726074e-02 -8.570483326911926270e-02
3.640000000000000000e+03 4.934052658081054688e+01 2.128316497802734375e+01 -5.441654324531555176e-01 3.470091149210929871e-02 -1.528393626213073730e-01 -6.989817023277282715e-01
3.641000000000000000e+03 5.008149337768554688e+01 2.291695594787597656e+01 -7.859823703765869141e-01 2.577659673988819122e-02 -2.280617356300354004e-01 -6.683644652366638184e-01
3.642000000000000000e+03 6.354612731933593750e+01 2.132040214538574219e+01 -5.647273734211921692e-03 5.919452905654907227e-01 1.758894026279449463e-01 1.313401460647583008e-01
3.643000000000000000e+03 5.235354614257812500e+01 2.354706382751464844e+01 -9.434261918067932129e-01 1.889169588685035706e-02 -2.773603498935699463e-01 -6.394372582435607910e-01
3.644000000000000000e+03 4.178736495971679688e+01 2.242654991149902344e+01 -4.883139133453369141e-01 -6.508025806397199631e-03 -1.484465748071670532e-01 -6.368830800056457520e-01
3.645000000000000000e+03 5.485825729370117188e+01 2.156758880615234375e+01 -5.775904655456542969e-01 6.415269523859024048e-02 -1.540313363075256348e-01 -6.007131934165954590e-01
3.646000000000000000e+03 6.623603820800781250e+01 2.148343276977539062e+01 2.447300702333450317e-01 1.141541719436645508e+00 4.158815443515777588e-01 6.097051501274108887e-01
3.647000000000000000e+03 6.569084167480468750e+01 2.260013961791992188e+01 -8.571744710206985474e-02 7.687771320343017578e-01 2.049179077148437500e-01 3.652994632720947266e-01
3.648000000000000000e+03 5.740102767944335938e+01 1.949119377136230469e+01 -1.018159091472625732e-01 2.333692461252212524e-01 3.946600109338760376e-02 -3.952019214630126953e-01
3.649000000000000000e+03 5.563426971435546875e+01 2.147619438171386719e+01 -5.434850454330444336e-01 7.686302810907363892e-02 -1.399866044521331787e-01 -5.684684514999389648e-01
3.650000000000000000e+03 5.540874481201171875e+01 2.070256805419921875e+01 -3.977198004722595215e-01 1.079527959227561951e-01 -8.693010360002517700e-02 -5.567290186882019043e-01
3.651000000000000000e+03 4.195249938964843750e+01 2.384408187866210938e+01 -5.868248939514160156e-01 1.388730946928262711e-02 -1.718812882900238037e-01 -5.846817493438720703e-01
3.652000000000000000e+03 6.834270477294921875e+01 1.689825630187988281e+01 7.660738229751586914e-01 2.866349458694458008e+00 1.089727044105529785e+00 1.249679207801818848e+00
3.653000000000000000e+03 6.758221435546875000e+01 1.491905117034912109e+01 7.851023674011230469e-01 2.845369577407836914e+00 1.089141607284545898e+00 1.125247240066528320e+00
3.654000000000000000e+03 6.071604156494140625e+01 2.047850799560546875e+01 -8.223545551300048828e-02 3.685769140720367432e-01 8.590243756771087646e-02 -1.646642684936523438e-01
3.655000000000000000e+03 5.935586929321289062e+01 1.991116333007812500e+01 -5.311249569058418274e-02 3.222166001796722412e-01 8.073123544454574585e-02 -2.555468380451202393e-01
3.656000000000000000e+03 3.505453872680664062e+01 1.293178939819335938e+01 -1.226001698523759842e-02 -3.086061477661132812e-01 -9.625985473394393921e-02 -6.181347370147705078e-01
3.657000000000000000e+03 3.587178039550781250e+01 1.438180446624755859e+01 -4.625870659947395325e-02 -2.560941874980926514e-01 -9.070586413145065308e-02 -6.354824900627136230e-01
3.658000000000000000e+03 6.650614166259765625e+01 6.174590110778808594e+00 5.902972817420959473e-01 3.189127445220947266e+00 1.133827447891235352e+00 7.753304243087768555e-01
3.659000000000000000e+03 3.802566909790039062e+01 2.317115211486816406e+01 -4.037506580352783203e-01 -4.080298170447349548e-02 -1.333660930395126343e-01 -5.493522286415100098e-01
3.660000000000000000e+03 3.878734207153320312e+01 2.243017005920410156e+01 -3.969365358352661133e-01 -4.305338114500045776e-02 -1.319969743490219116e-01 -5.881338119506835938e-01
3.661000000000000000e+03 3.934865188598632812e+01 2.333930397033691406e+01 -4.645997285842895508e-01 -1.742142066359519958e-02 -1.446063518524169922e-01 -5.659638047218322754e-01
3.662000000000000000e+03 6.882839965820312500e+01 2.202290534973144531e+01 4.204829931259155273e-01 2.099146127700805664e+00 7.558887600898742676e-01 1.210300207138061523e+00
3.663000000000000000e+03 5.088600158691406250e+01 2.363956451416015625e+01 -9.236205220222473145e-01 2.296378836035728455e-02 -2.701970338821411133e-01 -6.443065404891967773e-01
3.664000000000000000e+03 6.757559204101562500e+01 1.985804557800292969e+01 5.882066488265991211e-01 1.989769935607910156e+00 7.733929753303527832e-01 1.041965007781982422e+00
3.665000000000000000e+03 6.473150634765625000e+01 2.005839729309082031e+01 3.535572886466979980e-01 1.034216880798339844e+00 4.163322448730468750e-01 4.512940943241119385e-01
3.666000000000000000e+03 6.809563446044921875e+01 -4.491767406463623047e+00 2.554653882980346680e-01 3.720840930938720703e+00 1.192891955375671387e+00 4.325149357318878174e-01
3.667000000000000000e+03 6.659407043457031250e+01 -7.750055313110351562e+00 2.362474352121353149e-01 3.467878818511962891e+00 1.111237883567810059e+00 3.414131104946136475e-01
3.668000000000000000e+03 5.084332275390625000e+01 2.290225601196289062e+01 -8.013215065002441406e-01 2.638181671500205994e-02 -2.324818968772888184e-01 -6.662943363189697266e-01
3.669000000000000000e+03 6.603776550292968750e+01 2.380711078643798828e+00 4.937227070331573486e-01 3.212028026580810547e+00 1.111725211143493652e+00 6.331853866577148438e-01
3.670000000000000000e+03 6.572586059570312500e+01 1.012976837158203125e+01 7.356575727462768555e-01 2.722467899322509766e+00 1.037437677383422852e+00 8.365295529365539551e-01
3.671000000000000000e+03 6.752433013916015625e+01 1.043456363677978516e+01 6.907057166099548340e-01 3.236443281173706055e+00 1.178144693374633789e+00 9.772946834564208984e-01
3.672000000000000000e+03 3.371731948852539062e+01 2.241220283508300781e+01 -2.483478188514709473e-01 -1.305922418832778931e-01 -1.136820167303085327e-01 -4.796280264854431152e-01
3.673000000000000000e+03 7.058312225341796875e+01 -6.118284702301025391e+00 1.601573228836059570e-01 4.181007862091064453e+00 1.302349448204040527e+00 3.653978109359741211e-01
3.674000000000000000e+03 3.369291305541992188e+01 2.025540351867675781e+01 -1.910631060600280762e-01 -1.873712092638015747e-01 -1.135302931070327759e-01 -5.328775644302368164e-01
3.675000000000000000e+03 3.450709152221679688e+01 1.921373748779296875e+01 -1.762878149747848511e-01 -1.962386518716812134e-01 -1.117579415440559387e-01 -5.691598057746887207e-01
3.676000000000000000e+03 6.767740631103515625e+01 1.737916183471679688e+01 7.520253062248229980e-01 2.501540660858154297e+00 9.760698080062866211e-01 1.143398404121398926e+00
3.677000000000000000e+03 6.767338562011718750e+01 1.289108562469482422e+01 7.512773275375366211e-01 3.061389207839965820e+00 1.143799901008605957e+00 1.081670403480529785e+00
3.678000000000000000e+03 3.355623245239257812e+01 1.933398056030273438e+01 -1.656690835952758789e-01 -2.139332294464111328e-01 -1.138806939125061035e-01 -5.456021428108215332e-01
3.679000000000000000e+03 3.352019500732421875e+01 2.406159591674804688e+01 -2.783823609352111816e-01 -9.329722076654434204e-02 -1.115038767457008362e-01 -4.222817122936248779e-01
3.680000000000000000e+03 3.615084838867187500e+01 2.241355705261230469e+01 -3.196715116500854492e-01 -8.526977896690368652e-02 -1.214823871850967407e-01 -5.345256924629211426e-01
3.681000000000000000e+03 6.933138275146484375e+01 -1.345078468322753906e+01 1.069263517856597900e-01 3.889514684677124023e+00 1.198932290077209473e+00 2.210860699415206909e-01
3.682000000000000000e+03 6.869081878662109375e+01 1.387662410736083984e+01 7.318016886711120605e-01 3.420338630676269531e+00 1.245642066001892090e+00 1.215549349784851074e+00
3.683000000000000000e+03 3.695127105712890625e+01 1.059639453887939453e+01 6.530654430389404297e-02 -2.604279518127441406e-01 -5.853641778230667114e-02 -6.221281886100769043e-01
3.684000000000000000e+03 3.612870788574218750e+01 9.927314758300781250e+00 6.081739813089370728e-02 -3.057014942169189453e-01 -7.346522808074951172e-02 -6.023620963096618652e-01
3.685000000000000000e+03 3.629616546630859375e+01 1.227794075012207031e+01 1.184074580669403076e-02 -2.690458595752716064e-01 -7.716153562068939209e-02 -6.326481699943542480e-01
3.686000000000000000e+03 3.464136886596679688e+01 1.513801860809326172e+01 -6.607066839933395386e-02 -2.820049226284027100e-01 -1.044226735830307007e-01 -6.128080487251281738e-01
3.687000000000000000e+03 3.468976211547851562e+01 2.068400764465332031e+01 -2.285808026790618896e-01 -1.519974619150161743e-01 -1.141734793782234192e-01 -5.478402972221374512e-01
3.688000000000000000e+03 3.442332077026367188e+01 1.728540802001953125e+01 -1.235835030674934387e-01 -2.400629073381423950e-01 -1.090939193964004517e-01 -5.958365201950073242e-01
3.689000000000000000e+03 6.448308563232421875e+01 -3.096127748489379883e+00 3.851989209651947021e-01 3.038360357284545898e+00 1.027067780494689941e+00 4.383260011672973633e-01
3.690000000000000000e+03 6.414371490478515625e+01 2.049318075180053711e+00 5.343310236930847168e-01 2.816512346267700195e+00 1.005252957344055176e+00 5.504313111305236816e-01
3.691000000000000000e+03 3.445580291748046875e+01 1.828143692016601562e+01 -1.546915471553802490e-01 -2.152001559734344482e-01 -1.109675168991088867e-01 -5.828450918197631836e-01
3.692000000000000000e+03 6.732800292968750000e+01 -1.551816368103027344e+01 1.273096203804016113e-01 3.577989816665649414e+00 1.111589789390563965e+00 1.971078813076019287e-01
3.693000000000000000e+03 3.541830062866210938e+01 2.220421791076660156e+00 1.452929228544235229e-01 -3.908168673515319824e-01 -7.365717738866806030e-02 -4.627081453800201416e-01
3.694000000000000000e+03 3.425190734863281250e+01 -3.841911256313323975e-01 1.340759247541427612e-01 -4.859765768051147461e-01 -1.055701971054077148e-01 -4.074736535549163818e-01
3.695000000000000000e+03 3.534884262084960938e+01 1.029150962829589844e+00 1.436559408903121948e-01 -3.992258608341217041e-01 -7.667097449302673340e-02 -4.397927224636077881e-01
3.696000000000000000e+03 3.609062576293945312e+01 1.330938911437988281e+01 -1.836742088198661804e-02 -2.639729380607604980e-01 -8.470210433006286621e-02 -6.364757418632507324e-01
3.697000000000000000e+03 3.222999572753906250e+01 -8.182862281799316406e+00 9.822858124971389771e-02 -7.044537067413330078e-01 -1.818675398826599121e-01 -2.685643434524536133e-01
3.698000000000000000e+03 3.431468582153320312e+01 -5.373780727386474609e+00 1.304328143596649170e-01 -5.058897733688354492e-01 -1.126370877027511597e-01 -3.236942291259765625e-01
3.699000000000000000e+03 3.388997650146484375e+01 -4.194724559783935547e+00 1.306272596120834351e-01 -5.326842069625854492e-01 -1.206170916557312012e-01 -3.375061750411987305e-01
3.700000000000000000e+03 6.724392700195312500e+01 8.246809959411621094e+00 6.310341358184814453e-01 3.279247760772705078e+00 1.173084616661071777e+00 8.796956539154052734e-01
3.701000000000000000e+03 6.604396057128906250e+01 5.158607482910156250e+00 5.746923685073852539e-01 3.117833852767944336e+00 1.107757806777954102e+00 7.196828126907348633e-01
3.702000000000000000e+03 3.483889007568359375e+01 -1.337441921234130859e+01 1.167330890893936157e-01 -4.331139028072357178e-01 -9.491425007581710815e-02 -1.966617554426193237e-01
3.703000000000000000e+03 4.076652526855468750e+01 2.231552696228027344e+01 -4.505023956298828125e-01 -1.878350973129272461e-02 -1.407857686281204224e-01 -6.258246302604675293e-01
3.704000000000000000e+03 4.278843688964843750e+01 2.131772041320800781e+01 -4.432497918605804443e-01 -1.046441681683063507e-02 -1.361142694950103760e-01 -6.751469373703002930e-01
3.705000000000000000e+03 4.496001052856445312e+01 2.085392189025878906e+01 -4.400335550308227539e-01 6.612761877477169037e-03 -1.300262361764907837e-01 -7.029623389244079590e-01
3.706000000000000000e+03 4.673472976684570312e+01 2.158855247497558594e+01 -5.439621210098266602e-01 2.207378298044204712e-02 -1.565665006637573242e-01 -6.977707743644714355e-01
3.707000000000000000e+03 4.221754074096679688e+01 2.292158317565917969e+01 -5.392485260963439941e-01 4.737896379083395004e-03 -1.603531837463378906e-01 -6.234603524208068848e-01
3.708000000000000000e+03 4.929102325439453125e+01 2.214104080200195312e+01 -6.596846580505371094e-01 2.862967364490032196e-02 -1.893164962530136108e-01 -6.864395737648010254e-01
3.709000000000000000e+03 5.086182785034179688e+01 2.214981079101562500e+01 -6.813111901283264160e-01 3.014316782355308533e-02 -1.953504085540771484e-01 -6.789563298225402832e-01
3.710000000000000000e+03 6.509367370605468750e+01 2.087183380126953125e+01 2.463407367467880249e-01 9.682449102401733398e-01 3.643756806850433350e-01 4.437796771526336670e-01
3.711000000000000000e+03 5.769812774658203125e+01 2.031874084472656250e+01 -2.338138073682785034e-01 1.890812516212463379e-01 -1.341976784169673920e-02 -4.146190583705902100e-01
3.712000000000000000e+03 5.616249847412109375e+01 2.057720756530761719e+01 -3.509924113750457764e-01 1.276062428951263428e-01 -6.701585650444030762e-02 -5.146457552909851074e-01
3.713000000000000000e+03 5.663016891479492188e+01 1.959565544128417969e+01 -1.538961082696914673e-01 1.915354579687118530e-01 1.129180379211902618e-02 -4.501527249813079834e-01
3.714000000000000000e+03 4.139088058471679688e+01 2.197433853149414062e+01 -4.508275091648101807e-01 -1.614615134894847870e-02 -1.400921046733856201e-01 -6.444730758666992188e-01
3.715000000000000000e+03 4.219838333129882812e+01 2.099453544616699219e+01 -4.075222015380859375e-01 -1.831228658556938171e-02 -1.277503371238708496e-01 -6.743552088737487793e-01
3.716000000000000000e+03 5.464887619018554688e+01 2.079876708984375000e+01 -4.402694404125213623e-01 8.467739820480346680e-02 -1.066776067018508911e-01 -5.893079042434692383e-01
3.717000000000000000e+03 4.846720886230468750e+01 2.136891937255859375e+01 -5.443837046623229980e-01 2.968007326126098633e-02 -1.544110924005508423e-01 -7.017070651054382324e-01
3.718000000000000000e+03 4.233682250976562500e+01 2.193637847900390625e+01 -4.711188673973083496e-01 -5.939143709838390350e-03 -1.431173980236053467e-01 -6.585754156112670898e-01
3.719000000000000000e+03 5.283132934570312500e+01 2.275033378601074219e+01 -8.015300035476684570e-01 2.793714031577110291e-02 -2.320778667926788330e-01 -6.454955935478210449e-01
3.720000000000000000e+03 5.408128356933593750e+01 2.165332031250000000e+01 -6.070206761360168457e-01 4.826765879988670349e-02 -1.676259040832519531e-01 -6.245698332786560059e-01
3.721000000000000000e+03 6.215499114990234375e+01 1.995612907409667969e+01 1.584062427282333374e-01 5.937902331352233887e-01 2.256589382886886597e-01 5.446845293045043945e-02
3.722000000000000000e+03 6.435270690917968750e+01 1.927111053466796875e+01 4.467709660530090332e-01 1.089786648750305176e+00 4.609673023223876953e-01 4.518164396286010742e-01
3.723000000000000000e+03 5.778762817382812500e+01 1.858714866638183594e+01 7.162694633007049561e-02 3.259717226028442383e-01 1.192796006798744202e-01 -3.144215345382690430e-01
3.724000000000000000e+03 6.626847839355468750e+01 1.945002937316894531e+01 5.582789778709411621e-01 1.602104544639587402e+00 6.481150984764099121e-01 7.998676896095275879e-01
3.725000000000000000e+03 6.468613433837890625e+01 1.672220802307128906e+01 6.869615316390991211e-01 1.589613676071166992e+00 6.829725503921508789e-01 6.478954553604125977e-01
3.726000000000000000e+03 6.023662567138671875e+01 1.966322326660156250e+01 5.551625788211822510e-02 4.197318553924560547e-01 1.425744295120239258e-01 -1.616239696741104126e-01
3.727000000000000000e+03 3.509361648559570312e+01 2.124697494506835938e+01 -2.491815686225891113e-01 -1.348083466291427612e-01 -1.151969805359840393e-01 -5.445147752761840820e-01
3.728000000000000000e+03 3.542618179321289062e+01 1.819334030151367188e+01 -1.618317216634750366e-01 -1.931476444005966187e-01 -1.064938083291053772e-01 -6.090952754020690918e-01
3.729000000000000000e+03 3.675100326538085938e+01 2.173357582092285156e+01 -3.122318089008331299e-01 -8.942642807960510254e-02 -1.204974651336669922e-01 -5.676310658454895020e-01
3.730000000000000000e+03 5.233408737182617188e+01 2.233602523803710938e+01 -7.239835262298583984e-01 3.139504790306091309e-02 -2.077765464782714844e-01 -6.590738296508789062e-01
3.731000000000000000e+03 3.699275207519531250e+01 1.793416976928710938e+01 -1.710187643766403198e-01 -1.591695100069046021e-01 -9.905648231506347656e-02 -6.435165405273437500e-01
3.732000000000000000e+03 6.765748596191406250e+01 1.615926170349121094e+01 7.768418788909912109e-01 2.694143533706665039e+00 1.041295647621154785e+00 1.144377350807189941e+00
3.733000000000000000e+03 6.772454071044921875e+01 1.374413585662841797e+01 7.667242288589477539e-01 3.008049488067626953e+00 1.132432103157043457e+00 1.098513007164001465e+00
3.734000000000000000e+03 6.550424957275390625e+01 1.978195381164550781e+01 4.699746072292327881e-01 1.290045261383056641e+00 5.280059576034545898e-01 6.250054836273193359e-01
3.735000000000000000e+03 6.288647460937500000e+01 1.972963714599609375e+01 2.548665106296539307e-01 7.328895330429077148e-01 2.963268160820007324e-01 1.784181296825408936e-01
3.736000000000000000e+03 3.442328643798828125e+01 2.178991889953613281e+01 -2.512193024158477783e-01 -1.328812688589096069e-01 -1.152301728725433350e-01 -5.162375569343566895e-01
3.737000000000000000e+03 3.450845718383789062e+01 2.004260826110839844e+01 -2.000901103019714355e-01 -1.749200969934463501e-01 -1.125030592083930969e-01 -5.607305169105529785e-01
3.738000000000000000e+03 6.392483520507812500e+01 3.896627902984619141e+00 5.919954180717468262e-01 2.674571990966796875e+00 9.799702167510986328e-01 5.758808851242065430e-01
3.739000000000000000e+03 3.625008010864257812e+01 1.663064956665039062e+01 -1.228686273097991943e-01 -2.022626549005508423e-01 -9.753938019275665283e-02 -6.379702687263488770e-01
3.740000000000000000e+03 4.760821533203125000e+01 2.065095520019531250e+01 -4.546897709369659424e-01 2.672423422336578369e-02 -1.283896565437316895e-01 -7.094411253929138184e-01
3.741000000000000000e+03 5.121950149536132812e+01 2.050429534912109375e+01 -4.366596639156341553e-01 5.587244778871536255e-02 -1.142361611127853394e-01 -6.768397688865661621e-01
3.742000000000000000e+03 6.702283477783203125e+01 1.665822029113769531e+01 7.665247321128845215e-01 2.369861841201782227e+00 9.409159421920776367e-01 1.035938858985900879e+00
3.743000000000000000e+03 6.686061096191406250e+01 1.407838726043701172e+01 7.828024029731750488e-01 2.678894996643066406e+00 1.038509249687194824e+00 1.008124470710754395e+00
3.744000000000000000e+03 3.809712219238281250e+01 2.156008148193359375e+01 -3.398053944110870361e-01 -6.922806799411773682e-02 -1.227100417017936707e-01 -6.003376841545104980e-01
3.745000000000000000e+03 3.677180099487304688e+01 2.142867088317871094e+00 1.708873361349105835e-01 -2.965068519115447998e-01 -3.768585622310638428e-02 -4.591902792453765869e-01
3.746000000000000000e+03 6.786170959472656250e+01 1.209268093109130859e+01 7.271674871444702148e-01 3.225125789642333984e+00 1.185688018798828125e+00 1.075166463851928711e+00
3.747000000000000000e+03 6.483005523681640625e+01 1.084564685821533203e+01 7.682546973228454590e-01 2.388051271438598633e+00 9.468917846679687500e-01 7.573133111000061035e-01
3.748000000000000000e+03 3.573647308349609375e+01 2.065777015686035156e+01 -2.465829104185104370e-01 -1.327437013387680054e-01 -1.137979850172996521e-01 -5.760888457298278809e-01
3.749000000000000000e+03 3.558198165893554688e+01 2.182044410705566406e+01 -2.829910516738891602e-01 -1.088848263025283813e-01 -1.175627708435058594e-01 -5.425562858581542969e-01
3.750000000000000000e+03 6.541249084472656250e+01 2.171733474731445312e+01 9.792352467775344849e-02 8.750104308128356934e-01 2.918801903724670410e-01 4.159655570983886719e-01
3.751000000000000000e+03 6.430921936035156250e+01 2.110613632202148438e+01 1.170049309730529785e-01 7.552667856216430664e-01 2.616814970970153809e-01 2.761894166469573975e-01
3.752000000000000000e+03 6.503992462158203125e+01 1.241586780548095703e+01 7.772163152694702148e-01 2.295089721679687500e+00 9.216918349266052246e-01 7.869154810905456543e-01
3.753000000000000000e+03 6.601202392578125000e+01 1.320819759368896484e+01 7.828464508056640625e-01 2.493713617324829102e+00 9.829680323600769043e-01 9.068281054496765137e-01
3.754000000000000000e+03 6.762220764160156250e+01 -5.887819766998291016e+00 2.454676032066345215e-01 3.638216495513916016e+00 1.165105223655700684e+00 3.891139030456542969e-01
3.755000000000000000e+03 6.578528594970703125e+01 -6.703412532806396484e+00 2.775619029998779297e-01 3.324252367019653320e+00 1.080544233322143555e+00 3.636100590229034424e-01
3.756000000000000000e+03 3.677892684936523438e+01 9.121036529541015625e+00 8.619173616170883179e-02 -2.820596694946289062e-01 -5.876038223505020142e-02 -5.983075499534606934e-01
3.757000000000000000e+03 3.806314086914062500e+01 1.175618743896484375e+01 4.499458894133567810e-02 -2.077208906412124634e-01 -4.881788790225982666e-02 -6.433017253875732422e-01
3.758000000000000000e+03 6.536829376220703125e+01 1.150605082511901855e+00 4.784067869186401367e-01 3.095927000045776367e+00 1.072300076484680176e+00 5.682510137557983398e-01
3.759000000000000000e+03 6.467388916015625000e+01 -1.745510101318359375e+00 4.162440299987792969e-01 3.044791698455810547e+00 1.038310766220092773e+00 4.691351652145385742e-01
3.760000000000000000e+03 6.510942840576171875e+01 -7.713974475860595703e+00 2.698824703693389893e-01 3.211224317550659180e+00 1.044332027435302734e+00 3.318512439727783203e-01
3.761000000000000000e+03 6.463994598388671875e+01 7.179360866546630859e+00 6.811141371726989746e-01 2.636344671249389648e+00 9.952376484870910645e-01 6.928271055221557617e-01
3.762000000000000000e+03 3.725121307373046875e+01 6.053446769714355469e+00 1.474127918481826782e-01 -2.684648036956787109e-01 -3.631560504436492920e-02 -5.448417067527770996e-01
3.763000000000000000e+03 3.763798522949218750e+01 1.113467407226562500e+01 5.715744942426681519e-02 -2.248746752738952637e-01 -5.031516775488853455e-02 -6.348213553428649902e-01
3.764000000000000000e+03 3.503400802612304688e+01 -3.383396863937377930e+00 1.471524834632873535e-01 -4.306551814079284668e-01 -8.505080640316009521e-02 -3.563824892044067383e-01
3.765000000000000000e+03 3.583752441406250000e+01 6.034398078918457031e+00 1.233445480465888977e-01 -3.431023657321929932e-01 -6.592734903097152710e-02 -5.431766510009765625e-01
3.766000000000000000e+03 3.734796524047851562e+01 7.385210990905761719e+00 1.247045844793319702e-01 -2.623350024223327637e-01 -4.128912463784217834e-02 -5.714907646179199219e-01
3.767000000000000000e+03 6.630313110351562500e+01 9.309236526489257812e+00 6.941512823104858398e-01 2.944568395614624023e+00 1.091615915298461914e+00 8.662350177764892578e-01
3.768000000000000000e+03 6.453350830078125000e+01 4.789774894714355469e+00 6.044003367424011230e-01 2.772876024246215820e+00 1.013182878494262695e+00 6.313270926475524902e-01
3.769000000000000000e+03 6.364304351806640625e+01 5.458482265472412109e+00 6.446664929389953613e-01 2.518033027648925781e+00 9.488098621368408203e-01 5.926373004913330078e-01
3.770000000000000000e+03 3.714015960693359375e+01 1.364448928833007812e+01 -1.907002925872802734e-02 -2.221290171146392822e-01 -7.235971093177795410e-02 -6.529768705368041992e-01
3.771000000000000000e+03 3.671135711669921875e+01 1.932522583007812500e+01 -2.177562713623046875e-01 -1.402223855257034302e-01 -1.073936000466346741e-01 -6.197714805603027344e-01
3.772000000000000000e+03 3.471690750122070312e+01 -6.768766403198242188e+00 1.449372917413711548e-01 -4.551580548286437988e-01 -9.306623041629791260e-02 -2.970345020294189453e-01
3.773000000000000000e+03 3.329822540283203125e+01 -3.344477653503417969e+00 1.249011456966400146e-01 -5.682686567306518555e-01 -1.330102533102035522e-01 -3.488945364952087402e-01
3.774000000000000000e+03 6.272789382934570312e+01 -8.254055976867675781e+00 3.069555461406707764e-01 2.838306427001953125e+00 9.435786008834838867e-01 2.960958778858184814e-01
3.775000000000000000e+03 6.362879943847656250e+01 -1.013225269317626953e+01 2.564842998981475830e-01 3.010425567626953125e+00 9.800729155540466309e-01 2.708986103534698486e-01
3.776000000000000000e+03 6.381970214843750000e+01 -8.610906600952148438e+00 2.743287980556488037e-01 3.018213987350463867e+00 9.877628087997436523e-01 3.001589477062225342e-01
3.777000000000000000e+03 6.421057891845703125e+01 -4.352721214294433594e+00 3.660420775413513184e-01 3.011030912399291992e+00 1.013121962547302246e+00 4.009633958339691162e-01
3.778000000000000000e+03 6.489001464843750000e+01 -2.621841132640838623e-01 4.505681395530700684e-01 3.043160200119018555e+00 1.048118472099304199e+00 5.149280428886413574e-01
3.779000000000000000e+03 3.504350662231445312e+01 -1.134518432617187500e+01 1.308855265378952026e-01 -4.180266559123992920e-01 -8.614233881235122681e-02 -2.227467596530914307e-01
3.780000000000000000e+03 3.611795806884765625e+01 -1.597683620452880859e+01 1.284726262092590332e-01 -2.862916588783264160e-01 -4.734570905566215515e-02 -1.624573022127151489e-01
3.781000000000000000e+03 4.284325790405273438e+01 1.813791847229003906e+01 -2.205982357263565063e-01 -3.606555238366127014e-02 -7.699913531541824341e-02 -7.115089893341064453e-01
3.782000000000000000e+03 4.180738449096679688e+01 2.153497505187988281e+01 -4.286886751651763916e-01 -1.788579113781452179e-02 -1.339723467826843262e-01 -6.615082621574401855e-01
3.783000000000000000e+03 4.120461654663085938e+01 2.145917510986328125e+01 -4.107303917407989502e-01 -2.477113902568817139e-02 -1.306504607200622559e-01 -6.563611030578613281e-01
3.784000000000000000e+03 5.936800765991210938e+01 1.829117393493652344e+01 2.045233994722366333e-01 4.801897108554840088e-01 2.054139375686645508e-01 -1.488617956638336182e-01
3.785000000000000000e+03 5.814030075073242188e+01 1.930517768859863281e+01 -2.977013029158115387e-02 2.817375063896179199e-01 7.559021562337875366e-02 -3.334327340126037598e-01
3.786000000000000000e+03 4.342655944824218750e+01 2.169718742370605469e+01 -4.836848676204681396e-01 9.779243264347314835e-04 -1.448120772838592529e-01 -6.749150753021240234e-01
3.787000000000000000e+03 5.170061874389648438e+01 2.153705978393554688e+01 -5.878815650939941406e-01 4.567246884107589722e-02 -1.626627296209335327e-01 -6.689696907997131348e-01
3.788000000000000000e+03 5.009906768798828125e+01 2.211980438232421875e+01 -6.683079600334167480e-01 2.883252687752246857e-02 -1.918426305055618286e-01 -6.834219694137573242e-01
3.789000000000000000e+03 5.018789291381835938e+01 2.126711845397949219e+01 -5.529726147651672363e-01 3.531375154852867126e-02 -1.552976518869400024e-01 -6.908670067787170410e-01
3.790000000000000000e+03 5.160012817382812500e+01 2.221703910827636719e+01 -6.967454552650451660e-01 3.528036177158355713e-02 -1.984395384788513184e-01 -6.720007658004760742e-01
3.791000000000000000e+03 5.644144439697265625e+01 1.872471046447753906e+01 -2.713461592793464661e-02 2.401307076215744019e-01 6.389882415533065796e-02 -4.221034348011016846e-01
3.792000000000000000e+03 6.148155212402343750e+01 1.835161590576171875e+01 3.470741510391235352e-01 7.074108719825744629e-01 3.163455128669738770e-01 9.453257918357849121e-02
3.793000000000000000e+03 6.507840728759765625e+01 1.900478172302246094e+01 5.266157388687133789e-01 1.324534058570861816e+00 5.553449392318725586e-01 6.040259599685668945e-01
3.794000000000000000e+03 5.588454055786132812e+01 1.976899528503417969e+01 -2.103992551565170288e-01 1.656544059514999390e-01 -1.342345494776964188e-02 -4.946338534355163574e-01
3.795000000000000000e+03 3.614926910400390625e+01 2.122562599182128906e+01 -2.792007923126220703e-01 -1.104254201054573059e-01 -1.168878600001335144e-01 -5.686070322990417480e-01
3.796000000000000000e+03 3.554776763916015625e+01 1.919072341918945312e+01 -1.945506781339645386e-01 -1.698929667472839355e-01 -1.093330904841423035e-01 -5.965405106544494629e-01
3.797000000000000000e+03 5.328898239135742188e+01 2.173985290527343750e+01 -6.284715533256530762e-01 4.124121367931365967e-02 -1.761691123247146606e-01 -6.436536312103271484e-01
3.798000000000000000e+03 3.693247222900390625e+01 1.481685161590576172e+01 -5.958415567874908447e-02 -2.119604647159576416e-01 -8.146338909864425659e-02 -6.549949645996093750e-01
3.799000000000000000e+03 4.243183517456054688e+01 1.999564743041992188e+01 -3.454571366310119629e-01 -2.621047012507915497e-02 -1.115002781152725220e-01 -6.989830136299133301e-01
3.800000000000000000e+03 4.674863815307617188e+01 2.076006889343261719e+01 -4.588088989257812500e-01 2.029157429933547974e-02 -1.315551996231079102e-01 -7.096277475357055664e-01
3.801000000000000000e+03 5.036269760131835938e+01 2.030321884155273438e+01 -4.151041507720947266e-01 5.083085969090461731e-02 -1.092819944024085999e-01 -6.880036592483520508e-01
3.802000000000000000e+03 6.677827453613281250e+01 2.030794715881347656e+01 4.896126985549926758e-01 1.593264222145080566e+00 6.248630881309509277e-01 8.506308197975158691e-01
3.803000000000000000e+03 6.305502700805664062e+01 4.682203769683837891e+00 6.335161328315734863e-01 2.435320615768432617e+00 9.206510782241821289e-01 5.437337160110473633e-01
3.804000000000000000e+03 6.506792449951171875e+01 5.721101760864257812e+00 6.215912699699401855e-01 2.842854261398315430e+00 1.039333701133728027e+00 6.876123547554016113e-01
3.805000000000000000e+03 4.587920379638671875e+01 2.082735252380371094e+01 -4.535063803195953369e-01 1.506082341074943542e-02 -1.315336674451828003e-01 -7.071661949157714844e-01
3.806000000000000000e+03 6.691340637207031250e+01 1.541865253448486328e+01 7.833038568496704102e-01 2.524237871170043945e+00 9.922624826431274414e-01 1.025146722793579102e+00
3.807000000000000000e+03 6.644453430175781250e+01 1.714748954772949219e+01 7.377510666847229004e-01 2.082055807113647461e+00 8.459420204162597656e-01 9.301138520240783691e-01
3.808000000000000000e+03 3.728221511840820312e+01 2.089203643798828125e+01 -2.884761691093444824e-01 -9.921368211507797241e-02 -1.163069531321525574e-01 -6.005426049232482910e-01
3.809000000000000000e+03 3.800829315185546875e+01 1.839624881744384766e+00 1.891265958547592163e-01 -2.258162051439285278e-01 -1.100688055157661438e-02 -4.546407759189605713e-01
3.810000000000000000e+03 6.305358886718750000e+01 1.100166893005371094e+01 7.637238502502441406e-01 1.946952104568481445e+00 8.132027983665466309e-01 5.781679749488830566e-01
3.811000000000000000e+03 6.571807861328125000e+01 1.167397117614746094e+01 7.635842561721801758e-01 2.533290386199951172e+00 9.890623688697814941e-01 8.562371730804443359e-01
3.812000000000000000e+03 6.662702941894531250e+01 1.244303226470947266e+01 7.642565965652465820e-01 2.772973775863647461e+00 1.061169147491455078e+00 9.533120989799499512e-01
3.813000000000000000e+03 3.606163787841796875e+01 1.761491203308105469e+01 -1.514182835817337036e-01 -1.900552213191986084e-01 -1.024420484900474548e-01 -6.248665452003479004e-01
3.814000000000000000e+03 5.247684478759765625e+01 2.170601654052734375e+01 -6.211358308792114258e-01 3.956460207700729370e-02 -1.744713783264160156e-01 -6.575594544410705566e-01
3.815000000000000000e+03 5.517210769653320312e+01 1.995576095581054688e+01 -2.795061469078063965e-01 1.341930776834487915e-01 -4.359391331672668457e-02 -5.408648848533630371e-01
3.816000000000000000e+03 4.006295776367187500e+01 2.273475074768066406e+01 -4.563057422637939453e-01 -1.980819925665855408e-02 -1.428341716527938843e-01 -5.987619757652282715e-01
3.817000000000000000e+03 6.529196929931640625e+01 1.390566444396972656e+01 7.844799160957336426e-01 2.181564807891845703e+00 8.898134231567382812e-01 8.182064294815063477e-01
3.818000000000000000e+03 6.613201904296875000e+01 1.466114521026611328e+01 7.898272275924682617e-01 2.337064027786254883e+00 9.380674362182617188e-01 9.155659079551696777e-01
3.819000000000000000e+03 6.554434204101562500e+01 6.654538154602050781e+00 6.402959823608398438e-01 2.915398120880126953e+00 1.066708207130432129e+00 7.426849603652954102e-01
3.820000000000000000e+03 6.559914398193359375e+01 8.797725677490234375e+00 7.018712759017944336e-01 2.749570608139038086e+00 1.035432577133178711e+00 7.969145178794860840e-01
3.821000000000000000e+03 3.746749496459960938e+01 1.000969886779785156e+01 8.004068583250045776e-02 -2.425096333026885986e-01 -4.874068498611450195e-02 -6.168366074562072754e-01
3.822000000000000000e+03 6.591122436523437500e+01 2.061038780212402344e+01 3.655753731727600098e-01 1.225706100463867188e+00 4.773844480514526367e-01 6.314668655395507812e-01
3.823000000000000000e+03 4.048337554931640625e+01 2.168288040161132812e+01 -4.061257839202880859e-01 -3.142440319061279297e-02 -1.312650591135025024e-01 -6.405676007270812988e-01
3.824000000000000000e+03 6.081321334838867188e+01 1.865421104431152344e+01 2.463128566741943359e-01 5.936082601547241211e-01 2.519763410091400146e-01 -9.576866403222084045e-03
3.825000000000000000e+03 6.567065429687500000e+01 -3.495715379714965820e+00 3.479681611061096191e-01 3.263243913650512695e+00 1.083363652229309082e+00 4.439796507358551025e-01
3.826000000000000000e+03 5.884200668334960938e+01 1.895255470275878906e+01 8.255388587713241577e-02 3.765889704227447510e-01 1.377428621053695679e-01 -2.419903427362442017e-01
3.827000000000000000e+03 5.826457214355468750e+01 1.827252006530761719e+01 1.464038491249084473e-01 3.919797539710998535e-01 1.615150868892669678e-01 -2.514586746692657471e-01
3.828000000000000000e+03 3.771612167358398438e+01 8.653369903564453125e+00 1.116985753178596497e-01 -2.418643534183502197e-01 -3.904973343014717102e-02 -5.952655076980590820e-01
3.829000000000000000e+03 6.415660095214843750e+01 9.949842453002929688e+00 7.500299811363220215e-01 2.307337760925292969e+00 9.172103404998779297e-01 6.973574161529541016e-01
3.830000000000000000e+03 6.416385650634765625e+01 6.307325363159179688e+00 6.618041992187500000e-01 2.592785120010375977e+00 9.763768315315246582e-01 6.417842507362365723e-01
3.831000000000000000e+03 3.611207962036132812e+01 -9.119083285331726074e-01 1.748465597629547119e-01 -3.385967314243316650e-01 -4.912504926323890686e-02 -3.999138474464416504e-01
3.832000000000000000e+03 6.432093811035156250e+01 8.568127632141113281e+00 7.118903398513793945e-01 2.442860364913940430e+00 9.464251995086669922e-01 6.825250983238220215e-01
3.833000000000000000e+03 6.510793304443359375e+01 8.028892517089843750e+00 6.947001218795776367e-01 2.694642782211303711e+00 1.016802906990051270e+00 7.478091716766357422e-01
3.834000000000000000e+03 6.305259323120117188e+01 1.338962316513061523e+00 5.358052849769592285e-01 2.647797822952270508e+00 9.550809264183044434e-01 4.904019534587860107e-01
3.835000000000000000e+03 6.328502655029296875e+01 -1.573970556259155273e+00 4.499190747737884521e-01 2.784784078598022461e+00 9.704109430313110352e-01 4.391385316848754883e-01
3.836000000000000000e+03 6.230109024047851562e+01 -3.435633897781372070e+00 4.274262785911560059e-01 2.669993638992309570e+00 9.292259812355041504e-01 3.757235705852508545e-01
3.837000000000000000e+03 3.729781341552734375e+01 4.699361801147460938e+00 1.647078245878219604e-01 -2.637535631656646729e-01 -2.971372753381729126e-02 -5.198419690132141113e-01
3.838000000000000000e+03 6.422997283935546875e+01 -7.279209613800048828e+00 3.011684417724609375e-01 3.072421550750732422e+00 1.012076973915100098e+00 3.346872627735137939e-01
3.839000000000000000e+03 6.369248962402343750e+01 -1.183570003509521484e+01 2.333605289459228516e-01 3.040240526199340820e+00 9.820803403854370117e-01 2.479426115751266479e-01
3.840000000000000000e+03 3.580743408203125000e+01 -4.642867565155029297e+00 1.611918807029724121e-01 -3.599428832530975342e-01 -5.962530523538589478e-02 -3.321180343627929688e-01
3.841000000000000000e+03 3.572895050048828125e+01 -2.119573354721069336e+00 1.647650748491287231e-01 -3.735005259513854980e-01 -6.262063980102539062e-02 -3.810134530067443848e-01
3.842000000000000000e+03 3.544583511352539062e+01 -1.262845993041992188e-01 1.557777822017669678e-01 -3.885219395160675049e-01 -6.982325017452239990e-02 -4.237348139286041260e-01
3.843000000000000000e+03 6.078552627563476562e+01 -9.042589187622070312e+00 3.151833713054656982e-01 2.560481548309326172e+00 8.626994490623474121e-01 2.467346191406250000e-01
3.844000000000000000e+03 3.651094436645507812e+01 -7.789178371429443359e+00 1.697125136852264404e-01 -2.909409105777740479e-01 -3.636851534247398376e-02 -2.706291973590850830e-01
3.845000000000000000e+03 3.800566482543945312e+01 1.511231517791748047e+01 -6.836622953414916992e-02 -1.767113357782363892e-01 -7.352326810359954834e-02 -6.685281395912170410e-01
3.846000000000000000e+03 6.218357086181640625e+01 -9.904253959655761719e+00 2.818139791488647461e-01 2.780603170394897461e+00 9.187251329421997070e-01 2.576384246349334717e-01
3.847000000000000000e+03 3.604435348510742188e+01 7.308485984802246094e+00 1.048220247030258179e-01 -3.274615705013275146e-01 -6.679186224937438965e-02 -5.638014078140258789e-01
3.848000000000000000e+03 3.438920593261718750e+01 -2.035409927368164062e+01 9.198281913995742798e-02 -4.629996120929718018e-01 -1.113050356507301331e-01 -1.229999586939811707e-01
3.849000000000000000e+03 3.889231491088867188e+01 -1.073295116424560547e+01 1.923609375953674316e-01 -3.854462504386901855e-02 4.614489525556564331e-02 -2.080128788948059082e-01
3.850000000000000000e+03 4.361544418334960938e+01 2.026844406127929688e+01 -3.813720643520355225e-01 -9.360155090689659119e-03 -1.172196641564369202e-01 -7.021989226341247559e-01
3.851000000000000000e+03 4.608436203002929688e+01 1.919924163818359375e+01 -3.047235906124114990e-01 1.655618846416473389e-02 -8.645022660493850708e-02 -7.167334556579589844e-01
3.852000000000000000e+03 5.369335174560546875e+01 2.010424232482910156e+01 -3.436213731765747070e-01 9.331087023019790649e-02 -7.509314268827438354e-02 -6.068208813667297363e-01
3.853000000000000000e+03 4.174146652221679688e+01 2.044873619079589844e+01 -3.685268163681030273e-01 -2.934854477643966675e-02 -1.193626075983047485e-01 -6.796903014183044434e-01
3.854000000000000000e+03 4.281829833984375000e+01 2.064331626892089844e+01 -4.010320007801055908e-01 -1.727052219212055206e-02 -1.254907548427581787e-01 -6.889105439186096191e-01
3.855000000000000000e+03 5.316378402709960938e+01 2.096746444702148438e+01 -4.955546259880065918e-01 5.808334052562713623e-02 -1.312413811683654785e-01 -6.411892175674438477e-01
3.856000000000000000e+03 5.630956649780273438e+01 1.786356735229492188e+01 9.372746199369430542e-02 2.970876991748809814e-01 1.172445490956306458e-01 -3.843909204006195068e-01
3.857000000000000000e+03 5.862908935546875000e+01 1.764930725097656250e+01 2.383247166872024536e-01 4.775899946689605713e-01 2.147744148969650269e-01 -1.853469461202621460e-01
3.858000000000000000e+03 3.914926910400390625e+01 1.751619720458984375e+01 -1.697260737419128418e-01 -1.145578995347023010e-01 -8.528519421815872192e-02 -6.823291182518005371e-01
3.859000000000000000e+03 6.254684066772460938e+01 1.891407585144042969e+01 3.574600517749786377e-01 8.004990220069885254e-01 3.473877310752868652e-01 1.901265978813171387e-01
3.860000000000000000e+03 6.397120285034179688e+01 2.030056762695312500e+01 2.488339692354202271e-01 8.310394287109375000e-01 3.239620029926300049e-01 2.982228100299835205e-01
3.861000000000000000e+03 6.438577270507812500e+01 1.316924381256103516e+01 7.810732126235961914e-01 2.026576280593872070e+00 8.422948122024536133e-01 7.053671479225158691e-01
3.862000000000000000e+03 6.106945037841796875e+01 1.942326736450195312e+01 1.753949970006942749e-01 5.382353663444519043e-01 2.140891104936599731e-01 -4.092574492096900940e-02
3.863000000000000000e+03 5.714937973022460938e+01 1.868496322631835938e+01 1.560124382376670837e-02 2.723794877529144287e-01 8.639421314001083374e-02 -3.723354041576385498e-01
3.864000000000000000e+03 5.389516067504882812e+01 2.088105583190917969e+01 -4.724918901920318604e-01 7.019575685262680054e-02 -1.206888332962989807e-01 -6.173417568206787109e-01
3.865000000000000000e+03 5.427370452880859375e+01 1.928029632568359375e+01 -1.995000094175338745e-01 1.402088254690170288e-01 -1.778735406696796417e-02 -5.645619630813598633e-01
3.866000000000000000e+03 4.848950958251953125e+01 2.051329994201660156e+01 -4.435010552406311035e-01 3.215403482317924500e-02 -1.234041079878807068e-01 -7.067788839340209961e-01
3.867000000000000000e+03 4.939990997314453125e+01 1.945313453674316406e+01 -3.220858871936798096e-01 5.024460703134536743e-02 -8.155238628387451172e-02 -6.958902478218078613e-01
3.868000000000000000e+03 4.761686325073242188e+01 1.981834793090820312e+01 -3.669092059135437012e-01 2.813365310430526733e-02 -1.016326621174812317e-01 -7.125470042228698730e-01
3.869000000000000000e+03 5.183105087280273438e+01 1.980469703674316406e+01 -3.336788713932037354e-01 7.301452010869979858e-02 -7.819930464029312134e-02 -6.551638841629028320e-01
3.870000000000000000e+03 4.508852386474609375e+01 1.991785812377929688e+01 -3.646407723426818848e-01 4.981109872460365295e-03 -1.078978925943374634e-01 -7.149491906166076660e-01
3.871000000000000000e+03 6.407093048095703125e+01 1.162234973907470703e+01 7.658313512802124023e-01 2.116398096084594727e+00 8.646688461303710938e-01 6.831970810890197754e-01
3.872000000000000000e+03 5.295865249633789062e+01 2.022134017944335938e+01 -3.809000551700592041e-01 7.838483899831771851e-02 -9.075456112623214722e-02 -6.321175098419189453e-01
3.873000000000000000e+03 3.797836685180664062e+01 1.644870948791503906e+01 -1.155669987201690674e-01 -1.622840166091918945e-01 -8.335530012845993042e-02 -6.680005788803100586e-01
3.874000000000000000e+03 3.777906417846679688e+01 1.983730316162109375e+01 -2.549493610858917236e-01 -1.082891821861267090e-01 -1.089715659618377686e-01 -6.331391930580139160e-01
3.875000000000000000e+03 4.107611083984375000e+01 2.086344909667968750e+01 -3.785210549831390381e-01 -3.349093347787857056e-02 -1.236035972833633423e-01 -6.642075777053833008e-01
3.876000000000000000e+03 3.869491577148437500e+01 2.054707717895507812e+01 -3.118249475955963135e-01 -7.467158883810043335e-02 -1.159489601850509644e-01 -6.354477405548095703e-01
3.877000000000000000e+03 3.964470291137695312e+01 2.191666412353515625e+01 -3.972023129463195801e-01 -4.009378701448440552e-02 -1.311888247728347778e-01 -6.176367998123168945e-01
3.878000000000000000e+03 6.575354003906250000e+01 1.651250839233398438e+01 7.482100129127502441e-01 1.950763583183288574e+00 8.096920847892761230e-01 8.394867181777954102e-01
3.879000000000000000e+03 6.322067260742187500e+01 3.106441974639892578e+00 5.820086598396301270e-01 2.562225580215454102e+00 9.432702660560607910e-01 5.252628922462463379e-01
3.880000000000000000e+03 3.704103469848632812e+01 1.663132667541503906e+01 -1.192924529314041138e-01 -1.814658790826797485e-01 -9.022749960422515869e-02 -6.556593179702758789e-01
3.881000000000000000e+03 5.981762313842773438e+01 1.746639442443847656e+01 3.466877639293670654e-01 6.167977452278137207e-01 2.890456616878509521e-01 -4.318142682313919067e-02
3.882000000000000000e+03 6.011210632324218750e+01 1.872165679931640625e+01 1.885223090648651123e-01 4.945463240146636963e-01 2.049205899238586426e-01 -1.038260906934738159e-01
3.883000000000000000e+03 6.362077331542968750e+01 1.950354194641113281e+01 3.490414619445800781e-01 8.948054313659667969e-01 3.731540739536285400e-01 3.104708790779113770e-01
3.884000000000000000e+03 6.338673019409179688e+01 -6.658495962619781494e-02 4.950796067714691162e-01 2.745568990707397461e+00 9.721946120262145996e-01 4.781652688980102539e-01
3.885000000000000000e+03 6.317702102661132812e+01 9.999017715454101562e+00 7.539737224578857422e-01 2.068519115447998047e+00 8.467478156089782715e-01 6.017410159111022949e-01
3.886000000000000000e+03 3.646812438964843750e+01 2.046669769287109375e+01 -2.580695748329162598e-01 -1.223473325371742249e-01 -1.141250729560852051e-01 -5.917199850082397461e-01
3.887000000000000000e+03 6.377832412719726562e+01 7.734568595886230469e+00 7.066288590431213379e-01 2.402573347091674805e+00 9.327605962753295898e-01 6.334586739540100098e-01
3.888000000000000000e+03 6.185685348510742188e+01 -4.598308086395263672e+00 4.044679701328277588e-01 2.618083953857421875e+00 9.067655801773071289e-01 3.480875194072723389e-01
3.889000000000000000e+03 3.749741363525390625e+01 -4.098569869995117188e+00 1.962408125400543213e-01 -2.236574441194534302e-01 -8.224987424910068512e-03 -3.352411985397338867e-01
3.890000000000000000e+03 3.640839004516601562e+01 1.537515968084335327e-02 1.771100312471389771e-01 -3.173527717590332031e-01 -4.207281768321990967e-02 -4.171546399593353271e-01
3.891000000000000000e+03 3.915674972534179688e+01 9.739587783813476562e+00 1.116744354367256165e-01 -1.725880205631256104e-01 -1.827407442033290863e-02 -6.187310218811035156e-01
3.892000000000000000e+03 6.282172775268554688e+01 -5.099877834320068359e+00 3.757608830928802490e-01 2.817158460617065430e+00 9.578757882118225098e-01 3.638635277748107910e-01
3.893000000000000000e+03 3.734895706176757812e+01 -1.771502792835235596e-01 1.953838318586349487e-01 -2.620949149131774902e-01 -2.001332677900791168e-02 -4.112302958965301514e-01
3.894000000000000000e+03 3.770158767700195312e+01 7.752952575683593750e-01 1.973347216844558716e-01 -2.462217658758163452e-01 -1.466611400246620178e-02 -4.335850179195404053e-01
3.895000000000000000e+03 6.628454589843750000e+01 1.595758533477783203e+01 7.709501981735229492e-01 2.206485033035278320e+00 8.932306170463562012e-01 9.252955913543701172e-01
3.896000000000000000e+03 3.713843917846679688e+01 3.373678445816040039e+00 1.771933883428573608e-01 -2.729793488979339600e-01 -2.873579040169715881e-02 -4.909566342830657959e-01
3.897000000000000000e+03 6.240399551391601562e+01 4.010508537292480469e+00 6.244060993194580078e-01 2.344685077667236328e+00 8.907273411750793457e-01 4.956023395061492920e-01
3.898000000000000000e+03 6.041730117797851562e+01 1.669873619079589844e+01 4.726326763629913330e-01 7.806899547576904297e-01 3.759967982769012451e-01 7.347135245800018311e-02
3.899000000000000000e+03 3.858277893066406250e+01 7.390368938446044922e+00 1.519487500190734863e-01 -1.978476345539093018e-01 -1.376966573297977448e-02 -5.730366110801696777e-01
3.900000000000000000e+03 4.282214736938476562e+01 1.897526359558105469e+01 -2.697808742523193359e-01 -3.129202499985694885e-02 -9.032186865806579590e-02 -7.083593010902404785e-01
3.901000000000000000e+03 6.240392684936523438e+01 2.502881765365600586e+00 5.811935663223266602e-01 2.444158554077148438e+00 9.076056480407714844e-01 4.761742949485778809e-01
3.902000000000000000e+03 6.477404022216796875e+01 -6.066409111022949219e+00 3.187401592731475830e-01 3.138085126876831055e+00 1.037047624588012695e+00 3.722445070743560791e-01
3.903000000000000000e+03 6.204224395751953125e+01 -1.183306789398193359e+01 2.579028606414794922e-01 2.780675649642944336e+00 9.115735292434692383e-01 2.312910556793212891e-01
3.904000000000000000e+03 3.933444213867187500e+01 -1.967346572875976562e+01 1.385718137025833130e-01 8.704786002635955811e-02 6.768590211868286133e-02 -9.840700030326843262e-02
3.905000000000000000e+03 3.618262100219726562e+01 -6.201599597930908203e+00 1.746566146612167358e-01 -3.150117695331573486e-01 -4.210655018687248230e-02 -2.952274680137634277e-01
3.906000000000000000e+03 3.760084152221679688e+01 -5.817768573760986328e+00 1.990074664354324341e-01 -2.013720721006393433e-01 -7.093836902640759945e-04 -3.003048598766326904e-01
3.907000000000000000e+03 3.633151245117187500e+01 -2.121550178527832031e+01 1.029709279537200928e-01 -2.416943162679672241e-01 -4.161701723933219910e-02 -1.051042452454566956e-01
3.908000000000000000e+03 3.973031234741210938e+01 1.333891582489013672e+01 1.115607749670743942e-02 -1.384220123291015625e-01 -3.817978128790855408e-02 -6.718538403511047363e-01
3.909000000000000000e+03 6.331795120239257812e+01 6.878540992736816406e+00 6.919583082199096680e-01 2.350101232528686523e+00 9.126178622245788574e-01 5.942013263702392578e-01
3.910000000000000000e+03 6.327733612060546875e+01 -6.839774131774902344e+00 3.307712972164154053e-01 2.912444114685058594e+00 9.729645848274230957e-01 3.343462646007537842e-01
3.911000000000000000e+03 6.528298187255859375e+01 -4.817162513732910156e+00 3.267144560813903809e-01 3.205371141433715820e+00 1.059625744819641113e+00 4.051050543785095215e-01
3.912000000000000000e+03 4.373210906982421875e+01 1.821290397644042969e+01 -2.282007336616516113e-01 -2.023985236883163452e-02 -7.453217357397079468e-02 -7.179212570190429688e-01
3.913000000000000000e+03 4.681373596191406250e+01 1.912621307373046875e+01 -2.992710769176483154e-01 2.394464798271656036e-02 -8.259792625904083252e-02 -7.142830491065979004e-01
3.914000000000000000e+03 5.039923858642578125e+01 1.925544357299804688e+01 -2.860800325870513916e-01 6.813409179449081421e-02 -6.538378447294235229e-02 -6.781228780746459961e-01
3.915000000000000000e+03 4.940336227416992188e+01 2.038031005859375000e+01 -4.262852668762207031e-01 4.250603914260864258e-02 -1.151337698101997375e-01 -7.003628015518188477e-01
3.916000000000000000e+03 4.155136489868164062e+01 1.869238090515136719e+01 -2.456102520227432251e-01 -5.397728458046913147e-02 -8.987626433372497559e-02 -7.003644704818725586e-01
3.917000000000000000e+03 5.143642807006835938e+01 1.892071914672851562e+01 -2.276110202074050903e-01 9.213414788246154785e-02 -4.064306244254112244e-02 -6.487298607826232910e-01
3.918000000000000000e+03 5.610033416748046875e+01 1.696165466308593750e+01 1.942609697580337524e-01 3.563737869262695312e-01 1.651904284954071045e-01 -3.512843549251556396e-01
3.919000000000000000e+03 5.495643234252929688e+01 1.929496002197265625e+01 -1.735680997371673584e-01 1.636598408222198486e-01 -2.972478047013282776e-03 -5.290042757987976074e-01
3.920000000000000000e+03 4.128440093994140625e+01 1.983287239074707031e+01 -3.164613246917724609e-01 -4.647402837872505188e-02 -1.088806018233299255e-01 -6.836366057395935059e-01
3.921000000000000000e+03 6.531946563720703125e+01 1.797987747192382812e+01 6.487293243408203125e-01 1.565445423126220703e+00 6.642524600028991699e-01 7.002816200256347656e-01
3.922000000000000000e+03 4.040366744995117188e+01 2.099798583984375000e+01 -3.712206482887268066e-01 -4.100805521011352539e-02 -1.236686110496520996e-01 -6.510354280471801758e-01
3.923000000000000000e+03 3.936376571655273438e+01 1.858293342590332031e+01 -2.206017673015594482e-01 -9.661839157342910767e-02 -9.516604244709014893e-02 -6.770575642585754395e-01
3.924000000000000000e+03 6.547373199462890625e+01 1.529543781280517578e+01 7.716534733772277832e-01 2.039516925811767578e+00 8.433511257171630859e-01 8.202916979789733887e-01
3.925000000000000000e+03 4.428097534179687500e+01 1.952550315856933594e+01 -3.272206187248229980e-01 -7.060133386403322220e-03 -1.002842262387275696e-01 -7.138406038284301758e-01
3.926000000000000000e+03 3.905920410156250000e+01 1.519435501098632812e+01 -6.705223768949508667e-02 -1.460478603839874268e-01 -6.393002718687057495e-02 -6.815111637115478516e-01
3.927000000000000000e+03 5.768421173095703125e+01 1.793210601806640625e+01 1.540967375040054321e-01 3.775050938129425049e-01 1.594805419445037842e-01 -2.806739807128906250e-01
3.928000000000000000e+03 4.678943634033203125e+01 1.993905639648437500e+01 -3.776478767395019531e-01 2.196602337062358856e-02 -1.067045554518699646e-01 -7.141798734664916992e-01
3.929000000000000000e+03 4.848029327392578125e+01 1.964876747131347656e+01 -3.473266363143920898e-01 3.933445736765861511e-02 -9.239766001701354980e-02 -7.063290476799011230e-01
3.930000000000000000e+03 5.443901443481445312e+01 2.003677368164062500e+01 -3.147129416465759277e-01 1.104591041803359985e-01 -6.127615272998809814e-02 -5.776864290237426758e-01
3.931000000000000000e+03 6.577822113037109375e+01 1.867887878417968750e+01 5.990940332412719727e-01 1.586230516433715820e+00 6.555973887443542480e-01 7.493506669998168945e-01
3.932000000000000000e+03 6.535429382324218750e+01 1.702156257629394531e+01 6.987887620925903320e-01 1.770027279853820801e+00 7.406448125839233398e-01 7.528600096702575684e-01
3.933000000000000000e+03 6.344936752319335938e+01 1.245068740844726562e+01 7.660950422286987305e-01 1.848274469375610352e+00 7.843108773231506348e-01 6.063067317008972168e-01
3.934000000000000000e+03 5.701150512695312500e+01 1.785778427124023438e+01 1.285729706287384033e-01 3.379075527191162109e-01 1.399441659450531006e-01 -3.307684957981109619e-01
3.935000000000000000e+03 5.903945922851562500e+01 1.684814453125000000e+01 3.712463676929473877e-01 6.004606485366821289e-01 2.915121018886566162e-01 -8.417211472988128662e-02
3.936000000000000000e+03 4.509495162963867188e+01 1.823281097412109375e+01 -2.270336300134658813e-01 5.173028912395238876e-03 -6.655818223953247070e-02 -7.217249274253845215e-01
3.937000000000000000e+03 6.490607452392578125e+01 1.600651931762695312e+01 7.355064153671264648e-01 1.762712359428405762e+00 7.494656443595886230e-01 7.116661667823791504e-01
3.938000000000000000e+03 6.288720321655273438e+01 8.312265396118164062e+00 7.226756811141967773e-01 2.150424718856811523e+00 8.619300723075866699e-01 5.688898563385009766e-01
3.939000000000000000e+03 6.353723144531250000e+01 9.150470733642578125e+00 7.269131541252136230e-01 2.220736980438232422e+00 8.842949867248535156e-01 6.223147511482238770e-01
3.940000000000000000e+03 6.173882675170898438e+01 1.068023920059204102e+00 5.503752231597900391e-01 2.396095752716064453e+00 8.839412927627563477e-01 4.179449677467346191e-01
3.941000000000000000e+03 6.285258102416992188e+01 6.079971790313720703e+00 6.764190793037414551e-01 2.301715373992919922e+00 8.934403061866760254e-01 5.494785904884338379e-01
3.942000000000000000e+03 3.524989700317382812e+01 2.013489341735839844e+01 -2.206645756959915161e-01 -1.534309238195419312e-01 -1.122286543250083923e-01 -5.762633681297302246e-01
3.943000000000000000e+03 6.230143737792968750e+01 5.400711536407470703e+00 6.599527001380920410e-01 2.231085538864135742e+00 8.673114180564880371e-01 5.035465359687805176e-01
3.944000000000000000e+03 4.199830627441406250e+01 1.802185440063476562e+01 -2.104597687721252441e-01 -5.170733109116554260e-02 -7.865013182163238525e-02 -7.074214816093444824e-01
3.945000000000000000e+03 6.185712432861328125e+01 8.673056602478027344e+00 7.283089160919189453e-01 1.910601735115051270e+00 7.916731834411621094e-01 4.892915487289428711e-01
3.946000000000000000e+03 6.205084609985351562e+01 9.783522605895996094e+00 7.368292212486267090e-01 1.822989583015441895e+00 7.679456472396850586e-01 4.849592447280883789e-01
3.947000000000000000e+03 3.820812988281250000e+01 1.385008621215820312e+01 -1.934793591499328613e-02 -1.842272281646728516e-01 -6.107255071401596069e-02 -6.661476492881774902e-01
3.948000000000000000e+03 3.999148941040039062e+01 1.197489547729492188e+01 6.324393302202224731e-02 -1.333754807710647583e-01 -2.103946544229984283e-02 -6.562249064445495605e-01
3.949000000000000000e+03 3.812379455566406250e+01 1.061063289642333984e+01 7.900940626859664917e-02 -2.111861109733581543e-01 -3.965301439166069031e-02 -6.300895810127258301e-01
3.950000000000000000e+03 6.199739074707031250e+01 -1.350071907043457031e+00 4.799407124519348145e-01 2.554888963699340820e+00 9.104489088058471680e-01 3.995073437690734863e-01
3.951000000000000000e+03 6.201293182373046875e+01 -1.397619992494583130e-01 5.140306949615478516e-01 2.489835262298583984e+00 9.011597633361816406e-01 4.141375124454498291e-01
3.952000000000000000e+03 3.920318984985351562e+01 1.678204298019409180e+00 2.300385534763336182e-01 -1.247843876481056213e-01 3.157624974846839905e-02 -4.455388784408569336e-01
3.953000000000000000e+03 3.882701492309570312e+01 3.443699479103088379e-01 2.267254292964935303e-01 -1.454886645078659058e-01 2.437102794647216797e-02 -4.185984730720520020e-01
3.954000000000000000e+03 3.735261154174804688e+01 -2.387265682220458984e+00 1.960005015134811401e-01 -2.419470399618148804e-01 -1.378395874053239822e-02 -3.656285107135772705e-01
3.955000000000000000e+03 3.721049499511718750e+01 -1.105268359184265137e+00 1.842041164636611938e-01 -2.657270431518554688e-01 -2.445688284933567047e-02 -3.942698538303375244e-01
3.956000000000000000e+03 3.882781600952148438e+01 8.548138618469238281e+00 1.334901452064514160e-01 -1.881198585033416748e-01 -1.638891734182834625e-02 -5.960903763771057129e-01
3.957000000000000000e+03 3.819252014160156250e+01 9.787481307983398438e+00 9.387647360563278198e-02 -2.137441933155059814e-01 -3.596031665802001953e-02 -6.179020404815673828e-01
3.958000000000000000e+03 3.923628997802734375e+01 -4.220260143280029297e+00 2.342560440301895142e-01 -7.606416940689086914e-02 4.745756462216377258e-02 -3.183134794235229492e-01
3.959000000000000000e+03 3.994625473022460938e+01 -2.644241571426391602e+00 2.476637959480285645e-01 -3.323215991258621216e-02 6.432949006557464600e-02 -3.417212069034576416e-01
3.960000000000000000e+03 4.002864074707031250e+01 1.993579292297363281e+01 -2.986525297164916992e-01 -6.570129096508026123e-02 -1.093061491847038269e-01 -6.668627858161926270e-01
3.961000000000000000e+03 6.467918395996093750e+01 1.827366638183593750e+01 5.821990370750427246e-01 1.350218534469604492e+00 5.797252655029296875e-01 5.871294736862182617e-01
3.962000000000000000e+03 6.171423721313476562e+01 3.434398889541625977e+00 6.140545606613159180e-01 2.251750946044921875e+00 8.597416281700134277e-01 4.470067918300628662e-01
3.963000000000000000e+03 3.878965377807617188e+01 5.017474651336669922e+00 1.899622976779937744e-01 -1.777012497186660767e-01 3.678318345919251442e-03 -5.216693878173828125e-01
3.964000000000000000e+03 3.853791809082031250e+01 6.214986324310302734e+00 1.660252809524536133e-01 -2.013344466686248779e-01 -1.059275213629007339e-02 -5.502490997314453125e-01
3.965000000000000000e+03 6.378995513916015625e+01 -5.574426651000976562e+00 3.440570831298828125e-01 2.975724697113037109e+00 9.959345459938049316e-01 3.614673912525177002e-01
3.966000000000000000e+03 6.163920211791992188e+01 -7.602842330932617188e+00 3.419800102710723877e-01 2.672532320022583008e+00 9.043536782264709473e-01 2.862270176410675049e-01
3.967000000000000000e+03 3.908467864990234375e+01 -6.952824115753173828e+00 2.177941203117370605e-01 -6.506180018186569214e-02 4.581969976425170898e-02 -2.677190899848937988e-01
3.968000000000000000e+03 6.231337738037109375e+01 -1.382277393341064453e+01 2.161744982004165649e-01 2.843258857727050781e+00 9.178299903869628906e-01 2.045239657163619995e-01
3.969000000000000000e+03 6.584489440917968750e+01 -1.536756992340087891e+01 1.470809131860733032e-01 3.372756004333496094e+00 1.055950999259948730e+00 2.044008672237396240e-01
3.970000000000000000e+03 3.523154067993164062e+01 -9.585357666015625000e+00 1.426663398742675781e-01 -3.977442979812622070e-01 -7.652338594198226929e-02 -2.485940158367156982e-01
3.971000000000000000e+03 3.829007339477539062e+01 -8.995056152343750000e+00 1.893458664417266846e-01 -1.190479621291160583e-01 2.108937129378318787e-02 -2.417506724596023560e-01
3.972000000000000000e+03 3.282672882080078125e+01 -9.667127609252929688e+00 1.037147566676139832e-01 -6.436660885810852051e-01 -1.619853973388671875e-01 -2.464967072010040283e-01
3.973000000000000000e+03 6.232680130004882812e+01 -6.304302215576171875e+00 3.565316498279571533e-01 2.740564584732055664e+00 9.291288852691650391e-01 3.267076015472412109e-01
3.974000000000000000e+03 4.010877227783203125e+01 1.418920612335205078e+01 -1.902862451970577240e-02 -1.187439411878585815e-01 -4.133177176117897034e-02 -6.843879818916320801e-01
3.975000000000000000e+03 4.475817108154296875e+01 1.881400489807128906e+01 -2.712011039257049561e-01 -2.442845841869711876e-03 -8.209318667650222778e-02 -7.179650068283081055e-01
3.976000000000000000e+03 6.399419784545898438e+01 1.848948097229003906e+01 4.995526373386383057e-01 1.148582100868225098e+00 4.944404065608978271e-01 4.501726627349853516e-01
3.977000000000000000e+03 6.327831649780273438e+01 1.868292617797851562e+01 4.381955265998840332e-01 9.645253419876098633e-01 4.208162426948547363e-01 3.173504471778869629e-01
3.978000000000000000e+03 4.840609359741210938e+01 1.876811599731445312e+01 -2.559059262275695801e-01 4.504049569368362427e-02 -6.325963139533996582e-02 -7.030709385871887207e-01
3.979000000000000000e+03 4.907845306396484375e+01 1.755998611450195312e+01 -1.211836785078048706e-01 7.395767420530319214e-02 -1.416780147701501846e-02 -6.760475635528564453e-01
3.980000000000000000e+03 4.202928161621093750e+01 1.931289672851562500e+01 -2.873252630233764648e-01 -4.219502210617065430e-02 -9.885608404874801636e-02 -6.987105607986450195e-01
3.981000000000000000e+03 4.238154983520507812e+01 1.502286911010742188e+01 -3.236309066414833069e-02 -5.388386547565460205e-02 -2.587408758699893951e-02 -6.971143484115600586e-01
3.982000000000000000e+03 5.350085449218750000e+01 1.929913139343261719e+01 -2.234749346971511841e-01 1.153308153152465820e-01 -3.244323655962944031e-02 -5.937935709953308105e-01
3.983000000000000000e+03 5.596424484252929688e+01 1.598072242736816406e+01 2.811985015869140625e-01 4.154882431030273438e-01 2.090060263872146606e-01 -3.133159577846527100e-01
3.984000000000000000e+03 4.928754425048828125e+01 1.851395034790039062e+01 -2.181266099214553833e-01 6.356641650199890137e-02 -4.636805877089500427e-02 -6.879726648330688477e-01
3.985000000000000000e+03 5.021656799316406250e+01 1.820977020263671875e+01 -1.642190963029861450e-01 8.675106614828109741e-02 -2.324041165411472321e-02 -6.621857285499572754e-01
3.986000000000000000e+03 4.073287200927734375e+01 1.920201873779296875e+01 -2.699495553970336914e-01 -6.352257728576660156e-02 -1.000416353344917297e-01 -6.861598491668701172e-01
3.987000000000000000e+03 4.121076965332031250e+01 1.803465843200683594e+01 -2.044847011566162109e-01 -6.610452383756637573e-02 -8.117677271366119385e-02 -7.009155750274658203e-01
3.988000000000000000e+03 3.904410171508789062e+01 1.635689926147460938e+01 -1.165751740336418152e-01 -1.320571005344390869e-01 -7.458968460559844971e-02 -6.817204952239990234e-01
3.989000000000000000e+03 5.426364517211914062e+01 1.849097442626953125e+01 -7.583251595497131348e-02 1.797330528497695923e-01 3.117015957832336426e-02 -5.284976363182067871e-01
3.990000000000000000e+03 3.846335601806640625e+01 1.893334007263183594e+01 -2.284335196018218994e-01 -1.102616935968399048e-01 -1.016085669398307800e-01 -6.561389565467834473e-01
3.991000000000000000e+03 3.921817016601562500e+01 1.953128814697265625e+01 -2.701871693134307861e-01 -8.300340920686721802e-02 -1.059571728110313416e-01 -6.618649959564208984e-01
3.992000000000000000e+03 4.115037155151367188e+01 1.714816665649414062e+01 -1.602460145950317383e-01 -7.436494529247283936e-02 -7.038328796625137329e-02 -7.027098536491394043e-01
3.993000000000000000e+03 6.247376632690429688e+01 7.367825508117675781e+00 7.071250677108764648e-01 2.132892131805419922e+00 8.520051836967468262e-01 5.311296582221984863e-01
3.994000000000000000e+03 6.396763610839843750e+01 1.695754432678222656e+01 6.543686985969543457e-01 1.387062191963195801e+00 6.124292612075805664e-01 5.406478643417358398e-01
3.995000000000000000e+03 6.103543472290039062e+01 1.584795665740966797e+01 5.717045068740844727e-01 9.661663174629211426e-01 4.613612294197082520e-01 1.943608671426773071e-01
3.996000000000000000e+03 4.357410812377929688e+01 1.905059242248535156e+01 -2.825584411621093750e-01 -1.810790784657001495e-02 -9.019990265369415283e-02 -7.126546502113342285e-01
3.997000000000000000e+03 6.399110412597656250e+01 1.544339561462402344e+01 7.288853526115417480e-01 1.613850474357604980e+00 7.028207182884216309e-01 6.067718267440795898e-01
3.998000000000000000e+03 6.044272994995117188e+01 1.803280830383300781e+01 3.233511149883270264e-01 6.231715083122253418e-01 2.839567959308624268e-01 -1.295435614883899689e-02
3.999000000000000000e+03 5.784140014648437500e+01 1.718516921997070312e+01 2.537690401077270508e-01 4.490219950675964355e-01 2.108373194932937622e-01 -2.285606414079666138e-01
4.000000000000000000e+03 4.539022827148437500e+01 1.911248970031738281e+01 -2.945674359798431396e-01 6.804129574447870255e-03 -8.632899075746536255e-02 -7.182461619377136230e-01
4.001000000000000000e+03 6.106710433959960938e+01 1.749489784240722656e+01 4.260041415691375732e-01 7.626824975013732910e-01 3.566060066223144531e-01 1.025188788771629333e-01
4.002000000000000000e+03 4.746837997436523438e+01 1.808715248107910156e+01 -2.007586508989334106e-01 4.049475118517875671e-02 -4.807917028665542603e-02 -7.043925523757934570e-01
4.003000000000000000e+03 6.462165832519531250e+01 1.463589286804199219e+01 7.693616151809692383e-01 1.899473905563354492e+00 8.006506562232971191e-01 7.142354249954223633e-01
4.004000000000000000e+03 6.251214599609375000e+01 1.174516582489013672e+01 7.612473368644714355e-01 1.733207345008850098e+00 7.483363747596740723e-01 5.160368680953979492e-01
4.005000000000000000e+03 5.698686981201171875e+01 1.696741485595703125e+01 2.396769374608993530e-01 4.144911766052246094e-01 1.962504386901855469e-01 -2.829667329788208008e-01
4.006000000000000000e+03 5.861209869384765625e+01 1.532448959350585938e+01 4.792127609252929688e-01 7.077160477638244629e-01 3.560786545276641846e-01 -4.597492143511772156e-02
4.007000000000000000e+03 3.859866714477539062e+01 2.859841585159301758e+00 2.120077311992645264e-01 -1.721936464309692383e-01 1.194422319531440735e-02 -4.781668782234191895e-01
4.008000000000000000e+03 5.338390731811523438e+01 1.838994216918945312e+01 -1.022886261343955994e-01 1.544177830219268799e-01 1.563874632120132446e-02 -5.672816634178161621e-01
4.009000000000000000e+03 5.970581054687500000e+01 2.743698358535766602e+00 6.121605634689331055e-01 1.940539836883544922e+00 7.658101320266723633e-01 3.221143484115600586e-01
4.010000000000000000e+03 3.960814666748046875e+01 6.451981544494628906e+00 1.871842443943023682e-01 -1.354408860206604004e-01 1.552300900220870972e-02 -5.525217056274414062e-01
4.011000000000000000e+03 6.204633331298828125e+01 1.087043094635009766e+01 7.589759230613708496e-01 1.710953593254089355e+00 7.409788370132446289e-01 4.766777455806732178e-01
4.012000000000000000e+03 6.095682525634765625e+01 1.082162475585937500e+01 7.344205379486083984e-01 1.550562024116516113e+00 6.854947805404663086e-01 3.783088326454162598e-01
4.013000000000000000e+03 4.053474426269531250e+01 1.069328308105468750e+01 1.112293004989624023e-01 -1.099062189459800720e-01 3.969234530813992023e-04 -6.352307200431823730e-01
4.014000000000000000e+03 4.299397659301757812e+01 1.719547653198242188e+01 -1.580881476402282715e-01 -3.763908892869949341e-02 -5.871817097067832947e-02 -7.148721218109130859e-01
4.015000000000000000e+03 3.955691909790039062e+01 1.092537403106689453e+01 8.744195103645324707e-02 -1.544256657361984253e-01 -2.009511366486549377e-02 -6.389394998550415039e-01
4.016000000000000000e+03 6.215486526489257812e+01 6.586508274078369141e+00 6.939706802368164062e-01 2.126457691192626953e+00 8.461285233497619629e-01 5.040256381034851074e-01
4.017000000000000000e+03 3.992967605590820312e+01 8.490637779235839844e+00 1.577409654855728149e-01 -1.317383497953414917e-01 7.800788152962923050e-03 -5.919128656387329102e-01
4.018000000000000000e+03 3.970577621459960938e+01 7.429360389709472656e+00 1.728434413671493530e-01 -1.393343061208724976e-01 1.005274150520563126e-02 -5.727277398109436035e-01
4.019000000000000000e+03 6.015351104736328125e+01 1.799344867467880249e-01 5.405279397964477539e-01 2.155120372772216797e+00 8.086944818496704102e-01 3.363622725009918213e-01
4.020000000000000000e+03 3.809622192382812500e+01 1.781019401550292969e+01 -1.797633618116378784e-01 -1.344458609819412231e-01 -9.426276385784149170e-02 -6.611541509628295898e-01
4.021000000000000000e+03 3.811537933349609375e+01 -6.658421158790588379e-01 2.018891572952270508e-01 -2.042298167943954468e-01 -7.021978963166475296e-04 -3.995530605316162109e-01
4.022000000000000000e+03 6.105141448974609375e+01 -6.431587934494018555e-01 5.139783620834350586e-01 2.326009035110473633e+00 8.519961833953857422e-01 3.646579086780548096e-01
4.023000000000000000e+03 5.752553558349609375e+01 -6.983900070190429688e+00 3.964518308639526367e-01 2.019956588745117188e+00 7.249225378036499023e-01 1.833040267229080200e-01
4.024000000000000000e+03 6.035987091064453125e+01 -1.209255409240722656e+01 2.709627747535705566e-01 2.560090541839599609e+00 8.493160009384155273e-01 2.067832350730895996e-01
4.025000000000000000e+03 6.074308776855468750e+01 -1.402173709869384766e+01 2.336955815553665161e-01 2.632742881774902344e+00 8.599315285682678223e-01 1.904579848051071167e-01
4.026000000000000000e+03 3.677027511596679688e+01 -9.470043182373046875e+00 1.663316339254379272e-01 -2.485599815845489502e-01 -2.466850355267524719e-02 -2.450656592845916748e-01
4.027000000000000000e+03 6.133370590209960938e+01 -2.546674728393554688e+00 4.559842050075531006e-01 2.483263731002807617e+00 8.817744255065917969e-01 3.606471717357635498e-01
4.028000000000000000e+03 6.170507049560546875e+01 6.055567264556884766e+00 6.811646223068237305e-01 2.073312759399414062e+00 8.263432383537292480e-01 4.671839475631713867e-01
4.029000000000000000e+03 4.879118728637695312e+01 1.663738632202148438e+01 -5.224812030792236328e-02 8.031765371561050415e-02 8.420859463512897491e-03 -6.610792875289916992e-01
4.030000000000000000e+03 4.221573638916015625e+01 1.611614608764648438e+01 -9.880028665065765381e-02 -5.656350776553153992e-02 -4.660913720726966858e-02 -7.072079777717590332e-01
4.031000000000000000e+03 4.010320281982421875e+01 1.624820709228515625e+01 -1.119759753346443176e-01 -1.063013002276420593e-01 -6.548318266868591309e-02 -6.942827701568603516e-01
4.032000000000000000e+03 5.529580307006835938e+01 1.724331283569335938e+01 1.279426813125610352e-01 2.869100868701934814e-01 1.244558319449424744e-01 -4.213329851627349854e-01
4.033000000000000000e+03 5.473734664916992188e+01 1.662432098388671875e+01 1.560675203800201416e-01 2.962070703506469727e-01 1.356823742389678955e-01 -4.236608743667602539e-01
4.034000000000000000e+03 6.096876525878906250e+01 9.761979103088378906e+00 7.325066924095153809e-01 1.623767018318176270e+00 7.068821191787719727e-01 3.877970576286315918e-01
4.035000000000000000e+03 6.048824691772460938e+01 7.717242717742919922e+00 7.128474712371826172e-01 1.734272599220275879e+00 7.341360449790954590e-01 3.748654127120971680e-01
4.036000000000000000e+03 4.758406066894531250e+01 1.897171783447265625e+01 -2.813591659069061279e-01 3.210585191845893860e-02 -7.477600127458572388e-02 -7.093834280967712402e-01
4.037000000000000000e+03 4.533391952514648438e+01 1.754248619079589844e+01 -1.690514534711837769e-01 1.153910439461469650e-02 -4.725370556116104126e-02 -7.151076197624206543e-01
4.038000000000000000e+03 5.242892074584960938e+01 1.855388069152832031e+01 -1.536705344915390015e-01 1.225849613547325134e-01 -9.325674735009670258e-03 -6.090232729911804199e-01
4.039000000000000000e+03 5.118832015991210938e+01 1.784460449218750000e+01 -1.019724532961845398e-01 1.190120428800582886e-01 5.111875478178262711e-03 -6.277663707733154297e-01
4.040000000000000000e+03 5.324842834472656250e+01 1.738554382324218750e+01 1.508968509733676910e-02 1.992772519588470459e-01 6.431008130311965942e-02 -5.378732085227966309e-01
4.041000000000000000e+03 5.522071456909179688e+01 1.826635360717773438e+01 -2.130861207842826843e-02 2.201935499906539917e-01 5.966548249125480652e-02 -4.782130718231201172e-01
4.042000000000000000e+03 4.560712814331054688e+01 1.844130516052246094e+01 -2.369360774755477905e-01 1.048924867063760757e-02 -6.793405115604400635e-02 -7.186536192893981934e-01
4.043000000000000000e+03 4.613274383544921875e+01 1.847823143005371094e+01 -2.373000532388687134e-01 2.049840986728668213e-02 -6.504049152135848999e-02 -7.168267369270324707e-01
4.044000000000000000e+03 5.703811264038085938e+01 1.596935749053955078e+01 3.429477214813232422e-01 5.027601122856140137e-01 2.537123560905456543e-01 -2.227812707424163818e-01
4.045000000000000000e+03 5.810486221313476562e+01 1.625818252563476562e+01 3.736324012279510498e-01 5.661242008209228516e-01 2.819269895553588867e-01 -1.479490250349044800e-01
4.046000000000000000e+03 4.032284927368164062e+01 1.835315322875976562e+01 -2.179586738348007202e-01 -8.018881827592849731e-02 -8.944424986839294434e-02 -6.899917125701904297e-01
4.047000000000000000e+03 4.010425186157226562e+01 1.519153976440429688e+01 -6.235134229063987732e-02 -1.131696254014968872e-01 -5.265629291534423828e-02 -6.898158192634582520e-01
4.048000000000000000e+03 6.220344924926757812e+01 1.806309127807617188e+01 4.260711371898651123e-01 8.542183637619018555e-01 3.840868473052978516e-01 2.013944387435913086e-01
4.049000000000000000e+03 6.282185745239257812e+01 1.324317741394042969e+01 7.574967741966247559e-01 1.629837632179260254e+00 7.162002921104431152e-01 5.246806144714355469e-01
4.050000000000000000e+03 6.373802566528320312e+01 1.394531440734863281e+01 7.630168199539184570e-01 1.747219800949096680e+00 7.530709505081176758e-01 6.175129413604736328e-01
4.051000000000000000e+03 6.435519409179687500e+01 1.758306884765625000e+01 6.443110704421997070e-01 1.387977719306945801e+00 6.096866130828857422e-01 5.892078280448913574e-01
4.052000000000000000e+03 6.298385620117187500e+01 1.777652931213378906e+01 5.225002169609069824e-01 1.052878618240356445e+00 4.726136624813079834e-01 3.443968296051025391e-01
4.053000000000000000e+03 6.259069824218750000e+01 1.690321731567382812e+01 5.870853066444396973e-01 1.102150917053222656e+00 5.067708492279052734e-01 3.473177552223205566e-01
4.054000000000000000e+03 6.025552368164062500e+01 5.145564556121826172e+00 6.621099114418029785e-01 1.886919736862182617e+00 7.647089362144470215e-01 3.646213114261627197e-01
4.055000000000000000e+03 4.044403457641601562e+01 1.283570861816406250e+01 4.070434719324111938e-02 -1.161315962672233582e-01 -2.262817509472370148e-02 -6.700802445411682129e-01
4.056000000000000000e+03 6.102957916259765625e+01 5.652478218078613281e+00 6.725246310234069824e-01 1.978313565254211426e+00 7.952514290809631348e-01 4.204007983207702637e-01
4.057000000000000000e+03 6.166081619262695312e+01 4.822902202606201172e+00 6.520040631294250488e-01 2.150864601135253906e+00 8.408605456352233887e-01 4.565396010875701904e-01
4.058000000000000000e+03 4.131852340698242188e+01 9.478880882263183594e+00 1.653930395841598511e-01 -6.860988587141036987e-02 2.903494611382484436e-02 -6.059586405754089355e-01
4.059000000000000000e+03 4.269884872436523438e+01 1.047161102294921875e+01 1.681850850582122803e-01 -1.540359202772378922e-02 4.583444818854331970e-02 -6.154661178588867188e-01
4.060000000000000000e+03 6.061357116699218750e+01 6.599966049194335938e+00 6.921756863594055176e-01 1.836437225341796875e+00 7.585838437080383301e-01 3.905577361583709717e-01
4.061000000000000000e+03 4.114558792114257812e+01 1.408940982818603516e+01 -8.354689925909042358e-03 -9.143908321857452393e-02 -2.993813343346118927e-02 -6.861388683319091797e-01
4.062000000000000000e+03 5.268316650390625000e+01 1.944753837585449219e+01 -2.617908418178558350e-01 1.020418629050254822e-01 -4.792469367384910583e-02 -6.222906708717346191e-01
4.063000000000000000e+03 5.222382354736328125e+01 1.748268318176269531e+01 -3.289379552006721497e-02 1.518464982509613037e-01 3.568581119179725647e-02 -5.834979414939880371e-01
4.064000000000000000e+03 6.155294418334960938e+01 7.644235134124755859e+00 7.171728014945983887e-01 1.931639075279235840e+00 7.946435809135437012e-01 4.617806971073150635e-01
4.065000000000000000e+03 5.947576522827148438e+01 -5.625241398811340332e-01 5.213039517402648926e-01 2.061256170272827148e+00 7.747680544853210449e-01 2.920031547546386719e-01
4.066000000000000000e+03 6.373195266723632812e+01 1.766619682312011719e+01 5.815690159797668457e-01 1.242765188217163086e+00 5.473002791404724121e-01 4.560658335685729980e-01
4.067000000000000000e+03 4.096904754638671875e+01 3.247684955596923828e+00 2.547563612461090088e-01 -2.795196697115898132e-02 6.804131716489791870e-02 -4.635617434978485107e-01
4.068000000000000000e+03 3.963663482666015625e+01 3.923627376556396484e+00 2.230737954378128052e-01 -1.202418059110641479e-01 3.084959648549556732e-02 -4.910159707069396973e-01
4.069000000000000000e+03 6.029911041259765625e+01 -1.572047829627990723e+00 4.982226192951202393e-01 2.223244428634643555e+00 8.164401054382324219e-01 3.235878646373748779e-01
4.070000000000000000e+03 3.700593948364257812e+01 -1.139158439636230469e+01 1.633761525154113770e-01 -2.095503509044647217e-01 -1.385226286947727203e-02 -2.123432755470275879e-01
4.071000000000000000e+03 6.081691741943359375e+01 1.190756988525390625e+01 7.177379727363586426e-01 1.398617625236511230e+00 6.349066495895385742e-01 3.293771147727966309e-01
4.072000000000000000e+03 5.802106094360351562e+01 -3.739697456359863281e+00 4.663089811801910400e-01 1.978628516197204590e+00 7.334812283515930176e-01 2.193442136049270630e-01
4.073000000000000000e+03 3.988702011108398438e+01 5.655239582061767578e+00 2.096112221479415894e-01 -1.082243621349334717e-01 3.041605465114116669e-02 -5.304767489433288574e-01
4.074000000000000000e+03 6.065625000000000000e+01 -6.638518810272216797e+00 3.744146525859832764e-01 2.493146419525146484e+00 8.602683544158935547e-01 2.763283848762512207e-01
4.075000000000000000e+03 4.181297683715820312e+01 1.154220294952392578e+01 1.056515201926231384e-01 -6.145446747541427612e-02 1.325911562889814377e-02 -6.461307406425476074e-01
4.076000000000000000e+03 4.071491622924804688e+01 -4.866413593292236328e+00 2.585588693618774414e-01 7.818741351366043091e-02 1.010238900780677795e-01 -2.865466475486755371e-01
4.077000000000000000e+03 3.785103988647460938e+01 -7.401334762573242188e+00 1.912854164838790894e-01 -1.635793596506118774e-01 8.311817422509193420e-03 -2.714971601963043213e-01
4.078000000000000000e+03 4.077594757080078125e+01 1.441970467567443848e-01 2.672263681888580322e-01 7.446830160915851593e-03 8.240196108818054199e-02 -3.948285877704620361e-01
4.079000000000000000e+03 5.831035232543945312e+01 -1.096093463897705078e+01 3.067159652709960938e-01 2.241445064544677734e+00 7.644482851028442383e-01 1.827851384878158569e-01
4.080000000000000000e+03 4.824650192260742188e+01 1.784834289550781250e+01 -1.672875285148620605e-01 5.060449242591857910e-02 -3.500491008162498474e-02 -6.913282871246337891e-01
4.081000000000000000e+03 4.449573516845703125e+01 1.820850563049316406e+01 -2.280308604240417480e-01 -6.630230229347944260e-03 -7.039832323789596558e-02 -7.207931280136108398e-01
4.082000000000000000e+03 4.542292404174804688e+01 1.679625701904296875e+01 -1.133753880858421326e-01 1.265648286789655685e-02 -3.021567314863204956e-02 -7.070850133895874023e-01
4.083000000000000000e+03 4.497884368896484375e+01 1.498565101623535156e+01 1.132591511122882366e-03 1.629164442420005798e-02 5.227270536124706268e-03 -6.861556768417358398e-01
4.084000000000000000e+03 4.209972381591796875e+01 1.711311721801757812e+01 -1.560206711292266846e-01 -5.449596047401428223e-02 -6.315498799085617065e-02 -7.096511721611022949e-01
4.085000000000000000e+03 5.780142974853515625e+01 1.450044822692871094e+01 4.928397536277770996e-01 6.987457275390625000e-01 3.574756383895874023e-01 -8.411616086959838867e-02
4.086000000000000000e+03 4.993960189819335938e+01 1.717740058898925781e+01 -6.472354382276535034e-02 1.105130314826965332e-01 1.373684685677289963e-02 -6.447103023529052734e-01
4.087000000000000000e+03 5.407051467895507812e+01 1.717034721374511719e+01 6.884472817182540894e-02 2.281742393970489502e-01 8.910568803548812866e-02 -4.905671477317810059e-01
4.088000000000000000e+03 5.975910949707031250e+01 1.053777980804443359e+01 7.012290954589843750e-01 1.331677317619323730e+00 6.098719239234924316e-01 2.506681978702545166e-01
4.089000000000000000e+03 6.221775054931640625e+01 1.407451343536376953e+01 7.098782062530517578e-01 1.405662655830383301e+00 6.346622705459594727e-01 4.155436158180236816e-01
4.090000000000000000e+03 6.014635086059570312e+01 1.517599391937255859e+01 5.672969818115234375e-01 9.120889306068420410e-01 4.438157677650451660e-01 1.260599642992019653e-01
4.091000000000000000e+03 4.674981307983398438e+01 1.830446052551269531e+01 -2.225839793682098389e-01 2.650483511388301849e-02 -5.882374197244644165e-02 -7.131436467170715332e-01
4.092000000000000000e+03 4.590593338012695312e+01 1.786860847473144531e+01 -1.848033517599105835e-01 1.841141097247600555e-02 -4.991758242249488831e-02 -7.163700461387634277e-01
4.093000000000000000e+03 5.502035140991210938e+01 1.593412876129150391e+01 2.407113462686538696e-01 3.534072041511535645e-01 1.782355606555938721e-01 -3.690153062343597412e-01
4.094000000000000000e+03 5.688611602783203125e+01 1.492391014099121094e+01 4.204304218292236328e-01 5.726530551910400391e-01 2.979250252246856689e-01 -1.819143742322921753e-01
4.095000000000000000e+03 5.893082046508789062e+01 8.625175476074218750e+00 6.875584125518798828e-01 1.375826239585876465e+00 6.190153956413269043e-01 2.270753085613250732e-01
4.096000000000000000e+03 6.097372436523437500e+01 4.260486125946044922e+00 6.456317901611328125e-01 2.068629026412963867e+00 8.142782449722290039e-01 4.134908616542816162e-01
4.097000000000000000e+03 4.016275405883789062e+01 1.731014251708984375e+01 -1.607036590576171875e-01 -9.462156891822814941e-02 -7.659757137298583984e-02 -6.940616965293884277e-01
4.098000000000000000e+03 6.330817794799804688e+01 1.626548957824707031e+01 6.565441489219665527e-01 1.339290142059326172e+00 5.987502932548522949e-01 4.741849303245544434e-01
4.099000000000000000e+03 6.185863113403320312e+01 1.250229644775390625e+01 7.341957092285156250e-01 1.525015354156494141e+00 6.777633428573608398e-01 4.275131225585937500e-01
4.100000000000000000e+03 4.065036773681640625e+01 5.029570102691650391e+00 2.384713143110275269e-01 -6.242218241095542908e-02 5.281474068760871887e-02 -5.077077746391296387e-01
4.101000000000000000e+03 6.145244598388671875e+01 -5.656931400299072266e+00 3.849051594734191895e-01 2.598109960556030273e+00 8.949045538902282715e-01 3.122629225254058838e-01
4.102000000000000000e+03 5.907139968872070312e+01 5.204551219940185547e-01 5.620134472846984863e-01 1.923288822174072266e+00 7.455906867980957031e-01 2.819696068763732910e-01
4.103000000000000000e+03 4.382993698120117188e+01 1.731817245483398438e+01 -1.624857187271118164e-01 -2.067812345921993256e-02 -5.494915321469306946e-02 -7.150552272796630859e-01
4.104000000000000000e+03 4.119407272338867188e+01 1.510982704162597656e+01 -5.227107927203178406e-02 -8.710546791553497314e-02 -4.181296378374099731e-02 -6.946561336517333984e-01
4.105000000000000000e+03 4.232091522216796875e+01 1.394584560394287109e+01 1.464583817869424820e-02 -5.510416254401206970e-02 -1.213749684393405914e-02 -6.834896802902221680e-01
4.106000000000000000e+03 6.190305709838867188e+01 1.635026931762695312e+01 5.912905931472778320e-01 1.040222406387329102e+00 4.894539117813110352e-01 2.774045169353485107e-01
4.107000000000000000e+03 6.145159530639648438e+01 6.765938282012939453e+00 6.981344223022460938e-01 1.972218751907348633e+00 8.011059761047363281e-01 4.498159587383270264e-01
4.108000000000000000e+03 4.422934341430664062e+01 -5.527263641357421875e+00 3.216915428638458252e-01 4.179857969284057617e-01 2.219032049179077148e-01 -2.127404958009719849e-01
4.109000000000000000e+03 3.972595977783203125e+01 -8.204297065734863281e+00 2.136172950267791748e-01 1.763925887644290924e-02 6.937696784734725952e-02 -2.440863102674484253e-01
4.110000000000000000e+03 6.183842086791992188e+01 1.718942451477050781e+01 4.974336624145507812e-01 9.139146208763122559e-01 4.234044849872589111e-01 2.102949023246765137e-01
4.111000000000000000e+03 6.310729217529296875e+01 1.474905395507812500e+01 7.233597636222839355e-01 1.492782592773437500e+00 6.648427248001098633e-01 5.114063024520874023e-01
4.112000000000000000e+03 5.882873535156250000e+01 -3.351795434951782227e+00 4.668516516685485840e-01 2.096006393432617188e+00 7.688574194908142090e-01 2.439315617084503174e-01
4.113000000000000000e+03 5.085306930541992188e+01 1.673520660400390625e+01 -3.456792794167995453e-03 1.399035453796386719e-01 4.093402624130249023e-02 -6.092999577522277832e-01
4.114000000000000000e+03 3.974277496337890625e+01 -4.690314233303070068e-01 2.448439896106719971e-01 -6.273956596851348877e-02 5.463132634758949280e-02 -3.917075991630554199e-01
4.115000000000000000e+03 4.206545257568359375e+01 1.609398365020751953e+00 2.968486547470092773e-01 8.093778789043426514e-02 1.133359298110008240e-01 -4.049571752548217773e-01
4.116000000000000000e+03 4.069087982177734375e+01 -1.221174478530883789e+00 2.672952115535736084e-01 1.809827238321304321e-02 8.561804890632629395e-02 -3.637822568416595459e-01
4.117000000000000000e+03 4.227858352661132812e+01 2.944547414779663086e+00 2.971283197402954102e-01 7.389565557241439819e-02 1.113071963191032410e-01 -4.322827756404876709e-01
4.118000000000000000e+03 4.350192260742187500e+01 1.521348857879638672e+01 -3.104869090020656586e-02 -2.335630357265472412e-02 -1.632149890065193176e-02 -6.989608407020568848e-01
4.119000000000000000e+03 5.952876663208007812e+01 -2.515061855316162109e+00 4.819569289684295654e-01 2.167722463607788086e+00 7.949038147926330566e-01 2.807534337043762207e-01
4.120000000000000000e+03 5.982533264160156250e+01 1.158795547485351562e+01 6.951605081558227539e-01 1.250711917877197266e+00 5.837616920471191406e-01 2.320598363876342773e-01
4.121000000000000000e+03 5.858437347412109375e+01 -9.328309893608093262e-01 5.234723091125488281e-01 1.955431580543518066e+00 7.436711788177490234e-01 2.511656284332275391e-01
4.122000000000000000e+03 4.351604080200195312e+01 9.249215126037597656e+00 2.264604568481445312e-01 4.031361266970634460e-02 8.003222197294235229e-02 -5.715888142585754395e-01
4.123000000000000000e+03 4.084036636352539062e+01 1.167481422424316406e+01 8.570251613855361938e-02 -9.904144704341888428e-02 -4.001678433269262314e-03 -6.503863930702209473e-01
4.124000000000000000e+03 5.878343582153320312e+01 3.473745107650756836e+00 6.362581253051757812e-01 1.740406870841979980e+00 7.129995226860046387e-01 2.782662510871887207e-01
4.125000000000000000e+03 5.810162734985351562e+01 2.366449832916259766e+00 6.047451496124267578e-01 1.693787455558776855e+00 6.895597577095031738e-01 2.361148148775100708e-01
4.126000000000000000e+03 4.198067474365234375e+01 -5.805838108062744141e+00 2.743684053421020508e-01 1.972957402467727661e-01 1.414992362260818481e-01 -2.513633668422698975e-01
4.127000000000000000e+03 5.964415740966796875e+01 -7.679468154907226562e+00 3.674393296241760254e-01 2.335279464721679688e+00 8.108156323432922363e-01 2.378438115119934082e-01
4.128000000000000000e+03 5.591986846923828125e+01 -9.187176704406738281e+00 3.539290130138397217e-01 1.858637571334838867e+00 6.637699604034423828e-01 1.297693848609924316e-01
4.129000000000000000e+03 3.683177566528320312e+01 -1.364689445495605469e+01 1.398132592439651489e-01 -2.237962186336517334e-01 -2.519488707184791565e-02 -1.852474212646484375e-01
4.130000000000000000e+03 4.460621643066406250e+01 1.743343162536621094e+01 -1.638845503330230713e-01 -5.400109570473432541e-03 -5.078539624810218811e-02 -7.143368124961853027e-01
4.131000000000000000e+03 4.613280105590820312e+01 1.654900360107421875e+01 -8.458098769187927246e-02 3.179346024990081787e-02 -1.583625748753547668e-02 -6.998303532600402832e-01
4.132000000000000000e+03 4.870391464233398438e+01 1.570275115966796875e+01 3.620053082704544067e-02 1.087706685066223145e-01 4.349135980010032654e-02 -6.412960886955261230e-01
4.133000000000000000e+03 5.863318252563476562e+01 1.062989616394042969e+01 6.723604202270507812e-01 1.160678505897521973e+00 5.499116778373718262e-01 1.564278751611709595e-01
4.134000000000000000e+03 5.584174346923828125e+01 1.498942375183105469e+01 3.570615351200103760e-01 4.761883020401000977e-01 2.499749511480331421e-01 -2.728152871131896973e-01
4.135000000000000000e+03 5.765660095214843750e+01 1.118177700042724609e+01 6.264999508857727051e-01 9.744527339935302734e-01 4.802857935428619385e-01 4.140846431255340576e-02
4.136000000000000000e+03 4.800835037231445312e+01 1.687484550476074219e+01 -8.225572109222412109e-02 6.608721613883972168e-02 -4.850551020354032516e-03 -6.806939840316772461e-01
4.137000000000000000e+03 5.422969436645507812e+01 1.606107139587402344e+01 1.873221844434738159e-01 3.053870201110839844e-01 1.478127539157867432e-01 -4.275110065937042236e-01
4.138000000000000000e+03 4.648975372314453125e+01 1.745405197143554688e+01 -1.515160799026489258e-01 3.069063648581504822e-02 -3.624763339757919312e-02 -7.082205414772033691e-01
4.139000000000000000e+03 5.657953262329101562e+01 1.404044723510742188e+01 4.755280911922454834e-01 6.285650134086608887e-01 3.312279284000396729e-01 -1.600250005722045898e-01
4.140000000000000000e+03 5.958698272705078125e+01 1.234486865997314453e+01 6.743398308753967285e-01 1.138805747032165527e+00 5.439437031745910645e-01 1.863081753253936768e-01
4.141000000000000000e+03 4.114617156982421875e+01 1.321773624420166016e+01 3.270930424332618713e-02 -9.132453054189682007e-02 -1.758456788957118988e-02 -6.751326918601989746e-01
4.142000000000000000e+03 6.161674118041992188e+01 1.493595504760742188e+01 6.571283936500549316e-01 1.186517953872680664e+00 5.530939102172851562e-01 3.132125735282897949e-01
4.143000000000000000e+03 6.247708129882812500e+01 1.555516338348388672e+01 6.531600356101989746e-01 1.263195514678955078e+00 5.749066472053527832e-01 3.903399109840393066e-01
4.144000000000000000e+03 4.340194320678710938e+01 2.757591962814331055e+00 3.213724493980407715e-01 1.493972539901733398e-01 1.412309110164642334e-01 -4.064273238182067871e-01
4.145000000000000000e+03 4.138505172729492188e+01 6.084110736846923828e+00 2.368657737970352173e-01 -3.304178267717361450e-02 6.114719435572624207e-02 -5.260337591171264648e-01
4.146000000000000000e+03 6.130960464477539062e+01 1.342238807678222656e+01 7.003597617149353027e-01 1.304426789283752441e+00 6.014359593391418457e-01 3.325627446174621582e-01
4.147000000000000000e+03 4.021577072143554688e+01 9.599349975585937500e+00 1.358672827482223511e-01 -1.224608868360519409e-01 4.021917935460805893e-03 -6.151597499847412109e-01
4.148000000000000000e+03 6.063463592529296875e+01 2.217162609100341797e+00 5.928214788436889648e-01 2.138064861297607422e+00 8.192659020423889160e-01 3.724937438964843750e-01
4.149000000000000000e+03 4.356557083129882812e+01 -1.442845463752746582e+00 3.262945711612701416e-01 2.566210627555847168e-01 1.748746931552886963e-01 -3.073194026947021484e-01
4.150000000000000000e+03 4.048591232299804688e+01 6.414244651794433594e+00 2.102310508489608765e-01 -8.082339912652969360e-02 3.882229700684547424e-02 -5.412197113037109375e-01
4.151000000000000000e+03 6.075298309326171875e+01 8.805557250976562500e+00 7.043617963790893555e-01 1.662541389465332031e+00 7.100709676742553711e-01 3.682705461978912354e-01
4.152000000000000000e+03 5.862620162963867188e+01 -1.908138632774353027e+00 5.016795992851257324e-01 1.996765017509460449e+00 7.495334148406982422e-01 2.518083155155181885e-01
4.153000000000000000e+03 6.040551757812500000e+01 1.284319305419921875e+01 6.855994462966918945e-01 1.210318803787231445e+00 5.687754750251770020e-01 2.564709782600402832e-01
4.154000000000000000e+03 5.847596359252929688e+01 1.374860000610351562e+01 5.777465105056762695e-01 8.592907786369323730e-01 4.311111867427825928e-01 2.717462182044982910e-02
4.155000000000000000e+03 5.800180816650390625e+01 1.952337473630905151e-01 5.586546659469604492e-01 1.798863768577575684e+00 7.072555422782897949e-01 2.367595583200454712e-01
4.156000000000000000e+03 4.168573760986328125e+01 4.524908542633056641e+00 2.611618936061859131e-01 2.530303550884127617e-03 7.910765707492828369e-02 -4.871185421943664551e-01
4.157000000000000000e+03 5.932365417480468750e+01 7.472377777099609375e+00 6.972020864486694336e-01 1.546973943710327148e+00 6.732528209686279297e-01 2.864728569984436035e-01
4.158000000000000000e+03 5.350419235229492188e+01 1.656335067749023438e+01 1.152001246809959412e-01 2.425380051136016846e-01 1.073214411735534668e-01 -4.898226261138916016e-01
4.159000000000000000e+03 5.462778472900390625e+01 1.778544998168945312e+01 2.397436462342739105e-02 2.217797487974166870e-01 7.372622936964035034e-02 -4.867843389511108398e-01
4.160000000000000000e+03 4.948899841308593750e+01 1.617337036132812500e+01 1.372142974287271500e-02 1.231562197208404541e-01 4.106329381465911865e-02 -6.310954093933105469e-01
4.161000000000000000e+03 5.032344055175781250e+01 1.557360363006591797e+01 9.147222340106964111e-02 1.620454788208007812e-01 7.605531066656112671e-02 -5.895529389381408691e-01
4.162000000000000000e+03 4.207633972167968750e+01 1.291580498218536377e-01 3.001770675182342529e-01 1.048649623990058899e-01 1.215126067399978638e-01 -3.723070621490478516e-01
4.163000000000000000e+03 4.334399795532226562e+01 1.587341427803039551e+00 3.301064968109130859e-01 1.690560430288314819e-01 1.497487574815750122e-01 -3.818417787551879883e-01
4.164000000000000000e+03 4.341902923583984375e+01 1.335919380187988281e+01 6.116475164890289307e-02 -1.649548299610614777e-02 1.340078096836805344e-02 -6.673957109451293945e-01
4.165000000000000000e+03 5.706943511962890625e+01 -1.110426998138427734e+01 3.115581870079040527e-01 2.038901090621948242e+00 7.051377296447753906e-01 1.465176045894622803e-01
4.166000000000000000e+03 5.991581726074218750e+01 -5.491636753082275391e+00 4.145315587520599365e-01 2.322326898574829102e+00 8.210575580596923828e-01 2.710127532482147217e-01
4.167000000000000000e+03 5.763394927978515625e+01 6.255916595458984375e+00 6.591843962669372559e-01 1.377572655677795410e+00 6.110271215438842773e-01 1.680870056152343750e-01
4.168000000000000000e+03 5.960832214355468750e+01 6.206750869750976562e+00 6.828802227973937988e-01 1.692560434341430664e+00 7.126321792602539062e-01 3.187610208988189697e-01
4.169000000000000000e+03 4.188363265991210938e+01 1.238193511962890625e+01 8.249731361865997314e-02 -6.311490386724472046e-02 5.814723204821348190e-03 -6.573374867439270020e-01
4.170000000000000000e+03 4.507594299316406250e+01 1.616286659240722656e+01 -6.904308497905731201e-02 8.176888339221477509e-03 -1.825985871255397797e-02 -7.009829878807067871e-01
4.171000000000000000e+03 6.036118316650390625e+01 -3.548843622207641602e+00 4.523462355136871338e-01 2.347739458084106445e+00 8.400257229804992676e-01 3.065471947193145752e-01
4.172000000000000000e+03 4.055171585083007812e+01 -9.584328651428222656e+00 2.308248728513717651e-01 1.307108998298645020e-01 1.084607318043708801e-01 -2.042061984539031982e-01
4.173000000000000000e+03 4.152903747558593750e+01 -1.102657127380371094e+01 2.302136719226837158e-01 2.416192293167114258e-01 1.415498703718185425e-01 -1.759805083274841309e-01
4.174000000000000000e+03 5.700279235839843750e+01 -1.280923557281494141e+01 2.903534173965454102e-01 2.092620134353637695e+00 7.148920893669128418e-01 1.321715563535690308e-01
4.175000000000000000e+03 5.869787216186523438e+01 -1.267936611175537109e+01 2.758910357952117920e-01 2.315058946609497070e+00 7.772850394248962402e-01 1.736821234226226807e-01
4.176000000000000000e+03 5.841860961914062500e+01 -8.640161514282226562e+00 3.564832210540771484e-01 2.182640552520751953e+00 7.617371678352355957e-01 2.007764577865600586e-01
4.177000000000000000e+03 5.882406616210937500e+01 -6.289038181304931641e+00 4.051618278026580811e-01 2.188337802886962891e+00 7.780499458312988281e-01 2.335937023162841797e-01
4.178000000000000000e+03 5.552085113525390625e+01 -2.613077878952026367e+00 4.961257874965667725e-01 1.586350440979003906e+00 6.247428655624389648e-01 1.218003481626510620e-01
4.179000000000000000e+03 4.475532913208007812e+01 1.672252082824707031e+01 -1.184783503413200378e-01 3.137270396109670401e-04 -3.544938936829566956e-02 -7.084181904792785645e-01
4.180000000000000000e+03 4.402960205078125000e+01 1.647073554992675781e+01 -1.059850156307220459e-01 -1.383857056498527527e-02 -3.594707325100898743e-02 -7.108858823776245117e-01
4.181000000000000000e+03 6.073772811889648438e+01 1.431038284301757812e+01 6.492351293563842773e-01 1.099596858024597168e+00 5.246496200561523438e-01 2.378163784742355347e-01
4.182000000000000000e+03 4.723431777954101562e+01 1.714685440063476562e+01 -1.148167774081230164e-01 4.717694595456123352e-02 -2.029195055365562439e-02 -6.969764232635498047e-01
4.183000000000000000e+03 5.955762863159179688e+01 1.601376724243164062e+01 4.794692695140838623e-01 7.452484369277954102e-01 3.674153089523315430e-01 2.056180126965045929e-02
4.184000000000000000e+03 5.927697372436523438e+01 1.449269104003906250e+01 5.724554061889648438e-01 8.808305263519287109e-01 4.359857738018035889e-01 7.112497836351394653e-02
4.185000000000000000e+03 5.567193984985351562e+01 1.401686382293701172e+01 4.350720047950744629e-01 5.423762798309326172e-01 2.932344973087310791e-01 -2.348662465810775757e-01
4.186000000000000000e+03 5.485097885131835938e+01 1.504660701751708984e+01 3.129886686801910400e-01 4.041903316974639893e-01 2.151537090539932251e-01 -3.429908454418182373e-01
4.187000000000000000e+03 5.461928176879882812e+01 1.405330657958984375e+01 3.794352114200592041e-01 4.603481292724609375e-01 2.519350051879882812e-01 -3.128043711185455322e-01
4.188000000000000000e+03 5.722635269165039062e+01 1.371280574798583984e+01 5.122889280319213867e-01 7.036695480346679688e-01 3.647875487804412842e-01 -1.028499007225036621e-01
4.189000000000000000e+03 4.439381790161132812e+01 1.567922687530517578e+01 -4.669530317187309265e-02 -3.309271414764225483e-04 -1.410786900669336319e-02 -6.996223926544189453e-01
4.190000000000000000e+03 4.185215759277343750e+01 7.167531967163085938e+00 2.287775278091430664e-01 -1.878858357667922974e-02 6.299668550491333008e-02 -5.446481108665466309e-01
4.191000000000000000e+03 4.215682983398437500e+01 8.259521484375000000e+00 2.168942987918853760e-01 -1.364446338266134262e-02 6.097495183348655701e-02 -5.677248239517211914e-01
4.192000000000000000e+03 5.719654846191406250e+01 3.263991832733154297e+00 6.186243891716003418e-01 1.501877069473266602e+00 6.361504197120666504e-01 1.735034883022308350e-01
4.193000000000000000e+03 5.633544921875000000e+01 2.358694553375244141e+00 5.951038599014282227e-01 1.435146570205688477e+00 6.090751290321350098e-01 1.328532695770263672e-01
4.194000000000000000e+03 5.987505340576171875e+01 1.368175792694091797e+01 6.406647562980651855e-01 1.040937423706054688e+00 5.044806599617004395e-01 1.667288243770599365e-01
4.195000000000000000e+03 4.277153396606445312e+01 4.103238582611083984e+00 2.903967797756195068e-01 7.663360238075256348e-02 1.101091206073760986e-01 -4.577542841434478760e-01
4.196000000000000000e+03 4.301856613159179688e+01 6.924220561981201172e+00 2.646645009517669678e-01 4.908186569809913635e-02 9.412390738725662231e-02 -5.246632099151611328e-01
4.197000000000000000e+03 4.502460861206054688e+01 1.365880870819091797e+01 7.777325063943862915e-02 3.475622460246086121e-02 3.375884145498275757e-02 -6.568717360496520996e-01
4.198000000000000000e+03 5.187657165527343750e+01 1.630369949340820312e+01 7.711223512887954712e-02 1.894475221633911133e-01 7.996793091297149658e-02 -5.543771982192993164e-01
4.199000000000000000e+03 4.455854797363281250e+01 1.723296999931335449e+00 3.589803874492645264e-01 2.627635598182678223e-01 1.865231841802597046e-01 -3.560985922813415527e-01
4.200000000000000000e+03 4.443134307861328125e+01 2.915852308273315430e+00 3.518392741680145264e-01 2.280175387859344482e-01 1.739570498466491699e-01 -3.896143138408660889e-01
4.201000000000000000e+03 5.820113372802734375e+01 7.538918018341064453e+00 6.742730736732482910e-01 1.356803655624389648e+00 6.093230247497558594e-01 1.842605918645858765e-01
4.202000000000000000e+03 5.948539733886718750e+01 4.423113346099853516e+00 6.521319746971130371e-01 1.811188220977783203e+00 7.389960289001464844e-01 3.196027278900146484e-01
4.203000000000000000e+03 5.790319442749023438e+01 4.308383464813232422e+00 6.404119133949279785e-01 1.546873807907104492e+00 6.561856865882873535e-01 2.109127491712570190e-01
4.204000000000000000e+03 5.831158828735351562e+01 -4.931751251220703125e+00 4.302714467048645020e-01 2.061639070510864258e+00 7.475731968879699707e-01 2.153649330139160156e-01
4.205000000000000000e+03 5.702447891235351562e+01 -3.728293895721435547e+00 4.746580421924591064e-01 1.825648903846740723e+00 6.900920867919921875e-01 1.837518960237503052e-01
4.206000000000000000e+03 5.352204895019531250e+01 1.430702877044677734e+01 3.070890009403228760e-01 3.656294047832489014e-01 2.018155157566070557e-01 -3.962841928005218506e-01
4.207000000000000000e+03 4.690515136718750000e+01 1.615806198120117188e+01 -4.074802622199058533e-02 5.241521820425987244e-02 3.500157501548528671e-03 -6.842809915542602539e-01
4.208000000000000000e+03 4.709975051879882812e+01 1.346492671966552734e+01 1.384779661893844604e-01 1.067301109433174133e-01 7.356242090463638306e-02 -6.185985207557678223e-01
4.209000000000000000e+03 4.159692764282226562e+01 1.055058670043945312e+01 1.366437077522277832e-01 -6.524105370044708252e-02 2.142079733312129974e-02 -6.287742853164672852e-01
4.210000000000000000e+03 4.339294433593750000e+01 1.925891637802124023e-01 3.243509531021118164e-01 1.990001201629638672e-01 1.570053249597549438e-01 -3.510289788246154785e-01
4.211000000000000000e+03 5.706602096557617188e+01 -6.056334376335144043e-01 5.411839485168457031e-01 1.694658279418945312e+00 6.707526445388793945e-01 1.880294233560562134e-01
4.212000000000000000e+03 5.573501586914062500e+01 -1.075131702423095703e+01 3.244395852088928223e-01 1.902936577796936035e+00 6.682128310203552246e-01 1.087561920285224915e-01
4.213000000000000000e+03 3.998429870605468750e+01 -1.221485710144042969e+01 1.867617666721343994e-01 7.026164978742599487e-02 7.710702717304229736e-02 -1.791745573282241821e-01
4.214000000000000000e+03 4.169927215576171875e+01 -1.279577732086181641e+01 2.103087753057479858e-01 2.778125703334808350e-01 1.464363932609558105e-01 -1.465947926044464111e-01
4.215000000000000000e+03 4.860165786743164062e+01 1.455806446075439453e+01 1.129689142107963562e-01 1.341569274663925171e-01 7.413775473833084106e-02 -6.084309816360473633e-01
4.216000000000000000e+03 4.979474639892578125e+01 1.430690765380859375e+01 1.655149310827255249e-01 1.877420395612716675e-01 1.059770956635475159e-01 -5.671938657760620117e-01
4.217000000000000000e+03 5.387216567993164062e+01 1.527919483184814453e+01 2.494121342897415161e-01 3.329029679298400879e-01 1.746945232152938843e-01 -4.187543988227844238e-01
4.218000000000000000e+03 5.644421386718750000e+01 4.015140056610107422e+00 6.179605126380920410e-01 1.362263083457946777e+00 5.940670967102050781e-01 1.225450411438941956e-01
4.219000000000000000e+03 5.566328811645507812e+01 4.373975276947021484e+00 6.031447052955627441e-01 1.233440995216369629e+00 5.509757399559020996e-01 6.112768873572349548e-02
4.220000000000000000e+03 5.618048477172851562e+01 4.182926416397094727e-01 5.492584109306335449e-01 1.526118516921997070e+00 6.226130723953247070e-01 1.345631778240203857e-01
4.221000000000000000e+03 5.770188522338867188e+01 1.297654056549072266e+01 5.730038285255432129e-01 8.304721117019653320e-01 4.210427701473236084e-01 -1.867385953664779663e-02
4.222000000000000000e+03 4.451815032958984375e+01 1.268505191802978516e+01 1.161185875535011292e-01 2.806814014911651611e-02 4.325601831078529358e-02 -6.447652578353881836e-01
4.223000000000000000e+03 4.567110061645507812e+01 1.568814468383789062e+01 -3.138889372348785400e-02 2.559168078005313873e-02 -1.739163417369127274e-03 -6.893563270568847656e-01
4.224000000000000000e+03 5.616761016845703125e+01 1.082086181640625000e+01 5.835146903991699219e-01 8.351486325263977051e-01 4.255990087985992432e-01 -6.484825909137725830e-02
4.225000000000000000e+03 4.414836883544921875e+01 1.429272556304931641e+01 3.327969461679458618e-02 9.083063923753798008e-05 1.001115795224905014e-02 -6.801597476005554199e-01
4.226000000000000000e+03 4.411373138427734375e+01 1.151471614837646484e+01 1.553361862897872925e-01 2.610236778855323792e-02 5.443156510591506958e-02 -6.223362684249877930e-01
4.227000000000000000e+03 5.865455627441406250e+01 5.396749496459960938e+00 6.665977835655212402e-01 1.593690991401672363e+00 6.780866384506225586e-01 2.577790915966033936e-01
4.228000000000000000e+03 4.246445083618164062e+01 5.707823276519775391e+00 2.682172656059265137e-01 3.577365726232528687e-02 9.119727462530136108e-02 -5.014171600341796875e-01
4.229000000000000000e+03 4.328336334228515625e+01 8.111552238464355469e+00 2.440353333950042725e-01 4.746022820472717285e-02 8.744866400957107544e-02 -5.479173064231872559e-01
4.230000000000000000e+03 5.725892639160156250e+01 -2.404127836227416992e+00 5.025777816772460938e-01 1.803654193878173828e+00 6.918696165084838867e-01 1.945688426494598389e-01
4.231000000000000000e+03 5.593587493896484375e+01 -5.383951187133789062e+00 4.370929002761840820e-01 1.746034383773803711e+00 6.549382209777832031e-01 1.485771089792251587e-01
4.232000000000000000e+03 4.468106079101562500e+01 4.321129918098449707e-01 3.524198830127716064e-01 3.102687895298004150e-01 1.988065987825393677e-01 -3.251019716262817383e-01
4.233000000000000000e+03 4.318381881713867188e+01 1.623444175720214844e+01 -9.895017743110656738e-02 -3.467074409127235413e-02 -4.008627682924270630e-02 -7.093330621719360352e-01
4.234000000000000000e+03 4.664156341552734375e+01 1.097357654571533203e+01 2.509955465793609619e-01 1.503885835409164429e-01 1.204152405261993408e-01 -5.573880672454833984e-01
4.235000000000000000e+03 4.290537261962890625e+01 1.159366512298583984e+01 1.252306252717971802e-01 -2.129628136754035950e-02 3.118030168116092682e-02 -6.385305523872375488e-01
4.236000000000000000e+03 5.782389068603515625e+01 -1.438751220703125000e+00 5.150315165519714355e-01 1.839152574539184570e+00 7.062551975250244141e-01 2.200133353471755981e-01
4.237000000000000000e+03 5.628280258178710938e+01 -1.646737337112426758e+00 5.131375193595886230e-01 1.635650753974914551e+00 6.446364521980285645e-01 1.502826213836669922e-01
4.238000000000000000e+03 4.742027664184570312e+01 1.470645332336425781e+01 6.639660149812698364e-02 8.951883018016815186e-02 4.677462950348854065e-02 -6.415737867355346680e-01
4.239000000000000000e+03 4.153587722778320312e+01 -3.318795204162597656e+00 2.825989127159118652e-01 1.236785277724266052e-01 1.218832284212112427e-01 -3.059346079826354980e-01
4.240000000000000000e+03 4.242807388305664062e+01 9.366982460021972656e+00 1.927106827497482300e-01 -1.466502249240875244e-02 5.341369658708572388e-02 -5.921430587768554688e-01
4.241000000000000000e+03 5.532250213623046875e+01 -1.237768936157226562e+01 2.969965636730194092e-01 1.865379571914672852e+00 6.487128138542175293e-01 1.020903363823890686e-01
4.242000000000000000e+03 4.311896896362304688e+01 -9.775806427001953125e+00 2.578948736190795898e-01 3.738277256488800049e-01 1.895167827606201172e-01 -1.631578356027603149e-01
4.243000000000000000e+03 5.676801300048828125e+01 1.160660839080810547e+01 5.900504589080810547e-01 8.551054596900939941e-01 4.335467815399169922e-01 -4.148541018366813660e-02
4.244000000000000000e+03 5.659326934814453125e+01 1.333653354644775391e+01 5.046367645263671875e-01 6.813778877258300781e-01 3.558043837547302246e-01 -1.324680596590042114e-01
4.245000000000000000e+03 4.380802154541015625e+01 1.035529041290283203e+01 1.962149441242218018e-01 3.201498836278915405e-02 6.846898049116134644e-02 -5.982341170310974121e-01
4.246000000000000000e+03 5.289925384521484375e+01 1.577808475494384766e+01 1.602021008729934692e-01 2.581151723861694336e-01 1.254951804876327515e-01 -4.905302822589874268e-01
4.247000000000000000e+03 5.682985687255859375e+01 1.255134487152099609e+01 5.557820796966552734e-01 7.797449827194213867e-01 4.006581306457519531e-01 -7.901208847761154175e-02
4.248000000000000000e+03 4.826728439331054688e+01 1.330793476104736328e+01 1.808759868144989014e-01 1.563548296689987183e-01 1.011692434549331665e-01 -5.817586183547973633e-01
4.249000000000000000e+03 5.092012405395507812e+01 1.388193988800048828e+01 2.348898351192474365e-01 2.555875778198242188e-01 1.471432149410247803e-01 -5.075399875640869141e-01
4.250000000000000000e+03 5.599454879760742188e+01 5.534937858581542969e+00 6.231277585029602051e-01 1.195458769798278809e+00 5.455759763717651367e-01 6.079217046499252319e-02
4.251000000000000000e+03 5.137783050537109375e+01 1.510904884338378906e+01 1.642371714115142822e-01 2.266660928726196289e-01 1.172709837555885315e-01 -5.310170054435729980e-01
4.252000000000000000e+03 5.829892349243164062e+01 1.221111583709716797e+01 6.328424811363220215e-01 9.744052886962890625e-01 4.821743369102478027e-01 7.003340870141983032e-02
4.253000000000000000e+03 5.906235122680664062e+01 1.301143360137939453e+01 6.312687397003173828e-01 9.994926452636718750e-01 4.892283976078033447e-01 1.144171357154846191e-01
4.254000000000000000e+03 5.707969665527343750e+01 8.211105346679687500e+00 6.476292610168457031e-01 1.155325889587402344e+00 5.408865213394165039e-01 7.946224510669708252e-02
4.255000000000000000e+03 5.797291183471679688e+01 9.416714668273925781e+00 6.713338494300842285e-01 1.174553155899047852e+00 5.537660717964172363e-01 1.340924352407455444e-01
4.256000000000000000e+03 4.598112869262695312e+01 1.347691726684570312e+01 1.065592765808105469e-01 6.695836037397384644e-02 5.205529183149337769e-02 -6.395471692085266113e-01
4.257000000000000000e+03 4.572920989990234375e+01 6.978699684143066406e+00 3.348158001899719238e-01 2.102930843830108643e-01 1.635326743125915527e-01 -4.645126760005950928e-01
4.258000000000000000e+03 4.798464584350585938e+01 1.214385509490966797e+01 2.354732453823089600e-01 1.811175197362899780e-01 1.249772310256958008e-01 -5.565389990806579590e-01
4.259000000000000000e+03 4.422093200683593750e+01 -3.011393547058105469e+00 3.329542577266693115e-01 3.491677641868591309e-01 2.046366035938262939e-01 -2.598076164722442627e-01
4.260000000000000000e+03 4.594188308715820312e+01 7.078378200531005859e-01 3.815424144268035889e-01 4.107846915721893311e-01 2.376981228590011597e-01 -2.970345318317413330e-01
4.261000000000000000e+03 5.527125930786132812e+01 -6.030552387237548828e-01 5.307065844535827637e-01 1.457552552223205566e+00 5.964777469635009766e-01 1.017921045422554016e-01
4.262000000000000000e+03 5.721329498291015625e+01 1.331513881683349609e+00 5.748842358589172363e-01 1.622227072715759277e+00 6.591333746910095215e-01 1.882571130990982056e-01
4.263000000000000000e+03 4.494119262695312500e+01 -8.961822390556335449e-01 3.623187243938446045e-01 3.712017238140106201e-01 2.200561314821243286e-01 -2.855781018733978271e-01
4.264000000000000000e+03 5.167335510253906250e+01 -9.857089996337890625e+00 3.477914929389953613e-01 1.329269766807556152e+00 5.031183958053588867e-01 1.253700070083141327e-02
4.265000000000000000e+03 5.447607040405273438e+01 -9.940468788146972656e+00 3.560622632503509521e-01 1.676335811614990234e+00 6.097194552421569824e-01 9.187762439250946045e-02
4.266000000000000000e+03 5.243872070312500000e+01 1.467940330505371094e+01 2.339390367269515991e-01 2.851896882057189941e-01 1.557386219501495361e-01 -4.689435362815856934e-01
4.267000000000000000e+03 5.521295547485351562e+01 1.267200088500976562e+01 4.863843321800231934e-01 6.008794903755187988e-01 3.261791467666625977e-01 -2.041585892438888550e-01
4.268000000000000000e+03 4.537356948852539062e+01 1.116366958618164062e+01 2.068531662225723267e-01 8.863890171051025391e-02 8.864761888980865479e-02 -5.890389680862426758e-01
4.269000000000000000e+03 4.807989883422851562e+01 8.673753738403320312e+00 3.604643642902374268e-01 2.967037558555603027e-01 1.971504390239715576e-01 -4.465371072292327881e-01
4.270000000000000000e+03 5.319402694702148438e+01 1.322248077392578125e+01 3.635826408863067627e-01 4.055796265602111816e-01 2.307486832141876221e-01 -3.662109076976776123e-01
4.271000000000000000e+03 5.204140853881835938e+01 1.351153087615966797e+01 2.971117794513702393e-01 3.278764188289642334e-01 1.874964684247970581e-01 -4.435321390628814697e-01
4.272000000000000000e+03 5.642378616333007812e+01 6.876427173614501953e+00 6.335623860359191895e-01 1.154533386230468750e+00 5.364287495613098145e-01 6.258056312799453735e-02
4.273000000000000000e+03 5.699054336547851562e+01 5.047271251678466797e+00 6.360290050506591797e-01 1.369592666625976562e+00 6.016864776611328125e-01 1.405749320983886719e-01
4.274000000000000000e+03 5.469390869140625000e+01 2.964377880096435547e+00 5.800721645355224609e-01 1.195968866348266602e+00 5.328123569488525391e-01 3.212710842490196228e-02
4.275000000000000000e+03 5.579206848144531250e+01 1.318863201141357422e+01 4.837926030158996582e-01 6.235077977180480957e-01 3.321901261806488037e-01 -1.894565820693969727e-01
4.276000000000000000e+03 5.432211685180664062e+01 1.299765205383300781e+01 4.283722043037414551e-01 5.082718729972839355e-01 2.809932231903076172e-01 -2.838945984840393066e-01
4.277000000000000000e+03 5.697819519042968750e+01 1.009741306304931641e+01 6.234104037284851074e-01 9.938930273056030273e-01 4.851910173892974854e-01 2.275136858224868774e-02
4.278000000000000000e+03 4.382398605346679688e+01 3.689741611480712891e+00 3.318065106868743896e-01 1.684122979640960693e-01 1.500656455755233765e-01 -4.230648875236511230e-01
4.279000000000000000e+03 4.455441665649414062e+01 9.136728286743164062e+00 2.509053349494934082e-01 9.017787873744964600e-02 1.023249626159667969e-01 -5.521543025970458984e-01
4.280000000000000000e+03 4.298875808715820312e+01 -4.295683383941650391e+00 3.062735795974731445e-01 2.644400000572204590e-01 1.712140738964080811e-01 -2.636851072311401367e-01
4.281000000000000000e+03 4.551227188110351562e+01 -2.108820438385009766e+00 3.683200180530548096e-01 4.496490359306335449e-01 2.453907132148742676e-01 -2.451255321502685547e-01
4.282000000000000000e+03 5.450371932983398438e+01 -1.750323891639709473e+00 5.073861479759216309e-01 1.408784985542297363e+00 5.748513340950012207e-01 7.560149580240249634e-02
4.283000000000000000e+03 4.575558090209960938e+01 1.928658485412597656e+00 3.884470164775848389e-01 3.661194741725921631e-01 2.263699471950531006e-01 -3.299214541912078857e-01
4.284000000000000000e+03 4.559636306762695312e+01 3.179223775863647461e+00 3.775606155395507812e-01 3.049810230731964111e-01 2.047624886035919189e-01 -3.698387742042541504e-01
4.285000000000000000e+03 4.568266296386718750e+01 8.176703453063964844e+00 3.101304769515991211e-01 1.754114329814910889e-01 1.456625759601593018e-01 -4.986909329891204834e-01
4.286000000000000000e+03 5.528729248046875000e+01 1.016590976715087891e+01 5.653791427612304688e-01 7.864490747451782227e-01 4.055484831333160400e-01 -1.089334189891815186e-01
4.287000000000000000e+03 5.588616561889648438e+01 -7.298717021942138672e+00 3.977854549884796143e-01 1.803912162780761719e+00 6.605092883110046387e-01 1.389504224061965942e-01
4.288000000000000000e+03 5.320701217651367188e+01 -8.641387939453125000e+00 3.667133748531341553e-01 1.487318038940429688e+00 5.562094449996948242e-01 5.578823015093803406e-02
4.289000000000000000e+03 5.609444808959960938e+01 -1.664817428588867188e+01 2.342123538255691528e-01 2.035644054412841797e+00 6.809569001197814941e-01 1.016844809055328369e-01
4.290000000000000000e+03 3.892193984985351562e+01 -1.421994209289550781e+01 1.711292415857315063e-01 -4.398949444293975830e-03 5.001908913254737854e-02 -1.659873574972152710e-01
4.291000000000000000e+03 4.095081329345703125e+01 -1.495911407470703125e+01 1.928100883960723877e-01 2.316562384366989136e-01 1.273398995399475098e-01 -1.308484971523284912e-01
4.292000000000000000e+03 4.461320877075195312e+01 -1.096693706512451172e+01 2.646515667438507080e-01 5.468516349792480469e-01 2.434509545564651489e-01 -1.276360154151916504e-01
4.293000000000000000e+03 5.595774459838867188e+01 1.247269916534423828e+01 5.246019959449768066e-01 6.985733509063720703e-01 3.669525980949401855e-01 -1.469326168298721313e-01
4.294000000000000000e+03 5.494622802734375000e+01 5.760758399963378906e+00 6.072139739990234375e-01 1.055380702018737793e+00 4.987784028053283691e-01 -2.884759567677974701e-03
4.295000000000000000e+03 5.517073440551757812e+01 7.132574558258056641e+00 6.063643097877502441e-01 9.908261299133300781e-01 4.791571497917175293e-01 -2.230564877390861511e-02
4.296000000000000000e+03 5.608257675170898438e+01 9.108358383178710938e+00 6.229734420776367188e-01 9.623253941535949707e-01 4.755896627902984619e-01 -1.055595651268959045e-02
4.297000000000000000e+03 5.049349975585937500e+01 1.260452270507812500e+01 2.942080795764923096e-01 2.871284484863281250e-01 1.744009554386138916e-01 -4.775215089321136475e-01
4.298000000000000000e+03 4.686159896850585938e+01 1.222860717773437500e+01 2.007478326559066772e-01 1.272547841072082520e-01 9.840078651905059814e-02 -5.886611938476562500e-01
4.299000000000000000e+03 4.986003112792968750e+01 1.156861877441406250e+01 3.286233246326446533e-01 2.992790043354034424e-01 1.883707046508789062e-01 -4.678264856338500977e-01
4.300000000000000000e+03 4.690724945068359375e+01 2.092048168182373047e+00 4.104902446269989014e-01 4.515827298164367676e-01 2.586219012737274170e-01 -2.999504804611206055e-01
4.301000000000000000e+03 4.855213165283203125e+01 1.322053313255310059e+00 4.546421170234680176e-01 6.205784082412719727e-01 3.225661516189575195e-01 -2.187930345535278320e-01
4.302000000000000000e+03 5.344784545898437500e+01 2.995709419250488281e+00 5.616742372512817383e-01 1.053450584411621094e+00 4.845374524593353271e-01 -3.110219538211822510e-02
4.303000000000000000e+03 4.442935562133789062e+01 5.711910247802734375e+00 3.169578909873962402e-01 1.561757624149322510e-01 1.419401019811630249e-01 -4.668194353580474854e-01
4.304000000000000000e+03 4.570673751831054688e+01 1.236738967895507812e+01 1.674768626689910889e-01 7.977693527936935425e-02 7.417614012956619263e-02 -6.169508099555969238e-01
4.305000000000000000e+03 5.446109771728515625e+01 1.105752754211425781e+01 5.127104520797729492e-01 6.391846537590026855e-01 3.455685377120971680e-01 -2.008819431066513062e-01
4.306000000000000000e+03 5.499267578125000000e+01 1.177630519866943359e+01 5.118886232376098633e-01 6.431066393852233887e-01 3.464985787868499756e-01 -1.833730787038803101e-01
4.307000000000000000e+03 5.358403015136718750e+01 9.097226142883300781e+00 5.455255508422851562e-01 7.033903002738952637e-01 3.746747374534606934e-01 -1.810204088687896729e-01
4.308000000000000000e+03 4.572842788696289062e+01 5.748782634735107422e+00 3.510631918907165527e-01 2.382824867963790894e-01 1.768037080764770508e-01 -4.331104755401611328e-01
4.309000000000000000e+03 4.437748336791992188e+01 4.642643928527832031e+00 3.303188979625701904e-01 1.833676993846893311e-01 1.541059762239456177e-01 -4.364810585975646973e-01
4.310000000000000000e+03 4.667353439331054688e+01 9.676877975463867188e+00 2.938724458217620850e-01 1.867359429597854614e-01 1.441825181245803833e-01 -5.181558728218078613e-01
4.311000000000000000e+03 4.490171432495117188e+01 1.008711814880371094e+01 2.337536364793777466e-01 8.884889632463455200e-02 9.678076207637786865e-02 -5.704677700996398926e-01
4.312000000000000000e+03 5.269948959350585938e+01 -2.290103912353515625e+00 4.803761243820190430e-01 1.208923935890197754e+00 5.067899823188781738e-01 -1.835654140450060368e-03
4.313000000000000000e+03 5.465091705322265625e+01 -5.112197875976562500e+00 4.426217675209045410e-01 1.570594549179077148e+00 6.039648652076721191e-01 9.583283960819244385e-02
4.314000000000000000e+03 5.333317184448242188e+01 -8.825159072875976562e-01 5.060213208198547363e-01 1.225224494934082031e+00 5.193737745285034180e-01 1.070815138518810272e-02
4.315000000000000000e+03 4.572169876098632812e+01 -9.112557411193847656e+00 3.017359972000122070e-01 6.334074735641479492e-01 2.805430293083190918e-01 -1.256690174341201782e-01
4.316000000000000000e+03 5.325823593139648438e+01 -1.366584300994873047e+01 2.796001434326171875e-01 1.610497117042541504e+00 5.670291781425476074e-01 5.470999702811241150e-02
4.317000000000000000e+03 5.073380661010742188e+01 -6.459572315216064453e+00 3.924109637737274170e-01 1.106564044952392578e+00 4.496924877166748047e-01 -3.222109004855155945e-02
4.318000000000000000e+03 5.419018173217773438e+01 -6.872189044952392578e+00 4.040381312370300293e-01 1.571672797203063965e+00 5.927132368087768555e-01 7.888599485158920288e-02
4.319000000000000000e+03 5.931787490844726562e+01 -1.768592834472656250e+01 1.982729434967041016e-01 2.478899002075195312e+00 8.031516075134277344e-01 1.402115672826766968e-01
4.320000000000000000e+03 4.435860824584960938e+01 6.857056617736816406e+00 2.994109988212585449e-01 1.259103566408157349e-01 1.275964081287384033e-01 -4.954255819320678711e-01
4.321000000000000000e+03 5.407840728759765625e+01 1.195505905151367188e+01 4.621780216693878174e-01 5.531114935874938965e-01 3.045868575572967529e-01 -2.620591819286346436e-01
4.322000000000000000e+03 5.440585327148437500e+01 9.539072990417480469e+00 5.618523359298706055e-01 7.480804920196533203e-01 3.929798603057861328e-01 -1.428270488977432251e-01
4.323000000000000000e+03 4.913818359375000000e+01 1.011780738830566406e+01 3.527870476245880127e-01 3.134610354900360107e-01 1.998744159936904907e-01 -4.535679817199707031e-01
4.324000000000000000e+03 4.893453216552734375e+01 1.110931968688964844e+01 3.237169086933135986e-01 2.683360576629638672e-01 1.776158809661865234e-01 -4.864173829555511475e-01
4.325000000000000000e+03 5.398111724853515625e+01 7.089618206024169922e+00 5.721120238304138184e-01 8.536108732223510742e-01 4.277168810367584229e-01 -1.011735871434211731e-01
4.326000000000000000e+03 4.696071243286132812e+01 4.382617473602294922e+00 4.021132290363311768e-01 3.799266517162322998e-01 2.346119582653045654e-01 -3.520977497100830078e-01
4.327000000000000000e+03 5.167957687377929688e+01 1.225349235534667969e+01 3.526137173175811768e-01 3.712326586246490479e-01 2.171539068222045898e-01 -4.134710133075714111e-01
4.328000000000000000e+03 4.726696014404296875e+01 8.892862796783447266e-01 4.244500100612640381e-01 5.227376222610473633e-01 2.841562926769256592e-01 -2.570837736129760742e-01
4.329000000000000000e+03 5.120383453369140625e+01 4.095888137817382812e+00 5.188502669334411621e-01 7.521520256996154785e-01 3.813006877899169922e-01 -1.740478575229644775e-01
4.330000000000000000e+03 4.704278182983398438e+01 7.107646942138671875e+00 3.696322441101074219e-01 2.880405485630035400e-01 1.973018348217010498e-01 -4.301120936870574951e-01
4.331000000000000000e+03 5.287774658203125000e+01 1.425042629241943359e+00 5.376821756362915039e-01 1.063100695610046387e+00 4.802348613739013672e-01 -3.509280458092689514e-02
4.332000000000000000e+03 4.736645126342773438e+01 -2.094746112823486328e+00 3.977356553077697754e-01 6.144629716873168945e-01 3.036595880985260010e-01 -1.998054683208465576e-01
4.333000000000000000e+03 4.657011032104492188e+01 -1.311153292655944824e+00 3.946980834007263184e-01 5.341035723686218262e-01 2.786404788494110107e-01 -2.276591956615447998e-01
4.334000000000000000e+03 5.415977859497070312e+01 4.918104112148284912e-01 5.364674925804138184e-01 1.257601976394653320e+00 5.382208824157714844e-01 3.466457128524780273e-02
4.335000000000000000e+03 5.523170471191406250e+01 1.569553256034851074e+00 5.669516324996948242e-01 1.332095026969909668e+00 5.697140097618103027e-01 7.658557593822479248e-02
4.336000000000000000e+03 4.530188751220703125e+01 -4.247989177703857422e+00 3.463017344474792480e-01 4.826796948909759521e-01 2.486944347620010376e-01 -2.102251350879669189e-01
4.337000000000000000e+03 5.138561248779296875e+01 -1.565945863723754883e+00 4.745127558708190918e-01 1.015655279159545898e+00 4.470503926277160645e-01 -6.477878242731094360e-02
4.338000000000000000e+03 4.637171554565429688e+01 -3.141891717910766602e+00 3.702611923217773438e-01 5.579475760459899902e-01 2.784626483917236328e-01 -2.050242573022842407e-01
4.339000000000000000e+03 5.295078659057617188e+01 1.205454349517822266e+01 4.239287972450256348e-01 4.678988158702850342e-01 2.675482928752899170e-01 -3.253351747989654541e-01
4.340000000000000000e+03 5.716589736938476562e+01 -5.282591819763183594e+00 4.300571084022521973e-01 1.897535204887390137e+00 6.982777118682861328e-01 1.768623143434524536e-01
4.341000000000000000e+03 5.499531555175781250e+01 8.444823265075683594e+00 5.979997515678405762e-01 8.923603296279907227e-01 4.471080303192138672e-01 -6.581651419401168823e-02
4.342000000000000000e+03 5.386420059204101562e+01 8.179814338684082031e+00 5.629381537437438965e-01 7.827737331390380859e-01 4.037135541439056396e-01 -1.379706710577011108e-01
4.343000000000000000e+03 4.785298919677734375e+01 1.100730419158935547e+01 2.895398437976837158e-01 2.121652960777282715e-01 1.505115479230880737e-01 -5.224652886390686035e-01
4.344000000000000000e+03 4.931207275390625000e+01 8.980916023254394531e+00 3.964588940143585205e-01 3.666432797908782959e-01 2.289306521415710449e-01 -4.090716540813446045e-01
4.345000000000000000e+03 5.497050476074218750e+01 -3.651879072189331055e+00 4.659157991409301758e-01 1.544705629348754883e+00 6.031864285469055176e-01 1.030767560005187988e-01
4.346000000000000000e+03 4.953361892700195312e+01 5.546097755432128906e+00 4.642138481140136719e-01 5.414265394210815430e-01 3.016921281814575195e-01 -2.884252071380615234e-01
4.347000000000000000e+03 5.369389724731445312e+01 4.522707939147949219e+00 5.793225765228271484e-01 9.899315237998962402e-01 4.707762300968170166e-01 -4.730771109461784363e-02
4.348000000000000000e+03 5.038919067382812500e+01 1.055184364318847656e+01 3.840698897838592529e-01 3.736342787742614746e-01 2.273112535476684570e-01 -4.103619158267974854e-01
4.349000000000000000e+03 5.217103195190429688e+01 1.017275238037109375e+01 4.563412070274353027e-01 5.206862092018127441e-01 2.931082248687744141e-01 -3.053062856197357178e-01
4.350000000000000000e+03 4.562134170532226562e+01 4.468307018280029297e+00 3.650004267692565918e-01 2.674040198326110840e-01 1.897213310003280640e-01 -3.984966576099395752e-01
4.351000000000000000e+03 4.810596847534179688e+01 4.414460182189941406e+00 4.283608496189117432e-01 4.544183313846588135e-01 2.648337483406066895e-01 -3.182313442230224609e-01
4.352000000000000000e+03 4.554542922973632812e+01 9.338504791259765625e+00 2.719089984893798828e-01 1.346786022186279297e-01 1.219762861728668213e-01 -5.359569191932678223e-01
4.353000000000000000e+03 4.687594985961914062e+01 8.404494285583496094e+00 3.373219370841979980e-01 2.377231866121292114e-01 1.725135445594787598e-01 -4.726169407367706299e-01
4.354000000000000000e+03 4.703233718872070312e+01 5.749372005462646484e+00 3.901271224021911621e-01 3.324578702449798584e-01 2.167755067348480225e-01 -3.917538821697235107e-01
4.355000000000000000e+03 4.791789245605468750e+01 9.861400604248046875e+00 3.278892636299133301e-01 2.510730028152465820e-01 1.736886799335479736e-01 -4.845003783702850342e-01
4.356000000000000000e+03 5.030828094482421875e+01 -4.406862258911132812e+00 4.209285676479339600e-01 1.002365469932556152e+00 4.269882142543792725e-01 -6.382412463426589966e-02
4.357000000000000000e+03 5.213872909545898438e+01 -3.741154909133911133e+00 4.511006474494934082e-01 1.182737469673156738e+00 4.901514351367950439e-01 -9.914271533489227295e-03
4.358000000000000000e+03 5.068096542358398438e+01 9.585275053977966309e-01 4.968641698360443115e-01 8.450129032135009766e-01 4.025631248950958252e-01 -1.271203458309173584e-01
4.359000000000000000e+03 5.198973464965820312e+01 -4.314198344945907593e-02 5.026373267173767090e-01 1.027728676795959473e+00 4.591097831726074219e-01 -5.782786384224891663e-02
4.360000000000000000e+03 5.337570571899414062e+01 -4.490680694580078125e+00 4.432165622711181641e-01 1.377787232398986816e+00 5.463011264801025391e-01 3.577066957950592041e-02
4.361000000000000000e+03 5.389358520507812500e+01 -3.040632247924804688e+00 4.752052724361419678e-01 1.390681743621826172e+00 5.597661137580871582e-01 5.494371801614761353e-02
4.362000000000000000e+03 4.828606414794921875e+01 -9.761987328529357910e-01 4.259539842605590820e-01 6.701460480690002441e-01 3.288300037384033203e-01 -1.877020895481109619e-01
4.363000000000000000e+03 4.723081588745117188e+01 -9.892716407775878906e+00 3.073126971721649170e-01 8.051375746726989746e-01 3.337350785732269287e-01 -8.689129352569580078e-02
4.364000000000000000e+03 5.366092681884765625e+01 1.042236042022705078e+01 4.969277083873748779e-01 6.185745000839233398e-01 3.346506655216217041e-01 -2.299407124519348145e-01
4.365000000000000000e+03 4.641557693481445312e+01 -5.268152713775634766e+00 3.599943816661834717e-01 6.207044124603271484e-01 2.942096292972564697e-01 -1.658113598823547363e-01
4.366000000000000000e+03 5.056851959228515625e+01 9.243790626525878906e+00 4.383251965045928955e-01 4.512116312980651855e-01 2.668610513210296631e-01 -3.531671762466430664e-01
4.367000000000000000e+03 5.275336074829101562e+01 8.994361877441406250e+00 5.163139104843139648e-01 6.393958330154418945e-01 3.467129170894622803e-01 -2.307036668062210083e-01
4.368000000000000000e+03 5.159495162963867188e+01 1.099568748474121094e+01 4.139303267002105713e-01 4.248580634593963623e-01 2.516365349292755127e-01 -3.708578050136566162e-01
4.369000000000000000e+03 5.094664382934570312e+01 -3.066348075866699219e+00 4.445994198322296143e-01 1.029207706451416016e+00 4.421421289443969727e-01 -6.208213791251182556e-02
4.370000000000000000e+03 5.292602539062500000e+01 7.076847076416015625e+00 5.408091545104980469e-01 7.533743977546691895e-01 3.882550597190856934e-01 -1.631308495998382568e-01
4.371000000000000000e+03 4.870952224731445312e+01 3.280875921249389648e+00 4.537909328937530518e-01 5.523508191108703613e-01 3.018425405025482178e-01 -2.640027999877929688e-01
4.372000000000000000e+03 4.945107650756835938e+01 -1.852624677121639252e-02 4.642739892005920410e-01 7.609192132949829102e-01 3.675579726696014404e-01 -1.586893945932388306e-01
4.373000000000000000e+03 4.824047851562500000e+01 -2.940787315368652344e+00 4.112040996551513672e-01 7.277519106864929199e-01 3.416868150234222412e-01 -1.507092267274856567e-01
4.374000000000000000e+03 5.159376144409179688e+01 2.201344490051269531e+00 5.214183926582336426e-01 8.826863765716552734e-01 4.212314188480377197e-01 -1.111946329474449158e-01
4.375000000000000000e+03 5.225097274780273438e+01 3.484825372695922852e+00 5.380464196205139160e-01 8.907398581504821777e-01 4.286358952522277832e-01 -1.067144796252250671e-01
4.376000000000000000e+03 4.543512725830078125e+01 -6.609739780426025391e+00 3.295204639434814453e-01 5.530725121498107910e-01 2.647778987884521484e-01 -1.676956415176391602e-01
4.377000000000000000e+03 4.735719680786132812e+01 -4.060177803039550781e+00 3.830993473529815674e-01 6.749870777130126953e-01 3.174259364604949951e-01 -1.589909195899963379e-01
4.378000000000000000e+03 4.874295806884765625e+01 -6.918534755706787109e+00 3.718047738075256348e-01 9.168857932090759277e-01 3.866071701049804688e-01 -8.064047247171401978e-02
4.379000000000000000e+03 5.389885711669921875e+01 5.866551399230957031e+00 5.831551551818847656e-01 9.247479438781738281e-01 4.523709416389465332e-01 -6.670176982879638672e-02
4.380000000000000000e+03 5.290251922607421875e+01 5.980644702911376953e+00 5.523053407669067383e-01 8.172836899757385254e-01 4.108767211437225342e-01 -1.338755786418914795e-01
4.381000000000000000e+03 5.061788177490234375e+01 7.997426986694335938e+00 4.639810919761657715e-01 5.207452774047851562e-01 2.954179048538208008e-01 -3.099107742309570312e-01
4.382000000000000000e+03 4.842094039916992188e+01 -4.889982700347900391e+00 3.919621706008911133e-01 8.173539042472839355e-01 3.627948164939880371e-01 -1.128240823745727539e-01
4.383000000000000000e+03 4.987469482421875000e+01 -2.577565431594848633e+00 4.450971484184265137e-01 9.048078060150146484e-01 4.049714803695678711e-01 -9.658692032098770142e-02
4.384000000000000000e+03 5.149797058105468750e+01 -5.155691623687744141e+00 4.178166389465332031e-01 1.159902572631835938e+00 4.733157753944396973e-01 -2.061035856604576111e-02
4.385000000000000000e+03 5.276919937133789062e+01 -6.005503177642822266e+00 4.142831563949584961e-01 1.334872126579284668e+00 5.247465968132019043e-01 2.550399303436279297e-02
4.386000000000000000e+03 5.281654739379882812e+01 8.079510688781738281e+00 5.282822251319885254e-01 6.880636811256408691e-01 3.649037778377532959e-01 -1.993664503097534180e-01
4.387000000000000000e+03 4.880054855346679688e+01 6.366121768951416016e+00 4.291901588439941406e-01 4.363312125205993652e-01 2.596563994884490967e-01 -3.486491143703460693e-01
4.388000000000000000e+03 4.968637847900390625e+01 6.882420063018798828e+00 4.498773217201232910e-01 4.829372763633728027e-01 2.798443734645843506e-01 -3.246853649616241455e-01
4.389000000000000000e+03 5.174811172485351562e+01 8.032155036926269531e+00 4.934464395046234131e-01 6.042276620864868164e-01 3.293022215366363525e-01 -2.582455873489379883e-01
4.390000000000000000e+03 5.175569534301757812e+01 9.208786010742187500e+00 4.750916957855224609e-01 5.411480069160461426e-01 3.048719167709350586e-01 -2.959091961383819580e-01
4.391000000000000000e+03 5.170494079589843750e+01 5.144233226776123047e+00 5.285629034042358398e-01 7.480376958847045898e-01 3.829801976680755615e-01 -1.757307946681976318e-01
4.392000000000000000e+03 5.266960906982421875e+01 4.768979549407958984e+00 5.578071475028991699e-01 8.727251291275024414e-01 4.291597008705139160e-01 -1.127046197652816772e-01
4.393000000000000000e+03 5.054844284057617188e+01 6.961796283721923828e+00 4.726162254810333252e-01 5.638275742530822754e-01 3.109331429004669189e-01 -2.862242758274078369e-01
4.394000000000000000e+03 4.906501388549804688e+01 -1.930244684219360352e+00 4.388764500617980957e-01 7.728685736656188965e-01 3.635235130786895752e-01 -1.386162787675857544e-01
4.395000000000000000e+03 4.954939651489257812e+01 -5.659614562988281250e+00 3.914262056350708008e-01 9.571040868759155273e-01 4.045590758323669434e-01 -6.636106967926025391e-02
4.396000000000000000e+03 4.756406784057617188e+01 -6.143671512603759766e+00 3.650063872337341309e-01 7.589527964591979980e-01 3.371877670288085938e-01 -1.232620924711227417e-01
4.397000000000000000e+03 4.667448425292968750e+01 -7.531419754028320312e+00 3.414113223552703857e-01 7.012974023818969727e-01 3.128125965595245361e-01 -1.263732463121414185e-01
4.398000000000000000e+03 4.197629928588867188e+01 -8.359678268432617188e+00 2.532120645046234131e-01 2.350129038095474243e-01 1.464674919843673706e-01 -2.040927261114120483e-01
4.399000000000000000e+03 4.316312026977539062e+01 -6.952631473541259766e+00 2.883985340595245361e-01 3.315161168575286865e-01 1.859743893146514893e-01 -2.105179876089096069e-01
4.400000000000000000e+03 5.130165100097656250e+01 6.530160427093505859e+00 5.001907348632812500e-01 6.356731653213500977e-01 3.407591581344604492e-01 -2.400557398796081543e-01
4.401000000000000000e+03 4.889806747436523438e+01 4.861773014068603516e+00 4.535863697528839111e-01 5.211123824119567871e-01 2.924096286296844482e-01 -2.950648367404937744e-01
4.402000000000000000e+03 5.195906448364257812e+01 7.025356769561767578e+00 5.124498605728149414e-01 6.719983816146850586e-01 3.553344607353210449e-01 -2.193827331066131592e-01
4.403000000000000000e+03 4.960273742675781250e+01 3.983454704284667969e+00 4.761840403079986572e-01 6.051189899444580078e-01 3.243909180164337158e-01 -2.455919384956359863e-01
4.404000000000000000e+03 4.366602706909179688e+01 -1.317267799377441406e+01 2.298712283372879028e-01 4.854451417922973633e-01 2.145949155092239380e-01 -1.161320805549621582e-01
4.405000000000000000e+03 4.639299774169921875e+01 -1.173151874542236328e+01 2.736577987670898438e-01 7.612258791923522949e-01 3.104650974273681641e-01 -8.218397945165634155e-02
4.406000000000000000e+03 5.201809310913085938e+01 6.128255367279052734e+00 5.287510156631469727e-01 7.370147705078125000e-01 3.797297179698944092e-01 -1.843277662992477417e-01
4.407000000000000000e+03 5.050644302368164062e+01 3.071902751922607422e+00 4.953404068946838379e-01 7.347545623779296875e-01 3.690285086631774902e-01 -1.838178038597106934e-01
4.408000000000000000e+03 4.562596130371093750e+01 -1.381137371063232422e+01 2.477426677942276001e-01 7.180054187774658203e-01 2.897244095802307129e-01 -7.729149609804153442e-02
4.409000000000000000e+03 4.751202774047851562e+01 -1.432998657226562500e+01 2.551069557666778564e-01 9.292494654655456543e-01 3.553069233894348145e-01 -4.169911891222000122e-02
4.410000000000000000e+03 4.892110061645507812e+01 -1.047312164306640625e+01 3.112616539001464844e-01 1.017217278480529785e+00 3.985436558723449707e-01 -4.410757869482040405e-02
4.411000000000000000e+03 5.078371810913085938e+01 -8.576694488525390625e+00 3.615054488182067871e-01 1.190623879432678223e+00 4.656387865543365479e-01 -1.108022406697273254e-02
4.412000000000000000e+03 4.816165924072265625e+01 -1.233069229125976562e+01 2.835874259471893311e-01 9.644225835800170898e-01 3.744029998779296875e-01 -4.540413618087768555e-02
4.413000000000000000e+03 5.203962707519531250e+01 -1.143118095397949219e+01 3.191878795623779297e-01 1.415029883384704590e+00 5.202653408050537109e-01 3.190184384584426880e-02
4.414000000000000000e+03 4.988230514526367188e+01 -1.283683395385742188e+01 2.920398712158203125e-01 1.162485957145690918e+00 4.363577365875244141e-01 -9.554146789014339447e-03
4.415000000000000000e+03 5.192467117309570312e+01 -7.421686649322509766e+00 3.841079175472259521e-01 1.285458683967590332e+00 5.008699893951416016e-01 1.148700248450040817e-02
4.416000000000000000e+03 4.940425491333007812e+01 -8.862042427062988281e+00 3.541976213455200195e-01 1.041028380393981934e+00 4.185678064823150635e-01 -4.684275388717651367e-02
4.417000000000000000e+03 5.158138275146484375e+01 -1.324900436401367188e+01 2.905217707157135010e-01 1.397509813308715820e+00 5.064094662666320801e-01 2.907590195536613464e-02
4.418000000000000000e+03 5.722027969360351562e+01 -1.926542091369628906e+01 1.960362792015075684e-01 2.212004661560058594e+00 7.224122881889343262e-01 1.077869012951850891e-01
4.419000000000000000e+03 3.203771209716796875e+01 -2.418517875671386719e+01 6.074374169111251831e-02 -7.425144314765930176e-01 -2.045312076807022095e-01 -9.474894404411315918e-02
4.420000000000000000e+03 3.333539581298828125e+01 -2.235278892517089844e+01 7.752709835767745972e-02 -5.893558263778686523e-01 -1.535486280918121338e-01 -1.135165989398956299e-01
4.421000000000000000e+03 6.775674438476562500e+01 -3.427055358886718750e+01 3.382099419832229614e-02 3.594979763031005859e+00 1.088640213012695312e+00 4.836927726864814758e-02
4.422000000000000000e+03 5.823732757568359375e+01 4.135975646972656250e+01 5.007684826850891113e-01 -4.409926831722259521e-01 1.793272979557514191e-02 8.319181948900222778e-02
4.423000000000000000e+03 2.863581848144531250e+01 -2.697715950012207031e+01 1.246670074760913849e-02 -1.118511795997619629e+00 -3.318135142326354980e-01 -8.352757245302200317e-02
4.424000000000000000e+03 3.194931221008300781e+01 -2.745780754089355469e+01 3.075703606009483337e-02 -7.562032341957092285e-01 -2.176338583230972290e-01 -6.898602843284606934e-02
4.425000000000000000e+03 2.616532516479492188e+01 -3.348511886596679688e+01 -5.590809509158134460e-02 -1.328369498252868652e+00 -4.152832627296447754e-01 -2.033019997179508209e-02
4.426000000000000000e+03 4.990320968627929688e+01 -7.614015102386474609e+00 3.680801391601562500e-01 1.050832629203796387e+00 4.256738424301147461e-01 -4.047317057847976685e-02
4.427000000000000000e+03 4.223902511596679688e+01 -1.793468856811523438e+01 1.754165887832641602e-01 4.003019332885742188e-01 1.727155596017837524e-01 -9.020909667015075684e-02
4.428000000000000000e+03 4.701029586791992188e+01 -1.659671211242675781e+01 2.245445400476455688e-01 9.172338843345642090e-01 3.425335288047790527e-01 -3.180484846234321594e-02
4.429000000000000000e+03 2.069843101501464844e+01 -3.760649871826171875e+01 -6.929395347833633423e-02 -1.846520185470581055e+00 -5.747442841529846191e-01 -2.558273449540138245e-02
4.430000000000000000e+03 6.668885803222656250e+01 4.151382446289062500e+01 1.568400740623474121e+00 6.826817989349365234e-01 6.753247380256652832e-01 6.206465512514114380e-02
4.431000000000000000e+03 2.396438789367675781e+01 -3.489361572265625000e+01 -9.324122965335845947e-02 -1.574278831481933594e+00 -5.002560019493103027e-01 -2.803350426256656647e-02
4.432000000000000000e+03 3.291389846801757812e+01 -1.603117823600769043e+00 1.080351769924163818e-01 -6.006533503532409668e-01 -1.477854549884796143e-01 -3.766623139381408691e-01
4.433000000000000000e+03 6.545400238037109375e+01 3.965367126464843750e+01 1.204287528991699219e+00 7.996634393930435181e-02 3.852761387825012207e-01 2.881110608577728271e-01
4.434000000000000000e+03 6.394076919555664062e+01 -1.366841125488281250e+01 1.966739892959594727e-01 3.075891494750976562e+00 9.817696213722229004e-01 2.216912955045700073e-01
4.435000000000000000e+03 6.097349548339843750e+01 -1.587813282012939453e+01 2.056813836097717285e-01 2.674567699432373047e+00 8.640747070312500000e-01 1.675273925065994263e-01
4.436000000000000000e+03 1.841104316711425781e+01 -3.921503067016601562e+01 -6.441890262067317963e-03 -1.191055655479431152e+00 -3.592492938041687012e-01 -4.714697003364562988e-01
4.437000000000000000e+03 6.440563201904296875e+01 -1.756668472290039062e+01 1.433383524417877197e-01 3.178295135498046875e+00 9.964900016784667969e-01 1.688142418861389160e-01
4.438000000000000000e+03 6.657407379150390625e+01 -1.918052482604980469e+01 1.007728800177574158e-01 3.475831508636474609e+00 1.072981357574462891e+00 1.484040766954421997e-01
4.439000000000000000e+03 7.600448608398437500e+01 -3.637501907348632812e+01 -2.092038094997406006e-02 4.616046428680419922e+00 1.378537774085998535e+00 1.349634211510419846e-02
4.440000000000000000e+03 4.016166687011718750e+01 -1.727345657348632812e+01 1.614506989717483521e-01 1.619927883148193359e-01 9.703304618597030640e-02 -1.166288331151008606e-01
4.441000000000000000e+03 5.950140380859375000e+01 -1.591469383239746094e+01 2.215871065855026245e-01 2.494881153106689453e+00 8.149404525756835938e-01 1.531821936368942261e-01
4.442000000000000000e+03 6.298928451538085938e+01 -2.197446060180664062e+01 1.151871979236602783e-01 2.990728855133056641e+00 9.317748546600341797e-01 1.162706539034843445e-01
4.443000000000000000e+03 3.727807998657226562e+01 -1.892892456054687500e+01 1.264616101980209351e-01 -1.439558565616607666e-01 -5.248273722827434540e-03 -1.259533762931823730e-01
4.444000000000000000e+03 6.499399566650390625e+01 -2.899328422546386719e+01 6.455265730619430542e-02 3.275230646133422852e+00 1.001935005187988281e+00 6.508870422840118408e-02
4.445000000000000000e+03 6.698352813720703125e+01 -3.712278747558593750e+01 3.421136736869812012e-02 3.485985994338989258e+00 1.056059241294860840e+00 2.871204353868961334e-02
4.446000000000000000e+03 6.167231082916259766e+00 -3.851003646850585938e+01 -6.721789017319679260e-03 5.512519273906946182e-04 -1.851161243394017220e-03 1.021113153547048569e-02
4.447000000000000000e+03 5.654169082641601562e+01 -3.741573715209960938e+01 8.015355467796325684e-02 2.228523015975952148e+00 6.926029324531555176e-01 1.464240066707134247e-02
4.448000000000000000e+03 3.856632995605468750e+01 -3.660705184936523438e+01 1.014972850680351257e-01 3.864678740501403809e-02 4.204322025179862976e-02 5.250690039247274399e-03
4.449000000000000000e+03 2.777980232238769531e+01 -4.114876174926757812e+01 1.529601961374282837e-01 -1.216896414756774902e+00 -3.191808760166168213e-01 1.272451132535934448e-02
4.450000000000000000e+03 6.373138046264648438e+01 -3.519007492065429688e+01 5.334972217679023743e-02 3.100192546844482422e+00 9.460626840591430664e-01 3.341974318027496338e-02
4.451000000000000000e+03 7.169906616210937500e+01 -4.082906341552734375e+01 1.830448210239410400e-02 4.088429927825927734e+00 1.232020378112792969e+00 -9.185767266899347305e-04
4.452000000000000000e+03 3.193140411376953125e+01 -3.751137924194335938e+01 8.992491662502288818e-02 -6.963828206062316895e-01 -1.819373667240142822e-01 1.228345092386007309e-02
4.453000000000000000e+03 7.863180637359619141e+00 4.133242416381835938e+01 -9.343239071313291788e-07 -5.657455403706990182e-06 -1.977533656827290542e-06 -3.414876846363767982e-05
4.454000000000000000e+03 6.087485122680664062e+01 -2.213019943237304688e+01 1.294301152229309082e-01 2.712062358856201172e+00 8.524477481842041016e-01 1.084370836615562439e-01
4.455000000000000000e+03 6.283126068115234375e+01 -1.983147430419921875e+01 1.365078687667846680e-01 2.962161302566528320e+00 9.296007752418518066e-01 1.360534429550170898e-01
4.456000000000000000e+03 3.519464874267578125e+01 -2.345472145080566406e+01 8.257165551185607910e-02 -3.530245125293731689e-01 -8.113585412502288818e-02 -9.830879420042037964e-02
4.457000000000000000e+03 4.498281097412109375e+01 -1.610146713256835938e+01 2.115957736968994141e-01 6.744642257690429688e-01 2.658179998397827148e-01 -6.918978691101074219e-02
4.458000000000000000e+03 4.974534225463867188e+01 -1.991393852233886719e+01 1.994882971048355103e-01 1.284083843231201172e+00 4.450716376304626465e-01 1.280566304922103882e-02
4.459000000000000000e+03 2.729288291931152344e+01 -3.116740417480468750e+01 -2.561539597809314728e-02 -1.250731468200683594e+00 -3.829040527343750000e-01 -5.904147773981094360e-02
4.460000000000000000e+03 2.055337142944335938e+01 -3.906814193725585938e+01 1.399143338203430176e-01 -1.699821710586547852e+00 -4.679722189903259277e-01 4.136934876441955566e-02
4.461000000000000000e+03 5.904540252685546875e+01 -1.971966171264648438e+01 1.780493855476379395e-01 2.450835943222045898e+00 7.886655926704406738e-01 1.212797909975051880e-01
4.462000000000000000e+03 6.601428222656250000e+01 -1.728363037109375000e+01 1.231999397277832031e-01 3.392534971237182617e+00 1.054720520973205566e+00 1.723952591419219971e-01
4.463000000000000000e+03 5.191396331787109375e+01 -1.851906585693359375e+01 2.147169709205627441e-01 1.509894967079162598e+00 5.173835754394531250e-01 3.451692685484886169e-02
4.464000000000000000e+03 5.447716903686523438e+01 -1.600984382629394531e+01 2.465097308158874512e-01 1.817653179168701172e+00 6.192488670349121094e-01 7.563241571187973022e-02
4.465000000000000000e+03 4.434460449218750000e+01 -1.854220390319824219e+01 1.924502253532409668e-01 6.356503963470458984e-01 2.484301924705505371e-01 -6.019165739417076111e-02
4.466000000000000000e+03 6.341971206665039062e+01 -3.086408233642578125e+01 6.215672194957733154e-02 3.073338508605957031e+00 9.406485557556152344e-01 4.193862527608871460e-02
4.467000000000000000e+03 2.439898300170898438e+01 -3.239390182495117188e+01 -9.169148653745651245e-02 -1.564766287803649902e+00 -4.969373345375061035e-01 -7.653813809156417847e-02
4.468000000000000000e+03 6.115262603759765625e+01 -2.724436378479003906e+01 9.497663378715515137e-02 2.770470619201660156e+00 8.596341609954833984e-01 6.968961656093597412e-02
4.469000000000000000e+03 3.638631439208984375e+01 -3.165283012390136719e+01 8.772058039903640747e-02 -1.965810954570770264e-01 -3.265815600752830505e-02 -2.959981560707092285e-02
4.470000000000000000e+03 3.375718688964843750e+01 -2.559798431396484375e+01 6.516616046428680420e-02 -5.332701802253723145e-01 -1.404312103986740112e-01 -9.343556314706802368e-02
4.471000000000000000e+03 2.755258750915527344e+01 -3.561233901977539062e+01 1.066540181636810303e-02 -1.176441907882690430e+00 -3.497329354286193848e-01 2.264817431569099426e-02
4.472000000000000000e+03 6.471801757812500000e+01 -1.958407402038574219e+01 1.188994124531745911e-01 3.217816352844238281e+00 1.001014709472656250e+00 1.404424011707305908e-01
4.473000000000000000e+03 6.269990539550781250e+01 -1.776376342773437500e+01 1.656137406826019287e-01 2.927422761917114258e+00 9.279109239578247070e-01 1.582527905702590942e-01
4.474000000000000000e+03 4.646078491210937500e+01 -1.908551979064941406e+01 1.937454342842102051e-01 8.918090462684631348e-01 3.256663382053375244e-01 -3.058026917278766632e-02
4.475000000000000000e+03 5.020355987548828125e+01 -2.177164649963378906e+01 1.796833276748657227e-01 1.357392311096191406e+00 4.611226916313171387e-01 2.305303141474723816e-02
4.476000000000000000e+03 3.370133972167968750e+01 -2.964728736877441406e+01 5.544489249587059021e-02 -5.221707224845886230e-01 -1.400177478790283203e-01 -5.180844664573669434e-02
4.477000000000000000e+03 5.552494430541992188e+01 -1.857458686828613281e+01 2.059153616428375244e-01 1.989729762077331543e+00 6.586935520172119141e-01 8.672131597995758057e-02
4.478000000000000000e+03 6.121498870849609375e+01 -2.997320747375488281e+01 8.966699242591857910e-02 2.784118890762329102e+00 8.621357679367065430e-01 5.909387022256851196e-02
4.479000000000000000e+03 6.178574371337890625e+01 -3.251169967651367188e+01 6.175100803375244141e-02 2.829509258270263672e+00 8.673780560493469238e-01 3.347103670239448547e-02
4.480000000000000000e+03 2.090874481201171875e+01 -4.055150604248046875e+01 2.816455662250518799e-01 -1.697731494903564453e+00 -4.248257875442504883e-01 6.061460077762603760e-02
4.481000000000000000e+03 6.254589080810546875e+01 -1.576209354400634766e+01 1.888975501060485840e-01 2.897669315338134766e+00 9.259700775146484375e-01 1.825879961252212524e-01
4.482000000000000000e+03 5.869184112548828125e+01 -2.200198173522949219e+01 1.480643451213836670e-01 2.414640426635742188e+00 7.688114643096923828e-01 9.499596059322357178e-02
4.483000000000000000e+03 4.060925674438476562e+01 -2.299372100830078125e+01 1.273527294397354126e-01 2.554811239242553711e-01 1.148501560091972351e-01 -6.100696325302124023e-02
4.484000000000000000e+03 4.368410491943359375e+01 -2.109508514404296875e+01 1.627387404441833496e-01 5.951516032218933105e-01 2.273671030998229980e-01 -4.973235726356506348e-02
4.485000000000000000e+03 5.835192108154296875e+01 -2.453234672546386719e+01 1.298594176769256592e-01 2.399116516113281250e+00 7.586927413940429688e-01 7.604822516441345215e-02
4.486000000000000000e+03 5.239884948730468750e+01 -1.710013008117675781e+01 2.354494482278823853e-01 1.556462764739990234e+00 5.375736355781555176e-01 3.753069788217544556e-02
4.487000000000000000e+03 4.897791671752929688e+01 -1.673590850830078125e+01 2.347113490104675293e-01 1.130863428115844727e+00 4.096724390983581543e-01 -2.782378112897276878e-03
4.488000000000000000e+03 5.470503997802734375e+01 -2.058616256713867188e+01 1.903783082962036133e-01 1.919860601425170898e+00 6.330716609954833984e-01 7.073353230953216553e-02
4.489000000000000000e+03 4.827509307861328125e+01 -1.971312522888183594e+01 2.007803320884704590e-01 1.101541638374328613e+00 3.906965851783752441e-01 1.384779461659491062e-03
4.490000000000000000e+03 5.823782730102539062e+01 -2.729751205444335938e+01 1.127064526081085205e-01 2.395188093185424805e+00 7.523683309555053711e-01 6.669353693723678589e-02
4.491000000000000000e+03 4.457238388061523438e+01 -3.036717605590820312e+01 1.103461831808090210e-01 7.416143417358398438e-01 2.555881440639495850e-01 -8.721394464373588562e-03
4.492000000000000000e+03 4.299880599975585938e+01 -2.377895927429199219e+01 1.426739096641540527e-01 5.309895873069763184e-01 2.020990550518035889e-01 -4.041448980569839478e-02
4.493000000000000000e+03 6.090348052978515625e+01 -2.456007194519042969e+01 1.155276820063591003e-01 2.731980085372924805e+00 8.542523384094238281e-01 9.286539256572723389e-02
4.494000000000000000e+03 5.768758773803710938e+01 -1.726384353637695312e+01 2.145354598760604858e-01 2.245916604995727539e+00 7.381356358528137207e-01 1.255439668893814087e-01
4.495000000000000000e+03 3.575895309448242188e+01 -2.714365768432617188e+01 7.360775023698806763e-02 -2.578792572021484375e-01 -5.528144910931587219e-02 -6.737501174211502075e-02
4.496000000000000000e+03 3.956584548950195312e+01 -2.570065498352050781e+01 1.131016835570335388e-01 1.521891355514526367e-01 7.958724349737167358e-02 -5.317899957299232483e-02
4.497000000000000000e+03 4.386697769165039062e+01 -3.373286056518554688e+01 1.058262512087821960e-01 6.590914726257324219e-01 2.294753193855285645e-01 -2.315318910405039787e-03
4.498000000000000000e+03 5.108283233642578125e+01 -2.419332885742187500e+01 1.559696048498153687e-01 1.499298691749572754e+00 4.965805113315582275e-01 3.008255735039710999e-02
4.499000000000000000e+03 6.093666076660156250e+01 -1.989658737182617188e+01 1.549012213945388794e-01 2.703123807907104492e+00 8.574075102806091309e-01 1.257455646991729736e-01
4.500000000000000000e+03 5.656667327880859375e+01 -2.150617980957031250e+01 1.739306449890136719e-01 2.143708705902099609e+00 6.952917575836181641e-01 8.897890150547027588e-02
4.501000000000000000e+03 4.593242645263671875e+01 -2.164226150512695312e+01 1.751373261213302612e-01 8.492499589920043945e-01 3.073161840438842773e-01 -2.633150853216648102e-02
4.502000000000000000e+03 5.527710723876953125e+01 -3.054149627685546875e+01 1.014111042022705078e-01 2.040531396865844727e+00 6.425827741622924805e-01 4.129424318671226501e-02
4.503000000000000000e+03 5.195704650878906250e+01 -2.088678550720214844e+01 1.876038312911987305e-01 1.532047986984252930e+00 5.158955454826354980e-01 3.481553494930267334e-02
4.504000000000000000e+03 4.556574249267578125e+01 -2.433197593688964844e+01 1.464400589466094971e-01 8.296409249305725098e-01 2.928242981433868408e-01 -1.783718355000019073e-02
4.505000000000000000e+03 4.119486236572265625e+01 -2.964962959289550781e+01 1.056265085935592651e-01 3.404631614685058594e-01 1.338268965482711792e-01 -2.159460447728633881e-02
4.506000000000000000e+03 4.792058563232421875e+01 -3.410410308837890625e+01 1.045345664024353027e-01 1.164187669754028320e+00 3.806166648864746094e-01 7.182044908404350281e-03
4.507000000000000000e+03 5.169213867187500000e+01 -2.725707817077636719e+01 1.298816055059432983e-01 1.589746952056884766e+00 5.158885717391967773e-01 2.950968593358993530e-02
4.508000000000000000e+03 4.817063522338867188e+01 -3.069734001159667969e+01 1.185444816946983337e-01 1.172414541244506836e+00 3.872876763343811035e-01 9.215687401592731476e-03
4.509000000000000000e+03 4.219882202148437500e+01 -2.661028861999511719e+01 1.176508814096450806e-01 4.529142677783966064e-01 1.711695492267608643e-01 -3.030794672667980194e-02
4.510000000000000000e+03 5.336283874511718750e+01 -2.272789764404296875e+01 1.671031564474105835e-01 1.752331256866455078e+00 5.758303403854370117e-01 4.852060228586196899e-02
4.511000000000000000e+03 5.578683471679687500e+01 -3.396089553833007812e+01 9.443812817335128784e-02 2.136232614517211914e+00 6.692012548446655273e-01 2.802801690995693207e-02
4.512000000000000000e+03 4.769103622436523438e+01 -3.752707290649414062e+01 9.796382486820220947e-02 1.142121195793151855e+00 3.720255196094512939e-01 6.987579632550477982e-03
4.513000000000000000e+03 4.826615524291992188e+01 -2.453997802734375000e+01 1.541171073913574219e-01 1.148974299430847168e+00 3.909274041652679443e-01 2.753168810158967972e-03
4.514000000000000000e+03 7.290418243408203125e+01 3.305455780029296875e+01 -4.872609376907348633e-01 1.615773677825927734e+00 3.385538160800933838e-01 -1.514899969100952148e+00
4.515000000000000000e+03 7.337190246582031250e+01 3.250623703002929688e+01 -8.886523842811584473e-01 1.599536657333374023e+00 2.132652848958969116e-01 -1.667055726051330566e+00
4.516000000000000000e+03 7.363899230957031250e+01 3.284235382080078125e+01 -1.148962005972862244e-01 2.616625547409057617e+00 7.505187988281250000e-01 -2.610068082809448242e+00
4.517000000000000000e+03 7.345290374755859375e+01 3.271893692016601562e+01 -3.751054108142852783e-01 2.140897512435913086e+00 5.297376513481140137e-01 -2.172524929046630859e+00
4.518000000000000000e+03 7.415831756591796875e+01 3.259848403930664062e+01 1.196310222148895264e-01 3.745542049407958984e+00 1.159551858901977539e+00 -3.671946763992309570e+00
4.519000000000000000e+03 7.437557220458984375e+01 3.259185791015625000e+01 3.512468338012695312e-01 4.670688629150390625e+00 1.506580591201782227e+00 -4.242611885070800781e+00
4.520000000000000000e+03 7.502051544189453125e+01 3.254659652709960938e+01 3.065893054008483887e-01 9.452797889709472656e+00 2.927816152572631836e+00 -6.290159225463867188e+00
4.521000000000000000e+03 7.558428192138671875e+01 3.253091812133789062e+01 -1.416737675666809082e+00 1.597312641143798828e+01 4.366916656494140625e+00 -6.222755432128906250e+00
4.522000000000000000e+03 7.648587036132812500e+01 3.322558975219726562e+01 -2.675961017608642578e+00 1.764748382568359375e+01 4.491456985473632812e+00 -1.068791508674621582e+00
4.523000000000000000e+03 7.690280151367187500e+01 3.284771347045898438e+01 -2.217956304550170898e+00 1.911717224121093750e+01 5.069765090942382812e+00 7.316578030586242676e-01
4.524000000000000000e+03 7.604297637939453125e+01 2.880453872680664062e+01 -2.803676128387451172e+00 1.735869407653808594e+01 4.366505146026611328e+00 3.652402162551879883e+00
4.525000000000000000e+03 7.535999298095703125e+01 2.901391410827636719e+01 -1.397687196731567383e+00 1.302635669708251953e+01 3.488600969314575195e+00 6.157040119171142578e+00
4.526000000000000000e+03 7.479859924316406250e+01 2.925159263610839844e+01 1.813259124755859375e-01 7.488409519195556641e+00 2.300920486450195312e+00 6.051686286926269531e+00
4.527000000000000000e+03 7.359060668945312500e+01 2.917867660522460938e+01 -1.076594471931457520e+00 2.132070302963256836e+00 3.166427612304687500e-01 2.616651296615600586e+00
4.528000000000000000e+03 7.291189575195312500e+01 2.913054275512695312e+01 -1.980551242828369141e+00 1.088816285133361816e+00 -2.675204873085021973e-01 1.553196072578430176e+00
4.529000000000000000e+03 1.260751128196716309e+00 2.703953027725219727e+00 -2.236397904198383912e-06 3.530131152729154564e-06 3.881199859279149678e-07 -3.374649537590812542e-08
4.530000000000000000e+03 4.227405548095703125e+01 3.526269531250000000e+01 2.338297665119171143e-03 -5.766688846051692963e-04 5.284885992296040058e-04 3.106776857748627663e-03
4.531000000000000000e+03 4.301672744750976562e+01 3.600135421752929688e+01 -3.376297652721405029e-03 -6.821955088526010513e-03 -3.059475915506482124e-03 7.200265303254127502e-03
4.532000000000000000e+03 3.873260879516601562e+01 3.638225173950195312e+01 3.599685383960604668e-03 -3.859505755826830864e-03 -7.794613338774070144e-05 -2.408568980172276497e-03
4.533000000000000000e+03 3.206750106811523438e+01 3.710035324096679688e+01 1.474424730986356735e-03 1.242482801899313927e-03 8.150722715072333813e-04 -1.352812512777745724e-03
4.534000000000000000e+03 2.686096954345703125e+01 3.934847640991210938e+01 2.737267641350626945e-04 2.651267859619110823e-04 1.616560621187090874e-04 -5.599434953182935715e-04
4.535000000000000000e+03 2.250091171264648438e+01 -3.724917602539062500e+01 -3.005794622004032135e-02 -1.698118209838867188e+00 -5.184528231620788574e-01 6.167637929320335388e-02
4.536000000000000000e+03 1.294378280639648438e+01 2.350422143936157227e+00 3.507063013330480317e-07 -3.509773932819371112e-06 -9.477203093410935253e-07 -6.864240162940404844e-07
4.537000000000000000e+03 2.247011661529541016e+00 3.543556928634643555e+00 -6.911857326485915110e-06 -4.124099632463185117e-06 -3.310787178634200245e-06 6.997639957262435928e-06
4.538000000000000000e+03 4.929584503173828125e+01 3.691881561279296875e+01 -1.197922229766845703e-02 -7.464641332626342773e-02 -2.598769217729568481e-02 9.497951716184616089e-02
4.539000000000000000e+03 4.379674530029296875e+01 3.611551666259765625e+01 -5.187008064240217209e-03 -1.386478729546070099e-02 -5.715538747608661652e-03 1.138911861926317215e-02
4.540000000000000000e+03 1.896853446960449219e+01 3.814773559570312500e+01 2.802619383146520704e-05 6.803181167924776673e-05 2.881740147131495178e-05 3.783279680646955967e-05
4.541000000000000000e+03 7.560588836669921875e+01 3.286239242553710938e+01 -1.647899270057678223e+00 1.489425754547119141e+01 3.973907470703125000e+00 -5.082253932952880859e+00
4.542000000000000000e+03 7.501480865478515625e+01 2.874536705017089844e+01 -9.451900124549865723e-01 1.005718135833740234e+01 2.733597278594970703e+00 5.459631443023681641e+00
4.543000000000000000e+03 7.613696289062500000e+01 3.303843307495117188e+01 -2.501785993576049805e+00 1.753278160095214844e+01 4.509298801422119141e+00 -2.797515392303466797e+00
4.544000000000000000e+03 2.128777313232421875e+01 -3.219903564453125000e+01 -6.808704882860183716e-02 -2.135933637619018555e+00 -6.612062454223632812e-01 -1.411496996879577637e-01
4.545000000000000000e+03 7.397035980224609375e+01 2.860861015319824219e+01 -3.734802007675170898e-01 4.458015441894531250e+00 1.225360631942749023e+00 4.018055438995361328e+00
4.546000000000000000e+03 1.983206510543823242e+00 3.591274642944335938e+01 -2.583167588454671204e-05 -9.301252248405944556e-06 -1.053987853083526716e-05 1.007434639177517965e-05
4.547000000000000000e+03 2.973949432373046875e+00 -2.933348894119262695e+00 -2.316842874279245734e-04 3.847103216685354710e-04 4.590780736180022359e-05 -1.020257332129403949e-04
4.548000000000000000e+03 1.115824890136718750e+01 3.333456420898437500e+01 -6.533430860145017505e-05 3.349616463310667314e-06 -1.859540861914865673e-05 -8.673887350596487522e-06
4.549000000000000000e+03 1.006958103179931641e+01 3.500582122802734375e+01 -6.615275196963921189e-05 8.425988198723644018e-06 -1.731803058646619320e-05 -2.102228063449729234e-05
4.550000000000000000e+03 7.584579467773437500e+01 2.904346275329589844e+01 -2.505978822708129883e+00 1.710878181457519531e+01 4.380840778350830078e+00 4.911609649658203125e+00
4.551000000000000000e+03 7.385783386230468750e+01 3.289094161987304688e+01 5.058883689343929291e-03 3.160237073898315430e+00 9.495887756347656250e-01 -2.982618570327758789e+00
4.552000000000000000e+03 7.383094024658203125e+01 3.320436477661132812e+01 9.305790066719055176e-02 4.126193046569824219e+00 1.265775203704833984e+00 -3.212455749511718750e+00
4.553000000000000000e+03 7.333212280273437500e+01 3.365961456298828125e+01 6.430498510599136353e-02 3.447755813598632812e+00 1.053618192672729492e+00 -2.403312206268310547e+00
4.554000000000000000e+03 7.718949890136718750e+01 2.956172180175781250e+01 8.311909437179565430e-01 1.978878211975097656e+01 6.185992240905761719e+00 -2.912169456481933594e+00
4.555000000000000000e+03 7.739865875244140625e+01 3.251295089721679688e+01 -7.530761957168579102e-01 1.816296195983886719e+01 5.222965717315673828e+00 2.669625282287597656e+00
4.556000000000000000e+03 7.728412628173828125e+01 3.293532562255859375e+01 -1.487930178642272949e+00 1.784818840026855469e+01 4.908077239990234375e+00 1.877502202987670898e+00
4.557000000000000000e+03 7.702368164062500000e+01 2.892239952087402344e+01 -2.078882217407226562e+00 1.873204231262207031e+01 4.995947837829589844e+00 -1.106483936309814453e+00
4.558000000000000000e+03 7.718659973144531250e+01 3.351996231079101562e+01 -2.198449134826660156e+00 1.662139129638671875e+01 4.326882839202880859e+00 6.928519606590270996e-01
4.559000000000000000e+03 7.658276367187500000e+01 3.281439590454101562e+01 -2.526002883911132812e+00 1.980370140075683594e+01 5.183309555053710938e+00 -6.498239636421203613e-01
4.560000000000000000e+03 7.636032867431640625e+01 3.367736434936523438e+01 -2.367249727249145508e+00 1.578358078002929688e+01 4.024899482727050781e+00 -1.411157846450805664e+00
4.561000000000000000e+03 7.561622619628906250e+01 2.894472503662109375e+01 -2.099597215652465820e+00 1.518126964569091797e+01 3.924501657485961914e+00 5.476216793060302734e+00
4.562000000000000000e+03 7.811122894287109375e+01 -3.573918151855468750e+01 -1.626505702733993530e-02 4.810182571411132812e+00 1.438175320625305176e+00 2.559493482112884521e-02
4.563000000000000000e+03 4.743902587890625000e+01 3.655028152465820312e+01 -2.183803357183933258e-03 -6.187579035758972168e-02 -1.921787858009338379e-02 4.813771322369575500e-02
4.564000000000000000e+03 5.712461853027343750e+01 3.582167816162109375e+01 -4.454040527343750000e-02 -2.237556278705596924e-01 -8.048880845308303833e-02 3.352337181568145752e-01
4.565000000000000000e+03 5.427660369873046875e+01 3.517956542968750000e+01 -1.114984899759292603e-01 -1.148488372564315796e-01 -6.790419667959213257e-02 2.123969197273254395e-01
4.566000000000000000e+03 8.896011352539062500e+00 -3.451476669311523438e+01 1.618566550314426422e-02 -1.546040084213018417e-02 2.175793779315426946e-04 4.759278614073991776e-03
4.567000000000000000e+03 7.250209045410156250e+01 -3.415014648437500000e+01 1.178248506039381027e-02 4.156684398651123047e+00 1.250540018081665039e+00 1.253119204193353653e-02
4.568000000000000000e+03 7.508460235595703125e+01 2.847702407836914062e+01 -1.255020260810852051e+00 1.012165832519531250e+01 2.659991502761840820e+00 5.126772880554199219e+00
4.569000000000000000e+03 6.971134185791015625e+00 -3.463678741455078125e+01 1.184567064046859741e-02 -6.752309855073690414e-03 1.528008258901536465e-03 1.082589477300643921e-02
4.570000000000000000e+03 3.333152532577514648e+00 -3.687386035919189453e+00 -1.192898416775278747e-04 -1.656305685173720121e-04 -8.547612378606572747e-05 9.075407288037240505e-04
4.571000000000000000e+03 1.231164741516113281e+01 -2.814332771301269531e+01 3.164327470585703850e-03 5.048923660069704056e-03 2.463975222781300545e-03 -3.578539472073316574e-03
4.572000000000000000e+03 1.149067211151123047e+01 -2.560760116577148438e+01 -1.027734018862247467e-03 4.979582969099283218e-03 1.185554778203368187e-03 -1.517980825155973434e-03
4.573000000000000000e+03 1.097724056243896484e+01 -4.332514762878417969e+00 4.746288759633898735e-04 3.065925848204642534e-04 2.343664382351562381e-04 -2.218667214037850499e-04
4.574000000000000000e+03 6.374862194061279297e+00 -3.136709022521972656e+01 1.228278316557407379e-02 -9.721500100567936897e-04 3.393189981579780579e-03 -1.526250387541949749e-03
4.575000000000000000e+03 6.127099609375000000e+01 3.610347747802734375e+01 -1.748929359018802643e-02 -2.532776296138763428e-01 -8.123008161783218384e-02 6.319608092308044434e-01
4.576000000000000000e+03 5.635181808471679688e+01 3.601612472534179688e+01 -3.060057573020458221e-02 -1.912134587764739990e-01 -6.654421240091323853e-02 2.982155978679656982e-01
4.577000000000000000e+03 7.352437591552734375e+01 3.431313705444335938e+01 1.144660264253616333e-01 4.936769962310791016e+00 1.515370845794677734e+00 -2.552364110946655273e+00
4.578000000000000000e+03 7.425414276123046875e+01 2.800003623962402344e+01 -7.301656007766723633e-01 6.472457408905029297e+00 1.722687602043151855e+00 4.286771297454833984e+00
4.579000000000000000e+03 1.113257598876953125e+01 2.335030746459960938e+01 -2.518325163691770285e-05 -1.051685740094399080e-05 -1.071003316610585898e-05 1.133784826379269361e-05
4.580000000000000000e+03 9.034672737121582031e+00 -2.208771324157714844e+01 2.560611581429839134e-03 -7.119615911506116390e-04 5.545950261875987053e-04 1.694303588010370731e-03
4.581000000000000000e+03 7.731561279296875000e+01 2.845824241638183594e+01 -2.028051376342773438e+00 1.701668167114257812e+01 4.496589183807373047e+00 -1.366419672966003418e+00
4.582000000000000000e+03 7.579907226562500000e+01 3.387534713745117188e+01 -2.022078514099121094e+00 1.352552032470703125e+01 3.451032638549804688e+00 -3.177666664123535156e+00
4.583000000000000000e+03 7.485752105712890625e+01 2.801964378356933594e+01 -1.280277252197265625e+00 9.276101112365722656e+00 2.398746967315673828e+00 4.679047584533691406e+00
4.584000000000000000e+03 6.664903163909912109e+00 -2.856034278869628906e+01 -6.005235482007265091e-03 1.147434348240494728e-03 -1.457340316846966743e-03 6.932296673767268658e-04
4.585000000000000000e+03 8.085289955139160156e+00 3.136216163635253906e+01 3.967918746639043093e-05 -2.427732624710188247e-06 1.117543615691829473e-05 2.483484968252014369e-05
4.586000000000000000e+03 7.463645172119140625e+01 2.755291557312011719e+01 -1.151697874069213867e+00 8.286706924438476562e+00 2.140502691268920898e+00 4.060192584991455078e+00
4.587000000000000000e+03 7.274397850036621094e+00 -1.958634567260742188e+01 6.540376925840973854e-04 1.476102392189204693e-03 6.390420021489262581e-04 7.776999846100807190e-04
4.588000000000000000e+03 1.177880573272705078e+01 -2.655315017700195312e+01 -4.647125315386801958e-04 2.763876109384000301e-04 -5.649747981806285679e-05 3.959694411605596542e-03
4.589000000000000000e+03 7.254677581787109375e+01 3.441604614257812500e+01 2.239296436309814453e-01 2.822756767272949219e+00 9.140058755874633789e-01 -1.603367447853088379e+00
4.590000000000000000e+03 8.478096008300781250e+00 -1.850394821166992188e+01 1.341988681815564632e-03 2.060937695205211639e-03 1.020877854898571968e-03 -2.593250537756830454e-04
4.591000000000000000e+03 9.182048797607421875e+00 1.882141876220703125e+01 9.507605682301800698e-06 1.819306089601013809e-05 8.310200428240932524e-06 -7.097995080584951211e-07
4.592000000000000000e+03 2.713647079467773438e+01 -1.350658130645751953e+01 1.905291713774204254e-02 -1.261577963829040527e+00 -3.727575242519378662e-01 -1.669306010007858276e-01
4.593000000000000000e+03 7.915387630462646484e+00 5.976576805114746094e+00 -3.078163899772334844e-06 9.364777042719651945e-07 -6.425058813874784391e-07 2.009202262343023904e-06
4.594000000000000000e+03 5.652736186981201172e+00 5.389427185058593750e+00 -9.662731827120296657e-06 3.642381614099576836e-07 -2.789548034343170002e-06 -5.952038463874487206e-06
4.595000000000000000e+03 7.682558441162109375e+01 2.568893814086914062e+01 -1.262835383415222168e+00 1.174200820922851562e+01 3.143751859664916992e+00 1.213113188743591309e+00
4.596000000000000000e+03 2.717676353454589844e+01 -1.484793281555175781e+01 2.708095870912075043e-02 -1.266497731208801270e+00 -3.718250393867492676e-01 -1.503063887357711792e-01
4.597000000000000000e+03 7.211534976959228516e+00 2.434064102172851562e+01 2.399502045591361821e-05 -1.277496176044223830e-05 3.366017381267738529e-06 -1.301485190197126940e-05
4.598000000000000000e+03 8.078795433044433594e+00 1.895811653137207031e+01 -9.253712050849571824e-06 -1.879533556348178536e-05 -8.414714102400466800e-06 1.895881723612546921e-06
4.599000000000000000e+03 7.293484687805175781e+00 1.000268936157226562e+01 -4.160051958024268970e-06 1.854198671935591847e-06 -6.917559858266031370e-07 -3.208688440281548537e-06
4.600000000000000000e+03 2.711963653564453125e+01 -1.081881713867187500e+01 1.806010119616985321e-02 -1.239717483520507812e+00 -3.664971888065338135e-01 -2.017382532358169556e-01
4.601000000000000000e+03 9.700254440307617188e+00 6.551687717437744141e+00 -2.557628931754152291e-06 -6.719530574628151953e-06 -2.783147920126793906e-06 -4.029411684314254671e-06
4.602000000000000000e+03 9.068080902099609375e+00 -1.050279235839843750e+01 7.289419299922883511e-04 1.966388517757877707e-04 2.776742330752313137e-04 -1.682742877164855599e-04
4.603000000000000000e+03 7.155704498291015625e+01 2.538895797729492188e+01 -1.262367963790893555e-01 2.831354379653930664e+00 8.115352392196655273e-01 1.952894926071166992e+00
4.604000000000000000e+03 7.030513763427734375e+01 2.437612152099609375e+01 -6.745279533788561821e-04 2.154989957809448242e+00 6.462946534156799316e-01 1.475794196128845215e+00
4.605000000000000000e+03 3.070929718017578125e+01 -1.897241973876953125e+01 6.881808489561080933e-02 -8.891582489013671875e-01 -2.461020499467849731e-01 -1.310653984546661377e-01
4.606000000000000000e+03 6.417688369750976562e+00 -1.483551692962646484e+01 -9.371645282953977585e-04 4.013554425910115242e-04 -1.607427257113158703e-04 4.609318057191558182e-05
4.607000000000000000e+03 6.264360427856445312e+00 -1.358401298522949219e+01 1.577800605446100235e-03 2.295219019288197160e-04 5.421967362053692341e-04 -1.160885149147361517e-04
4.608000000000000000e+03 6.123690605163574219e+00 7.851735115051269531e+00 -1.197142955788876861e-05 -3.450314238762075547e-07 -3.694938413900672458e-06 -8.709483267921314109e-07
4.609000000000000000e+03 9.435047149658203125e+00 8.956626892089843750e+00 -1.166927904705516994e-05 -3.450799113124958239e-06 -4.536023425316670910e-06 -2.958746790682198480e-06
4.610000000000000000e+03 5.393946838378906250e+01 -1.778850746154785156e+01 2.221198827028274536e-01 1.780861139297485352e+00 6.008943319320678711e-01 6.164869293570518494e-02
4.611000000000000000e+03 7.094295024871826172e+00 -1.557347583770751953e+01 -2.656566677615046501e-03 -6.087305373512208462e-04 -9.795891819521784782e-04 5.548011395148932934e-04
4.612000000000000000e+03 2.868599128723144531e+01 -2.467071771621704102e+00 5.353675410151481628e-02 -9.750828742980957031e-01 -2.764638364315032959e-01 -3.112186491489410400e-01
4.613000000000000000e+03 7.300258636474609375e+01 2.406858062744140625e+01 3.695256263017654419e-02 5.150567531585693359e+00 1.556256055831909180e+00 2.442520141601562500e+00
4.614000000000000000e+03 4.924431991577148438e+01 -1.845650100708007812e+01 2.047146707773208618e-01 1.181959629058837891e+00 4.160023033618927002e-01 6.673515774309635162e-03
4.615000000000000000e+03 5.104917907714843750e+01 -1.945137596130371094e+01 1.971221566200256348e-01 1.406335353851318359e+00 4.810372591018676758e-01 3.382549807429313660e-02
4.616000000000000000e+03 5.068276977539062500e+01 -1.818256187438964844e+01 2.128134071826934814e-01 1.344156026840209961e+00 4.670908153057098389e-01 2.255924791097640991e-02
4.617000000000000000e+03 3.007574272155761719e+01 -1.580789947509765625e+01 6.203893199563026428e-02 -9.455941319465637207e-01 -2.650665640830993652e-01 -1.646979451179504395e-01
4.618000000000000000e+03 7.255257415771484375e+01 -1.828353500366210938e+01 3.650378063321113586e-02 4.291024684906005859e+00 1.298258543014526367e+00 1.201666742563247681e-01
4.619000000000000000e+03 6.838819885253906250e+01 -1.629696655273437500e+01 9.882349520921707153e-02 3.756609678268432617e+00 1.156629920005798340e+00 1.746898740530014038e-01
4.620000000000000000e+03 6.736287689208984375e+01 -1.694892120361328125e+01 1.062616929411888123e-01 3.559578895568847656e+00 1.099752187728881836e+00 1.766202896833419800e-01
4.621000000000000000e+03 8.714188575744628906e+00 -6.401595115661621094e+00 5.431235767900943756e-04 -3.653996391221880913e-04 5.331718784873373806e-05 -4.479313429328612983e-05
4.622000000000000000e+03 5.282736206054687500e+01 -1.544623565673828125e+01 2.607384622097015381e-01 1.592883348464965820e+00 5.560865402221679688e-01 4.945380240678787231e-02
4.623000000000000000e+03 5.078256607055664062e+01 -1.672358322143554688e+01 2.459297478199005127e-01 1.347638607025146484e+00 4.780705273151397705e-01 2.365099452435970306e-02
4.624000000000000000e+03 3.950471115112304688e+01 2.538117790222167969e+01 -5.541864633560180664e-01 1.344347093254327774e-02 -1.622228920459747314e-01 -4.798059165477752686e-01
4.625000000000000000e+03 6.985672760009765625e+01 2.292675018310546875e+01 3.043917119503021240e-01 2.401810884475708008e+00 8.118607997894287109e-01 1.465451955795288086e+00
4.626000000000000000e+03 5.368634796142578125e+01 -1.174579238891601562e+01 3.148571550846099854e-01 1.614873170852661133e+00 5.789191126823425293e-01 7.163540273904800415e-02
4.627000000000000000e+03 3.061329460144042969e+01 2.618968009948730469e+01 -2.015668451786041260e-01 -9.385892003774642944e-02 -8.862772583961486816e-02 -2.829821407794952393e-01
4.628000000000000000e+03 5.920207977294921875e+01 -1.437068176269531250e+01 2.469125092029571533e-01 2.411026477813720703e+00 7.973816990852355957e-01 1.661013513803482056e-01
4.629000000000000000e+03 5.816161346435546875e+01 -1.545063018798828125e+01 2.451312839984893799e-01 2.285430192947387695e+00 7.591684460639953613e-01 1.437668502330780029e-01
4.630000000000000000e+03 3.528329849243164062e+01 2.628313446044921875e+01 -3.848482072353363037e-01 -2.128959447145462036e-02 -1.218413412570953369e-01 -3.737813532352447510e-01
4.631000000000000000e+03 7.025839996337890625e+01 -1.595955848693847656e+01 8.305171877145767212e-02 3.998754739761352539e+00 1.224541902542114258e+00 1.774876564741134644e-01
4.632000000000000000e+03 6.979353332519531250e+01 1.588098335266113281e+01 7.289001941680908203e-01 3.698883056640625000e+00 1.328334927558898926e+00 1.393113970756530762e+00
4.633000000000000000e+03 4.037066650390625000e+01 2.497400093078613281e+01 -5.790316462516784668e-01 1.637403294444084167e-02 -1.687972992658615112e-01 -5.168319344520568848e-01
4.634000000000000000e+03 5.050915145874023438e+01 -1.109310531616210938e+01 3.141691684722900391e-01 1.199559092521667480e+00 4.541184902191162109e-01 -5.698012188076972961e-03
4.635000000000000000e+03 4.000111770629882812e+01 -6.149202823638916016e+00 2.309707701206207275e-01 2.035029791295528412e-02 7.539632171392440796e-02 -2.730580568313598633e-01
4.636000000000000000e+03 6.987384033203125000e+01 1.904291725158691406e+01 6.843981742858886719e-01 3.323886632919311523e+00 1.202485442161560059e+00 1.517239689826965332e+00
4.637000000000000000e+03 6.947325134277343750e+01 1.836266708374023438e+01 7.155848145484924316e-01 3.205371618270874023e+00 1.176286935806274414e+00 1.439515352249145508e+00
4.638000000000000000e+03 6.833028411865234375e+01 1.565561294555664062e+01 7.737433910369873047e-01 3.034347295761108398e+00 1.142427206039428711e+00 1.230701923370361328e+00
4.639000000000000000e+03 3.891980361938476562e+01 -5.710554599761962891e+00 2.122434675693511963e-01 -9.217758476734161377e-02 3.601976484060287476e-02 -2.897399663925170898e-01
4.640000000000000000e+03 5.742132568359375000e+01 -9.717610359191894531e+00 3.425526022911071777e-01 2.073979854583740234e+00 7.249597907066345215e-01 1.694268286228179932e-01
4.641000000000000000e+03 3.960646438598632812e+01 2.092086791992187500e+01 -3.484713435173034668e-01 -5.625697597861289978e-02 -1.214184984564781189e-01 -6.389969587326049805e-01
4.642000000000000000e+03 6.934604644775390625e+01 1.939441299438476562e+01 6.751676797866821289e-01 2.916634082794189453e+00 1.077540516853332520e+00 1.410601735115051270e+00
4.643000000000000000e+03 6.826928710937500000e+01 1.810263442993164062e+01 7.295062541961669922e-01 2.630910396575927734e+00 1.008124947547912598e+00 1.235474228858947754e+00
4.644000000000000000e+03 6.876812744140625000e+01 1.306255817413330078e+01 7.181814908981323242e-01 3.518741369247436523e+00 1.271076798439025879e+00 1.194544434547424316e+00
4.645000000000000000e+03 6.686565399169921875e+01 -3.990469694137573242e+00 3.025136590003967285e-01 3.492120504379272461e+00 1.138390302658081055e+00 4.456350207328796387e-01
4.646000000000000000e+03 4.067653274536132812e+01 2.037512969970703125e+01 -3.407939076423645020e-01 -4.642679914832115173e-02 -1.161662116646766663e-01 -6.675379872322082520e-01
4.647000000000000000e+03 5.935747146606445312e+01 -4.334077835083007812e+00 4.402537047863006592e-01 2.205614805221557617e+00 7.937605381011962891e-01 2.601808011531829834e-01
4.648000000000000000e+03 3.565423583984375000e+01 1.082939815521240234e+01 4.062798246741294861e-02 -3.124275505542755127e-01 -8.153986930847167969e-02 -6.097937226295471191e-01
4.649000000000000000e+03 5.815642547607421875e+01 -2.782635450363159180e+00 4.922379851341247559e-01 1.971596360206604004e+00 7.391502857208251953e-01 2.333550602197647095e-01
4.650000000000000000e+03 6.491020965576171875e+01 1.735354232788085938e+01 6.575229167938232422e-01 1.522868275642395020e+00 6.541173458099365234e-01 6.481936573982238770e-01
4.651000000000000000e+03 4.116365432739257812e+01 1.614497184753417969e+01 -1.009219735860824585e-01 -8.060443401336669922e-02 -5.445792153477668762e-02 -7.026223540306091309e-01
4.652000000000000000e+03 6.320512390136718750e+01 -4.001443862915039062e+00 3.923951387405395508e-01 2.855067253112792969e+00 9.742386937141418457e-01 3.811896145343780518e-01
4.653000000000000000e+03 4.724398422241210938e+01 -3.491631150245666504e-01 4.175339341163635254e-01 5.640113949775695801e-01 2.944636046886444092e-01 -2.274921834468841553e-01
4.654000000000000000e+03 4.611603927612304688e+01 -4.246169030666351318e-01 3.922163248062133789e-01 4.484652876853942871e-01 2.522044777870178223e-01 -2.663095295429229736e-01
4.655000000000000000e+03 5.187406539916992188e+01 2.088394165039062500e+01 -4.920805096626281738e-01 5.136346071958541870e-02 -1.322151124477386475e-01 -6.683457493782043457e-01
4.656000000000000000e+03 6.182096481323242188e+01 1.916539382934570312e+01 2.655430734157562256e-01 6.529645323753356934e-01 2.755522727966308594e-01 7.080086320638656616e-02
4.657000000000000000e+03 6.713141632080078125e+01 1.170954799652099609e+01 7.434215545654296875e-01 3.013303518295288086e+00 1.127017498016357422e+00 9.947494268417358398e-01
4.658000000000000000e+03 3.528857421875000000e+01 1.733392143249511719e+01 -1.321959793567657471e-01 -2.187845110893249512e-01 -1.052941456437110901e-01 -6.113904118537902832e-01
4.659000000000000000e+03 6.328592300415039062e+01 -2.904839277267456055e+00 4.144895672798156738e-01 2.812829494476318359e+00 9.681956768035888672e-01 4.098258912563323975e-01
4.660000000000000000e+03 6.691726684570312500e+01 7.192339420318603516e+00 6.106498241424560547e-01 3.263366937637329102e+00 1.162204980850219727e+00 8.316755890846252441e-01
4.661000000000000000e+03 3.735619735717773438e+01 1.173853492736816406e+01 3.774785622954368591e-02 -2.317110151052474976e-01 -5.818894878029823303e-02 -6.401684880256652832e-01
4.662000000000000000e+03 3.824691009521484375e+01 1.269707584381103516e+01 1.942976005375385284e-02 -1.916329860687255859e-01 -5.166096612811088562e-02 -6.574491858482360840e-01
4.663000000000000000e+03 4.311437988281250000e+01 1.961326217651367188e+01 -3.220059871673583984e-01 -2.172297239303588867e-02 -1.031186804175376892e-01 -7.057666778564453125e-01
4.664000000000000000e+03 4.104239273071289062e+01 8.398519515991210938e+00 1.836521923542022705e-01 -7.396589964628219604e-02 3.290588781237602234e-02 -5.834580063819885254e-01
4.665000000000000000e+03 4.783152770996093750e+01 2.566516876220703125e+00 4.300302565097808838e-01 5.032947063446044922e-01 2.799974977970123291e-01 -2.797067165374755859e-01
4.666000000000000000e+03 4.343179702758789062e+01 5.158863544464111328e+00 2.971168160438537598e-01 9.900406002998352051e-02 1.188362613320350647e-01 -4.749289155006408691e-01
4.667000000000000000e+03 6.152538299560546875e+01 2.132638692855834961e+00 5.820019841194152832e-01 2.312746524810791016e+00 8.684245347976684570e-01 4.242966771125793457e-01
4.668000000000000000e+03 6.105079269409179688e+01 2.906166791915893555e+00 6.082007884979248047e-01 2.172330856323242188e+00 8.341594934463500977e-01 4.052454531192779541e-01
4.669000000000000000e+03 5.229289245605468750e+01 2.043616867065429688e+01 -4.224430620670318604e-01 6.350662559270858765e-02 -1.076809316873550415e-01 -6.542239785194396973e-01
4.670000000000000000e+03 4.077767181396484375e+01 7.362108230590820312e+00 2.005944401025772095e-01 -7.605165988206863403e-02 3.736283630132675171e-02 -5.602934360504150391e-01
4.671000000000000000e+03 4.109221267700195312e+01 1.248737525939941406e+01 6.955350190401077271e-02 -9.082034230232238770e-02 -6.380051374435424805e-03 -6.641255617141723633e-01
4.672000000000000000e+03 4.202014923095703125e+01 1.309897708892822266e+01 5.030898749828338623e-02 -6.115863472223281860e-02 -3.254894400015473366e-03 -6.714720726013183594e-01
4.673000000000000000e+03 3.919390487670898438e+01 1.409327602386474609e+01 -2.285187505185604095e-02 -1.516976356506347656e-01 -5.236485600471496582e-02 -6.756083369255065918e-01
4.674000000000000000e+03 6.029492187500000000e+01 3.597910404205322266e+00 6.326810121536254883e-01 1.997215032577514648e+00 7.889688014984130859e-01 3.647239208221435547e-01
4.675000000000000000e+03 5.086214447021484375e+01 5.648863315582275391e+00 4.962488412857055664e-01 6.425377130508422852e-01 3.416359722614288330e-01 -2.339872121810913086e-01
4.676000000000000000e+03 5.574247741699218750e+01 3.347884416580200195e+00 6.005104780197143555e-01 1.313566327095031738e+00 5.742230415344238281e-01 8.864162117242813110e-02
4.677000000000000000e+03 6.494496154785156250e+01 9.375108718872070312e+00 7.194412350654602051e-01 2.550017595291137695e+00 9.808377027511596680e-01 7.510555982589721680e-01
4.678000000000000000e+03 4.271275711059570312e+01 1.257535457611083984e+01 8.387279510498046875e-02 -3.230154141783714294e-02 1.547137554734945297e-02 -6.568922996520996094e-01
4.679000000000000000e+03 5.472212982177734375e+01 4.420846939086914062e+00 5.930243730545043945e-01 1.102450966835021973e+00 5.086426138877868652e-01 7.947935722768306732e-03
4.680000000000000000e+03 5.030391311645507812e+01 4.791787147521972656e+00 4.921311140060424805e-01 6.384166479110717773e-01 3.391643166542053223e-01 -2.386517822742462158e-01
4.681000000000000000e+03 5.015014266967773438e+01 6.200803756713867188e+00 4.678094685077667236e-01 5.645451545715332031e-01 3.097063899040222168e-01 -2.820750474929809570e-01
4.682000000000000000e+03 4.946699905395507812e+01 7.842716217041015625e+00 4.306850731372833252e-01 4.296789169311523438e-01 2.581092119216918945e-01 -3.606739938259124756e-01
4.683000000000000000e+03 4.447134399414062500e+01 8.054500579833984375e+00 2.754710316658020020e-01 1.032210588455200195e-01 1.136076301336288452e-01 -5.273184776306152344e-01
4.684000000000000000e+03 4.570503234863281250e+01 1.434028816223144531e+01 5.601393058896064758e-02 4.710285738110542297e-02 3.093503601849079132e-02 -6.630205512046813965e-01
4.685000000000000000e+03 4.814106750488281250e+01 5.512063026428222656e+00 4.211298823356628418e-01 4.130001664161682129e-01 2.502390146255493164e-01 -3.508904576301574707e-01
4.686000000000000000e+03 4.829768371582031250e+01 7.429280757904052734e+00 4.008719325065612793e-01 3.560152351856231689e-01 2.270661592483520508e-01 -3.993231654167175293e-01
4.687000000000000000e+03 5.549369430541992188e+01 1.911502265930175781e+01 -1.181794255971908569e-01 1.873800307512283325e-01 2.076018229126930237e-02 -4.905914068222045898e-01
4.688000000000000000e+03 5.577220916748046875e+01 1.861080169677734375e+01 -4.324520751833915710e-02 2.195763736963272095e-01 5.289934948086738586e-02 -4.559810757637023926e-01
4.689000000000000000e+03 4.643711090087890625e+01 1.512713146209716797e+01 2.224324829876422882e-02 5.424352362751960754e-02 2.294603176414966583e-02 -6.679035425186157227e-01
4.690000000000000000e+03 5.567308425903320312e+01 1.795778465270996094e+01 5.340466275811195374e-02 2.591087818145751953e-01 9.375403821468353271e-02 -4.274379909038543701e-01
4.691000000000000000e+03 5.495958328247070312e+01 1.874710655212402344e+01 -7.329238206148147583e-02 1.960593163967132568e-01 3.683007881045341492e-02 -5.025994181632995605e-01
4.692000000000000000e+03 5.303741073608398438e+01 9.729138374328613281e+00 5.016458034515380859e-01 6.157689690589904785e-01 3.352244198322296143e-01 -2.415636330842971802e-01
4.693000000000000000e+03 5.587030792236328125e+01 1.164041996002197266e+01 5.400582551956176758e-01 7.307695746421813965e-01 3.812483549118041992e-01 -1.295189261436462402e-01
4.694000000000000000e+03 5.270146179199218750e+01 1.098963737487792969e+01 4.540947079658508301e-01 5.076879858970642090e-01 2.885347902774810791e-01 -3.053720593452453613e-01
4.695000000000000000e+03 4.901697921752929688e+01 1.201860904693603516e+01 2.721283435821533203e-01 2.307344675064086914e-01 1.508588492870330811e-01 -5.199037790298461914e-01
4.696000000000000000e+03 1.426702117919921875e+01 1.252673983573913574e+00 -3.536652457114541903e-06 6.346952829971996835e-08 -1.041954874381190166e-06 -2.725851800278178416e-06
4.697000000000000000e+03 1.462149238586425781e+01 1.164639949798583984e+00 7.526901754317805171e-06 2.318961236369432299e-07 2.327639322174945846e-06 -1.085794565369724296e-06
4.698000000000000000e+03 1.332876110076904297e+01 1.093653082847595215e+00 -1.069537574949208647e-06 -1.661695705479360186e-06 -8.193699727598868776e-07 -1.190548687191039789e-06
4.699000000000000000e+03 1.406522464752197266e+01 3.572364747524261475e-01 -9.354777716907847207e-07 -1.010059804684715346e-06 -5.836612899656756781e-07 -1.704532337498676497e-07
4.700000000000000000e+03 1.336003494262695312e+01 3.511472940444946289e-01 4.233014863075368339e-07 1.668107529440021608e-06 6.274227075664384756e-07 4.764310972404928179e-07
4.701000000000000000e+03 1.476313018798828125e+01 5.016638040542602539e-01 3.967244879277131986e-07 5.583744950854452327e-07 2.865296835352637572e-07 2.711159652335481951e-07
4.702000000000000000e+03 1.414069938659667969e+01 9.322270154953002930e-01 4.615347734215902165e-06 -1.380482558488438372e-06 9.704594958748202771e-07 1.915936991281341761e-06
4.703000000000000000e+03 1.384797477722167969e+01 1.187353014945983887e+00 8.417988510700524785e-07 8.987687465378257912e-07 5.221702963353891391e-07 1.244264922206639312e-06
4.704000000000000000e+03 1.112969017028808594e+01 3.708996772766113281e-01 -6.238260539248585701e-07 -1.411604102941055316e-06 -6.106290584284579381e-07 2.517180632821691688e-07
4.705000000000000000e+03 1.113907623291015625e+01 1.110847473144531250e+00 2.023157321673352271e-06 1.029956933962239418e-06 9.159343221654125955e-07 -6.746888061570643913e-07
4.706000000000000000e+03 1.263169097900390625e+01 3.451149165630340576e-01 -4.881758854935469572e-07 -2.025054527621250600e-06 -7.539691750935162418e-07 -6.939945507156153326e-08
4.707000000000000000e+03 1.037880802154541016e+01 3.837110698223114014e-01 7.116194638001616113e-07 9.745764373292331584e-07 5.058587930761859752e-07 -1.598862979790283134e-07
4.708000000000000000e+03 1.188065242767333984e+01 3.580341637134552002e-01 5.188007321521581616e-07 1.865136141532275360e-06 7.151810450523043983e-07 -1.581077953005660675e-07
4.709000000000000000e+03 1.264514160156250000e+01 1.084993243217468262e+00 1.033366629599186126e-06 1.684101221144373994e-06 8.152403552230680361e-07 1.280899368794052862e-07
4.710000000000000000e+03 1.038616180419921875e+01 1.123693704605102539e+00 -2.237665512438979931e-06 -8.604550885138451122e-07 -9.294361689171637408e-07 3.413657054807117674e-07
4.711000000000000000e+03 1.189207077026367188e+01 1.097947120666503906e+00 -1.456082259210234042e-06 -1.450058903174067382e-06 -8.718423600839741994e-07 6.232736495803692378e-07
4.712000000000000000e+03 9.625078201293945312e+00 3.871397972106933594e-01 -7.306437623810779769e-07 -8.296398732454690617e-07 -4.680850906879641116e-07 -5.278169723510472977e-08
4.713000000000000000e+03 8.868724822998046875e+00 3.828192353248596191e-01 7.436387363668472972e-07 1.033610828926612157e-06 5.331748980097472668e-07 2.414346340628981125e-07
4.714000000000000000e+03 9.644926071166992188e+00 1.127139806747436523e+00 2.321363353985361755e-06 9.218484251505287830e-07 9.729635621624765918e-07 1.419839605887318612e-07
4.715000000000000000e+03 8.112174034118652344e+00 3.804100155830383301e-01 -7.479587225134309847e-07 -1.447096565243555233e-06 -6.585165692740702070e-07 -3.917612048098817468e-07
4.716000000000000000e+03 7.356014251708984375e+00 3.793691694736480713e-01 7.862366828703670762e-07 1.940595439009484835e-06 8.180496138265880290e-07 5.145473096490604803e-07
4.717000000000000000e+03 5.843623161315917969e+00 3.767499327659606934e-01 7.620894280080392491e-07 2.552784508225158788e-06 9.944621979229850695e-07 5.409425511970766820e-07
4.718000000000000000e+03 5.088051319122314453e+00 3.757717311382293701e-01 -5.387669830270169768e-07 -2.340644414289272390e-06 -8.638234589852800127e-07 -3.000889421400643187e-07
4.719000000000000000e+03 3.576755046844482422e+00 3.680583238601684570e-01 -6.601127893191005569e-07 -9.885412737276055850e-07 -4.945962359670375008e-07 6.787600170810037525e-08
4.720000000000000000e+03 2.822042465209960938e+00 3.613462746143341064e-01 1.003475404104392510e-06 5.578896207225625403e-07 4.684094960794027429e-07 5.304448436049824522e-08
4.721000000000000000e+03 2.068703651428222656e+00 3.577998280525207520e-01 -7.060364737299096305e-07 -4.100413661944912747e-07 -3.348233690303459298e-07 -7.358161013826247654e-08
4.722000000000000000e+03 2.358754634857177734e+00 1.097799897193908691e+00 2.243506742161116563e-06 1.033503735925478395e-06 9.831031775320298038e-07 2.989962126775935758e-07
4.723000000000000000e+03 1.327708005905151367e+00 3.658417165279388428e-01 -7.311138916499260176e-10 -7.194904583229799755e-08 -2.180404834462024155e-08 -5.805864020658191293e-07
4.724000000000000000e+03 1.644779324531555176e+00 1.105841755867004395e+00 -1.048039166562375613e-06 -1.846368604674353264e-06 -8.683223313710186630e-07 -2.352229842017550254e-07
4.725000000000000000e+03 6.509408354759216309e-01 3.937322795391082764e-01 2.430738732073223218e-06 1.946478505487903021e-06 1.313165171268337872e-06 2.684796754692797549e-06
4.726000000000000000e+03 3.482567369937896729e-01 9.569563269615173340e-01 -3.780508450290653855e-06 -2.503003315723617561e-06 -1.885053507066913880e-06 -7.589419510622974485e-07
4.727000000000000000e+03 3.085073232650756836e+00 1.101346254348754883e+00 -2.463759074089466594e-06 -1.043708834913559258e-06 -1.052240349963540211e-06 9.733096106856464758e-08
4.728000000000000000e+03 3.812765598297119141e+00 1.108058333396911621e+00 2.046541794697986916e-06 1.486681867390871048e-06 1.059967075889289845e-06 -5.326697873897501267e-07
4.729000000000000000e+03 4.332499980926513672e+00 3.732680678367614746e-01 6.750454986104159616e-07 1.706672946966136806e-06 7.145155223042820580e-07 4.342427928349934518e-08
4.730000000000000000e+03 5.998572826385498047e+00 1.116749882698059082e+00 -1.690559770395339001e-06 -1.960340341611299664e-06 -1.095270022233307827e-06 -4.492105745157459751e-07
4.731000000000000000e+03 6.600036144256591797e+00 3.784387111663818359e-01 -7.529267804784467444e-07 -2.357003268116386607e-06 -9.329789918410824612e-07 -5.725046321458648890e-07
4.732000000000000000e+03 8.186062812805175781e+00 1.120409965515136719e+00 2.139982143489760347e-06 1.318140562034386676e-06 1.037436845763295423e-06 7.360786185017786920e-07
4.733000000000000000e+03 8.915593147277832031e+00 1.122819185256958008e+00 -2.196274863308644854e-06 -1.083659412870474625e-06 -9.839802714850520715e-07 -5.189253897697199136e-07
4.734000000000000000e+03 7.456923484802246094e+00 1.119369149208068848e+00 -2.084290827042423189e-06 -1.557169298394001089e-06 -1.092437969418824650e-06 -8.006705911611788906e-07
4.735000000000000000e+03 6.727965354919433594e+00 1.118438720703125000e+00 1.981095692826784216e-06 1.799301799110253341e-06 1.134119202106376179e-06 7.548092639808601234e-07
4.736000000000000000e+03 5.270021438598632812e+00 1.115771770477294922e+00 1.427041638635273557e-06 2.064967929982230999e-06 1.047602836479200050e-06 4.827110799965339538e-08
4.737000000000000000e+03 4.541490077972412109e+00 1.113268017768859863e+00 -1.391303385389619507e-06 -1.952704224095214158e-06 -1.003202214633347467e-06 4.628928138572518947e-07
4.738000000000000000e+03 9.950323700904846191e-01 1.133732318878173828e+00 -9.427786835658480413e-07 3.923759322788100690e-06 8.942942599787784275e-07 -1.144506427408487070e-06
4.739000000000000000e+03 7.951600551605224609e+00 -3.791473805904388428e-01 -6.765293073840439320e-05 -2.410032029729336500e-04 -9.259684156859293580e-05 9.350544132757931948e-06
4.740000000000000000e+03 8.812386512756347656e+00 -1.121279358863830566e+00 -1.718180865282192826e-04 -1.578308292664587498e-04 -9.889467037282884121e-05 -1.389989165545557626e-06
4.741000000000000000e+03 9.587816238403320312e+00 -3.863115906715393066e-01 -6.471705273725092411e-05 -2.428902080282568932e-04 -9.228217822965234518e-05 1.676844112807884812e-05
4.742000000000000000e+03 7.132064342498779297e+00 -3.779651820659637451e-01 8.437304495600983500e-05 2.158470597350969911e-04 9.006603067973628640e-05 -1.448603688913863152e-05
4.743000000000000000e+03 6.306247234344482422e+00 -3.772793114185333252e-01 -1.084010364138521254e-04 -2.112267538905143738e-04 -9.588833927409723401e-05 4.373714909888803959e-05
4.744000000000000000e+03 5.442752361297607422e+00 -3.835102021694183350e-01 3.245336847612634301e-05 2.078899851767346263e-04 7.210300827864557505e-05 -1.571233042341191322e-05
4.745000000000000000e+03 4.552286148071289062e+00 -3.399353623390197754e-01 -1.155334466602653265e-04 -2.380562655162066221e-04 -1.060769136529415846e-04 7.209732757473830134e-06
4.746000000000000000e+03 4.371328830718994141e+00 -8.708365559577941895e-01 7.401363691315054893e-04 3.250832960475236177e-04 3.195658791810274124e-04 3.344715514685958624e-04
4.747000000000000000e+03 2.785328388214111328e+00 -7.796061038970947266e-01 1.704702444840222597e-04 -4.179274837952107191e-04 -7.423717033816501498e-05 6.595373270101845264e-04
4.748000000000000000e+03 1.180722951889038086e+00 -3.608860373497009277e-01 -5.715645384043455124e-04 3.856480179820209742e-04 -5.577495176112279296e-05 -2.589000905572902411e-05
4.749000000000000000e+03 4.099212884902954102e-01 -5.526853203773498535e-01 -6.350984040182083845e-05 -2.983870508614927530e-04 -1.085690673789940774e-04 -1.683961454546079040e-04
4.750000000000000000e+03 7.477942705154418945e-01 -1.100885987281799316e+00 1.747882459312677383e-03 3.687404387164860964e-04 6.349868490360677242e-04 4.053774464409798384e-04
4.751000000000000000e+03 9.597747802734375000e+00 -1.126311540603637695e+00 1.816072617657482624e-04 1.700236462056636810e-04 1.054892709362320602e-04 -3.106627627857960761e-05
4.752000000000000000e+03 8.026608467102050781e+00 -1.119147419929504395e+00 1.728699717205017805e-04 1.207650930155068636e-04 8.809052087599411607e-05 3.864892642013728619e-05
4.753000000000000000e+03 7.239610195159912109e+00 -1.117965221405029297e+00 -1.918649941217154264e-04 -4.214600994600914419e-05 -7.020330667728558183e-05 -7.502952939830720425e-05
4.754000000000000000e+03 6.446331024169921875e+00 -1.117279291152954102e+00 1.933697931235656142e-04 -1.282324228668585420e-04 1.954121034941636026e-05 1.298951538046821952e-04
4.755000000000000000e+03 5.615375041961669922e+00 -1.123510241508483887e+00 -2.756035246420651674e-05 2.830973826348781586e-04 7.666111196158453822e-05 -1.744923793012276292e-04
4.756000000000000000e+03 4.879715442657470703e+00 -1.221276640892028809e+00 -2.454922650940716267e-04 -7.787952199578285217e-04 -3.072862455155700445e-04 -9.063761535799130797e-05
4.757000000000000000e+03 4.223337173461914062e+00 -1.290901184082031250e+00 -5.316825117915868759e-04 6.953023257665336132e-04 4.908592745778150856e-05 -1.745547820064530242e-06
4.758000000000000000e+03 3.489140987396240234e+00 -1.263193726539611816e+00 3.366565797477960587e-04 -2.797970664687454700e-04 1.705785143713001162e-05 3.799201222136616707e-04
4.759000000000000000e+03 2.723763942718505859e+00 -1.258556365966796875e+00 1.573458139318972826e-04 -2.935520315077155828e-04 -4.086186891072429717e-05 -6.520190509036183357e-04
4.760000000000000000e+03 1.357383847236633301e+00 -1.202877521514892578e+00 -1.818782533518970013e-03 -8.735805749893188477e-04 -8.077089441940188408e-04 -1.788188237696886063e-04
4.761000000000000000e+03 8.769917488098144531e+00 -3.812793791294097900e-01 6.718419899698346853e-05 2.538441622164100409e-04 9.630851127440109849e-05 -1.386358417221345007e-05
4.762000000000000000e+03 3.581377506256103516e+00 -7.854385375976562500e-01 -2.892993798013776541e-04 -5.957803659839555621e-05 -1.046632241923362017e-04 -4.092748567927628756e-04
4.763000000000000000e+03 3.695749998092651367e+00 -2.822447717189788818e-01 2.267668605782091618e-05 2.645839995238929987e-04 8.617821004008874297e-05 8.006017742445692420e-05
4.764000000000000000e+03 2.864297151565551758e+00 -2.810497581958770752e-01 -2.098712429869920015e-04 -1.969183795154094696e-04 -1.220368867507204413e-04 -1.316760753979906440e-04
4.765000000000000000e+03 1.994235515594482422e+00 -3.319245874881744385e-01 -3.524882777128368616e-05 -2.450481588311959058e-05 -1.792609327821992338e-05 2.539789420552551746e-04
4.766000000000000000e+03 1.981270551681518555e+00 -1.274680376052856445e+00 4.167152656009420753e-05 9.344865102320909500e-04 2.928473986685276031e-04 5.768880364485085011e-04
4.767000000000000000e+03 1.973554253578186035e+00 -8.466050028800964355e-01 9.227239061146974564e-04 5.592325469478964806e-04 4.445869417395442724e-04 -9.604989318177103996e-04
4.768000000000000000e+03 1.332448291778564453e+01 -3.621845245361328125e-01 3.056530840694904327e-05 2.122437581419944763e-04 7.284271850949153304e-05 4.613053897628560662e-05
4.769000000000000000e+03 1.426397991180419922e+01 -1.317608714103698730e+00 -1.296656264457851648e-04 -1.648189499974250793e-04 -8.834536856738850474e-05 1.637838977330829948e-05
4.770000000000000000e+03 1.327361392974853516e+01 -1.248556852340698242e+00 -5.318715702742338181e-04 -1.220202902914024889e-04 -1.961675588972866535e-04 1.706401963019743562e-04
4.771000000000000000e+03 1.480296707153320312e+01 -1.047354817390441895e+00 3.148926771245896816e-05 3.050210398214403540e-05 1.859741132648196071e-05 -3.255387855460867286e-05
4.772000000000000000e+03 1.356446647644042969e+01 -7.579438090324401855e-01 3.861260192934423685e-04 6.730917084496468306e-05 1.360305614070966840e-04 -1.608523307368159294e-04
4.773000000000000000e+03 1.393659019470214844e+01 -3.302382230758666992e-01 -8.840695954859256744e-05 -1.723405293887481093e-04 -7.822424959158524871e-05 4.070474460604600608e-05
4.774000000000000000e+03 1.449034786224365234e+01 -4.399540424346923828e-01 8.397625788347795606e-05 3.165842645103111863e-05 3.469040530035272241e-05 -2.059874987025978044e-06
4.775000000000000000e+03 1.380024147033691406e+01 -1.352263331413269043e+00 5.323721561580896378e-04 1.201350751216523349e-04 1.957521744770929217e-04 -1.028677943395450711e-04
4.776000000000000000e+03 1.402595424652099609e+01 -9.610455632209777832e-01 -2.684843493625521660e-04 -6.508218211820349097e-05 -1.000699630822055042e-04 1.171146068372763693e-04
4.777000000000000000e+03 1.185737037658691406e+01 -1.162281751632690430e+00 -1.679058186709880829e-04 -2.018812956521287560e-04 -1.109361401177011430e-04 2.328173468413297087e-05
4.778000000000000000e+03 1.112013435363769531e+01 -4.102526009082794189e-01 -6.283957918640226126e-05 -2.050332841463387012e-04 -8.036186045501381159e-05 1.261848683498101309e-05
4.779000000000000000e+03 1.261753940582275391e+01 -4.348734915256500244e-01 -1.061581424437463284e-04 -1.497639750596135855e-04 -7.677663234062492847e-05 -8.089512448350433260e-06
4.780000000000000000e+03 1.037124824523925781e+01 -3.971002995967864990e-01 6.763482815586030483e-05 2.355358737986534834e-04 9.095120913116261363e-05 -1.599077586433850229e-05
4.781000000000000000e+03 1.036389350891113281e+01 -1.137082934379577637e+00 -2.067392633762210608e-04 -1.757129357429221272e-04 -1.147356597357429564e-04 4.061156869283877313e-05
4.782000000000000000e+03 1.260408973693847656e+01 -1.174751639366149902e+00 2.592017699498683214e-04 1.813497074181213975e-04 1.321654417552053928e-04 -3.802681385423056781e-05
4.783000000000000000e+03 1.111074829101562500e+01 -1.150200366973876953e+00 1.948105636984109879e-04 1.728886709315702319e-04 1.103097674786113203e-04 -2.938173383881803602e-05
4.784000000000000000e+03 1.186878871917724609e+01 -4.223687946796417236e-01 5.151400546310469508e-05 1.673797814873978496e-04 6.566813681274652481e-05 -2.358880010433495045e-05
4.785000000000000000e+03 7.577347564697265625e+01 3.087157630920410156e+01 3.205530929565429688e+01 6.894886493682861328e+00 1.168505859375000000e+01 1.311531925201416016e+01
4.786000000000000000e+03 7.577742767333984375e+01 3.085251426696777344e+01 2.890963172912597656e+01 2.029033088684082031e+01 1.475998878479003906e+01 2.507327461242675781e+01
4.787000000000000000e+03 7.578501892089843750e+01 3.083458518981933594e+01 2.618943405151367188e+01 3.325429153442382812e+01 1.783311843872070312e+01 2.920764541625976562e+01
4.788000000000000000e+03 7.579595184326171875e+01 3.081847763061523438e+01 2.184921455383300781e+01 4.654048156738281250e+01 2.051690864562988281e+01 3.033898735046386719e+01
4.789000000000000000e+03 7.580981445312500000e+01 3.080480766296386719e+01 1.813061332702636719e+01 5.865803909301757812e+01 2.303659629821777344e+01 2.820656013488769531e+01
4.790000000000000000e+03 7.582607269287109375e+01 3.079409790039062500e+01 1.461008739471435547e+01 6.895385742187500000e+01 2.506918334960937500e+01 2.342689895629882812e+01
4.791000000000000000e+03 7.584410858154296875e+01 3.078675651550292969e+01 1.286093616485595703e+01 7.636126708984375000e+01 2.676666069030761719e+01 1.675347900390625000e+01
4.792000000000000000e+03 7.586322021484375000e+01 3.078306770324707031e+01 1.296439647674560547e+01 8.047550201416015625e+01 2.803197097778320312e+01 8.934035301208496094e+00
4.793000000000000000e+03 7.588269042968750000e+01 3.078316879272460938e+01 1.522974205017089844e+01 8.111727142333984375e+01 2.890410423278808594e+01 1.336079239845275879e+00
4.794000000000000000e+03 7.590176391601562500e+01 3.078705978393554688e+01 1.950511932373046875e+01 7.873915100097656250e+01 2.947328186035156250e+01 -5.240801334381103516e+00
4.795000000000000000e+03 7.591971588134765625e+01 3.079458808898925781e+01 2.486335754394531250e+01 7.413887786865234375e+01 2.970067024230957031e+01 -9.827410697937011719e+00
4.796000000000000000e+03 7.593585968017578125e+01 3.080546951293945312e+01 3.101773452758789062e+01 6.838866424560546875e+01 2.982192039489746094e+01 -1.210803890228271484e+01
4.797000000000000000e+03 7.594957733154296875e+01 3.081928443908691406e+01 3.656774520874023438e+01 6.239759826660156250e+01 2.968960189819335938e+01 -1.213440036773681641e+01
4.798000000000000000e+03 7.596034240722656250e+01 3.083550643920898438e+01 4.139018249511718750e+01 5.732595062255859375e+01 2.961484146118164062e+01 -1.009093093872070312e+01
4.799000000000000000e+03 7.596774291992187500e+01 3.085351371765136719e+01 4.472249603271484375e+01 5.354196166992187500e+01 2.947933578491210938e+01 -6.612287998199462891e+00
4.800000000000000000e+03 7.597149658203125000e+01 3.087261581420898438e+01 4.642224121093750000e+01 5.155633544921875000e+01 2.939357376098632812e+01 -2.238235950469970703e+00
4.801000000000000000e+03 7.597145843505859375e+01 3.089208412170410156e+01 4.641390228271484375e+01 5.162261199951171875e+01 2.941095352172851562e+01 2.395170688629150391e+00
4.802000000000000000e+03 7.596763610839843750e+01 3.091117095947265625e+01 4.462984085083007812e+01 5.361152648925781250e+01 2.947241020202636719e+01 6.779274940490722656e+00
4.803000000000000000e+03 7.596015930175781250e+01 3.092914962768554688e+01 4.124531555175781250e+01 5.732389068603515625e+01 2.957076263427734375e+01 1.020540618896484375e+01
4.804000000000000000e+03 7.594933319091796875e+01 3.094532966613769531e+01 3.649975204467773438e+01 6.266473007202148438e+01 2.974934387207031250e+01 1.214946269989013672e+01
4.805000000000000000e+03 7.593556213378906250e+01 3.095909309387207031e+01 3.067148971557617188e+01 6.834404754638671875e+01 2.970466041564941406e+01 1.217727279663085938e+01
4.806000000000000000e+03 7.591938018798828125e+01 3.096991157531738281e+01 2.489764976501464844e+01 7.432147979736328125e+01 2.976573944091796875e+01 9.721011161804199219e+00
4.807000000000000000e+03 7.590139770507812500e+01 3.097737312316894531e+01 1.919159317016601562e+01 7.868466949462890625e+01 2.936287689208984375e+01 5.140033721923828125e+00
4.808000000000000000e+03 7.588230895996093750e+01 3.098118972778320312e+01 1.523958015441894531e+01 8.110429382324218750e+01 2.890316390991210938e+01 -1.497710943222045898e+00
4.809000000000000000e+03 7.586283874511718750e+01 3.098121643066406250e+01 1.280767154693603516e+01 8.027199554443359375e+01 2.792390060424804688e+01 -9.091795921325683594e+00
4.810000000000000000e+03 7.584374237060546875e+01 3.097745513916015625e+01 1.285747432708740234e+01 7.609991455078125000e+01 2.668721771240234375e+01 -1.688832855224609375e+01
4.811000000000000000e+03 7.582573699951171875e+01 3.097004508972167969e+01 1.458785629272460938e+01 6.860762023925781250e+01 2.495864295959472656e+01 -2.349874305725097656e+01
4.812000000000000000e+03 7.580951690673828125e+01 3.095927238464355469e+01 1.801428794860839844e+01 5.818498992919921875e+01 2.285978317260742188e+01 -2.823411750793457031e+01
4.813000000000000000e+03 7.579570770263671875e+01 3.094554901123046875e+01 2.173584365844726562e+01 4.618314361572265625e+01 2.037569618225097656e+01 -3.025145912170410156e+01
4.814000000000000000e+03 7.578483581542968750e+01 3.092939949035644531e+01 2.590267944335937500e+01 3.279542541503906250e+01 1.760943222045898438e+01 -2.908927536010742188e+01
4.815000000000000000e+03 7.577732086181640625e+01 3.091144180297851562e+01 2.855405616760253906e+01 2.002228736877441406e+01 1.457290363311767578e+01 -2.490987586975097656e+01
4.816000000000000000e+03 7.577343750000000000e+01 3.089236450195312500e+01 3.152296066284179688e+01 6.706581115722656250e+00 1.146886253356933594e+01 -1.289328289031982422e+01
