# el_label, x, y, sXX, sYY, sZZ, sXY
1.000000000000000000e+00 6.057649612426757812e+01 3.099493217468261719e+01 -6.762682914733886719e+00 -2.291946172714233398e+00 -2.716388702392578125e+00 -2.589757919311523438e+00
2.000000000000000000e+00 6.037767028808593750e+01 3.098570251464843750e+01 -1.935985207557678223e+00 8.971453309059143066e-01 -3.116519749164581299e-01 8.368219137191772461e-01
3.000000000000000000e+00 6.017884445190429688e+01 3.097647094726562500e+01 -3.111693143844604492e+00 -4.159762561321258545e-01 -1.058300852775573730e+00 5.860364064574241638e-02
4.000000000000000000e+00 5.998001480102539062e+01 3.096724128723144531e+01 -3.310369491577148438e+00 1.707121580839157104e-01 -9.418972134590148926e-01 3.140668272972106934e-01
5.000000000000000000e+00 6.058489990234375000e+01 3.093713378906250000e+01 9.021905899047851562e+00 -2.607944726943969727e+00 1.924188375473022461e+00 1.140825986862182617e+00
6.000000000000000000e+00 6.039167404174804688e+01 3.088937377929687500e+01 2.151841402053833008e+00 1.826139688491821289e-01 7.003365755081176758e-01 1.128418207168579102e+00
7.000000000000000000e+00 6.019844818115234375e+01 3.084161186218261719e+01 2.105180025100708008e+00 6.324451565742492676e-01 8.212875127792358398e-01 1.916306138038635254e+00
8.000000000000000000e+00 6.000522232055664062e+01 3.079385185241699219e+01 8.659579753875732422e-01 6.601513363420963287e-03 2.617678344249725342e-01 1.216491460800170898e+00
9.000000000000000000e+00 6.060439300537109375e+01 3.088207817077636719e+01 1.495372772216796875e+01 1.671914935111999512e+00 4.987692832946777344e+00 8.042876243591308594e+00
1.000000000000000000e+01 6.042416381835937500e+01 3.079761505126953125e+01 8.450049400329589844e+00 9.646279811859130859e-01 2.824403285980224609e+00 4.673028945922851562e+00
1.100000000000000000e+01 6.024393081665039062e+01 3.071315002441406250e+01 5.264868736267089844e+00 1.637227773666381836e+00 2.070628881454467773e+00 3.839645862579345703e+00
1.200000000000000000e+01 6.006369781494140625e+01 3.062868499755859375e+01 4.389164447784423828e+00 1.505412101745605469e+00 1.768373012542724609e+00 3.646864891052246094e+00
1.300000000000000000e+01 6.063423156738281250e+01 3.083187103271484375e+01 1.719151306152343750e+01 7.967701911926269531e+00 7.547764301300048828e+00 1.363230895996093750e+01
1.400000000000000000e+01 6.047389221191406250e+01 3.071393585205078125e+01 1.060591316223144531e+01 4.889943599700927734e+00 4.648756980895996094e+00 8.883730888366699219e+00
1.500000000000000000e+01 6.031355285644531250e+01 3.059599876403808594e+01 8.071177482604980469e+00 3.985742092132568359e+00 3.617075920104980469e+00 7.051288604736328125e+00
1.600000000000000000e+01 6.015321350097656250e+01 3.047806167602539062e+01 6.189825057983398438e+00 3.710631370544433594e+00 2.970136880874633789e+00 6.013658523559570312e+00
1.700000000000000000e+01 6.067327117919921875e+01 3.078843307495117188e+01 1.576652812957763672e+01 1.619842529296875000e+01 9.589486122131347656e+00 1.742066955566406250e+01
1.800000000000000000e+01 6.053895950317382812e+01 3.064153861999511719e+01 1.099652671813964844e+01 1.040954971313476562e+01 6.421823024749755859e+00 1.217388057708740234e+01
1.900000000000000000e+01 6.040465164184570312e+01 3.049464416503906250e+01 8.334067344665527344e+00 8.200687408447265625e+00 4.960426330566406250e+00 9.716659545898437500e+00
2.000000000000000000e+01 6.027033996582031250e+01 3.034774971008300781e+01 6.893481254577636719e+00 7.062425136566162109e+00 4.186771869659423828e+00 8.481275558471679688e+00
2.100000000000000000e+01 6.072002410888671875e+01 3.075342750549316406e+01 1.311826229095458984e+01 2.498999595642089844e+01 1.143247699737548828e+01 1.866498184204101562e+01
2.200000000000000000e+01 6.061687850952148438e+01 3.058319664001464844e+01 9.394386291503906250e+00 1.692169761657714844e+01 7.894824981689453125e+00 1.374954319000244141e+01
2.300000000000000000e+01 6.051373672485351562e+01 3.041296386718750000e+01 7.564301013946533203e+00 1.349762058258056641e+01 6.318576335906982422e+00 1.137491798400878906e+01
2.400000000000000000e+01 6.041059494018554688e+01 3.024273300170898438e+01 5.983084201812744141e+00 1.144831085205078125e+01 5.229418277740478516e+00 9.818871498107910156e+00
2.500000000000000000e+01 6.077269363403320312e+01 3.072819328308105469e+01 9.791448593139648438e+00 3.327991104125976562e+01 1.292140769958496094e+01 1.726288414001464844e+01
2.600000000000000000e+01 6.070466613769531250e+01 3.054113960266113281e+01 7.556170940399169922e+00 2.346170616149902344e+01 9.305362701416015625e+00 1.350527095794677734e+01
2.700000000000000000e+01 6.063663864135742188e+01 3.035408401489257812e+01 5.769647598266601562e+00 1.900828933715820312e+01 7.433381557464599609e+00 1.141466331481933594e+01
2.800000000000000000e+01 6.056860733032226562e+01 3.016702842712402344e+01 4.774859428405761719e+00 1.649634933471679688e+01 6.381362438201904297e+00 1.011373043060302734e+01
2.900000000000000000e+01 6.082926940917968750e+01 3.071369552612304688e+01 7.610035896301269531e+00 4.001068878173828125e+01 1.428621768951416016e+01 1.377600669860839844e+01
3.000000000000000000e+01 6.079896163940429688e+01 3.051697540283203125e+01 5.695382118225097656e+00 2.918937110900878906e+01 1.046542549133300781e+01 1.146592426300048828e+01
3.100000000000000000e+01 6.076865005493164062e+01 3.032025718688964844e+01 4.329102039337158203e+00 2.410509300231933594e+01 8.530258178710937500e+00 1.005767345428466797e+01
3.200000000000000000e+01 6.073833847045898438e+01 3.012353706359863281e+01 3.397532224655151367e+00 2.094719314575195312e+01 7.303417682647705078e+00 8.969536781311035156e+00
3.300000000000000000e+01 6.088758850097656250e+01 3.071049118041992188e+01 6.969792842864990234e+00 4.447449874877929688e+01 1.543328762054443359e+01 8.864829063415527344e+00
3.400000000000000000e+01 6.089615631103515625e+01 3.051163482666015625e+01 4.831588268280029297e+00 3.352239608764648438e+01 1.150619506835937500e+01 8.298760414123535156e+00
3.500000000000000000e+01 6.090472412109375000e+01 3.031277847290039062e+01 3.540148735046386719e+00 2.803612899780273438e+01 9.472883224487304688e+00 7.415162086486816406e+00
3.600000000000000000e+01 6.091328811645507812e+01 3.011392211914062500e+01 2.575468540191650391e+00 2.458529853820800781e+01 8.148229598999023438e+00 6.780669212341308594e+00
3.700000000000000000e+01 6.094541168212890625e+01 3.071870040893554688e+01 8.167004585266113281e+00 4.646577072143554688e+01 1.638983345031738281e+01 3.760530948638916016e+00
3.800000000000000000e+01 6.099253082275390625e+01 3.052531623840332031e+01 5.356696128845214844e+00 3.604007720947265625e+01 1.241903209686279297e+01 4.457434177398681641e+00
3.900000000000000000e+01 6.103964614868164062e+01 3.033193206787109375e+01 3.702004671096801758e+00 3.052165031433105469e+01 1.026709651947021484e+01 4.221302509307861328e+00
4.000000000000000000e+01 6.108676528930664062e+01 3.013854980468750000e+01 2.827143907546997070e+00 2.701527786254882812e+01 8.952726364135742188e+00 3.960973262786865234e+00
4.100000000000000000e+01 6.100053405761718750e+01 3.073801040649414062e+01 1.112842273712158203e+01 4.624042892456054688e+01 1.721065521240234375e+01 -6.856440901756286621e-01
4.200000000000000000e+01 6.108439636230468750e+01 3.055749893188476562e+01 7.130729675292968750e+00 3.677862167358398438e+01 1.317280578613281250e+01 7.432588934898376465e-01
4.300000000000000000e+01 6.116825866699218750e+01 3.037698745727539062e+01 5.185949325561523438e+00 3.139238166809082031e+01 1.097349929809570312e+01 1.024974584579467773e+00
4.400000000000000000e+01 6.125212478637695312e+01 3.019647598266601562e+01 3.977017641067504883e+00 2.790612602233886719e+01 9.564942359924316406e+00 1.150176286697387695e+00
4.500000000000000000e+01 6.105083847045898438e+01 3.076768112182617188e+01 1.519219398498535156e+01 4.444644927978515625e+01 1.789159393310546875e+01 -3.776705503463745117e+00
4.600000000000000000e+01 6.116823959350585938e+01 3.060695075988769531e+01 1.001675510406494141e+01 3.592934036254882812e+01 1.378382873535156250e+01 -2.219020366668701172e+00
4.700000000000000000e+01 6.128564453125000000e+01 3.044622039794921875e+01 7.664842605590820312e+00 3.091069602966308594e+01 1.157266139984130859e+01 -1.581488013267517090e+00
4.800000000000000000e+01 6.140304565429687500e+01 3.028549003601074219e+01 6.125428199768066406e+00 2.741383171081542969e+01 1.006177806854248047e+01 -1.266366720199584961e+00
4.900000000000000000e+01 6.109440612792968750e+01 3.080657768249511719e+01 1.950632095336914062e+01 4.174683761596679688e+01 1.837594795227050781e+01 -5.269025802612304688e+00
5.000000000000000000e+01 6.124085235595703125e+01 3.067177772521972656e+01 1.362047672271728516e+01 3.411423873901367188e+01 1.432041454315185547e+01 -3.916464328765869141e+00
5.100000000000000000e+01 6.138730239868164062e+01 3.053697967529296875e+01 1.066118240356445312e+01 2.933391571044921875e+01 1.199852943420410156e+01 -3.216314792633056641e+00
5.200000000000000000e+01 6.153374481201171875e+01 3.040218162536621094e+01 8.881979942321777344e+00 2.629068374633789062e+01 1.055179977416992188e+01 -2.800066232681274414e+00
5.300000000000000000e+01 6.112957000732421875e+01 3.085321235656738281e+01 2.354425430297851562e+01 3.910123062133789062e+01 1.879364585876464844e+01 -5.119356155395507812e+00
5.400000000000000000e+01 6.129945373535156250e+01 3.074950218200683594e+01 1.715230751037597656e+01 3.173936080932617188e+01 1.466750049591064453e+01 -4.272672176361083984e+00
5.500000000000000000e+01 6.146934127807617188e+01 3.064579391479492188e+01 1.382381057739257812e+01 2.747284126281738281e+01 1.238899517059326172e+01 -3.571785449981689453e+00
5.600000000000000000e+01 6.163922882080078125e+01 3.054208374023437500e+01 1.155552959442138672e+01 2.456815910339355469e+01 1.083710670471191406e+01 -3.146636724472045898e+00
5.700000000000000000e+01 6.115497970581054688e+01 3.090579986572265625e+01 2.664564895629882812e+01 3.683628845214843750e+01 1.904458236694335938e+01 -3.692042112350463867e+00
5.800000000000000000e+01 6.134180450439453125e+01 3.083714866638183594e+01 2.009173583984375000e+01 2.968233871459960938e+01 1.493222236633300781e+01 -3.294977903366088867e+00
5.900000000000000000e+01 6.152863311767578125e+01 3.076849746704101562e+01 1.643839645385742188e+01 2.563910675048828125e+01 1.262325096130371094e+01 -2.768578052520751953e+00
6.000000000000000000e+01 6.171546173095703125e+01 3.069984626770019531e+01 1.400501346588134766e+01 2.296401786804199219e+01 1.109070968627929688e+01 -2.409267663955688477e+00
6.100000000000000000e+01 6.116966247558593750e+01 3.096232795715332031e+01 2.847538566589355469e+01 3.544416046142578125e+01 1.917586326599121094e+01 -1.423470735549926758e+00
6.200000000000000000e+01 6.136628341674804688e+01 3.093136215209960938e+01 2.188923835754394531e+01 2.836476135253906250e+01 1.507620048522949219e+01 -1.305541992187500000e+00
6.300000000000000000e+01 6.156290054321289062e+01 3.090039634704589844e+01 1.804074478149414062e+01 2.440168762207031250e+01 1.273272991180419922e+01 -1.111662268638610840e+00
6.400000000000000000e+01 6.175951766967773438e+01 3.086943054199218750e+01 1.558749294281005859e+01 2.196269416809082031e+01 1.126505661010742188e+01 -9.528048634529113770e-01
6.500000000000000000e+01 6.117306137084960938e+01 3.102063369750976562e+01 2.884960937500000000e+01 3.514277648925781250e+01 1.919771575927734375e+01 1.234616160392761230e+00
6.600000000000000000e+01 6.137194824218750000e+01 3.102853775024414062e+01 2.225099754333496094e+01 2.805558013916015625e+01 1.509197330474853516e+01 1.150165677070617676e+00
6.700000000000000000e+01 6.157083129882812500e+01 3.103644371032714844e+01 1.832707214355468750e+01 2.418608474731445312e+01 1.275394725799560547e+01 9.691623449325561523e-01
6.800000000000000000e+01 6.176971435546875000e+01 3.104434776306152344e+01 1.571862792968750000e+01 2.166289138793945312e+01 1.121445560455322266e+01 9.158329367637634277e-01
6.900000000000000000e+01 6.116504669189453125e+01 3.107848548889160156e+01 2.773239517211914062e+01 3.598939132690429688e+01 1.911653709411621094e+01 3.814522027969360352e+00
7.000000000000000000e+01 6.135858535766601562e+01 3.112495803833007812e+01 2.108751678466796875e+01 2.883451080322265625e+01 1.497660923004150391e+01 3.453848600387573242e+00
7.100000000000000000e+01 6.155212402343750000e+01 3.117143058776855469e+01 1.723225784301757812e+01 2.501560401916503906e+01 1.267435932159423828e+01 2.974157810211181641e+00
7.200000000000000000e+01 6.174566650390625000e+01 3.121790313720703125e+01 1.464277076721191406e+01 2.220716476440429688e+01 1.105498123168945312e+01 2.714253664016723633e+00
7.300000000000000000e+01 6.114591979980468750e+01 3.113366889953613281e+01 2.516121673583984375e+01 3.775571441650390625e+01 1.887508010864257812e+01 5.830383777618408203e+00
7.400000000000000000e+01 6.132670974731445312e+01 3.121693229675292969e+01 1.859778976440429688e+01 3.066769599914550781e+01 1.477964591979980469e+01 5.008228778839111328e+00
7.500000000000000000e+01 6.150749969482421875e+01 3.130019378662109375e+01 1.497580432891845703e+01 2.648745346069335938e+01 1.243897724151611328e+01 4.380254268646240234e+00
7.600000000000000000e+01 6.168828964233398438e+01 3.138345527648925781e+01 1.270975494384765625e+01 2.371700859069824219e+01 1.092802906036376953e+01 3.872215747833251953e+00
7.700000000000000000e+01 6.111641693115234375e+01 3.118407440185546875e+01 2.148217964172363281e+01 4.034605026245117188e+01 1.854846954345703125e+01 6.732434749603271484e+00
7.800000000000000000e+01 6.127753829956054688e+01 3.130093955993652344e+01 1.513420104980468750e+01 3.295045852661132812e+01 1.442539787292480469e+01 5.453245639801025391e+00
7.900000000000000000e+01 6.143865966796875000e+01 3.141780471801757812e+01 1.201554393768310547e+01 2.842425346374511719e+01 1.213193988800048828e+01 4.630822658538818359e+00
8.000000000000000000e+01 6.159978103637695312e+01 3.153466987609863281e+01 1.005238246917724609e+01 2.547234535217285156e+01 1.065741825103759766e+01 4.106597423553466797e+00
8.100000000000000000e+01 6.107766723632812500e+01 3.122777175903320312e+01 1.700761985778808594e+01 4.320345306396484375e+01 1.806332206726074219e+01 6.183929920196533203e+00
8.200000000000000000e+01 6.121295166015625000e+01 3.137376785278320312e+01 1.140147972106933594e+01 3.516222381591796875e+01 1.396911144256591797e+01 4.457490921020507812e+00
8.300000000000000000e+01 6.134823989868164062e+01 3.151976394653320312e+01 8.755082130432128906e+00 3.026346397399902344e+01 1.170556354522705078e+01 3.652281999588012695e+00
8.400000000000000000e+01 6.148352432250976562e+01 3.166576004028320312e+01 7.097603797912597656e+00 2.699434852600097656e+01 1.022758579254150391e+01 3.128792524337768555e+00
8.500000000000000000e+01 6.103114700317382812e+01 3.126308822631835938e+01 1.254189205169677734e+01 4.565349197387695312e+01 1.745861434936523438e+01 3.924519300460815430e+00
8.600000000000000000e+01 6.113542175292968750e+01 3.143262863159179688e+01 7.900700569152832031e+00 3.665759658813476562e+01 1.336748886108398438e+01 2.100336790084838867e+00
8.700000000000000000e+01 6.123969650268554688e+01 3.160216903686523438e+01 5.847687244415283203e+00 3.138592910766601562e+01 1.117008495330810547e+01 1.462616562843322754e+00
8.800000000000000000e+01 6.134397125244140625e+01 3.177170944213867188e+01 4.442565917968750000e+00 2.792631721496582031e+01 9.710664749145507812e+00 1.195348381996154785e+00
8.900000000000000000e+01 6.097864532470703125e+01 3.128867149353027344e+01 8.672076225280761719e+00 4.689981460571289062e+01 1.667156791687011719e+01 6.447513401508331299e-02
9.000000000000000000e+01 6.104792022705078125e+01 3.147526931762695312e+01 5.389821052551269531e+00 3.681331634521484375e+01 1.266094112396240234e+01 -1.329025983810424805e+00
9.100000000000000000e+01 6.111719131469726562e+01 3.166186714172363281e+01 3.626057386398315430e+00 3.133407974243164062e+01 1.048804187774658203e+01 -1.531740307807922363e+00
9.200000000000000000e+01 6.118646621704101562e+01 3.184846305847167969e+01 2.768016815185546875e+00 2.770651626586914062e+01 9.142359733581542969e+00 -1.529149174690246582e+00
9.300000000000000000e+01 6.092216873168945312e+01 3.130354499816894531e+01 6.360181808471679688e+00 4.617063522338867188e+01 1.575924587249755859e+01 -4.883662223815917969e+00
9.400000000000000000e+01 6.095378875732421875e+01 3.150005912780761719e+01 4.005499362945556641e+00 3.527375411987304688e+01 1.178377628326416016e+01 -5.275327205657958984e+00
9.500000000000000000e+01 6.098540878295898438e+01 3.169657325744628906e+01 2.713989496231079102e+00 2.967150878906250000e+01 9.715649604797363281e+00 -4.832828521728515625e+00
9.600000000000000000e+01 6.101702880859375000e+01 3.189308547973632812e+01 1.886094093322753906e+00 2.616554641723632812e+01 8.415492057800292969e+00 -4.531976222991943359e+00
9.700000000000000000e+01 6.086387252807617188e+01 3.130714035034179688e+01 5.847468852996826172e+00 4.300878143310546875e+01 1.465687561035156250e+01 -1.019990444183349609e+01
9.800000000000000000e+01 6.085663223266601562e+01 3.150604820251464844e+01 4.103704452514648438e+00 3.181112480163574219e+01 1.077444934844970703e+01 -8.926900863647460938e+00
9.900000000000000000e+01 6.084939193725585938e+01 3.170495796203613281e+01 2.890990018844604492e+00 2.644836235046386719e+01 8.801805496215820312e+00 -7.925768375396728516e+00
1.000000000000000000e+02 6.084214782714843750e+01 3.190386772155761719e+01 2.128885746002197266e+00 2.313100624084472656e+01 7.577967166900634766e+00 -7.084589004516601562e+00
1.010000000000000000e+02 6.080599594116210938e+01 3.129931640625000000e+01 7.173137664794921875e+00 3.731472015380859375e+01 1.334635734558105469e+01 -1.462773132324218750e+01
1.020000000000000000e+02 6.076016998291015625e+01 3.149300956726074219e+01 5.430583953857421875e+00 2.667154312133789062e+01 9.630638122558593750e+00 -1.177171802520751953e+01
1.030000000000000000e+02 6.071434402465820312e+01 3.168670272827148438e+01 3.997387409210205078e+00 2.180182647705078125e+01 7.739764213562011719e+00 -9.982695579528808594e+00
1.040000000000000000e+02 6.066851425170898438e+01 3.188039588928222656e+01 3.178360700607299805e+00 1.892298698425292969e+01 6.630404472351074219e+00 -8.873425483703613281e+00
1.050000000000000000e+02 6.075074768066406250e+01 3.128037452697753906e+01 1.003230571746826172e+01 2.954396247863769531e+01 1.187288093566894531e+01 -1.737503814697265625e+01
1.060000000000000000e+02 6.066809082031250000e+01 3.146144104003906250e+01 7.245634555816650391e+00 2.032605171203613281e+01 8.271506309509277344e+00 -1.297738170623779297e+01
1.070000000000000000e+02 6.058543014526367188e+01 3.164250564575195312e+01 5.717002391815185547e+00 1.632564926147460938e+01 6.612795829772949219e+00 -1.076970863342285156e+01
1.080000000000000000e+02 6.050277328491210938e+01 3.182357215881347656e+01 4.413148403167724609e+00 1.396551036834716797e+01 5.513597488403320312e+00 -9.328522682189941406e+00
1.090000000000000000e+02 6.070024490356445312e+01 3.125103950500488281e+01 1.301901721954345703e+01 2.063106536865234375e+01 1.009502506256103516e+01 -1.753401756286621094e+01
1.100000000000000000e+02 6.058391952514648438e+01 3.141254806518554688e+01 9.141847610473632812e+00 1.351172924041748047e+01 6.796072959899902344e+00 -1.238216114044189453e+01
1.110000000000000000e+02 6.046759033203125000e+01 3.157405853271484375e+01 6.946444511413574219e+00 1.071150112152099609e+01 5.297383785247802734e+00 -9.858002662658691406e+00
1.120000000000000000e+02 6.035126113891601562e+01 3.173556709289550781e+01 5.545275688171386719e+00 9.275931358337402344e+00 4.446362018585205078e+00 -8.547513961791992188e+00
1.130000000000000000e+02 6.065641784667968750e+01 3.121243286132812500e+01 1.531859397888183594e+01 1.155091476440429688e+01 8.060853004455566406e+00 -1.500301265716552734e+01
1.140000000000000000e+02 6.051087570190429688e+01 3.134820556640625000e+01 9.633471488952636719e+00 7.269942283630371094e+00 5.071023941040039062e+00 -9.741754531860351562e+00
1.150000000000000000e+02 6.036532974243164062e+01 3.148397827148437500e+01 7.278273582458496094e+00 5.885303497314453125e+00 3.949073076248168945e+00 -7.716753959655761719e+00
1.160000000000000000e+02 6.021978759765625000e+01 3.161974906921386719e+01 5.613291740417480469e+00 5.257208347320556641e+00 3.261149883270263672e+00 -6.432569503784179688e+00
1.170000000000000000e+02 6.062094879150390625e+01 3.116603469848632812e+01 1.459817409515380859e+01 3.919453382492065430e+00 5.555288314819335938e+00 -9.966858863830566406e+00
1.180000000000000000e+02 6.045175552368164062e+01 3.127087402343750000e+01 8.501570701599121094e+00 2.325800895690917969e+00 3.248211622238159180e+00 -5.838727951049804688e+00
1.190000000000000000e+02 6.028256225585937500e+01 3.137571334838867188e+01 5.400840282440185547e+00 2.722873210906982422e+00 2.437114000320434570e+00 -4.473044872283935547e+00
1.200000000000000000e+02 6.011337280273437500e+01 3.148055267333984375e+01 4.405771255493164062e+00 2.494686365127563477e+00 2.070137262344360352e+00 -4.237035751342773438e+00
1.210000000000000000e+02 6.059518814086914062e+01 3.111361885070800781e+01 1.049194049835205078e+01 -2.117749691009521484e+00 2.512257099151611328e+00 -2.943531751632690430e+00
1.220000000000000000e+02 6.040882492065429688e+01 3.118351364135742188e+01 3.230609655380249023e+00 6.210117936134338379e-01 1.155486464500427246e+00 -1.665662169456481934e+00
1.230000000000000000e+02 6.022245788574218750e+01 3.125340652465820312e+01 2.813282012939453125e+00 1.143720507621765137e+00 1.187100768089294434e+00 -2.348822116851806641e+00
1.240000000000000000e+02 6.003609085083007812e+01 3.132330131530761719e+01 1.580211400985717773e+00 4.280703365802764893e-01 6.024845242500305176e-01 -1.507304310798645020e+00
1.250000000000000000e+02 6.058012771606445312e+01 3.105718994140625000e+01 -4.031501770019531250e+00 -2.938707113265991211e+00 -2.091062545776367188e+00 2.721171140670776367e+00
1.260000000000000000e+02 6.038372039794921875e+01 3.108946418762207031e+01 -5.687325000762939453e-01 1.127923011779785156e+00 1.677571684122085571e-01 -7.294110059738159180e-01
1.270000000000000000e+02 6.018731307983398438e+01 3.112174034118652344e+01 -1.889387845993041992e+00 -4.435658752918243408e-01 -6.998861432075500488e-01 6.895201653242111206e-02
1.280000000000000000e+02 5.999090576171875000e+01 3.115401458740234375e+01 -2.285938024520874023e+00 2.585179805755615234e-01 -6.082260012626647949e-01 -3.901353850960731506e-02
1.290000000000000000e+02 2.333872413635253906e+01 3.602074050903320312e+01 1.048314943909645081e-02 -1.252835354534909129e-04 3.107359632849693298e-03 9.511201642453670502e-04
1.300000000000000000e+02 2.389290046691894531e+01 3.609888076782226562e+01 1.131457183510065079e-02 -2.184802666306495667e-03 2.738930750638246536e-03 -3.071150276809930801e-04
1.310000000000000000e+02 2.284308815002441406e+01 3.526721954345703125e+01 -3.633256303146481514e-03 -2.580552129074931145e-03 -1.864142599515616894e-03 2.394005241512786597e-05
1.320000000000000000e+02 2.421754455566406250e+01 3.556056594848632812e+01 -7.985848933458328247e-03 -2.959164557978510857e-03 -3.283503931015729904e-03 -5.631781183183193207e-03
1.330000000000000000e+02 2.498613166809082031e+01 3.604191207885742188e+01 1.804983126930892467e-03 -3.149153490085154772e-04 4.470203130040317774e-04 -3.056825837120413780e-03
1.340000000000000000e+02 2.485820960998535156e+01 3.530118560791015625e+01 -1.878596097230911255e-02 -3.141763620078563690e-03 -6.578317843377590179e-03 -1.103464793413877487e-02
1.350000000000000000e+02 2.364893722534179688e+01 3.528245925903320312e+01 -8.371762000024318695e-03 -4.302928689867258072e-03 -3.802407067269086838e-03 -4.941473715007305145e-03
1.360000000000000000e+02 2.269410705566406250e+01 3.600639724731445312e+01 8.918655104935169220e-03 -1.024337034323252738e-04 2.644866472110152245e-03 1.125268987379968166e-03
1.370000000000000000e+02 2.440931320190429688e+01 3.610589981079101562e+01 7.202224805951118469e-03 2.378388307988643646e-04 2.232019091024994850e-03 -2.970496425405144691e-03
1.380000000000000000e+02 2.713174057006835938e+01 3.578996658325195312e+01 -4.029566049575805664e-02 8.250741520896553993e-04 -1.184117607772350311e-02 -5.305377766489982605e-03
1.390000000000000000e+02 2.639669990539550781e+01 3.588855361938476562e+01 -2.067137695848941803e-02 1.015540095977485180e-03 -5.896750837564468384e-03 -5.702056922018527985e-03
1.400000000000000000e+02 2.560692596435546875e+01 3.524289321899414062e+01 -3.321398422122001648e-02 -2.800957066938281059e-03 -1.080448273569345474e-02 -1.564519852399826050e-02
1.410000000000000000e+02 2.704477500915527344e+01 3.505500793457031250e+01 -7.164745032787322998e-02 1.987705705687403679e-03 -2.089792303740978241e-02 -2.396143786609172821e-02
1.420000000000000000e+02 2.786719703674316406e+01 3.568653869628906250e+01 -6.392555683851242065e-02 1.421580556780099869e-03 -1.875119283795356750e-02 -4.203530028462409973e-03
1.430000000000000000e+02 2.776436805725097656e+01 3.495370483398437500e+01 -9.757747501134872437e-02 4.620116204023361206e-03 -2.788720652461051941e-02 -2.608113735914230347e-02
1.440000000000000000e+02 2.632559776306152344e+01 3.515146636962890625e+01 -5.049425736069679260e-02 2.176489797420799732e-04 -1.508298236876726151e-02 -1.989531330764293671e-02
1.450000000000000000e+02 2.566216468811035156e+01 3.598210525512695312e+01 -6.332270801067352295e-03 -7.696780376136302948e-04 -2.130584791302680969e-03 -4.710221197456121445e-03
1.460000000000000000e+02 2.933965110778808594e+01 3.544803619384765625e+01 -1.287979185581207275e-01 1.475249533541500568e-03 -3.819679841399192810e-02 2.300310647115111351e-03
1.470000000000000000e+02 2.922042655944824219e+01 3.471769332885742188e+01 -1.627248674631118774e-01 8.735597133636474609e-03 -4.619678109884262085e-02 -2.980865538120269775e-02
1.480000000000000000e+02 2.848941230773925781e+01 3.484096145629882812e+01 -1.278569996356964111e-01 6.659572944045066833e-03 -3.635922819375991821e-02 -2.846429869532585144e-02
1.490000000000000000e+02 3.068212890625000000e+01 3.447154998779296875e+01 -2.462632954120635986e-01 1.302761118859052658e-02 -6.997070461511611938e-02 -2.727269567549228668e-02
1.500000000000000000e+02 2.995129966735839844e+01 3.459505081176757812e+01 -2.016186565160751343e-01 1.034968718886375427e-02 -5.738069117069244385e-02 -2.918772958219051361e-02
1.510000000000000000e+02 3.081263542175292969e+01 3.519998931884765625e+01 -2.109998017549514771e-01 1.386278076097369194e-03 -6.288405507802963257e-02 1.322402153164148331e-02
1.520000000000000000e+02 2.860299301147460938e+01 3.557225799560546875e+01 -9.319525212049484253e-02 2.075781114399433136e-03 -2.733584120869636536e-02 -1.348009915091097355e-03
1.530000000000000000e+02 3.007616424560546875e+01 3.532444381713867188e+01 -1.686268299818038940e-01 1.529332948848605156e-03 -5.012924596667289734e-02 6.900030188262462616e-03
1.540000000000000000e+02 3.228277587890625000e+01 3.491655731201171875e+01 -3.203653395175933838e-01 -1.513547496870160103e-03 -9.656366705894470215e-02 3.065078333020210266e-02
1.550000000000000000e+02 3.141323661804199219e+01 3.433660507202148438e+01 -2.962368428707122803e-01 1.482874713838100433e-02 -8.442242443561553955e-02 -2.582463622093200684e-02
1.560000000000000000e+02 3.301699829101562500e+01 3.477141952514648438e+01 -3.840433955192565918e-01 -2.236449858173727989e-03 -1.158839538693428040e-01 4.058901965618133545e-02
1.570000000000000000e+02 3.287635040283203125e+01 3.404490280151367188e+01 -4.107316136360168457e-01 1.646393351256847382e-02 -1.182803064584732056e-01 -1.947462372481822968e-02
1.580000000000000000e+02 3.360715103149414062e+01 3.390307235717773438e+01 -4.753063619136810303e-01 1.767569407820701599e-02 -1.372891962528228760e-01 -1.403333712369203568e-02
1.590000000000000000e+02 3.375072097778320312e+01 3.462901306152343750e+01 -4.525339305400848389e-01 -4.115173127502202988e-03 -1.369947344064712524e-01 5.197101086378097534e-02
1.600000000000000000e+02 3.214505767822265625e+01 3.418946456909179688e+01 -3.506250083446502686e-01 1.610937342047691345e-02 -1.003546938300132751e-01 -2.363241836428642273e-02
1.610000000000000000e+02 3.154802894592285156e+01 3.506427764892578125e+01 -2.608744204044342041e-01 6.703505641780793667e-04 -7.806122303009033203e-02 2.165785059332847595e-02
1.620000000000000000e+02 3.448552703857421875e+01 3.448280334472656250e+01 -5.272923707962036133e-01 -5.978547502309083939e-03 -1.599812805652618408e-01 6.464015692472457886e-02
1.630000000000000000e+02 3.581328582763671875e+01 3.345945358276367188e+01 -7.013948559761047363e-01 1.706742495298385620e-02 -2.052982300519943237e-01 4.958479665219783783e-03
1.640000000000000000e+02 3.434083938598632812e+01 3.375708389282226562e+01 -5.456809401512145996e-01 1.780920103192329407e-02 -1.583615094423294067e-01 -8.369253948330879211e-03
1.650000000000000000e+02 3.654941177368164062e+01 3.331057739257812500e+01 -7.835040092468261719e-01 1.572831347584724426e-02 -2.303327172994613647e-01 1.223150826990604401e-02
1.660000000000000000e+02 3.595657730102539062e+01 3.418545532226562500e+01 -6.969703435897827148e-01 -1.066580228507518768e-02 -2.122908532619476318e-01 9.237207472324371338e-02
1.670000000000000000e+02 3.669200897216796875e+01 3.403672027587890625e+01 -7.934032678604125977e-01 -1.445566676557064056e-02 -2.423576712608337402e-01 1.061922758817672729e-01
1.680000000000000000e+02 3.522108078002929688e+01 3.433415222167968750e+01 -6.091656088829040527e-01 -8.670959621667861938e-03 -1.853509694337844849e-01 7.801616936922073364e-02
1.690000000000000000e+02 3.507709503173828125e+01 3.360829162597656250e+01 -6.207178831100463867e-01 1.814939826726913452e-02 -1.807705312967300415e-01 -1.678692176938056946e-03
1.700000000000000000e+02 3.742828750610351562e+01 3.389342117309570312e+01 -8.904304504394531250e-01 -1.571183279156684875e-02 -2.718426883220672607e-01 1.193136498332023621e-01
1.710000000000000000e+02 3.802332687377929688e+01 3.303014373779296875e+01 -9.604280591011047363e-01 1.470682211220264435e-02 -2.837163805961608887e-01 3.402997553348541260e-02
1.720000000000000000e+02 3.728625106811523438e+01 3.316717147827148438e+01 -8.693352937698364258e-01 1.409684028476476669e-02 -2.565715312957763672e-01 2.265324629843235016e-02
1.730000000000000000e+02 3.890202331542968750e+01 3.361664962768554688e+01 -1.086106896400451660e+00 -1.968659460544586182e-02 -3.317380249500274658e-01 1.508506983518600464e-01
1.740000000000000000e+02 3.963956451416015625e+01 3.347409820556640625e+01 -1.188621044158935547e+00 -2.176246233284473419e-02 -3.631150424480438232e-01 1.689181774854660034e-01
1.750000000000000000e+02 3.949879837036132812e+01 3.274760437011718750e+01 -1.150770425796508789e+00 1.587498560547828674e-02 -3.404686450958251953e-01 5.746532231569290161e-02
1.760000000000000000e+02 3.876083374023437500e+01 3.289023590087890625e+01 -1.052460193634033203e+00 1.500904001295566559e-02 -3.112353682518005371e-01 4.501394927501678467e-02
1.770000000000000000e+02 3.816493988037109375e+01 3.375647735595703125e+01 -9.854431748390197754e-01 -1.671845652163028717e-02 -3.006484806537628174e-01 1.342256814241409302e-01
1.780000000000000000e+02 4.037628555297851562e+01 3.333070373535156250e+01 -1.300518155097961426e+00 -2.488510124385356903e-02 -3.976209759712219238e-01 1.903542280197143555e-01
1.790000000000000000e+02 4.171068954467773438e+01 3.231314468383789062e+01 -1.473223328590393066e+00 8.023353293538093567e-03 -4.395599961280822754e-01 8.939582109451293945e-02
1.800000000000000000e+02 4.023619079589843750e+01 3.260407638549804688e+01 -1.253287076950073242e+00 1.478300988674163818e-02 -3.715512156486511230e-01 6.795173883438110352e-02
1.810000000000000000e+02 4.244785308837890625e+01 3.216765213012695312e+01 -1.582890629768371582e+00 2.896986901760101318e-03 -4.739980995655059814e-01 9.831923246383666992e-02
1.820000000000000000e+02 4.184893417358398438e+01 3.304013442993164062e+01 -1.555003285408020020e+00 -3.386963903903961182e-02 -4.766618609428405762e-01 2.330751866102218628e-01
1.830000000000000000e+02 4.258517456054687500e+01 3.289482498168945312e+01 -1.700946331024169922e+00 -4.116802662611007690e-02 -5.226343274116516113e-01 2.507059574127197266e-01
1.840000000000000000e+02 4.111263656616210938e+01 3.318542480468750000e+01 -1.424400568008422852e+00 -3.082377649843692780e-02 -4.365672767162322998e-01 2.118021547794342041e-01
1.850000000000000000e+02 4.097346878051757812e+01 3.245861816406250000e+01 -1.359111428260803223e+00 1.297456957399845123e-02 -4.038410484790802002e-01 7.957343012094497681e-02
1.860000000000000000e+02 4.332307434082031250e+01 3.275568008422851562e+01 -1.839761853218078613e+00 -4.150952771306037903e-02 -5.643814206123352051e-01 2.628872394561767578e-01
1.870000000000000000e+02 4.318753814697265625e+01 3.202817916870117188e+01 -1.696935892105102539e+00 -2.030906034633517265e-03 -5.096900463104248047e-01 1.130234599113464355e-01
1.880000000000000000e+02 4.392967605590820312e+01 3.189475250244140625e+01 -1.818199634552001953e+00 6.176125025376677513e-04 -5.452746152877807617e-01 1.262530237436294556e-01
1.890000000000000000e+02 4.480221557617187500e+01 3.249026870727539062e+01 -2.105918407440185547e+00 -4.163184389472007751e-02 -6.442651152610778809e-01 2.966732680797576904e-01
1.900000000000000000e+02 4.541445922851562500e+01 3.162938690185546875e+01 -2.053117275238037109e+00 -4.009760916233062744e-03 -6.171381473541259766e-01 1.417318582534790039e-01
1.910000000000000000e+02 4.554204177856445312e+01 3.235831069946289062e+01 -2.260412216186523438e+00 -4.765190556645393372e-02 -6.924192905426025391e-01 3.136240541934967041e-01
1.920000000000000000e+02 4.406255722045898438e+01 3.262272644042968750e+01 -1.966949820518493652e+00 -3.950165584683418274e-02 -6.019354462623596191e-01 2.772560417652130127e-01
1.930000000000000000e+02 4.467198181152343750e+01 3.176181983947753906e+01 -1.937625408172607422e+00 -1.141375250881537795e-04 -5.813218355178833008e-01 1.332051753997802734e-01
1.940000000000000000e+02 4.628276062011718750e+01 3.223004150390625000e+01 -2.410881519317626953e+00 -4.806699603796005249e-02 -7.376845479011535645e-01 3.263594508171081543e-01
1.950000000000000000e+02 4.764949035644531250e+01 3.125085830688476562e+01 -2.422448158264160156e+00 -1.096572726964950562e-02 -7.300242185592651367e-01 1.623771190643310547e-01
1.960000000000000000e+02 4.615840911865234375e+01 3.150056076049804688e+01 -2.172372102737426758e+00 -8.392632007598876953e-03 -6.542294025421142578e-01 1.534992754459381104e-01
1.970000000000000000e+02 4.839503097534179688e+01 3.112652587890625000e+01 -2.522900581359863281e+00 -2.344126813113689423e-02 -7.639025449752807617e-01 1.618918329477310181e-01
1.980000000000000000e+02 4.776623153686523438e+01 3.198161315917968750e+01 -2.715054273605346680e+00 -4.860410839319229126e-02 -8.290975093841552734e-01 3.590118288993835449e-01
1.990000000000000000e+02 4.850796127319335938e+01 3.185791587829589844e+01 -2.908840179443359375e+00 -6.099935248494148254e-02 -8.909518718719482422e-01 3.659654557704925537e-01
2.000000000000000000e+02 4.702449035644531250e+01 3.210565567016601562e+01 -2.554940462112426758e+00 -4.710621014237403870e-02 -7.806139588356018066e-01 3.405106365680694580e-01
2.010000000000000000e+02 4.690394592285156250e+01 3.137553787231445312e+01 -2.297137975692749023e+00 -5.860079545527696609e-03 -6.908994317054748535e-01 1.637468039989471436e-01
2.020000000000000000e+02 4.925159072875976562e+01 3.174488639831542969e+01 -3.070243120193481445e+00 -5.600431933999061584e-02 -9.378741979598999023e-01 3.563764393329620361e-01
2.030000000000000000e+02 4.914293289184570312e+01 3.101285552978515625e+01 -2.626022577285766602e+00 -3.040247224271297455e-02 -7.969275116920471191e-01 1.773553639650344849e-01
2.040000000000000000e+02 4.989311599731445312e+01 3.090981101989746094e+01 -2.738359451293945312e+00 -1.875589974224567413e-02 -8.271346092224121094e-01 1.860008388757705688e-01
2.050000000000000000e+02 5.074266433715820312e+01 3.154084205627441406e+01 -3.329977989196777344e+00 -4.212531447410583496e-02 -1.011631011962890625e+00 3.643564283847808838e-01
2.060000000000000000e+02 5.139404296875000000e+01 3.070597648620605469e+01 -2.887686014175415039e+00 -2.499098517000675201e-02 -8.738030791282653809e-01 1.795152425765991211e-01
2.070000000000000000e+02 5.148847579956054688e+01 3.143994712829589844e+01 -3.500749588012695312e+00 -5.117887631058692932e-02 -1.065578460693359375e+00 3.662242591381072998e-01
2.080000000000000000e+02 4.999703216552734375e+01 3.164248847961425781e+01 -3.188328504562377930e+00 -4.224326089024543762e-02 -9.691715240478515625e-01 3.538725674152374268e-01
2.090000000000000000e+02 5.064348983764648438e+01 3.080751800537109375e+01 -2.827573060989379883e+00 -1.573139801621437073e-02 -8.529913425445556641e-01 1.793169379234313965e-01
2.100000000000000000e+02 5.373043823242187500e+01 3.117490577697753906e+01 -3.878565311431884766e+00 -3.630299493670463562e-02 -1.174460411071777344e+00 3.544310033321380615e-01
2.110000000000000000e+02 5.214544677734375000e+01 3.061188697814941406e+01 -2.939557552337646484e+00 -2.882134914398193359e-02 -8.905137181282043457e-01 1.933943927288055420e-01
2.120000000000000000e+02 5.440248107910156250e+01 3.035354614257812500e+01 -2.874859571456909180e+00 -4.626852273941040039e-02 -8.763384819030761719e-01 2.021391987800598145e-01
2.130000000000000000e+02 5.365017700195312500e+01 3.043926048278808594e+01 -2.981699466705322266e+00 -2.109283953905105591e-02 -9.008376598358154297e-01 1.951639205217361450e-01
2.140000000000000000e+02 5.447802734375000000e+01 3.108973121643066406e+01 -4.056228160858154297e+00 -5.553591251373291016e-02 -1.233529329299926758e+00 3.357555270195007324e-01
2.150000000000000000e+02 5.298280715942382812e+01 3.126048088073730469e+01 -3.748826026916503906e+00 -3.615781664848327637e-02 -1.135495066642761230e+00 3.499296307563781738e-01
2.160000000000000000e+02 5.223514938354492188e+01 3.134645080566406250e+01 -3.642776727676391602e+00 -4.742554202675819397e-02 -1.107060670852661133e+00 3.550667464733123779e-01
2.170000000000000000e+02 5.289782714843750000e+01 3.052537536621093750e+01 -2.983420133590698242e+00 -1.963774673640727997e-02 -9.009173512458801270e-01 2.016983330249786377e-01
2.180000000000000000e+02 5.576807403564453125e+01 3.007449913024902344e+01 -2.363155126571655273e+00 -2.223206870257854462e-02 -7.156161665916442871e-01 3.474168777465820312e-01
2.190000000000000000e+02 5.593706893920898438e+01 3.111367034912109375e+01 -4.393658161163330078e+00 -5.015578120946884155e-03 -1.319602131843566895e+00 2.861952185630798340e-01
2.200000000000000000e+02 5.761878585815429688e+01 3.021085166931152344e+01 -1.715833544731140137e+00 -2.203047461807727814e-02 -5.213592052459716797e-01 6.748692393302917480e-01
2.210000000000000000e+02 5.512656784057617188e+01 3.022000694274902344e+01 -2.666549682617187500e+00 -1.455669663846492767e-02 -8.043318986892700195e-01 2.713319659233093262e-01
2.220000000000000000e+02 5.637560272216796875e+01 2.998666381835937500e+01 -1.917456030845642090e+00 1.006305292248725891e-01 -5.450476408004760742e-01 4.648047685623168945e-01
2.230000000000000000e+02 5.711359024047851562e+01 3.064658546447753906e+01 -3.365566253662109375e+00 -1.216804832220077515e-01 -1.046174049377441406e+00 3.600576519966125488e-01
2.240000000000000000e+02 5.751066970825195312e+01 2.981401634216308594e+01 -5.769334435462951660e-01 2.420624047517776489e-01 -1.004613116383552551e-01 1.065296649932861328e+00
2.250000000000000000e+02 5.720059204101562500e+01 3.094273185729980469e+01 -4.331989288330078125e+00 -1.256970018148422241e-01 -1.337305903434753418e+00 2.876280248165130615e-01
2.260000000000000000e+02 5.757272338867187500e+01 3.107670021057128906e+01 -4.808348655700683594e+00 3.809704259037971497e-02 -1.431075453758239746e+00 3.040988445281982422e-01
2.270000000000000000e+02 5.760186386108398438e+01 3.063649749755859375e+01 -3.130992412567138672e+00 5.966878309845924377e-02 -9.213970899581909180e-01 3.692866563796997070e-01
2.280000000000000000e+02 5.724662017822265625e+01 3.011626052856445312e+01 -1.654534101486206055e+00 7.112702727317810059e-02 -4.750221073627471924e-01 6.026481389999389648e-01
2.290000000000000000e+02 5.762458801269531250e+01 3.085371589660644531e+01 -3.841100454330444336e+00 1.137606427073478699e-01 -1.118201971054077148e+00 2.541007995605468750e-01
2.300000000000000000e+02 5.522911834716796875e+01 3.110899543762207031e+01 -4.203616619110107422e+00 -4.685468971729278564e-02 -1.275141358375549316e+00 2.931760549545288086e-01
2.310000000000000000e+02 5.663780975341796875e+01 3.104092025756835938e+01 -4.465957641601562500e+00 -8.914034813642501831e-03 -1.342461585998535156e+00 3.389848768711090088e-01
2.320000000000000000e+02 5.759317398071289062e+01 3.001453208923339844e+01 -9.666616916656494141e-01 1.265489757061004639e-01 -2.520338296890258789e-01 8.957880735397338867e-01
2.330000000000000000e+02 5.710157012939453125e+01 3.035500335693359375e+01 -2.373049736022949219e+00 -2.597806416451931000e-02 -7.197083234786987305e-01 4.569576382637023926e-01
2.340000000000000000e+02 5.759894561767578125e+01 3.041601371765136719e+01 -2.322999238967895508e+00 -5.644879769533872604e-03 -6.985931992530822754e-01 5.066758990287780762e-01
2.350000000000000000e+02 5.606701278686523438e+01 3.047415924072265625e+01 -2.976001501083374023e+00 7.672243751585483551e-03 -8.904987573623657227e-01 2.658829987049102783e-01
2.360000000000000000e+02 5.654434204101562500e+01 3.032814407348632812e+01 -2.479471683502197266e+00 7.391639798879623413e-02 -7.216665744781494141e-01 3.297004997730255127e-01
2.370000000000000000e+02 5.696510314941406250e+01 2.989446640014648438e+01 -1.358335614204406738e+00 1.465073972940444946e-01 -3.635484576225280762e-01 6.697175502777099609e-01
2.380000000000000000e+02 5.553619384765625000e+01 3.071459770202636719e+01 -3.549417972564697266e+00 -3.313423320651054382e-02 -1.074765682220458984e+00 2.902759313583374023e-01
2.390000000000000000e+02 5.655676651000976562e+01 3.066083717346191406e+01 -3.383392333984375000e+00 2.332609705626964569e-02 -1.008019924163818359e+00 3.104732930660247803e-01
2.400000000000000000e+02 5.918129348754882812e+01 3.095522880554199219e+01 -4.133206367492675781e+00 4.739002510905265808e-02 -1.225744962692260742e+00 2.924931645393371582e-01
2.410000000000000000e+02 6.185423660278320312e+01 3.146927070617675781e+01 1.102292823791503906e+01 2.191592216491699219e+01 9.881654739379882812e+00 3.586126804351806641e+00
2.420000000000000000e+02 5.818657302856445312e+01 3.129337501525878906e+01 -3.931756734848022461e+00 7.186085730791091919e-02 -1.157968759536743164e+00 2.782973349094390869e-01
2.430000000000000000e+02 6.121707534790039062e+01 3.207650375366210938e+01 1.739881992340087891e+00 2.480304527282714844e+01 7.962878227233886719e+00 -1.865760564804077148e+00
2.440000000000000000e+02 5.938424682617187500e+01 3.095575141906738281e+01 -3.952245950698852539e+00 -1.005661934614181519e-01 -1.215843677520751953e+00 2.800693213939666748e-01
2.450000000000000000e+02 5.788056564331054688e+01 2.978731346130371094e+01 -9.618857502937316895e-02 4.570778310298919678e-01 1.082667782902717590e-01 1.393574237823486328e+00
2.460000000000000000e+02 5.808038330078125000e+01 2.977858734130859375e+01 1.468794941902160645e-01 5.378114581108093262e-01 2.054072916507720947e-01 1.587647557258605957e+00
2.470000000000000000e+02 5.891626358032226562e+01 2.977427673339843750e+01 1.828345656394958496e+00 1.495725989341735840e+00 9.972214698791503906e-01 2.955415248870849609e+00
2.480000000000000000e+02 6.010851287841796875e+01 3.019002342224121094e+01 5.480178833007812500e+00 5.959593296051025391e+00 3.431931495666503906e+00 7.221963882446289062e+00
2.490000000000000000e+02 5.978297805786132812e+01 3.096087646484375000e+01 -3.600560665130615234e+00 -9.703391045331954956e-02 -1.109278440475463867e+00 2.360981851816177368e-01
2.500000000000000000e+02 5.898688888549804688e+01 3.065142059326171875e+01 -1.656700968742370605e+00 1.385921239852905273e-01 -4.554326534271240234e-01 7.272565960884094238e-01
2.510000000000000000e+02 6.190346908569335938e+01 3.126898384094238281e+01 1.327164268493652344e+01 2.078972625732421875e+01 1.021841049194335938e+01 2.599456071853637695e+00
2.520000000000000000e+02 6.229341506958007812e+01 3.122406768798828125e+01 1.122253417968750000e+01 1.794207572937011719e+01 8.749382972717285156e+00 1.650888204574584961e+00
2.530000000000000000e+02 6.206560134887695312e+01 3.054760360717773438e+01 1.087069606781005859e+01 1.988056755065917969e+01 9.225378990173339844e+00 -2.176297664642333984e+00
2.540000000000000000e+02 5.808594512939453125e+01 3.254496002197265625e+01 2.074309438467025757e-01 1.036443829536437988e+00 3.731624484062194824e-01 -1.241432547569274902e+00
2.550000000000000000e+02 5.802346420288085938e+01 3.214661026000976562e+01 -7.588702440261840820e-01 2.664334774017333984e-01 -1.477310359477996826e-01 -5.143317580223083496e-01
2.560000000000000000e+02 5.800162506103515625e+01 3.151659584045410156e+01 -2.977743148803710938e+00 -9.455918916501104832e-04 -8.936066031455993652e-01 1.998072713613510132e-01
2.570000000000000000e+02 5.928484344482421875e+01 3.247306442260742188e+01 2.283497095108032227e+00 3.129634141921997070e+00 1.623939275741577148e+00 -3.706229686737060547e+00
2.580000000000000000e+02 5.950474166870117188e+01 3.216442489624023438e+01 2.618166923522949219e+00 3.005873203277587891e+00 1.687212109565734863e+00 -3.880136728286743164e+00
2.590000000000000000e+02 5.988426971435546875e+01 3.243552398681640625e+01 2.877639055252075195e+00 6.850169181823730469e+00 2.918342351913452148e+00 -5.846531391143798828e+00
2.600000000000000000e+02 6.081320190429687500e+01 3.210902023315429688e+01 1.600048065185546875e+00 2.055274772644042969e+01 6.645838737487792969e+00 -6.657390594482421875e+00
2.610000000000000000e+02 5.798833847045898438e+01 3.130356597900390625e+01 -3.995855569839477539e+00 -1.640977263450622559e-01 -1.247985959053039551e+00 2.105489522218704224e-01
2.620000000000000000e+02 5.805347824096679688e+01 3.233036804199218750e+01 -2.058692872524261475e-01 5.994934439659118652e-01 1.180872544646263123e-01 -7.989053726196289062e-01
2.630000000000000000e+02 5.938342666625976562e+01 3.125326919555664062e+01 -3.087853670120239258e+00 2.557369507849216461e-02 -9.186839461326599121e-01 6.983149796724319458e-02
2.640000000000000000e+02 5.958794403076171875e+01 3.122602081298828125e+01 -2.859215021133422852e+00 2.000537142157554626e-02 -8.517628908157348633e-01 3.369921445846557617e-02
2.650000000000000000e+02 5.983972167968750000e+01 3.140506172180175781e+01 9.986391663551330566e-01 6.862753033638000488e-01 5.054743289947509766e-01 -1.577381253242492676e+00
2.660000000000000000e+02 5.979152297973632812e+01 3.118985557556152344e+01 -2.612303256988525391e+00 -9.236616641283035278e-02 -8.114008307456970215e-01 7.143074274063110352e-02
2.670000000000000000e+02 6.195797729492187500e+01 3.106964492797851562e+01 1.389951896667480469e+01 1.993414306640625000e+01 1.015009880065917969e+01 1.017817616462707520e+00
2.680000000000000000e+02 6.176945114135742188e+01 3.165846443176269531e+01 8.552452087402343750e+00 2.326645088195800781e+01 9.545671463012695312e+00 3.635447025299072266e+00
2.690000000000000000e+02 6.163943862915039062e+01 3.181258583068847656e+01 5.978946685791015625e+00 2.462246704101562500e+01 9.180424690246582031e+00 2.857849121093750000e+00
2.700000000000000000e+02 6.102281570434570312e+01 3.211502838134765625e+01 1.287425041198730469e+00 2.301946067810058594e+01 7.292065620422363281e+00 -4.451987743377685547e+00
2.710000000000000000e+02 6.084452056884765625e+01 3.241363906860351562e+01 1.010957121849060059e+00 1.875381469726562500e+01 5.929431438446044922e+00 -5.686078548431396484e+00
2.720000000000000000e+02 6.022037887573242188e+01 3.192400741577148438e+01 4.485843658447265625e+00 8.171554565429687500e+00 3.797219514846801758e+00 -7.339355468750000000e+00
2.730000000000000000e+02 6.028889083862304688e+01 3.007835769653320312e+01 5.208486557006835938e+00 1.011085605621337891e+01 4.595802783966064453e+00 8.878293037414550781e+00
2.740000000000000000e+02 6.090867614746093750e+01 2.989208221435546875e+01 2.077895402908325195e+00 2.199444198608398438e+01 7.221701145172119141e+00 6.305949687957763672e+00
2.750000000000000000e+02 5.877691268920898438e+01 3.096617889404296875e+01 -4.347695827484130859e+00 -2.931502088904380798e-02 -1.313103199005126953e+00 2.461085766553878784e-01
2.760000000000000000e+02 5.791656112670898438e+01 3.041679954528808594e+01 -2.147632360458374023e+00 3.160403296351432800e-02 -6.348085403442382812e-01 4.764117598533630371e-01
2.770000000000000000e+02 5.817147445678710938e+01 3.103252029418945312e+01 -4.704545974731445312e+00 2.311990968883037567e-02 -1.404427886009216309e+00 2.643350660800933838e-01
2.780000000000000000e+02 5.815210723876953125e+01 3.080748558044433594e+01 -3.636503219604492188e+00 -5.748932808637619019e-02 -1.108197808265686035e+00 3.749855160713195801e-01
2.790000000000000000e+02 5.835385131835937500e+01 3.076587867736816406e+01 -3.294635295867919922e+00 1.367034111171960831e-02 -9.842895269393920898e-01 3.381101191043853760e-01
2.800000000000000000e+02 5.797104263305664062e+01 3.105018424987792969e+01 -4.890930652618408203e+00 -1.699423044919967651e-01 -1.518261909484863281e+00 3.606851696968078613e-01
2.810000000000000000e+02 5.968348693847656250e+01 3.244417953491210938e+01 2.808163166046142578e+00 4.998063564300537109e+00 2.341867923736572266e+00 -5.074790000915527344e+00
2.820000000000000000e+02 6.005139541625976562e+01 3.178906822204589844e+01 4.462462902069091797e+00 4.759744644165039062e+00 2.766662359237670898e+00 -5.824206829071044922e+00
2.830000000000000000e+02 6.149848556518554688e+01 3.193774223327636719e+01 3.829386949539184570e+00 2.533478355407714844e+01 8.749251365661621094e+00 1.291820883750915527e+00
2.840000000000000000e+02 6.073199081420898438e+01 3.228803634643554688e+01 1.467002511024475098e+00 1.803733253479003906e+01 5.851300716400146484e+00 -6.485723018646240234e+00
2.850000000000000000e+02 6.155525588989257812e+01 3.222659683227539062e+01 2.493823051452636719e+00 2.304899787902832031e+01 7.662846088409423828e+00 6.623658537864685059e-01
2.860000000000000000e+02 6.048436355590820312e+01 3.243455123901367188e+01 1.951481223106384277e+00 1.383051872253417969e+01 4.734600067138671875e+00 -6.836991310119628906e+00
2.870000000000000000e+02 6.197385406494140625e+01 3.085065650939941406e+01 1.350517559051513672e+01 1.997505950927734375e+01 1.004407024383544922e+01 -7.526174187660217285e-01
2.880000000000000000e+02 6.109467315673828125e+01 2.990918159484863281e+01 1.973309636116027832e+00 2.403523826599121094e+01 7.802564620971679688e+00 4.112948894500732422e+00
2.890000000000000000e+02 6.053066253662109375e+01 2.986252021789550781e+01 3.328905105590820312e+00 1.538153553009033203e+01 5.613132476806640625e+00 8.647693634033203125e+00
2.900000000000000000e+02 6.071810531616210938e+01 2.989410400390625000e+01 2.754735231399536133e+00 1.881397819519042969e+01 6.470613956451416016e+00 8.016776084899902344e+00
2.910000000000000000e+02 6.222071075439453125e+01 3.063427162170410156e+01 1.108570480346679688e+01 1.849694633483886719e+01 8.874794960021972656e+00 -1.633357763290405273e+00
2.920000000000000000e+02 6.030782699584960938e+01 2.964774513244628906e+01 3.310509204864501953e+00 1.152621650695800781e+01 4.451017856597900391e+00 7.992926120758056641e+00
2.930000000000000000e+02 6.035515594482421875e+01 2.984383583068847656e+01 3.903636455535888672e+00 1.178773784637451172e+01 4.707412242889404297e+00 8.434105873107910156e+00
2.940000000000000000e+02 6.154441833496093750e+01 3.011835289001464844e+01 5.151745796203613281e+00 2.491853713989257812e+01 9.021084785461425781e+00 -1.150562763214111328e+00
2.950000000000000000e+02 5.995366668701171875e+01 2.997949790954589844e+01 4.565437793731689453e+00 5.721992015838623047e+00 3.086228847503662109e+00 6.712550640106201172e+00
2.960000000000000000e+02 6.155769729614257812e+01 2.981767463684082031e+01 3.053570032119750977e+00 2.252717208862304688e+01 7.674222469329833984e+00 1.372900456190109253e-01
2.970000000000000000e+02 6.211553573608398438e+01 3.031100082397460938e+01 8.699023246765136719e+00 1.952202987670898438e+01 8.466316223144531250e+00 -2.401568889617919922e+00
2.980000000000000000e+02 6.181344604492187500e+01 3.043080139160156250e+01 9.874016761779785156e+00 2.248389625549316406e+01 9.707373619079589844e+00 -2.891635417938232422e+00
2.990000000000000000e+02 5.939020919799804688e+01 2.981221008300781250e+01 3.069759368896484375e+00 2.821403980255126953e+00 1.767349004745483398e+00 4.424704074859619141e+00
3.000000000000000000e+02 6.123237609863281250e+01 3.233428192138671875e+01 8.591183423995971680e-01 2.189926147460937500e+01 6.827513694763183594e+00 -2.491484165191650391e+00
3.010000000000000000e+02 6.103609848022460938e+01 3.236642074584960938e+01 7.764170765876770020e-01 2.063582801818847656e+01 6.423673629760742188e+00 -4.183203697204589844e+00
3.020000000000000000e+02 6.195708847045898438e+01 3.182616233825683594e+01 6.983491897583007812e+00 2.148328781127929688e+01 8.540034294128417969e+00 3.236047983169555664e+00
3.030000000000000000e+02 6.226830673217773438e+01 3.138091659545898438e+01 1.040774059295654297e+01 1.837459564208984375e+01 8.634700775146484375e+00 2.344239950180053711e+00
3.040000000000000000e+02 6.219477462768554688e+01 3.153417778015136719e+01 9.680498123168945312e+00 1.898294448852539062e+01 8.599032402038574219e+00 2.885640859603881836e+00
3.050000000000000000e+02 6.222498321533203125e+01 3.083573532104492188e+01 1.181912899017333984e+01 1.836478233337402344e+01 9.055173873901367188e+00 -5.257376432418823242e-01
3.060000000000000000e+02 6.200656509399414062e+01 3.018566513061523438e+01 7.456444263458251953e+00 2.088399887084960938e+01 8.502132415771484375e+00 -2.600905179977416992e+00
3.070000000000000000e+02 6.186194229125976562e+01 3.006492233276367188e+01 6.067428588867187500e+00 2.178491592407226562e+01 8.355703353881835938e+00 -2.104150056838989258e+00
3.080000000000000000e+02 6.226236724853515625e+01 3.104737091064453125e+01 1.204026985168457031e+01 1.814352989196777344e+01 9.055139541625976562e+00 6.749956011772155762e-01
3.090000000000000000e+02 6.199476623535156250e+01 3.149412345886230469e+01 1.039958286285400391e+01 2.079767990112304688e+01 9.359178543090820312e+00 3.222196340560913086e+00
3.100000000000000000e+02 6.127411270141601562e+01 2.986557388305664062e+01 2.379615545272827148e+00 2.392995643615722656e+01 7.892871856689453125e+00 2.418678760528564453e+00
3.110000000000000000e+02 6.171077346801757812e+01 2.992973709106445312e+01 4.354264259338378906e+00 2.254029846191406250e+01 8.068368911743164062e+00 -1.167022228240966797e+00
3.120000000000000000e+02 6.182658767700195312e+01 3.198058891296386719e+01 5.079713821411132812e+00 2.235597610473632812e+01 8.230707168579101562e+00 2.685601234436035156e+00
3.130000000000000000e+02 6.140724182128906250e+01 3.229904556274414062e+01 1.327142834663391113e+00 2.263206100463867188e+01 7.187761306762695312e+00 -1.112507700920104980e+00
3.140000000000000000e+02 6.028594207763671875e+01 3.242928314208984375e+01 2.518239259719848633e+00 1.109905147552490234e+01 4.085187435150146484e+00 -6.966335296630859375e+00
3.150000000000000000e+02 5.829377746582031250e+01 3.251774597167968750e+01 4.539230465888977051e-01 1.090379953384399414e+00 4.632908999919891357e-01 -1.451012730598449707e+00
3.160000000000000000e+02 5.888599014282226562e+01 3.250621795654296875e+01 1.575125575065612793e+00 1.971039056777954102e+00 1.063849329948425293e+00 -2.569211959838867188e+00
3.170000000000000000e+02 6.008589553833007812e+01 3.242769622802734375e+01 2.812361955642700195e+00 8.869647979736328125e+00 3.504602909088134766e+00 -6.441421508789062500e+00
3.180000000000000000e+02 5.971044921875000000e+01 3.216934967041015625e+01 3.079773902893066406e+00 3.977047443389892578e+00 2.117046356201171875e+00 -4.594626426696777344e+00
3.190000000000000000e+02 5.992676544189453125e+01 3.160628700256347656e+01 3.441036939620971680e+00 1.951852083206176758e+00 1.617866635322570801e+00 -3.529228687286376953e+00
3.200000000000000000e+02 5.858214187622070312e+01 3.127723693847656250e+01 -3.811923503875732422e+00 4.323185235261917114e-02 -1.130607485771179199e+00 2.139607667922973633e-01
3.210000000000000000e+02 5.917968368530273438e+01 3.126485633850097656e+01 -3.286463022232055664e+00 -8.851206861436367035e-03 -9.885942339897155762e-01 8.869856595993041992e-02
3.220000000000000000e+02 5.877895355224609375e+01 3.150351524353027344e+01 -2.248087644577026367e+00 1.185114607214927673e-01 -6.388728618621826172e-01 -1.004825979471206665e-01
3.230000000000000000e+02 5.962676239013671875e+01 3.149169349670410156e+01 5.562490224838256836e-01 4.738997817039489746e-01 3.090446591377258301e-01 -1.295995712280273438e+00
3.240000000000000000e+02 5.897826766967773438e+01 3.095643424987792969e+01 -4.262362957000732422e+00 4.718133714050054550e-03 -1.277293443679809570e+00 2.436728328466415405e-01
3.250000000000000000e+02 5.795434951782226562e+01 3.083561515808105469e+01 -3.747733831405639648e+00 -1.710417121648788452e-01 -1.175632715225219727e+00 3.213729560375213623e-01
3.260000000000000000e+02 5.793470764160156250e+01 3.062477302551269531e+01 -2.850356340408325195e+00 -1.808746159076690674e-02 -8.605331182479858398e-01 2.987888753414154053e-01
3.270000000000000000e+02 6.069998931884765625e+01 2.964010429382324219e+01 1.964567542076110840e+00 1.703840637207031250e+01 5.700892448425292969e+00 7.136671066284179688e+00
3.280000000000000000e+02 5.955779647827148438e+01 2.992532920837402344e+01 3.714236974716186523e+00 3.261556625366210938e+00 2.092738151550292969e+00 4.888768672943115234e+00
3.290000000000000000e+02 5.988831710815429688e+01 2.970865058898925781e+01 3.874383449554443359e+00 6.467937469482421875e+00 3.102696418762207031e+00 6.655327320098876953e+00
3.300000000000000000e+02 5.922863006591796875e+01 2.992453002929687500e+01 2.558002233505249023e+00 1.952350258827209473e+00 1.353105664253234863e+00 3.520412206649780273e+00
3.310000000000000000e+02 5.981341934204101562e+01 3.075428009033203125e+01 2.913169562816619873e-01 3.014341890811920166e-01 1.778253465890884399e-01 1.261238694190979004e+00
3.320000000000000000e+02 6.050554275512695312e+01 2.964018630981445312e+01 2.622319936752319336e+00 1.466348648071289062e+01 5.185741901397705078e+00 7.858500480651855469e+00
3.330000000000000000e+02 5.887434005737304688e+01 3.021808242797851562e+01 4.478623867034912109e-01 5.378299355506896973e-01 2.957077026367187500e-01 1.665860176086425781e+00
3.340000000000000000e+02 5.911874008178710938e+01 2.972290802001953125e+01 2.448133945465087891e+00 2.282920837402343750e+00 1.419316411018371582e+00 3.742356777191162109e+00
3.350000000000000000e+02 6.017316436767578125e+01 2.989626121520996094e+01 4.510157585144042969e+00 9.096755981445312500e+00 4.082074165344238281e+00 8.061265945434570312e+00
3.360000000000000000e+02 5.869848251342773438e+01 2.979414367675781250e+01 1.367629289627075195e+00 1.106869935989379883e+00 7.423497438430786133e-01 2.476446628570556641e+00
3.370000000000000000e+02 5.870420455932617188e+01 3.036619377136230469e+01 -7.139619588851928711e-01 2.141918838024139404e-01 -1.499310284852981567e-01 1.046884775161743164e+00
3.380000000000000000e+02 5.802225494384765625e+01 3.194200897216796875e+01 -1.340774655342102051e+00 2.489682435989379883e-01 -3.275419175624847412e-01 -2.986017465591430664e-01
3.390000000000000000e+02 5.808625793457031250e+01 2.999251556396484375e+01 -3.240453004837036133e-01 3.941732347011566162e-01 2.103838138282299042e-02 1.282719492912292480e+00
3.400000000000000000e+02 5.809391021728515625e+01 3.039618492126464844e+01 -1.796906709671020508e+00 9.627081453800201416e-02 -5.101907849311828613e-01 5.799027085304260254e-01
3.410000000000000000e+02 5.889542388916015625e+01 3.226367187500000000e+01 1.131772994995117188e+00 1.483600974082946777e+00 7.846121788024902344e-01 -2.121747255325317383e+00
3.420000000000000000e+02 5.870339584350585938e+01 3.228538131713867188e+01 8.688448071479797363e-01 1.175545930862426758e+00 6.133171916007995605e-01 -1.812716364860534668e+00
3.430000000000000000e+02 5.852718734741210938e+01 3.227421188354492188e+01 3.820591270923614502e-01 9.497715234756469727e-01 3.995491862297058105e-01 -1.359088301658630371e+00
3.440000000000000000e+02 6.012503051757812500e+01 3.216440200805664062e+01 3.619509458541870117e+00 8.238513946533203125e+00 3.557407140731811523e+00 -6.855558872222900391e+00
3.450000000000000000e+02 5.858469772338867188e+01 3.151755523681640625e+01 -2.439563512802124023e+00 6.833373010158538818e-02 -7.113689780235290527e-01 -6.029694899916648865e-02
3.460000000000000000e+02 5.857563781738281250e+01 3.098686027526855469e+01 -4.447160243988037109e+00 -2.738729678094387054e-02 -1.342364192008972168e+00 2.704368829727172852e-01
3.470000000000000000e+02 5.848430252075195312e+01 2.978119659423828125e+01 9.721280932426452637e-01 8.953962922096252441e-01 5.602573156356811523e-01 2.161247730255126953e+00
3.480000000000000000e+02 5.972184753417968750e+01 3.008603858947753906e+01 4.108367443084716797e+00 3.195751190185546875e+00 2.191235542297363281e+00 5.139514446258544922e+00
3.490000000000000000e+02 5.954602432250976562e+01 3.023722457885742188e+01 2.632706403732299805e+00 1.547747850418090820e+00 1.254136204719543457e+00 3.341120958328247070e+00
3.500000000000000000e+02 5.996593093872070312e+01 3.035715866088867188e+01 5.077402114868164062e+00 3.029355525970458984e+00 2.432027101516723633e+00 5.379826545715332031e+00
3.510000000000000000e+02 5.847414779663085938e+01 3.005021286010742188e+01 1.693110018968582153e-01 5.468583106994628906e-01 2.148507833480834961e-01 1.552430868148803711e+00
3.520000000000000000e+02 5.819782638549804688e+01 3.195228576660156250e+01 -1.039482235908508301e+00 2.875356376171112061e-01 -2.255839854478836060e-01 -4.184820055961608887e-01
3.530000000000000000e+02 5.834232711791992188e+01 3.223223876953125000e+01 8.506731130182743073e-03 6.990620493888854980e-01 2.122706472873687744e-01 -1.103313922882080078e+00
3.540000000000000000e+02 5.808431243896484375e+01 3.019861602783203125e+01 -1.006885051727294922e+00 1.523981690406799316e-01 -2.563460469245910645e-01 8.981809616088867188e-01
3.550000000000000000e+02 5.876916885375976562e+01 3.065734100341796875e+01 -2.154177427291870117e+00 3.191200271248817444e-02 -6.366796493530273438e-01 6.009617447853088379e-01
3.560000000000000000e+02 5.970703125000000000e+01 3.175338745117187500e+01 2.733416557312011719e+00 1.940035820007324219e+00 1.402035713195800781e+00 -3.239620447158813477e+00
3.570000000000000000e+02 6.041432571411132812e+01 3.200696563720703125e+01 3.799736976623535156e+00 1.270570659637451172e+01 4.951632976531982422e+00 -8.397747039794921875e+00
3.580000000000000000e+02 5.987581634521484375e+01 3.055527496337890625e+01 3.076372146606445312e+00 9.266528487205505371e-01 1.200907468795776367e+00 2.950702667236328125e+00
3.590000000000000000e+02 5.967191314697265625e+01 3.050409126281738281e+01 2.288828134536743164e+00 9.309839606285095215e-01 9.659436345100402832e-01 2.503436088562011719e+00
3.600000000000000000e+02 5.929289245605468750e+01 3.221377944946289062e+01 2.129691839218139648e+00 2.194257736206054688e+00 1.297184824943542480e+00 -3.098348617553710938e+00
3.610000000000000000e+02 5.855385208129882812e+01 3.193541717529296875e+01 -5.084413290023803711e-01 4.674278199672698975e-01 -1.230406295508146286e-02 -8.233961462974548340e-01
3.620000000000000000e+02 5.940268325805664062e+01 3.155924224853515625e+01 4.208104312419891357e-02 4.683500230312347412e-01 1.531293243169784546e-01 -1.059117913246154785e+00
3.630000000000000000e+02 5.945611572265625000e+01 3.045354652404785156e+01 1.397837758064270020e+00 5.844463109970092773e-01 5.946851968765258789e-01 2.053457736968994141e+00
3.640000000000000000e+02 5.903783798217773438e+01 3.003645706176757812e+01 1.746914148330688477e+00 1.079060196876525879e+00 8.477922677993774414e-01 2.570163488388061523e+00
3.650000000000000000e+02 5.855677795410156250e+01 3.173713493347167969e+01 -1.319351792335510254e+00 2.322088181972503662e-01 -3.261428773403167725e-01 -3.170915246009826660e-01
3.660000000000000000e+02 5.827900695800781250e+01 3.000298309326171875e+01 -9.981765598058700562e-02 4.370446801185607910e-01 1.011681035161018372e-01 1.435180544853210449e+00
3.670000000000000000e+02 5.801297378540039062e+01 3.172924232482910156e+01 -2.124021291732788086e+00 1.135814040899276733e-01 -6.031319499015808105e-01 1.492437534034252167e-02
3.680000000000000000e+02 5.909297943115234375e+01 3.203712463378906250e+01 1.069391608238220215e+00 1.457120656967163086e+00 7.579537034034729004e-01 -2.085036754608154297e+00
3.690000000000000000e+02 5.896066284179687500e+01 3.151727104187011719e+01 -1.664922118186950684e+00 1.755339801311492920e-01 -4.468164443969726562e-01 -3.381442129611968994e-01
3.700000000000000000e+02 5.919409561157226562e+01 3.023077964782714844e+01 1.424922466278076172e+00 8.551181554794311523e-01 6.840121746063232422e-01 2.299744606018066406e+00
3.710000000000000000e+02 5.789282226562500000e+01 2.999827003479003906e+01 -6.811081171035766602e-01 2.231314182281494141e-01 -1.373930126428604126e-01 1.101945281028747559e+00
3.720000000000000000e+02 5.790335845947265625e+01 3.020817565917968750e+01 -1.299429535865783691e+00 1.661157757043838501e-01 -3.399941325187683105e-01 7.967675328254699707e-01
3.730000000000000000e+02 5.828126525878906250e+01 2.977558326721191406e+01 5.320767760276794434e-01 7.508921623229980469e-01 3.848906755447387695e-01 1.836203217506408691e+00
3.740000000000000000e+02 5.868304443359375000e+01 3.009347343444824219e+01 5.572725534439086914e-01 5.652176737785339355e-01 3.367470800876617432e-01 1.756596565246582031e+00
3.750000000000000000e+02 5.930002593994140625e+01 2.967816925048828125e+01 2.923139095306396484e+00 2.921653032302856445e+00 1.753437638282775879e+00 4.313657760620117188e+00
3.760000000000000000e+02 5.947117996215820312e+01 2.967096519470214844e+01 3.289633750915527344e+00 3.625919818878173828e+00 2.074666023254394531e+00 4.998547077178955078e+00
3.770000000000000000e+02 5.966556549072265625e+01 2.970655250549316406e+01 3.615924119949340820e+00 4.827051639556884766e+00 2.532892704010009766e+00 5.740534305572509766e+00
3.780000000000000000e+02 6.010583114624023438e+01 2.967287635803222656e+01 3.716174840927124023e+00 8.776997566223144531e+00 3.747951745986938477e+00 7.485208034515380859e+00
3.790000000000000000e+02 6.045714569091796875e+01 3.000314903259277344e+01 4.268918514251708984e+00 1.404314231872558594e+01 5.493618488311767578e+00 9.223262786865234375e+00
3.800000000000000000e+02 6.089265441894531250e+01 2.964085006713867188e+01 1.612730622291564941e+00 1.942644500732421875e+01 6.311752796173095703e+00 5.965173244476318359e+00
3.810000000000000000e+02 6.107991027832031250e+01 2.965137290954589844e+01 1.516244530677795410e+00 2.105249404907226562e+01 6.770621776580810547e+00 4.472567558288574219e+00
3.820000000000000000e+02 6.125533294677734375e+01 2.966585540771484375e+01 1.505419969558715820e+00 2.202589035034179688e+01 7.059393405914306641e+00 3.226595640182495117e+00
3.830000000000000000e+02 6.141062545776367188e+01 2.971947860717773438e+01 2.203026771545410156e+00 2.255375862121582031e+01 7.427035808563232422e+00 1.329437613487243652e+00
3.840000000000000000e+02 6.138849639892578125e+01 3.001181221008300781e+01 3.338818550109863281e+00 2.517366027832031250e+01 8.553743362426757812e+00 7.764287590980529785e-01
3.850000000000000000e+02 6.169506072998046875e+01 3.025329208374023438e+01 7.461391448974609375e+00 2.377679061889648438e+01 9.371454238891601562e+00 -2.449485778808593750e+00
3.860000000000000000e+02 6.219115066528320312e+01 3.046907806396484375e+01 9.484132766723632812e+00 1.890299797058105469e+01 8.516139984130859375e+00 -2.177907466888427734e+00
3.870000000000000000e+02 6.197871780395507812e+01 3.036181640625000000e+01 9.154868125915527344e+00 2.091333389282226562e+01 9.020461082458496094e+00 -2.644113302230834961e+00
3.880000000000000000e+02 6.190973281860351562e+01 3.063426589965820312e+01 1.221580505371093750e+01 2.090312957763671875e+01 9.935680389404296875e+00 -2.178954601287841797e+00
3.890000000000000000e+02 6.209988021850585938e+01 3.116094017028808594e+01 1.266886520385742188e+01 1.910446357727050781e+01 9.531998634338378906e+00 1.396278858184814453e+00
3.900000000000000000e+02 6.208558273315429688e+01 3.167690849304199219e+01 8.589612007141113281e+00 2.021880722045898438e+01 8.642525672912597656e+00 3.264390468597412109e+00
3.910000000000000000e+02 6.168910217285156250e+01 3.211090087890625000e+01 3.448000431060791016e+00 2.260287857055664062e+01 7.815263271331787109e+00 1.679664134979248047e+00
3.920000000000000000e+02 6.067030334472656250e+01 3.244247055053710938e+01 1.484730720520019531e+00 1.625318336486816406e+01 5.321374416351318359e+00 -6.384292602539062500e+00
3.930000000000000000e+02 6.033566665649414062e+01 3.220584106445312500e+01 3.234797477722167969e+00 1.153164768218994141e+01 4.429933547973632812e+00 -7.564613819122314453e+00
3.940000000000000000e+02 5.991047286987304688e+01 3.217056274414062500e+01 3.660671949386596680e+00 5.860509872436523438e+00 2.856354475021362305e+00 -5.860205173492431641e+00
3.950000000000000000e+02 5.825221633911132812e+01 3.019891357421875000e+01 -6.239442825317382812e-01 2.691799700260162354e-01 -1.064292863011360168e-01 1.043286085128784180e+00
3.960000000000000000e+02 5.948469161987304688e+01 3.245404434204101562e+01 2.553924798965454102e+00 4.014914989471435547e+00 1.970651984214782715e+00 -4.290372371673583984e+00
3.970000000000000000e+02 5.908467102050781250e+01 3.249197006225585938e+01 1.887538313865661621e+00 2.433215141296386719e+00 1.296226024627685547e+00 -3.051569938659667969e+00
3.980000000000000000e+02 5.892487335205078125e+01 3.204471969604492188e+01 8.449576497077941895e-01 1.000225305557250977e+00 5.535548925399780273e-01 -1.769442319869995117e+00
3.990000000000000000e+02 5.849241256713867188e+01 3.252239608764648438e+01 8.430438637733459473e-01 1.279912233352661133e+00 6.368868350982666016e-01 -1.854202389717102051e+00
4.000000000000000000e+02 5.837701416015625000e+01 3.196668815612792969e+01 -6.554476022720336914e-01 3.920941650867462158e-01 -7.900603860616683960e-02 -6.173292398452758789e-01
4.010000000000000000e+02 5.816956329345703125e+01 3.218185043334960938e+01 -4.287781417369842529e-01 5.801519155502319336e-01 4.541212692856788635e-02 -7.758792638778686523e-01
4.020000000000000000e+02 5.868879699707031250e+01 3.251861572265625000e+01 1.221157312393188477e+00 1.613547086715698242e+00 8.504112958908081055e-01 -2.173435211181640625e+00
4.030000000000000000e+02 5.838431167602539062e+01 3.128484153747558594e+01 -3.897070169448852539e+00 -5.586580559611320496e-02 -1.185880780220031738e+00 2.280966937541961670e-01
4.040000000000000000e+02 5.819546508789062500e+01 3.151173019409179688e+01 -2.931415557861328125e+00 -5.843996535986661911e-03 -8.811778426170349121e-01 7.991327345371246338e-02
4.050000000000000000e+02 5.838742828369140625e+01 3.151050186157226562e+01 -2.696145057678222656e+00 9.598336368799209595e-02 -7.800484895706176758e-01 6.395142525434494019e-02
4.060000000000000000e+02 5.878015518188476562e+01 3.126727485656738281e+01 -3.682928562164306641e+00 1.460987026803195477e-03 -1.104440331459045410e+00 1.569209396839141846e-01
4.070000000000000000e+02 5.897873306274414062e+01 3.126349449157714844e+01 -3.488123655319213867e+00 3.108971752226352692e-02 -1.037110209465026855e+00 1.135123446583747864e-01
4.080000000000000000e+02 5.916890716552734375e+01 3.156928825378417969e+01 -7.146462798118591309e-01 3.012182116508483887e-01 -1.240284293889999390e-01 -7.121706008911132812e-01
4.090000000000000000e+02 5.819894409179687500e+01 3.172942161560058594e+01 -1.882024884223937988e+00 1.461799591779708862e-01 -5.207535028457641602e-01 -9.923081099987030029e-02
4.100000000000000000e+02 5.984117507934570312e+01 3.196113014221191406e+01 3.537776231765747070e+00 4.075020790100097656e+00 2.283838987350463867e+00 -4.870548248291015625e+00
4.110000000000000000e+02 5.812240982055664062e+01 3.059521293640136719e+01 -2.665812730789184570e+00 -4.615081474184989929e-02 -8.135890364646911621e-01 4.092233777046203613e-01
4.120000000000000000e+02 5.837317657470703125e+01 3.101076507568359375e+01 -4.576924800872802734e+00 -1.768079213798046112e-02 -1.378381729125976562e+00 2.858278751373291016e-01
4.130000000000000000e+02 5.855838775634765625e+01 3.071227264404296875e+01 -2.815827846527099609e+00 1.710809022188186646e-02 -8.396158814430236816e-01 4.491438865661621094e-01
4.140000000000000000e+02 5.920193862915039062e+01 3.068039512634277344e+01 -1.299662232398986816e+00 3.129643574357032776e-02 -3.805097341537475586e-01 7.411557435989379883e-01
4.150000000000000000e+02 5.958531951904296875e+01 3.095777511596679688e+01 -3.775795936584472656e+00 5.198401585221290588e-02 -1.117143511772155762e+00 2.440675497055053711e-01
4.160000000000000000e+02 5.941099166870117188e+01 3.070043945312500000e+01 -9.973409175872802734e-01 1.368075162172317505e-01 -2.581600248813629150e-01 8.635776042938232422e-01
4.170000000000000000e+02 5.961609649658203125e+01 3.072522544860839844e+01 -4.814634919166564941e-01 1.087034344673156738e-01 -1.118280142545700073e-01 1.046770334243774414e+00
4.180000000000000000e+02 6.060944366455078125e+01 3.206496047973632812e+01 2.647796630859375000e+00 1.663455200195312500e+01 5.784704685211181641e+00 -8.095268249511718750e+00
4.190000000000000000e+02 6.140169525146484375e+01 3.209794235229492188e+01 2.417332410812377930e+00 2.428990554809570312e+01 8.012171745300292969e+00 -2.091463804244995117e-01
4.200000000000000000e+02 5.974729919433593750e+01 3.029309082031250000e+01 3.785425662994384766e+00 2.325170516967773438e+00 1.833178877830505371e+00 4.211174488067626953e+00
4.210000000000000000e+02 6.201521682739257812e+01 3.132381248474121094e+01 1.235946941375732422e+01 2.023085403442382812e+01 9.777097702026367188e+00 2.665997266769409180e+00
4.220000000000000000e+02 6.218593978881835938e+01 3.129306793212890625e+01 1.129645919799804688e+01 1.867095184326171875e+01 8.990222930908203125e+00 2.153747320175170898e+00
4.230000000000000000e+02 5.864449310302734375e+01 3.210396575927734375e+01 2.149918377399444580e-01 7.145052552223205566e-01 2.788491249084472656e-01 -1.245181441307067871e+00
4.240000000000000000e+02 5.879261016845703125e+01 3.197159576416015625e+01 1.002583056688308716e-01 6.729726195335388184e-01 2.319692820310592651e-01 -1.187033891677856445e+00
4.250000000000000000e+02 5.909397506713867188e+01 3.225134277343750000e+01 1.609754443168640137e+00 1.794075965881347656e+00 1.021149158477783203e+00 -2.545857429504394531e+00
4.260000000000000000e+02 5.837961578369140625e+01 3.173212814331054688e+01 -1.713840246200561523e+00 1.123227700591087341e-01 -4.804552495479583740e-01 -2.235366851091384888e-01
4.270000000000000000e+02 5.924242401123046875e+01 3.043066024780273438e+01 5.493944287300109863e-01 5.005128979682922363e-01 3.149721920490264893e-01 1.735897779464721680e+00
4.280000000000000000e+02 5.904690933227539062e+01 3.038696670532226562e+01 1.165393069386482239e-01 3.354563415050506592e-01 1.355986893177032471e-01 1.467024087905883789e+00
4.290000000000000000e+02 5.831257629394531250e+01 3.054253196716308594e+01 -2.255498886108398438e+00 3.438708558678627014e-02 -6.663335561752319336e-01 5.835021734237670898e-01
4.300000000000000000e+02 5.825971221923828125e+01 3.036120223999023438e+01 -1.505651831626892090e+00 8.553186804056167603e-02 -4.260360002517700195e-01 6.520481705665588379e-01
4.310000000000000000e+02 5.937768173217773438e+01 3.009882545471191406e+01 2.610188007354736328e+00 1.533477306365966797e+00 1.243099570274353027e+00 3.317605733871459961e+00
4.320000000000000000e+02 6.210103225708007812e+01 3.141381454467773438e+01 1.085135078430175781e+01 1.943822097778320312e+01 9.086872100830078125e+00 2.690878629684448242e+00
4.330000000000000000e+02 6.053794479370117188e+01 3.224331665039062500e+01 2.414152860641479492e+00 1.519810581207275391e+01 5.283677577972412109e+00 -7.510614871978759766e+00
4.340000000000000000e+02 5.925906753540039062e+01 3.196798324584960938e+01 1.353556275367736816e+00 1.345670819282531738e+00 8.097681403160095215e-01 -2.274185657501220703e+00
4.350000000000000000e+02 5.946542358398437500e+01 3.186587715148925781e+01 2.003281593322753906e+00 1.622700095176696777e+00 1.087794542312622070e+00 -2.644220829010009766e+00
4.360000000000000000e+02 5.884696197509765625e+01 3.168881225585937500e+01 -9.329772591590881348e-01 3.033433854579925537e-01 -1.888901591300964355e-01 -5.849907994270324707e-01
4.370000000000000000e+02 5.850319671630859375e+01 3.044902610778808594e+01 -1.456275105476379395e+00 1.088491305708885193e-01 -4.042277932167053223e-01 7.608310580253601074e-01
4.380000000000000000e+02 5.893437576293945312e+01 3.185350608825683594e+01 1.112634688615798950e-01 5.122244954109191895e-01 1.870463788509368896e-01 -1.081131815910339355e+00
4.390000000000000000e+02 5.912331771850585938e+01 3.183364677429199219e+01 6.296189427375793457e-01 7.594912052154541016e-01 4.167330563068389893e-01 -1.480280399322509766e+00
4.400000000000000000e+02 5.869496917724609375e+01 3.181880569458007812e+01 -6.302428841590881348e-01 3.728383481502532959e-01 -7.722136378288269043e-02 -6.899238824844360352e-01
4.410000000000000000e+02 5.839755630493164062e+01 3.026123046875000000e+01 -6.717197895050048828e-01 1.981629729270935059e-01 -1.420670449733734131e-01 1.027109861373901367e+00
4.420000000000000000e+02 5.717839050292968750e+01 3.158148002624511719e+01 -3.418557167053222656e+00 -1.130638569593429565e-01 -1.059486269950866699e+00 3.251191675662994385e-01
4.430000000000000000e+02 5.781295013427734375e+01 3.217367935180664062e+01 -8.140894174575805664e-01 4.086708426475524902e-01 -1.216255724430084229e-01 -4.893203377723693848e-01
4.440000000000000000e+02 5.756227493286132812e+01 3.215986251831054688e+01 -1.305937886238098145e+00 2.909007966518402100e-01 -3.045111000537872314e-01 -2.672373354434967041e-01
4.450000000000000000e+02 5.596897506713867188e+01 3.244931793212890625e+01 -1.799350023269653320e+00 5.265253037214279175e-02 -5.240092873573303223e-01 1.455580294132232666e-01
4.460000000000000000e+02 5.781502532958984375e+01 3.237549972534179688e+01 -4.229382872581481934e-01 4.240373671054840088e-01 3.297272196505218744e-04 -6.637665629386901855e-01
4.470000000000000000e+02 5.532044219970703125e+01 3.252303314208984375e+01 -1.928670883178710938e+00 6.896505504846572876e-02 -5.579117536544799805e-01 2.637495994567871094e-01
4.480000000000000000e+02 5.601403808593750000e+01 3.170289039611816406e+01 -3.301190614700317383e+00 -1.524227578192949295e-02 -9.949298501014709473e-01 3.661758303642272949e-01
4.490000000000000000e+02 5.670950317382812500e+01 3.156848716735839844e+01 -3.459509849548339844e+00 -4.675290733575820923e-02 -1.051878809928894043e+00 3.651211261749267578e-01
4.500000000000000000e+02 5.528667449951171875e+01 3.178325271606445312e+01 -3.111511945724487305e+00 -4.684422165155410767e-02 -9.475068449974060059e-01 3.683406412601470947e-01
4.510000000000000000e+02 5.774695968627929688e+01 3.177736473083496094e+01 -2.219364643096923828e+00 1.909980326890945435e-01 -6.085099577903747559e-01 3.631254285573959351e-02
4.520000000000000000e+02 5.771744918823242188e+01 3.157020759582519531e+01 -3.049105167388916016e+00 1.404738128185272217e-01 -8.725893497467041016e-01 2.735803425312042236e-01
4.530000000000000000e+02 5.759099197387695312e+01 3.135563659667968750e+01 -3.749471187591552734e+00 5.722363293170928955e-02 -1.107674241065979004e+00 4.143742024898529053e-01
4.540000000000000000e+02 5.777624893188476562e+01 3.198136711120605469e+01 -1.603427529335021973e+00 2.573331594467163086e-01 -4.038282930850982666e-01 -1.956577003002166748e-01
4.550000000000000000e+02 5.725048065185546875e+01 3.208351898193359375e+01 -1.802894592285156250e+00 8.501251786947250366e-02 -5.153646469116210938e-01 -1.068098619580268860e-01
4.560000000000000000e+02 5.775751495361328125e+01 3.259011840820312500e+01 -1.797551065683364868e-01 6.067476868629455566e-01 1.280977725982666016e-01 -9.368591904640197754e-01
4.570000000000000000e+02 5.752098464965820312e+01 3.245224761962890625e+01 -6.645125150680541992e-01 4.714793264865875244e-01 -5.790996551513671875e-02 -6.148296594619750977e-01
4.580000000000000000e+02 5.685598754882812500e+01 3.194066047668457031e+01 -2.431315898895263672e+00 2.441827207803726196e-02 -7.220693230628967285e-01 1.313005238771438599e-01
4.590000000000000000e+02 5.711883544921875000e+01 3.251452255249023438e+01 -8.692241907119750977e-01 2.803601920604705811e-01 -1.766591966152191162e-01 -3.296802937984466553e-01
4.600000000000000000e+02 5.658052444458007812e+01 3.246242141723632812e+01 -1.465836167335510254e+00 1.950525492429733276e-01 -3.812350630760192871e-01 -3.299603238701820374e-02
4.610000000000000000e+02 5.744829177856445312e+01 3.175649452209472656e+01 -2.641351222991943359e+00 9.772587567567825317e-02 -7.630876302719116211e-01 1.245337054133415222e-01
4.620000000000000000e+02 5.315649414062500000e+01 3.277415466308593750e+01 -1.852454304695129395e+00 -7.969497889280319214e-02 -5.796447992324829102e-01 4.605811238288879395e-01
4.630000000000000000e+02 5.307151031494140625e+01 3.203905105590820312e+01 -2.633419752120971680e+00 -3.688661754131317139e-02 -8.010919094085693359e-01 4.011104702949523926e-01
4.640000000000000000e+02 5.232960128784179688e+01 3.212165451049804688e+01 -2.420718908309936523e+00 -6.010234355926513672e-02 -7.442463636398315430e-01 3.945861756801605225e-01
4.650000000000000000e+02 5.381415176391601562e+01 3.195396995544433594e+01 -2.813128709793090820e+00 -6.903650611639022827e-02 -8.646495938301086426e-01 4.107331633567810059e-01
4.660000000000000000e+02 5.463307952880859375e+01 3.260275268554687500e+01 -1.956990957260131836e+00 7.504647597670555115e-03 -5.848459005355834961e-01 3.339649438858032227e-01
4.670000000000000000e+02 5.455753707885742188e+01 3.186656951904296875e+01 -2.953962326049804688e+00 -5.740897729992866516e-03 -8.879109621047973633e-01 3.971089720726013184e-01
4.680000000000000000e+02 5.241930389404296875e+01 3.285622024536132812e+01 -1.795053958892822266e+00 -4.341645911335945129e-02 -5.515410900115966797e-01 4.528310298919677734e-01
4.690000000000000000e+02 5.389441299438476562e+01 3.268961715698242188e+01 -1.926645636558532715e+00 1.784457266330718994e-02 -5.726402997970581055e-01 4.052746295928955078e-01
4.700000000000000000e+02 5.010603713989257812e+01 3.241886520385742188e+01 -1.882738709449768066e+00 -6.473327428102493286e-02 -5.842416286468505859e-01 3.505102097988128662e-01
4.710000000000000000e+02 5.020995712280273438e+01 3.315154266357421875e+01 -1.439724445343017578e+00 -7.983358204364776611e-02 -4.558674097061157227e-01 4.520004987716674805e-01
4.720000000000000000e+02 4.936609268188476562e+01 3.251750564575195312e+01 -1.686184167861938477e+00 -4.836677759885787964e-02 -5.203652977943420410e-01 3.346120119094848633e-01
4.730000000000000000e+02 5.084666061401367188e+01 3.231782531738281250e+01 -2.064703464508056641e+00 -5.683543533086776733e-02 -6.364616751670837402e-01 3.751018941402435303e-01
4.740000000000000000e+02 5.168240356445312500e+01 3.294850540161132812e+01 -1.689108133316040039e+00 -8.480006456375122070e-02 -5.321724414825439453e-01 4.691226184368133545e-01
4.750000000000000000e+02 5.158797073364257812e+01 3.221453475952148438e+01 -2.231380939483642578e+00 -5.189992487430572510e-02 -6.849842667579650879e-01 3.797068893909454346e-01
4.760000000000000000e+02 4.947475433349609375e+01 3.324953460693359375e+01 -1.339288473129272461e+00 -9.355071187019348145e-02 -4.298517405986785889e-01 4.308356642723083496e-01
4.770000000000000000e+02 5.094583892822265625e+01 3.305115127563476562e+01 -1.553846836090087891e+00 -7.758502662181854248e-02 -4.894295632839202881e-01 4.391973018646240234e-01
4.780000000000000000e+02 4.727144622802734375e+01 3.360919570922851562e+01 -9.650886654853820801e-01 -7.874175161123275757e-02 -3.131491243839263916e-01 3.900343775749206543e-01
4.790000000000000000e+02 4.715089797973632812e+01 3.287907791137695312e+01 -1.227430939674377441e+00 -7.648358494043350220e-02 -3.911743760108947754e-01 2.750901877880096436e-01
4.800000000000000000e+02 4.641378021240234375e+01 3.299990844726562500e+01 -1.075460433959960938e+00 -3.367893770337104797e-02 -3.327417969703674316e-01 2.631573081016540527e-01
4.810000000000000000e+02 4.788861083984375000e+01 3.275563049316406250e+01 -1.372516870498657227e+00 -5.282795429229736328e-02 -4.276034533977508545e-01 3.111196458339691162e-01
4.820000000000000000e+02 4.873987197875976562e+01 3.336110687255859375e+01 -1.213104009628295898e+00 -7.689810544252395630e-02 -3.870006203651428223e-01 4.207716584205627441e-01
4.830000000000000000e+02 4.862693405151367188e+01 3.262971878051757812e+01 -1.517927050590515137e+00 -6.303994357585906982e-02 -4.742900729179382324e-01 3.186868727207183838e-01
4.840000000000000000e+02 4.653813171386718750e+01 3.372938919067382812e+01 -8.466025590896606445e-01 -1.162285730242729187e-01 -2.888493537902832031e-01 3.469245433807373047e-01
4.850000000000000000e+02 4.800535202026367188e+01 3.348638153076171875e+01 -1.091622591018676758e+00 -1.105919182300567627e-01 -3.606643676757812500e-01 3.794861733913421631e-01
4.860000000000000000e+02 4.420226669311523438e+01 3.339414215087890625e+01 -6.801710128784179688e-01 -7.372815907001495361e-02 -2.261697500944137573e-01 1.770437061786651611e-01
4.870000000000000000e+02 4.433515167236328125e+01 3.412211608886718750e+01 -5.467216968536376953e-01 -6.496515870094299316e-02 -1.835060566663742065e-01 2.717007696628570557e-01
4.880000000000000000e+02 4.346595001220703125e+01 3.352351760864257812e+01 -5.668563842773437500e-01 -1.383758243173360825e-02 -1.742081940174102783e-01 1.616965979337692261e-01
4.890000000000000000e+02 4.493911361694335938e+01 3.326211166381835938e+01 -8.012961745262145996e-01 -2.623091265559196472e-02 -2.482581287622451782e-01 2.158749550580978394e-01
4.900000000000000000e+02 4.580409240722656250e+01 3.385649871826171875e+01 -7.337909936904907227e-01 -7.625164091587066650e-02 -2.430128008127212524e-01 3.325220048427581787e-01
4.910000000000000000e+02 4.567650985717773438e+01 3.312757492065429688e+01 -9.340412616729736328e-01 -7.652906328439712524e-02 -3.031710982322692871e-01 2.292262762784957886e-01
4.920000000000000000e+02 4.360148620605468750e+01 3.425101852416992188e+01 -4.632323980331420898e-01 -1.076928377151489258e-01 -1.712775677442550659e-01 2.307438701391220093e-01
4.930000000000000000e+02 4.506934738159179688e+01 3.399055862426757812e+01 -6.343151330947875977e-01 -1.183071210980415344e-01 -2.257866859436035156e-01 2.843527793884277344e-01
4.940000000000000000e+02 4.139850234985351562e+01 3.467833328247070312e+01 -2.726790606975555420e-01 -4.113846644759178162e-02 -9.414526075124740601e-02 1.467888504266738892e-01
4.950000000000000000e+02 4.199465942382812500e+01 3.380642318725585938e+01 -3.943082690238952637e-01 -1.093514543026685715e-02 -1.215730234980583191e-01 1.188230216503143311e-01
4.960000000000000000e+02 4.052394866943359375e+01 3.409660720825195312e+01 -2.660225331783294678e-01 -9.835348464548587799e-03 -8.275736123323440552e-02 8.156178891658782959e-02
4.970000000000000000e+02 4.213290405273437500e+01 3.453341293334960938e+01 -3.227462172508239746e-01 -8.847296237945556641e-02 -1.233657598495483398e-01 1.722681075334548950e-01
4.980000000000000000e+02 4.272992324829101562e+01 3.366130447387695312e+01 -4.719236493110656738e-01 -6.125272437930107117e-02 -1.599529087543487549e-01 1.316613703966140747e-01
4.990000000000000000e+02 4.286724853515625000e+01 3.438847732543945312e+01 -3.940383493900299072e-01 -5.330983921885490417e-02 -1.342044621706008911e-01 2.032894790172576904e-01
5.000000000000000000e+02 4.066404342651367188e+01 3.482323455810546875e+01 -2.202941626310348511e-01 -6.913354247808456421e-02 -8.682831376791000366e-02 1.266199797391891479e-01
5.010000000000000000e+02 4.125933456420898438e+01 3.395152664184570312e+01 -3.244969844818115234e-01 -4.677652940154075623e-02 -1.113820597529411316e-01 9.583697468042373657e-02
5.020000000000000000e+02 3.905131912231445312e+01 3.438002777099609375e+01 -1.651439666748046875e-01 -1.058990787714719772e-02 -5.272016301751136780e-02 5.377850681543350220e-02
5.030000000000000000e+02 3.845631790161132812e+01 3.524533081054687500e+01 -1.075501069426536560e-01 -2.839128859341144562e-02 -4.078241810202598572e-02 7.894946634769439697e-02
5.040000000000000000e+02 3.757802581787109375e+01 3.465816116333007812e+01 -9.293524175882339478e-02 -4.209464881569147110e-03 -2.914341352880001068e-02 3.622147068381309509e-02
5.050000000000000000e+02 3.992870712280273438e+01 3.496635818481445312e+01 -1.863117665052413940e-01 -2.865492738783359528e-02 -6.449000537395477295e-02 1.030329018831253052e-01
5.060000000000000000e+02 3.978794097900390625e+01 3.423986434936523438e+01 -2.118945866823196411e-01 -2.924016304314136505e-02 -7.234042882919311523e-02 6.688457727432250977e-02
5.070000000000000000e+02 3.772006225585937500e+01 3.538441467285156250e+01 -8.371457457542419434e-02 -3.380593284964561462e-02 -3.525615110993385315e-02 5.505966395139694214e-02
5.080000000000000000e+02 3.919250869750976562e+01 3.510644531250000000e+01 -1.503016501665115356e-01 -4.628925770521163940e-02 -5.897727236151695251e-02 9.486139565706253052e-02
5.090000000000000000e+02 3.831470489501953125e+01 3.451899719238281250e+01 -1.274992823600769043e-01 -1.817529462277889252e-02 -4.370237141847610474e-02 4.097533598542213440e-02
5.100000000000000000e+02 3.551680755615234375e+01 3.582569122314453125e+01 -3.303022682666778564e-02 -6.712067406624555588e-03 -1.192268822342157364e-02 3.102718293666839600e-02
5.110000000000000000e+02 3.610754394531250000e+01 3.495201110839843750e+01 -4.480823874473571777e-02 2.937421668320894241e-03 -1.256124489009380341e-02 2.179812826216220856e-02
5.120000000000000000e+02 3.463803482055664062e+01 3.524788665771484375e+01 -1.602331548929214478e-02 6.419995333999395370e-03 -2.880995860323309898e-03 1.038192305713891983e-02
5.130000000000000000e+02 3.684228134155273438e+01 3.480297470092773438e+01 -6.655457615852355957e-02 -1.746098883450031281e-02 -2.520466968417167664e-02 2.298870123922824860e-02
5.140000000000000000e+02 3.698487472534179688e+01 3.552911758422851562e+01 -6.289289146661758423e-02 -1.502544619143009186e-02 -2.337549999356269836e-02 5.226561799645423889e-02
5.150000000000000000e+02 3.478272247314453125e+01 3.597360992431640625e+01 -1.640073955059051514e-02 -2.093058079481124878e-02 -1.119939610362052917e-02 2.094844356179237366e-02
5.160000000000000000e+02 3.625083541870117188e+01 3.567801284790039062e+01 -4.437771067023277283e-02 -2.777666039764881134e-02 -2.164630964398384094e-02 3.427453711628913879e-02
5.170000000000000000e+02 3.537281799316406250e+01 3.509983062744140625e+01 -2.808372862637042999e-02 -1.615577004849910736e-02 -1.327184960246086121e-02 1.109561603516340256e-02
5.180000000000000000e+02 3.242737579345703125e+01 3.568672943115234375e+01 5.289552733302116394e-03 -5.938851740211248398e-03 -1.947896962519735098e-04 2.271246921736747026e-04
5.190000000000000000e+02 3.169006347656250000e+01 3.583216094970703125e+01 8.443192578852176666e-03 4.129647277295589447e-03 3.771852003410458565e-03 5.898721283301711082e-04
5.200000000000000000e+02 3.330534362792968750e+01 3.626757049560546875e+01 -5.320547614246606827e-03 -1.337083708494901657e-02 -5.607415456324815750e-03 1.050935871899127960e-02
5.210000000000000000e+02 3.316469573974609375e+01 3.554105377197265625e+01 7.748369826003909111e-04 4.599504638463258743e-03 1.612302497960627079e-03 3.096381435170769691e-03
5.220000000000000000e+02 3.390202713012695312e+01 3.539514541625976562e+01 -5.509725771844387054e-03 -1.119581051170825958e-02 -5.011660978198051453e-03 4.894908051937818527e-03
5.230000000000000000e+02 3.404560089111328125e+01 3.612108612060546875e+01 -1.268905680626630783e-02 -1.398213091306388378e-03 -4.226181190460920334e-03 1.344449818134307861e-02
5.240000000000000000e+02 3.182485580444335938e+01 3.655983352661132812e+01 2.721736906096339226e-03 -6.332769524306058884e-03 -1.083309762179851532e-03 4.032267257571220398e-03
5.250000000000000000e+02 3.256509399414062500e+01 3.641382217407226562e+01 -1.554969232529401779e-03 1.039056107401847839e-03 -1.547739375382661819e-04 5.899405572563409805e-03
5.260000000000000000e+02 2.946516418457031250e+01 3.621912765502929688e+01 1.170225627720355988e-02 -3.895035712048411369e-03 2.342166146263480186e-03 -2.824698342010378838e-03
5.270000000000000000e+02 2.958438682556152344e+01 3.694947052001953125e+01 5.121569149196147919e-03 3.530249465256929398e-03 2.595545491203665733e-03 -9.212644072249531746e-04
5.280000000000000000e+02 2.872264671325683594e+01 3.634394836425781250e+01 1.056229509413242340e-02 4.332107957452535629e-03 4.468320868909358978e-03 -1.790924230590462685e-03
5.290000000000000000e+02 3.020768547058105469e+01 3.609378433227539062e+01 1.147725898772478104e-02 4.169438499957323074e-03 4.694009199738502502e-03 -1.014683744870126247e-03
5.300000000000000000e+02 3.095018768310546875e+01 3.596792221069335938e+01 1.082022953778505325e-02 -4.562478512525558472e-03 1.877325354143977165e-03 -1.774031552486121655e-03
5.310000000000000000e+02 3.108069419860839844e+01 3.669636154174804688e+01 4.588258452713489532e-03 8.113254443742334843e-04 1.619875081814825535e-03 2.725230529904365540e-03
5.320000000000000000e+02 2.883622932434082031e+01 3.707524490356445312e+01 6.907411385327577591e-03 -3.589781001210212708e-03 9.952890686690807343e-04 -2.183698350563645363e-03
5.330000000000000000e+02 3.033255004882812500e+01 3.682317352294921875e+01 6.755501963198184967e-03 -5.298351868987083435e-03 4.371450631879270077e-04 -1.249412889592349529e-03
5.340000000000000000e+02 2.647223281860351562e+01 3.666142654418945312e+01 7.461011409759521484e-03 -4.252837039530277252e-03 9.624523809179663658e-04 -2.167696831747889519e-03
5.350000000000000000e+02 2.572040748596191406e+01 3.676027679443359375e+01 5.460420157760381699e-03 4.837781190872192383e-03 3.089460311457514763e-03 -1.266372855752706528e-03
5.360000000000000000e+02 2.731099891662597656e+01 3.729562377929687500e+01 4.761371295899152756e-03 -1.920721493661403656e-03 8.521950221620500088e-04 -3.382055554538965225e-03
5.370000000000000000e+02 2.722403526306152344e+01 3.656066131591796875e+01 8.193326182663440704e-03 4.367120563983917236e-03 3.768134163692593575e-03 -9.262900566682219505e-04
5.380000000000000000e+02 2.797564125061035156e+01 3.645804595947265625e+01 9.533612057566642761e-03 -3.260673722252249718e-03 1.881881617009639740e-03 -2.586693502962589264e-03
5.390000000000000000e+02 2.807846832275390625e+01 3.719087982177734375e+01 5.739890038967132568e-03 3.655065782368183136e-03 2.818486653268337250e-03 -2.233035629615187645e-03
5.400000000000000000e+02 2.577564430236816406e+01 3.749948883056640625e+01 6.468133535236120224e-03 -3.542884485796093941e-03 8.775747264735400677e-04 -1.503759878687560558e-03
5.410000000000000000e+02 2.654333496093750000e+01 3.739851379394531250e+01 2.799454145133495331e-03 3.852458903566002846e-03 1.995573984459042549e-03 -6.085502100177109241e-04
5.420000000000000000e+02 2.340743637084960938e+01 3.754123687744140625e+01 1.985023496672511101e-03 1.271954854018986225e-03 9.770934702828526497e-04 -2.869096118956804276e-03
5.430000000000000000e+02 2.266618919372558594e+01 3.679620742797851562e+01 1.475460245274007320e-03 -7.645046571269631386e-05 4.197029338683933020e-04 -8.251465624198317528e-04
5.440000000000000000e+02 2.419788742065429688e+01 3.680555725097656250e+01 3.294483292847871780e-03 2.002482069656252861e-03 1.589089632034301758e-03 -1.203397405333817005e-03
5.450000000000000000e+02 2.496211051940917969e+01 3.680892944335937500e+01 5.102929659187793732e-03 -3.101684385910630226e-03 6.003736634738743305e-04 -2.113085647579282522e-04
5.460000000000000000e+02 2.499495697021484375e+01 3.754912567138671875e+01 2.188868587836623192e-03 4.020171239972114563e-03 1.862711971625685692e-03 -3.753267461434006691e-03
5.470000000000000000e+02 2.261228370666503906e+01 3.753591537475585938e+01 1.241205492988228798e-03 -2.548562479205429554e-04 2.959047851618379354e-04 1.695543178357183933e-04
5.480000000000000000e+02 2.343242454528808594e+01 3.680136489868164062e+01 2.428550273180007935e-03 -7.763165631331503391e-04 4.956700722686946392e-04 1.030427883961237967e-04
5.490000000000000000e+02 2.420181655883789062e+01 3.754558944702148438e+01 2.889751223847270012e-03 -1.986153656616806984e-03 2.710792177822440863e-04 5.940131959505379200e-04
5.500000000000000000e+02 1.998039245605468750e+01 3.692026138305664062e+01 7.641342235729098320e-04 2.073456766083836555e-03 8.512773201800882816e-04 -3.548395761754363775e-04
5.510000000000000000e+02 2.062745285034179688e+01 3.732268142700195312e+01 1.517464756034314632e-03 5.808909772895276546e-04 6.295067141763865948e-04 4.858885367866605520e-04
5.520000000000000000e+02 2.113145446777343750e+01 3.686664581298828125e+01 -2.296318532899022102e-03 -2.352553652599453926e-03 -1.394661609083414078e-03 -6.249254802241921425e-04
5.530000000000000000e+02 2.021580696105957031e+01 3.715901565551757812e+01 -1.402672845870256424e-03 7.821535109542310238e-04 -1.861557975644245744e-04 8.546775789000093937e-04
5.540000000000000000e+02 2.186282539367675781e+01 3.673282623291015625e+01 1.301406417042016983e-03 1.409004908055067062e-03 8.131234208121895790e-04 6.852343212813138962e-04
5.550000000000000000e+02 2.186202239990234375e+01 3.748466491699218750e+01 -2.532009675633162260e-04 1.259010285139083862e-03 3.017427807208150625e-04 -1.822123886086046696e-03
5.560000000000000000e+02 2.119230079650878906e+01 3.743341445922851562e+01 2.830379176884889603e-03 -1.829730928875505924e-03 3.001944860443472862e-04 -3.415725950617343187e-04
5.570000000000000000e+02 2.068652153015136719e+01 3.649208450317382812e+01 1.114577869884669781e-03 -1.227706088684499264e-03 -3.393848237465135753e-05 -8.625802001915872097e-04
5.580000000000000000e+02 2.102560424804687500e+01 3.579481887817382812e+01 1.721002743579447269e-03 1.431372365914285183e-03 9.457125561311841011e-04 2.028648275882005692e-03
5.590000000000000000e+02 2.197462081909179688e+01 3.519912338256835938e+01 -1.052065636031329632e-03 -1.844454091042280197e-03 -8.689559181220829487e-04 2.667690627276897430e-03
5.600000000000000000e+02 2.189435958862304688e+01 3.593660354614257812e+01 6.055561359971761703e-03 -5.241099279373884201e-04 1.659435452893376350e-03 2.576886676251888275e-03
5.610000000000000000e+02 2.057264900207519531e+01 3.514139175415039062e+01 2.688869717530906200e-04 5.246452521532773972e-03 1.654601772315800190e-03 1.436128746718168259e-03
5.620000000000000000e+02 2.112965202331542969e+01 3.506163787841796875e+01 5.076111992821097374e-04 2.644100226461887360e-03 9.455134277231991291e-04 3.228013869374990463e-03
5.630000000000000000e+02 2.118493461608886719e+01 3.420830154418945312e+01 -3.840035758912563324e-03 8.520798292011022568e-04 -8.963867439888417721e-04 3.531408146955072880e-04
5.640000000000000000e+02 2.465955543518066406e+01 3.351120758056640625e+01 -5.106018111109733582e-02 -2.226640097796916962e-02 -2.199797518551349640e-02 -4.242597520351409912e-02
5.650000000000000000e+02 2.696421051025390625e+01 3.427928161621093750e+01 -9.813250601291656494e-02 -9.287335706176236272e-05 -2.946761436760425568e-02 -4.592861607670783997e-02
5.660000000000000000e+02 2.099299621582031250e+01 2.542156028747558594e+01 -1.246473053470253944e-03 -3.067536950111389160e-01 -9.240005165338516235e-02 -3.877789154648780823e-02
5.670000000000000000e+02 2.589066696166992188e+01 1.729221343994140625e+01 1.392270717769861221e-02 -6.221295595169067383e-01 -1.824620515108108521e-01 -3.711001276969909668e-01
5.680000000000000000e+02 3.340524673461914062e+01 1.167821407318115234e+01 1.571505367755889893e-01 -2.782947011291980743e-02 3.879632055759429932e-02 -4.220335781574249268e-01
5.690000000000000000e+02 4.172909545898437500e+01 5.261866092681884766e+00 2.657338380813598633e-01 1.327108740806579590e+00 4.778527617454528809e-01 -5.083828791975975037e-02
5.700000000000000000e+02 4.629737854003906250e+01 -1.450119018554687500e+00 1.566341519355773926e-01 2.417230129241943359e+00 7.721592783927917480e-01 8.227108418941497803e-02
5.710000000000000000e+02 5.847705459594726562e+01 -1.089154529571533203e+01 2.328106388449668884e-02 4.943161964416503906e+00 1.489933013916015625e+00 9.432387351989746094e-02
5.720000000000000000e+02 6.117828750610351562e+01 -1.486166191101074219e+01 9.067576378583908081e-03 5.462571144104003906e+00 1.641491651535034180e+00 6.417649239301681519e-02
5.730000000000000000e+02 7.790357208251953125e+01 -3.042415428161621094e+01 -1.876082504168152809e-03 8.614609718322753906e+00 2.583820104598999023e+00 -2.089280867949128151e-03
5.740000000000000000e+02 7.933109283447265625e+01 -2.641275024414062500e+01 2.337211044505238533e-03 8.904169082641601562e+00 2.671951770782470703e+00 -5.817014724016189575e-03
5.750000000000000000e+02 7.793450164794921875e+01 -2.353841209411621094e+01 1.701224828138947487e-04 8.657080650329589844e+00 2.597175121307373047e+00 6.322615663520991802e-04
5.760000000000000000e+02 7.931919860839843750e+01 -2.224415779113769531e+01 -9.066335624083876610e-04 8.919984817504882812e+00 2.675723552703857422e+00 -5.921962670981884003e-03
5.770000000000000000e+02 7.271291351318359375e+01 -1.123891830444335938e+01 -1.312908716499805450e-02 7.728416442871093750e+00 2.314586162567138672e+00 2.653426863253116608e-02
5.780000000000000000e+02 6.795613098144531250e+01 -4.636731624603271484e+00 -6.079090014100074768e-02 6.861643791198730469e+00 2.040255784988403320e+00 4.612305015325546265e-02
5.790000000000000000e+02 6.180574417114257812e+01 1.398016571998596191e+00 -1.374410837888717651e-01 5.748240470886230469e+00 1.683239817619323730e+00 1.881969273090362549e-01
5.800000000000000000e+02 5.034875869750976562e+01 1.403182601928710938e+01 3.651471436023712158e-01 2.520941972732543945e+00 8.658267259597778320e-01 6.257210373878479004e-01
5.810000000000000000e+02 4.360554885864257812e+01 2.145227241516113281e+01 1.003278866410255432e-01 4.673211276531219482e-01 1.702947020530700684e-01 -2.854288816452026367e-01
5.820000000000000000e+02 3.894223022460937500e+01 2.862460136413574219e+01 -7.561358809471130371e-01 1.041212752461433411e-01 -1.956043839454650879e-01 -3.932893276214599609e-01
5.830000000000000000e+02 3.195806503295898438e+01 3.276311492919921875e+01 -3.842411041259765625e-01 3.173634409904479980e-02 -1.057514250278472900e-01 -1.231835409998893738e-01
5.840000000000000000e+02 2.984776878356933594e+01 3.385950088500976562e+01 -2.283426821231842041e-01 1.528654061257839203e-02 -6.391684710979461670e-02 -6.658717244863510132e-02
5.850000000000000000e+02 2.057565307617187500e+01 -3.905416870117187500e+01 1.464508175849914551e-01 -1.693123102188110352e+00 -4.640016853809356689e-01 5.828763917088508606e-02
5.860000000000000000e+02 1.652692222595214844e+01 -3.860678863525390625e+01 1.138456314802169800e-01 -3.620933741331100464e-02 2.329088933765888214e-02 -2.282794862985610962e-01
5.870000000000000000e+02 1.893834114074707031e+01 -3.767033386230468750e+01 -2.931101024150848389e-01 -2.023652553558349609e+00 -6.950288414955139160e-01 -5.905636548995971680e-01
5.880000000000000000e+02 1.501654052734375000e+01 -4.031948852539062500e+01 -1.441698372364044189e-01 -1.723566502332687378e-01 -9.495794773101806641e-02 2.248668484389781952e-02
5.890000000000000000e+02 1.457924938201904297e+01 -3.640867233276367188e+01 -9.944125078618526459e-03 1.671925932168960571e-02 2.032540272921323776e-03 -7.804050296545028687e-02
5.900000000000000000e+02 1.534493160247802734e+01 -3.754755783081054688e+01 2.802164852619171143e-01 7.694686949253082275e-02 1.071490049362182617e-01 -1.171996816992759705e-02
5.910000000000000000e+02 1.148602676391601562e+01 -3.133678245544433594e+01 1.282279752194881439e-02 8.322863839566707611e-03 6.343698129057884216e-03 -1.046745572239160538e-02
5.920000000000000000e+02 6.491183638572692871e-01 -2.474323081970214844e+01 -1.150500378571450710e-03 -9.099510498344898224e-04 -6.181354401633143425e-04 2.462341399223078042e-05
5.930000000000000000e+02 6.944503188133239746e-01 -3.039239501953125000e+01 -8.304982329718768597e-04 6.686011329293251038e-04 -4.856914529227651656e-05 5.738632171414792538e-04
5.940000000000000000e+02 7.064419984817504883e-01 -3.181005477905273438e+01 1.606523408554494381e-03 2.883217530325055122e-03 1.346922246739268303e-03 1.437691855244338512e-03
5.950000000000000000e+02 7.395238876342773438e-01 -3.740514755249023438e+01 6.031245458871126175e-03 1.591775007545948029e-02 6.584698799997568130e-03 3.291473025456070900e-03
5.960000000000000000e+02 8.631136894226074219e+00 -3.894519042968750000e+01 -1.326262205839157104e-02 -4.994064103811979294e-03 -5.477006081491708755e-03 3.077595867216587067e-02
5.970000000000000000e+02 1.203747940063476562e+01 -4.133280181884765625e+01 -8.295124769210815430e-02 -1.987714879214763641e-02 -3.084851987659931183e-02 1.901187933981418610e-02
5.980000000000000000e+02 2.113819313049316406e+01 -3.498162460327148438e+01 -2.389849275350570679e-01 -2.001639604568481445e+00 -6.721873879432678223e-01 -1.828698515892028809e-01
5.990000000000000000e+02 1.969246482849121094e+01 -2.801141357421875000e+01 5.855574738234281540e-03 -2.321105241775512695e+00 -6.945748925209045410e-01 -2.238855138421058655e-02
6.000000000000000000e+02 2.122742080688476562e+01 -3.202116012573242188e+01 -5.489363521337509155e-02 -2.121092081069946289e+00 -6.527957320213317871e-01 -1.357568800449371338e-01
6.010000000000000000e+02 1.957430076599121094e+01 -3.496074676513671875e+01 -1.513192653656005859e-01 -2.853530406951904297e+00 -9.014548659324645996e-01 -3.095590174198150635e-01
6.020000000000000000e+02 1.931021881103515625e+01 -3.635320281982421875e+01 -2.643561065196990967e-01 -2.657779455184936523e+00 -8.766406178474426270e-01 -5.428165197372436523e-01
6.030000000000000000e+02 1.972202301025390625e+01 -2.376376342773437500e+01 2.075724862515926361e-02 -2.184767484664916992e+00 -6.492030620574951172e-01 -5.348884686827659607e-02
6.040000000000000000e+02 1.978899383544921875e+01 -2.094560623168945312e+01 -1.201005652546882629e-02 -2.225166797637939453e+00 -6.711530685424804688e-01 -6.459058076143264771e-02
6.050000000000000000e+02 2.132263183593750000e+01 -2.520548057556152344e+01 1.920116692781448364e-02 -1.974431991577148438e+00 -5.865692496299743652e-01 -6.644367426633834839e-02
6.060000000000000000e+02 2.068875503540039062e+01 -1.315860033035278320e+00 -1.656289398670196533e-02 -2.079670429229736328e+00 -6.288700103759765625e-01 -1.080044731497764587e-01
6.070000000000000000e+02 2.036429977416992188e+01 -6.929545879364013672e+00 1.048609148710966110e-02 -2.095197439193725586e+00 -6.254134178161621094e-01 -5.329278483986854553e-02
6.080000000000000000e+02 2.161756324768066406e+01 -1.114998149871826172e+01 -1.224958430975675583e-02 -2.023094654083251953e+00 -6.106032729148864746e-01 -8.920662850141525269e-02
6.090000000000000000e+02 2.638306427001953125e+01 -2.527101707458496094e+01 1.068004313856363297e-02 -1.026359558105468750e+00 -3.047038316726684570e-01 -7.320825010538101196e-02
6.100000000000000000e+02 3.835736846923828125e+01 -2.844720458984375000e+01 3.721472248435020447e-02 1.198093533515930176e+00 3.705924749374389648e-01 7.190641015768051147e-03
6.110000000000000000e+02 4.312960815429687500e+01 -3.726023864746093750e+01 6.168208271265029907e-02 2.068528890609741211e+00 6.390632987022399902e-01 -3.519197460263967514e-03
6.120000000000000000e+02 5.237773513793945312e+01 -4.091392517089843750e+01 4.630675911903381348e-02 3.810397624969482422e+00 1.157011389732360840e+00 3.385703079402446747e-03
6.130000000000000000e+02 4.763791656494140625e+01 -3.756800842285156250e+01 5.437997728586196899e-02 2.918584108352661133e+00 8.918892741203308105e-01 9.901399724185466766e-03
6.140000000000000000e+02 6.208984375000000000e+01 -4.063281250000000000e+01 2.945052087306976318e-02 5.672377586364746094e+00 1.710548400878906250e+00 6.953166448511183262e-04
6.150000000000000000e+02 5.721551513671875000e+01 -4.085088729858398438e+01 3.523581102490425110e-02 4.720300674438476562e+00 1.426661014556884766e+00 3.676501568406820297e-03
6.160000000000000000e+02 5.848913574218750000e+01 -3.039926147460937500e+01 2.549794316291809082e-02 4.945561885833740234e+00 1.491317868232727051e+00 2.660712786018848419e-02
6.170000000000000000e+02 5.755371856689453125e+01 -2.476629638671875000e+01 3.237658739089965820e-02 4.779839992523193359e+00 1.443664908409118652e+00 4.294617846608161926e-02
6.180000000000000000e+02 5.808790206909179688e+01 -1.430358409881591797e+01 2.673158608376979828e-02 4.876637458801269531e+00 1.471010684967041016e+00 8.243619650602340698e-02
6.190000000000000000e+02 5.940874099731445312e+01 -1.153231716156005859e+01 2.847777679562568665e-02 5.130331516265869141e+00 1.547642827033996582e+00 9.463188797235488892e-02
6.200000000000000000e+02 4.607870864868164062e+01 -9.014410018920898438e+00 1.001604497432708740e-01 2.495693683624267578e+00 7.787562608718872070e-01 3.845181688666343689e-02
6.210000000000000000e+02 4.962925720214843750e+01 -6.310846805572509766e+00 9.286957234144210815e-02 3.145864725112915039e+00 9.716203212738037109e-01 9.739726781845092773e-02
6.220000000000000000e+02 3.309588623046875000e+01 -1.168208122253417969e+00 9.810305386781692505e-02 4.092066735029220581e-02 4.170711711049079895e-02 -1.836080104112625122e-01
6.230000000000000000e+02 2.821802902221679688e+01 -2.204937934875488281e+00 5.397545173764228821e-02 -7.411904931068420410e-01 -2.061645090579986572e-01 -1.799860745668411255e-01
6.240000000000000000e+02 2.061284255981445312e+01 -2.724159240722656250e+00 -3.031991980969905853e-02 -2.127363920211791992e+00 -6.473051905632019043e-01 -1.420711129903793335e-01
6.250000000000000000e+02 2.032213592529296875e+01 -9.736661911010742188e+00 -2.436806820333003998e-02 -2.298895835876464844e+00 -6.969791650772094727e-01 -7.007381319999694824e-02
6.260000000000000000e+02 1.995889282226562500e+01 -1.674887466430664062e+01 4.171287175267934799e-03 -2.175144672393798828e+00 -6.512920260429382324e-01 -1.768833696842193604e-01
6.270000000000000000e+02 2.141298675537109375e+01 -1.674964141845703125e+01 1.808094605803489685e-02 -1.987381815910339355e+00 -5.907902717590332031e-01 -9.721560776233673096e-02
6.280000000000000000e+02 3.113085746765136719e+01 -3.136936187744140625e+01 -1.148138428106904030e-03 -1.418788284063339233e-01 -4.290809109807014465e-02 6.487104110419750214e-03
6.290000000000000000e+02 3.767284774780273438e+01 -4.054088973999023438e+01 6.997647136449813843e-02 1.015595436096191406e+00 3.256715536117553711e-01 1.157537382096052170e-02
6.300000000000000000e+02 4.265048599243164062e+01 -4.076956939697265625e+01 5.731544643640518188e-02 1.998370528221130371e+00 6.167057752609252930e-01 -3.672357415780425072e-03
6.310000000000000000e+02 1.351679420471191406e+01 -3.572304534912109375e+01 3.063003346323966980e-02 3.064603731036186218e-02 1.838282123208045959e-02 1.236444059759378433e-02
6.320000000000000000e+02 1.399526596069335938e+01 -3.445770645141601562e+01 3.713069483637809753e-02 2.275050058960914612e-02 1.796435937285423279e-02 -2.246009930968284607e-02
6.330000000000000000e+02 1.419360256195068359e+01 -3.310783767700195312e+01 -1.993721723556518555e-02 -2.607492788229137659e-04 -6.059390027076005936e-03 3.770564915612339973e-03
6.340000000000000000e+02 1.328588485717773438e+01 -2.622057342529296875e+01 -8.179238066077232361e-03 -1.411658362485468388e-03 -2.877268940210342407e-03 1.477135927416384220e-03
6.350000000000000000e+02 1.877707362174987793e+00 -1.757987022399902344e+01 -2.178079448640346527e-03 -1.985119597520679235e-04 -7.129774312488734722e-04 2.886965376092121005e-05
6.360000000000000000e+02 6.393447518348693848e-01 -2.333191108703613281e+01 1.405802322551608086e-03 -6.803629803471267223e-04 2.176317939301952720e-04 -1.597280497662723064e-04
6.370000000000000000e+02 1.441494274139404297e+01 -3.036258697509765625e+01 -1.400761120021343231e-02 -2.099424833431839943e-03 -4.832110833376646042e-03 1.937701483257114887e-03
6.380000000000000000e+02 1.315428638458251953e+01 -2.887073898315429688e+01 -1.012430433183908463e-02 -1.240805489942431450e-03 -3.409533062949776649e-03 2.605301095172762871e-03
6.390000000000000000e+02 1.429704761505126953e+01 -2.201886558532714844e+01 -6.727545987814664841e-03 -5.598860298050567508e-05 -2.035060431808233261e-03 3.732900077011436224e-04
6.400000000000000000e+02 1.453486442565917969e+01 -1.351837825775146484e+01 -3.141016932204365730e-03 -8.833914762362837791e-05 -9.688068530522286892e-04 2.846994320861995220e-04
6.410000000000000000e+02 1.461008453369140625e+01 -6.582281112670898438e+00 1.520003308542072773e-03 1.285231610381742939e-05 4.598566738422960043e-04 2.465417128405533731e-05
6.420000000000000000e+02 1.459422874450683594e+01 -3.880930662155151367e+00 8.540187845937907696e-04 8.542692376067861915e-05 2.818337234202772379e-04 1.146290887845680118e-04
6.430000000000000000e+02 1.441910648345947266e+01 -2.855367898941040039e+00 -6.010315264575183392e-04 7.171155448304489255e-05 -1.587959995958954096e-04 -4.269421915523707867e-04
6.440000000000000000e+02 1.027748107910156250e+01 -2.687156438827514648e+00 -6.814051303081214428e-04 -2.637747384142130613e-04 -2.835539635270833969e-04 4.272743826732039452e-04
6.450000000000000000e+02 1.354041004180908203e+01 -1.073545169830322266e+01 2.330614253878593445e-03 1.092559032258577645e-04 7.319611031562089920e-04 -3.575481823645532131e-04
6.460000000000000000e+02 1.296021652221679688e+01 -1.885943984985351562e+01 4.134868271648883820e-03 3.133233985863626003e-04 1.334457425400614738e-03 -1.318175694905221462e-03
6.470000000000000000e+02 1.327642345428466797e+01 -2.491552925109863281e+01 7.205851841717958450e-03 4.598718078341335058e-04 2.299716928973793983e-03 -6.934443081263452768e-05
6.480000000000000000e+02 1.450292205810546875e+01 -2.621484947204589844e+01 9.936057031154632568e-03 -1.070133061148226261e-03 2.659777179360389709e-03 -1.884251832962036133e-04
6.490000000000000000e+02 1.107650566101074219e+01 -1.904182672500610352e+00 -5.809519789181649685e-04 -1.225094019901007414e-04 -2.110384230036288500e-04 2.348274720134213567e-04
6.500000000000000000e+02 4.264400482177734375e+00 -1.891826868057250977e+00 2.184427830798085779e-05 1.339430600637570024e-04 4.673620060202665627e-05 1.167762547993334010e-05
6.510000000000000000e+02 1.732770085334777832e+00 -1.056771469116210938e+01 1.931749400682747364e-03 2.165861224057152867e-05 5.860223900526762009e-04 -4.797047586180269718e-05
6.520000000000000000e+02 6.251564621925354004e-01 -1.769835281372070312e+01 1.967143733054399490e-03 -1.055325992638245225e-04 5.584833561442792416e-04 3.936901703127659857e-05
6.530000000000000000e+02 2.428101539611816406e+00 -3.815506744384765625e+01 3.866743762046098709e-03 1.556455064564943314e-02 5.829388275742530823e-03 8.112456649541854858e-03
6.540000000000000000e+02 2.078850936889648438e+01 -3.626987457275390625e+01 -2.795895636081695557e-01 -1.965819001197814941e+00 -6.736225485801696777e-01 -1.414459496736526489e-01
6.550000000000000000e+02 2.465781021118164062e+01 -3.883159255981445312e+01 1.163640990853309631e-01 -1.262515068054199219e+00 -3.438452780246734619e-01 8.697088062763214111e-02
6.560000000000000000e+02 2.809069442749023438e+01 -3.840805816650390625e+01 1.250308901071548462e-01 -6.506602168083190918e-01 -1.576888114213943481e-01 6.460274755954742432e-02
6.570000000000000000e+02 1.961688995361328125e+01 -3.077199554443359375e+01 -1.204179227352142334e-02 -2.420899629592895508e+00 -7.298824191093444824e-01 -3.440323844552040100e-02
6.580000000000000000e+02 6.074050521850585938e+01 -3.696856307983398438e+01 2.275156788527965546e-02 5.442750453948974609e+00 1.639650583267211914e+00 1.396884582936763763e-02
6.590000000000000000e+02 6.619490051269531250e+01 -3.083057022094726562e+01 8.943536318838596344e-03 6.440943241119384766e+00 1.934965968132019043e+00 2.666281163692474365e-02
6.600000000000000000e+02 6.612409973144531250e+01 -2.157646560668945312e+01 1.561821717768907547e-02 6.420533657073974609e+00 1.930845618247985840e+00 3.946924954652786255e-02
6.610000000000000000e+02 6.458100891113281250e+01 -1.761596488952636719e+01 1.242092158645391464e-02 6.113042354583740234e+00 1.837638974189758301e+00 5.271710455417633057e-02
6.620000000000000000e+02 6.703054046630859375e+01 -4.068040084838867188e+01 1.484042219817638397e-02 6.552039623260498047e+00 1.970063924789428711e+00 9.638015180826187134e-03
6.630000000000000000e+02 7.071720886230468750e+01 -3.779727935791015625e+01 -2.172210661228746176e-04 7.295495510101318359e+00 2.188583612442016602e+00 -6.820103153586387634e-03
6.640000000000000000e+02 7.189775085449218750e+01 -3.236281204223632812e+01 -1.767139765433967113e-03 7.420355796813964844e+00 2.225576639175415039e+00 1.137729152105748653e-03
6.650000000000000000e+02 7.093161010742187500e+01 -2.439270210266113281e+01 2.028191275894641876e-02 7.374256610870361328e+00 2.218361377716064453e+00 3.107803873717784882e-02
6.660000000000000000e+02 7.794190979003906250e+01 -4.162897872924804688e+01 6.622324138879776001e-02 8.631746292114257812e+00 2.609390735626220703e+00 1.858879625797271729e-02
6.670000000000000000e+02 7.790222930908203125e+01 -3.688147354125976562e+01 -5.976428743451833725e-03 8.609205245971679688e+00 2.580968618392944336e+00 3.391163796186447144e-02
6.680000000000000000e+02 7.928769683837890625e+01 -3.335719299316406250e+01 5.202494096010923386e-03 8.876679420471191406e+00 2.664564609527587891e+00 -4.661390557885169983e-03
6.690000000000000000e+02 7.802582550048828125e+01 -1.649291229248046875e+01 -1.802142069209367037e-04 8.709284782409667969e+00 2.612731456756591797e+00 1.144561101682484150e-03
6.700000000000000000e+02 7.935437774658203125e+01 -1.246181392669677734e+01 1.103772083297371864e-03 8.991888046264648438e+00 2.697897434234619141e+00 -1.013720501214265823e-02
6.710000000000000000e+02 7.287355804443359375e+01 -5.020303726196289062e+00 -3.182278200984001160e-02 7.778302669525146484e+00 2.323943853378295898e+00 1.035444089211523533e-03
6.720000000000000000e+02 6.681295013427734375e+01 4.858919143676757812e+00 -2.670280635356903076e-01 6.876068592071533203e+00 1.982712149620056152e+00 1.911606453359127045e-02
6.730000000000000000e+02 6.028146362304687500e+01 9.657463073730468750e+00 -3.236367106437683105e-01 5.717370033264160156e+00 1.618120074272155762e+00 5.192873477935791016e-01
6.740000000000000000e+02 4.777082824707031250e+01 2.106565284729003906e+01 3.493264615535736084e-01 9.343129992485046387e-01 3.850918412208557129e-01 2.073724567890167236e-01
6.750000000000000000e+02 4.506593704223632812e+01 2.816482925415039062e+01 -1.071884870529174805e+00 1.174513548612594604e-01 -2.863300740718841553e-01 -2.990980744361877441e-01
6.760000000000000000e+02 3.717749404907226562e+01 3.246523284912109375e+01 -8.483969569206237793e-01 3.883158043026924133e-02 -2.428696155548095703e-01 -6.300231069326400757e-02
6.770000000000000000e+02 3.570327758789062500e+01 3.275735473632812500e+01 -6.946277022361755371e-01 3.714768588542938232e-02 -1.972440183162689209e-01 -7.118313014507293701e-02
6.780000000000000000e+02 3.276669311523437500e+01 3.333448028564453125e+01 -4.282399117946624756e-01 2.969375997781753540e-02 -1.195638403296470642e-01 -7.529986649751663208e-02
6.790000000000000000e+02 7.808672332763671875e+01 -9.507998466491699219e+00 -3.943202085793018341e-03 8.764102935791015625e+00 2.628047943115234375e+00 -4.586204420775175095e-03
6.800000000000000000e+02 7.936382293701171875e+01 -5.500277042388916016e+00 -1.367315999232232571e-03 9.035514831542968750e+00 2.710244417190551758e+00 -1.707733795046806335e-02
6.810000000000000000e+02 7.289487457275390625e+01 2.170519828796386719e+00 -9.817674756050109863e-02 7.819512844085693359e+00 2.316400766372680664e+00 -8.481329679489135742e-02
6.820000000000000000e+02 6.676117706298828125e+01 9.577855110168457031e+00 -4.631092846393585205e-01 7.166177272796630859e+00 2.010920286178588867e+00 -2.596605941653251648e-02
6.830000000000000000e+02 5.536061859130859375e+01 2.033054161071777344e+01 3.135588467121124268e-01 3.702755928039550781e+00 1.204894423484802246e+00 1.722548007965087891e+00
6.840000000000000000e+02 5.206565093994140625e+01 2.868899917602539062e+01 -1.354177594184875488e+00 9.307941794395446777e-02 -3.783294260501861572e-01 1.419092267751693726e-01
6.850000000000000000e+02 4.154161453247070312e+01 3.093157196044921875e+01 -1.284526228904724121e+00 6.180435046553611755e-02 -3.668165802955627441e-01 -1.254946887493133545e-01
6.860000000000000000e+02 4.160940933227539062e+01 3.161042022705078125e+01 -1.377610802650451660e+00 3.917334601283073425e-02 -4.015312194824218750e-01 -2.870951220393180847e-02
6.870000000000000000e+02 3.939349746704101562e+01 3.204311370849609375e+01 -1.102033734321594238e+00 4.288056120276451111e-02 -3.177459537982940674e-01 -4.454971477389335632e-02
6.880000000000000000e+02 7.808917999267578125e+01 -2.584097862243652344e+00 -4.665812943130731583e-03 8.784289360046386719e+00 2.633887052536010742e+00 -2.316337451338768005e-02
6.890000000000000000e+02 7.938893890380859375e+01 2.842971086502075195e+00 -3.416145453229546547e-03 8.988981246948242188e+00 2.695669651031494141e+00 -3.630814701318740845e-02
6.900000000000000000e+02 7.362734985351562500e+01 1.003834247589111328e+01 -2.118161618709564209e-01 7.945738315582275391e+00 2.320176601409912109e+00 -3.629055917263031006e-01
6.910000000000000000e+02 6.702351379394531250e+01 1.718298339843750000e+01 -8.222833275794982910e-01 8.193729400634765625e+00 2.211433887481689453e+00 -2.570334374904632568e-01
6.920000000000000000e+02 5.620748901367187500e+01 2.907538414001464844e+01 -5.161495208740234375e-01 3.318615257740020752e-01 -5.528640374541282654e-02 9.719719290733337402e-01
6.930000000000000000e+02 5.133781051635742188e+01 3.002515602111816406e+01 -2.357908010482788086e+00 2.980497811222448945e-06 -7.073714733123779297e-01 8.573399484157562256e-02
6.940000000000000000e+02 4.907488632202148438e+01 3.031619834899902344e+01 -2.251269817352294922e+00 4.116549622267484665e-03 -6.741459369659423828e-01 4.244733229279518127e-02
6.950000000000000000e+02 4.757125854492187500e+01 3.054751014709472656e+01 -2.114857196807861328e+00 1.389868557453155518e-02 -6.302875876426696777e-01 2.292510122060775757e-02
6.960000000000000000e+02 4.532604980468750000e+01 3.092392730712890625e+01 -1.855144739151000977e+00 2.715646475553512573e-02 -5.483964681625366211e-01 6.871268618851900101e-03
6.970000000000000000e+02 7.819247436523437500e+01 4.349461555480957031e+00 -1.403372455388307571e-02 8.715311050415039062e+00 2.610383033752441406e+00 -7.723876088857650757e-02
6.980000000000000000e+02 7.941539764404296875e+01 8.413751602172851562e+00 -4.851319361478090286e-03 8.756586074829101562e+00 2.625520229339599609e+00 -6.650520861148834229e-02
6.990000000000000000e+02 7.328691864013671875e+01 1.713059616088867188e+01 -3.313746750354766846e-01 7.910791873931884766e+00 2.273825168609619141e+00 -8.452007174491882324e-01
7.000000000000000000e+02 6.231089782714843750e+01 2.847375488281250000e+01 7.765732407569885254e-01 1.617554855346679688e+01 5.085636615753173828e+00 2.034356594085693359e-01
7.010000000000000000e+02 5.740720748901367188e+01 2.950762176513671875e+01 -1.561943143606185913e-01 4.716317057609558105e-01 9.463121742010116577e-02 1.323410034179687500e+00
7.020000000000000000e+02 5.623859786987304688e+01 2.957286071777343750e+01 -1.246718645095825195e+00 1.883247494697570801e-01 -3.175181448459625244e-01 6.976629495620727539e-01
7.030000000000000000e+02 5.433493423461914062e+01 2.971414184570312500e+01 -2.009160518646240234e+00 1.425160840153694153e-02 -5.984727144241333008e-01 2.795951962471008301e-01
7.040000000000000000e+02 7.824659729003906250e+01 1.128792762756347656e+01 -2.536129765212535858e-02 8.337522506713867188e+00 2.493648529052734375e+00 -2.071044594049453735e-01
7.050000000000000000e+02 7.941361999511718750e+01 1.676899337768554688e+01 -6.849976256489753723e-03 7.626304626464843750e+00 2.285836458206176758e+00 -1.520029902458190918e-01
7.060000000000000000e+02 7.373374938964843750e+01 2.543163108825683594e+01 2.957210838794708252e-01 7.376530170440673828e+00 2.301675319671630859e+00 -1.116553187370300293e+00
7.070000000000000000e+02 6.173495101928710938e+01 2.955459022521972656e+01 2.466582536697387695e+00 2.071509742736816406e+01 6.954504013061523438e+00 -7.028774707578122616e-04
7.080000000000000000e+02 7.824217224121093750e+01 1.825511169433593750e+01 -2.927815914154052734e-02 7.344787597656250000e+00 2.194652795791625977e+00 -4.259681999683380127e-01
7.090000000000000000e+02 7.941523742675781250e+01 2.373344421386718750e+01 4.852571524679660797e-03 5.740015506744384766e+00 1.723460435867309570e+00 -1.896734684705734253e-01
7.100000000000000000e+02 7.373876190185546875e+01 2.923344421386718750e+01 6.854004859924316406e-01 7.083997249603271484e+00 2.330819368362426758e+00 -6.031777858734130859e-01
7.110000000000000000e+02 6.253910064697265625e+01 3.146975898742675781e+01 9.211080551147460938e+00 1.704449844360351562e+01 7.876673698425292969e+00 2.197923898696899414e+00
7.120000000000000000e+02 6.246844482421875000e+01 2.976378059387207031e+01 5.181326389312744141e+00 1.784711265563964844e+01 6.908531665802001953e+00 -2.015403747558593750e+00
7.130000000000000000e+02 7.709284210205078125e+01 2.251176261901855469e+01 -2.012487966567277908e-03 6.716352939605712891e+00 2.014302015304565430e+00 -7.472033500671386719e-01
7.140000000000000000e+02 7.935187530517578125e+01 2.933860206604003906e+01 3.097809478640556335e-02 4.456496238708496094e+00 1.346242308616638184e+00 -8.790683001279830933e-02
7.150000000000000000e+02 7.087856292724609375e+01 3.513548660278320312e+01 5.521761178970336914e-01 8.612582206726074219e+00 2.749427318572998047e+00 7.796012759208679199e-01
7.160000000000000000e+02 6.174523162841796875e+01 3.486252975463867188e+01 -9.894354939460754395e-01 1.355426311492919922e+01 3.769448280334472656e+00 -1.475630760192871094e+00
7.170000000000000000e+02 5.663398742675781250e+01 3.794512939453125000e+01 5.310984849929809570e-01 3.459764957427978516e+00 1.197259068489074707e+00 -1.501803159713745117e+00
7.180000000000000000e+02 5.479081726074218750e+01 3.577815628051757812e+01 4.140204489231109619e-01 1.225740432739257812e+00 4.919282495975494385e-01 -5.943605899810791016e-01
7.190000000000000000e+02 5.187441253662109375e+01 3.378695297241210938e+01 -1.077404737472534180e+00 -4.825513809919357300e-02 -3.376979827880859375e-01 4.495198726654052734e-01
7.200000000000000000e+02 5.536437988281250000e+01 3.317555618286132812e+01 -9.830949306488037109e-01 1.633450984954833984e-01 -2.459249496459960938e-01 1.669912412762641907e-02
7.210000000000000000e+02 5.653124618530273438e+01 3.305668258666992188e+01 -5.676084756851196289e-01 4.313717186450958252e-01 -4.087103158235549927e-02 -4.759698510169982910e-01
7.220000000000000000e+02 5.594902420043945312e+01 3.310981369018554688e+01 -7.474037408828735352e-01 3.569946289062500000e-01 -1.171227246522903442e-01 -1.792123764753341675e-01
7.230000000000000000e+02 6.191093063354492188e+01 3.235676574707031250e+01 3.087981700897216797e+00 2.081627082824707031e+01 7.171276092529296875e+00 1.685039877891540527e+00
7.240000000000000000e+02 7.932180786132812500e+01 3.217647171020507812e+01 2.501833811402320862e-02 4.261758804321289062e+00 1.286033034324645996e+00 -2.476311288774013519e-02
7.250000000000000000e+02 7.903067779541015625e+01 3.738752365112304688e+01 -4.042569920420646667e-02 4.846019268035888672e+00 1.441678047180175781e+00 1.292106956243515015e-01
7.260000000000000000e+02 7.429766082763671875e+01 3.745772552490234375e+01 -5.974425375461578369e-02 7.089574813842773438e+00 2.108949184417724609e+00 3.523267805576324463e-01
7.270000000000000000e+02 7.726993560791015625e+01 3.663083267211914062e+01 3.353655710816383362e-02 5.699884891510009766e+00 1.720026373863220215e+00 2.781875431537628174e-01
7.280000000000000000e+02 5.418412399291992188e+01 3.874405288696289062e+01 6.694737076759338379e-01 1.948343634605407715e+00 7.853451967239379883e-01 -3.568661212921142578e-01
7.290000000000000000e+02 4.823369598388671875e+01 3.560993194580078125e+01 -2.948099672794342041e-01 -1.547720283269882202e-01 -1.348745971918106079e-01 4.730073213577270508e-01
7.300000000000000000e+02 4.740358352661132812e+01 3.445303726196289062e+01 -6.654661893844604492e-01 -1.430218070745468140e-01 -2.425464093685150146e-01 4.307896196842193604e-01
7.310000000000000000e+02 4.968194198608398438e+01 3.416983795166015625e+01 -8.708551526069641113e-01 -1.006535738706588745e-01 -2.914526164531707764e-01 4.875928461551666260e-01
7.320000000000000000e+02 5.040928268432617188e+01 3.401286315917968750e+01 -9.500194191932678223e-01 -8.377029746770858765e-02 -3.101369142532348633e-01 4.771017730236053467e-01
7.330000000000000000e+02 4.401438903808593750e+01 3.676698684692382812e+01 -6.291654706001281738e-02 -2.370419502258300781e-01 -8.998754620552062988e-02 3.049205243587493896e-01
7.340000000000000000e+02 4.456576156616210938e+01 3.491257095336914062e+01 -4.011822044849395752e-01 -1.541793197393417358e-01 -1.666084676980972290e-01 3.174186944961547852e-01
7.350000000000000000e+02 3.193017196655273438e+01 3.833870315551757812e+01 -3.108558245003223419e-03 -1.288462895900011063e-02 -4.797955974936485291e-03 1.213956624269485474e-02
7.360000000000000000e+02 2.738199234008789062e+01 3.868814849853515625e+01 -1.976251835003495216e-03 -9.515907149761915207e-04 -8.783527300693094730e-04 2.291672863066196442e-04
7.370000000000000000e+02 2.418848037719726562e+01 3.859958267211914062e+01 2.208748628618195653e-04 1.664513023570179939e-03 5.656163557432591915e-04 -3.597933799028396606e-03
7.380000000000000000e+02 2.247100830078125000e+01 3.841356658935546875e+01 4.045812820550054312e-04 2.053874079138040543e-03 7.375366403721272945e-04 -2.100152894854545593e-03
7.390000000000000000e+02 2.216302680969238281e+01 3.937101364135742188e+01 1.887159887701272964e-04 -4.781438292411621660e-06 5.518036414287053049e-05 5.970617057755589485e-04
7.400000000000000000e+02 2.097413825988769531e+01 3.815395355224609375e+01 -7.948267739266157150e-05 1.228502951562404633e-03 3.447060880716890097e-04 -9.988296078518033028e-04
7.410000000000000000e+02 1.939437103271484375e+01 3.771794891357421875e+01 -9.034419053932651877e-05 -1.552196918055415154e-03 -4.927623667754232883e-04 -6.668678834103047848e-04
7.420000000000000000e+02 1.869683027267456055e+00 2.621895599365234375e+01 4.499820352066308260e-04 -4.832033937418600544e-06 1.335449924226850271e-04 4.673462899518199265e-05
7.430000000000000000e+02 2.000926017761230469e+00 3.039954185485839844e+01 -4.277009284123778343e-04 -1.308802438870770857e-05 -1.322366879321634769e-04 -9.266737470170482993e-05
7.440000000000000000e+02 4.300881385803222656e+00 3.783637619018554688e+01 -1.023723962134681642e-04 -4.024990630568936467e-06 -3.191921496181748807e-05 8.856323256622999907e-05
7.450000000000000000e+02 1.994013071060180664e+00 4.164170074462890625e+01 3.213582385797053576e-04 -2.640675302245654166e-05 8.848544530337676406e-05 1.006277525448240340e-04
7.460000000000000000e+02 1.384477138519287109e+01 3.805002593994140625e+01 1.489560119807720184e-03 2.582116576377302408e-04 5.243315245024859905e-04 -5.297185853123664856e-04
7.470000000000000000e+02 1.301769447326660156e+01 3.402571487426757812e+01 -4.391628026496618986e-04 -3.997899766545742750e-04 -2.516858512535691261e-04 1.487348490627482533e-04
7.480000000000000000e+02 1.464088058471679688e+01 2.295450782775878906e+01 6.157113239169120789e-04 1.276464536204002798e-05 1.885427918750792742e-04 -2.442183904349803925e-05
7.490000000000000000e+02 1.442214298248291016e+01 1.742017936706542969e+01 4.329635121393948793e-04 -1.592771150171756744e-05 1.251107460120692849e-04 -1.882542528619524091e-05
7.500000000000000000e+02 1.455757141113281250e+01 1.043925952911376953e+01 -2.722486970014870167e-04 -3.861397090076934546e-06 -8.283302304334938526e-05 -3.513493766149622388e-06
7.510000000000000000e+02 1.368533134460449219e+01 1.814470410346984863e+00 -3.599531919462606311e-05 -1.652463470236398280e-05 -1.575598616909701377e-05 -3.213786476408131421e-05
7.520000000000000000e+02 1.317799854278564453e+01 1.761581659317016602e+00 1.642605639062821865e-05 4.562032336252741516e-05 1.861391319835092872e-05 2.182463867939077318e-05
7.530000000000000000e+02 6.712083816528320312e-01 3.466886520385742188e+01 -3.872975066769868135e-04 -4.201948831905610859e-05 -1.287951017729938030e-04 7.959787035360932350e-05
7.540000000000000000e+02 6.297145485877990723e-01 2.764150810241699219e+01 4.053273005411028862e-04 -4.575170351017732173e-06 1.202256389660760760e-04 2.126900471921544522e-05
7.550000000000000000e+02 6.234061121940612793e-01 2.059700965881347656e+01 -3.904355107806622982e-04 2.209659896834637038e-06 -1.164677523775026202e-04 -9.461261470278259367e-06
7.560000000000000000e+02 1.906685590744018555e+00 1.633217811584472656e+01 -3.453032404650002718e-04 -2.049943532256293111e-06 -1.042059520841576159e-04 -1.940476522577228025e-06
7.570000000000000000e+02 1.225229263305664062e+01 1.167906856536865234e+01 2.190595259889960289e-04 5.818326462758705020e-05 8.317283936776220798e-05 9.641013457439839840e-05
7.580000000000000000e+02 1.289299297332763672e+01 1.611189651489257812e+01 4.260761488694697618e-04 -2.858395964722149074e-05 1.192476556752808392e-04 2.693815304155577905e-06
7.590000000000000000e+02 1.195759773254394531e+01 1.911526489257812500e+01 -4.604898858815431595e-04 2.476514418958686292e-05 -1.307174243265762925e-04 2.931937888206448406e-05
7.600000000000000000e+02 1.354805469512939453e+01 2.439543914794921875e+01 6.030841032043099403e-04 6.231314910110086203e-05 1.996191713260486722e-04 2.548382144595962018e-05
7.610000000000000000e+02 1.365304279327392578e+01 2.571021652221679688e+01 -6.511250976473093033e-04 -8.923807763494551182e-05 -2.221089525846764445e-04 -1.032342188409529626e-04
7.620000000000000000e+02 1.242291545867919922e+01 2.928183364868164062e+01 -6.975075230002403259e-04 -1.226156200573313981e-05 -2.129307249560952187e-04 -2.875862992368638515e-04
7.630000000000000000e+02 6.316860914230346680e-01 1.491882133483886719e+01 -3.161726926919072866e-04 4.011336045550706331e-07 -9.473146928939968348e-05 3.332816959300544113e-06
7.640000000000000000e+02 1.725948572158813477e+00 9.143809318542480469e+00 2.465819125063717365e-04 6.849887540738563985e-06 7.602954428875818849e-05 -3.843305239570327103e-05
7.650000000000000000e+02 8.922452926635742188e+00 2.631474733352661133e+00 -6.502138421637937427e-05 -2.801096161419991404e-05 -2.790970211208332330e-05 -1.241566042153863236e-05
7.660000000000000000e+02 9.654429435729980469e+00 1.868191123008728027e+00 -5.663346746587194502e-05 -1.642438473936636001e-05 -2.191735620726831257e-05 8.205432209251739550e-07
7.670000000000000000e+02 1.111257791519165039e+00 3.776550292968750000e+00 -7.072291919030249119e-05 6.546353688463568687e-05 -1.577813691255869344e-06 -1.222078863065689802e-04
7.680000000000000000e+02 5.335331559181213379e-01 6.398360252380371094e+00 -1.969327713595703244e-04 -1.613219501450657845e-05 -6.391949136741459370e-05 8.008940312720369548e-06
7.690000000000000000e+02 3.671871423721313477e+00 3.701355218887329102e+00 -1.127382856793701649e-04 -3.951320104533806443e-05 -4.567544601741246879e-05 1.846199847932439297e-05
7.700000000000000000e+02 1.346164321899414062e+01 1.044522666931152344e+01 2.455108042340725660e-04 1.728737879602704197e-05 7.883945363573729992e-05 3.947264485759660602e-05
7.710000000000000000e+02 1.448924732208251953e+01 2.020321083068847656e+01 5.219204467721283436e-04 5.684853476850548759e-06 1.582815893925726414e-04 -4.421256016939878464e-05
7.720000000000000000e+02 1.534417629241943359e+01 3.119368362426757812e+01 1.175555284135043621e-03 -5.542251528822816908e-05 3.360398113727569580e-04 -5.662625335389748216e-05
7.730000000000000000e+02 1.522775650024414062e+01 2.978079223632812500e+01 -1.199870952405035496e-03 4.214038199279457331e-05 -3.473191754892468452e-04 -5.921763658989220858e-05
7.740000000000000000e+02 1.804768753051757812e+01 3.773101425170898438e+01 3.473897813819348812e-04 8.000461093615740538e-05 1.282183075090870261e-04 8.945534355007112026e-04
7.750000000000000000e+02 1.927853012084960938e+01 3.992518997192382812e+01 -5.185645422898232937e-04 8.343258523382246494e-04 9.472838428337126970e-05 2.001472515985369682e-03
7.760000000000000000e+02 1.202862453460693359e+01 4.127463150024414062e+01 8.819301729090511799e-04 2.661265316419303417e-04 3.444169997237622738e-04 7.916809991002082825e-04
7.770000000000000000e+02 1.971354866027832031e+01 3.787115478515625000e+01 1.706502051092684269e-03 6.437103729695081711e-04 7.050636922940611839e-04 -7.676724344491958618e-04
7.780000000000000000e+02 3.190869903564453125e+01 3.736941146850585938e+01 -1.591871608980000019e-03 -2.840258413925766945e-03 -1.329638995230197906e-03 6.507392041385173798e-03
7.790000000000000000e+02 3.564128875732421875e+01 3.675013732910156250e+01 -1.874208077788352966e-02 -4.050334542989730835e-02 -1.777362823486328125e-02 4.438664019107818604e-02
7.800000000000000000e+02 3.640955734252929688e+01 3.667647933959960938e+01 -3.639110550284385681e-02 -3.256600722670555115e-02 -2.068713307380676270e-02 5.917625874280929565e-02
7.810000000000000000e+02 3.910337829589843750e+01 3.692284011840820312e+01 -5.594265088438987732e-02 -8.754656463861465454e-02 -4.304676502943038940e-02 1.318949460983276367e-01
7.820000000000000000e+02 4.170880889892578125e+01 3.560575485229492188e+01 -1.926077306270599365e-01 -1.165719181299209595e-01 -9.275389462709426880e-02 1.950817406177520752e-01
7.830000000000000000e+02 4.240885543823242188e+01 3.538830947875976562e+01 -2.378176152706146240e-01 -1.083756387233734131e-01 -1.038579791784286499e-01 2.282005846500396729e-01
7.840000000000000000e+02 3.101180648803710938e+01 2.928749275207519531e+01 -3.167816996574401855e-01 -6.421891041100025177e-03 -9.696107357740402222e-02 -3.215056061744689941e-01
7.850000000000000000e+02 2.674271583557128906e+01 2.428835296630859375e+01 -7.343055307865142822e-02 -2.684894800186157227e-01 -1.025760099291801453e-01 -3.623110949993133545e-01
7.860000000000000000e+02 3.745878982543945312e+01 2.890911865234375000e+01 -6.811085343360900879e-01 9.056756645441055298e-02 -1.771623045206069946e-01 -3.832718431949615479e-01
7.870000000000000000e+02 4.344400024414062500e+01 2.774693107604980469e+01 -8.928637504577636719e-01 1.334253102540969849e-01 -2.278315275907516479e-01 -3.697451651096343994e-01
7.880000000000000000e+02 5.130945205688476562e+01 2.874370574951171875e+01 -1.444022774696350098e+00 7.458408921957015991e-02 -4.108316004276275635e-01 6.313510239124298096e-02
7.890000000000000000e+02 5.679121398925781250e+01 2.906308174133300781e+01 -3.963730111718177795e-02 5.696642994880676270e-01 1.590080857276916504e-01 1.337954401969909668e+00
7.900000000000000000e+02 6.255772781372070312e+01 2.934203147888183594e+01 3.432083129882812500e+00 1.713975524902343750e+01 6.171551704406738281e+00 -1.534945249557495117e+00
7.910000000000000000e+02 7.238813018798828125e+01 2.446213912963867188e+01 2.091348171234130859e-01 7.913162708282470703e+00 2.436689376831054688e+00 -1.272505640983581543e+00
7.920000000000000000e+02 6.990261840820312500e+01 3.025735282897949219e+01 1.813974618911743164e+00 8.495676994323730469e+00 3.092895507812500000e+00 -4.062535762786865234e-01
7.930000000000000000e+02 3.337868118286132812e+01 1.578468894958496094e+01 1.115940436720848083e-01 -6.136877089738845825e-02 1.506758108735084534e-02 -5.069782733917236328e-01
7.940000000000000000e+02 3.314534759521484375e+01 1.705055999755859375e+01 8.054053038358688354e-02 -8.885420858860015869e-02 -2.494103508070111275e-03 -5.297781825065612793e-01
7.950000000000000000e+02 4.446430969238281250e+01 2.148648834228515625e+01 1.362636387348175049e-01 5.297722816467285156e-01 1.998107880353927612e-01 -2.139289379119873047e-01
7.960000000000000000e+02 4.861700820922851562e+01 2.098257446289062500e+01 3.968415558338165283e-01 1.085076332092285156e+00 4.445753991603851318e-01 3.439249694347381592e-01
7.970000000000000000e+02 5.572462844848632812e+01 2.142084503173828125e+01 3.596592247486114502e-01 3.691549539566040039e+00 1.215362548828125000e+00 1.912110209465026855e+00
7.980000000000000000e+02 6.651338195800781250e+01 1.806656074523925781e+01 -8.817856311798095703e-01 8.382040977478027344e+00 2.250076532363891602e+00 -1.984637528657913208e-01
7.990000000000000000e+02 7.259439086914062500e+01 2.007802963256835938e+01 -2.888011336326599121e-01 7.987428188323974609e+00 2.309588193893432617e+00 -1.092135548591613770e+00
8.000000000000000000e+02 2.711932182312011719e+01 1.590750885009765625e+01 3.075632266700267792e-02 -5.815718173980712891e-01 -1.652446389198303223e-01 -4.136539697647094727e-01
8.010000000000000000e+02 2.720487976074218750e+01 1.167054748535156250e+01 4.251776635646820068e-02 -7.091393470764160156e-01 -1.999864727258682251e-01 -3.710918724536895752e-01
8.020000000000000000e+02 2.601609611511230469e+01 4.666055679321289062e+00 -5.291972309350967407e-03 -1.039113640785217285e+00 -3.133216798305511475e-01 -2.383837848901748657e-01
8.030000000000000000e+02 2.609011459350585938e+01 3.321920156478881836e+00 2.574381651356816292e-03 -1.048710703849792480e+00 -3.138408958911895752e-01 -2.171632945537567139e-01
8.040000000000000000e+02 3.500376510620117188e+01 4.704518795013427734e+00 1.718425005674362183e-01 2.845134437084197998e-01 1.369067877531051636e-01 -2.519272863864898682e-01
8.050000000000000000e+02 3.361454391479492188e+01 6.142394065856933594e+00 1.523608267307281494e-01 6.689039617776870728e-02 6.577536463737487793e-02 -3.001096844673156738e-01
8.060000000000000000e+02 3.469137191772460938e+01 1.030040740966796875e+01 1.866408586502075195e-01 1.376387476921081543e-01 9.728388488292694092e-02 -3.726369142532348633e-01
8.070000000000000000e+02 2.847180747985839844e+01 8.886340141296386719e+00 5.650422722101211548e-02 -6.126050353050231934e-01 -1.668302416801452637e-01 -3.544024825096130371e-01
8.080000000000000000e+02 3.973832702636718750e+01 1.294328784942626953e+01 2.995503842830657959e-01 6.414744257926940918e-01 2.823074460029602051e-01 -2.711263298988342285e-01
8.090000000000000000e+02 4.052627563476562500e+01 1.361543083190917969e+01 3.144437968730926514e-01 7.223959565162658691e-01 3.110519349575042725e-01 -2.395815402269363403e-01
8.100000000000000000e+02 4.931562042236328125e+01 1.455555248260498047e+01 4.089680612087249756e-01 2.204974174499511719e+00 7.841826677322387695e-01 5.244922041893005371e-01
8.110000000000000000e+02 5.662303924560546875e+01 1.110334205627441406e+01 -9.854304790496826172e-02 4.667560100555419922e+00 1.370705127716064453e+00 7.490540146827697754e-01
8.120000000000000000e+02 6.530917358398437500e+01 1.231460380554199219e+01 -6.146377921104431152e-01 7.200924396514892578e+00 1.975885987281799316e+00 1.108612716197967529e-01
8.130000000000000000e+02 7.245708465576171875e+01 1.127640628814697266e+01 -3.037150502204895020e-01 7.864937305450439453e+00 2.268366575241088867e+00 -4.243614375591278076e-01
8.140000000000000000e+02 2.104177093505859375e+01 1.840716552734375000e+01 -2.460700343362987041e-04 -8.928220272064208984e-01 -2.679204344749450684e-01 -5.090288817882537842e-02
8.150000000000000000e+02 2.104728126525878906e+01 1.700074768066406250e+01 8.990922360680997372e-04 -1.016732454299926758e+00 -3.047499954700469971e-01 -5.047352612018585205e-02
8.160000000000000000e+02 2.106058502197265625e+01 9.963042259216308594e+00 1.780277816578745842e-04 -1.591537356376647949e+00 -4.774077832698822021e-01 -4.276158660650253296e-02
8.170000000000000000e+02 2.102358627319335938e+01 4.312557220458984375e+00 -3.942253068089485168e-02 -2.067846775054931641e+00 -6.321808099746704102e-01 -1.235458403825759888e-01
8.180000000000000000e+02 2.105573844909667969e+01 5.730195999145507812e+00 -1.648095250129699707e-02 -1.958167552947998047e+00 -5.923945307731628418e-01 -6.576773524284362793e-02
8.190000000000000000e+02 5.137034988403320312e+01 2.319256305694580078e+00 1.218840405344963074e-01 3.372105121612548828e+00 1.048196792602539062e+00 2.656720280647277832e-01
8.200000000000000000e+02 4.938010787963867188e+01 8.689276576042175293e-01 1.500173509120941162e-01 2.986898899078369141e+00 9.410748481750488281e-01 1.845516711473464966e-01
8.210000000000000000e+02 5.973303222656250000e+01 3.363744020462036133e+00 -1.364343166351318359e-01 5.347890377044677734e+00 1.563436746597290039e+00 2.844881713390350342e-01
8.220000000000000000e+02 6.517083740234375000e+01 4.299096107482910156e+00 -2.571670711040496826e-01 6.541742801666259766e+00 1.885372757911682129e+00 9.472957998514175415e-02
8.230000000000000000e+02 7.222550201416015625e+01 5.039474010467529297e+00 -1.620057225227355957e-01 7.744100093841552734e+00 2.274628162384033203e+00 -1.493334770202636719e-01
8.240000000000000000e+02 2.105730247497558594e+01 1.277882862091064453e+01 4.252505896147340536e-04 -1.372346997261047363e+00 -4.115765094757080078e-01 -4.584596306085586548e-02
8.250000000000000000e+02 4.142663574218750000e+01 2.025002002716064453e+00 2.192741036415100098e-01 1.375386953353881836e+00 4.783983230590820312e-01 -4.681949689984321594e-02
8.260000000000000000e+02 6.001436996459960938e+01 -4.049255847930908203e+00 -3.388925641775131226e-02 5.277835369110107422e+00 1.573183774948120117e+00 1.445520371198654175e-01
8.270000000000000000e+02 5.785701370239257812e+01 -3.366994380950927734e+00 -5.191166419535875320e-03 4.837458133697509766e+00 1.449680089950561523e+00 1.794998198747634888e-01
8.280000000000000000e+02 6.663362884521484375e+01 -5.122514247894287109e+00 -5.881005898118019104e-02 6.586039066314697266e+00 1.958168625831604004e+00 6.690104305744171143e-02
8.290000000000000000e+02 7.136489105224609375e+01 -2.355909585952758789e+00 -5.974991619586944580e-02 7.529391765594482422e+00 2.240892648696899414e+00 -8.234036155045032501e-03
8.300000000000000000e+02 2.924048805236816406e+01 -3.666829586029052734e+00 5.565463379025459290e-02 -5.721475481986999512e-01 -1.549478769302368164e-01 -1.697489619255065918e-01
8.310000000000000000e+02 2.727034187316894531e+01 -8.387595176696777344e+00 2.233726345002651215e-02 -9.237412810325622559e-01 -2.704212069511413574e-01 -1.332173794507980347e-01
8.320000000000000000e+02 3.507970046997070312e+01 -1.491435909271240234e+01 5.960123240947723389e-02 5.322927236557006836e-01 1.775681972503662109e-01 -5.565656721591949463e-02
8.330000000000000000e+02 4.222327804565429688e+01 -2.652961540222167969e+01 5.010825023055076599e-02 1.899366378784179688e+00 5.848423838615417480e-01 8.555339649319648743e-03
8.340000000000000000e+02 5.185923385620117188e+01 -3.426115036010742188e+01 5.007334053516387939e-02 3.708838701248168945e+00 1.127673625946044922e+00 1.631120406091213226e-02
8.350000000000000000e+02 5.931957626342773438e+01 -3.354392242431640625e+01 2.436670102179050446e-02 5.113212108612060547e+00 1.541273713111877441e+00 3.659779950976371765e-02
8.360000000000000000e+02 3.439345932006835938e+01 -1.544035553932189941e+00 1.182791888713836670e-01 2.878798842430114746e-01 1.218477189540863037e-01 -1.632933616638183594e-01
8.370000000000000000e+02 3.425255203247070312e+01 -1.286791133880615234e+01 5.602841079235076904e-02 3.495998978614807129e-01 1.216884925961494446e-01 -7.370723038911819458e-02
8.380000000000000000e+02 4.154901123046875000e+01 -2.031251335144042969e+01 6.318753212690353394e-02 1.749463796615600586e+00 5.437954068183898926e-01 -5.739650689065456390e-03
8.390000000000000000e+02 4.985530471801757812e+01 -2.321896553039550781e+01 4.666605219244956970e-02 3.310197114944458008e+00 1.007058978080749512e+00 2.422656491398811340e-02
8.400000000000000000e+02 6.007199096679687500e+01 -2.448768043518066406e+01 2.471865899860858917e-02 5.255023002624511719e+00 1.583922505378723145e+00 3.902922570705413818e-02
8.410000000000000000e+02 4.126484680175781250e+01 -1.971231341361999512e+00 1.717966496944427490e-01 1.458503127098083496e+00 4.890899062156677246e-01 -3.726657852530479431e-02
8.420000000000000000e+02 4.133759689331054688e+01 -6.764040470123291016e+00 1.194109246134757996e-01 1.588836789131164551e+00 5.124742984771728516e-01 -2.633072994649410248e-02
8.430000000000000000e+02 5.364525222778320312e+01 -1.692434883117675781e+01 5.221227556467056274e-02 4.023195266723632812e+00 1.222622156143188477e+00 6.186353415250778198e-02
8.440000000000000000e+02 5.870468902587890625e+01 -1.628531837463378906e+01 3.092859871685504913e-02 4.982129573822021484e+00 1.503917455673217773e+00 7.929876446723937988e-02
8.450000000000000000e+02 6.705529785156250000e+01 -1.193748188018798828e+01 -1.720672473311424255e-02 6.639618396759033203e+00 1.986723423004150391e+00 4.833365976810455322e-02
8.460000000000000000e+02 6.579932403564453125e+01 -1.119400501251220703e+01 -1.241870410740375519e-02 6.399192333221435547e+00 1.916032075881958008e+00 6.437546759843826294e-02
8.470000000000000000e+02 7.136991882324218750e+01 -1.062695789337158203e+01 -1.711900904774665833e-02 7.447223186492919922e+00 2.229031324386596680e+00 3.054647520184516907e-02
8.480000000000000000e+02 2.733838272094726562e+01 -1.233762454986572266e+01 7.752558682113885880e-03 -8.963931798934936523e-01 -2.665922045707702637e-01 -1.011425629258155823e-01
8.490000000000000000e+02 2.765845108032226562e+01 -1.654203033447265625e+01 1.255949307233095169e-02 -8.605698943138122559e-01 -2.544031143188476562e-01 -6.826672703027725220e-02
8.500000000000000000e+02 3.848008346557617188e+01 -2.189602661132812500e+01 5.639794841408729553e-02 1.194139122962951660e+00 3.751611113548278809e-01 -2.531185373663902283e-02
8.510000000000000000e+02 4.002086257934570312e+01 -3.293087768554687500e+01 5.263305827975273132e-02 1.492869019508361816e+00 4.636506438255310059e-01 1.200743205845355988e-02
8.520000000000000000e+02 3.566233825683593750e+01 -9.197826385498046875e+00 6.247860565781593323e-02 5.829390883445739746e-01 1.936253160238265991e-01 -8.489647507667541504e-02
8.530000000000000000e+02 4.312806701660156250e+01 -9.869154930114746094e+00 1.021976247429847717e-01 1.942004680633544922e+00 6.132606863975524902e-01 2.902250504121184349e-03
8.540000000000000000e+02 4.872250747680664062e+01 -8.116933822631835938e+00 9.190109372138977051e-02 3.003769874572753906e+00 9.287012815475463867e-01 7.386425882577896118e-02
8.550000000000000000e+02 7.259003448486328125e+01 -1.852719688415527344e+01 -3.065743250772356987e-03 7.655366420745849609e+00 2.295690298080444336e+00 3.638666868209838867e-02
8.560000000000000000e+02 7.184021759033203125e+01 -1.756515502929687500e+01 1.929942402057349682e-03 7.518336296081542969e+00 2.256079912185668945e+00 3.637463226914405823e-02
8.570000000000000000e+02 2.008174896240234375e+01 -1.535323333740234375e+01 -2.997143566608428955e-02 -2.314621925354003906e+00 -7.033780217170715332e-01 -1.922410130500793457e-01
8.580000000000000000e+02 3.850067520141601562e+01 -1.631064605712890625e+01 5.946551635861396790e-02 1.156121611595153809e+00 3.646761476993560791e-01 -3.428435325622558594e-02
8.590000000000000000e+02 4.919968032836914062e+01 -1.780248260498046875e+01 6.305043399333953857e-02 3.164039611816406250e+00 9.681270122528076172e-01 3.393092751502990723e-02
8.600000000000000000e+02 2.639014053344726562e+01 -2.695675468444824219e+01 -2.159459283575415611e-03 -1.001183032989501953e+00 -3.010027706623077393e-01 -8.514072000980377197e-02
8.610000000000000000e+02 3.734186553955078125e+01 -2.438218498229980469e+01 3.793621435761451721e-02 9.926772117614746094e-01 3.091840445995330811e-01 -1.716246642172336578e-02
8.620000000000000000e+02 5.164940261840820312e+01 -2.746686553955078125e+01 4.253116995096206665e-02 3.650415658950805664e+00 1.107884049415588379e+00 3.075557947158813477e-02
8.630000000000000000e+02 6.437692260742187500e+01 -2.868450164794921875e+01 1.909625902771949768e-02 6.099757671356201172e+00 1.835656166076660156e+00 2.201795391738414764e-02
8.640000000000000000e+02 3.141860961914062500e+01 -3.454186248779296875e+01 2.448293752968311310e-02 -8.038616180419921875e-02 -1.677096635103225708e-02 3.724295645952224731e-02
8.650000000000000000e+02 6.498661041259765625e+01 -3.316903305053710938e+01 1.680186018347740173e-02 6.253122806549072266e+00 1.880977392196655273e+00 2.066820301115512848e-02
8.660000000000000000e+02 7.436999511718750000e+01 -3.359555053710937500e+01 -1.574909081682562828e-03 7.953398227691650391e+00 2.385546922683715820e+00 1.488026510924100876e-02
8.670000000000000000e+02 1.442878150939941406e+01 -1.768861198425292969e+01 4.299160093069076538e-03 1.542571590107399970e-05 1.294375746510922909e-03 -6.770464242435991764e-04
8.680000000000000000e+02 1.176306533813476562e+01 -1.729592704772949219e+01 3.511524759232997894e-03 3.009761276189237833e-04 1.143750268965959549e-03 -9.426826727576553822e-04
8.690000000000000000e+02 1.458727264404296875e+01 -1.074250793457031250e+01 -2.552035264670848846e-03 -2.956115349661558867e-05 -7.744789472781121731e-04 1.218160832650028169e-04
8.700000000000000000e+02 1.249246501922607422e+01 -1.070420551300048828e+01 -2.108402317389845848e-03 -2.475537185091525316e-04 -7.067868718877434731e-04 5.351576255634427071e-04
8.710000000000000000e+02 5.766008496284484863e-01 -1.065542316436767578e+01 -2.063637832179665565e-03 -1.901918039948213845e-05 -6.247970741242170334e-04 -3.550247129169292748e-05
8.720000000000000000e+02 1.353201961517333984e+01 9.115482330322265625e+00 -2.152891538571566343e-04 -1.656182757869828492e-05 -6.955529534025117755e-05 -2.484543801983818412e-05
8.730000000000000000e+02 2.552198219299316406e+01 3.442241668701171875e+01 -5.440347641706466675e-02 -7.284261286258697510e-03 -1.850632019340991974e-02 -3.178737685084342957e-02
8.740000000000000000e+02 2.382442092895507812e+01 3.441947555541992188e+01 -2.289705350995063782e-02 -1.086053345352411270e-02 -1.012727618217468262e-02 -1.480404566973447800e-02
8.750000000000000000e+02 2.097943305969238281e+01 2.961103820800781250e+01 -2.732788678258657455e-03 -7.210694998502731323e-02 -2.245192229747772217e-02 -2.019507624208927155e-02
8.760000000000000000e+02 2.098166275024414062e+01 2.821876716613769531e+01 -2.209732541814446449e-03 -1.334974616765975952e-01 -4.071215912699699402e-02 -2.676810882985591888e-02
8.770000000000000000e+02 2.214119911193847656e+01 2.408440208435058594e+01 -6.177183706313371658e-03 -3.978640139102935791e-01 -1.212123557925224304e-01 -1.259769797325134277e-01
8.780000000000000000e+02 2.100384902954101562e+01 2.402109909057617188e+01 -1.877953647635877132e-03 -4.120223820209503174e-01 -1.241701021790504456e-01 -4.303018748760223389e-02
8.790000000000000000e+02 2.102633476257324219e+01 2.121675300598144531e+01 -1.136234612204134464e-03 -6.453266739845275879e-01 -1.939388662576675415e-01 -4.916689544916152954e-02
8.800000000000000000e+02 2.227939414978027344e+01 1.567733001708984375e+01 4.160192795097827911e-03 -1.016701698303222656e+00 -3.037624359130859375e-01 -1.482968628406524658e-01
8.810000000000000000e+02 2.105112457275390625e+01 1.559343051910400391e+01 4.169956955593079329e-04 -1.138708949089050293e+00 -3.414875864982604980e-01 -4.934124648571014404e-02
8.820000000000000000e+02 2.105431747436523438e+01 1.418612861633300781e+01 1.417173305526375771e-03 -1.257465362548828125e+00 -3.768144547939300537e-01 -4.756382107734680176e-02
8.830000000000000000e+02 2.230400848388671875e+01 1.144864273071289062e+01 3.613146254792809486e-03 -1.314723491668701172e+00 -3.933331072330474854e-01 -1.352640986442565918e-01
8.840000000000000000e+02 2.106074905395507812e+01 8.554377555847167969e+00 -5.953564541414380074e-04 -1.699243545532226562e+00 -5.099516510963439941e-01 -4.359894618391990662e-02
8.850000000000000000e+02 2.105894088745117188e+01 7.144308090209960938e+00 -4.959119833074510098e-04 -1.809290885925292969e+00 -5.429360270500183105e-01 -4.504421725869178772e-02
8.860000000000000000e+02 2.227614593505859375e+01 4.352588176727294922e+00 -5.940192565321922302e-02 -1.701770544052124023e+00 -5.283517241477966309e-01 -1.481205224990844727e-01
8.870000000000000000e+02 2.094002532958984375e+01 2.897291421890258789e+00 -2.898715995252132416e-02 -2.043618202209472656e+00 -6.217816472053527832e-01 -1.726171076297760010e-01
8.880000000000000000e+02 2.082701110839843750e+01 1.489467024803161621e+00 -1.898563932627439499e-03 -1.950423598289489746e+00 -5.856966376304626465e-01 -1.670221835374832153e-01
8.890000000000000000e+02 2.073746109008789062e+01 8.804066479206085205e-02 2.456533536314964294e-02 -1.941350340843200684e+00 -5.750355124473571777e-01 -1.218670904636383057e-01
8.900000000000000000e+02 2.049660873413085938e+01 -4.129668712615966797e+00 8.641631342470645905e-03 -2.034084081649780273e+00 -6.076327562332153320e-01 -1.393898278474807739e-01
8.910000000000000000e+02 2.202050018310546875e+01 -2.756376504898071289e+00 -1.922608911991119385e-02 -1.792226076126098633e+00 -5.434356331825256348e-01 -1.152391806244850159e-01
8.920000000000000000e+02 2.034471321105957031e+01 -8.331529617309570312e+00 -1.352443243376910686e-03 -2.204803705215454102e+00 -6.618468165397644043e-01 -4.397787153720855713e-02
8.930000000000000000e+02 2.023141098022460938e+01 -1.254364395141601562e+01 -4.358894657343626022e-03 -2.326234579086303711e+00 -6.991780400276184082e-01 -8.481295406818389893e-02
8.940000000000000000e+02 2.027228164672851562e+01 -1.114036846160888672e+01 1.943088835105299950e-03 -2.271778345108032227e+00 -6.809505820274353027e-01 -8.724685013294219971e-02
8.950000000000000000e+02 2.158004379272460938e+01 -1.255048084259033203e+01 -3.035126440227031708e-02 -2.034583806991577148e+00 -6.194804906845092773e-01 -1.318031400442123413e-01
8.960000000000000000e+02 1.980353164672851562e+01 -1.954158210754394531e+01 2.968262508511543274e-02 -2.121773481369018555e+00 -6.276272535324096680e-01 -8.201695233583450317e-02
8.970000000000000000e+02 2.136091995239257812e+01 -1.813746833801269531e+01 5.054827779531478882e-02 -1.962407708168029785e+00 -5.735578536987304688e-01 -9.963689744472503662e-02
8.980000000000000000e+02 1.976054573059082031e+01 -2.235409355163574219e+01 -2.921181963756680489e-03 -2.230612754821777344e+00 -6.700601577758789062e-01 -7.431446015834808350e-02
8.990000000000000000e+02 1.971207427978515625e+01 -2.659774780273437500e+01 -4.524108488112688065e-03 -2.276790380477905273e+00 -6.843943595886230469e-01 -2.287939935922622681e-02
9.000000000000000000e+02 1.971405029296875000e+01 -2.517761802673339844e+01 8.724832907319068909e-03 -2.230945587158203125e+00 -6.666662096977233887e-01 -2.702093496918678284e-02
9.010000000000000000e+02 1.963539695739746094e+01 -2.939697837829589844e+01 -2.692656824365258217e-03 -2.363047838211059570e+00 -7.097221612930297852e-01 -1.893519237637519836e-02
9.020000000000000000e+02 1.966832351684570312e+01 -3.216192626953125000e+01 -1.624169386923313141e-02 -2.518083095550537109e+00 -7.602974772453308105e-01 -6.186230480670928955e-02
9.030000000000000000e+02 2.336161041259765625e+01 -3.312134552001953125e+01 -1.302198320627212524e-01 -1.517482280731201172e+00 -4.943106472492218018e-01 -8.567204326391220093e-02
9.040000000000000000e+02 1.969683837890625000e+01 -3.356188583374023438e+01 -6.705286353826522827e-02 -2.720476388931274414e+00 -8.362587690353393555e-01 -1.397759169340133667e-01
9.050000000000000000e+02 1.434618186950683594e+01 -3.173989486694335938e+01 1.692089997231960297e-02 5.337391048669815063e-04 5.236391443759202957e-03 -4.017522092908620834e-03
9.060000000000000000e+02 1.448906707763671875e+01 -2.759781074523925781e+01 -1.100093033164739609e-02 -1.884901081211864948e-03 -3.865749575197696686e-03 9.572134586051106453e-04
9.070000000000000000e+02 1.323984527587890625e+01 -2.754287719726562500e+01 9.437881410121917725e-03 5.782569642178714275e-04 3.004841739311814308e-03 -1.808496075682342052e-03
9.080000000000000000e+02 1.316269302368164062e+01 -2.363091278076171875e+01 -6.478670518845319748e-03 -6.279912777245044708e-04 -2.131998538970947266e-03 -4.268612537998706102e-04
9.090000000000000000e+02 1.444018745422363281e+01 -2.344830703735351562e+01 8.147558197379112244e-03 -9.030317887663841248e-04 2.173357876017689705e-03 4.174119967501610518e-04
9.100000000000000000e+02 1.426935863494873047e+01 -2.054348945617675781e+01 5.300994496792554855e-03 -2.627764770295470953e-04 1.511465408839285374e-03 -5.935810622759163380e-04
9.110000000000000000e+02 1.307942199707031250e+01 -1.749591064453125000e+01 -3.819719422608613968e-03 -4.039529012516140938e-04 -1.267101615667343140e-03 1.156399608589708805e-03
9.120000000000000000e+02 1.446184349060058594e+01 -1.629540824890136719e+01 -3.864989383146166801e-03 -1.914863678393885493e-04 -1.216942793689668179e-03 5.855121999047696590e-04
9.130000000000000000e+02 1.460099983215332031e+01 -9.355690956115722656e+00 2.211849205195903778e-03 2.069018410111311823e-05 6.697618518956005573e-04 -5.707042873837053776e-05
9.140000000000000000e+02 1.253490257263183594e+01 -1.933725357055664062e+00 -3.590613778214901686e-04 -2.010167372645810246e-04 -1.680234418017789721e-04 8.355508907698094845e-05
9.150000000000000000e+02 1.298757839202880859e+01 -2.850789785385131836e+00 -2.746399259194731712e-04 -5.669576348736882210e-04 -2.524792798794806004e-04 4.588132433127611876e-04
9.160000000000000000e+02 1.428204345703125000e+01 -2.029352664947509766e+00 2.606038469821214676e-04 1.159769744845107198e-04 1.129742522607557476e-04 2.708754327613860369e-04
9.170000000000000000e+02 1.372971248626708984e+01 -2.040418624877929688e+00 -7.993971812538802624e-04 9.505313937552273273e-05 -2.113032242050394416e-04 7.951523002702742815e-05
9.180000000000000000e+02 1.316874408721923828e+01 -1.988614201545715332e+00 5.133351078256964684e-04 2.358508063480257988e-04 2.247557713417336345e-04 -3.741125110536813736e-04
9.190000000000000000e+02 1.181263446807861328e+01 -1.913224816322326660e+00 5.258963210508227348e-04 9.841624705586582422e-05 1.872937718871980906e-04 -7.059449853841215372e-05
9.200000000000000000e+02 9.581217765808105469e+00 -1.884771585464477539e+00 -4.524086834862828255e-04 -3.181174688506871462e-04 -2.311578427907079458e-04 3.238407371100038290e-04
9.210000000000000000e+02 1.033377933502197266e+01 -1.894282937049865723e+00 5.245850188657641411e-04 2.308208204340189695e-04 2.266217488795518875e-04 -3.293926129117608070e-04
9.220000000000000000e+02 8.819357872009277344e+00 -1.877905130386352539e+00 4.063169180881232023e-04 3.928689693566411734e-04 2.397557691438123584e-04 -2.925007138401269913e-04
9.230000000000000000e+02 7.293414115905761719e+00 -1.865852832794189453e+00 3.611132560763508081e-04 4.371064133010804653e-04 2.394658949924632907e-04 -9.203172521665692329e-05
9.240000000000000000e+02 5.775900840759277344e+00 -1.861632466316223145e+00 1.638995163375511765e-04 4.441879573278129101e-04 1.824262435548007488e-04 6.294133345363661647e-05
9.250000000000000000e+02 3.508730411529541016e+00 -1.935167551040649414e+00 -9.875405521597713232e-05 -2.872146978916134685e-05 -3.824265877483412623e-05 -1.227516186190769076e-04
9.260000000000000000e+02 5.020116806030273438e+00 -1.869476556777954102e+00 9.371563464810606092e-06 -3.674097242765128613e-04 -1.074114552466198802e-04 5.260461080069944728e-07
9.270000000000000000e+02 4.362458229064941406e+00 -2.664571046829223633e+00 -6.690112059004604816e-05 -3.174884768668562174e-04 -1.153168850578367710e-04 -1.353796251351013780e-04
9.280000000000000000e+02 2.747251749038696289e+00 -2.006537437438964844e+00 2.740440504567231983e-05 1.763845939422026277e-04 6.113669951446354389e-05 6.614257290493696928e-05
9.290000000000000000e+02 1.979603767395019531e+00 -2.101011991500854492e+00 -2.420218370389193296e-04 -2.429951273370534182e-04 -1.455050951335579157e-04 -1.269669155590236187e-04
9.300000000000000000e+02 1.201061606407165527e+00 -2.175050258636474609e+00 1.016573281958699226e-03 1.115049526561051607e-04 3.384234732948243618e-04 1.711739896563813090e-04
9.310000000000000000e+02 2.007181406021118164e+00 -4.164401245117187500e+01 -4.482716321945190430e-03 2.296954020857810974e-02 5.546047352254390717e-03 1.342388452030718327e-03
9.320000000000000000e+02 3.331362247467041016e+00 -3.917040634155273438e+01 -5.944636650383472443e-03 1.440193410962820053e-02 2.537189284339547157e-03 5.690722260624170303e-03
9.330000000000000000e+02 9.031189680099487305e-01 -3.874423599243164062e+01 -6.381537299603223801e-03 1.874263957142829895e-02 3.708330681547522545e-03 4.607720475178211927e-04
9.340000000000000000e+02 7.122722268104553223e-01 -3.463622283935546875e+01 3.161004045978188515e-03 9.061587043106555939e-03 3.666777163743972778e-03 2.659792080521583557e-03
9.350000000000000000e+02 7.135217785835266113e-01 -3.322636795043945312e+01 -1.852857763879001141e-03 5.202226806432008743e-03 1.004810794256627560e-03 1.009774394333362579e-03
9.360000000000000000e+02 6.819682121276855469e-01 -2.897692680358886719e+01 1.025326200760900974e-03 -2.582130255177617073e-04 2.301339700352400541e-04 3.925506607629358768e-04
9.370000000000000000e+02 6.705644130706787109e-01 -2.756443023681640625e+01 -7.838665042072534561e-04 -9.346511214971542358e-04 -5.155552644282579422e-04 1.245570892933756113e-04
9.380000000000000000e+02 6.597764492034912109e-01 -2.615364456176757812e+01 9.956102585420012474e-04 -8.931827032938599586e-04 3.072826075367629528e-05 -9.302267426392063498e-05
9.390000000000000000e+02 6.311330199241638184e-01 -2.192097473144531250e+01 -1.648203353397548199e-03 -5.349920829758048058e-04 -6.549585959874093533e-04 -4.943141902913339436e-05
9.400000000000000000e+02 6.253673434257507324e-01 -2.051220703125000000e+01 1.811575144529342651e-03 -3.411696234252303839e-04 4.411216359585523605e-04 -3.548884706106036901e-05
9.410000000000000000e+02 1.872514486312866211e+00 -2.036536026000976562e+01 -2.251351950690150261e-03 -2.070241171168163419e-04 -7.375128334388136864e-04 8.059430547291412950e-05
9.420000000000000000e+02 6.265184283256530762e-01 -1.629061317443847656e+01 -1.989662880077958107e-03 -1.358383160550147295e-04 -6.376503733918070793e-04 -8.951343625085428357e-05
9.430000000000000000e+02 6.237187981605529785e-01 -1.488074207305908203e+01 1.993507146835327148e-03 -6.601899258384946734e-07 5.978540866635739803e-04 3.935559652745723724e-05
9.440000000000000000e+02 6.146634817123413086e-01 -1.347063064575195312e+01 -2.025167457759380341e-03 -5.617221177089959383e-05 -6.244019023142755032e-04 -5.033216802985407412e-05
9.450000000000000000e+02 1.848309993743896484e+00 -1.336559200286865234e+01 2.003302099183201790e-03 7.100283255567774177e-05 6.222914671525359154e-04 -1.229664194397628307e-04
9.460000000000000000e+02 5.505662560462951660e-01 -9.251076698303222656e+00 2.029157010838389397e-03 2.168690480175428092e-05 6.152531714178621769e-04 4.119253208045847714e-05
9.470000000000000000e+02 5.238063931465148926e-01 -7.849781036376953125e+00 -1.919340807944536209e-03 -4.869593794865068048e-06 -5.772631266154348850e-04 -5.343332304619252682e-05
9.480000000000000000e+02 5.034696459770202637e-01 -6.446489334106445312e+00 1.728858798742294312e-03 3.379044937901198864e-05 5.287947715260088444e-04 5.169967698748223484e-05
9.490000000000000000e+02 7.485525512695312500e+01 -4.022123718261718750e+01 2.542136982083320618e-02 8.085604667663574219e+00 2.433307886123657227e+00 -4.470998793840408325e-02
9.500000000000000000e+02 5.211443710327148438e+01 -3.764359664916992188e+01 4.757477343082427979e-02 3.764770030975341797e+00 1.143703460693359375e+00 9.885179810225963593e-03
9.510000000000000000e+02 3.263158798217773438e+01 -4.071298980712890625e+01 1.023662462830543518e-01 1.507543623447418213e-01 7.593618333339691162e-02 1.562413387000560760e-02
9.520000000000000000e+02 1.141943740844726562e+01 -3.906570053100585938e+01 -2.821213379502296448e-02 -3.109174221754074097e-02 -1.779116317629814148e-02 4.572262614965438843e-02
9.530000000000000000e+02 7.590580749511718750e+01 4.063152313232421875e+01 -2.180458009243011475e-01 6.129840373992919922e+00 1.773538351058959961e+00 -1.931060291826725006e-02
9.540000000000000000e+02 7.806882476806640625e+01 4.175981521606445312e+01 -4.225919842720031738e-01 5.532597064971923828e+00 1.533001542091369629e+00 1.180185526609420776e-01
9.550000000000000000e+02 7.872881317138671875e+01 3.887623214721679688e+01 1.061160266399383545e-01 5.058892726898193359e+00 1.549502611160278320e+00 1.958165168762207031e-01
9.560000000000000000e+02 7.943565368652343750e+01 3.489535522460937500e+01 -4.019669443368911743e-02 4.355092048645019531e+00 1.294468641281127930e+00 3.887593373656272888e-02
9.570000000000000000e+02 7.796148681640625000e+01 3.397033691406250000e+01 7.521052658557891846e-02 5.135177135467529297e+00 1.563116312026977539e+00 1.040360406041145325e-01
9.580000000000000000e+02 7.933457183837890625e+01 3.359100723266601562e+01 3.118198551237583160e-02 4.269473075866699219e+00 1.290196537971496582e+00 3.177582845091819763e-02
9.590000000000000000e+02 7.933139801025390625e+01 3.075474357604980469e+01 2.398598473519086838e-03 4.325981140136718750e+00 1.298513889312744141e+00 -4.911775141954421997e-02
9.600000000000000000e+02 7.815464782714843750e+01 2.801392555236816406e+01 7.793384790420532227e-02 5.312870979309082031e+00 1.617241501808166504e+00 -3.374409079551696777e-01
9.610000000000000000e+02 7.939550781250000000e+01 2.652326011657714844e+01 1.560389902442693710e-02 4.977488994598388672e+00 1.497927904129028320e+00 -1.581157147884368896e-01
9.620000000000000000e+02 7.708500671386718750e+01 2.524588012695312500e+01 7.970838993787765503e-02 6.229966163635253906e+00 1.892902255058288574e+00 -6.957511305809020996e-01
9.630000000000000000e+02 7.940814971923828125e+01 2.512650489807128906e+01 4.565105773508548737e-03 5.339997291564941406e+00 1.603368759155273438e+00 -1.797512471675872803e-01
9.640000000000000000e+02 7.941753387451171875e+01 2.095210456848144531e+01 -1.291144290007650852e-03 6.561769962310791016e+00 1.968143701553344727e+00 -1.892704963684082031e-01
9.650000000000000000e+02 7.941620635986328125e+01 1.955835342407226562e+01 -4.613355267792940140e-03 6.949761390686035156e+00 2.083544492721557617e+00 -1.804152131080627441e-01
9.660000000000000000e+02 7.708004760742187500e+01 1.974086570739746094e+01 -5.694203451275825500e-02 7.207659244537353516e+00 2.145215034484863281e+00 -6.890324950218200684e-01
9.670000000000000000e+02 7.941467285156250000e+01 1.816347503662109375e+01 -4.962725564837455750e-03 7.306786060333251953e+00 2.190546989440917969e+00 -1.675448566675186157e-01
9.680000000000000000e+02 7.941349029541015625e+01 1.398420429229736328e+01 -6.938687060028314590e-03 8.144885063171386719e+00 2.441384077072143555e+00 -1.195046231150627136e-01
9.690000000000000000e+02 7.941411590576171875e+01 1.259041500091552734e+01 -5.130965728312730789e-03 8.346185684204101562e+00 2.502316474914550781e+00 -1.043889001011848450e-01
9.700000000000000000e+02 7.941547393798828125e+01 1.119736862182617188e+01 -6.130902096629142761e-03 8.512859344482421875e+00 2.552018642425537109e+00 -9.010531753301620483e-02
9.710000000000000000e+02 7.941189575195312500e+01 7.022363662719726562e+00 -2.566429087892174721e-03 8.841438293457031250e+00 2.651661634445190430e+00 -5.740622058510780334e-02
9.720000000000000000e+02 7.940573883056640625e+01 5.629833221435546875e+00 -4.079791251569986343e-03 8.906360626220703125e+00 2.670684099197387695e+00 -4.904346540570259094e-02
9.730000000000000000e+02 7.939755249023437500e+01 4.236782073974609375e+00 -1.528184395283460617e-03 8.954504966735839844e+00 2.685892820358276367e+00 -4.240450263023376465e-02
9.740000000000000000e+02 7.937541961669921875e+01 6.179752945899963379e-02 -2.543960930779576302e-03 9.027652740478515625e+00 2.707532405853271484e+00 -2.759974449872970581e-02
9.750000000000000000e+02 7.936977386474609375e+01 -1.328178167343139648e+00 -6.516466964967548847e-04 9.036010742187500000e+00 2.710607767105102539e+00 -2.405537664890289307e-02
9.760000000000000000e+02 7.808487701416015625e+01 -3.970658540725708008e+00 -4.814820364117622375e-03 8.783596038818359375e+00 2.633634328842163086e+00 -1.742961630225181580e-02
9.770000000000000000e+02 7.936365509033203125e+01 -4.109630584716796875e+00 -4.054423188790678978e-04 9.038887023925781250e+00 2.711544513702392578e+00 -1.918037049472332001e-02
9.780000000000000000e+02 7.936434936523437500e+01 -8.279858589172363281e+00 -1.799650606699287891e-03 9.023212432861328125e+00 2.706423759460449219e+00 -1.386730279773473740e-02
9.790000000000000000e+02 7.807390594482421875e+01 -1.090422344207763672e+01 -1.389320590533316135e-03 8.754393577575683594e+00 2.625901222229003906e+00 -2.042586682364344597e-03
9.800000000000000000e+02 7.935848999023437500e+01 -1.106692600250244141e+01 -1.832456444390118122e-03 9.003392219543457031e+00 2.700467824935913086e+00 -1.066521834582090378e-02
9.810000000000000000e+02 7.934851074218750000e+01 -1.524835109710693359e+01 8.554921369068324566e-04 8.969823837280273438e+00 2.691203832626342773e+00 -8.865928277373313904e-03
9.820000000000000000e+02 7.800975799560546875e+01 -1.791102790832519531e+01 -1.785525819286704063e-03 8.697088241577148438e+00 2.608590841293334961e+00 6.237298366613686085e-04
9.830000000000000000e+02 7.933639526367187500e+01 -1.804665565490722656e+01 -1.316123962169513106e-04 8.948782920837402344e+00 2.684595346450805664e+00 -7.016537711024284363e-03
9.840000000000000000e+02 7.932011413574218750e+01 -2.363619422912597656e+01 2.254588529467582703e-03 8.913767814636230469e+00 2.674806833267211914e+00 -7.448354270309209824e-03
9.850000000000000000e+02 7.795132446289062500e+01 -2.492392158508300781e+01 1.497268560342490673e-03 8.654107093811035156e+00 2.596681356430053711e+00 -2.594512887299060822e-03
9.860000000000000000e+02 7.932477569580078125e+01 -2.502563285827636719e+01 -3.092249622568488121e-03 8.909060478210449219e+00 2.671790599822998047e+00 -6.237944122403860092e-03
9.870000000000000000e+02 7.932385253906250000e+01 -2.918572807312011719e+01 4.423195496201515198e-03 8.894918441772460938e+00 2.669802427291870117e+00 -6.075246725231409073e-03
9.880000000000000000e+02 7.780415344238281250e+01 -3.182486724853515625e+01 -5.899253766983747482e-03 8.613543510437011719e+00 2.582293272018432617e+00 -5.412187892943620682e-03
9.890000000000000000e+02 7.928164672851562500e+01 -3.197246170043945312e+01 4.392007831484079361e-04 8.882410049438476562e+00 2.664854764938354492e+00 1.476541510783135891e-03
9.900000000000000000e+02 7.933911895751953125e+01 -3.608822250366210938e+01 8.826096542179584503e-03 8.835057258605957031e+00 2.653164863586425781e+00 1.084075774997472763e-02
9.910000000000000000e+02 7.924279022216796875e+01 -3.740674209594726562e+01 -2.146833576261997223e-02 8.779836654663085938e+00 2.627510309219360352e+00 3.186272084712982178e-02
9.920000000000000000e+02 7.900096130371093750e+01 -3.870343399047851562e+01 7.837754674255847931e-03 8.720976829528808594e+00 2.618644475936889648e+00 3.387069329619407654e-02
9.930000000000000000e+02 7.861762237548828125e+01 -4.005509185791015625e+01 -2.623519860208034515e-02 8.658000946044921875e+00 2.589529752731323242e+00 5.575596168637275696e-02
9.940000000000000000e+02 4.787580966949462891e+00 4.051246643066406250e+01 -5.631079548038542271e-04 -1.098402208299376070e-04 -2.018844388658180833e-04 1.966650743270292878e-04
9.950000000000000000e+02 2.743858528137207031e+01 3.802304458618164062e+01 2.608713228255510330e-03 1.795717515051364899e-03 1.321329269558191299e-03 -1.644217642024159431e-03
9.960000000000000000e+02 6.917216491699218750e+01 3.712905502319335938e+01 -1.986713707447052002e-01 9.643524169921875000e+00 2.833455801010131836e+00 9.396026730537414551e-01
9.970000000000000000e+02 6.731768250465393066e-01 3.014414548873901367e+00 9.180374036077409983e-05 -3.506799475871957839e-05 1.702072404441423714e-05 1.365143107250332832e-04
9.980000000000000000e+02 3.094289541244506836e+00 2.737142562866210938e+00 -8.209214865928515792e-05 -5.960374983260408044e-05 -4.250877100275829434e-05 3.174970117925113300e-07
9.990000000000000000e+02 5.279783248901367188e+00 2.715862989425659180e+00 5.917009184486232698e-05 4.903366425423882902e-05 3.246112828492186964e-05 -1.270132906938670203e-05
1.000000000000000000e+03 1.630326032638549805e+00 6.254766941070556641e+00 1.750753144733607769e-04 3.116987863904796541e-05 6.187355756992474198e-05 -4.230942795402370393e-05
1.001000000000000000e+03 5.785226821899414062e-01 9.231200218200683594e+00 -2.323042281204834580e-04 -1.496241566201206297e-07 -6.973615381866693497e-05 2.542184483900200576e-05
1.002000000000000000e+03 6.020011305809020996e-01 1.207750034332275391e+01 -2.809385769069194794e-04 2.520099542380194180e-06 -8.352554141310974956e-05 1.524138679087627679e-05
1.003000000000000000e+03 1.787738323211669922e+00 1.202152824401855469e+01 3.013667010236531496e-04 -1.670380333962384611e-05 8.539886766811832786e-05 -2.477518864907324314e-05
1.004000000000000000e+03 6.358826160430908203e-01 1.633921241760253906e+01 3.313386987429112196e-04 1.431547843822045252e-06 9.983107884181663394e-05 -1.608158981980523095e-06
1.005000000000000000e+03 1.892178535461425781e+00 1.776685142517089844e+01 3.705468261614441872e-04 1.549919261378818192e-06 1.116290222853422165e-04 3.069711056014057249e-06
1.006000000000000000e+03 6.323236823081970215e-01 1.775871276855468750e+01 -3.505256900098174810e-04 3.625815452323877253e-07 -1.050489372573792934e-04 -4.184002762031013845e-07
1.007000000000000000e+03 6.233505010604858398e-01 2.201151657104492188e+01 4.077886987943202257e-04 1.889673967525595799e-06 1.229035115102306008e-04 1.429031635780120268e-05
1.008000000000000000e+03 6.232416033744812012e-01 2.342013931274414062e+01 -4.195676883682608604e-04 -4.253528004483086988e-06 -1.271463697776198387e-04 -1.376977070322027430e-05
1.009000000000000000e+03 1.872166156768798828e+00 2.343554496765136719e+01 4.288922646082937717e-04 9.473369573242962360e-06 1.315096887992694974e-04 3.876455230056308210e-05
1.010000000000000000e+03 6.223807334899902344e-01 2.482673263549804688e+01 4.243402217980474234e-04 1.277409978683863301e-06 1.276852854061871767e-04 1.390088527841726318e-05
1.011000000000000000e+03 6.429388523101806641e-01 2.904987144470214844e+01 -3.723399713635444641e-04 -2.191164639953058213e-06 -1.123593392549082637e-04 -2.835194209183100611e-05
1.012000000000000000e+03 6.594565510749816895e-01 3.045754623413085938e+01 3.287281433586031199e-04 1.615816017874749377e-06 9.910319204209372401e-05 2.946374479506630450e-05
1.013000000000000000e+03 2.052784919738769531e+00 3.179794311523437500e+01 3.945220378227531910e-04 4.612538396031595767e-05 1.321942254435271025e-04 7.105499389581382275e-05
1.014000000000000000e+03 6.733657121658325195e-01 3.186377143859863281e+01 -2.917388046626001596e-04 -1.678817170613911003e-05 -9.255809709429740906e-05 -1.656423592066857964e-05
1.015000000000000000e+03 6.627194285392761230e-01 3.605204391479492188e+01 5.612487439066171646e-04 7.528621063102036715e-05 1.909604761749505997e-04 -1.639731053728610277e-04
1.016000000000000000e+03 1.967591643333435059e+00 3.715192031860351562e+01 5.317796021699905396e-04 9.536420111544430256e-05 1.881431380752474070e-04 -3.052283136639744043e-04
1.017000000000000000e+03 8.592402338981628418e-01 3.874295043945312500e+01 7.959996000863611698e-04 8.300727495225146413e-05 2.637020661495625973e-04 -1.914033346110954881e-04
1.018000000000000000e+03 1.240484237670898438e+00 4.009115982055664062e+01 -6.825814489275217056e-04 6.892556120874360204e-05 -1.840967743191868067e-04 9.966745710698887706e-05
1.019000000000000000e+03 1.039036560058593750e+01 1.849611043930053711e+00 5.787193367723375559e-05 1.226967833645176142e-05 2.104248233081307262e-05 -9.759490239957813174e-06
1.020000000000000000e+03 8.932036399841308594e+00 1.875660777091979980e+00 4.890304626314900815e-05 2.431627945043146610e-05 2.196579771407414228e-05 2.404769247732474469e-06
1.021000000000000000e+03 8.211297988891601562e+00 1.879775643348693848e+00 -4.314081525080837309e-05 -3.115925937891006470e-05 -2.229002348030917346e-05 -2.564486862866033334e-07
1.022000000000000000e+03 8.189212799072265625e+00 2.643693447113037109e+00 5.476633305079303682e-05 3.845643368549644947e-05 2.796682929329108447e-05 6.846675205451902002e-06
1.023000000000000000e+03 7.492156028747558594e+00 1.883542895317077637e+00 4.131354580749757588e-05 3.610470230341888964e-05 2.322547516087070107e-05 -4.167074166616657749e-06
1.024000000000000000e+03 5.332326889038085938e+00 1.903406023979187012e+00 -4.499847636907361448e-05 -4.048037226311862469e-05 -2.564365604484919459e-05 1.439362131350208074e-05
1.025000000000000000e+03 4.608756542205810547e+00 1.913111329078674316e+00 4.969436849933117628e-05 4.052343865623697639e-05 2.706534360186196864e-05 -1.326252277067396790e-05
1.026000000000000000e+03 3.890951633453369141e+00 1.914707064628601074e+00 -5.855182462255470455e-05 -4.233607978676445782e-05 -3.026637205039151013e-05 1.102516398532316089e-05
1.027000000000000000e+03 3.185089826583862305e+00 1.903289794921875000e+00 6.881960871396586299e-05 4.194117354927584529e-05 3.322823613416403532e-05 -7.668206762900808826e-07
1.028000000000000000e+03 2.490381240844726562e+00 1.886190056800842285e+00 -5.909730680286884308e-05 -4.765400444739498198e-05 -3.202539301128126681e-05 -1.287850318476557732e-05
1.029000000000000000e+03 1.801820635795593262e+00 1.880855679512023926e+00 3.154454316245391965e-05 5.786687324871309102e-05 2.682342528714798391e-05 1.308855007664533332e-05
1.030000000000000000e+03 1.186897659301757812e+01 1.776934027671813965e+00 4.330654701334424317e-05 2.069829133688472211e-05 1.920145041367504746e-05 -2.223864976258482784e-05
1.031000000000000000e+03 1.436327266693115234e+01 2.972384691238403320e+00 -9.709830919746309519e-06 -2.069224137812852859e-05 -9.120621143665630370e-06 5.214531120145693421e-05
1.032000000000000000e+03 1.460183715820312500e+01 3.779776573181152344e+00 1.042330695781856775e-04 1.659634835959877819e-05 3.624882447184063494e-05 -2.587441849755123258e-05
1.033000000000000000e+03 1.479509353637695312e+01 2.010220289230346680e+00 -6.944905908312648535e-05 -1.819893259380478412e-05 -2.629439768497832119e-05 -7.779533916618674994e-06
1.034000000000000000e+03 1.462149810791015625e+01 6.347442150115966797e+00 1.853330031735822558e-04 6.969439709791913629e-06 5.769073322881013155e-05 -1.851015258580446243e-05
1.035000000000000000e+03 1.460740566253662109e+01 7.702195644378662109e+00 -2.144392783520743251e-04 -6.345434940158156678e-06 -6.623541412409394979e-05 1.151942706201225519e-05
1.036000000000000000e+03 1.458555507659912109e+01 9.068018913269042969e+00 2.427756844554096460e-04 4.648403773899190128e-06 7.422722410410642624e-05 -3.750617906916886568e-06
1.037000000000000000e+03 1.451846790313720703e+01 1.181644630432128906e+01 3.001655859407037497e-04 -1.910184664666303433e-06 8.947661990532651544e-05 6.033668796590063721e-06
1.038000000000000000e+03 1.446073818206787109e+01 1.320690536499023438e+01 -3.184698289260268211e-04 9.103324373427312821e-06 -9.280995436711236835e-05 2.805940994221600704e-06
1.039000000000000000e+03 1.439539909362792969e+01 1.461198711395263672e+01 3.363127761986106634e-04 3.881180873577250168e-06 1.020581839838996530e-04 -7.191694294306216761e-06
1.040000000000000000e+03 1.438142013549804688e+01 1.601829338073730469e+01 -3.786136512644588947e-04 -3.844839469024918799e-08 -1.135956263169646263e-04 2.427985464237281121e-06
1.041000000000000000e+03 1.322294521331787109e+01 2.034595298767089844e+01 -4.948715795762836933e-04 -1.594234890944790095e-05 -1.532441674498841166e-04 4.927938061882741749e-05
1.042000000000000000e+03 1.454903221130371094e+01 2.157939529418945312e+01 -5.631099920719861984e-04 -5.702996077161515132e-06 -1.706439070403575897e-04 3.882736564264632761e-05
1.043000000000000000e+03 1.485575199127197266e+01 2.568744087219238281e+01 8.102653664536774158e-04 2.576172119006514549e-05 2.508081379346549511e-04 3.884093530359677970e-05
1.044000000000000000e+03 1.342914581298828125e+01 2.305703926086425781e+01 -5.622639437206089497e-04 -2.072684401355218142e-05 -1.748972426867112517e-04 1.381051788484910503e-05
1.045000000000000000e+03 1.495893287658691406e+01 2.705042076110839844e+01 -9.466224000789225101e-04 -9.813554243010003120e-06 -2.869307936634868383e-04 -7.293892849702388048e-05
1.046000000000000000e+03 1.509444522857666016e+01 2.841235733032226562e+01 1.094860141165554523e-03 1.550131491967476904e-05 3.331084444653242826e-04 9.717533976072445512e-05
1.047000000000000000e+03 1.571485614776611328e+01 3.263117599487304688e+01 -1.225247513502836227e-03 -8.935157893574796617e-06 -3.702548274304717779e-04 1.329507213085889816e-04
1.048000000000000000e+03 1.628768348693847656e+01 3.399800872802734375e+01 1.345990924164652824e-03 -6.638649938395246863e-05 3.838813281618058681e-04 -3.540007455740123987e-04
1.049000000000000000e+03 1.527185535430908203e+01 3.561812591552734375e+01 1.762118423357605934e-03 6.832430517533794045e-05 5.491328192874789238e-04 -3.642592346295714378e-04
1.050000000000000000e+03 1.717429924011230469e+01 3.647423934936523438e+01 2.706283470615744591e-03 7.647282909601926804e-04 1.041303505189716816e-03 8.084286819212138653e-04
1.051000000000000000e+03 2.169405937194824219e+01 3.828494262695312500e+01 9.126962977461516857e-04 -9.880107827484607697e-04 -2.259436223539523780e-05 3.051777894143015146e-04
1.052000000000000000e+03 2.330987930297851562e+01 3.852155685424804688e+01 -1.988600852200761437e-04 -3.011299413628876209e-04 -1.499970094300806522e-04 -2.588618372101336718e-04
1.053000000000000000e+03 2.517462158203125000e+01 3.865432739257812500e+01 1.742947264574468136e-03 -8.953042561188340187e-04 2.542929141782224178e-04 -6.908313953317701817e-04
1.054000000000000000e+03 2.823754501342773438e+01 3.801610183715820312e+01 1.352632185444235802e-03 -1.340983435511589050e-03 3.494623115329886787e-06 -1.739545492455363274e-03
1.055000000000000000e+03 2.904827308654785156e+01 3.791421127319335938e+01 4.201994452159851789e-04 1.583544537425041199e-03 6.011232035234570503e-04 -1.737640704959630966e-03
1.056000000000000000e+03 3.098683166503906250e+01 3.815132522583007812e+01 9.874061215668916702e-04 -7.503652479499578476e-03 -1.954874023795127869e-03 4.914515186101198196e-03
1.057000000000000000e+03 3.116994094848632812e+01 3.742130661010742188e+01 1.837562449509277940e-04 -7.593558635562658310e-03 -2.222940558567643166e-03 5.066100042313337326e-03
1.058000000000000000e+03 3.265264129638671875e+01 3.718561935424804688e+01 -2.123867161571979523e-03 -1.117641199380159378e-02 -3.990083467215299606e-03 1.101538632065057755e-02
1.059000000000000000e+03 3.409300994873046875e+01 3.718696594238281250e+01 -1.013015583157539368e-02 -2.417983300983905792e-02 -1.029299665242433548e-02 2.458786033093929291e-02
1.060000000000000000e+03 3.490560531616210938e+01 3.699287414550781250e+01 -1.701834611594676971e-02 -2.266306243836879730e-02 -1.190442219376564026e-02 2.919912897050380707e-02
1.061000000000000000e+03 3.794372940063476562e+01 3.628689193725585938e+01 -6.232529133558273315e-02 -5.124871060252189636e-02 -3.407220169901847839e-02 8.901382982730865479e-02
1.062000000000000000e+03 3.937099838256835938e+01 3.606437683105468750e+01 -9.495341032743453979e-02 -6.953486800193786621e-02 -4.934648424386978149e-02 1.236937195062637329e-01
1.063000000000000000e+03 4.018044281005859375e+01 3.603603744506835938e+01 -1.210993826389312744e-01 -9.495960175991058350e-02 -6.481769680976867676e-02 1.530828624963760376e-01
1.064000000000000000e+03 4.098130035400390625e+01 3.582313156127929688e+01 -1.608078628778457642e-01 -8.487071096897125244e-02 -7.370357215404510498e-02 1.749181002378463745e-01
1.065000000000000000e+03 4.349245834350585938e+01 3.605820083618164062e+01 -1.891912221908569336e-01 -1.561849862337112427e-01 -1.036128625273704529e-01 2.823185622692108154e-01
1.066000000000000000e+03 4.312382125854492188e+01 3.520227050781250000e+01 -2.831188142299652100e-01 -1.412281841039657593e-01 -1.273040920495986938e-01 2.615101337432861328e-01
1.067000000000000000e+03 4.385016632080078125e+01 3.505806732177734375e+01 -3.495990335941314697e-01 -1.135829091072082520e-01 -1.389545798301696777e-01 3.014703094959259033e-01
1.068000000000000000e+03 4.525801849365234375e+01 3.473278045654296875e+01 -4.710293412208557129e-01 -1.123260483145713806e-01 -1.750066131353378296e-01 3.681583106517791748e-01
1.069000000000000000e+03 4.595692825317382812e+01 3.458515930175781250e+01 -5.454206466674804688e-01 -1.539402157068252563e-01 -2.098082602024078369e-01 3.650352656841278076e-01
1.070000000000000000e+03 4.815148162841796875e+01 3.441056823730468750e+01 -7.397515177726745605e-01 -1.077293157577514648e-01 -2.542442679405212402e-01 4.678969979286193848e-01
1.071000000000000000e+03 4.892363357543945312e+01 3.431158447265625000e+01 -8.177546262741088867e-01 -1.291549652814865112e-01 -2.840728759765625000e-01 4.577330648899078369e-01
1.072000000000000000e+03 5.113782882690429688e+01 3.388629913330078125e+01 -1.028071999549865723e+00 -8.517705649137496948e-02 -3.339747190475463867e-01 4.901087880134582520e-01
1.073000000000000000e+03 5.260268402099609375e+01 3.367098999023437500e+01 -1.110693454742431641e+00 -7.884539663791656494e-02 -3.568616807460784912e-01 4.598444700241088867e-01
1.074000000000000000e+03 5.472329330444335938e+01 3.326655960083007812e+01 -1.137109160423278809e+00 1.830601096153259277e-01 -2.862147092819213867e-01 2.010115832090377808e-01
1.075000000000000000e+03 5.600646209716796875e+01 3.362102890014648438e+01 -2.898518741130828857e-01 5.472698807716369629e-01 7.722540944814682007e-02 -4.448545277118682861e-01
1.076000000000000000e+03 5.766436767578125000e+01 3.292764282226562500e+01 2.056636065244674683e-01 9.056404829025268555e-01 3.333912193775177002e-01 -1.173906207084655762e+00
1.077000000000000000e+03 5.804952621459960938e+01 3.285230636596679688e+01 6.040079593658447266e-01 1.332269310951232910e+00 5.808832049369812012e-01 -1.653280735015869141e+00
1.078000000000000000e+03 5.826791000366210938e+01 3.281617736816406250e+01 9.382941722869873047e-01 1.573125839233398438e+00 7.534260153770446777e-01 -1.935024619102478027e+00
1.079000000000000000e+03 6.005866622924804688e+01 3.271161270141601562e+01 2.060197114944458008e+00 9.184368133544921875e+00 3.373369455337524414e+00 -6.029756546020507812e+00
1.080000000000000000e+03 6.089501190185546875e+01 3.272850036621093750e+01 4.393871426582336426e-01 1.732491302490234375e+01 5.329289913177490234e+00 -4.713155746459960938e+00
1.081000000000000000e+03 6.111137008666992188e+01 3.267792129516601562e+01 3.412014842033386230e-01 1.881708335876464844e+01 5.747485637664794922e+00 -3.512425661087036133e+00
1.082000000000000000e+03 6.171894073486328125e+01 3.245763397216796875e+01 1.802139639854431152e+00 2.098316955566406250e+01 6.835592746734619141e+00 5.549994111061096191e-01
1.083000000000000000e+03 6.207305145263671875e+01 3.222097396850585938e+01 4.086740016937255859e+00 2.026936531066894531e+01 7.306831359863281250e+00 2.368296623229980469e+00
1.084000000000000000e+03 6.220448303222656250e+01 3.204891967773437500e+01 5.378156185150146484e+00 1.933650207519531250e+01 7.414397239685058594e+00 2.760840415954589844e+00
1.085000000000000000e+03 6.244477844238281250e+01 3.167753982543945312e+01 8.349642753601074219e+00 1.773324584960937500e+01 7.824866771697998047e+00 2.739110708236694336e+00
1.086000000000000000e+03 6.310456466674804688e+01 3.101783752441406250e+01 8.319837570190429688e+00 1.467777252197265625e+01 6.899282932281494141e+00 3.478547632694244385e-01
1.087000000000000000e+03 6.262723541259765625e+01 3.100171279907226562e+01 1.000747585296630859e+01 1.621385002136230469e+01 7.866397380828857422e+00 3.058320879936218262e-01
1.088000000000000000e+03 6.250851440429687500e+01 3.054887008666992188e+01 9.545208930969238281e+00 1.694333457946777344e+01 7.946562767028808594e+00 -1.455874681472778320e+00
1.089000000000000000e+03 6.242077255249023438e+01 3.035158538818359375e+01 8.629727363586425781e+00 1.776276397705078125e+01 7.917747020721435547e+00 -2.021901369094848633e+00
1.090000000000000000e+03 6.220014953613281250e+01 2.999425315856933594e+01 6.250973701477050781e+00 1.932854461669921875e+01 7.673855781555175781e+00 -2.286190986633300781e+00
1.091000000000000000e+03 6.190672302246093750e+01 2.968863868713378906e+01 3.572103261947631836e+00 2.044445419311523438e+01 7.204967021942138672e+00 -1.034397006034851074e+00
1.092000000000000000e+03 5.905529785156250000e+01 2.947162246704101562e+01 2.510903358459472656e+00 2.710327625274658203e+00 1.566369295120239258e+00 4.063919544219970703e+00
1.093000000000000000e+03 5.864232254028320312e+01 2.943948745727539062e+01 1.766810417175292969e+00 1.812030673027038574e+00 1.073652267456054688e+00 3.093322992324829102e+00
1.094000000000000000e+03 5.823715209960937500e+01 2.952375793457031250e+01 1.026025652885437012e+00 1.039227962493896484e+00 6.195760965347290039e-01 2.261088609695434570e+00
1.095000000000000000e+03 5.804902267456054688e+01 2.953018188476562500e+01 6.333470344543457031e-01 8.570361733436584473e-01 4.471149742603302002e-01 1.891774415969848633e+00
1.096000000000000000e+03 5.781525421142578125e+01 2.950185966491699219e+01 3.640835881233215332e-01 5.957030653953552246e-01 2.879360020160675049e-01 1.676415681838989258e+00
1.097000000000000000e+03 5.501513671875000000e+01 2.965354156494140625e+01 -1.820709824562072754e+00 6.085950136184692383e-02 -5.279551148414611816e-01 3.885992467403411865e-01
1.098000000000000000e+03 5.563244628906250000e+01 2.961047363281250000e+01 -1.591899991035461426e+00 4.206528142094612122e-02 -4.649504125118255615e-01 5.009937286376953125e-01
1.099000000000000000e+03 5.683495330810546875e+01 2.953841018676757812e+01 -7.921206951141357422e-01 2.650806307792663574e-01 -1.581120043992996216e-01 8.980426788330078125e-01
1.100000000000000000e+03 5.359304809570312500e+01 2.978785514831542969e+01 -2.202075004577636719e+00 -5.862917751073837280e-03 -6.623813509941101074e-01 1.789788603782653809e-01
1.101000000000000000e+03 5.284369277954101562e+01 2.986244392395019531e+01 -2.304303169250488281e+00 -9.810670744627714157e-04 -6.915852427482604980e-01 1.385260373353958130e-01
1.102000000000000000e+03 4.832146072387695312e+01 3.042691040039062500e+01 -2.187066793441772461e+00 5.969897378236055374e-03 -6.543290615081787109e-01 3.247498348355293274e-02
1.103000000000000000e+03 4.982995605468750000e+01 3.021570396423339844e+01 -2.305565834045410156e+00 3.248196444474160671e-04 -6.915723085403442383e-01 5.571479350328445435e-02
1.104000000000000000e+03 5.058451461791992188e+01 3.011874961853027344e+01 -2.344227313995361328e+00 1.674955827184021473e-03 -7.027657032012939453e-01 6.905503571033477783e-02
1.105000000000000000e+03 4.682247543334960938e+01 3.067049407958984375e+01 -2.037543773651123047e+00 2.040542848408222198e-02 -6.051415205001831055e-01 1.779505237936973572e-02
1.106000000000000000e+03 4.234872055053710938e+01 3.146545791625976562e+01 -1.472561240196228027e+00 3.479200601577758789e-02 -4.313307702541351318e-01 -2.125404030084609985e-02
1.107000000000000000e+03 4.309127044677734375e+01 3.132520866394042969e+01 -1.568367958068847656e+00 3.353412449359893799e-02 -4.604501426219940186e-01 -1.413173787295818329e-02
1.108000000000000000e+03 4.383620452880859375e+01 3.119012641906738281e+01 -1.665111541748046875e+00 3.053593076765537262e-02 -4.903726875782012939e-01 -6.261382717639207840e-03
1.109000000000000000e+03 4.087059020996093750e+01 3.175576019287109375e+01 -1.286313056945800781e+00 4.224702343344688416e-02 -3.732197880744934082e-01 -3.376050293445587158e-02
1.110000000000000000e+03 3.643979263305664062e+01 3.260987854003906250e+01 -7.698939442634582520e-01 3.741535171866416931e-02 -2.197435796260833740e-01 -6.753640621900558472e-02
1.111000000000000000e+03 3.932028198242187500e+01 3.136325073242187500e+01 -1.047885060310363770e+00 6.356503814458847046e-02 -2.952960133552551270e-01 -1.315400451421737671e-01
1.112000000000000000e+03 3.496718215942382812e+01 3.290443801879882812e+01 -6.232475638389587402e-01 3.607305511832237244e-02 -1.761523634195327759e-01 -7.330153137445449829e-02
1.113000000000000000e+03 3.423121643066406250e+01 3.305048370361328125e+01 -5.538218617439270020e-01 3.471561148762702942e-02 -1.557318717241287231e-01 -7.442836463451385498e-02
1.114000000000000000e+03 3.349780654907226562e+01 3.319375610351562500e+01 -4.892326593399047852e-01 3.205957263708114624e-02 -1.371519267559051514e-01 -7.538542151451110840e-02
1.115000000000000000e+03 3.057613563537597656e+01 3.373933029174804688e+01 -2.717078626155853271e-01 1.908424496650695801e-02 -7.578708231449127197e-02 -6.984721869230270386e-02
1.116000000000000000e+03 3.203561401367187500e+01 3.347373199462890625e+01 -3.719057738780975342e-01 2.637820877134799957e-02 -1.036582663655281067e-01 -7.438524812459945679e-02
1.117000000000000000e+03 2.912017631530761719e+01 3.397734832763671875e+01 -1.891402453184127808e-01 1.098219212144613266e-02 -5.344741791486740112e-02 -6.239373609423637390e-02
1.118000000000000000e+03 2.839506149291992188e+01 3.409194564819335938e+01 -1.543900370597839355e-01 7.344139274209737778e-03 -4.411377012729644775e-02 -5.739175155758857727e-02
1.119000000000000000e+03 2.767721176147460938e+01 3.419304275512695312e+01 -1.239919736981391907e-01 3.263064660131931305e-03 -3.621867299079895020e-02 -5.208387598395347595e-02
1.120000000000000000e+03 2.471462059020996094e+01 3.444438171386718750e+01 -3.769382461905479431e-02 -1.048640161752700806e-02 -1.445406768471002579e-02 -2.374718338251113892e-02
1.121000000000000000e+03 2.624764823913574219e+01 3.435656738281250000e+01 -7.483661174774169922e-02 -4.831235855817794800e-03 -2.390035614371299744e-02 -3.934863582253456116e-02
1.122000000000000000e+03 2.203675842285156250e+01 3.430679321289062500e+01 -6.926882546395063400e-03 -4.188992083072662354e-03 -3.334762295708060265e-03 -1.198060112074017525e-03
1.123000000000000000e+03 2.114260673522949219e+01 3.336400222778320312e+01 -2.058642916381359100e-03 2.203596290200948715e-03 4.348601214587688446e-05 -2.824468770995736122e-03
1.124000000000000000e+03 6.190129470825195312e+01 3.276101684570312500e+01 1.105893015861511230e+00 1.950125122070312500e+01 6.182143211364746094e+00 4.866325259208679199e-01
1.125000000000000000e+03 6.262060928344726562e+01 3.206869125366210938e+01 5.828680515289306641e+00 1.734264945983886719e+01 6.951398849487304688e+00 2.777854681015014648e+00
1.126000000000000000e+03 6.259194564819335938e+01 3.076247787475585938e+01 9.789187431335449219e+00 1.633047676086425781e+01 7.835899353027343750e+00 -5.292444825172424316e-01
1.127000000000000000e+03 6.206250000000000000e+01 2.983548927307128906e+01 4.812465190887451172e+00 1.997935295104980469e+01 7.437545299530029297e+00 -1.799255132675170898e+00
1.128000000000000000e+03 6.232684707641601562e+01 3.186592864990234375e+01 6.958373069763183594e+00 1.853399848937988281e+01 7.647711277008056641e+00 3.006613969802856445e+00
1.129000000000000000e+03 6.195341110229492188e+01 2.924548721313476562e+01 1.914032459259033203e+00 1.887762069702148438e+01 6.237495899200439453e+00 -7.091136276721954346e-02
1.130000000000000000e+03 6.133779907226562500e+01 2.932059669494628906e+01 9.316847324371337891e-01 1.962179374694824219e+01 6.166043281555175781e+00 2.851425647735595703e+00
1.131000000000000000e+03 6.175735855102539062e+01 2.906710815429687500e+01 1.087115049362182617e+00 1.858453369140625000e+01 5.901494503021240234e+00 1.008216142654418945e+00
1.132000000000000000e+03 6.259865570068359375e+01 3.124392318725585938e+01 9.864386558532714844e+00 1.655596542358398438e+01 7.926105976104736328e+00 1.406219005584716797e+00
1.133000000000000000e+03 6.131553268432617188e+01 3.261595153808593750e+01 4.524020254611968994e-01 2.011494827270507812e+01 6.170205116271972656e+00 -2.282657146453857422e+00
1.134000000000000000e+03 6.151726531982421875e+01 3.254219818115234375e+01 8.615117073059082031e-01 2.097845268249511719e+01 6.551989078521728516e+00 -8.265041708946228027e-01
1.135000000000000000e+03 6.231906890869140625e+01 3.016615486145019531e+01 7.585422515869140625e+00 1.847310066223144531e+01 7.817556858062744141e+00 -2.280469179153442383e+00
1.136000000000000000e+03 6.045415496826171875e+01 3.296155929565429688e+01 1.146594882011413574e+00 1.298146820068359375e+01 4.238419055938720703e+00 -5.938550949096679688e+00
1.137000000000000000e+03 6.087935256958007812e+01 2.932641029357910156e+01 9.945606589317321777e-01 1.715077781677246094e+01 5.443601608276367188e+00 5.522878646850585938e+00
1.138000000000000000e+03 5.907115554809570312e+01 3.279721069335937500e+01 1.988544702529907227e+00 3.298360109329223633e+00 1.586071491241455078e+00 -3.525355577468872070e+00
1.139000000000000000e+03 5.947929763793945312e+01 3.277165603637695312e+01 2.339148044586181641e+00 4.960315227508544922e+00 2.189838886260986328e+00 -4.582066059112548828e+00
1.140000000000000000e+03 5.968479919433593750e+01 3.273980712890625000e+01 2.386289119720458984e+00 6.230746746063232422e+00 2.585110664367675781e+00 -5.164801120758056641e+00
1.141000000000000000e+03 6.061872100830078125e+01 3.303395080566406250e+01 5.831573009490966797e-01 1.400177669525146484e+01 4.375480175018310547e+00 -5.159733772277832031e+00
1.142000000000000000e+03 5.825207519531250000e+01 3.308105850219726562e+01 1.084021091461181641e+00 1.678753495216369629e+00 8.288323879241943359e-01 -2.164774894714355469e+00
1.143000000000000000e+03 5.866714477539062500e+01 3.280554199218750000e+01 1.393157362937927246e+00 2.080644369125366211e+00 1.042140483856201172e+00 -2.593194723129272461e+00
1.144000000000000000e+03 5.987671279907226562e+01 3.270241546630859375e+01 2.315109491348266602e+00 7.382031440734863281e+00 2.909142255783081055e+00 -5.674708843231201172e+00
1.145000000000000000e+03 6.046288681030273438e+01 3.269937896728515625e+01 1.332661151885986328e+00 1.308426380157470703e+01 4.325077533721923828e+00 -6.237686157226562500e+00
1.146000000000000000e+03 6.025382995605468750e+01 3.272031021118164062e+01 1.749844670295715332e+00 1.097613620758056641e+01 3.817794322967529297e+00 -6.192279338836669922e+00
1.147000000000000000e+03 6.067286682128906250e+01 2.935930824279785156e+01 1.482310056686401367e+00 1.569968891143798828e+01 5.154599666595458984e+00 6.539694309234619141e+00
1.148000000000000000e+03 6.006901931762695312e+01 2.937583541870117188e+01 2.941253423690795898e+00 9.110736846923828125e+00 3.615597248077392578e+00 7.031791687011718750e+00
1.149000000000000000e+03 5.985984039306640625e+01 2.939097213745117188e+01 3.038615226745605469e+00 7.449324131011962891e+00 3.146381855010986328e+00 6.543024539947509766e+00
1.150000000000000000e+03 6.027441024780273438e+01 2.939009475708007812e+01 2.552196979522705078e+00 1.139549160003662109e+01 4.184306621551513672e+00 7.305263519287109375e+00
1.151000000000000000e+03 2.025215530395507812e+01 3.802653503417968750e+01 2.687836531549692154e-04 -1.307463098783046007e-04 4.141120371059514582e-05 5.567581974901258945e-04
1.152000000000000000e+03 1.420891952514648438e+01 1.883676767349243164e+00 2.969553315779194236e-05 1.389108001603744924e-05 1.307598358835093677e-05 -4.814723070012405515e-06
1.153000000000000000e+03 1.257619953155517578e+01 1.746752142906188965e+00 -2.192226929764728993e-05 -3.259892764617688954e-05 -1.635635817365255207e-05 1.304453962802654132e-05
1.154000000000000000e+03 5.331869125366210938e+01 3.353451919555664062e+01 -1.174917340278625488e+00 4.804535582661628723e-02 -3.380616009235382080e-01 4.112904369831085205e-01
1.155000000000000000e+03 5.710722351074218750e+01 3.300624465942382812e+01 -2.584263682365417480e-01 6.580823063850402832e-01 1.198967695236206055e-01 -7.894189953804016113e-01
1.156000000000000000e+03 5.656078338623046875e+01 3.357068252563476562e+01 1.164025440812110901e-02 8.647004365921020508e-01 2.629022002220153809e-01 -7.744612097740173340e-01
1.157000000000000000e+03 5.713475799560546875e+01 3.356295394897460938e+01 4.356894195079803467e-01 1.167318344116210938e+00 4.809023439884185791e-01 -1.338712096214294434e+00
1.158000000000000000e+03 5.557585525512695312e+01 2.798605537414550781e+01 1.570726782083511353e-01 7.251015305519104004e-01 2.646522521972656250e-01 1.286820530891418457e+00
1.159000000000000000e+03 5.808911514282226562e+01 2.927890777587890625e+01 1.099806427955627441e+00 1.245637178421020508e+00 7.036331295967102051e-01 2.353481054306030273e+00
1.160000000000000000e+03 5.558354568481445312e+01 2.855369758605957031e+01 -3.061009347438812256e-01 4.305186867713928223e-01 3.732532635331153870e-02 9.901318550109863281e-01
1.161000000000000000e+03 5.618588638305664062e+01 2.855106353759765625e+01 5.476886034011840820e-02 6.195669770240783691e-01 2.023007571697235107e-01 1.320428371429443359e+00
1.162000000000000000e+03 5.496857452392578125e+01 2.911793518066406250e+01 -1.167803525924682617e+00 1.331737190485000610e-01 -3.103889226913452148e-01 5.229123830795288086e-01
1.163000000000000000e+03 2.069055557250976562e+01 3.902604293823242188e+01 1.633842010051012039e-03 -1.079294364899396896e-03 1.663642760831862688e-04 5.151322111487388611e-04
1.164000000000000000e+03 2.304053497314453125e+01 3.973446273803710938e+01 2.707591047510504723e-03 2.754686400294303894e-03 1.638683257624506950e-03 -3.482269588857889175e-03
1.165000000000000000e+03 6.054713726043701172e+00 1.894574165344238281e+00 4.367150540929287672e-05 4.036428435938432813e-05 2.521073838579468429e-05 -1.114588394557358697e-05
1.166000000000000000e+03 9.660860061645507812e+00 2.612860918045043945e+00 7.850179827073588967e-05 1.420436728949425742e-05 2.781184957711957395e-05 1.038782011164585128e-05
1.167000000000000000e+03 6.774162769317626953e+00 1.888585329055786133e+00 -4.259138586348854005e-05 -3.836948962998576462e-05 -2.428826337563805282e-05 8.753409019846003503e-06
1.168000000000000000e+03 7.462074756622314453e+00 2.657210588455200195e+00 -5.316314855008386075e-05 -4.383592022350057960e-05 -2.909971954068168998e-05 1.458680458199523855e-06
1.169000000000000000e+03 8.179748535156250000e+00 3.419649600982666016e+00 -6.084177584853023291e-05 -4.701179204857908189e-05 -3.235607073293067515e-05 -1.487991539761424065e-05
1.170000000000000000e+03 5.977002143859863281e+00 4.345640659332275391e+00 -9.247662092093378305e-05 -5.710385812562890351e-05 -4.487414480536244810e-05 1.046698088202901999e-07
1.171000000000000000e+03 1.684332728385925293e+00 7.711739063262939453e+00 -2.242587943328544497e-04 -8.755346243560779840e-06 -6.990424299146980047e-05 3.624623059295117855e-05
1.172000000000000000e+03 3.828944563865661621e-01 3.772170543670654297e+00 -2.286744129378348589e-04 -3.974148421548306942e-05 -8.052476914599537849e-05 -4.745350088342092931e-05
1.173000000000000000e+03 1.821513175964355469e+00 2.611128091812133789e+00 -6.580124318134039640e-05 -4.792062827618792653e-05 -3.411656143725849688e-05 -2.628542642924003303e-05
1.174000000000000000e+03 3.836562335491180420e-01 2.093226671218872070e+00 7.567660213680937886e-05 4.486381294555030763e-05 3.616212416091002524e-05 -2.923737883975263685e-05
1.175000000000000000e+03 1.112779259681701660e+00 1.931524515151977539e+00 9.743496775627136230e-06 -7.128893776098266244e-05 -1.846363193180877715e-05 -1.070024836735683493e-06
1.176000000000000000e+03 1.113588428497314453e+01 1.817092776298522949e+00 -5.447132207336835563e-05 -1.424851234332891181e-05 -2.061595114355441183e-05 1.813964081520680338e-05
1.177000000000000000e+03 9.684248924255371094e+00 3.371607303619384766e+00 -9.964387572836130857e-05 -1.501050974184181541e-05 -3.439631473156623542e-05 -2.847951145668048412e-05
1.178000000000000000e+03 2.684575271606445312e+01 3.270135116577148438e+01 -1.291869580745697021e-01 -1.614853739738464355e-02 -4.360064864158630371e-02 -9.716387093067169189e-02
1.179000000000000000e+03 2.618286705017089844e+01 3.353312301635742188e+01 -9.283743798732757568e-02 -1.169783715158700943e-02 -3.136058151721954346e-02 -6.251556426286697388e-02
1.180000000000000000e+03 2.292805099487304688e+01 3.438421249389648438e+01 -1.265848148614168167e-02 -9.579453617334365845e-03 -6.671380717307329178e-03 -6.456051487475633621e-03
1.181000000000000000e+03 2.415817832946777344e+01 3.131688880920410156e+01 -5.510198324918746948e-02 -6.577935814857482910e-02 -3.626440092921257019e-02 -8.795865625143051147e-02
1.182000000000000000e+03 2.760956192016601562e+01 3.341279220581054688e+01 -1.439549028873443604e-01 -1.299505936913192272e-03 -4.357632249593734741e-02 -7.986655831336975098e-02
1.183000000000000000e+03 2.904098701477050781e+01 3.322344207763671875e+01 -2.083266973495483398e-01 9.295830503106117249e-03 -5.970926210284233093e-02 -9.703018516302108765e-02
1.184000000000000000e+03 2.976705169677734375e+01 3.311669921875000000e+01 -2.466832250356674194e-01 1.482297014445066452e-02 -6.955807656049728394e-02 -1.046433448791503906e-01
1.185000000000000000e+03 2.832173156738281250e+01 3.332401275634765625e+01 -1.739401966333389282e-01 3.402084344998002052e-03 -5.116143450140953064e-02 -8.862559497356414795e-02
1.186000000000000000e+03 5.066243743896484375e+01 3.642845535278320312e+01 1.104327589273452759e-01 -1.752978749573230743e-02 2.787089161574840546e-02 3.433592319488525391e-01
1.187000000000000000e+03 5.074574661254882812e+01 3.496371841430664062e+01 -4.451607763767242432e-01 -8.935981988906860352e-02 -1.603561788797378540e-01 4.665932059288024902e-01
1.188000000000000000e+03 5.138600921630859375e+01 3.572626876831054688e+01 -4.519906267523765564e-02 6.844497472047805786e-02 6.973774172365665436e-03 3.444870412349700928e-01
1.189000000000000000e+03 5.215992355346679688e+01 3.477167129516601562e+01 -4.637301266193389893e-01 -2.869186922907829285e-02 -1.477265954017639160e-01 3.873463273048400879e-01
1.190000000000000000e+03 5.291963958740234375e+01 3.459400177001953125e+01 -4.739761352539062500e-01 1.241700127720832825e-01 -1.049418374896049500e-01 2.956763505935668945e-01
1.191000000000000000e+03 5.402429962158203125e+01 3.339199066162109375e+01 -1.169673681259155273e+00 6.342566013336181641e-02 -3.318744003772735596e-01 3.252569139003753662e-01
1.192000000000000000e+03 5.545194625854492188e+01 3.372287368774414062e+01 -4.195501506328582764e-01 4.436036348342895508e-01 7.216052152216434479e-03 -2.467890679836273193e-01
1.193000000000000000e+03 5.425016403198242188e+01 3.406050872802734375e+01 -5.601415038108825684e-01 3.380756378173828125e-01 -6.661976128816604614e-02 1.402190029621124268e-01
1.194000000000000000e+03 4.667493438720703125e+01 3.449499511718750000e+01 -5.992611050605773926e-01 -1.259038597345352173e-01 -2.175494879484176636e-01 4.200613498687744141e-01
1.195000000000000000e+03 4.918556213378906250e+01 3.550017547607421875e+01 -3.044516146183013916e-01 -7.975793629884719849e-02 -1.152628660202026367e-01 4.844962060451507568e-01
1.196000000000000000e+03 3.269102859497070312e+01 3.263437652587890625e+01 -4.379580020904541016e-01 3.644786775112152100e-02 -1.204530447721481323e-01 -1.278301775455474854e-01
1.197000000000000000e+03 3.130512619018554688e+01 3.361071777343750000e+01 -3.192634284496307373e-01 2.304414287209510803e-02 -8.886578679084777832e-02 -7.234624028205871582e-02
1.198000000000000000e+03 3.122630119323730469e+01 3.288687896728515625e+01 -3.348186016082763672e-01 2.619075588881969452e-02 -9.258835762739181519e-02 -1.180231124162673950e-01
1.199000000000000000e+03 3.049622154235839844e+01 3.300463485717773438e+01 -2.887365221977233887e-01 2.069365046918392181e-02 -8.041286468505859375e-02 -1.116929799318313599e-01
1.200000000000000000e+03 4.494702529907226562e+01 3.583422088623046875e+01 -2.110436558723449707e-01 -1.759552657604217529e-01 -1.160996779799461365e-01 3.768506944179534912e-01
1.201000000000000000e+03 4.555012893676757812e+01 3.545809555053710938e+01 -2.863902449607849121e-01 -1.806522160768508911e-01 -1.401127427816390991e-01 3.868624866008758545e-01
1.202000000000000000e+03 1.174548912048339844e+01 -2.695596694946289062e+00 -9.183420334011316299e-04 6.187451072037220001e-05 -2.569402568042278290e-04 1.649281184654682875e-04
1.203000000000000000e+03 1.020768642425537109e+01 -3.518955230712890625e+00 8.038412779569625854e-04 3.219447098672389984e-04 3.377357788849622011e-04 -4.982502432540059090e-04
1.204000000000000000e+03 1.101919937133789062e+01 -2.697597265243530273e+00 8.048951276578009129e-04 1.208495013997890055e-04 2.777233894448727369e-04 -3.743667621165513992e-04
1.205000000000000000e+03 4.316016006469726562e+01 3.715549087524414062e+01 -3.819440305233001709e-02 -1.994243413209915161e-01 -7.128562033176422119e-02 2.688987255096435547e-01
1.206000000000000000e+03 4.186180114746093750e+01 3.838176727294921875e+01 7.919140160083770752e-02 -2.221477925777435303e-01 -4.288691654801368713e-02 1.960133463144302368e-01
1.207000000000000000e+03 3.332657623291015625e+01 3.710835266113281250e+01 -5.368702579289674759e-03 -1.048901397734880447e-02 -4.757314920425415039e-03 1.216323208063840866e-02
1.208000000000000000e+03 3.719087219238281250e+01 3.649851608276367188e+01 -4.642109572887420654e-02 -4.984934628009796143e-02 -2.888113260269165039e-02 6.494131684303283691e-02
1.209000000000000000e+03 3.641431808471679688e+01 3.941502380371093750e+01 2.127172425389289856e-02 -9.749774634838104248e-02 -2.286780625581741333e-02 3.528911620378494263e-02
1.210000000000000000e+03 3.831064224243164062e+01 3.728303909301757812e+01 -3.807806223630905151e-02 -9.197288006544113159e-02 -3.901528194546699524e-02 1.123582869768142700e-01
1.211000000000000000e+03 3.864946365356445312e+01 3.608503723144531250e+01 -8.330506086349487305e-02 -6.366593390703201294e-02 -4.409129917621612549e-02 9.890230000019073486e-02
1.212000000000000000e+03 3.775408172607421875e+01 3.096754837036132812e+01 -8.510265946388244629e-01 7.159159332513809204e-02 -2.338304966688156128e-01 -2.086823433637619019e-01
1.213000000000000000e+03 3.783835601806640625e+01 3.164561843872070312e+01 -8.947531580924987793e-01 5.877099186182022095e-02 -2.507946491241455078e-01 -1.360113918781280518e-01
1.214000000000000000e+03 3.865466690063476562e+01 3.218347167968750000e+01 -1.014334797859191895e+00 4.201123490929603577e-02 -2.916970849037170410e-01 -5.017994716763496399e-02
1.215000000000000000e+03 4.005979537963867188e+01 3.122087287902832031e+01 -1.126976728439331055e+00 6.411682814359664917e-02 -3.188579678535461426e-01 -1.303293257951736450e-01
1.216000000000000000e+03 3.791579818725585938e+01 3.232397079467773438e+01 -9.290652275085449219e-01 3.945111110806465149e-02 -2.668842375278472900e-01 -5.705889314413070679e-02
1.217000000000000000e+03 3.857929611206054688e+01 3.150412559509277344e+01 -9.702240228652954102e-01 6.069374829530715942e-02 -2.728590965270996094e-01 -1.342965513467788696e-01
1.218000000000000000e+03 3.489115142822265625e+01 3.222313690185546875e+01 -6.172251105308532715e-01 4.823198914527893066e-02 -1.706979274749755859e-01 -1.366447657346725464e-01
1.219000000000000000e+03 3.342375564575195312e+01 3.250119018554687500e+01 -4.944408237934112549e-01 4.116943478584289551e-02 -1.359814256429672241e-01 -1.313718557357788086e-01
1.220000000000000000e+03 3.415696716308593750e+01 3.236416244506835938e+01 -5.547931194305419922e-01 4.476371780037879944e-02 -1.530088335275650024e-01 -1.344831138849258423e-01
1.221000000000000000e+03 4.013190460205078125e+01 3.190063858032226562e+01 -1.192385315895080566e+00 4.386730492115020752e-02 -3.445554077625274658e-01 -3.799017146229743958e-02
1.222000000000000000e+03 4.080027008056640625e+01 3.107668304443359375e+01 -1.204952836036682129e+00 6.390623748302459717e-02 -3.423139750957489014e-01 -1.280765235424041748e-01
1.223000000000000000e+03 4.302981948852539062e+01 3.064483070373535156e+01 -1.440230131149291992e+00 5.728002637624740601e-02 -4.148850440979003906e-01 -1.173402369022369385e-01
1.224000000000000000e+03 1.246903419494628906e+01 2.306706905364990234e+00 3.527758599375374615e-05 2.352623414481058717e-05 1.764114676916506141e-05 -2.620353552629239857e-05
1.225000000000000000e+03 1.040606403350830078e+01 2.575588941574096680e+00 -8.713839633855968714e-05 -8.308287533509428613e-07 -2.639076774357818067e-05 2.773532287392299622e-06
1.226000000000000000e+03 1.337551307678222656e+01 2.527580499649047852e+00 4.865136725129559636e-05 4.411498593981377780e-05 2.782990668492857367e-05 6.746412691427394748e-05
1.227000000000000000e+03 4.377808380126953125e+01 3.050682067871093750e+01 -1.516582131385803223e+00 5.670564994215965271e-02 -4.379629492759704590e-01 -1.121064126491546631e-01
1.228000000000000000e+03 4.607326889038085938e+01 3.079515266418457031e+01 -1.946924805641174316e+00 2.559960074722766876e-02 -5.763975381851196289e-01 1.374422758817672729e-02
1.229000000000000000e+03 4.458105468750000000e+01 3.105646514892578125e+01 -1.761213302612304688e+00 3.012518212199211121e-02 -5.193264484405517578e-01 1.035302528180181980e-03
1.230000000000000000e+03 4.228358840942382812e+01 3.078672599792480469e+01 -1.361824512481689453e+00 6.034963950514793396e-02 -3.904424607753753662e-01 -1.222270056605339050e-01
1.231000000000000000e+03 3.027179336547851562e+01 3.858838272094726562e+01 -1.315950998105108738e-03 -9.024991653859615326e-03 -3.102282993495464325e-03 3.441539360210299492e-03
1.232000000000000000e+03 4.677763366699218750e+01 2.998811149597167969e+01 -1.784418463706970215e+00 4.398302733898162842e-02 -5.221306085586547852e-01 -8.573508262634277344e-02
1.233000000000000000e+03 4.904647445678710938e+01 2.965028572082519531e+01 -1.902467012405395508e+00 2.806902304291725159e-02 -5.623193979263305664e-01 -3.971497714519500732e-02
1.234000000000000000e+03 4.527334213256835938e+01 3.023974990844726562e+01 -1.660809159278869629e+00 5.246630683541297913e-02 -4.825028777122497559e-01 -9.998235851526260376e-02
1.235000000000000000e+03 5.356539535522460938e+01 2.920862388610839844e+01 -1.590736627578735352e+00 5.298642441630363464e-02 -4.613250792026519775e-01 2.597652375698089600e-01
1.236000000000000000e+03 5.056656265258789062e+01 2.946838569641113281e+01 -1.912848114967346191e+00 2.656425908207893372e-02 -5.658851265907287598e-01 1.470880210399627686e-02
1.237000000000000000e+03 5.209103012084960938e+01 2.993974113464355469e+01 -2.347980022430419922e+00 2.065915468847379088e-04 -7.043320536613464355e-01 1.080398038029670715e-01
1.238000000000000000e+03 4.980728149414062500e+01 2.955505561828613281e+01 -1.917010188102722168e+00 2.843235805630683899e-02 -5.665733218193054199e-01 -1.596530899405479431e-02
1.239000000000000000e+03 3.032405281066894531e+01 3.956830215454101562e+01 -2.102840458974242210e-03 -1.490229833871126175e-02 -5.101541522890329361e-03 5.263236351311206818e-03
1.240000000000000000e+03 2.982143783569335938e+01 3.774104690551757812e+01 4.128516186028718948e-03 -4.636027384549379349e-03 -1.522533275419846177e-04 -1.730920397676527500e-03
1.241000000000000000e+03 3.051820373535156250e+01 3.753063583374023438e+01 1.704703434370458126e-03 -3.201315412297844887e-03 -4.489835700951516628e-04 3.176386933773756027e-03
1.242000000000000000e+03 8.056342124938964844e+00 -1.871336817741394043e+00 -3.753242199309170246e-04 -4.366999783087521791e-04 -2.436072536511346698e-04 2.066446031676605344e-04
1.243000000000000000e+03 9.530313491821289062e+00 -2.666205644607543945e+00 5.850621964782476425e-04 3.575352602638304234e-04 2.827792195603251457e-04 -4.227449826430529356e-04
1.244000000000000000e+03 7.275907039642333984e+00 -2.604451417922973633e+00 -3.862803860101848841e-04 -4.690782807301729918e-04 -2.566076000221073627e-04 7.555802585557103157e-05
1.245000000000000000e+03 8.027169227600097656e+00 -2.620066404342651367e+00 4.142200341448187828e-04 4.811689141206443310e-04 2.686166844796389341e-04 -2.406144631095230579e-04
1.246000000000000000e+03 8.778971672058105469e+00 -2.642594814300537109e+00 -4.864275979343801737e-04 -4.444652295205742121e-04 -2.792678424157202244e-04 3.652310697361826897e-04
1.247000000000000000e+03 6.532930374145507812e+00 -1.861953258514404297e+00 -3.050131490454077721e-04 -4.389610257931053638e-04 -2.231922553619369864e-04 -1.873901601356919855e-05
1.248000000000000000e+03 6.532888412475585938e+00 -2.594933986663818359e+00 4.108527791686356068e-04 4.077703633811324835e-04 2.455869398545473814e-04 3.580457268981263041e-05
1.249000000000000000e+03 5.080121994018554688e+00 -2.609080791473388672e+00 2.274652360938489437e-04 3.387651231605559587e-04 1.698691048659384251e-04 6.159823533380404115e-05
1.250000000000000000e+03 1.569808363914489746e+00 -7.809158325195312500e+00 1.829826505854725838e-03 1.872014036052860320e-05 5.545640015043318272e-04 5.301478449837304652e-05
1.251000000000000000e+03 3.845295906066894531e+00 -3.550553083419799805e+00 -1.003894503810442984e-04 -3.046684432774782181e-04 -1.215173688251525164e-04 -6.026177434250712395e-04
1.252000000000000000e+03 4.530108273029327393e-01 -3.613369703292846680e+00 1.442636246792972088e-03 -3.706877760123461485e-05 4.216702363919466734e-04 -9.505342859483789653e-06
1.253000000000000000e+03 4.033532440662384033e-01 -2.202590942382812500e+00 -1.329026650637388229e-03 -1.305989371758187190e-05 -4.026259703096002340e-04 -1.874721601780038327e-05
1.254000000000000000e+03 4.896223545074462891e-01 -5.032386779785156250e+00 -1.545115141198039055e-03 -7.273525261553004384e-05 -4.853551217820495367e-04 1.887295411506784149e-06
1.255000000000000000e+03 2.608122253417968750e+01 3.848369598388671875e+01 -1.994867809116840363e-03 2.001984044909477234e-03 2.134919668606016785e-06 -1.145708607509732246e-03
1.256000000000000000e+03 2.676396751403808594e+01 3.814470672607421875e+01 3.357563866302371025e-03 9.248156566172838211e-04 1.284713856875896454e-03 -3.917098045349121094e-03
1.257000000000000000e+03 2.840293121337890625e+01 3.898716735839843750e+01 -1.172044430859386921e-03 3.450218820944428444e-03 6.834522937424480915e-04 -3.722436958923935890e-03
1.258000000000000000e+03 2.937753105163574219e+01 3.889027023315429688e+01 2.526399446651339531e-03 -5.823788233101367950e-03 -9.892166126519441605e-04 -4.328497219830751419e-03
1.259000000000000000e+03 2.465684890747070312e+01 4.115946197509765625e+01 -1.017717458307743073e-02 2.588828327134251595e-03 -2.276503946632146835e-03 -3.195048702764324844e-05
1.260000000000000000e+03 2.403773307800292969e+01 3.993038940429687500e+01 1.057925401255488396e-03 -1.681878813542425632e-03 -1.871860149549320340e-04 7.563604740425944328e-04
1.261000000000000000e+03 2.527083778381347656e+01 4.003319549560546875e+01 -1.806747517548501492e-03 1.687227282673120499e-03 -3.585609374567866325e-05 -3.730862634256482124e-03
1.262000000000000000e+03 2.205337333679199219e+01 3.328927230834960938e+01 -9.161655791103839874e-03 -1.432335563004016876e-02 -7.045503240078687668e-03 -9.659694507718086243e-03
1.263000000000000000e+03 2.544293975830078125e+01 3.272080993652343750e+01 -8.411484211683273315e-02 -2.867061458528041840e-02 -3.383563831448554993e-02 -7.700461149215698242e-02
1.264000000000000000e+03 2.060625648498535156e+01 3.400166320800781250e+01 -5.851897294633090496e-04 1.098608504980802536e-02 3.120268695056438446e-03 -9.354070643894374371e-04
1.265000000000000000e+03 2.098100852966308594e+01 3.231647109985351562e+01 -2.420675707980990410e-03 -3.222073661163449287e-03 -1.692824764177203178e-03 -6.503437180072069168e-03
1.266000000000000000e+03 1.982978439331054688e+01 3.892225646972656250e+01 3.520754398778080940e-04 5.250304820947349072e-04 2.631317765917629004e-04 -1.825495040975511074e-03
1.267000000000000000e+03 2.343079376220703125e+01 -4.125661849975585938e+01 3.127741217613220215e-01 -1.478575944900512695e+00 -3.497405350208282471e-01 5.663441494107246399e-02
1.268000000000000000e+03 1.322727203369140625e+01 -3.701529693603515625e+01 1.040348336100578308e-01 -2.638481371104717255e-02 2.329500578343868256e-02 -5.616277828812599182e-02
1.269000000000000000e+03 1.781757164001464844e+01 -4.131301879882812500e+01 1.012827903032302856e-01 -8.366274833679199219e-01 -2.206034064292907715e-01 -1.858758032321929932e-01
1.270000000000000000e+03 1.241044521331787109e+01 2.574685668945312500e+01 4.855781444348394871e-04 1.804788043955340981e-04 1.998170919250696898e-04 1.125311391660943627e-04
1.271000000000000000e+03 1.306904029846191406e+01 3.206500244140625000e+01 2.290692500537261367e-04 -3.359793045092374086e-04 -3.207301051588729024e-05 5.009001470170915127e-04
1.272000000000000000e+03 1.362507438659667969e+01 3.091467666625976562e+01 -8.477175142616033554e-04 4.422514393809251487e-05 -2.410477172816172242e-04 -2.533746301196515560e-04
1.273000000000000000e+03 1.374619579315185547e+01 2.701596641540527344e+01 7.368861115537583828e-04 6.434130773413926363e-05 2.403682156000286341e-04 1.817091397242620587e-04
1.274000000000000000e+03 1.673602676391601562e+01 3.527999496459960938e+01 -1.321649877354502678e-03 -1.572231558384373784e-04 -4.436619055923074484e-04 3.709989250637590885e-04
1.275000000000000000e+03 1.700584411621093750e+01 3.764795684814453125e+01 -2.478279639035463333e-03 4.086230474058538675e-04 -6.208969280123710632e-04 -4.999562515877187252e-04
1.276000000000000000e+03 1.494909095764160156e+01 3.442453002929687500e+01 -1.016690395772457123e-03 1.182456544484011829e-04 -2.695334260351955891e-04 3.296953800600022078e-04
1.277000000000000000e+03 1.446147537231445312e+01 1.881747627258300781e+01 -4.792071413248777390e-04 2.858973630281980149e-06 -1.429044496035203338e-04 4.041532520204782486e-05
1.278000000000000000e+03 1.318008518218994141e+01 1.896640014648437500e+01 4.706048057414591312e-04 -1.876017631730064750e-05 1.355533895548433065e-04 -4.909872950520366430e-05
1.279000000000000000e+03 1.475185298919677734e+01 2.432417869567871094e+01 -7.009733817540109158e-04 -1.388490545650711283e-05 -2.144574973499402404e-04 -4.617876925294694956e-07
1.280000000000000000e+03 1.380261230468750000e+01 2.831618118286132812e+01 -8.097976678982377052e-04 -4.839681059820577502e-05 -2.574583340901881456e-04 -2.211876708315685391e-04
1.281000000000000000e+03 1.307629776000976562e+01 1.756606674194335938e+01 -4.556910716928541660e-04 4.184431236353702843e-05 -1.241540303453803062e-04 3.539410681696608663e-05
1.282000000000000000e+03 1.336258316040039062e+01 1.178389453887939453e+01 -2.830625162459909916e-04 -1.026905920298304409e-05 -8.799946954241022468e-05 -5.628845974570140243e-05
1.283000000000000000e+03 1.294302177429199219e+01 1.460753250122070312e+01 -3.769638133235275745e-04 7.243289019243093207e-06 -1.109161603380925953e-04 -5.123040682519786060e-05
1.284000000000000000e+03 1.462411117553710938e+01 5.020308017730712891e+00 -1.502819941379129887e-04 -7.050843123579397798e-06 -4.719985372503288090e-05 2.223651972599327564e-05
1.285000000000000000e+03 1.185324287414550781e+01 2.410660028457641602e+00 -5.779955972684547305e-05 -9.083400982490275055e-06 -2.006488830375019461e-05 2.896584010159131140e-05
1.286000000000000000e+03 1.052301120758056641e+01 4.093115329742431641e+00 -1.465639506932348013e-04 2.350755949009908363e-06 -4.326396083342842758e-05 -3.864086102112196386e-05
1.287000000000000000e+03 1.358337783813476562e+01 7.800457477569580078e+00 1.912467851070687175e-04 1.240508663613582030e-05 6.109556125011295080e-05 1.470050938223721460e-05
1.288000000000000000e+03 1.320129871368408203e+01 1.315524578094482422e+01 3.297655202914029360e-04 -1.034455817716661841e-05 9.582628263160586357e-05 6.853698141640052199e-05
1.289000000000000000e+03 7.933340454101562500e+01 -2.779758644104003906e+01 -3.396304091438651085e-03 8.898434638977050781e+00 2.668511390686035156e+00 -4.238458815962076187e-03
1.290000000000000000e+03 7.727195739746093750e+01 -3.784596252441406250e+01 -2.150185965001583099e-02 8.511366844177246094e+00 2.546959638595581055e+00 5.183860287070274353e-02
1.291000000000000000e+03 7.932189178466796875e+01 -3.473360824584960938e+01 -1.535419560968875885e-02 8.863691329956054688e+00 2.654501199722290039e+00 8.287759497761726379e-03
1.292000000000000000e+03 7.799881744384765625e+01 3.240763092041015625e+01 1.157828271389007568e-01 5.086200714111328125e+00 1.560595035552978516e+00 8.191126398742198944e-03
1.293000000000000000e+03 7.936376190185546875e+01 3.608122634887695312e+01 9.346868097782135010e-02 4.613813877105712891e+00 1.412184715270996094e+00 1.264582574367523193e-01
1.294000000000000000e+03 7.932158660888671875e+01 -2.084916877746582031e+01 2.351543807890266180e-04 8.928699493408203125e+00 2.678680419921875000e+00 -6.638268008828163147e-03
1.295000000000000000e+03 7.797811126708984375e+01 -2.629954910278320312e+01 -4.320072475820779800e-03 8.655542373657226562e+00 2.595366716384887695e+00 -1.277599134482443333e-03
1.296000000000000000e+03 7.930167388916015625e+01 -3.058111381530761719e+01 -5.967681296169757843e-03 8.891604423522949219e+00 2.665691137313842773e+00 -3.469167044386267662e-03
1.297000000000000000e+03 7.794036865234375000e+01 -3.460235214233398438e+01 -9.741510264575481415e-03 8.623032569885253906e+00 2.583987236022949219e+00 1.101068127900362015e-02
1.298000000000000000e+03 7.780171966552734375e+01 -3.322771835327148438e+01 -7.019830867648124695e-03 8.611042022705078125e+00 2.581206560134887695e+00 1.541301328688859940e-02
1.299000000000000000e+03 7.497502899169921875e+01 -3.742255020141601562e+01 -1.563515700399875641e-02 8.134721755981445312e+00 2.435725927352905273e+00 -6.636706739664077759e-02
1.300000000000000000e+03 7.634668731689453125e+01 -3.894554138183593750e+01 -6.515430752187967300e-03 8.465350151062011719e+00 2.537650346755981445e+00 7.139610592275857925e-03
1.301000000000000000e+03 7.823791503906250000e+01 1.407505893707275391e+01 -3.049672767519950867e-02 8.027493476867675781e+00 2.399099111557006836e+00 -2.903569638729095459e-01
1.302000000000000000e+03 7.941334533691406250e+01 1.537646007537841797e+01 -5.826131440699100494e-03 7.905543327331542969e+00 2.369915246963500977e+00 -1.358310282230377197e-01
1.303000000000000000e+03 7.825320434570312500e+01 2.104788017272949219e+01 -1.289839018136262894e-02 6.747477531433105469e+00 2.020373582839965820e+00 -4.910185039043426514e-01
1.304000000000000000e+03 7.941770935058593750e+01 2.234313964843750000e+01 -5.135150277055799961e-04 6.153604984283447266e+00 1.845927476882934570e+00 -1.929889470338821411e-01
1.305000000000000000e+03 7.801958465576171875e+01 3.092799186706542969e+01 6.981608271598815918e-02 5.071443557739257812e+00 1.542377829551696777e+00 -1.305004507303237915e-01
1.306000000000000000e+03 7.937598419189453125e+01 2.792693138122558594e+01 9.609618224203586578e-03 4.676049709320068359e+00 1.405697822570800781e+00 -1.296873688697814941e-01
1.307000000000000000e+03 7.823577880859375000e+01 2.519953155517578125e+01 3.565115481615066528e-02 5.801349639892578125e+00 1.751100182533264160e+00 -4.699563384056091309e-01
1.308000000000000000e+03 7.825037384033203125e+01 2.381366348266601562e+01 1.455069333314895630e-02 6.106332778930664062e+00 1.836265087127685547e+00 -4.985439181327819824e-01
1.309000000000000000e+03 7.704647064208984375e+01 1.553758525848388672e+01 -8.021532744169235229e-02 7.807032108306884766e+00 2.318045139312744141e+00 -4.985238909721374512e-01
1.310000000000000000e+03 7.823604583740234375e+01 1.546601963043212891e+01 -3.320173174142837524e-02 7.830656051635742188e+00 2.339236259460449219e+00 -3.358029425144195557e-01
1.311000000000000000e+03 7.823744201660156250e+01 1.685799789428710938e+01 -3.112373501062393188e-02 7.603550910949707031e+00 2.271728277206420898e+00 -3.823041319847106934e-01
1.312000000000000000e+03 7.707916259765625000e+01 1.135611915588378906e+01 -6.559182703495025635e-02 8.202289581298828125e+00 2.441009283065795898e+00 -3.037124574184417725e-01
1.313000000000000000e+03 7.824744415283203125e+01 8.513493537902832031e+00 -1.906090974807739258e-02 8.546790122985839844e+00 2.558318853378295898e+00 -1.425179839134216309e-01
1.314000000000000000e+03 7.941634368896484375e+01 9.805068969726562500e+00 -3.918020054697990417e-03 8.648361206054687500e+00 2.593333005905151367e+00 -7.761776447296142578e-02
1.315000000000000000e+03 7.932815551757812500e+01 -1.944957160949707031e+01 -2.266998635604977608e-04 8.938074111938476562e+00 2.681354284286499023e+00 -6.683943327516317368e-03
1.316000000000000000e+03 7.935149383544921875e+01 -1.385511207580566406e+01 -1.524616614915430546e-03 8.980722427368164062e+00 2.693759202957153320e+00 -9.392183274030685425e-03
1.317000000000000000e+03 7.936466217041015625e+01 -6.889923572540283203e+00 2.172441163565963507e-04 9.030313491821289062e+00 2.709159135818481445e+00 -1.588087528944015503e-02
1.318000000000000000e+03 7.811818695068359375e+01 1.843287199735641479e-01 -6.613274104893207550e-03 8.774463653564453125e+00 2.630354881286621094e+00 -3.856272995471954346e-02
1.319000000000000000e+03 7.938159179687500000e+01 1.451211333274841309e+00 -7.352625834755599499e-04 9.012439727783203125e+00 2.703511238098144531e+00 -3.159957379102706909e-02
1.320000000000000000e+03 7.808405303955078125e+01 2.945977592468261719e+01 9.763376414775848389e-02 5.165707111358642578e+00 1.579002261161804199e+00 -2.402255237102508545e-01
1.321000000000000000e+03 7.861947631835937500e+01 4.033079528808593750e+01 1.178484931588172913e-01 5.318009376525878906e+00 1.630757331848144531e+00 3.090936541557312012e-01
1.322000000000000000e+03 7.577081298828125000e+01 3.562020492553710938e+01 1.672137081623077393e-01 6.189303398132324219e+00 1.906955122947692871e+00 3.356832265853881836e-01
1.323000000000000000e+03 7.824974060058593750e+01 9.899412155151367188e+00 -2.365506067872047424e-02 8.453531265258789062e+00 2.528962850570678711e+00 -1.721490174531936646e-01
1.324000000000000000e+03 7.816407012939453125e+01 2.955230951309204102e+00 -1.013955380767583847e-02 8.743221282958984375e+00 2.619924306869506836e+00 -6.201722845435142517e-02
1.325000000000000000e+03 7.680797576904296875e+01 -1.069600462913513184e+00 -1.484518218785524368e-02 8.530265808105468750e+00 2.554625988006591797e+00 -3.653555363416671753e-02
1.326000000000000000e+03 7.936557769775390625e+01 -2.718813896179199219e+00 -1.595741021446883678e-03 9.039265632629394531e+00 2.711301088333129883e+00 -2.138998173177242279e-02
1.327000000000000000e+03 7.809177398681640625e+01 -6.737853527069091797e+00 -3.664601594209671021e-03 8.777998924255371094e+00 2.632300376892089844e+00 -9.660590440034866333e-03
1.328000000000000000e+03 7.808707427978515625e+01 -5.356276512145996094e+00 -2.419741591438651085e-03 8.782044410705566406e+00 2.633887290954589844e+00 -1.367941871285438538e-02
1.329000000000000000e+03 7.936210632324218750e+01 -9.672316551208496094e+00 4.014435689896345139e-04 9.014194488525390625e+00 2.704378604888916016e+00 -1.250767335295677185e-02
1.330000000000000000e+03 7.804437255859375000e+01 -1.369467353820800781e+01 7.027765386737883091e-04 8.731782913208007812e+00 2.619745492935180664e+00 1.824378123274073005e-04
1.331000000000000000e+03 7.805744934082031250e+01 -1.230152511596679688e+01 -1.915405155159533024e-03 8.743101119995117188e+00 2.622355699539184570e+00 -9.584899817127734423e-05
1.332000000000000000e+03 7.934322357177734375e+01 -1.664528656005859375e+01 -1.146012335084378719e-03 8.959489822387695312e+00 2.687503099441528320e+00 -8.356621488928794861e-03
1.333000000000000000e+03 7.798303985595703125e+01 -1.933226013183593750e+01 -4.400956677272915840e-04 8.684217453002929688e+00 2.605133295059204102e+00 2.491613151505589485e-03
1.334000000000000000e+03 1.303579330444335938e+01 -3.020096397399902344e+01 1.260269246995449066e-02 3.047890262678265572e-03 4.695174749940633774e-03 -4.766673315316438675e-03
1.335000000000000000e+03 2.220774078369140625e+01 1.488146901130676270e+00 1.670566573739051819e-02 -1.769758343696594238e+00 -5.259158015251159668e-01 -1.301737576723098755e-01
1.336000000000000000e+03 2.359274864196777344e+01 1.540808916091918945e+00 -1.606579462531954050e-04 -1.509239196777343750e+00 -4.528199434280395508e-01 -1.605611890554428101e-01
1.337000000000000000e+03 2.018676948547363281e+01 -1.395044136047363281e+01 -5.357850715517997742e-02 -2.430293560028076172e+00 -7.451616525650024414e-01 -1.383493691682815552e-01
1.338000000000000000e+03 1.373934650421142578e+01 -3.855094528198242188e+01 8.399923890829086304e-02 -1.638451404869556427e-02 2.028441615402698517e-02 7.648852467536926270e-02
1.339000000000000000e+03 1.986104774475097656e+01 -1.814372062683105469e+01 1.439371611922979355e-02 -2.110477924346923828e+00 -6.288252472877502441e-01 -1.329619288444519043e-01
1.340000000000000000e+03 1.127540397644042969e+01 -3.274898910522460938e+01 1.726381364278495312e-03 -4.107131622731685638e-03 -7.142250542528927326e-04 -3.769745351746678352e-03
1.341000000000000000e+03 2.040629768371582031e+01 -5.530189037322998047e+00 2.454380132257938385e-02 -2.013782739639282227e+00 -5.967716574668884277e-01 -9.176486730575561523e-02
1.342000000000000000e+03 2.216634559631347656e+01 7.384701073169708252e-02 2.215927653014659882e-02 -1.796080827713012695e+00 -5.321764349937438965e-01 -1.602127104997634888e-01
1.343000000000000000e+03 2.169403839111328125e+01 -8.353425025939941406e+00 -9.794704616069793701e-03 -1.936244726181030273e+00 -5.838118195533752441e-01 -1.136378794908523560e-01
1.344000000000000000e+03 2.133144187927246094e+01 -1.952750968933105469e+01 3.580535948276519775e-02 -1.958148598670959473e+00 -5.767029523849487305e-01 -1.129549294710159302e-01
1.345000000000000000e+03 2.180967330932617188e+01 -5.572575092315673828e+00 4.169009253382682800e-02 -1.876822590827941895e+00 -5.505397319793701172e-01 -1.156594380736351013e-01
1.346000000000000000e+03 2.142253875732421875e+01 -3.352236557006835938e+01 -1.498133838176727295e-01 -2.016426563262939453e+00 -6.498720049858093262e-01 -1.798274219036102295e-01
1.347000000000000000e+03 2.147805976867675781e+01 -1.535776424407958984e+01 -3.204374387860298157e-02 -2.003507614135742188e+00 -6.106653809547424316e-01 -8.284155279397964478e-02
1.348000000000000000e+03 2.153778457641601562e+01 -1.395580482482910156e+01 -6.202927231788635254e-02 -1.987811326980590820e+00 -6.149522066116333008e-01 -1.155845448374748230e-01
1.349000000000000000e+03 2.190797615051269531e+01 -4.172770023345947266e+00 2.491960674524307251e-02 -1.852775692939758301e+00 -5.483568310737609863e-01 -9.785547107458114624e-02
1.350000000000000000e+03 2.230347824096679688e+01 7.208577156066894531e+00 -9.020186960697174072e-03 -1.595569968223571777e+00 -4.813770353794097900e-01 -1.398636996746063232e-01
1.351000000000000000e+03 2.456366539001464844e+01 -2.223911094665527344e+01 2.905465476214885712e-02 -1.383193135261535645e+00 -4.062415361404418945e-01 -7.745776325464248657e-02
1.352000000000000000e+03 1.197558307647705078e+01 -2.745793151855468750e+01 -7.073195651173591614e-03 -1.160140032880008221e-03 -2.470000647008419037e-03 2.631091745570302010e-03
1.353000000000000000e+03 2.224629020690917969e+01 2.917341709136962891e+00 -3.776052966713905334e-02 -1.734025835990905762e+00 -5.315359234809875488e-01 -1.320324987173080444e-01
1.354000000000000000e+03 1.449361419677734375e+01 -2.483452415466308594e+01 -9.072951041162014008e-03 -1.259941258467733860e-03 -3.099867608398199081e-03 -5.424076516646891832e-05
1.355000000000000000e+03 1.208423900604248047e+01 -2.499604415893554688e+01 -5.459981504827737808e-03 -1.845383434556424618e-03 -2.191609470173716545e-03 2.156172180548310280e-03
1.356000000000000000e+03 2.131615257263183594e+01 -2.665760993957519531e+01 6.321888417005538940e-03 -1.989944219589233398e+00 -5.950866937637329102e-01 -5.120089650154113770e-02
1.357000000000000000e+03 2.098477363586425781e+01 2.682019805908203125e+01 -2.762835705652832985e-03 -2.124913334846496582e-01 -6.457625329494476318e-02 -3.341269865632057190e-02
1.358000000000000000e+03 2.544693756103515625e+01 3.354744338989257812e+01 -7.133177667856216431e-02 -1.778201945126056671e-02 -2.673413977026939392e-02 -5.343748256564140320e-02
1.359000000000000000e+03 2.105933380126953125e+01 1.137107276916503906e+01 1.343187876045703888e-03 -1.483473777770996094e+00 -4.446392059326171875e-01 -4.413634538650512695e-02
1.360000000000000000e+03 2.097305297851562500e+01 3.098600959777832031e+01 -2.585575683042407036e-03 -2.859413437545299530e-02 -9.353913366794586182e-03 -1.318307686597108841e-02
1.361000000000000000e+03 1.482952213287353516e+01 -2.153754711151123047e+00 -3.157885221298784018e-04 -2.636491553857922554e-04 -1.738313003443181515e-04 1.187039597425609827e-04
1.362000000000000000e+03 2.165619850158691406e+01 -9.750639915466308594e+00 -2.302224561572074890e-02 -1.954775810241699219e+00 -5.933394432067871094e-01 -9.305471181869506836e-02
1.363000000000000000e+03 2.174152946472167969e+01 -6.962195873260498047e+00 2.693163417279720306e-02 -1.896254777908325195e+00 -5.607969164848327637e-01 -1.171623691916465759e-01
1.364000000000000000e+03 2.230789375305175781e+01 1.003771400451660156e+01 2.555264160037040710e-03 -1.408887147903442383e+00 -4.218995571136474609e-01 -1.325790137052536011e-01
1.365000000000000000e+03 2.347900390625000000e+01 1.716584396362304688e+01 5.974468775093555450e-03 -8.121923804283142090e-01 -2.418653666973114014e-01 -2.366504222154617310e-01
1.366000000000000000e+03 2.101512908935546875e+01 2.261907577514648438e+01 -7.298755226656794548e-04 -5.256982445716857910e-01 -1.579284369945526123e-01 -4.654232412576675415e-02
1.367000000000000000e+03 2.322201919555664062e+01 2.550677108764648438e+01 -2.109226025640964508e-02 -2.987931370735168457e-01 -9.596561640501022339e-02 -1.765271723270416260e-01
1.368000000000000000e+03 2.103509521484375000e+01 1.981269645690917969e+01 2.563916496001183987e-04 -7.683506011962890625e-01 -2.304282635450363159e-01 -5.051615089178085327e-02
1.369000000000000000e+03 2.223310470581054688e+01 1.989857292175292969e+01 -1.115977298468351364e-03 -6.999574303627014160e-01 -2.103220075368881226e-01 -1.495687067508697510e-01
1.370000000000000000e+03 2.342527580261230469e+01 1.998023414611816406e+01 -2.063350286334753036e-03 -6.318381428718566895e-01 -1.901704519987106323e-01 -2.341145724058151245e-01
1.371000000000000000e+03 2.226743316650390625e+01 1.708622550964355469e+01 2.100270241498947144e-03 -9.119886755943298340e-01 -2.729665338993072510e-01 -1.509107053279876709e-01
1.372000000000000000e+03 2.225263214111328125e+01 1.849427413940429688e+01 1.553092733956873417e-03 -8.059406876564025879e-01 -2.413162887096405029e-01 -1.515526622533798218e-01
1.373000000000000000e+03 2.208425521850585938e+01 2.823163986206054688e+01 -1.313621271401643753e-02 -1.572282463312149048e-01 -5.110933631658554077e-02 -8.034012466669082642e-02
1.374000000000000000e+03 2.327577972412109375e+01 2.414180755615234375e+01 -1.697247102856636047e-02 -3.755463063716888428e-01 -1.177556365728378296e-01 -1.973389983177185059e-01
1.375000000000000000e+03 2.228948402404785156e+01 1.426858997344970703e+01 3.943616058677434921e-03 -1.119027733802795410e+00 -3.345252275466918945e-01 -1.445158421993255615e-01
1.376000000000000000e+03 1.325390338897705078e+01 -1.477064800262451172e+01 -3.098557237535715103e-03 -3.526893269736319780e-04 -1.035374007187783718e-03 7.183565176092088223e-04
1.377000000000000000e+03 1.359840488433837891e+01 -8.051349639892578125e+00 1.848783344030380249e-03 -9.250711627828422934e-06 5.518597899936139584e-04 -2.591774100437760353e-04
1.378000000000000000e+03 1.460804367065429688e+01 -7.967452526092529297e+00 -1.860063639469444752e-03 -9.349459105578716844e-06 -5.608239443972706795e-04 1.008214076136937365e-05
1.379000000000000000e+03 1.096877670288085938e+01 -3.537074327468872070e+00 -9.075412526726722717e-04 -2.072561183013021946e-04 -3.344392171129584312e-04 4.898265469819307327e-04
1.380000000000000000e+03 1.347673511505126953e+01 -1.207436180114746094e+01 -2.589609939604997635e-03 -1.625235890969634056e-04 -8.256400469690561295e-04 4.953551688231527805e-04
1.381000000000000000e+03 1.456639289855957031e+01 -1.212964630126953125e+01 2.855629660189151764e-03 2.240035792056005448e-05 8.634090190753340721e-04 -1.849865657277405262e-04
1.382000000000000000e+03 1.360094928741455078e+01 -5.383985996246337891e+00 1.378998626023530960e-03 2.612795651657506824e-05 4.215379594825208187e-04 -1.716424158075824380e-04
1.383000000000000000e+03 1.460907745361328125e+01 -5.210536956787109375e+00 -1.180803519673645496e-03 -1.676159263297449797e-05 -3.592695284169167280e-04 -5.485546716954559088e-05
1.384000000000000000e+03 1.449641513824462891e+01 -1.490711498260498047e+01 3.462933702394366264e-03 6.659692007815465331e-05 1.058859168551862240e-03 -4.052257863804697990e-04
1.385000000000000000e+03 1.437702083587646484e+01 -1.909423637390136719e+01 -4.775292705744504929e-03 -2.067262685159221292e-04 -1.494605676271021366e-03 7.612307090312242508e-04
1.386000000000000000e+03 2.209125518798828125e+01 2.960711669921875000e+01 -1.272463891655206680e-02 -1.011528968811035156e-01 -3.416325896978378296e-02 -6.036606431007385254e-02
1.387000000000000000e+03 2.318577957153320312e+01 2.821089553833007812e+01 -2.992514334619045258e-02 -1.686671525239944458e-01 -5.957769230008125305e-02 -1.302026957273483276e-01
1.388000000000000000e+03 1.274884819984436035e+00 -4.009528732299804688e+01 5.396085791289806366e-03 2.138048224151134491e-02 8.032971061766147614e-03 2.613736549392342567e-03
1.389000000000000000e+03 6.934446692466735840e-01 3.741341400146484375e+01 -7.358662551268935204e-04 -8.440038072876632214e-06 -2.232918777735903859e-04 1.890926359919831157e-04
1.390000000000000000e+03 6.786056160926818848e-01 3.327014541625976562e+01 2.989264321513473988e-04 2.958471668534912169e-05 9.855334064923226833e-05 -2.182657772209495306e-05
1.391000000000000000e+03 2.300842285156250000e+00 3.816930007934570312e+01 -5.892256740480661392e-04 -1.479493075748905540e-04 -2.211524843005463481e-04 2.626506902743130922e-04
1.392000000000000000e+03 6.231330037117004395e-01 2.623387908935546875e+01 -4.211066698189824820e-04 -3.337789166835136712e-06 -1.273333327844738960e-04 -1.498822257417486981e-05
1.393000000000000000e+03 1.938323378562927246e+00 2.900342178344726562e+01 4.483307711780071259e-04 -1.287707164010498673e-05 1.306361082242801785e-04 8.303950744448229671e-05
1.394000000000000000e+03 7.087998986244201660e-01 -3.603160858154296875e+01 -4.673800431191921234e-03 1.177006680518388748e-02 2.128880005329847336e-03 3.735826176125556231e-04
1.395000000000000000e+03 2.152529954910278320e+00 -3.306696701049804688e+01 3.149248193949460983e-03 4.635538440197706223e-03 2.335435943678021431e-03 4.995870403945446014e-03
1.396000000000000000e+03 3.145313978195190430e+00 2.756415939331054688e+01 5.320570198819041252e-04 -3.885584374074824154e-05 1.479603524785488844e-04 7.154731429181993008e-05
1.397000000000000000e+03 3.114573955535888672e+00 2.484081649780273438e+01 4.569876764435321093e-04 1.426948983862530440e-05 1.413771533407270908e-04 5.507220703293569386e-05
1.398000000000000000e+03 2.074953794479370117e+00 3.320547103881835938e+01 -3.574554575607180595e-04 -9.660737123340368271e-05 -1.362188486382365227e-04 -1.493110266892472282e-05
1.399000000000000000e+03 3.206862449645996094e+00 3.918867492675781250e+01 4.584407724905759096e-04 5.743062502006068826e-05 1.547614228911697865e-04 -2.902721462305635214e-04
1.400000000000000000e+03 2.082370281219482422e+00 -3.020849800109863281e+01 2.856390550732612610e-03 1.200547558255493641e-03 1.217081444337964058e-03 1.986912917345762253e-03
1.401000000000000000e+03 2.012957334518432617e+00 -2.738082885742187500e+01 2.142717596143484116e-03 1.360734604531899095e-04 6.836373358964920044e-04 1.434083242202177644e-04
1.402000000000000000e+03 2.095606088638305664e+00 -3.711048126220703125e+01 -4.465171601623296738e-03 1.226151920855045319e-02 2.338904188945889473e-03 3.033101325854659081e-03
1.403000000000000000e+03 1.888675451278686523e+00 -2.176325798034667969e+01 2.162020886316895485e-03 -2.895125071518123150e-04 5.617525312118232250e-04 -5.174797261133790016e-04
1.404000000000000000e+03 6.262483596801757812e-01 1.917786407470703125e+01 3.703710681293159723e-04 2.907467546719999518e-07 1.111985475290566683e-04 3.862563971779309213e-06
1.405000000000000000e+03 6.188632845878601074e-01 1.349889945983886719e+01 3.010306099895387888e-04 -2.536903366490150802e-06 8.954811346484348178e-05 -8.371826879738364369e-06
1.406000000000000000e+03 5.629230737686157227e-01 7.812958717346191406e+00 2.067663881462067366e-04 7.144561550376238301e-06 6.417328404495492578e-05 -2.351517105125822127e-05
1.407000000000000000e+03 3.641321182250976562e+00 -3.440401458740234375e+01 3.859146730974316597e-03 4.400536417961120605e-03 2.477905014529824257e-03 8.687473833560943604e-03
1.408000000000000000e+03 2.156150102615356445e+00 -3.448421859741210938e+01 -2.064104191958904266e-03 5.814243573695421219e-03 1.125041861087083817e-03 3.787821857258677483e-03
1.409000000000000000e+03 2.121834993362426758e+00 -3.163616752624511719e+01 -9.666463010944426060e-04 1.576276612468063831e-03 1.828891108743846416e-04 2.557006431743502617e-03
1.410000000000000000e+03 3.361215591430664062e+00 -2.719656562805175781e+01 -1.817176700569689274e-03 -5.932761123403906822e-04 -7.231358322314918041e-04 6.626783870160579681e-04
1.411000000000000000e+03 1.914990186691284180e+00 -2.316717147827148438e+01 -2.113136230036616325e-03 -3.636233741417527199e-04 -7.430278928950428963e-04 2.127466432284563780e-04
1.412000000000000000e+03 1.981042742729187012e+00 -2.597615432739257812e+01 -1.716817962005734444e-03 -5.752565339207649231e-04 -6.876223487779498100e-04 2.991699439007788897e-04
1.413000000000000000e+03 3.103729963302612305e+00 -2.022579574584960938e+01 2.643792890012264252e-03 -1.061492439475841820e-04 7.612931076437234879e-04 -5.244197673164308071e-04
1.414000000000000000e+03 6.235220432281494141e-01 -1.910496711730957031e+01 -1.930721336975693703e-03 -2.789594291243702173e-04 -6.629042327404022217e-04 -1.060465147020295262e-04
1.415000000000000000e+03 1.870233416557312012e+00 -1.897239303588867188e+01 2.171255182474851608e-03 -9.257889178115874529e-05 6.236028857529163361e-04 -2.623603213578462601e-04
1.416000000000000000e+03 1.882079958915710449e+00 -1.618179321289062500e+01 2.081577666103839874e-03 4.041613283334299922e-05 6.365980952978134155e-04 -1.595995126990601420e-04
1.417000000000000000e+03 5.984127521514892578e-01 -1.206221103668212891e+01 2.051472431048750877e-03 2.771960134850814939e-05 6.237576017156243324e-04 3.016913615283556283e-05
1.418000000000000000e+03 1.800288915634155273e+00 -1.196351814270019531e+01 -1.990318996831774712e-03 -6.319391104625537992e-05 -6.160538760013878345e-04 7.711764919804409146e-05
1.419000000000000000e+03 5.142184257507324219e+00 -3.345917940139770508e+00 -4.301458247937262058e-04 -3.502835461404174566e-04 -2.341288054594770074e-04 3.247042332077398896e-05
1.420000000000000000e+03 3.652314424514770508e+00 -2.773732662200927734e+00 2.001077809836715460e-04 1.006459424388594925e-04 9.022611629916355014e-05 2.523415896575897932e-04
1.421000000000000000e+03 2.935605049133300781e+00 -2.963235378265380859e+00 -3.905522171407938004e-04 2.501035341992974281e-04 -4.213461215840652585e-05 -1.709397620288655162e-04
1.422000000000000000e+03 1.365867376327514648e+00 -3.565613508224487305e+00 -1.222401391714811325e-03 1.158930972451344132e-04 -3.319524985272437334e-04 -1.791371469153091311e-04
1.423000000000000000e+03 4.657233357429504395e-01 5.021785259246826172e+00 2.181432646466419101e-04 1.625098411750514060e-05 7.031827408354729414e-05 1.618846363271586597e-05
1.424000000000000000e+03 2.399232625961303711e+00 4.399414062500000000e+00 -4.550316225504502654e-05 2.967514546980964951e-06 -1.276069451705552638e-05 -7.626297156093642116e-05
1.425000000000000000e+03 1.743720054626464844e+00 1.058271789550781250e+01 -2.720404881983995438e-04 8.032760888454504311e-06 -7.920231291791424155e-05 3.890585503540933132e-05
1.426000000000000000e+03 5.883221626281738281e-01 1.065325164794921875e+01 2.571267250459641218e-04 -7.885666377660527360e-07 7.690144411753863096e-05 -2.101729842252098024e-05
1.427000000000000000e+03 1.849575042724609375e+00 1.345390605926513672e+01 -3.177297185175120831e-04 1.101132602343568578e-05 -9.201551438309252262e-05 9.008178494696039706e-06
1.428000000000000000e+03 1.859262108802795410e+00 2.062122726440429688e+01 4.062240186613053083e-04 -7.296009243873413652e-06 1.196784069179557264e-04 2.188677353842649609e-05
1.429000000000000000e+03 1.867412090301513672e+00 1.919436454772949219e+01 -3.912571992259472609e-04 6.486751772172283381e-06 -1.154311394202522933e-04 -1.016220630845054984e-05
1.430000000000000000e+03 1.868414521217346191e+00 2.482825851440429688e+01 -4.377004806883633137e-04 -8.765731763560324907e-06 -1.339398586424067616e-04 -3.714346530614420772e-05
1.431000000000000000e+03 5.927315521240234375e+01 3.279267883300781250e+01 2.175856828689575195e+00 4.009728431701660156e+00 1.855675578117370605e+00 -4.021634578704833984e+00
1.432000000000000000e+03 5.886884307861328125e+01 3.279898834228515625e+01 1.666550874710083008e+00 2.621843576431274414e+00 1.286518335342407227e+00 -2.988504648208618164e+00
1.433000000000000000e+03 6.047348403930664062e+01 2.938397979736328125e+01 1.999546766281127930e+00 1.362201976776123047e+01 4.686470031738281250e+00 7.155371665954589844e+00
1.434000000000000000e+03 5.842592620849609375e+01 2.948040962219238281e+01 1.342502117156982422e+00 1.287126779556274414e+00 7.888886928558349609e-01 2.555907964706420898e+00
1.435000000000000000e+03 5.886040496826171875e+01 2.945250511169433594e+01 2.096091032028198242e+00 2.310871839523315430e+00 1.322088837623596191e+00 3.554229736328125000e+00
1.436000000000000000e+03 5.940228271484375000e+01 2.916724967956542969e+01 2.735076427459716797e+00 5.087338924407958984e+00 2.346724510192871094e+00 5.385979652404785156e+00
1.437000000000000000e+03 6.298334503173828125e+01 3.057846641540527344e+01 8.298871994018554688e+00 1.515868282318115234e+01 7.037266254425048828e+00 -9.261733889579772949e-01
1.438000000000000000e+03 6.260506439208984375e+01 2.995162010192871094e+01 6.216979503631591797e+00 1.725269889831542969e+01 7.040903568267822266e+00 -2.124388456344604492e+00
1.439000000000000000e+03 6.284806823730468750e+01 3.036419486999511719e+01 7.986248016357421875e+00 1.580239868164062500e+01 7.136593818664550781e+00 -1.492469191551208496e+00
1.440000000000000000e+03 6.144945144653320312e+01 3.291552352905273438e+01 1.941492855548858643e-01 1.873549652099609375e+01 5.678894042968750000e+00 -1.805249810218811035e+00
1.441000000000000000e+03 1.241568756103515625e+01 -2.687456607818603516e+00 5.950123886577785015e-04 6.478164141299203038e-05 1.979382068384438753e-04 1.335623237537220120e-04
1.442000000000000000e+03 5.559277343750000000e+01 3.429336547851562500e+01 1.365550234913825989e-02 6.694203019142150879e-01 2.049227356910705566e-01 -5.005165934562683105e-01
1.443000000000000000e+03 5.653217315673828125e+01 3.408533859252929688e+01 3.580791056156158447e-01 1.144166231155395508e+00 4.506735801696777344e-01 -1.093783736228942871e+00
1.444000000000000000e+03 5.608037567138671875e+01 3.412097167968750000e+01 1.052647829055786133e-01 9.565653204917907715e-01 3.185490369796752930e-01 -7.062899470329284668e-01
1.445000000000000000e+03 5.486534500122070312e+01 3.385669708251953125e+01 -5.392814874649047852e-01 3.586271405220031738e-01 -5.419630557298660278e-02 -6.670365482568740845e-02
1.446000000000000000e+03 5.560151290893554688e+01 2.909178733825683594e+01 -8.597232699394226074e-01 2.309917062520980835e-01 -1.886194646358489990e-01 7.394824028015136719e-01
1.447000000000000000e+03 5.494542312622070312e+01 2.856309127807617188e+01 -5.922065973281860352e-01 3.137706518173217773e-01 -8.353077620267868042e-02 7.461749315261840820e-01
1.448000000000000000e+03 5.428866195678710938e+01 2.915903854370117188e+01 -1.411779999732971191e+00 1.149497553706169128e-01 -3.890490829944610596e-01 3.850198090076446533e-01
1.449000000000000000e+03 5.733383560180664062e+01 2.906222534179687500e+01 4.455232322216033936e-01 8.365303277969360352e-01 3.846160471439361572e-01 1.745611071586608887e+00
1.450000000000000000e+03 5.361466979980468750e+01 3.433105087280273438e+01 -4.702518284320831299e-01 1.589110046625137329e-01 -9.340225160121917725e-02 2.246484458446502686e-01
1.451000000000000000e+03 5.426524734497070312e+01 2.858263397216796875e+01 -8.539118170738220215e-01 2.161100953817367554e-01 -1.913405209779739380e-01 5.306805372238159180e-01
1.452000000000000000e+03 2.689916419982910156e+01 3.348459243774414062e+01 -1.167266443371772766e-01 -7.077224552631378174e-03 -3.714115917682647705e-02 -7.114213705062866211e-02
1.453000000000000000e+03 2.968976783752441406e+01 3.236692047119140625e+01 -2.568887770175933838e-01 1.025167014449834824e-02 -7.399113476276397705e-02 -1.431113630533218384e-01
1.454000000000000000e+03 2.075954055786132812e+01 3.988999557495117188e+01 -4.914151504635810852e-03 1.431359443813562393e-03 -1.044837641529738903e-03 3.452435703366063535e-05
1.455000000000000000e+03 2.138034248352050781e+01 3.914338302612304688e+01 8.275129948742687702e-04 1.707185292616486549e-03 7.604094571433961391e-04 -1.779430778697133064e-03
1.456000000000000000e+03 1.387356281280517578e+01 2.685530900955200195e+00 -1.051864601322449744e-04 3.759222090593539178e-05 -2.027827213169075549e-05 -1.700401662674266845e-05
1.457000000000000000e+03 3.795576095581054688e+00 2.770824193954467773e+00 8.035096107050776482e-05 4.315746627980843186e-05 3.705252674990333617e-05 -8.067577255133073777e-06
1.458000000000000000e+03 6.014300346374511719e+00 2.688567638397216797e+00 -6.032572491676546633e-05 -4.704867387772537768e-05 -3.221231963834725320e-05 9.594310540705919266e-06
1.459000000000000000e+03 5.991422653198242188e+00 3.501656532287597656e+00 7.469794218195602298e-05 5.331613283487968147e-05 3.840422141365706921e-05 -6.511748779303161427e-06
1.460000000000000000e+03 6.717947483062744141e+00 3.475747108459472656e+00 -7.134408951969817281e-05 -5.236656943452544510e-05 -3.711319732246920466e-05 5.657530891767237335e-06
1.461000000000000000e+03 8.927674293518066406e+00 3.397372484207153320e+00 7.645472214790061116e-05 3.454049510764889419e-05 3.329856554046273232e-05 2.690627297852188349e-05
1.462000000000000000e+03 6.739584922790527344e+00 2.672007799148559570e+00 5.668560334015637636e-05 4.648983303923159838e-05 3.095262945862486959e-05 -6.823777766840066761e-06
1.463000000000000000e+03 7.443086147308349609e+00 3.447612285614013672e+00 6.034312900737859309e-05 5.277049785945564508e-05 3.393408769625239074e-05 2.445678717322152806e-07
1.464000000000000000e+03 4.485375404357910156e+00 3.604107856750488281e+00 7.465817907359451056e-05 5.484297435032203794e-05 3.885034675477072597e-05 -1.851283377618528903e-05
1.465000000000000000e+03 4.534452438354492188e+00 2.751475572586059570e+00 -6.652219599345698953e-05 -4.464373705559410155e-05 -3.334978100610896945e-05 1.753155811456963420e-05
1.466000000000000000e+03 2.432381391525268555e+00 2.677870988845825195e+00 8.974416414275765419e-05 4.923007509205490351e-05 4.169227031525224447e-05 -4.046844878757838160e-06
1.467000000000000000e+03 1.114766216278076172e+01 2.509034633636474609e+00 7.946769619593396783e-05 -7.987547405718942173e-07 2.360068356210831553e-05 -2.151308581233024597e-05
1.468000000000000000e+03 1.122587585449218750e+01 3.231614589691162109e+00 -1.197826059069484472e-04 2.333114025532267988e-05 -2.893543933168984950e-05 1.810411231417674571e-05
1.469000000000000000e+03 2.381647682189941406e+01 3.342660903930664062e+01 -3.520564362406730652e-02 -2.331384643912315369e-02 -1.755584776401519775e-02 -3.140755742788314819e-02
1.470000000000000000e+03 2.469926643371582031e+01 3.260731506347656250e+01 -6.248119100928306580e-02 -3.818564489483833313e-02 -3.020005114376544952e-02 -6.708207726478576660e-02
1.471000000000000000e+03 5.005714035034179688e+01 3.528187179565429688e+01 -3.875929415225982666e-01 -9.883951395750045776e-02 -1.459297388792037964e-01 4.267972409725189209e-01
1.472000000000000000e+03 4.944366836547851562e+01 3.791741180419921875e+01 3.999962210655212402e-01 9.130921959877014160e-02 1.473916321992874146e-01 3.435446619987487793e-01
1.473000000000000000e+03 3.042091941833496094e+01 3.226856231689453125e+01 -2.980445027351379395e-01 1.780763827264308929e-02 -8.407106250524520874e-02 -1.533071249723434448e-01
1.474000000000000000e+03 3.115336990356445312e+01 3.216376876831054688e+01 -3.417929410934448242e-01 2.548001892864704132e-02 -9.489388018846511841e-02 -1.621843874454498291e-01
1.475000000000000000e+03 2.203160095214843750e+01 3.219300842285156250e+01 -1.307895686477422714e-02 -3.188711404800415039e-02 -1.348982192575931549e-02 -2.400019392371177673e-02
1.476000000000000000e+03 2.389057922363281250e+01 3.240205383300781250e+01 -4.245605319738388062e-02 -4.231089726090431213e-02 -2.543008513748645782e-02 -5.351115390658378601e-02
1.477000000000000000e+03 5.140180969238281250e+01 3.481034088134765625e+01 -4.824964702129364014e-01 4.261835478246212006e-03 -1.434703916311264038e-01 4.097549915313720703e-01
1.478000000000000000e+03 3.832709121704101562e+01 3.976857376098632812e+01 8.642310649156570435e-02 -1.625392735004425049e-01 -2.283485233783721924e-02 8.233191817998886108e-02
1.479000000000000000e+03 2.824796676635742188e+01 3.254829406738281250e+01 -1.867154985666275024e-01 -3.661733819171786308e-03 -5.711317062377929688e-02 -1.213692277669906616e-01
1.480000000000000000e+03 2.754392433166503906e+01 3.263333129882812500e+01 -1.557387411594390869e-01 -1.108266785740852356e-02 -5.004642158746719360e-02 -1.093147397041320801e-01
1.481000000000000000e+03 5.238761520385742188e+01 3.591234207153320312e+01 1.178868412971496582e-01 2.294320166110992432e-01 1.041956543922424316e-01 1.653593331575393677e-01
1.482000000000000000e+03 5.335348129272460938e+01 3.557089614868164062e+01 1.435178667306900024e-01 3.676982522010803223e-01 1.533648371696472168e-01 7.856959849596023560e-02
1.483000000000000000e+03 5.506217193603515625e+01 3.442922210693359375e+01 -3.380392119288444519e-02 6.648033857345581055e-01 1.892998367547988892e-01 -3.471594154834747314e-01
1.484000000000000000e+03 5.407059860229492188e+01 3.511116409301757812e+01 -5.861587822437286377e-03 6.043105721473693848e-01 1.795346885919570923e-01 -2.779591828584671021e-02
1.485000000000000000e+03 4.742034149169921875e+01 3.544953536987304688e+01 -3.500028252601623535e-01 -1.385428160429000854e-01 -1.465636938810348511e-01 4.700748920440673828e-01
1.486000000000000000e+03 4.675743103027343750e+01 3.526914596557617188e+01 -4.173849821090698242e-01 -1.866820752620697021e-01 -1.812201142311096191e-01 4.258939325809478760e-01
1.487000000000000000e+03 3.262002944946289062e+01 3.193661117553710938e+01 -4.388901889324188232e-01 3.941240161657333374e-02 -1.198433339595794678e-01 -1.776034384965896606e-01
1.488000000000000000e+03 3.335219955444335938e+01 3.181198692321777344e+01 -4.919081926345825195e-01 4.526434093713760376e-02 -1.339931637048721313e-01 -1.843777298927307129e-01
1.489000000000000000e+03 4.611659622192382812e+01 3.528776168823242188e+01 -3.866128921508789062e-01 -1.468266397714614868e-01 -1.600318551063537598e-01 4.385047256946563721e-01
1.490000000000000000e+03 1.257545185089111328e+01 2.780049324035644531e+00 -1.704757596598938107e-05 6.276916906244878192e-07 -4.925965640723006800e-06 3.589877451304346323e-05
1.491000000000000000e+03 9.456939697265625000e+00 -3.476960420608520508e+00 -6.906819762662053108e-04 -4.143260011915117502e-04 -3.315024077892303467e-04 4.991897731088101864e-04
1.492000000000000000e+03 1.359521770477294922e+01 -4.117831230163574219e+00 -1.291405409574508667e-03 2.559173481131438166e-05 -3.797441022470593452e-04 2.041240077232941985e-04
1.493000000000000000e+03 9.338364601135253906e+00 -4.327160358428955078e+00 7.796351565048098564e-04 4.761271702591329813e-04 3.767286834772676229e-04 -6.004319293424487114e-04
1.494000000000000000e+03 3.997903823852539062e+01 3.054126739501953125e+01 -1.050575494766235352e+00 8.049695193767547607e-02 -2.910235524177551270e-01 -2.110454738140106201e-01
1.495000000000000000e+03 1.363284301757812500e+01 -3.007682800292968750e+00 1.251806854270398617e-03 -1.413653353665722534e-05 3.713010810315608978e-04 -2.419808733975514770e-04
1.496000000000000000e+03 3.709888076782226562e+01 3.178887557983398438e+01 -8.213603496551513672e-01 5.534427240490913391e-02 -2.298048138618469238e-01 -1.377763152122497559e-01
1.497000000000000000e+03 3.923896408081054688e+01 3.068418312072753906e+01 -9.844254255294799805e-01 7.803115993738174438e-02 -2.719182670116424561e-01 -2.107806950807571411e-01
1.498000000000000000e+03 3.636102676391601562e+01 3.193387413024902344e+01 -7.508097290992736816e-01 5.345563590526580811e-02 -2.092062234878540039e-01 -1.384740024805068970e-01
1.499000000000000000e+03 3.849663162231445312e+01 3.082546424865722656e+01 -9.172347784042358398e-01 7.582931220531463623e-02 -2.524216473102569580e-01 -2.094785124063491821e-01
1.500000000000000000e+03 3.562556838989257812e+01 3.207921600341796875e+01 -6.830349564552307129e-01 5.060777068138122559e-02 -1.897281557321548462e-01 -1.380306333303451538e-01
1.501000000000000000e+03 3.766222000122070312e+01 3.028825759887695312e+01 -7.999921441078186035e-01 8.159412443637847900e-02 -2.155194133520126343e-01 -2.735198736190795898e-01
1.502000000000000000e+03 3.408315277099609375e+01 3.168065261840820312e+01 -5.465185642242431641e-01 5.098571255803108215e-02 -1.486598551273345947e-01 -1.902056485414505005e-01
1.503000000000000000e+03 3.481384277343750000e+01 3.154333114624023438e+01 -6.039710044860839844e-01 5.555277690291404724e-02 -1.645254641771316528e-01 -1.956081986427307129e-01
1.504000000000000000e+03 3.627755737304687500e+01 3.125695419311523438e+01 -7.236428260803222656e-01 6.387821584939956665e-02 -1.979293823242187500e-01 -2.038813978433609009e-01
1.505000000000000000e+03 4.146466445922851562e+01 3.025127983093261719e+01 -1.181011319160461426e+00 8.090522140264511108e-02 -3.300318419933319092e-01 -2.105443775653839111e-01
1.506000000000000000e+03 1.294470882415771484e+01 3.200100660324096680e+00 -1.276176590181421489e-05 -5.247124136076308787e-05 -1.956990308826789260e-05 -8.023178816074505448e-05
1.507000000000000000e+03 4.371115493774414062e+01 2.982163619995117188e+01 -1.362110376358032227e+00 7.655155658721923828e-02 -3.856676518917083740e-01 -2.005289793014526367e-01
1.508000000000000000e+03 4.295869827270507812e+01 2.996162986755371094e+01 -1.303910732269287109e+00 7.896382361650466919e-02 -3.674840629100799561e-01 -2.053708136081695557e-01
1.509000000000000000e+03 4.446199035644531250e+01 2.968491554260253906e+01 -1.414822340011596680e+00 7.636041939258575439e-02 -4.015385806560516357e-01 -1.940854787826538086e-01
1.510000000000000000e+03 4.452554702758789062e+01 3.037186241149902344e+01 -1.590788364410400391e+00 5.362721532583236694e-02 -4.611483514308929443e-01 -1.065374165773391724e-01
1.511000000000000000e+03 4.602419662475585938e+01 3.011159896850585938e+01 -1.727426886558532715e+00 4.825689271092414856e-02 -5.037509799003601074e-01 -9.421193599700927734e-02
1.512000000000000000e+03 1.355062294006347656e+01 4.217444896697998047e+00 -1.747650967445224524e-04 5.558772954827873036e-06 -5.076189336250536144e-05 -1.194107517221709713e-05
1.513000000000000000e+03 4.753033828735351562e+01 2.986878395080566406e+01 -1.834891796112060547e+00 3.757562115788459778e-02 -5.391948819160461426e-01 -7.441142201423645020e-02
1.514000000000000000e+03 4.596855545043945312e+01 2.942444419860839844e+01 -1.502849459648132324e+00 7.118035852909088135e-02 -4.295007288455963135e-01 -1.760190576314926147e-01
1.515000000000000000e+03 5.207540130615234375e+01 2.932144355773925781e+01 -1.832519292831420898e+00 3.222661092877388000e-02 -5.400878190994262695e-01 1.005000695586204529e-01
1.516000000000000000e+03 5.132229995727539062e+01 2.939015007019042969e+01 -1.888046264648437500e+00 3.110468201339244843e-02 -5.570824742317199707e-01 5.216838791966438293e-02
1.517000000000000000e+03 4.978398132324218750e+01 2.888814353942871094e+01 -1.544933676719665527e+00 6.095894053578376770e-02 -4.451924264430999756e-01 -4.790734127163887024e-02
1.518000000000000000e+03 4.898114776611328125e+01 2.829710769653320312e+01 -1.244938731193542480e+00 9.930826723575592041e-02 -3.436891436576843262e-01 -1.050936281681060791e-01
1.519000000000000000e+03 4.828619003295898438e+01 2.975513839721679688e+01 -1.873412609100341797e+00 3.309927508234977722e-02 -5.520939826965332031e-01 -5.989197641611099243e-02
1.520000000000000000e+03 4.901565170288085938e+01 2.897721862792968750e+01 -1.564171433448791504e+00 6.100334599614143372e-02 -4.509504437446594238e-01 -8.796373754739761353e-02
1.521000000000000000e+03 5.355190277099609375e+01 2.861077880859375000e+01 -1.065239548683166504e+00 1.649476587772369385e-01 -2.700875699520111084e-01 3.776721060276031494e-01
1.522000000000000000e+03 4.521322250366210938e+01 2.955210304260253906e+01 -1.463002324104309082e+00 7.304577529430389404e-02 -4.169869720935821533e-01 -1.866823434829711914e-01
1.523000000000000000e+03 4.220893859863281250e+01 3.010515785217285156e+01 -1.243913054466247559e+00 7.917851209640502930e-02 -3.494203686714172363e-01 -2.087360620498657227e-01
1.524000000000000000e+03 6.516815662384033203e+00 -3.351148366928100586e+00 -5.150533397682011127e-04 -4.234514490235596895e-04 -2.815514453686773777e-04 -1.622368290554732084e-04
1.525000000000000000e+03 2.617404222488403320e+00 -7.733367919921875000e+00 -1.650689402595162392e-03 -4.814191561308689415e-05 -5.096493987366557121e-04 -4.584834823617711663e-05
1.526000000000000000e+03 7.768521785736083984e+00 -4.864531993865966797e+00 -1.889551931526511908e-04 -1.085973228327929974e-03 -3.824785235337913036e-04 4.313012468628585339e-04
1.527000000000000000e+03 5.818199157714843750e+00 -3.343530893325805664e+00 6.654340540990233421e-04 2.875180216506123543e-04 2.858856169041246176e-04 8.125371823552995920e-05
1.528000000000000000e+03 5.802785873413085938e+00 -2.592661619186401367e+00 -3.673651372082531452e-04 -3.610072308219969273e-04 -2.185117045883089304e-04 -5.482210690388455987e-05
1.529000000000000000e+03 2.693870544433593750e+00 -4.168118476867675781e+00 1.364576979540288448e-03 6.271216552704572678e-04 5.975096137262880802e-04 -5.447042640298604965e-04
1.530000000000000000e+03 4.030318737030029297e+00 -4.321588039398193359e+00 -9.748339834914077073e-06 5.428183940239250660e-04 1.599210227141156793e-04 8.675839053466916084e-04
1.531000000000000000e+03 2.198873996734619141e+00 -3.304613590240478516e+00 1.517229975434020162e-04 -2.334663586225360632e-04 -2.452300759614445269e-05 1.683780283201485872e-04
1.532000000000000000e+03 1.477887034416198730e+00 -5.015895366668701172e+00 1.478586229495704174e-03 1.451739371987059712e-04 4.871280689258128405e-04 1.056836699717678130e-04
1.533000000000000000e+03 8.713277816772460938e+00 -3.426553726196289062e+00 5.372267914935946465e-04 5.377247580327093601e-04 3.224854590371251106e-04 -4.572752513922750950e-04
1.534000000000000000e+03 2.679717063903808594e+01 4.029299926757812500e+01 -2.777087036520242691e-03 -7.177483057603240013e-04 -1.048450591042637825e-03 6.806034361943602562e-04
1.535000000000000000e+03 2.807526397705078125e+01 3.992881393432617188e+01 -8.035980165004730225e-03 1.100621069781482220e-03 -2.080607693642377853e-03 2.172054955735802650e-03
1.536000000000000000e+03 2.294614982604980469e+01 3.333790588378906250e+01 -2.084834873676300049e-02 -2.196561545133590698e-02 -1.284418907016515732e-02 -2.079962193965911865e-02
1.537000000000000000e+03 2.216963195800781250e+01 4.166960525512695312e+01 7.798589067533612251e-04 9.590875124558806419e-04 5.216839490458369255e-04 2.324550645425915718e-03
1.538000000000000000e+03 1.881442832946777344e+01 3.772338485717773438e+01 -5.206576679483987391e-05 7.867320091463625431e-04 2.203998737968504429e-04 -1.097754575312137604e-04
1.539000000000000000e+03 1.146082115173339844e+01 1.648607063293457031e+01 -2.965073217637836933e-04 7.412271315843099728e-06 -8.672851254232227802e-05 8.014163904590532184e-05
1.540000000000000000e+03 1.237775135040283203e+01 1.041086769104003906e+01 -2.011309697991237044e-04 -4.498771522776223719e-05 -7.383560296148061752e-05 -5.782242078566923738e-05
1.541000000000000000e+03 4.230139541625976562e+01 3.670596313476562500e+01 -8.767575770616531372e-02 -1.691843122243881226e-01 -7.705802470445632935e-02 2.584441900253295898e-01
1.542000000000000000e+03 3.846025085449218750e+01 3.831039428710937500e+01 8.027644827961921692e-03 -1.140690371394157410e-01 -3.181241825222969055e-02 1.200020015239715576e-01
1.543000000000000000e+03 1.251223659515380859e+01 2.697283363342285156e+01 -5.698633030988276005e-04 -1.447547838324680924e-04 -2.143854217138141394e-04 -2.205822383984923363e-04
1.544000000000000000e+03 2.298844909667968750e+01 -1.114767169952392578e+01 -2.599390596151351929e-02 -1.714917302131652832e+00 -5.222733616828918457e-01 -1.210866644978523254e-01
1.545000000000000000e+03 2.362998199462890625e+01 9.319265186786651611e-02 9.216474369168281555e-03 -1.518132567405700684e+00 -4.526748359203338623e-01 -1.601577699184417725e-01
1.546000000000000000e+03 2.450718879699707031e+01 -7.041563510894775391e+00 2.157902158796787262e-02 -1.414286732673645020e+00 -4.178123176097869873e-01 -1.349012553691864014e-01
1.547000000000000000e+03 2.311807823181152344e+01 -7.001804351806640625e+00 2.223749831318855286e-02 -1.668924450874328613e+00 -4.940060973167419434e-01 -1.330523192882537842e-01
1.548000000000000000e+03 2.287050247192382812e+01 -1.809917640686035156e+01 3.260067477822303772e-02 -1.713817000389099121e+00 -5.043649077415466309e-01 -8.740112930536270142e-02
1.549000000000000000e+03 2.211074447631835938e+01 -1.336506962776184082e+00 -1.044250745326280594e-02 -1.772080183029174805e+00 -5.347567796707153320e-01 -1.656862497329711914e-01
1.550000000000000000e+03 2.359354209899902344e+01 -1.350910186767578125e+00 1.006567943841218948e-02 -1.538993954658508301e+00 -4.586784839630126953e-01 -1.485300064086914062e-01
1.551000000000000000e+03 1.165332603454589844e+01 3.133689498901367188e+01 -8.298453758470714092e-04 5.000084056518971920e-04 -9.895108814816921949e-05 -3.593097208067774773e-04
1.552000000000000000e+03 1.420639896392822266e+01 3.318508148193359375e+01 6.276080384850502014e-04 3.187434049323201180e-04 2.839054213836789131e-04 -2.701243211049586535e-04
1.553000000000000000e+03 1.330257225036621094e+01 2.170382690429687500e+01 5.263925413601100445e-04 1.913240885187406093e-05 1.636574888834729791e-04 -2.683817365323193371e-05
1.554000000000000000e+03 1.181255435943603516e+01 1.781167793273925781e+01 4.106897104065865278e-04 -3.674953404697589576e-05 1.121820532716810703e-04 -6.121082697063684464e-05
1.555000000000000000e+03 2.289031600952148438e+01 -1.671563339233398438e+01 1.150166988372802734e-02 -1.715718507766723633e+00 -5.112650394439697266e-01 -6.777787208557128906e-02
1.556000000000000000e+03 1.162950134277343750e+01 1.423213481903076172e+01 1.750252122292295098e-04 6.087921428843401372e-05 7.077132613630965352e-05 1.646997261559590697e-04
1.557000000000000000e+03 1.361204719543457031e+01 6.519036769866943359e+00 -1.695094833848997951e-04 -8.392279596591833979e-06 -5.337053153198212385e-05 -9.020649486046750098e-06
1.558000000000000000e+03 1.058961200714111328e+01 4.900782108306884766e+00 1.544598781038075686e-04 1.780092134140431881e-05 5.167823837837204337e-05 5.996796971885487437e-05
1.559000000000000000e+03 1.102508354187011719e+01 1.265631866455078125e+01 1.135175189119763672e-04 1.323870819760486484e-04 7.377137808362022042e-05 1.137628278229385614e-04
1.560000000000000000e+03 1.360946178436279297e+01 5.300075531005859375e+00 1.567785366205498576e-04 -7.267627779583563097e-07 4.681553400587290525e-05 6.187795406731311232e-06
1.561000000000000000e+03 8.950649261474609375e+00 4.168848991394042969e+00 -8.496687223669141531e-05 -4.409542816574685276e-05 -3.871868830174207687e-05 -4.537171844276599586e-05
1.562000000000000000e+03 8.179087638854980469e+00 -3.357788085937500000e+01 1.089178770780563354e-02 -1.524686999619007111e-02 -1.306524849496781826e-03 2.748989965766668320e-03
1.563000000000000000e+03 1.288149547576904297e+01 -3.154096794128417969e+01 -1.194813475012779236e-02 4.529319703578948975e-04 -3.448560833930969238e-03 2.742195269092917442e-03
1.564000000000000000e+03 1.188908100128173828e+01 2.048690986633300781e+01 4.929212736897170544e-04 1.907125806610565633e-05 1.535977644380182028e-04 -1.574423185957130045e-05
1.565000000000000000e+03 7.703649139404296875e+01 -3.600095748901367188e+01 -2.527162805199623108e-02 8.450236320495605469e+00 2.527489423751831055e+00 2.099522016942501068e-02
1.566000000000000000e+03 7.322882080078125000e+01 -2.333525085449218750e+01 1.089871954172849655e-02 7.763559341430664062e+00 2.332337379455566406e+00 3.148335963487625122e-02
1.567000000000000000e+03 7.797695922851562500e+01 -2.902995681762695312e+01 2.553289989009499550e-03 8.636696815490722656e+00 2.591774940490722656e+00 6.850718054920434952e-04
1.568000000000000000e+03 7.809548950195312500e+01 -3.584864425659179688e+01 -2.453888207674026489e-02 8.640604019165039062e+00 2.584819555282592773e+00 3.248507156968116760e-02
1.569000000000000000e+03 7.343651580810546875e+01 -3.783765411376953125e+01 -1.192518696188926697e-02 7.739239692687988281e+00 2.318194389343261719e+00 -1.189657114446163177e-02
1.570000000000000000e+03 7.824813842773437500e+01 1.965389823913574219e+01 -2.147586457431316376e-02 7.057530879974365234e+00 2.110816478729248047e+00 -4.637387096881866455e-01
1.571000000000000000e+03 7.583316802978515625e+01 1.558678913116455078e+01 -1.500316858291625977e-01 7.822307586669921875e+00 2.301682710647583008e+00 -6.208955645561218262e-01
1.572000000000000000e+03 7.832324218750000000e+01 3.536264419555664062e+01 6.775280833244323730e-02 5.010852336883544922e+00 1.523581624031066895e+00 1.898743808269500732e-01
1.573000000000000000e+03 7.674343109130859375e+01 3.256241989135742188e+01 2.246211767196655273e-01 5.657424926757812500e+00 1.764613866806030273e+00 -2.846825495362281799e-02
1.574000000000000000e+03 7.793733215332031250e+01 -2.214481163024902344e+01 1.242523314431309700e-03 8.663274765014648438e+00 2.599355220794677734e+00 -4.344588378444314003e-04
1.575000000000000000e+03 7.648076629638671875e+01 -2.345663452148437500e+01 2.561222296208143234e-03 8.384004592895507812e+00 2.515969753265380859e+00 4.218565300107002258e-03
1.576000000000000000e+03 7.654634094238281250e+01 -3.023063850402832031e+01 7.333815097808837891e-03 8.367134094238281250e+00 2.512340545654296875e+00 6.087083369493484497e-03
1.577000000000000000e+03 7.799535369873046875e+01 -2.766253471374511719e+01 -3.535518771968781948e-04 8.652832984924316406e+00 2.595743894577026367e+00 1.276533817872405052e-03
1.578000000000000000e+03 7.665963745117187500e+01 -2.887892532348632812e+01 5.032912595197558403e-04 8.401389122009277344e+00 2.520567893981933594e+00 1.040422264486551285e-02
1.579000000000000000e+03 7.664969635009765625e+01 -2.756292724609375000e+01 -6.506975274533033371e-03 8.401697158813476562e+00 2.518557071685791016e+00 1.665801624767482281e-03
1.580000000000000000e+03 7.658018493652343750e+01 -2.623337554931640625e+01 -1.551753492094576359e-03 8.390648841857910156e+00 2.516729116439819336e+00 1.338804722763597965e-03
1.581000000000000000e+03 7.613988494873046875e+01 -3.320635604858398438e+01 -1.370179466903209686e-02 8.290192604064941406e+00 2.482947111129760742e+00 -7.190447766333818436e-03
1.582000000000000000e+03 7.652217102050781250e+01 -3.473039245605468750e+01 -3.012653626501560211e-02 8.369850158691406250e+00 2.501917123794555664e+00 1.825689710676670074e-02
1.583000000000000000e+03 7.825451660156250000e+01 2.243284416198730469e+01 1.168734976090490818e-03 6.426800727844238281e+00 1.928390741348266602e+00 -5.025923848152160645e-01
1.584000000000000000e+03 7.592705535888671875e+01 2.121680450439453125e+01 -5.850286781787872314e-02 7.204982757568359375e+00 2.143944025039672852e+00 -9.136893749237060547e-01
1.585000000000000000e+03 7.708953094482421875e+01 2.113531112670898438e+01 -3.171977028250694275e-02 6.966534614562988281e+00 2.080444335937500000e+00 -7.285036444664001465e-01
1.586000000000000000e+03 7.706714630126953125e+01 1.274806880950927734e+01 -7.170168310403823853e-02 8.091130256652832031e+00 2.405828714370727539e+00 -3.637129664421081543e-01
1.587000000000000000e+03 7.824160003662109375e+01 1.268010997772216797e+01 -2.984390780329704285e-02 8.196434974670410156e+00 2.449977397918701172e+00 -2.466683983802795410e-01
1.588000000000000000e+03 7.471247100830078125e+01 1.276939487457275391e+01 -1.990799456834793091e-01 7.970687866210937500e+00 2.331482410430908203e+00 -4.996181726455688477e-01
1.589000000000000000e+03 7.705432128906250000e+01 1.414429092407226562e+01 -7.937215268611907959e-02 7.959628582000732422e+00 2.364077091217041016e+00 -4.296996593475341797e-01
1.590000000000000000e+03 7.709314727783203125e+01 2.387748718261718750e+01 3.617075085639953613e-02 6.468437194824218750e+00 1.951382398605346680e+00 -7.356621623039245605e-01
1.591000000000000000e+03 7.820581817626953125e+01 2.659642410278320312e+01 5.584251508116722107e-02 5.527931213378906250e+00 1.675132155418395996e+00 -4.215483367443084717e-01
1.592000000000000000e+03 7.795480346679687500e+01 -2.074407005310058594e+01 4.079500504303723574e-04 8.670349121093750000e+00 2.601227045059204102e+00 2.399545628577470779e-03
1.593000000000000000e+03 7.650435638427734375e+01 -2.204544639587402344e+01 3.208277979865670204e-03 8.392296791076660156e+00 2.518651485443115234e+00 9.002884849905967712e-03
1.594000000000000000e+03 7.699196624755859375e+01 2.804349899291992188e+01 1.842638403177261353e-01 5.845881462097167969e+00 1.809043645858764648e+00 -5.013533234596252441e-01
1.595000000000000000e+03 7.823718261718750000e+01 7.127943515777587891e+00 -1.789374463260173798e-02 8.619608879089355469e+00 2.580514430999755859e+00 -1.170024573802947998e-01
1.596000000000000000e+03 7.532395935058593750e+01 -1.477173137664794922e+01 -2.483475254848599434e-03 8.210435867309570312e+00 2.462385892868041992e+00 1.944057829678058624e-02
1.597000000000000000e+03 7.557242584228515625e+01 -7.817154884338378906e+00 -8.941812440752983093e-03 8.281532287597656250e+00 2.481777191162109375e+00 2.084630774334073067e-03
1.598000000000000000e+03 7.803604125976562500e+01 -1.508794403076171875e+01 -1.563917030580341816e-03 8.721784591674804688e+00 2.616065979003906250e+00 -2.055717923212796450e-04
1.599000000000000000e+03 7.546031188964843750e+01 -2.330475568771362305e+00 -2.442320808768272400e-02 8.277789115905761719e+00 2.476009607315063477e+00 -2.814642898738384247e-02
1.600000000000000000e+03 7.809297180175781250e+01 -8.119054794311523438e+00 -1.530052744783461094e-03 8.771859169006347656e+00 2.631098747253417969e+00 -7.670113816857337952e-03
1.601000000000000000e+03 7.821822357177734375e+01 5.740012168884277344e+00 -1.426641736179590225e-02 8.675007820129394531e+00 2.598222255706787109e+00 -9.601465612649917603e-02
1.602000000000000000e+03 7.568743896484375000e+01 3.186687946319580078e+00 -5.140625685453414917e-02 8.289427757263183594e+00 2.471406459808349609e+00 -1.045623794198036194e-01
1.603000000000000000e+03 7.588887786865234375e+01 2.802482414245605469e+01 2.999975383281707764e-01 6.317899227142333984e+00 1.985368967056274414e+00 -6.385012269020080566e-01
1.604000000000000000e+03 7.703369903564453125e+01 5.846601486206054688e+00 -3.744830936193466187e-02 8.465110778808593750e+00 2.528298854827880859e+00 -1.361624449491500854e-01
1.605000000000000000e+03 7.810110473632812500e+01 -1.198250889778137207e+00 -7.152398582547903061e-03 8.781348228454589844e+00 2.632258892059326172e+00 -3.079630620777606964e-02
1.606000000000000000e+03 7.679135894775390625e+01 -2.453116178512573242e+00 -1.421357318758964539e-02 8.530261993408203125e+00 2.554814577102661133e+00 -2.620418742299079895e-02
1.607000000000000000e+03 7.681872558593750000e+01 -9.341388702392578125e+00 -3.776991041377186775e-03 8.515851020812988281e+00 2.553622007369995117e+00 1.535123330540955067e-03
1.608000000000000000e+03 7.670037078857421875e+01 -1.634294700622558594e+01 -3.003747900947928429e-03 8.458563804626464844e+00 2.536668062210083008e+00 8.769391104578971863e-03
1.609000000000000000e+03 7.663162231445312500e+01 3.400123596191406250e+01 1.527032703161239624e-01 5.816340923309326172e+00 1.790713191032409668e+00 1.826767027378082275e-01
1.610000000000000000e+03 7.555790710449218750e+01 3.093993377685546875e+01 3.648551702499389648e-01 6.212451457977294922e+00 1.973191976547241211e+00 -2.285498827695846558e-01
1.611000000000000000e+03 7.672118377685546875e+01 3.106838226318359375e+01 2.115829586982727051e-01 5.751918792724609375e+00 1.789050579071044922e+00 -1.573192924261093140e-01
1.612000000000000000e+03 7.588118743896484375e+01 1.840783882141113281e+01 -1.350221782922744751e-01 7.556772708892822266e+00 2.226525306701660156e+00 -7.872690558433532715e-01
1.613000000000000000e+03 7.708597564697265625e+01 9.973522186279296875e+00 -5.584679543972015381e-02 8.293561935424804688e+00 2.471314430236816406e+00 -2.513076961040496826e-01
1.614000000000000000e+03 7.706604766845703125e+01 7.224270820617675781e+00 -4.201306402683258057e-02 8.424019813537597656e+00 2.514601945877075195e+00 -1.687263250350952148e-01
1.615000000000000000e+03 7.670064544677734375e+01 -1.492501640319824219e+01 4.696918476838618517e-04 8.467047691345214844e+00 2.540255308151245117e+00 9.012015536427497864e-03
1.616000000000000000e+03 7.682614898681640625e+01 -7.962121486663818359e+00 -7.004591170698404312e-03 8.524804115295410156e+00 2.555340051651000977e+00 -1.231567119248211384e-03
1.617000000000000000e+03 7.813854217529296875e+01 1.565747022628784180e+00 -1.015439070761203766e-02 8.762825012207031250e+00 2.625801324844360352e+00 -4.920805245637893677e-02
1.618000000000000000e+03 7.683681488037109375e+01 3.049215078353881836e-01 -1.965638436377048492e-02 8.527961730957031250e+00 2.552491664886474609e+00 -5.030105635523796082e-02
1.619000000000000000e+03 7.698706817626953125e+01 4.460778713226318359e+00 -3.193544968962669373e-02 8.493633270263671875e+00 2.538509368896484375e+00 -1.093122735619544983e-01
1.620000000000000000e+03 7.578169250488281250e+01 4.574315547943115234e+00 -5.844477936625480652e-02 8.287159919738769531e+00 2.468614578247070312e+00 -1.330328285694122314e-01
1.621000000000000000e+03 7.679935455322265625e+01 -5.223361015319824219e+00 -8.229888975620269775e-03 8.529012680053710938e+00 2.556234836578369141e+00 -9.288047440350055695e-03
1.622000000000000000e+03 7.681526184082031250e+01 -6.595109462738037109e+00 -4.653862677514553070e-03 8.527954101562500000e+00 2.556990146636962891e+00 -6.167679559439420700e-03
1.623000000000000000e+03 7.678923797607421875e+01 -3.840449571609497070e+00 -9.882112964987754822e-03 8.531259536743164062e+00 2.556413412094116211e+00 -1.668223924934864044e-02
1.624000000000000000e+03 7.674528503417968750e+01 -1.213209915161132812e+01 -2.384117571637034416e-03 8.492127418518066406e+00 2.546923160552978516e+00 7.704875897616147995e-03
1.625000000000000000e+03 7.671108245849609375e+01 -1.352701473236083984e+01 -6.934786797501146793e-04 8.478966712951660156e+00 2.543482065200805664e+00 8.953741751611232758e-03
1.626000000000000000e+03 7.678845977783203125e+01 -1.073468685150146484e+01 -6.148272193968296051e-03 8.505209922790527344e+00 2.549718618392944336e+00 4.099069163203239441e-03
1.627000000000000000e+03 7.656100463867187500e+01 -2.063232421875000000e+01 5.697028245776891708e-04 8.410967826843261719e+00 2.523461103439331055e+00 8.438990451395511627e-03
1.628000000000000000e+03 7.668276977539062500e+01 -1.777906608581542969e+01 -8.281249320134520531e-04 8.444048881530761719e+00 2.532966136932373047e+00 1.163497380912303925e-02
1.629000000000000000e+03 7.537065887451171875e+01 -1.765755844116210938e+01 -1.104483744711615145e-04 8.193457603454589844e+00 2.458004236221313477e+00 1.377721875905990601e-02
1.630000000000000000e+03 2.229466438293457031e+01 5.785082340240478516e+00 -3.885852918028831482e-02 -1.662532567977905273e+00 -5.104173421859741211e-01 -1.559298634529113770e-01
1.631000000000000000e+03 2.354578208923339844e+01 1.010624504089355469e+01 5.773781333118677139e-03 -1.230776309967041016e+00 -3.675007820129394531e-01 -2.068253904581069946e-01
1.632000000000000000e+03 2.294371604919433594e+01 -2.670135879516601562e+01 4.947863984853029251e-03 -1.714384078979492188e+00 -5.128308534622192383e-01 -8.047118782997131348e-02
1.633000000000000000e+03 2.132566070556640625e+01 -2.234351730346679688e+01 8.788511157035827637e-03 -1.936530232429504395e+00 -5.783225297927856445e-01 -5.801838263869285583e-02
1.634000000000000000e+03 2.206278038024902344e+01 3.094579315185546875e+01 -1.303607039153575897e-02 -6.041553243994712830e-02 -2.203548140823841095e-02 -4.205503314733505249e-02
1.635000000000000000e+03 2.352864456176757812e+01 1.293183517456054688e+01 1.002305466681718826e-02 -1.072302937507629395e+00 -3.186839520931243896e-01 -2.205308675765991211e-01
1.636000000000000000e+03 1.206429004669189453e+01 -2.620857048034667969e+01 6.653547752648591995e-03 1.638875226490199566e-03 2.487726975232362747e-03 -2.182756084948778152e-03
1.637000000000000000e+03 2.488151741027832031e+01 3.178553390502929688e+01 -7.536417990922927856e-02 -5.165171995759010315e-02 -3.810476884245872498e-02 -9.379124641418457031e-02
1.638000000000000000e+03 2.208650207519531250e+01 2.684960746765136719e+01 -9.788643568754196167e-03 -2.282527238130569458e-01 -7.141240686178207397e-02 -9.762522578239440918e-02
1.639000000000000000e+03 2.318410491943359375e+01 2.685882377624511719e+01 -2.477987855672836304e-02 -2.299149781465530396e-01 -7.640845328569412231e-02 -1.533412337303161621e-01
1.640000000000000000e+03 1.359417724609375000e+01 -6.705960750579833984e+00 -1.577946357429027557e-03 -6.596860202989773825e-06 -4.753629909828305244e-04 2.304916415596380830e-04
1.641000000000000000e+03 2.210906219482421875e+01 2.546973609924316406e+01 -8.323932066559791565e-03 -3.085021078586578369e-01 -9.504781663417816162e-02 -1.125113517045974731e-01
1.642000000000000000e+03 2.449232101440429688e+01 2.283207321166992188e+01 -2.343459054827690125e-02 -4.153491556644439697e-01 -1.316351294517517090e-01 -2.811750471591949463e-01
1.643000000000000000e+03 2.131268501281738281e+01 -2.815234184265136719e+01 -9.887839667499065399e-03 -2.013116836547851562e+00 -6.069014072418212891e-01 -5.354040488600730896e-02
1.644000000000000000e+03 2.217439842224121094e+01 2.269254493713378906e+01 -4.924500361084938049e-03 -4.947013854980468750e-01 -1.498877704143524170e-01 -1.367161124944686890e-01
1.645000000000000000e+03 2.333233642578125000e+01 2.276550483703613281e+01 -1.177014503628015518e-02 -4.573504328727722168e-01 -1.407361626625061035e-01 -2.138482928276062012e-01
1.646000000000000000e+03 2.338396263122558594e+01 2.137718009948730469e+01 -7.676048669964075089e-03 -5.433385372161865234e-01 -1.653043776750564575e-01 -2.263691723346710205e-01
1.647000000000000000e+03 2.220661544799804688e+01 2.129775047302246094e+01 -2.244479954242706299e-03 -5.956875681877136230e-01 -1.793796122074127197e-01 -1.446123719215393066e-01
1.648000000000000000e+03 2.461687469482421875e+01 2.005249977111816406e+01 -6.233510095626115799e-03 -5.635555386543273926e-01 -1.709367185831069946e-01 -3.063478171825408936e-01
1.649000000000000000e+03 1.315407943725585938e+01 -1.613002777099609375e+01 3.401097841560840607e-03 2.823489776346832514e-04 1.105034025385975838e-03 -8.653239347040653229e-04
1.650000000000000000e+03 1.163304042816162109e+01 -1.857979011535644531e+01 -3.645148826763033867e-03 -8.841254166327416897e-04 -1.358782290481030941e-03 1.362978597171604633e-03
1.651000000000000000e+03 1.180790901184082031e+01 -1.593420600891113281e+01 -3.245106432586908340e-03 -3.239211218897253275e-04 -1.070708269253373146e-03 1.147220027633011341e-03
1.652000000000000000e+03 1.256133270263671875e+01 -9.431757926940917969e+00 1.920597162097692490e-03 1.498797209933400154e-04 6.211430300027132034e-04 -3.688471333589404821e-04
1.653000000000000000e+03 1.358190536499023438e+01 -9.396547317504882812e+00 -2.110810484737157822e-03 -4.488354898057878017e-05 -6.467082421295344830e-04 2.889128227252513170e-04
1.654000000000000000e+03 1.239075088500976562e+01 -1.197562026977539062e+01 2.262507565319538116e-03 3.553493006620556116e-04 7.853570859879255295e-04 -6.657462799921631813e-04
1.655000000000000000e+03 2.351568794250488281e+01 1.434434127807617188e+01 1.049847062677145004e-02 -9.878987669944763184e-01 -2.932201027870178223e-01 -2.275901436805725098e-01
1.656000000000000000e+03 2.349867820739746094e+01 1.575472927093505859e+01 7.805413100868463516e-03 -9.011758565902709961e-01 -2.680111229419708252e-01 -2.331423759460449219e-01
1.657000000000000000e+03 2.229753494262695312e+01 1.285867977142333984e+01 4.871110431849956512e-03 -1.218457341194152832e+00 -3.640758693218231201e-01 -1.399734914302825928e-01
1.658000000000000000e+03 2.353954696655273438e+01 1.151976680755615234e+01 1.009588968008756638e-02 -1.153933763504028320e+00 -3.431513309478759766e-01 -2.137784212827682495e-01
1.659000000000000000e+03 1.138361167907714844e+01 -1.978568077087402344e+01 3.534711431711912155e-03 9.620900382287800312e-04 1.349040423519909382e-03 -7.440121262334287167e-04
1.660000000000000000e+03 1.203316020965576172e+01 -2.388293838500976562e+01 4.305499140173196793e-03 1.772500225342810154e-03 1.823399798013269901e-03 -1.828603999456390738e-04
1.661000000000000000e+03 2.230744361877441406e+01 8.624464988708496094e+00 -1.078893081285059452e-03 -1.499356389045715332e+00 -4.501305818557739258e-01 -1.304289400577545166e-01
1.662000000000000000e+03 2.354002380371093750e+01 7.273472309112548828e+00 -1.747554354369640350e-02 -1.368340134620666504e+00 -4.157447218894958496e-01 -2.028123587369918823e-01
1.663000000000000000e+03 2.320318984985351562e+01 -5.623621940612792969e+00 3.249007463455200195e-02 -1.640540599822998047e+00 -4.824151694774627686e-01 -1.227560564875602722e-01
1.664000000000000000e+03 2.332474708557128906e+01 -4.225349903106689453e+00 1.748622953891754150e-02 -1.593644618988037109e+00 -4.728474915027618408e-01 -1.254071444272994995e-01
1.665000000000000000e+03 3.384752273559570312e+00 3.031159210205078125e+01 5.287675885483622551e-04 6.427165317290928215e-06 1.605584257049486041e-04 1.309300860157236457e-04
1.666000000000000000e+03 1.890613436698913574e+00 2.760930252075195312e+01 -4.546974960248917341e-04 1.110181801777798682e-05 -1.330787054030224681e-04 -6.272608879953622818e-05
1.667000000000000000e+03 5.101479530334472656e+00 3.319044876098632812e+01 -5.009180167689919472e-04 -1.122426765505224466e-04 -1.839482138166204095e-04 -1.769980735844001174e-04
1.668000000000000000e+03 3.077791213989257812e+00 3.724841690063476562e+01 -7.165997521951794624e-05 -2.075506563414819539e-05 -2.772451080090831965e-05 -1.448999682907015085e-06
1.669000000000000000e+03 3.242604494094848633e+00 2.892908477783203125e+01 -5.487833986990153790e-04 3.972438207711093128e-05 -1.527177082607522607e-04 -1.036156172631308436e-04
1.670000000000000000e+03 2.052605390548706055e+00 3.459494400024414062e+01 3.630348073784261942e-04 1.263266603928059340e-04 1.468084374209865928e-04 -8.972871000878512859e-05
1.671000000000000000e+03 3.515202283859252930e+00 3.462953186035156250e+01 -2.871598990168422461e-04 -2.279657055623829365e-04 -1.545376871945336461e-04 -4.378452649689279497e-05
1.672000000000000000e+03 5.033713340759277344e+00 3.162459754943847656e+01 5.417076754383742809e-04 8.258630259661003947e-05 1.872881839517503977e-04 1.686030300334095955e-04
1.673000000000000000e+03 3.502507686614990234e+00 3.172559356689453125e+01 -4.683768202085047960e-04 -7.251554779941216111e-05 -1.622677082195878029e-04 -1.301837473874911666e-04
1.674000000000000000e+03 3.557609558105468750e+00 -3.585072708129882812e+01 -1.517044845968484879e-03 5.925161298364400864e-03 1.322434982284903526e-03 8.088794536888599396e-03
1.675000000000000000e+03 3.262061595916748047e+00 -3.717255401611328125e+01 -4.064456443302333355e-04 9.388346225023269653e-03 2.694569993764162064e-03 8.548496291041374207e-03
1.676000000000000000e+03 3.467340469360351562e+00 -3.002102851867675781e+01 -7.834893767721951008e-04 -3.466639900580048561e-04 -3.390460042282938957e-04 1.799429883249104023e-03
1.677000000000000000e+03 2.045701503753662109e+00 -2.879084587097167969e+01 -1.237686607055366039e-03 -1.351748505840077996e-04 -4.118584329262375832e-04 8.075183723121881485e-04
1.678000000000000000e+03 1.867555975914001465e+00 2.203634071350097656e+01 -4.213174688629806042e-04 -6.266103724783533835e-08 -1.264140446437522769e-04 -3.175613892381079495e-05
1.679000000000000000e+03 3.130691289901733398e+00 2.345683670043945312e+01 -4.357789875939488411e-04 -2.312325705133844167e-05 -1.376706641167402267e-04 -6.065114212105982006e-05
1.680000000000000000e+03 3.108331680297851562e+00 -1.885074615478515625e+01 -2.616573125123977661e-03 -1.113895559683442116e-04 -8.183888276107609272e-04 1.130171804106794298e-04
1.681000000000000000e+03 3.013399600982666016e+00 -1.183083915710449219e+01 1.941775321029126644e-03 4.045734021929092705e-05 5.946697783656418324e-04 -1.275199174415320158e-04
1.682000000000000000e+03 1.652274012565612793e+00 -9.181592941284179688e+00 -1.876163994893431664e-03 -1.593712477188091725e-05 -5.676303408108651638e-04 -1.131283443100983277e-05
1.683000000000000000e+03 3.148803472518920898e+00 1.780034255981445312e+01 -3.954453568439930677e-04 -6.406219767995935399e-07 -1.188257956528104842e-04 -3.674462050184956752e-06
1.684000000000000000e+03 2.929743528366088867e+00 1.194972419738769531e+01 -3.323864075355231762e-04 4.161486140219494700e-05 -8.723146311240270734e-05 3.492074392852373421e-05
1.685000000000000000e+03 1.874688148498535156e+00 -1.477418136596679688e+01 -2.058136044070124626e-03 -1.385555806336924434e-04 -6.590074626728892326e-04 5.744947338826023042e-05
1.686000000000000000e+03 3.091945886611938477e+00 -1.323622226715087891e+01 -2.063711406663060188e-03 -1.264237798750400543e-04 -6.570405676029622555e-04 1.274986570933833718e-04
1.687000000000000000e+03 4.462433815002441406e+00 5.245697498321533203e+00 5.807452544104307890e-05 8.293754217447713017e-05 4.230362173984758556e-05 -5.799004065920598805e-05
1.688000000000000000e+03 2.804676771163940430e+00 7.615944385528564453e+00 2.139719435945153236e-04 1.295272886636666954e-05 6.807740282965824008e-05 -6.462372402893379331e-05
1.689000000000000000e+03 1.893629431724548340e+00 1.489038753509521484e+01 3.287741856183856726e-04 -1.557838231747155078e-06 9.816490637604147196e-05 -1.395017193317471538e-06
1.690000000000000000e+03 3.182116985321044922e+00 1.633637619018554688e+01 3.525585052557289600e-04 3.585525973903713748e-06 1.068432102329097688e-04 1.078029868040175643e-06
1.691000000000000000e+03 2.866336822509765625e+00 9.072010993957519531e+00 -2.717371680773794651e-04 -7.957147317938506603e-06 -8.390829316340386868e-05 6.444743485189974308e-05
1.692000000000000000e+03 5.788107395172119141e+00 -4.138534545898437500e+00 -1.123932772316038609e-03 -1.399471075274050236e-04 -3.791639464907348156e-04 -2.113387890858575702e-04
1.693000000000000000e+03 2.457406520843505859e+00 -5.144170284271240234e+00 -1.422400819137692451e-03 -4.127572174184024334e-04 -5.505474400706589222e-04 2.030625182669609785e-04
1.694000000000000000e+03 1.501494646072387695e+00 -6.438566207885742188e+00 -1.749801449477672577e-03 -5.518391481018625200e-05 -5.414956249296665192e-04 -7.881577766966074705e-05
1.695000000000000000e+03 3.411046028137207031e+00 -2.860367584228515625e+01 3.875003894791007042e-03 8.445032872259616852e-04 1.415852224454283714e-03 1.079153036698698997e-03
1.696000000000000000e+03 3.129432916641235352e+00 -2.160808753967285156e+01 -2.848617732524871826e-03 4.303202149458229542e-05 -8.416757336817681789e-04 2.775783941615372896e-04
1.697000000000000000e+03 2.125145912170410156e+00 -3.585476684570312500e+01 2.970820758491754532e-03 1.048131100833415985e-02 4.035639576613903046e-03 7.032989058643579483e-03
1.698000000000000000e+03 5.090915203094482422e+00 -3.604363632202148438e+01 2.752645174041390419e-03 1.043895957991480827e-03 1.138962339609861374e-03 1.167394220829010010e-02
1.699000000000000000e+03 3.183069229125976562e+00 -2.299938392639160156e+01 2.810209989547729492e-03 -2.151733679056633264e-05 8.366078254766762257e-04 -8.509084582328796387e-04
1.700000000000000000e+03 3.142098188400268555e+00 -1.607594108581542969e+01 -2.271537669003009796e-03 -1.710813085082918406e-04 -7.327856728807091713e-04 1.280475553357973695e-04
1.701000000000000000e+03 3.109542846679687500e+00 2.205857276916503906e+01 4.424777871463447809e-04 -5.334621164365671575e-06 1.311429514316841960e-04 6.659213977400213480e-05
1.702000000000000000e+03 2.894857645034790039e+00 -1.043826007843017578e+01 -1.853776164352893829e-03 1.937498018378391862e-05 -5.503203719854354858e-04 2.988909000123385340e-05
1.703000000000000000e+03 2.756432533264160156e+00 -9.068262100219726562e+00 1.745941117405891418e-03 -1.201234863401623443e-05 5.201786407269537449e-04 3.454067700658924878e-05
1.704000000000000000e+03 3.607887983322143555e+00 -3.292699432373046875e+01 1.558917720103636384e-04 3.119574103038758039e-04 1.403547503286972642e-04 5.534283816814422607e-03
1.705000000000000000e+03 5.180812835693359375e+00 -3.438217926025390625e+01 1.560002565383911133e-03 -2.917180303484201431e-03 -4.071533039677888155e-04 1.028603408485651016e-02
1.706000000000000000e+03 1.947495460510253906e+00 -2.457221221923828125e+01 2.047833055257797241e-03 -2.418455696897581220e-04 5.417962674982845783e-04 -5.773411830887198448e-04
1.707000000000000000e+03 4.559625148773193359e+00 -2.420256805419921875e+01 3.557030577212572098e-03 6.022753077559173107e-04 1.247791806235909462e-03 -1.005972619168460369e-03
1.708000000000000000e+03 3.308590412139892578e+00 -2.579432296752929688e+01 2.954591298475861549e-03 5.056906957179307938e-04 1.038084621541202068e-03 -5.576289840973913670e-04
1.709000000000000000e+03 3.130803108215332031e+00 -1.465711593627929688e+01 2.069567330181598663e-03 1.228067703777924180e-04 6.577122840099036694e-04 -2.319924678886309266e-04
1.710000000000000000e+03 2.838238716125488281e+00 1.052881336212158203e+01 3.167460381519049406e-04 -2.882752778532449156e-05 8.637555583845824003e-05 -5.210084418649785221e-05
1.711000000000000000e+03 3.073088407516479492e+00 1.338172817230224609e+01 3.379811532795429230e-04 -2.746862992353271693e-05 9.315375791629776359e-05 -1.219340083480346948e-05
1.712000000000000000e+03 3.079720497131347656e+00 1.922684097290039062e+01 4.329404328018426895e-04 -2.165393198083620518e-05 1.233859511557966471e-04 1.646064629312604666e-05
1.713000000000000000e+03 2.355418968200683594e+01 2.989257574081420898e+00 -2.492737770080566406e-02 -1.483836531639099121e+00 -4.526291787624359131e-01 -1.580867171287536621e-01
1.714000000000000000e+03 2.302042388916015625e+01 -9.758284568786621094e+00 -9.564381092786788940e-03 -1.710610866546630859e+00 -5.160525441169738770e-01 -1.181675419211387634e-01
1.715000000000000000e+03 1.121409034729003906e+01 3.233186340332031250e+01 8.363990345969796181e-04 -3.964859351981431246e-04 1.319739239988848567e-04 3.590678679756820202e-04
1.716000000000000000e+03 1.210488319396972656e+01 3.033613777160644531e+01 8.085859008133411407e-04 -2.300626365467905998e-04 1.735569821903482080e-04 2.213685220340266824e-04
1.717000000000000000e+03 1.219953727722167969e+01 2.319981002807617188e+01 4.878176550846546888e-04 4.381385224405676126e-05 1.594894565641880035e-04 -8.384272223338484764e-05
1.718000000000000000e+03 1.577546119689941406e+01 3.694176483154296875e+01 -9.738914086483418941e-04 -9.915991686284542084e-04 -5.896472139284014702e-04 1.897723268484696746e-04
1.719000000000000000e+03 2.291999626159667969e+01 -1.533054637908935547e+01 -2.156126685440540314e-02 -1.708549618721008301e+00 -5.190332531929016113e-01 -8.621261268854141235e-02
1.720000000000000000e+03 2.296447944641113281e+01 -1.254203605651855469e+01 -3.831842914223670959e-02 -1.718296647071838379e+00 -5.269845128059387207e-01 -1.010993868112564087e-01
1.721000000000000000e+03 1.195865917205810547e+01 -3.532715988159179688e+01 1.588551886379718781e-02 -7.309642154723405838e-03 2.572763012722134590e-03 -3.213564306497573853e-02
1.722000000000000000e+03 2.353452682495117188e+01 5.852541446685791016e+00 -3.382324427366256714e-02 -1.418056964874267578e+00 -4.355640411376953125e-01 -1.929417103528976440e-01
1.723000000000000000e+03 3.754365158081054688e+01 3.769791412353515625e+01 -1.239350880496203899e-03 -8.607372641563415527e-02 -2.619392424821853638e-02 9.730865061283111572e-02
1.724000000000000000e+03 1.394396877288818359e+01 3.523666381835937500e+01 3.902715397998690605e-04 1.796333381207659841e-04 1.709714561002328992e-04 -2.068908652290701866e-04
1.725000000000000000e+03 4.351931762695312500e+01 3.846336364746093750e+01 1.218058392405509949e-01 -2.849848866462707520e-01 -4.895371198654174805e-02 2.497293353080749512e-01
1.726000000000000000e+03 4.073484802246093750e+01 3.738116836547851562e+01 -1.757499203085899353e-02 -1.392360925674438477e-01 -4.704332351684570312e-02 1.726264804601669312e-01
1.727000000000000000e+03 2.346943283081054688e+01 -2.796639204025268555e+00 1.772730611264705658e-02 -1.558720350265502930e+00 -4.622979164123535156e-01 -1.411622911691665649e-01
1.728000000000000000e+03 2.287262916564941406e+01 -1.948492431640625000e+01 3.784953430294990540e-02 -1.689330577850341797e+00 -4.954443275928497314e-01 -8.908332139253616333e-02
1.729000000000000000e+03 1.255117321014404297e+01 2.815402793884277344e+01 6.599432090297341347e-04 6.585064693354070187e-05 2.177381538785994053e-04 2.720960183069109917e-04
1.730000000000000000e+03 1.127515220642089844e+01 2.700590133666992188e+01 4.628450551535934210e-04 1.884278899524360895e-04 1.953818864421918988e-04 1.720124419080093503e-04
1.731000000000000000e+03 3.290285491943359375e+01 3.791777420043945312e+01 -7.483750581741333008e-03 -1.210779231041669846e-02 -5.877462681382894516e-03 1.503663323819637299e-02
1.732000000000000000e+03 2.132676696777343750e+01 -2.092824172973632812e+01 1.388555672019720078e-02 -1.919638276100158691e+00 -5.717258453369140625e-01 -1.014247387647628784e-01
1.733000000000000000e+03 2.279309272766113281e+01 -3.158078956604003906e+01 -9.860405325889587402e-02 -1.717130780220031738e+00 -5.447204709053039551e-01 -1.128988489508628845e-01
1.734000000000000000e+03 2.291596221923828125e+01 -2.815255165100097656e+01 -1.498088613152503967e-02 -1.738702058792114258e+00 -5.261049270629882812e-01 -8.528400957584381104e-02
1.735000000000000000e+03 2.461097717285156250e+01 -2.680705261230468750e+01 1.109480578452348709e-02 -1.372552394866943359e+00 -4.084372818470001221e-01 -9.489122033119201660e-02
1.736000000000000000e+03 2.108794975280761719e+01 -2.950986099243164062e+01 -7.573453243821859360e-03 -2.073696851730346680e+00 -6.243811249732971191e-01 -6.762717664241790771e-02
1.737000000000000000e+03 2.349902915954589844e+01 -2.946503829956054688e+01 -4.213399440050125122e-02 -1.588596582412719727e+00 -4.892191588878631592e-01 -9.048169106245040894e-02
1.738000000000000000e+03 2.417758750915527344e+01 -3.479926300048828125e+01 -9.452034533023834229e-02 -1.307466268539428711e+00 -4.205959737300872803e-01 -2.710576914250850677e-02
1.739000000000000000e+03 4.885838508605957031e+00 -4.047304916381835938e+01 -3.486071713268756866e-03 8.553015999495983124e-03 1.520083402283489704e-03 1.068100798875093460e-02
1.740000000000000000e+03 7.934931755065917969e+00 -4.132066345214843750e+01 -2.772606164216995239e-02 5.591712426394224167e-03 -6.640304811298847198e-03 4.853088408708572388e-03
1.741000000000000000e+03 5.973619842529296875e+01 3.304640197753906250e+01 1.900754094123840332e+00 7.320873260498046875e+00 2.766488075256347656e+00 -5.159687519073486328e+00
1.742000000000000000e+03 5.925666427612304688e+01 3.318755722045898438e+01 1.836175322532653809e+00 4.894584655761718750e+00 2.019227981567382812e+00 -4.180109024047851562e+00
1.743000000000000000e+03 5.806141281127929688e+01 3.318855285644531250e+01 9.911457300186157227e-01 1.792207956314086914e+00 8.350060582160949707e-01 -2.072733640670776367e+00
1.744000000000000000e+03 6.008014297485351562e+01 3.319688034057617188e+01 1.279632210731506348e+00 9.842459678649902344e+00 3.336627483367919922e+00 -5.385595798492431641e+00
1.745000000000000000e+03 5.940114974975585938e+01 2.893335342407226562e+01 2.538273572921752930e+00 5.398158073425292969e+00 2.380929470062255859e+00 5.464955806732177734e+00
1.746000000000000000e+03 5.924695205688476562e+01 2.945000648498535156e+01 2.790638685226440430e+00 3.277812004089355469e+00 1.820535182952880859e+00 4.515556335449218750e+00
1.747000000000000000e+03 5.965484237670898438e+01 2.942769813537597656e+01 3.208781957626342773e+00 5.837800979614257812e+00 2.713974952697753906e+00 6.017076492309570312e+00
1.748000000000000000e+03 6.044160842895507812e+01 3.315464782714843750e+01 7.105404138565063477e-01 1.231037139892578125e+01 3.906273603439331055e+00 -5.221908569335937500e+00
1.749000000000000000e+03 6.016242218017578125e+01 2.874930191040039062e+01 1.510406970977783203e+00 1.058098888397216797e+01 3.627418756484985352e+00 6.029340267181396484e+00
1.750000000000000000e+03 6.166162109375000000e+01 3.282477188110351562e+01 6.426201462745666504e-01 1.941247177124023438e+01 6.016527652740478516e+00 -5.119954943656921387e-01
1.751000000000000000e+03 6.110578918457031250e+01 2.928703117370605469e+01 7.667087912559509277e-01 1.848164367675781250e+01 5.774505615234375000e+00 4.216214656829833984e+00
1.752000000000000000e+03 6.077632522583007812e+01 3.330697250366210938e+01 4.150814563035964966e-02 1.442539215087890625e+01 4.340070247650146484e+00 -4.305446147918701172e+00
1.753000000000000000e+03 6.105450439453125000e+01 2.885848999023437500e+01 4.399741590023040771e-01 1.637539100646972656e+01 5.044609546661376953e+00 4.229650020599365234e+00
1.754000000000000000e+03 6.308551788330078125e+01 3.131461143493652344e+01 8.177950859069824219e+00 1.483132648468017578e+01 6.902783393859863281e+00 1.188250422477722168e+00
1.755000000000000000e+03 6.281808853149414062e+01 3.188751411437988281e+01 6.678480625152587891e+00 1.635400581359863281e+01 6.909746170043945312e+00 2.557797193527221680e+00
1.756000000000000000e+03 6.124354934692382812e+01 3.302762222290039062e+01 -6.222500279545783997e-02 1.773800277709960938e+01 5.302733421325683594e+00 -2.850660800933837891e+00
1.757000000000000000e+03 5.778482055664062500e+01 2.911735534667968750e+01 8.803073763847351074e-01 1.031335473060607910e+00 5.734928250312805176e-01 2.147759914398193359e+00
1.758000000000000000e+03 5.676490020751953125e+01 2.854884147644042969e+01 4.274200499057769775e-01 9.323362708091735840e-01 4.079268872737884521e-01 1.709828019142150879e+00
1.759000000000000000e+03 5.991100311279296875e+01 2.863862037658691406e+01 1.653954386711120605e+00 8.923215866088867188e+00 3.173151016235351562e+00 5.888762474060058594e+00
1.760000000000000000e+03 5.769725418090820312e+01 3.342052459716796875e+01 7.283796668052673340e-01 1.567132353782653809e+00 6.886535882949829102e-01 -1.736032605171203613e+00
1.761000000000000000e+03 5.557208251953125000e+01 2.738444519042968750e+01 4.504632353782653809e-01 1.064517021179199219e+00 4.544940590858459473e-01 1.546684265136718750e+00
1.762000000000000000e+03 5.513177490234375000e+01 3.504372024536132812e+01 3.066307306289672852e-01 1.001999258995056152e+00 3.925889730453491211e-01 -5.885121822357177734e-01
1.763000000000000000e+03 5.629576110839843750e+01 3.453718185424804688e+01 4.927200376987457275e-01 1.399471521377563477e+00 5.676574707031250000e-01 -1.138646006584167480e+00
1.764000000000000000e+03 5.673062133789062500e+01 2.801096343994140625e+01 7.221056818962097168e-01 1.305122852325439453e+00 6.081685423851013184e-01 2.007812261581420898e+00
1.765000000000000000e+03 2.611889648437500000e+01 3.195912742614746094e+01 -1.104638352990150452e-01 -3.543106839060783386e-02 -4.376847296953201294e-02 -1.088402271270751953e-01
1.766000000000000000e+03 5.425692749023437500e+01 2.798698043823242188e+01 -3.865265250205993652e-01 3.945474624633789062e-01 2.406275365501642227e-03 7.324450612068176270e-01
1.767000000000000000e+03 5.579170227050781250e+01 3.493392181396484375e+01 4.502217173576354980e-01 1.312394857406616211e+00 5.287849307060241699e-01 -8.992457389831542969e-01
1.768000000000000000e+03 5.786024475097656250e+01 2.865978050231933594e+01 1.296857118606567383e+00 1.814018964767456055e+00 9.332628250122070312e-01 2.772543907165527344e+00
1.769000000000000000e+03 2.678352165222167969e+01 3.192492485046386719e+01 -1.343011260032653809e-01 -3.165968880057334900e-02 -4.978824406862258911e-02 -1.254013776779174805e-01
1.770000000000000000e+03 8.191293716430664062e+00 4.206293106079101562e+00 5.991128273308277130e-05 5.778549893875606358e-05 3.530903268256224692e-05 2.498371213732752949e-05
1.771000000000000000e+03 1.045291709899902344e+01 3.324756860733032227e+00 1.189701797557063401e-04 -7.168694082793081179e-06 3.354044383740983903e-05 1.474652344768401235e-05
1.772000000000000000e+03 2.614991378784179688e+01 3.273671340942382812e+01 -1.058008149266242981e-01 -2.210854366421699524e-02 -3.837280720472335815e-02 -8.643888682126998901e-02
1.773000000000000000e+03 2.537231445312500000e+01 3.124681282043457031e+01 -9.089295566082000732e-02 -5.709799751639366150e-02 -4.439728707075119019e-02 -1.176467686891555786e-01
1.774000000000000000e+03 5.237619400024414062e+00 4.374159812927246094e+00 8.293485007015988231e-05 6.333532655844464898e-05 4.388105298858135939e-05 -8.874218110577203333e-06
1.775000000000000000e+03 4.680171012878417969e+00 6.768419742584228516e+00 -5.331091961124911904e-05 1.361824274681566749e-06 -1.558472831675317138e-05 -4.236292807036079466e-05
1.776000000000000000e+03 5.251070022583007812e+00 3.541672229766845703e+00 -7.441184425260871649e-05 -5.361472722142934799e-05 -3.840797216980718076e-05 9.884649443847592920e-06
1.777000000000000000e+03 2.998530149459838867e+00 5.078717231750488281e+00 1.827401720220223069e-04 1.512747621745802462e-05 5.936029265285469592e-05 6.267920980462804437e-06
1.778000000000000000e+03 2.888843917846679688e+01 3.167588806152343750e+01 -2.241256535053253174e-01 -7.775424048304557800e-03 -6.957032531499862671e-02 -1.685723066329956055e-01
1.779000000000000000e+03 2.262008190155029297e+00 3.519476652145385742e+00 -8.744585647946223617e-05 -6.799817492719739676e-05 -4.663320942199788988e-05 8.855499618221074343e-05
1.780000000000000000e+03 2.934025049209594727e+00 3.625766038894653320e+00 6.593715806957334280e-05 9.921275341184809804e-05 4.954497489961795509e-05 3.023631325049791485e-05
1.781000000000000000e+03 1.449338316917419434e+00 4.862044811248779297e+00 -8.045094000408425927e-05 -2.892991869885008782e-05 -3.281425597378984094e-05 6.037236016709357500e-05
1.782000000000000000e+03 1.642060160636901855e+00 3.294996976852416992e+00 1.491253060521557927e-04 5.446833256428362802e-06 4.637164238374680281e-05 2.480456714692991227e-05
1.783000000000000000e+03 2.962001800537109375e+01 3.160496139526367188e+01 -2.612519860267639160e-01 1.862294157035648823e-03 -7.781691104173660278e-02 -1.820177435874938965e-01
1.784000000000000000e+03 3.035506248474121094e+01 3.152686691284179688e+01 -3.003563284873962402e-01 1.159108988940715790e-02 -8.662957698106765747e-02 -1.938934773206710815e-01
1.785000000000000000e+03 5.458309936523437500e+01 3.467347335815429688e+01 -5.833598598837852478e-02 6.585158109664916992e-01 1.800539493560791016e-01 -1.989790350198745728e-01
1.786000000000000000e+03 5.282471084594726562e+01 2.926178932189941406e+01 -1.740750551223754883e+00 4.168311506509780884e-02 -5.097202658653259277e-01 1.629809886217117310e-01
1.787000000000000000e+03 3.182422065734863281e+01 3.134548187255859375e+01 -3.867401480674743652e-01 3.007460013031959534e-02 -1.069996580481529236e-01 -2.153091430664062500e-01
1.788000000000000000e+03 5.293559646606445312e+01 3.726940917968750000e+01 5.661474466323852539e-01 5.826790332794189453e-01 3.446479439735412598e-01 -1.288262940943241119e-02
1.789000000000000000e+03 5.197385787963867188e+01 3.962771606445312500e+01 7.901023030281066895e-01 9.133895635604858398e-01 5.110476016998291016e-01 -3.014583513140678406e-02
1.790000000000000000e+03 9.723457336425781250e+00 4.142451763153076172e+00 1.173588389065116644e-04 2.264001705043483526e-05 4.199965769657865167e-05 5.098823385196737945e-05
1.791000000000000000e+03 9.964340209960937500e+00 -5.369850158691406250e+00 1.094222883693873882e-03 3.910473315045237541e-04 4.455810703802853823e-04 -6.843445589765906334e-04
1.792000000000000000e+03 1.010750102996826172e+01 -4.404725074768066406e+00 -9.253026219084858894e-04 -3.413875529076904058e-04 -3.800070553552359343e-04 4.891015123575925827e-04
1.793000000000000000e+03 2.896368408203125000e+01 3.245863342285156250e+01 -2.200994640588760376e-01 3.110370133072137833e-03 -6.509672850370407104e-02 -1.321370154619216919e-01
1.794000000000000000e+03 1.174748420715332031e+01 -4.416881561279296875e+00 -1.066288212314248085e-03 -2.840785309672355652e-04 -4.051100113429129124e-04 6.792285130359232426e-04
1.795000000000000000e+03 3.255595779418945312e+01 3.124158859252929688e+01 -4.336436390876770020e-01 3.825714811682701111e-02 -1.186159476637840271e-01 -2.249086946249008179e-01
1.796000000000000000e+03 2.746624183654785156e+01 3.184172248840332031e+01 -1.636335402727127075e-01 -2.228974178433418274e-02 -5.577698722481727600e-02 -1.405178010463714600e-01
1.797000000000000000e+03 2.816742134094238281e+01 3.175312232971191406e+01 -1.921231895685195923e-01 -1.513133756816387177e-02 -6.217635795474052429e-02 -1.534769386053085327e-01
1.798000000000000000e+03 3.188654518127441406e+01 3.205343627929687500e+01 -3.891507387161254883e-01 3.247842565178871155e-02 -1.070016920566558838e-01 -1.705285310745239258e-01
1.799000000000000000e+03 3.109022712707519531e+01 3.143954086303710938e+01 -3.426015675067901611e-01 2.084055729210376740e-02 -9.652830660343170166e-02 -2.053780704736709595e-01
1.800000000000000000e+03 3.914802932739257812e+01 3.000366783142089844e+01 -9.130129814147949219e-01 8.994510769844055176e-02 -2.469203472137451172e-01 -2.799540460109710693e-01
1.801000000000000000e+03 3.988858413696289062e+01 2.986016464233398438e+01 -9.683496952056884766e-01 9.214529395103454590e-02 -2.628613114356994629e-01 -2.825619876384735107e-01
1.802000000000000000e+03 3.701412582397460938e+01 3.111168479919433594e+01 -7.863737344741821289e-01 6.840529292821884155e-02 -2.153905332088470459e-01 -2.064866274595260620e-01
1.803000000000000000e+03 3.840536880493164062e+01 3.014564323425292969e+01 -8.568441867828369141e-01 8.545079082250595093e-02 -2.314180284738540649e-01 -2.775371968746185303e-01
1.804000000000000000e+03 3.554478454589843750e+01 3.140146064758300781e+01 -6.626439094543457031e-01 6.027042865753173828e-02 -1.807120442390441895e-01 -2.000928968191146851e-01
1.805000000000000000e+03 3.756321716308593750e+01 2.960412597656250000e+01 -7.431720495223999023e-01 8.690182864665985107e-02 -1.968810558319091797e-01 -3.321806192398071289e-01
1.806000000000000000e+03 4.072106933593750000e+01 3.039689636230468750e+01 -1.117056846618652344e+00 8.056781440973281860e-02 -3.109467029571533203e-01 -2.114883810281753540e-01
1.807000000000000000e+03 3.328440475463867188e+01 3.112573432922363281e+01 -4.817225635051727295e-01 4.621119052171707153e-02 -1.306534111499786377e-01 -2.336249053478240967e-01
1.808000000000000000e+03 3.400998306274414062e+01 3.099950218200683594e+01 -5.320270657539367676e-01 5.295719206333160400e-02 -1.437209546566009521e-01 -2.421811521053314209e-01
1.809000000000000000e+03 4.363317489624023438e+01 2.913314628601074219e+01 -1.203708887100219727e+00 9.655536711215972900e-02 -3.321460485458374023e-01 -2.719888985157012939e-01
1.810000000000000000e+03 7.240864753723144531e+00 -3.357166051864624023e+00 3.578720206860452890e-04 5.694554420188069344e-04 2.781982184387743473e-04 -1.108198193833231926e-05
1.811000000000000000e+03 1.165237998962402344e+01 -5.438065052032470703e+00 6.566425436176359653e-04 7.132577593438327312e-04 4.109700967092067003e-04 -8.274553692899644375e-04
1.812000000000000000e+03 4.287693405151367188e+01 2.927559471130371094e+01 -1.164528012275695801e+00 9.572234004735946655e-02 -3.206416964530944824e-01 -2.782602608203887939e-01
1.813000000000000000e+03 4.667007827758789062e+01 2.861149215698242188e+01 -1.292150497436523438e+00 9.432964026927947998e-02 -3.593462407588958740e-01 -2.147316634654998779e-01
1.814000000000000000e+03 4.672693252563476562e+01 2.930224609375000000e+01 -1.536121845245361328e+00 6.688986718654632568e-02 -4.407696127891540527e-01 -1.623320877552032471e-01
1.815000000000000000e+03 4.824783325195312500e+01 2.907677268981933594e+01 -1.567654967308044434e+00 6.026273965835571289e-02 -4.522176682949066162e-01 -1.195291802287101746e-01
1.816000000000000000e+03 3.473460006713867188e+01 3.086457061767578125e+01 -5.829310417175292969e-01 5.967151746153831482e-02 -1.569778472185134888e-01 -2.499212324619293213e-01
1.817000000000000000e+03 3.546001052856445312e+01 3.072333717346191406e+01 -6.356865167617797852e-01 6.522150337696075439e-02 -1.711394935846328735e-01 -2.573159635066986084e-01
1.818000000000000000e+03 5.053060150146484375e+01 2.814375114440917969e+01 -1.131226539611816406e+00 1.219794973731040955e-01 -3.027741312980651855e-01 2.334869466722011566e-02
1.819000000000000000e+03 5.054941940307617188e+01 2.881015014648437500e+01 -1.507014393806457520e+00 6.870256364345550537e-02 -4.314935505390167236e-01 1.652847277000546455e-03
1.820000000000000000e+03 4.820473480224609375e+01 2.839206123352050781e+01 -1.274558186531066895e+00 9.638340771198272705e-02 -3.534524440765380859e-01 -1.510428339242935181e-01
1.821000000000000000e+03 4.705785369873046875e+01 3.716310882568359375e+01 1.561464965343475342e-01 -2.607005834579467773e-01 -3.136622905731201172e-02 4.206579029560089111e-01
1.822000000000000000e+03 1.196704196929931641e+01 3.057686805725097656e+00 7.363381882896646857e-05 -9.428994417248759419e-06 1.926144796016160399e-05 -5.131516081746667624e-05
1.823000000000000000e+03 1.224606323242187500e+01 3.719057559967041016e+00 -1.332979591097682714e-04 4.408480890560895205e-05 -2.676394251466263086e-05 5.203498949413187802e-05
1.824000000000000000e+03 5.281631088256835938e+01 2.864542007446289062e+01 -1.224604368209838867e+00 1.106032356619834900e-01 -3.342003524303436279e-01 2.433845698833465576e-01
1.825000000000000000e+03 4.438793182373046875e+01 2.899420166015625000e+01 -1.237983226776123047e+00 9.519322216510772705e-02 -3.428370058536529541e-01 -2.638532817363739014e-01
1.826000000000000000e+03 4.063135528564453125e+01 2.971507072448730469e+01 -1.021335005760192871e+00 9.484075754880905151e-02 -2.779482603073120117e-01 -2.834147512912750244e-01
1.827000000000000000e+03 4.137599945068359375e+01 2.956813812255859375e+01 -1.072511911392211914e+00 9.515257179737091064e-02 -2.932077944278717041e-01 -2.836797237396240234e-01
1.828000000000000000e+03 8.988589286804199219e+00 4.936410427093505859e+00 9.817515820031985641e-05 4.800600072485394776e-05 4.385434658615849912e-05 6.007680713082663715e-05
1.829000000000000000e+03 4.590632247924804688e+01 2.873284912109375000e+01 -1.283831715583801270e+00 9.361018985509872437e-02 -3.570664525032043457e-01 -2.361871302127838135e-01
1.830000000000000000e+03 4.615577697753906250e+00 -4.124732017517089844e+00 4.228977777529507875e-04 -6.536448490805923939e-04 -6.922411557752639055e-05 -9.724769915919750929e-05
1.831000000000000000e+03 6.464384078979492188e+00 -4.992875099182128906e+00 -4.718413692899048328e-04 -5.632059182971715927e-04 -3.105142095591872931e-04 -5.269155371934175491e-04
1.832000000000000000e+03 7.976332187652587891e+00 -3.380396366119384766e+00 -3.851179790217429399e-04 -6.158892065286636353e-04 -3.003021702170372009e-04 2.712210116442292929e-04
1.833000000000000000e+03 4.484420776367187500e+00 -3.412591457366943359e+00 3.464483597781509161e-05 4.420450422912836075e-04 1.430069678463041782e-04 1.505037362221628428e-04
1.834000000000000000e+03 3.676179170608520508e+00 -7.608854770660400391e+00 1.287725521251559258e-03 1.320956944255158305e-04 4.259463457856327295e-04 1.862823555711656809e-04
1.835000000000000000e+03 3.224076747894287109e+00 -3.734241008758544922e+00 5.234127165749669075e-04 -3.502701583784073591e-04 5.194276673137210310e-05 1.032876083627343178e-03
1.836000000000000000e+03 3.515271902084350586e+00 -6.387989521026611328e+00 -1.062915660440921783e-03 -2.475308137945830822e-04 -3.931339597329497337e-04 -1.466528628952801228e-04
1.837000000000000000e+03 2.497337341308593750e+00 -6.432989597320556641e+00 1.584542565979063511e-03 1.247807231266051531e-04 5.127969780005514622e-04 -1.845748738560359925e-05
1.838000000000000000e+03 5.281343460083007812e+01 2.801609611511230469e+01 -7.817148566246032715e-01 2.275176197290420532e-01 -1.662591695785522461e-01 3.603364825248718262e-01
1.839000000000000000e+03 5.493693542480468750e+01 2.798422622680664062e+01 -1.376720964908599854e-01 5.242047905921936035e-01 1.159598082304000854e-01 9.728828072547912598e-01
1.840000000000000000e+03 1.264078330993652344e+01 -4.295035362243652344e+00 1.302881748415529728e-03 -3.793316136579960585e-05 3.794845833908766508e-04 -2.783549716696143150e-04
1.841000000000000000e+03 1.173646450042724609e+01 -3.512242317199707031e+00 1.264192396774888039e-03 -6.569116521859541535e-05 3.595503803808242083e-04 -4.495590110309422016e-04
1.842000000000000000e+03 1.136141681671142578e+01 3.976481676101684570e+00 1.642023707972839475e-04 -2.871288415917661041e-05 4.064684981130994856e-05 8.639965017209760845e-06
1.843000000000000000e+03 1.358057117462158203e+01 3.373734951019287109e+00 2.008155424846336246e-04 -2.101658537867479026e-05 5.393968604039400816e-05 2.022316220973152667e-05
1.844000000000000000e+03 2.317339515686035156e+01 3.098993492126464844e+01 -3.403359651565551758e-02 -7.206332683563232422e-02 -3.182907775044441223e-02 -7.096324115991592407e-02
1.845000000000000000e+03 2.300090217590332031e+01 3.223426437377929688e+01 -2.746432274580001831e-02 -3.946172818541526794e-02 -2.007781527936458588e-02 -3.993642702698707581e-02
1.846000000000000000e+03 1.223569774627685547e+01 -1.324979209899902344e+01 -2.453391673043370247e-03 -4.988826112821698189e-04 -8.856822969391942024e-04 9.466029005125164986e-04
1.847000000000000000e+03 1.197703742980957031e+01 -1.456000995635986328e+01 2.635075943544507027e-03 5.489043542183935642e-04 9.551940602250397205e-04 -1.019783434458076954e-03
1.848000000000000000e+03 1.253887844085693359e+01 -6.837218761444091797e+00 1.698837382718920708e-03 -9.999461326515302062e-05 4.796528373844921589e-04 -3.021116135641932487e-04
1.849000000000000000e+03 1.258453845977783203e+01 -8.150007247924804688e+00 -1.832266803830862045e-03 1.732690725475549698e-05 -5.444819689728319645e-04 2.599853032734245062e-04
1.850000000000000000e+03 5.404523468017578125e+01 3.656217956542968750e+01 4.834983348846435547e-01 1.164914846420288086e+00 4.945239424705505371e-01 -2.459025233983993530e-01
1.851000000000000000e+03 1.253705692291259766e+01 7.874888896942138672e+00 -1.785677886800840497e-04 -2.100113306369166821e-05 -5.987067561363801360e-05 -3.470230149105191231e-05
1.852000000000000000e+03 4.649710464477539062e+01 3.871820831298828125e+01 3.846153914928436279e-01 -2.913999259471893311e-01 2.796463668346405029e-02 2.985048294067382812e-01
1.853000000000000000e+03 4.185778808593750000e+01 4.139001846313476562e+01 2.662350833415985107e-01 -3.028014004230499268e-01 -1.096989493817090988e-02 6.237162277102470398e-02
1.854000000000000000e+03 2.721476745605468750e+01 4.171049118041992188e+01 -5.806077737361192703e-03 1.090755686163902283e-03 -1.414596685208380222e-03 -4.759099334478378296e-03
1.855000000000000000e+03 1.823384666442871094e+01 4.148658752441406250e+01 9.161107591353356838e-04 4.254756786394864321e-04 4.024759400635957718e-04 -1.934013445861637592e-03
1.856000000000000000e+03 2.518723487854003906e+01 1.823651790618896484e-01 1.425500772893428802e-02 -1.239429116249084473e+00 -3.675522208213806152e-01 -1.705745458602905273e-01
1.857000000000000000e+03 2.494534111022949219e+01 -2.885646343231201172e+00 2.496261708438396454e-02 -1.307686686515808105e+00 -3.848172128200531006e-01 -1.506631076335906982e-01
1.858000000000000000e+03 2.441769981384277344e+01 -1.803281784057617188e+01 2.603095024824142456e-02 -1.428737401962280273e+00 -4.208119511604309082e-01 -6.713920831680297852e-02
1.859000000000000000e+03 2.445667648315429688e+01 -1.940955924987792969e+01 3.355681151151657104e-02 -1.415314912796020508e+00 -4.145274460315704346e-01 -7.382104545831680298e-02
1.860000000000000000e+03 2.484090423583984375e+01 3.122902870178222656e+00 -1.582230627536773682e-02 -1.261078119277954102e+00 -3.830701112747192383e-01 -1.914063245058059692e-01
1.861000000000000000e+03 4.608818817138671875e+01 3.594012069702148438e+01 -1.479621380567550659e-01 -2.156113535165786743e-01 -1.090720444917678833e-01 4.499267339706420898e-01
1.862000000000000000e+03 2.441003990173339844e+01 -1.665736389160156250e+01 9.351628832519054413e-03 -1.432707667350769043e+00 -4.270068109035491943e-01 -8.001421391963958740e-02
1.863000000000000000e+03 2.306037330627441406e+01 -8.376761436462402344e+00 3.182602580636739731e-03 -1.676537394523620605e+00 -5.020064115524291992e-01 -1.260505914688110352e-01
1.864000000000000000e+03 2.460146713256835938e+01 -5.688751697540283203e+00 2.528921887278556824e-02 -1.392747044563293457e+00 -4.102373719215393066e-01 -1.390390247106552124e-01
1.865000000000000000e+03 1.337869739532470703e+01 -1.341885566711425781e+01 2.846334129571914673e-03 1.572897162986919284e-04 9.010871290229260921e-04 -5.609735962934792042e-04
1.866000000000000000e+03 2.439035606384277344e+01 -1.251000881195068359e+01 -1.923138834536075592e-02 -1.444799304008483887e+00 -4.392091929912567139e-01 -1.067595183849334717e-01
1.867000000000000000e+03 1.111196613311767578e+01 2.582943725585937500e+01 -3.770178591366857290e-04 -2.388222201261669397e-04 -1.847520325100049376e-04 -1.050518549163825810e-04
1.868000000000000000e+03 4.707815170288085938e+00 1.048014736175537109e+01 1.869485422503203154e-04 2.209581907663960010e-05 6.271330494200810790e-05 -4.589702439261600375e-05
1.869000000000000000e+03 1.247371578216552734e+01 9.132744789123535156e+00 1.893558510346338153e-04 2.958380719064734876e-05 6.568189564859494567e-05 4.106168853468261659e-05
1.870000000000000000e+03 1.007267284393310547e+01 1.887136459350585938e+01 9.162462083622813225e-05 -3.191744617652148008e-04 -6.826495518907904625e-05 -4.605190042639151216e-05
1.871000000000000000e+03 1.075984382629394531e+01 1.528382015228271484e+01 6.627881521126255393e-05 -2.681202931853476912e-05 1.184003667731303722e-05 -2.005951100727543235e-04
1.872000000000000000e+03 7.588986206054687500e+01 1.278296089172363281e+01 -1.331177502870559692e-01 8.020868301391601562e+00 2.366325378417968750e+00 -4.501570463180541992e-01
1.873000000000000000e+03 7.546824645996093750e+01 -9.424631595611572266e-01 -2.928925119340419769e-02 8.277202606201171875e+00 2.474374055862426758e+00 -4.273295402526855469e-02
1.874000000000000000e+03 7.408861541748046875e+01 -2.235443830490112305e+00 -4.113203659653663635e-02 8.015047073364257812e+00 2.392174482345581055e+00 -2.304401434957981110e-02
1.875000000000000000e+03 7.556970214843750000e+01 -9.169157981872558594e+00 -9.976460598409175873e-03 8.276863098144531250e+00 2.480065822601318359e+00 8.123422041535377502e-03
1.876000000000000000e+03 7.585382080078125000e+01 5.949013710021972656e+00 -6.680931150913238525e-02 8.275000572204589844e+00 2.462457180023193359e+00 -1.676628440618515015e-01
1.877000000000000000e+03 7.687785339355468750e+01 1.679498553276062012e+00 -2.191727422177791595e-02 8.520956993103027344e+00 2.549711942672729492e+00 -6.540708243846893311e-02
1.878000000000000000e+03 7.436189270019531250e+01 -8.991266250610351562e+00 -1.147046219557523727e-02 8.037350654602050781e+00 2.407763957977294922e+00 1.234538573771715164e-02
1.879000000000000000e+03 7.537635040283203125e+01 -1.621329879760742188e+01 -7.394698332063853741e-04 8.199650764465332031e+00 2.459673404693603516e+00 2.053173817694187164e-02
1.880000000000000000e+03 7.708282470703125000e+01 8.597893714904785156e+00 -4.950320720672607422e-02 8.366943359375000000e+00 2.495232105255126953e+00 -2.066372334957122803e-01
1.881000000000000000e+03 7.449813079833984375e+01 3.083783149719238281e+01 5.986042022705078125e-01 6.789158344268798828e+00 2.216328620910644531e+00 -2.630271017551422119e-01
1.882000000000000000e+03 7.549777984619140625e+01 -5.114000797271728516e+00 -1.178176049143075943e-02 8.278787612915039062e+00 2.480101585388183594e+00 -6.009100005030632019e-03
1.883000000000000000e+03 7.553609466552734375e+01 -6.476345539093017578e+00 -9.783385321497917175e-03 8.280286788940429688e+00 2.481151103973388672e+00 -6.869707140140235424e-04
1.884000000000000000e+03 7.547163391113281250e+01 -3.727576971054077148e+00 -2.225442975759506226e-02 8.276148796081542969e+00 2.476168394088745117e+00 -1.460069697350263596e-02
1.885000000000000000e+03 7.476377868652343750e+01 1.989914703369140625e+01 -1.648495197296142578e-01 7.590331554412841797e+00 2.227644443511962891e+00 -9.802148342132568359e-01
1.886000000000000000e+03 7.693138122558593750e+01 3.067558050155639648e+00 -2.872741408646106720e-02 8.512046813964843750e+00 2.544995784759521484e+00 -8.489585667848587036e-02
1.887000000000000000e+03 7.558732604980468750e+01 1.799748420715332031e+00 -4.390030726790428162e-02 8.287887573242187500e+00 2.473196029663085938e+00 -7.811997085809707642e-02
1.888000000000000000e+03 7.592739868164062500e+01 1.002286529541015625e+01 -1.023571491241455078e-01 8.160970687866210938e+00 2.417583942413330078e+00 -3.111085891723632812e-01
1.889000000000000000e+03 7.409619903564453125e+01 -1.615212059020996094e+01 5.996538791805505753e-03 7.961767673492431641e+00 2.390329360961914062e+00 2.552990801632404327e-02
1.890000000000000000e+03 7.492645263671875000e+01 -2.339180564880371094e+01 8.075330406427383423e-03 8.088521003723144531e+00 2.428978919982910156e+00 1.417635194957256317e-02
1.891000000000000000e+03 7.541094970703125000e+01 -1.193482875823974609e+01 -6.289367564022541046e-03 8.233493804931640625e+00 2.468161344528198242e+00 1.107231620699167252e-02
1.892000000000000000e+03 7.532460021972656250e+01 -1.334524250030517578e+01 -2.438520779833197594e-03 8.218737602233886719e+00 2.464889764785766602e+00 1.514635793864727020e-02
1.893000000000000000e+03 7.550903320312500000e+01 -1.054433250427246094e+01 -5.165965296328067780e-03 8.255483627319335938e+00 2.475095272064208984e+00 1.147942151874303818e-02
1.894000000000000000e+03 7.592787170410156250e+01 2.258509635925292969e+01 -3.635382512584328651e-03 7.018058300018310547e+00 2.104326725006103516e+00 -9.344921708106994629e-01
1.895000000000000000e+03 7.592383575439453125e+01 8.663620948791503906e+00 -8.799750357866287231e-02 8.212023735046386719e+00 2.437207937240600586e+00 -2.555986642837524414e-01
1.896000000000000000e+03 7.591523742675781250e+01 1.139537048339843750e+01 -1.154521852731704712e-01 8.097313880920410156e+00 2.394558429718017578e+00 -3.745981156826019287e-01
1.897000000000000000e+03 7.705030822753906250e+01 1.693263053894042969e+01 -8.142647892236709595e-02 7.632825851440429688e+00 2.265419721603393555e+00 -5.667639970779418945e-01
1.898000000000000000e+03 7.584374237060546875e+01 1.699440574645996094e+01 -1.455700993537902832e-01 7.699562549591064453e+00 2.266197681427001953e+00 -7.066588401794433594e-01
1.899000000000000000e+03 7.706452178955078125e+01 1.833515357971191406e+01 -7.197491824626922607e-02 7.433431625366210938e+00 2.208436965942382812e+00 -6.330280900001525879e-01
1.900000000000000000e+03 7.591497802734375000e+01 1.982141876220703125e+01 -1.033479049801826477e-01 7.391273021697998047e+00 2.186377525329589844e+00 -8.619216680526733398e-01
1.901000000000000000e+03 7.527199554443359375e+01 -1.907917404174804688e+01 -5.338101182132959366e-04 8.175077438354492188e+00 2.452363252639770508e+00 1.746614091098308563e-02
1.902000000000000000e+03 7.663005828857421875e+01 -1.921295166015625000e+01 -1.233857474289834499e-04 8.425182342529296875e+00 2.527517795562744141e+00 8.479680866003036499e-03
1.903000000000000000e+03 7.512384033203125000e+01 -2.049027252197265625e+01 1.586030703037977219e-03 8.135717391967773438e+00 2.441190958023071289e+00 1.767216622829437256e-02
1.904000000000000000e+03 7.511394500732421875e+01 -2.627385139465332031e+01 -1.752360112732276320e-04 8.113318443298339844e+00 2.433943033218383789e+00 7.454559672623872757e-03
1.905000000000000000e+03 7.488900756835937500e+01 -3.106005096435546875e+01 -3.043259494006633759e-03 8.081474304199218750e+00 2.423529386520385742e+00 8.009327575564384460e-03
1.906000000000000000e+03 7.593690490722656250e+01 2.393437767028808594e+01 6.104908511042594910e-02 6.825396537780761719e+00 2.065933704376220703e+00 -9.246680736541748047e-01
1.907000000000000000e+03 7.595153808593750000e+01 2.528048896789550781e+01 1.391861885786056519e-01 6.632088661193847656e+00 2.031382560729980469e+00 -8.708289861679077148e-01
1.908000000000000000e+03 7.497241973876953125e+01 -2.486001968383789062e+01 2.827998250722885132e-03 8.088540077209472656e+00 2.427410364151000977e+00 7.608707062900066376e-03
1.909000000000000000e+03 7.539561462402343750e+01 -2.878757286071777344e+01 -4.559246823191642761e-03 8.159141540527343750e+00 2.446374654769897461e+00 -3.688221040647476912e-04
1.910000000000000000e+03 7.650997924804687500e+01 -2.485864067077636719e+01 1.357831060886383057e-03 8.386003494262695312e+00 2.516208410263061523e+00 4.774336703121662140e-03
1.911000000000000000e+03 7.499307250976562500e+01 -2.192802238464355469e+01 4.326489754021167755e-03 8.108926773071289062e+00 2.433976173400878906e+00 1.561944466084241867e-02
1.912000000000000000e+03 7.705642700195312500e+01 2.662927627563476562e+01 1.279958337545394897e-01 6.018449783325195312e+00 1.843933701515197754e+00 -6.178944110870361328e-01
1.913000000000000000e+03 7.594610595703125000e+01 2.663742637634277344e+01 2.196990549564361572e-01 6.457207202911376953e+00 2.003071784973144531e+00 -7.718384861946105957e-01
1.914000000000000000e+03 7.304655456542968750e+01 -3.022642898559570312e+01 -3.088687546551227570e-03 7.680895328521728516e+00 2.303342103958129883e+00 1.576448045670986176e-02
1.915000000000000000e+03 7.373760986328125000e+01 -3.612245941162109375e+01 -9.303098544478416443e-03 7.805097579956054688e+00 2.338738203048706055e+00 -1.157590281218290329e-02
1.916000000000000000e+03 7.688465118408203125e+01 2.950693511962890625e+01 2.073241025209426880e-01 5.740314006805419922e+00 1.784291505813598633e+00 -3.502219915390014648e-01
1.917000000000000000e+03 7.622049713134765625e+01 -3.165037918090820312e+01 -4.246130120009183884e-03 8.284387588500976562e+00 2.484042406082153320e+00 3.059205599129199982e-03
1.918000000000000000e+03 7.535617828369140625e+01 -2.997858619689941406e+01 1.267034746706485748e-02 8.174771308898925781e+00 2.456232309341430664e+00 -5.760165095125557855e-06
1.919000000000000000e+03 7.511813354492187500e+01 -3.522231674194335938e+01 -2.904603257775306702e-02 8.087177276611328125e+00 2.417439222335815430e+00 -2.831295877695083618e-02
1.920000000000000000e+03 7.604672241210937500e+01 -3.662054824829101562e+01 -3.991435840725898743e-02 8.336491584777832031e+00 2.488973379135131836e+00 1.194804906845092773e-02
1.921000000000000000e+03 7.456150817871093750e+01 3.448982620239257812e+01 3.428142368793487549e-01 6.771957397460937500e+00 2.134431362152099609e+00 2.510052621364593506e-01
1.922000000000000000e+03 7.576470184326171875e+01 2.945785522460937500e+01 3.638240993022918701e-01 6.236309528350830078e+00 1.980040073394775391e+00 -4.471713900566101074e-01
1.923000000000000000e+03 2.476643180847167969e+01 1.158162975311279297e+01 1.706667803227901459e-02 -9.989095926284790039e-01 -2.945528626441955566e-01 -2.781814038753509521e-01
1.924000000000000000e+03 1.284063434600830078e+01 -2.236931800842285156e+01 5.499458406120538712e-03 -1.424830174073576927e-03 1.222388469614088535e-03 1.321932417340576649e-03
1.925000000000000000e+03 1.272272014617919922e+01 -2.022297477722167969e+01 -3.803310217335820198e-03 -1.521513215266168118e-03 -1.597447087988257408e-03 2.203319454565644264e-03
1.926000000000000000e+03 2.294586753845214844e+01 -1.393831062316894531e+01 -3.098528645932674408e-02 -1.724982619285583496e+00 -5.267903804779052734e-01 -9.506419301033020020e-02
1.927000000000000000e+03 2.440557479858398438e+01 -1.389740371704101562e+01 -2.291107363998889923e-02 -1.435687661170959473e+00 -4.375796020030975342e-01 -8.669315278530120850e-02
1.928000000000000000e+03 2.477433967590332031e+01 1.016585922241210938e+01 1.495852414518594742e-02 -1.062908649444580078e+00 -3.143850266933441162e-01 -2.681187093257904053e-01
1.929000000000000000e+03 2.475126075744628906e+01 1.299505233764648438e+01 1.944764703512191772e-02 -9.331566095352172852e-01 -2.741127014160156250e-01 -2.884174883365631104e-01
1.930000000000000000e+03 5.989814281463623047e+00 -2.542001342773437500e+01 4.738700576126575470e-03 1.120934844948351383e-03 1.757890684530138969e-03 -1.169801224023103714e-03
1.931000000000000000e+03 1.167320537567138672e+01 -3.000775337219238281e+01 -6.911166943609714508e-03 -1.636174041777849197e-03 -2.564202295616269112e-03 2.702097874134778976e-03
1.932000000000000000e+03 2.566180610656738281e+01 2.289137840270996094e+01 -3.659404814243316650e-02 -3.696181476116180420e-01 -1.218636557459831238e-01 -3.390687406063079834e-01
1.933000000000000000e+03 2.456297111511230469e+01 2.144901847839355469e+01 -1.383726205676794052e-02 -4.885203838348388672e-01 -1.507072895765304565e-01 -2.966150045394897461e-01
1.934000000000000000e+03 2.473224639892578125e+01 1.440824508666992188e+01 1.696191355586051941e-02 -8.632007837295532227e-01 -2.538716495037078857e-01 -2.975133359432220459e-01
1.935000000000000000e+03 2.345597457885742188e+01 1.857621765136718750e+01 1.350713660940527916e-03 -7.217914462089538574e-01 -2.161322087049484253e-01 -2.372988760471343994e-01
1.936000000000000000e+03 2.465580177307128906e+01 1.864836502075195312e+01 2.832554280757904053e-03 -6.397284269332885742e-01 -1.910687685012817383e-01 -3.104812204837799072e-01
1.937000000000000000e+03 2.468544387817382812e+01 1.723657035827636719e+01 8.528641425073146820e-03 -7.158169150352478027e-01 -2.121864855289459229e-01 -3.095997571945190430e-01
1.938000000000000000e+03 9.336045265197753906e+00 -1.710657691955566406e+01 2.800748916342854500e-03 5.574547685682773590e-04 1.007461105473339558e-03 -2.304914523847401142e-04
1.939000000000000000e+03 1.038868713378906250e+01 -1.835128211975097656e+01 3.152196062728762627e-03 9.335351060144603252e-04 1.225719344802200794e-03 -5.417570937424898148e-04
1.940000000000000000e+03 2.325014495849609375e+01 2.960759162902832031e+01 -3.524843230843544006e-02 -1.129793450236320496e-01 -4.446833208203315735e-02 -1.023960560560226440e-01
1.941000000000000000e+03 2.486076354980468750e+01 3.047404670715332031e+01 -7.690825313329696655e-02 -8.162817358970642090e-02 -4.756093025207519531e-02 -1.273690164089202881e-01
1.942000000000000000e+03 2.354446601867675781e+01 8.690082550048828125e+00 1.074525411240756512e-03 -1.307743906974792480e+00 -3.920008242130279541e-01 -2.037259489297866821e-01
1.943000000000000000e+03 2.477469062805175781e+01 8.751040458679199219e+00 3.762722481042146683e-03 -1.118245959281921387e+00 -3.343449532985687256e-01 -2.585003972053527832e-01
1.944000000000000000e+03 2.427401351928710938e+01 2.684055519104003906e+01 -4.645199328660964966e-02 -2.202404290437698364e-01 -8.000772446393966675e-02 -2.035886645317077637e-01
1.945000000000000000e+03 2.441274642944335938e+01 2.419100761413574219e+01 -3.142962604761123657e-02 -3.459313809871673584e-01 -1.132083013653755188e-01 -2.591470181941986084e-01
1.946000000000000000e+03 2.433524322509765625e+01 2.553032684326171875e+01 -3.932274878025054932e-02 -2.808429598808288574e-01 -9.604971110820770264e-02 -2.336730509996414185e-01
1.947000000000000000e+03 2.426394653320312500e+01 2.811959075927734375e+01 -5.071585997939109802e-02 -1.689010858535766602e-01 -6.588508188724517822e-02 -1.734246015548706055e-01
1.948000000000000000e+03 2.576265144348144531e+01 2.988316154479980469e+01 -1.045831590890884399e-01 -9.228999912738800049e-02 -5.906194821000099182e-02 -1.751314550638198853e-01
1.949000000000000000e+03 2.477082824707031250e+01 7.340782165527343750e+00 -6.151824723929166794e-03 -1.168203115463256836e+00 -3.523064553737640381e-01 -2.449384927749633789e-01
1.950000000000000000e+03 3.130066394805908203e+00 -1.747150039672851562e+01 2.348521491512656212e-03 1.210247646667994559e-04 7.408639066852629185e-04 -3.213838208466768265e-04
1.951000000000000000e+03 4.380938053131103516e+00 -1.453669166564941406e+01 -2.314536366611719131e-03 -7.299939170479774475e-05 -7.162607507780194283e-04 1.119689695769920945e-04
1.952000000000000000e+03 4.363467216491699219e+00 2.204958724975585938e+01 -5.097754183225333691e-04 5.897622759221121669e-05 -1.352397666778415442e-04 -8.550157508580014110e-05
1.953000000000000000e+03 3.065134048461914062e+00 2.064549064636230469e+01 -4.472231958061456680e-04 3.241202284698374569e-05 -1.244433515239506960e-04 -4.241413626004941761e-05
1.954000000000000000e+03 4.383900165557861328e+00 -1.738672447204589844e+01 -2.666899934411048889e-03 -2.573375531937927008e-04 -8.772712899371981621e-04 2.140867291018366814e-04
1.955000000000000000e+03 4.403398513793945312e+00 -1.598153877258300781e+01 2.405114704743027687e-03 1.449411793146282434e-04 7.650167681276798248e-04 -3.911161038558930159e-04
1.956000000000000000e+03 5.609404563903808594e+00 2.625498199462890625e+01 -3.601567295845597982e-04 -1.413301797583699226e-04 -1.504460669821128249e-04 -4.135999915888532996e-06
1.957000000000000000e+03 5.603585243225097656e+00 2.496180725097656250e+01 3.414472739677876234e-04 1.712688244879245758e-04 1.538148353574797511e-04 1.428715186193585396e-04
1.958000000000000000e+03 4.531077861785888672e+00 2.879512977600097656e+01 7.120272493921220303e-04 -1.217911849380470812e-04 1.770708331605419517e-04 5.979105117148719728e-05
1.959000000000000000e+03 4.786293029785156250e+00 -2.842551422119140625e+01 -1.201622304506599903e-03 -1.363356946967542171e-03 -7.694938103668391705e-04 8.568083285354077816e-04
1.960000000000000000e+03 3.248234748840332031e+00 -2.439471435546875000e+01 -2.615558914840221405e-03 -2.542966394685208797e-04 -8.609566721133887768e-04 4.847967938985675573e-04
1.961000000000000000e+03 4.443695068359375000e+00 -2.281808853149414062e+01 -3.573307534679770470e-03 2.733118890319019556e-04 -9.899986907839775085e-04 5.570234498009085655e-04
1.962000000000000000e+03 4.432309627532958984e+00 1.789121055603027344e+01 4.088335554115474224e-04 1.732051896397024393e-05 1.278462295886129141e-04 3.388171171536669135e-05
1.963000000000000000e+03 4.241167068481445312e+00 1.929879379272460938e+01 -4.735031106974929571e-04 3.030321022379212081e-05 -1.329599763266742229e-04 -3.021075826836749911e-05
1.964000000000000000e+03 4.471978664398193359e+00 1.636027717590332031e+01 -3.947845834773033857e-04 2.724742807913571596e-05 -1.102611422538757324e-04 -1.682821493886876851e-05
1.965000000000000000e+03 4.300152301788330078e+00 -2.010427093505859375e+01 -3.355518681928515434e-03 1.968984724953770638e-04 -9.475860279053449631e-04 1.536368217784911394e-04
1.966000000000000000e+03 4.327144145965576172e+00 -1.875613975524902344e+01 2.796116983518004417e-03 1.904793316498398781e-04 8.959788829088211060e-04 -3.791439521592110395e-04
1.967000000000000000e+03 3.111273527145385742e+00 2.620667457580566406e+01 -4.943980020470917225e-04 7.449259555869502947e-06 -1.460846251575276256e-04 -5.341845826478675008e-05
1.968000000000000000e+03 4.355471611022949219e+00 2.488115882873535156e+01 -4.341024032328277826e-04 -6.487016071332618594e-05 -1.496917684562504292e-04 -9.409894846612587571e-05
1.969000000000000000e+03 4.419959545135498047e+00 2.348796844482421875e+01 4.417746094986796379e-04 4.391212860355153680e-05 1.457060279790312052e-04 1.298502320423722267e-04
1.970000000000000000e+03 9.790806770324707031e+00 -2.246830558776855469e+01 -5.747453309595584869e-03 1.100870431400835514e-03 -1.393974758684635162e-03 7.403414347209036350e-04
1.971000000000000000e+03 4.646570682525634766e+00 -2.560705375671386719e+01 -2.783082192763686180e-03 -4.556266649160534143e-04 -9.716126369312405586e-04 7.109977887012064457e-04
1.972000000000000000e+03 3.160444498062133789e+00 1.484829902648925781e+01 -3.372045757714658976e-04 2.537105729061295278e-06 -1.004002406261861324e-04 -1.259009081877593417e-06
1.973000000000000000e+03 4.010389328002929688e+00 1.182659816741943359e+01 3.049951919820159674e-04 -4.125181294512003660e-05 7.912301225587725639e-05 -6.687295535812154412e-05
1.974000000000000000e+03 4.323000431060791016e+00 1.324403381347656250e+01 -3.202934167347848415e-04 4.075744436704553664e-05 -8.386079571209847927e-05 5.956814129604026675e-05
1.975000000000000000e+03 4.061639308929443359e+00 -1.025754261016845703e+01 1.747433561831712723e-03 -1.067612756742164493e-04 4.922016523778438568e-04 1.032895452226512134e-04
1.976000000000000000e+03 3.860664844512939453e+00 -8.903131484985351562e+00 -1.532703638076782227e-03 -2.282370815009926446e-06 -4.604958230629563332e-04 -1.961627858690917492e-04
1.977000000000000000e+03 4.352992057800292969e+00 -1.308599281311035156e+01 2.038575010374188423e-03 1.958926004590466619e-04 6.703403196297585964e-04 -1.442175562260672450e-04
1.978000000000000000e+03 4.830460071563720703e+00 3.633406448364257812e+01 -7.137585635064169765e-05 -3.881292359437793493e-04 -1.378515298711135983e-04 -1.654784282436594367e-04
1.979000000000000000e+03 3.370953083038330078e+00 3.600885772705078125e+01 2.514252264518290758e-04 1.625575969228520989e-04 1.241948484675958753e-04 -6.724856939399614930e-05
1.980000000000000000e+03 3.536136865615844727e+00 -3.146113204956054688e+01 5.460285115987062454e-03 1.108648837544023991e-03 1.970680197700858116e-03 4.071753006428480148e-03
1.981000000000000000e+03 4.846448898315429688e+00 -2.983705139160156250e+01 6.499072071164846420e-03 5.377352354116737843e-04 2.111042151227593422e-03 2.321662614122033119e-03
1.982000000000000000e+03 4.250598430633544922e+00 -1.165879631042480469e+01 -1.963124610483646393e-03 3.562513666111044586e-05 -5.782498628832399845e-04 5.109132689540274441e-05
1.983000000000000000e+03 5.608805179595947266e+00 -6.062859535217285156e+00 -1.024117693305015564e-03 -2.162663877243176103e-04 -3.721152315847575665e-04 -3.607950056903064251e-04
1.984000000000000000e+03 3.839922189712524414e+00 1.051392936706542969e+01 -3.112476260866969824e-04 2.524838055251166224e-05 -8.579977293265983462e-05 3.677029235404916108e-05
1.985000000000000000e+03 6.321417808532714844e+00 2.979690933227539062e+01 7.802163017913699150e-04 -7.683506555622443557e-05 2.110143686877563596e-04 -2.812454295053612441e-05
1.986000000000000000e+03 3.553411960601806641e+00 3.318135070800781250e+01 3.885421028826385736e-04 1.341466850135475397e-04 1.568066363688558340e-04 1.096870764740742743e-04
1.987000000000000000e+03 5.049494743347167969e+00 3.477892684936523438e+01 3.903969482053071260e-04 2.162000018870458007e-04 1.819790923036634922e-04 2.712609129957854748e-04
1.988000000000000000e+03 5.054445743560791016e+00 -3.279191970825195312e+01 9.488776326179504395e-03 -1.284357393160462379e-03 2.461325610056519508e-03 6.098036654293537140e-03
1.989000000000000000e+03 4.929913520812988281e+00 -3.128260993957519531e+01 5.009601591154932976e-04 -1.732750446535646915e-03 -3.695370978675782681e-04 2.758691553026437759e-03
1.990000000000000000e+03 4.438624858856201172e+00 8.175778388977050781e+00 -2.185405755881220102e-04 4.342952161096036434e-05 -5.253331619314849377e-05 -5.929465623921714723e-05
1.991000000000000000e+03 3.399019479751586914e+00 -5.289876937866210938e+00 8.495642687194049358e-04 3.547915548551827669e-04 3.613067383412271738e-04 3.749628085643053055e-04
1.992000000000000000e+03 2.693455696105957031e+00 6.225291252136230469e+00 -1.892889995360746980e-04 -4.831990008824504912e-05 -7.128267316147685051e-05 4.000268381787464023e-05
1.993000000000000000e+03 5.943874359130859375e+00 5.231639385223388672e+00 1.116047060349956155e-04 6.022206434863619506e-05 5.154803147888742387e-05 1.159529233518696856e-06
1.994000000000000000e+03 5.964075565338134766e+00 3.858744812011718750e+01 1.629086909815669060e-04 -3.997033345513045788e-04 -7.103839016053825617e-05 -2.902396663557738066e-04
1.995000000000000000e+03 2.292330932617187500e+01 -2.230595588684082031e+01 3.020801208913326263e-02 -1.672828078269958496e+00 -4.927860200405120850e-01 -8.774000406265258789e-02
1.996000000000000000e+03 2.132320785522460938e+01 -2.376930427551269531e+01 3.138198330998420715e-02 -1.978638648986816406e+00 -5.841770172119140625e-01 -5.929744616150856018e-02
1.997000000000000000e+03 1.711580657958984375e+01 3.887733459472656250e+01 3.298056079074740410e-03 1.553658803459256887e-04 1.036026631481945515e-03 1.163796478067524731e-04
1.998000000000000000e+03 1.122733020782470703e+01 3.894852447509765625e+01 -1.304806908592581749e-03 1.500380167271941900e-04 -3.464306646492332220e-04 -4.914566525258123875e-04
1.999000000000000000e+03 2.441316986083984375e+01 -1.528155517578125000e+01 -7.772058714181184769e-03 -1.434846162796020508e+00 -4.327854514122009277e-01 -7.456599175930023193e-02
2.000000000000000000e+03 4.691151046752929688e+01 3.602105712890625000e+01 -1.735479533672332764e-01 -1.794803738594055176e-01 -1.059084981679916382e-01 4.978216886520385742e-01
2.001000000000000000e+03 4.949466323852539062e+01 3.669261169433593750e+01 1.130436286330223083e-01 -4.681070800870656967e-03 3.250876814126968384e-02 3.769134581089019775e-01
2.002000000000000000e+03 2.353537178039550781e+01 4.425528049468994141e+00 -4.304918646812438965e-02 -1.455529928207397461e+00 -4.495737552642822266e-01 -1.773121654987335205e-01
2.003000000000000000e+03 2.496639823913574219e+01 1.683397293090820312e+00 3.911491949111223221e-04 -1.256477355957031250e+00 -3.768258690834045410e-01 -1.768049746751785278e-01
2.004000000000000000e+03 2.476798820495605469e+01 5.934163093566894531e+00 -2.142368443310260773e-02 -1.207023739814758301e+00 -3.685342073440551758e-01 -2.293449938297271729e-01
2.005000000000000000e+03 3.787928771972656250e+01 4.157803344726562500e+01 6.832160055637359619e-02 -1.423768401145935059e-01 -2.221657335758209229e-02 4.208763595670461655e-03
2.006000000000000000e+03 3.526342010498046875e+01 4.074685287475585938e+01 9.097670204937458038e-03 -6.667301803827285767e-02 -1.727260462939739227e-02 1.989039219915866852e-02
2.007000000000000000e+03 1.262928485870361328e+01 3.624123382568359375e+01 -1.090557663701474667e-03 -1.150714306277222931e-04 -3.616887261159718037e-04 2.345214015804231167e-04
2.008000000000000000e+03 7.643908977508544922e+00 2.886491012573242188e+01 -2.024710556725040078e-04 -1.018041875795461237e-04 -9.128257079282775521e-05 1.641237904550507665e-04
2.009000000000000000e+03 2.439017105102539062e+01 -1.112709045410156250e+01 -1.706446893513202667e-02 -1.445203185081481934e+00 -4.386802911758422852e-01 -1.141067221760749817e-01
2.010000000000000000e+03 2.098256111145019531e+01 -3.070910263061523438e+01 -4.308320954442024231e-02 -2.140083551406860352e+00 -6.549500226974487305e-01 -8.635155856609344482e-02
2.011000000000000000e+03 2.474565315246582031e+01 -4.311704158782958984e+00 2.949324995279312134e-02 -1.358116507530212402e+00 -3.985869586467742920e-01 -1.445903778076171875e-01
2.012000000000000000e+03 2.956016349792480469e+01 4.090233612060546875e+01 2.912762574851512909e-03 -7.388751022517681122e-03 -1.342796487733721733e-03 -5.811996292322874069e-03
2.013000000000000000e+03 2.190430068969726562e+01 4.032888412475585938e+01 -1.565686077810823917e-03 2.244942355901002884e-03 2.037769154412671924e-04 -3.690343350172042847e-03
2.014000000000000000e+03 1.204617309570312500e+01 1.294782543182373047e+01 -2.217116125393658876e-04 -6.500093877548351884e-05 -8.601376612205058336e-05 -1.482407387811690569e-04
2.015000000000000000e+03 1.143403053283691406e+01 2.803476333618164062e+01 -5.812057061120867729e-04 -1.027719044941477478e-04 -2.051932970061898232e-04 -2.762919175438582897e-04
2.016000000000000000e+03 5.899163246154785156e+00 1.105765914916992188e+01 -1.106728632294107229e-05 3.845354876830242574e-05 8.215878551709465683e-06 -1.699495078355539590e-05
2.017000000000000000e+03 7.194549560546875000e+00 1.775788497924804688e+01 -1.447757822461426258e-04 -1.467503607273101807e-04 -8.745784725761041045e-05 -6.384098378475755453e-05
2.018000000000000000e+03 2.256058502197265625e+01 -3.720529174804687500e+01 -4.113627225160598755e-02 -1.545905470848083496e+00 -4.761125147342681885e-01 7.257211208343505859e-02
2.019000000000000000e+03 2.289516830444335938e+01 -2.088231086730957031e+01 3.333751112222671509e-02 -1.685074925422668457e+00 -4.955212175846099854e-01 -8.137841522693634033e-02
2.020000000000000000e+03 1.137264442443847656e+01 -3.693109130859375000e+01 6.922458857297897339e-02 -2.899141423404216766e-02 1.206995267421007156e-02 1.863375492393970490e-02
2.021000000000000000e+03 1.251356792449951172e+01 -3.415804672241210938e+01 1.012376789003610611e-02 -1.632929546758532524e-03 2.547251293435692787e-03 -1.000964269042015076e-02
2.022000000000000000e+03 2.464107894897460938e+01 -2.525599098205566406e+01 1.230991911143064499e-02 -1.356487989425659180e+00 -4.032534360885620117e-01 -9.320097416639328003e-02
2.023000000000000000e+03 1.231068611145019531e+01 2.448840713500976562e+01 -4.567651776596903801e-04 -1.523260143585503101e-04 -1.827273517847061157e-04 8.880140740075148642e-06
2.024000000000000000e+03 3.244157409667968750e+01 4.141263580322265625e+01 5.288457032293081284e-03 -3.515915945172309875e-02 -8.961210958659648895e-03 1.295802462846040726e-02
2.025000000000000000e+03 3.546374893188476562e+01 3.780362319946289062e+01 -6.381217390298843384e-03 -4.584905877709388733e-02 -1.566908322274684906e-02 3.362225741147994995e-02
2.026000000000000000e+03 5.832867431640625000e+01 3.357555389404296875e+01 1.234544873237609863e+00 2.741100311279296875e+00 1.192693591117858887e+00 -2.633880615234375000e+00
2.027000000000000000e+03 5.928663253784179688e+01 3.360693359375000000e+01 1.410583853721618652e+00 5.734675407409667969e+00 2.143577814102172852e+00 -4.218747615814208984e+00
2.028000000000000000e+03 5.950384140014648438e+01 3.312764739990234375e+01 1.864315152168273926e+00 6.066671371459960938e+00 2.379296064376831055e+00 -4.673554897308349609e+00
2.029000000000000000e+03 5.993275833129882812e+01 3.368124008178710938e+01 8.632010817527770996e-01 9.086655616760253906e+00 2.984957218170166016e+00 -4.691457748413085938e+00
2.030000000000000000e+03 5.828223419189453125e+01 2.915807723999023438e+01 1.416893720626831055e+00 1.661500811576843262e+00 9.235183596611022949e-01 2.805090188980102539e+00
2.031000000000000000e+03 6.008213806152343750e+01 2.904634666442871094e+01 2.118975877761840820e+00 9.754637718200683594e+00 3.562084197998046875e+00 6.529885292053222656e+00
2.032000000000000000e+03 5.894647216796875000e+01 2.920326805114746094e+01 2.363526582717895508e+00 3.041612863540649414e+00 1.621541857719421387e+00 4.153818130493164062e+00
2.033000000000000000e+03 5.872914123535156250e+01 2.889421844482421875e+01 2.091436386108398438e+00 3.119648933410644531e+00 1.563325524330139160e+00 3.961427688598632812e+00
2.034000000000000000e+03 5.971908950805664062e+01 2.890192794799804688e+01 2.257473945617675781e+00 7.418754100799560547e+00 2.902868270874023438e+00 5.891986370086669922e+00
2.035000000000000000e+03 6.181940078735351562e+01 2.850922966003417969e+01 3.071642816066741943e-01 1.643307304382324219e+01 5.022070884704589844e+00 1.475929141044616699e+00
2.036000000000000000e+03 6.201414871215820312e+01 2.874997520446777344e+01 8.593606948852539062e-01 1.717066192626953125e+01 5.409006595611572266e+00 6.236383914947509766e-01
2.037000000000000000e+03 6.314390563964843750e+01 3.016714096069335938e+01 6.814734458923339844e+00 1.501427936553955078e+01 6.548704147338867188e+00 -1.562905788421630859e+00
2.038000000000000000e+03 6.153871154785156250e+01 2.887612915039062500e+01 4.638158082962036133e-01 1.767020988464355469e+01 5.440207958221435547e+00 2.227776765823364258e+00
2.039000000000000000e+03 6.300373077392578125e+01 2.919289398193359375e+01 3.423703908920288086e+00 1.570356559753417969e+01 5.738181114196777344e+00 -1.654534816741943359e+00
2.040000000000000000e+03 6.346798706054687500e+01 3.093192672729492188e+01 7.446501255035400391e+00 1.377869033813476562e+01 6.367557525634765625e+00 1.254251748323440552e-01
2.041000000000000000e+03 6.240933609008789062e+01 3.255008697509765625e+01 3.096138238906860352e+00 1.802920532226562500e+01 6.337603092193603516e+00 2.020532131195068359e+00
2.042000000000000000e+03 6.219109344482421875e+01 3.272306442260742188e+01 1.973782896995544434e+00 1.849634552001953125e+01 6.141038417816162109e+00 1.362462043762207031e+00
2.043000000000000000e+03 6.283863067626953125e+01 3.273380279541015625e+01 3.119575262069702148e+00 1.650803565979003906e+01 5.888283252716064453e+00 2.170189142227172852e+00
2.044000000000000000e+03 5.862059020996093750e+01 3.314093780517578125e+01 1.472481608390808105e+00 2.778693675994873047e+00 1.275352597236633301e+00 -2.919504404067993164e+00
2.045000000000000000e+03 5.733773040771484375e+01 2.854459571838378906e+01 9.020347595214843750e-01 1.373923420906066895e+00 6.827874779701232910e-01 2.257663488388061523e+00
2.046000000000000000e+03 5.354774856567382812e+01 2.799741744995117188e+01 -6.026397943496704102e-01 2.914344370365142822e-01 -9.336160868406295776e-02 5.216619968414306641e-01
2.047000000000000000e+03 5.617082214355468750e+01 2.799445152282714844e+01 4.375532567501068115e-01 9.642619490623474121e-01 4.205445647239685059e-01 1.629215478897094727e+00
2.048000000000000000e+03 5.728306198120117188e+01 2.798938369750976562e+01 1.092725992202758789e+00 1.904528975486755371e+00 8.991764783859252930e-01 2.606546640396118164e+00
2.049000000000000000e+03 5.703564453125000000e+01 3.419834136962890625e+01 6.615205407142639160e-01 1.695339918136596680e+00 7.070581316947937012e-01 -1.571185469627380371e+00
2.050000000000000000e+03 5.683631134033203125e+01 3.674869155883789062e+01 6.461156606674194336e-01 3.269714117050170898e+00 1.174748897552490234e+00 -1.729906678199768066e+00
2.051000000000000000e+03 5.573918914794921875e+01 3.635975265502929688e+01 6.566324830055236816e-01 2.045307159423828125e+00 8.105819225311279297e-01 -1.145101428031921387e+00
2.052000000000000000e+03 5.618541717529296875e+01 2.738254547119140625e+01 7.230929732322692871e-01 1.420508980751037598e+00 6.430805921554565430e-01 1.956065535545349121e+00
2.053000000000000000e+03 5.425458908081054688e+01 2.737477302551269531e+01 -2.363990806043148041e-02 6.060105562210083008e-01 1.747111976146697998e-01 9.271584153175354004e-01
2.054000000000000000e+03 2.668779563903808594e+01 3.117148780822753906e+01 -1.398686915636062622e-01 -4.452733695507049561e-02 -5.531881004571914673e-02 -1.535938233137130737e-01
2.055000000000000000e+03 3.701009273529052734e+00 4.540702819824218750e+00 9.857623081188648939e-05 9.404540719515352976e-07 2.985500395880080760e-05 -9.411622886545956135e-05
2.056000000000000000e+03 4.480855941772460938e+00 4.432418346405029297e+00 -8.888002048479393125e-05 -5.234564014244824648e-05 -4.236769746057689190e-05 2.563067573646549135e-05
2.057000000000000000e+03 6.709115028381347656e+00 4.323578834533691406e+00 8.494215580867603421e-05 5.540945494431070983e-05 4.210548286209814250e-05 -7.350710347964195535e-06
2.058000000000000000e+03 5.114248275756835938e+00 6.080510139465332031e+00 9.146123920800164342e-05 1.020034833345562220e-04 5.803941530757583678e-05 2.501366179785691202e-05
2.059000000000000000e+03 2.438499832153320312e+01 2.941069793701171875e+01 -6.125720217823982239e-02 -1.190310269594192505e-01 -5.408646911382675171e-02 -1.453851610422134399e-01
2.060000000000000000e+03 5.205664157867431641e+00 5.218122482299804688e+00 -8.868633449310436845e-05 -7.865394582040607929e-05 -5.020208482164889574e-05 -4.563823949865764007e-06
2.061000000000000000e+03 9.009391784667968750e+00 5.700136184692382812e+00 -1.003740617306903005e-04 -5.971865903120487928e-05 -4.802781404578126967e-05 -3.851408837363123894e-05
2.062000000000000000e+03 7.443916797637939453e+00 4.270411014556884766e+00 -5.902944758418016136e-05 -6.123896309873089194e-05 -3.608052429626695812e-05 1.104123271034040954e-06
2.063000000000000000e+03 8.242584228515625000e+00 4.978571891784667969e+00 -6.505423516500741243e-05 -5.961344504612497985e-05 -3.740030297194607556e-05 -4.643148713512346148e-05
2.064000000000000000e+03 2.956574440002441406e+01 3.082916259765625000e+01 -2.597256898880004883e-01 -9.631875902414321899e-03 -8.080726861953735352e-02 -2.202883213758468628e-01
2.065000000000000000e+03 3.030585479736328125e+01 3.077883911132812500e+01 -2.978876233100891113e-01 2.043726155534386635e-03 -8.875316381454467773e-02 -2.340530902147293091e-01
2.066000000000000000e+03 8.601953506469726562e+00 -4.228644847869873047e+00 -5.334613379091024399e-04 -7.079190691001713276e-04 -3.724140988197177649e-04 5.481003900058567524e-04
2.067000000000000000e+03 2.734937477111816406e+01 3.102315902709960938e+01 -1.614353507757186890e-01 -3.862043097615242004e-02 -6.001673266291618347e-02 -1.672576963901519775e-01
2.068000000000000000e+03 2.882158279418945312e+01 3.087228202819824219e+01 -2.243698537349700928e-01 -2.160329930484294891e-02 -7.379194349050521851e-02 -2.061881870031356812e-01
2.069000000000000000e+03 5.354605484008789062e+01 2.737162208557128906e+01 -2.262397110462188721e-01 4.687017798423767090e-01 7.273861765861511230e-02 6.951325535774230957e-01
2.070000000000000000e+03 3.177443885803222656e+01 3.064036750793457031e+01 -3.794602751731872559e-01 2.432632818818092346e-02 -1.065401807427406311e-01 -2.580878138542175293e-01
2.071000000000000000e+03 3.250059127807617188e+01 3.054949951171875000e+01 -4.221580028533935547e-01 3.463475778698921204e-02 -1.162569746375083923e-01 -2.688526511192321777e-01
2.072000000000000000e+03 7.896798133850097656e+00 -4.139868259429931641e+00 3.287737781647592783e-04 8.074509678408503532e-04 3.408674092497676611e-04 -3.214692114852368832e-04
2.073000000000000000e+03 1.153711318969726562e+01 -9.461564064025878906e+00 -1.681021298281848431e-03 -3.037050191778689623e-04 -5.954179214313626289e-04 4.927195259369909763e-04
2.074000000000000000e+03 3.904819869995117188e+01 2.931873703002929688e+01 -8.366945981979370117e-01 9.747115522623062134e-02 -2.217670232057571411e-01 -3.412183821201324463e-01
2.075000000000000000e+03 3.322094345092773438e+01 3.044165039062500000e+01 -4.665050506591796875e-01 4.358019679784774780e-02 -1.268774569034576416e-01 -2.797029614448547363e-01
2.076000000000000000e+03 3.692296981811523438e+01 3.043298721313476562e+01 -7.441415190696716309e-01 7.600682228803634644e-02 -2.004404067993164062e-01 -2.693520784378051758e-01
2.077000000000000000e+03 3.830582809448242188e+01 2.946111297607421875e+01 -7.903224825859069824e-01 9.315875172615051270e-02 -2.091491222381591797e-01 -3.368076086044311523e-01
2.078000000000000000e+03 3.978892898559570312e+01 2.917499351501464844e+01 -8.805150985717773438e-01 1.023808270692825317e-01 -2.334402799606323242e-01 -3.436191976070404053e-01
2.079000000000000000e+03 3.618876266479492188e+01 3.057866668701171875e+01 -6.890763044357299805e-01 7.122127711772918701e-02 -1.853564977645874023e-01 -2.635458409786224365e-01
2.080000000000000000e+03 4.748528671264648438e+01 2.918574523925781250e+01 -1.556940436363220215e+00 6.437143683433532715e-02 -4.477706849575042725e-01 -1.440332978963851929e-01
2.081000000000000000e+03 4.972798538208007812e+01 2.753284072875976562e+01 -8.823187947273254395e-01 1.698251068592071533e-01 -2.137480974197387695e-01 -2.066846005618572235e-02
2.082000000000000000e+03 4.212330627441406250e+01 2.942078971862792969e+01 -1.119630455970764160e+00 9.653940796852111816e-02 -3.069273233413696289e-01 -2.819639146327972412e-01
2.083000000000000000e+03 3.393724060058593750e+01 3.031894874572753906e+01 -5.108555555343627930e-01 5.230269581079483032e-02 -1.375658512115478516e-01 -2.899070978164672852e-01
2.084000000000000000e+03 7.170237541198730469e+00 -4.852862834930419922e+00 -5.942202187725342810e-05 8.474308997392654419e-04 2.364026586292311549e-04 1.832379348343238235e-04
2.085000000000000000e+03 5.166545867919921875e+00 -4.064602375030517578e+00 8.141532889567315578e-04 3.424982132855802774e-04 3.469954535830765963e-04 -3.391994105186313391e-04
2.086000000000000000e+03 4.975787353515625000e+01 2.821378135681152344e+01 -1.197985768318176270e+00 1.102501526474952698e-01 -3.263206779956817627e-01 -4.719005152583122253e-02
2.087000000000000000e+03 5.129690170288085938e+01 2.808795547485351562e+01 -1.043061852455139160e+00 1.464418768882751465e-01 -2.689859867095947266e-01 1.121207550168037415e-01
2.088000000000000000e+03 3.370003700256347656e+00 -4.417638301849365234e+00 -1.063068048097193241e-03 -3.136050363536924124e-04 -4.130019515287131071e-04 -1.082828035578131676e-03
2.089000000000000000e+03 4.202678680419921875e+01 2.873342514038085938e+01 -9.942106008529663086e-01 1.100482940673828125e-01 -2.652486860752105713e-01 -3.423037528991699219e-01
2.090000000000000000e+03 4.497805023193359375e+01 2.746587562561035156e+01 -8.868928551673889160e-01 1.443595588207244873e-01 -2.227599918842315674e-01 -3.292556107044219971e-01
2.091000000000000000e+03 3.820060729980468750e+01 2.876622581481933594e+01 -7.197256088256835938e-01 9.714565426111221313e-02 -1.867740005254745483e-01 -3.895846009254455566e-01
2.092000000000000000e+03 3.465272521972656250e+01 3.018438339233398438e+01 -5.565168857574462891e-01 5.983129516243934631e-02 -1.490056812763214111e-01 -3.001065254211425781e-01
2.093000000000000000e+03 4.053143692016601562e+01 2.902945327758789062e+01 -9.222292900085449219e-01 1.051526814699172974e-01 -2.451229840517044067e-01 -3.454138040542602539e-01
2.094000000000000000e+03 5.281073379516601562e+01 2.737685394287109375e+01 -4.068937599658966064e-01 3.642436861991882324e-01 -1.279501989483833313e-02 4.900415241718292236e-01
2.095000000000000000e+03 4.514438247680664062e+01 2.886036872863769531e+01 -1.264020442962646484e+00 9.567816555500030518e-02 -3.505026996135711670e-01 -2.519081830978393555e-01
2.096000000000000000e+03 4.354373931884765625e+01 2.844137001037597656e+01 -1.046922206878662109e+00 1.137896925210952759e-01 -2.799397408962249756e-01 -3.284314572811126709e-01
2.097000000000000000e+03 7.192907333374023438e+00 -4.116691589355468750e+00 -2.184037439292296767e-04 -7.588544394820928574e-04 -2.931774652097374201e-04 -6.912489334354177117e-05
2.098000000000000000e+03 7.773332118988037109e+00 -6.758169651031494141e+00 6.055326084606349468e-04 7.264566374942660332e-04 3.995967854280024767e-04 -2.861617394955828786e-05
2.099000000000000000e+03 1.257013416290283203e+01 6.670589447021484375e+00 1.680859568296000361e-04 1.381877882522530854e-05 5.457141742226667702e-05 2.726635648286901414e-05
2.100000000000000000e+03 4.430339431762695312e+01 2.830005836486816406e+01 -1.062502384185791016e+00 1.166037619113922119e-01 -2.837695777416229248e-01 -3.157331943511962891e-01
2.101000000000000000e+03 6.480938911437988281e+00 -4.145555019378662109e+00 5.320346681401133537e-04 5.136688123457133770e-04 3.137110325042158365e-04 4.218636022415012121e-04
2.102000000000000000e+03 7.393337249755859375e+00 -5.498219013214111328e+00 2.596524136606603861e-04 3.639204078353941441e-04 1.870718406280502677e-04 -1.109926815843209624e-04
2.103000000000000000e+03 5.642893314361572266e+00 -5.026038646697998047e+00 1.400688895955681801e-03 2.794219471979886293e-04 5.040332325734198093e-04 4.216951201669871807e-04
2.104000000000000000e+03 4.127674484252929688e+01 2.888177680969238281e+01 -9.598158001899719238e-01 1.086781099438667297e-01 -2.553413212299346924e-01 -3.447886109352111816e-01
2.105000000000000000e+03 1.257154750823974609e+01 -5.521214485168457031e+00 -1.465741661377251148e-03 -6.341341213556006551e-05 -4.587465082295238972e-04 3.665063704829663038e-04
2.106000000000000000e+03 5.512675857543945312e+01 3.745579910278320312e+01 5.899806618690490723e-01 2.234293222427368164e+00 8.472821712493896484e-01 -8.971765637397766113e-01
2.107000000000000000e+03 4.737679672241210938e+01 2.780378913879394531e+01 -1.037397503852844238e+00 1.305379867553710938e-01 -2.720578610897064209e-01 -2.075196653604507446e-01
2.108000000000000000e+03 1.248349666595458984e+01 4.529494762420654297e+00 1.642598508624359965e-04 -5.534250703931320459e-06 4.761768286698497832e-05 4.949426511302590370e-06
2.109000000000000000e+03 1.047038269042968750e+01 7.922311782836914062e+00 -1.797513541532680392e-04 -2.675135510799009353e-05 -6.195081368787214160e-05 -6.936424324521794915e-05
2.110000000000000000e+03 5.205889892578125000e+01 2.804569435119628906e+01 -9.262828826904296875e-01 1.733513772487640381e-01 -2.258794605731964111e-01 2.197677493095397949e-01
2.111000000000000000e+03 5.493227005004882812e+01 2.738197898864746094e+01 2.119799405336380005e-01 7.942467927932739258e-01 3.018680214881896973e-01 1.218880891799926758e+00
2.112000000000000000e+03 5.243890380859375000e+01 4.154420089721679688e+01 9.571715593338012695e-01 1.058267354965209961e+00 6.046316623687744141e-01 1.153012178838253021e-02
2.113000000000000000e+03 4.492875289916992188e+01 3.765452957153320312e+01 9.298705309629440308e-02 -2.545361518859863281e-01 -4.846473038196563721e-02 3.250022828578948975e-01
2.114000000000000000e+03 2.548587608337402344e+01 3.196624946594238281e+01 -9.426905959844589233e-02 -3.940617665648460388e-02 -4.010257124900817871e-02 -9.898941218852996826e-02
2.115000000000000000e+03 1.148858451843261719e+01 4.785010337829589844e+00 -1.692348450887948275e-04 1.219480282088625245e-06 -5.040460746386088431e-05 -3.580391785362735391e-05
2.116000000000000000e+03 2.519157218933105469e+01 -1.373190999031066895e+00 2.306887321174144745e-02 -1.249965786933898926e+00 -3.680690824985504150e-01 -1.649617552757263184e-01
2.117000000000000000e+03 2.665812683105468750e+01 6.283466219902038574e-01 2.418169565498828888e-02 -9.921843409538269043e-01 -2.904008030891418457e-01 -1.926766037940979004e-01
2.118000000000000000e+03 2.600396728515625000e+01 -1.794512367248535156e+01 2.867262996733188629e-02 -1.130821347236633301e+00 -3.306446075439453125e-01 -7.564695924520492554e-02
2.119000000000000000e+03 2.598696327209472656e+01 -1.658638000488281250e+01 7.013794500380754471e-03 -1.140622615814208984e+00 -3.400826454162597656e-01 -6.544139981269836426e-02
2.120000000000000000e+03 2.616729736328125000e+01 -4.448404788970947266e+00 3.363946080207824707e-02 -1.114831447601318359e+00 -3.243575990200042725e-01 -1.505335271358489990e-01
2.121000000000000000e+03 2.444706153869628906e+01 -8.392233848571777344e+00 1.084006298333406448e-02 -1.436701536178588867e+00 -4.277584552764892578e-01 -1.339067816734313965e-01
2.122000000000000000e+03 1.048250770568847656e+01 -1.592032814025878906e+01 3.000748343765735626e-03 -4.939421705785207450e-05 8.854062762111425400e-04 -2.922334533650428057e-04
2.123000000000000000e+03 1.130646896362304688e+01 1.035009670257568359e+01 1.776262361090630293e-04 5.576085459324531257e-05 7.001613266766071320e-05 4.064484164700843394e-05
2.124000000000000000e+03 9.769247055053710938e+00 5.756512165069580078e+00 1.014527151710353792e-04 6.976779695833101869e-05 5.136615436640568078e-05 7.551112503279000521e-05
2.125000000000000000e+03 1.019810199737548828e+01 1.713558769226074219e+01 2.143430319847539067e-04 2.330117968085687608e-05 7.129325967980548739e-05 -2.679244062164798379e-05
2.126000000000000000e+03 1.144761562347412109e+01 -1.065069580078125000e+01 1.839723438024520874e-03 3.474624245427548885e-04 6.561557529494166374e-04 -5.772559088654816151e-04
2.127000000000000000e+03 1.114167594909667969e+01 -1.300572109222412109e+01 1.789685338735580444e-03 9.264770778827369213e-04 8.148487540893256664e-04 -8.232503896579146385e-04
2.128000000000000000e+03 9.571806907653808594e+00 -3.434101486206054688e+01 2.303971536457538605e-02 -1.193222124129533768e-02 3.332248190417885780e-03 2.348359441384673119e-03
2.129000000000000000e+03 7.592914581298828125e+00 -2.958831787109375000e+01 8.088652975857257843e-03 2.000107895582914352e-03 3.026628168299794197e-03 -6.711658206768333912e-04
2.130000000000000000e+03 7.484453582763671875e+01 2.798207855224609375e+01 4.250852763652801514e-01 6.741238117218017578e+00 2.149897098541259766e+00 -7.412617802619934082e-01
2.131000000000000000e+03 1.536398887634277344e+01 4.016465759277343750e+01 -2.467217389494180679e-03 -7.894854643382132053e-04 -9.770108154043555260e-04 2.992637164425104856e-04
2.132000000000000000e+03 1.804977226257324219e+01 3.845479202270507812e+01 -2.324231900274753571e-03 1.950735022546723485e-04 -6.387475295923650265e-04 -9.530234965495765209e-04
2.133000000000000000e+03 2.581950759887695312e+01 -1.107906627655029297e+01 -2.726233797147870064e-03 -1.175967693328857422e+00 -3.536081612110137939e-01 -1.176245361566543579e-01
2.134000000000000000e+03 2.441014480590820312e+01 -9.753280639648437500e+00 -5.443925037980079651e-03 -1.435455203056335449e+00 -4.322697222232818604e-01 -1.297562569379806519e-01
2.135000000000000000e+03 7.362815856933593750e+01 -3.184951019287109375e+01 -1.468945015221834183e-02 7.827831745147705078e+00 2.343942642211914062e+00 2.192877698689699173e-03
2.136000000000000000e+03 7.529028320312500000e+01 -2.756514549255371094e+01 -6.335467100143432617e-03 8.135539054870605469e+00 2.438760995864868164e+00 4.681944847106933594e-03
2.137000000000000000e+03 7.429476928710937500e+01 -2.998828506469726562e+01 -8.177118375897407532e-03 7.948948860168457031e+00 2.382231473922729492e+00 -1.783319935202598572e-02
2.138000000000000000e+03 2.591246795654296875e+01 -7.080390930175781250e+00 2.361319959163665771e-02 -1.167650461196899414e+00 -3.432112038135528564e-01 -1.409396529197692871e-01
2.139000000000000000e+03 7.483125305175781250e+01 2.532819557189941406e+01 2.079503387212753296e-01 7.020611763000488281e+00 2.168568611145019531e+00 -1.009893894195556641e+00
2.140000000000000000e+03 7.477203369140625000e+01 2.128938674926757812e+01 -9.251621365547180176e-02 7.469116210937500000e+00 2.212980031967163086e+00 -1.051695108413696289e+00
2.141000000000000000e+03 7.487414550781250000e+01 2.664585113525390625e+01 3.234656751155853271e-01 6.855236053466796875e+00 2.153610467910766602e+00 -9.002501368522644043e-01
2.142000000000000000e+03 7.332582855224609375e+01 -2.496435928344726562e+01 1.348975300788879395e-02 7.756213188171386719e+00 2.330910921096801758e+00 2.520727738738059998e-02
2.143000000000000000e+03 7.340573883056640625e+01 -2.174589920043945312e+01 4.123539198189973831e-03 7.807522773742675781e+00 2.343493938446044922e+00 3.155023232102394104e-02
2.144000000000000000e+03 7.476609802246093750e+01 2.400203704833984375e+01 9.215973317623138428e-02 7.180131912231445312e+00 2.181687355041503906e+00 -1.068426728248596191e+00
2.145000000000000000e+03 7.410988616943359375e+01 -1.754848289489746094e+01 5.711345933377742767e-03 7.961980819702148438e+00 2.390307664871215820e+00 1.755920611321926117e-02
2.146000000000000000e+03 7.585604858398437500e+01 1.418157863616943359e+01 -1.418529450893402100e-01 7.928280353546142578e+00 2.335928201675415039e+00 -5.339459776878356934e-01
2.147000000000000000e+03 7.475675201416015625e+01 1.139732551574707031e+01 -1.767437160015106201e-01 8.012717247009277344e+00 2.350792169570922852e+00 -4.196992516517639160e-01
2.148000000000000000e+03 7.469516754150390625e+01 1.848540687561035156e+01 -2.062195390462875366e-01 7.701436996459960938e+00 2.248565196990966797e+00 -8.947051167488098145e-01
2.149000000000000000e+03 7.424826812744140625e+01 -1.030762958526611328e+01 -8.315033279359340668e-03 8.022477149963378906e+00 2.404248714447021484e+00 1.296227890998125076e-02
2.150000000000000000e+03 7.590039825439453125e+01 7.308859348297119141e+00 -7.762049883604049683e-02 8.249526023864746094e+00 2.451571464538574219e+00 -2.082335501909255981e-01
2.151000000000000000e+03 7.468209075927734375e+01 6.049628257751464844e+00 -1.042164415121078491e-01 8.099847793579101562e+00 2.398689270019531250e+00 -1.876556128263473511e-01
2.152000000000000000e+03 7.550821685791015625e+01 4.274933636188507080e-01 -3.395874798297882080e-02 8.280220985412597656e+00 2.473878860473632812e+00 -5.717305094003677368e-02
2.153000000000000000e+03 7.405214691162109375e+01 -8.225122094154357910e-01 -4.653806239366531372e-02 8.022197723388671875e+00 2.392697811126708984e+00 -4.148291423916816711e-02
2.154000000000000000e+03 7.388523101806640625e+01 -1.468281269073486328e+01 -9.700655937194824219e-03 7.924016475677490234e+00 2.374294757843017578e+00 2.706741541624069214e-02
2.155000000000000000e+03 7.433953857421875000e+01 -7.703012943267822266e+00 -1.516482979059219360e-02 8.046319961547851562e+00 2.409346580505371094e+00 1.030853483825922012e-02
2.156000000000000000e+03 7.413894653320312500e+01 -3.648991823196411133e+00 -2.763368189334869385e-02 8.019200325012207031e+00 2.397469997406005859e+00 -1.420184690505266190e-02
2.157000000000000000e+03 7.457929992675781250e+01 4.699550628662109375e+00 -8.921665698289871216e-02 8.094921112060546875e+00 2.401711463928222656e+00 -1.477980464696884155e-01
2.158000000000000000e+03 7.418508148193359375e+01 -5.045125961303710938e+00 -2.420036494731903076e-02 8.029162406921386719e+00 2.401488542556762695e+00 -5.001489538699388504e-03
2.159000000000000000e+03 7.406136322021484375e+01 -1.166798877716064453e+01 -9.453608654439449310e-03 7.978883743286132812e+00 2.390829086303710938e+00 2.212244831025600433e-02
2.160000000000000000e+03 7.392024993896484375e+01 -1.889110374450683594e+01 -1.113187149167060852e-02 7.920456886291503906e+00 2.372797489166259766e+00 2.172388881444931030e-02
2.161000000000000000e+03 7.355766296386718750e+01 -2.654426765441894531e+01 2.560907974839210510e-03 7.789429664611816406e+00 2.337597131729125977e+00 8.187977597117424011e-03
2.162000000000000000e+03 7.474314117431640625e+01 7.382710933685302734e+00 -1.178396344184875488e-01 8.092988967895507812e+00 2.392544746398925781e+00 -2.338668107986450195e-01
2.163000000000000000e+03 7.443225860595703125e+01 3.329797267913818359e+00 -7.871753722429275513e-02 8.076409339904785156e+00 2.399307489395141602e+00 -1.145640164613723755e-01
2.164000000000000000e+03 7.425630187988281250e+01 1.947529196739196777e+00 -6.961445510387420654e-02 8.048699378967285156e+00 2.393725395202636719e+00 -8.750408887863159180e-02
2.165000000000000000e+03 7.477518463134765625e+01 1.004508304595947266e+01 -1.537620723247528076e-01 8.048545837402343750e+00 2.368435144424438477e+00 -3.478245437145233154e-01
2.166000000000000000e+03 7.464252471923828125e+01 1.417297458648681641e+01 -2.243006527423858643e-01 7.924120426177978516e+00 2.309946060180664062e+00 -5.971685647964477539e-01
2.167000000000000000e+03 7.460155487060546875e+01 1.705181312561035156e+01 -2.296459376811981201e-01 7.793654918670654297e+00 2.269202709197998047e+00 -7.991105914115905762e-01
2.168000000000000000e+03 7.564723968505859375e+01 3.321142578125000000e+01 3.269565403461456299e-01 6.251281261444091797e+00 1.973471283912658691e+00 1.228948831558227539e-01
2.169000000000000000e+03 7.471293640136718750e+01 2.936849212646484375e+01 5.374842286109924316e-01 6.701412200927734375e+00 2.171669006347656250e+00 -5.387580990791320801e-01
2.170000000000000000e+03 6.882947921752929688e+00 -1.561583709716796875e+01 1.649083220399916172e-03 -1.209328329423442483e-04 4.584451380651444197e-04 -4.050260467920452356e-04
2.171000000000000000e+03 6.220234394073486328e+00 -2.967416572570800781e+01 2.754646993707865477e-04 -2.907724585384130478e-03 -7.896779570728540421e-04 2.046975132543593645e-04
2.172000000000000000e+03 1.103451347351074219e+01 -2.203557777404785156e+01 6.327054928988218307e-03 -2.235440304502844810e-03 1.227484433911740780e-03 5.780499195680022240e-04
2.173000000000000000e+03 4.816641807556152344e+00 3.014998245239257812e+01 -6.593021680600941181e-04 3.229520734748803079e-05 -1.881020871223881841e-04 -1.547454303363338113e-04
2.174000000000000000e+03 1.026802539825439453e+01 3.076619720458984375e+01 7.500263163819909096e-04 -3.878730640280991793e-04 1.086459742509759963e-04 3.587142855394631624e-04
2.175000000000000000e+03 2.600233459472656250e+01 8.805575370788574219e+00 1.894042454659938812e-02 -9.436222910881042480e-01 -2.774045765399932861e-01 -2.991440594196319580e-01
2.176000000000000000e+03 6.101979732513427734e+00 -2.684559822082519531e+01 -2.517294138669967651e-03 -1.272353576496243477e-03 -1.136894221417605877e-03 1.023683696985244751e-03
2.177000000000000000e+03 4.372302055358886719e+00 2.750312423706054688e+01 -6.064762128517031670e-04 6.643686356255784631e-05 -1.620117982383817434e-04 -2.914053766289725900e-06
2.178000000000000000e+03 5.734437465667724609e+00 2.852687072753906250e+01 -7.579131633974611759e-04 1.726135815260931849e-04 -1.755898847477510571e-04 2.072178031085059047e-04
2.179000000000000000e+03 2.575235366821289062e+01 2.151296997070312500e+01 -2.387632802128791809e-02 -4.308974742889404297e-01 -1.364321410655975342e-01 -3.580385446548461914e-01
2.180000000000000000e+03 2.586191940307617188e+01 1.870642089843750000e+01 2.178737660869956017e-03 -5.584997534751892090e-01 -1.668963134288787842e-01 -3.728216290473937988e-01
2.181000000000000000e+03 2.598694610595703125e+01 1.163201713562011719e+01 3.003778681159019470e-02 -8.517753481864929199e-01 -2.465212792158126831e-01 -3.303234279155731201e-01
2.182000000000000000e+03 1.445981025695800781e+01 -2.898151588439941406e+01 1.247090753167867661e-02 -1.351436600089073181e-03 3.335841465741395950e-03 -1.410293509252369404e-03
2.183000000000000000e+03 2.471014785766601562e+01 1.582185649871826172e+01 1.471764128655195236e-02 -7.906415462493896484e-01 -2.327771782875061035e-01 -3.049650788307189941e-01
2.184000000000000000e+03 3.079241752624511719e+01 1.844512367248535156e+01 2.176904492080211639e-02 -2.397273778915405273e-01 -6.538750231266021729e-02 -5.273225307464599609e-01
2.185000000000000000e+03 6.170782089233398438e+00 2.280384635925292969e+01 -2.622365427669137716e-04 1.446009555365890265e-04 -3.529067544150166214e-05 3.036340058315545321e-04
2.186000000000000000e+03 1.074376010894775391e+01 2.231533050537109375e+01 2.626902423799037933e-04 -4.886066017206758261e-05 6.414887320715934038e-05 -2.085358428303152323e-04
2.187000000000000000e+03 6.779616832733154297e+00 -1.091133308410644531e+01 -4.662149294745177031e-04 4.360953171271830797e-04 -9.035886250785551965e-06 -4.551919992081820965e-04
2.188000000000000000e+03 5.214458465576171875e+00 -1.000378799438476562e+01 -1.419354113750159740e-03 6.710678280796855688e-05 -4.056741890963166952e-04 -4.204572469461709261e-04
2.189000000000000000e+03 2.600059127807617188e+01 7.406537532806396484e+00 6.659428589046001434e-03 -9.805380105972290039e-01 -2.921635806560516357e-01 -2.817838191986083984e-01
2.190000000000000000e+03 2.536181449890136719e+01 2.681533432006835938e+01 -7.184294611215591431e-02 -2.042493373155593872e-01 -8.282768726348876953e-02 -2.511086761951446533e-01
2.191000000000000000e+03 2.636528587341308594e+01 3.049956512451171875e+01 -1.235806345939636230e-01 -6.737718731164932251e-02 -5.728734657168388367e-02 -1.672755330801010132e-01
2.192000000000000000e+03 2.594219017028808594e+01 1.446128749847412109e+01 2.746555767953395844e-02 -7.436324357986450195e-01 -2.148500531911849976e-01 -3.553693592548370361e-01
2.193000000000000000e+03 2.530850982666015625e+01 2.800537681579589844e+01 -8.034276217222213745e-02 -1.566697359085083008e-01 -7.110375165939331055e-02 -2.152542471885681152e-01
2.194000000000000000e+03 2.629803276062011719e+01 2.799926376342773438e+01 -1.124295517802238464e-01 -1.405928879976272583e-01 -7.590673118829727173e-02 -2.528175115585327148e-01
2.195000000000000000e+03 5.702859878540039062e+00 -2.258955955505371094e+01 4.269537050276994705e-03 -8.669080852996557951e-05 1.254853908903896809e-03 -5.526599125005304813e-04
2.196000000000000000e+03 9.769098281860351562e+00 2.600578689575195312e+01 3.704359696712344885e-04 2.612372627481818199e-04 1.895019668154418468e-04 3.032280437764711678e-05
2.197000000000000000e+03 5.623035907745361328e+00 2.369925117492675781e+01 -2.714414731599390507e-04 -1.942437666002660990e-04 -1.397055602865293622e-04 -2.333776210434734821e-04
2.198000000000000000e+03 5.660674571990966797e+00 -1.734991645812988281e+01 2.676422009244561195e-03 6.606217357330024242e-04 1.001113094389438629e-03 -4.937349585816264153e-04
2.199000000000000000e+03 5.676616668701171875e+00 -1.589819908142089844e+01 -2.816373482346534729e-03 8.220958261517807841e-05 -8.202492026612162590e-04 4.465778474695980549e-04
2.200000000000000000e+03 5.589782714843750000e+00 -1.443274974822998047e+01 2.636662917211651802e-03 -1.661618298385292292e-04 7.411502883769571781e-04 -2.381956874160096049e-04
2.201000000000000000e+03 4.337187290191650391e+00 -2.145375442504882812e+01 3.422166919335722923e-03 -1.431911950930953026e-04 9.836927056312561035e-04 -7.023799116723239422e-04
2.202000000000000000e+03 7.990743637084960938e+00 1.566495513916015625e+01 -9.525620407657697797e-05 6.677283090539276600e-05 -8.545011041860561818e-06 1.149901509052142501e-04
2.203000000000000000e+03 4.208159446716308594e+00 2.064837455749511719e+01 5.048269522376358509e-04 -7.503297092625871301e-05 1.289381907554343343e-04 3.580635166144929826e-05
2.204000000000000000e+03 6.666113853454589844e+00 -1.880196189880371094e+01 2.805232303217053413e-03 8.424570551142096519e-04 1.094306819140911102e-03 -7.265160675160586834e-04
2.205000000000000000e+03 4.449435234069824219e+00 1.478047275543212891e+01 3.713834157679229975e-04 -1.839117066992912441e-05 1.058976777130737901e-04 -2.197703179263044149e-05
2.206000000000000000e+03 5.537987232208251953e+00 2.745533561706542969e+01 5.609589279629290104e-04 -4.059692946611903608e-05 1.561085955472663045e-04 -1.119864973588846624e-04
2.207000000000000000e+03 4.345499515533447266e+00 2.620689201354980469e+01 4.852175479754805565e-04 3.200736318831332028e-05 1.551674795337021351e-04 2.748541191976983100e-05
2.208000000000000000e+03 4.722571372985839844e+00 -2.701794624328613281e+01 4.284556489437818527e-03 1.234257011674344540e-03 1.655644038692116737e-03 -2.747407706920057535e-04
2.209000000000000000e+03 7.514683246612548828e+00 -2.666879844665527344e+01 5.998448934406042099e-03 2.075325930491089821e-03 2.422132296487689018e-03 -1.424480695277452469e-03
2.210000000000000000e+03 2.684503746032714844e+01 2.295136070251464844e+01 -5.455585569143295288e-02 -3.176773786544799805e-01 -1.116699725389480591e-01 -3.925966024398803711e-01
2.211000000000000000e+03 2.801379013061523438e+01 2.301292991638183594e+01 -7.246074825525283813e-02 -2.673248946666717529e-01 -1.019356995820999146e-01 -4.337282776832580566e-01
2.212000000000000000e+03 8.464600563049316406e+00 -1.096088695526123047e+01 -2.900048857554793358e-04 1.065673073753714561e-03 2.327004622202366590e-04 -5.943469004705548286e-04
2.213000000000000000e+03 6.671470642089843750e+00 3.146388816833496094e+01 -7.358124130405485630e-04 5.907750619371654466e-06 -2.189713850384578109e-04 -1.378860033582895994e-04
2.214000000000000000e+03 5.547966957092285156e+00 2.177444267272949219e+01 3.704580594785511494e-04 -6.594652222702279687e-05 9.135346044786274433e-05 -6.707433203700929880e-05
2.215000000000000000e+03 5.708500862121582031e+00 1.829459571838378906e+01 -2.179582079406827688e-04 -1.338093716185539961e-04 -1.055302709573879838e-04 -7.632814231328666210e-05
2.216000000000000000e+03 5.226548671722412109e+00 2.058429908752441406e+01 -4.094254982192069292e-04 4.871357305091805756e-05 -1.082135713659226894e-04 -9.818505532166454941e-06
2.217000000000000000e+03 5.487162590026855469e+00 -2.128077507019042969e+01 -4.036413971334695816e-03 5.433557089418172836e-04 -1.047917525283992290e-03 5.702263661078177392e-05
2.218000000000000000e+03 5.513391017913818359e+00 -1.872146415710449219e+01 -3.387043951079249382e-03 -1.109885488403961062e-04 -1.049409736879169941e-03 3.050585219170898199e-04
2.219000000000000000e+03 6.663250923156738281e+00 3.497936248779296875e+01 -5.757533945143222809e-04 -1.209774854942224920e-04 -2.090192720061168075e-04 -4.377401201054453850e-04
2.220000000000000000e+03 7.129437923431396484e+00 1.636729621887207031e+01 1.462269428884610534e-04 -1.580475072842091322e-04 -3.546166226442437619e-06 -1.146831200458109379e-04
2.221000000000000000e+03 5.512773990631103516e+00 1.278930854797363281e+01 9.341585973743349314e-05 -2.820180043272557668e-06 2.717870302149094641e-05 -9.706609853310510516e-05
2.222000000000000000e+03 6.313981533050537109e+00 1.387600708007812500e+01 8.107947360258549452e-05 1.504188912804238498e-05 2.883640809159260243e-05 1.539005606900900602e-04
2.223000000000000000e+03 6.182957649230957031e+00 -2.826301956176757812e+01 5.922827403992414474e-03 1.915123430080711842e-03 2.351385308429598808e-03 4.377091681817546487e-05
2.224000000000000000e+03 9.939146041870117188e+00 -3.260008239746093750e+01 1.355089154094457626e-02 2.405073260888457298e-03 4.786789417266845703e-03 -9.875832125544548035e-03
2.225000000000000000e+03 1.027865886688232422e+01 1.025835895538330078e+01 -1.983439724426716566e-04 -4.565933704725466669e-05 -7.320099393837153912e-05 -3.604294397518970072e-05
2.226000000000000000e+03 3.928426027297973633e+00 9.228730201721191406e+00 2.849336888175457716e-04 5.777242222393397242e-06 8.721328049432486296e-05 -9.352649612992536277e-06
2.227000000000000000e+03 5.012542247772216797e+00 1.155231571197509766e+01 -1.369056117255240679e-04 -1.431881901226006448e-05 -4.536733104032464325e-05 7.491927681257948279e-05
2.228000000000000000e+03 5.551699638366699219e+00 -1.143552207946777344e+01 1.778928213752806187e-03 -1.746756170177832246e-04 4.812757833860814571e-04 2.689026005100458860e-04
2.229000000000000000e+03 4.736743927001953125e+00 -7.427450180053710938e+00 -9.760141256265342236e-04 -2.160995500162243843e-04 -3.576340968720614910e-04 -3.652567684184759855e-04
2.230000000000000000e+03 3.838835716247558594e+00 7.297216415405273438e+00 -3.695410896398243494e-06 -5.182915265322662890e-05 -1.665736817813012749e-05 6.573519931407645345e-05
2.231000000000000000e+03 5.285075664520263672e+00 8.771330833435058594e+00 2.727253886405378580e-04 -6.862072041258215904e-05 6.123140337876975536e-05 -1.846080340328626335e-05
2.232000000000000000e+03 7.266015529632568359e+00 -2.390106582641601562e+01 4.157412797212600708e-03 1.598186092451214790e-03 1.726679620333015919e-03 -1.973552163690328598e-03
2.233000000000000000e+03 1.087314987182617188e+01 -2.615471076965332031e+01 -5.020997487008571625e-03 -1.265741302631795406e-03 -1.886021695099771023e-03 3.683680668473243713e-03
2.234000000000000000e+03 9.482754707336425781e+00 -2.708332061767578125e+01 -1.247132313437759876e-03 -9.266193956136703491e-04 -6.521255127154290676e-04 3.258422715589404106e-03
2.235000000000000000e+03 1.063159751892089844e+01 1.354322528839111328e+01 -8.601246372563764453e-05 -4.824594725505448878e-06 -2.725111698964610696e-05 -1.514362957095727324e-04
2.236000000000000000e+03 4.558629989624023438e+00 -6.222293376922607422e+00 6.894566467963159084e-04 3.125825314782559872e-04 3.006117476616054773e-04 4.406010557431727648e-04
2.237000000000000000e+03 4.295543670654296875e+00 -5.174480915069580078e+00 -1.590993488207459450e-04 -1.964408584171906114e-04 -1.066620607161894441e-04 -7.730525685474276543e-04
2.238000000000000000e+03 2.601175308227539062e+01 -5.770663738250732422e+00 3.070662915706634521e-02 -1.144265532493591309e+00 -3.340676724910736084e-01 -1.452770829200744629e-01
2.239000000000000000e+03 2.640743637084960938e+01 -3.094076633453369141e+00 3.461043164134025574e-02 -1.070384383201599121e+00 -3.107321858406066895e-01 -1.608783900737762451e-01
2.240000000000000000e+03 2.585575675964355469e+01 -1.244614028930664062e+01 -9.200224652886390686e-03 -1.167540907859802246e+00 -3.530223369598388672e-01 -1.020824685692787170e-01
2.241000000000000000e+03 2.581969070434570312e+01 -9.729185104370117188e+00 5.127643700689077377e-03 -1.183590650558471680e+00 -3.535389006137847900e-01 -1.253768950700759888e-01
2.242000000000000000e+03 7.634812355041503906e+00 -2.814199829101562500e+01 -1.927457051351666451e-03 -2.454630099236965179e-03 -1.314626191742718220e-03 4.827468073926866055e-04
2.243000000000000000e+03 1.183610916137695312e+01 -2.872202110290527344e+01 8.906100876629352570e-03 3.387139178812503815e-03 3.687971970066428185e-03 -4.069623537361621857e-03
2.244000000000000000e+03 2.478332138061523438e+01 4.532324314117431641e+00 -2.120266295969486237e-02 -1.237473368644714355e+00 -3.776028156280517578e-01 -2.070630192756652832e-01
2.245000000000000000e+03 2.585188674926757812e+01 -8.396374702453613281e+00 1.517959218472242355e-02 -1.173383355140686035e+00 -3.474611043930053711e-01 -1.354331970214843750e-01
2.246000000000000000e+03 1.197422695159912109e+01 2.186913299560546875e+01 -5.170367076061666012e-04 1.154985602624947205e-05 -1.516460470156744123e-04 5.895467620575800538e-05
2.247000000000000000e+03 1.062851810455322266e+01 2.030655860900878906e+01 -2.529169432818889618e-04 -1.229640911333262920e-04 -1.127643117797560990e-04 -1.478909689467400312e-04
2.248000000000000000e+03 2.451104927062988281e+01 -2.080062675476074219e+01 3.468520939350128174e-02 -1.394799351692199707e+00 -4.080342352390289307e-01 -8.369401842355728149e-02
2.249000000000000000e+03 2.294662857055664062e+01 -2.375682640075683594e+01 1.974978484213352203e-02 -1.669070839881896973e+00 -4.947963058948516846e-01 -7.832856476306915283e-02
2.250000000000000000e+03 1.115826416015625000e+01 1.154794502258300781e+01 -1.475578901590779424e-04 -1.060213326127268374e-04 -7.607376755913719535e-05 -5.644320845021866262e-05
2.251000000000000000e+03 1.069295406341552734e+01 1.817779731750488281e+01 -2.945273299701511860e-04 4.759709554491564631e-05 -7.407907105516642332e-05 2.810215119097847492e-05
2.252000000000000000e+03 1.090040588378906250e+01 1.916569709777832031e+01 3.159136686008423567e-04 8.048026211326941848e-05 1.189181784866377711e-04 7.500982610508799553e-05
2.253000000000000000e+03 8.869771957397460938e+00 -3.098979568481445312e+01 8.582643233239650726e-03 3.496060380712151527e-03 3.623611060902476311e-03 -3.134139580652117729e-03
2.254000000000000000e+03 2.677737998962402344e+01 -1.684963583946228027e+00 3.437037020921707153e-02 -9.932261109352111816e-01 -2.876567244529724121e-01 -1.718415170907974243e-01
2.255000000000000000e+03 2.599801254272460938e+01 6.024105548858642578e+00 1.593960565514862537e-03 -1.013435125350952148e+00 -3.035523593425750732e-01 -2.582035660743713379e-01
2.256000000000000000e+03 2.627504348754882812e+01 1.976373076438903809e+00 9.901306591928005219e-03 -1.050188302993774414e+00 -3.120860755443572998e-01 -2.034884393215179443e-01
2.257000000000000000e+03 2.591172218322753906e+01 -1.382821464538574219e+01 6.159627810120582581e-04 -1.160603761672973633e+00 -3.479963243007659912e-01 -9.044462442398071289e-02
2.258000000000000000e+03 3.215915679931640625e+01 3.959363555908203125e+01 -4.539427347481250763e-03 -1.947486959397792816e-02 -7.204289548099040985e-03 1.289396919310092926e-02
2.259000000000000000e+03 5.130758666992187500e+01 3.784240341186523438e+01 5.112027525901794434e-01 3.112430274486541748e-01 2.467337399721145630e-01 8.410655707120895386e-02
2.260000000000000000e+03 4.892233657836914062e+01 3.950207901000976562e+01 6.678932905197143555e-01 -7.980066537857055664e-02 1.764277815818786621e-01 3.120791018009185791e-01
2.261000000000000000e+03 2.217750930786132812e+01 -3.023402214050292969e+01 -4.452926293015480042e-02 -1.880306959152221680e+00 -5.774508714675903320e-01 -9.536035358905792236e-02
2.262000000000000000e+03 1.128930187225341797e+01 2.890204811096191406e+01 5.444467533379793167e-04 -6.465277692768722773e-05 1.439381885575130582e-04 3.126587253063917160e-04
2.263000000000000000e+03 8.244886398315429688e+00 2.473078346252441406e+01 4.015716840513050556e-04 1.885343517642468214e-04 1.770318049238994718e-04 -6.300552195170894265e-05
2.264000000000000000e+03 6.692942142486572266e+00 3.324149703979492188e+01 7.118018111214041710e-04 3.190589723089942709e-06 2.144977188436314464e-04 3.261519595980644226e-04
2.265000000000000000e+03 5.998296737670898438e+01 2.831406593322753906e+01 1.259584546089172363e+00 9.246645927429199219e+00 3.151869058609008789e+00 5.560595512390136719e+00
2.266000000000000000e+03 5.825379943847656250e+01 2.884924507141113281e+01 1.691057801246643066e+00 2.146543025970458984e+00 1.151280283927917480e+00 3.210573196411132812e+00
2.267000000000000000e+03 5.967249679565429688e+01 2.864727973937988281e+01 1.895450472831726074e+00 7.434244155883789062e+00 2.798908472061157227e+00 5.614596366882324219e+00
2.268000000000000000e+03 6.087256622314453125e+01 2.852190017700195312e+01 3.207332789897918701e-01 1.417019748687744141e+01 4.347279071807861328e+00 4.580145835876464844e+00
2.269000000000000000e+03 6.069667434692382812e+01 2.871000862121582031e+01 6.911936998367309570e-01 1.396513462066650391e+01 4.396898746490478516e+00 5.325046062469482422e+00
2.270000000000000000e+03 6.301413726806640625e+01 2.863640022277832031e+01 1.947191238403320312e+00 1.521363639831542969e+01 5.148248195648193359e+00 -1.083888769149780273e+00
2.271000000000000000e+03 6.255437469482421875e+01 3.348323440551757812e+01 6.941736936569213867e-01 1.638166618347167969e+01 5.122752189636230469e+00 8.465725779533386230e-01
2.272000000000000000e+03 6.051980209350585938e+01 2.880198669433593750e+01 1.088786840438842773e+00 1.289358234405517578e+01 4.194710731506347656e+00 5.816739082336425781e+00
2.273000000000000000e+03 6.354094314575195312e+01 3.017403984069824219e+01 6.193075656890869141e+00 1.394317531585693359e+01 6.040875434875488281e+00 -1.298720240592956543e+00
2.274000000000000000e+03 6.290336990356445312e+01 2.972808074951171875e+01 5.200215339660644531e+00 1.605041694641113281e+01 6.375189304351806641e+00 -1.944302082061767578e+00
2.275000000000000000e+03 6.322519683837890625e+01 2.885989761352539062e+01 2.667505264282226562e+00 1.491157531738281250e+01 5.273724079132080078e+00 -1.462857484817504883e+00
2.276000000000000000e+03 6.177058029174804688e+01 3.307552719116210938e+01 4.220915436744689941e-01 1.843609809875488281e+01 5.657456874847412109e+00 -4.840463101863861084e-01
2.277000000000000000e+03 6.342810821533203125e+01 3.210652542114257812e+01 5.469151973724365234e+00 1.468880367279052734e+01 6.047386646270751953e+00 2.181375503540039062e+00
2.278000000000000000e+03 5.887585067749023438e+01 3.340234375000000000e+01 1.640558242797851562e+00 3.829097270965576172e+00 1.640896677970886230e+00 -3.568767547607421875e+00
2.279000000000000000e+03 5.808667373657226562e+01 2.824065971374511719e+01 1.510187387466430664e+00 2.710419178009033203e+00 1.266181945800781250e+00 3.363929033279418945e+00
2.280000000000000000e+03 6.019811630249023438e+01 3.358348464965820312e+01 6.511256694793701172e-01 1.050181102752685547e+01 3.345880985260009766e+00 -4.836266040802001953e+00
2.281000000000000000e+03 6.122253036499023438e+01 3.352334213256835938e+01 -4.429778456687927246e-01 1.578433799743652344e+01 4.602407932281494141e+00 -2.794842481613159180e+00
2.282000000000000000e+03 5.825012588500976562e+01 3.329790878295898438e+01 1.171635031700134277e+00 2.125777006149291992e+00 9.892236590385437012e-01 -2.390897274017333984e+00
2.283000000000000000e+03 5.794300079345703125e+01 3.388909912109375000e+01 1.015874981880187988e+00 2.383835554122924805e+00 1.019913196563720703e+00 -2.361642599105834961e+00
2.284000000000000000e+03 5.850977325439453125e+01 2.908299827575683594e+01 1.898221015930175781e+00 2.239647150039672852e+00 1.241360425949096680e+00 3.410158634185791016e+00
2.285000000000000000e+03 5.554812240600585938e+01 2.676062393188476562e+01 6.374340653419494629e-01 1.395113348960876465e+00 6.097642183303833008e-01 1.756708383560180664e+00
2.286000000000000000e+03 5.758885955810546875e+01 2.731968307495117188e+01 1.161830782890319824e+00 2.909230232238769531e+00 1.221318364143371582e+00 3.114537239074707031e+00
2.287000000000000000e+03 5.627047348022460938e+01 3.550420761108398438e+01 6.582407951354980469e-01 1.996649742126464844e+00 7.964671850204467773e-01 -1.367202639579772949e+00
2.288000000000000000e+03 5.672859954833984375e+01 3.484498977661132812e+01 7.472838759422302246e-01 1.935504794120788574e+00 8.048366308212280273e-01 -1.578884363174438477e+00
2.289000000000000000e+03 5.425067901611328125e+01 2.675027465820312500e+01 2.500585913658142090e-01 8.521448969841003418e-01 3.306610286235809326e-01 1.122618436813354492e+00
2.290000000000000000e+03 4.815613174438476562e+01 2.770180892944335938e+01 -1.001991987228393555e+00 1.376981288194656372e-01 -2.592881619930267334e-01 -1.586721092462539673e-01
2.291000000000000000e+03 4.583475875854492188e+01 2.803684234619140625e+01 -1.071008324623107910e+00 1.213180646300315857e-01 -2.849070727825164795e-01 -2.757585942745208740e-01
2.292000000000000000e+03 5.492009735107421875e+01 2.676330375671386719e+01 4.374215900897979736e-01 1.095022082328796387e+00 4.597330987453460693e-01 1.418934345245361328e+00
2.293000000000000000e+03 5.716588973999023438e+01 2.747989654541015625e+01 1.119436621665954590e+00 2.276329278945922852e+00 1.018729805946350098e+00 2.730185270309448242e+00
2.294000000000000000e+03 6.529075145721435547e+00 7.097531795501708984e+00 -1.844333310145884752e-04 -3.197421392542310059e-05 -6.492226384580135345e-05 2.881833279388956726e-05
2.295000000000000000e+03 8.335603713989257812e+00 5.680795669555664062e+00 1.130041709984652698e-04 2.475110522937029600e-05 4.132658432354219258e-05 5.098399924463592470e-05
2.296000000000000000e+03 9.764415740966796875e+00 4.931691646575927734e+00 -1.231661153724417090e-04 -3.847475090879015625e-05 -4.849226024816744030e-05 -6.568134267581626773e-05
2.297000000000000000e+03 7.321862220764160156e+00 6.407135009765625000e+00 -1.303361495956778526e-04 -2.440887146804016083e-05 -4.642350904759950936e-05 2.333763586648274213e-05
2.298000000000000000e+03 2.715359687805175781e+01 3.015842628479003906e+01 -1.493671685457229614e-01 -6.729890406131744385e-02 -6.499981880187988281e-02 -2.003844827413558960e-01
2.299000000000000000e+03 5.839122295379638672e+00 6.177365779876708984e+00 -1.329431979684159160e-04 -6.120436592027544975e-05 -5.824426625622436404e-05 7.700066817051265389e-06
2.300000000000000000e+03 3.709929466247558594e+00 5.296399116516113281e+00 -7.592350448248907924e-05 -6.890701479278504848e-05 -4.344915578258223832e-05 1.483109954278916121e-04
2.301000000000000000e+03 6.715983867645263672e+00 5.245145797729492188e+00 -9.957372094504535198e-05 -6.076573481550440192e-05 -4.810183600056916475e-05 1.045603949023643509e-05
2.302000000000000000e+03 6.630008697509765625e+00 6.195453643798828125e+00 1.392564008710905910e-04 5.658008376485668123e-05 5.875094575458206236e-05 -1.960256849997676909e-05
2.303000000000000000e+03 9.140301704406738281e+00 -5.207931041717529297e+00 -6.865513860248029232e-04 -6.909162621013820171e-04 -4.132402827963232994e-04 5.802777595818042755e-04
2.304000000000000000e+03 8.397696495056152344e+00 -5.044958114624023438e+00 6.396091193892061710e-04 7.424706127494573593e-04 4.146239080000668764e-04 -5.204298649914562702e-04
2.305000000000000000e+03 7.494592189788818359e+00 5.133755207061767578e+00 3.670079240691848099e-05 7.102319068508222699e-05 3.231719529139809310e-05 -6.309804945203723037e-08
2.306000000000000000e+03 2.807655525207519531e+01 3.092891883850097656e+01 -1.890980750322341919e-01 -3.346263244748115540e-02 -6.676821410655975342e-02 -1.884722113609313965e-01
2.307000000000000000e+03 1.061134910583496094e+01 5.791735172271728516e+00 -1.499633362982422113e-04 -3.292776091257110238e-05 -5.486732698045670986e-05 -7.144179835449904203e-05
2.308000000000000000e+03 3.028170013427734375e+01 3.002841377258300781e+01 -2.909145355224609375e-01 -9.320295415818691254e-03 -9.007044881582260132e-02 -2.722069621086120605e-01
2.309000000000000000e+03 2.953820991516113281e+01 3.004205513000488281e+01 -2.548325955867767334e-01 -2.383435517549514771e-02 -8.360008150339126587e-02 -2.587047219276428223e-01
2.310000000000000000e+03 3.101499938964843750e+01 2.999596595764160156e+01 -3.288289904594421387e-01 3.963304217904806137e-03 -9.745970368385314941e-02 -2.855037748813629150e-01
2.311000000000000000e+03 3.104247093200683594e+01 3.071566963195800781e+01 -3.375304937362670898e-01 1.371324341744184494e-02 -9.714517742395401001e-02 -2.462643235921859741e-01
2.312000000000000000e+03 3.245344924926757812e+01 2.986252784729003906e+01 -4.066748917102813721e-01 2.808687277138233185e-02 -1.135764047503471375e-01 -3.099302351474761963e-01
2.313000000000000000e+03 2.877828598022460938e+01 3.005039787292480469e+01 -2.195706218481063843e-01 -3.820883482694625854e-02 -7.733383774757385254e-02 -2.426355183124542236e-01
2.314000000000000000e+03 3.316004943847656250e+01 2.975965690612792969e+01 -4.456358551979064941e-01 3.888370096683502197e-02 -1.220256462693214417e-01 -3.218297362327575684e-01
2.315000000000000000e+03 3.682531738281250000e+01 2.974931144714355469e+01 -6.955392360687255859e-01 8.119498193264007568e-02 -1.843032687902450562e-01 -3.253798484802246094e-01
2.316000000000000000e+03 3.968272018432617188e+01 2.848297309875488281e+01 -7.902327775955200195e-01 1.092263683676719666e-01 -2.043019235134124756e-01 -3.963182270526885986e-01
2.317000000000000000e+03 3.609429550170898438e+01 2.989565277099609375e+01 -6.487557291984558105e-01 7.410757988691329956e-02 -1.723944544792175293e-01 -3.182373344898223877e-01
2.318000000000000000e+03 3.809423828125000000e+01 2.805425834655761719e+01 -6.453075408935546875e-01 1.003477871417999268e-01 -1.634879261255264282e-01 -4.341750144958496094e-01
2.319000000000000000e+03 3.386236572265625000e+01 2.963656806945800781e+01 -4.852618277072906494e-01 4.832138866186141968e-02 -1.310821324586868286e-01 -3.340477645397186279e-01
2.320000000000000000e+03 4.042449188232421875e+01 2.833872604370117188e+01 -8.206257820129394531e-01 1.152498126029968262e-01 -2.116127908229827881e-01 -3.964892625808715820e-01
2.321000000000000000e+03 3.537070083618164062e+01 3.004175186157226562e+01 -6.019935607910156250e-01 6.751472502946853638e-02 -1.603436470031738281e-01 -3.093568384647369385e-01
2.322000000000000000e+03 3.735197067260742188e+01 2.819599342346191406e+01 -6.156051754951477051e-01 9.131021797657012939e-02 -1.572884917259216309e-01 -4.290396273136138916e-01
2.323000000000000000e+03 4.743427276611328125e+01 2.849723434448242188e+01 -1.290268421173095703e+00 9.289002418518066406e-02 -3.592135310173034668e-01 -1.872150301933288574e-01
2.324000000000000000e+03 4.420890808105468750e+01 2.760309791564941406e+01 -8.947834968566894531e-01 1.373850703239440918e-01 -2.272195369005203247e-01 -3.529945015907287598e-01
2.325000000000000000e+03 3.456574630737304688e+01 2.949863433837890625e+01 -5.239955782890319824e-01 5.770529434084892273e-02 -1.398870944976806641e-01 -3.456630110740661621e-01
2.326000000000000000e+03 4.278367996215820312e+01 2.858638381958007812e+01 -1.022928595542907715e+00 1.129559725522994995e-01 -2.729918062686920166e-01 -3.367095887660980225e-01
2.327000000000000000e+03 4.410586929321289062e+01 2.690293693542480469e+01 -7.344617843627929688e-01 1.626619398593902588e-01 -1.715399622917175293e-01 -3.760840594768524170e-01
2.328000000000000000e+03 5.205315780639648438e+01 2.739386367797851562e+01 -5.605158805847167969e-01 2.911520004272460938e-01 -8.080916851758956909e-02 3.262860178947448730e-01
2.329000000000000000e+03 9.526190757751464844e+00 8.030717849731445312e+00 1.794592244550585747e-04 6.822269824624527246e-06 5.588444764725863934e-05 4.229577098158188164e-05
2.330000000000000000e+03 4.116972732543945312e+01 2.819115257263183594e+01 -8.471909165382385254e-01 1.191065609455108643e-01 -2.184253036975860596e-01 -3.951178193092346191e-01
2.331000000000000000e+03 3.527494049072265625e+01 2.935165214538574219e+01 -5.635629296302795410e-01 6.611253321170806885e-02 -1.492351144552230835e-01 -3.571816384792327881e-01
2.332000000000000000e+03 7.112648487091064453e+00 -8.060959815979003906e+00 8.165044710040092468e-04 -1.227743778144940734e-04 2.081190177705138922e-04 1.144808120443485677e-04
2.333000000000000000e+03 8.839292526245117188e+00 -6.070714473724365234e+00 4.527948040049523115e-04 9.653831366449594498e-04 4.254533851053565741e-04 -4.952403833158314228e-04
2.334000000000000000e+03 4.333658981323242188e+01 2.704952049255371094e+01 -7.468923330307006836e-01 1.524718701839447021e-01 -1.783261299133300781e-01 -3.993104994297027588e-01
2.335000000000000000e+03 4.192133712768554688e+01 2.804268074035644531e+01 -8.681507110595703125e-01 1.245101466774940491e-01 -2.230921685695648193e-01 -3.903656601905822754e-01
2.336000000000000000e+03 4.660511016845703125e+01 2.791605377197265625e+01 -1.060748457908630371e+00 1.236935779452323914e-01 -2.811164557933807373e-01 -2.461328208446502686e-01
2.337000000000000000e+03 4.894173049926757812e+01 2.761089897155761719e+01 -9.503902792930603027e-01 1.524291336536407471e-01 -2.393883466720581055e-01 -9.651439636945724487e-02
2.338000000000000000e+03 5.051007843017578125e+01 2.747027778625488281e+01 -7.958693504333496094e-01 1.994098275899887085e-01 -1.789378672838211060e-01 7.369430363178253174e-02
2.339000000000000000e+03 2.536117744445800781e+01 2.907628822326660156e+01 -8.744157850742340088e-02 -1.222498565912246704e-01 -6.290742754936218262e-02 -1.869452595710754395e-01
2.340000000000000000e+03 2.605460166931152344e+01 3.117418098449707031e+01 -1.081153303384780884e-01 -5.840784311294555664e-02 -4.995695129036903381e-02 -1.360556632280349731e-01
2.341000000000000000e+03 1.153830051422119141e+01 6.774680137634277344e+00 -1.614239008631557226e-04 -2.609665352792944759e-05 -5.625616540783084929e-05 -4.303487366996705532e-05
2.342000000000000000e+03 5.641335678100585938e+01 3.949736404418945312e+01 3.851094245910644531e-01 3.746705055236816406e+00 1.239544391632080078e+00 -1.044470191001892090e+00
2.343000000000000000e+03 5.354468154907226562e+01 2.673609352111816406e+01 6.333391368389129639e-02 6.729136109352111816e-01 2.208742499351501465e-01 8.577029109001159668e-01
2.344000000000000000e+03 1.256227970123291016e+01 5.542972087860107422e+00 -1.625010627321898937e-04 -5.475191301229642704e-06 -5.039287862018682063e-05 -1.725456058920826763e-05
2.345000000000000000e+03 8.241260528564453125e+00 1.217980194091796875e+01 7.667987665627151728e-05 6.455588845710735768e-06 2.494063846825156361e-05 9.830901399254798889e-05
2.346000000000000000e+03 1.102270126342773438e+01 2.458531188964843750e+01 3.026578051503747702e-04 2.557955449447035789e-04 1.675359962973743677e-04 -3.622188387453206815e-06
2.347000000000000000e+03 9.612133026123046875e+00 1.971709632873535156e+01 -3.201542494934983552e-05 1.014002264128066599e-04 2.081544153043068945e-05 4.347686262917704880e-05
2.348000000000000000e+03 5.705058670043945312e+01 3.582318878173828125e+01 7.324671149253845215e-01 2.960582494735717773e+00 1.107914924621582031e+00 -1.901431202888488770e+00
2.349000000000000000e+03 2.609269332885742188e+01 -1.929603958129882812e+01 3.253949061036109924e-02 -1.122220993041992188e+00 -3.269044458866119385e-01 -6.689614802598953247e-02
2.350000000000000000e+03 4.946820735931396484e+00 -4.736313819885253906e+00 -1.124480972066521645e-03 -2.872399636544287205e-04 -4.235162632539868355e-04 2.417412761133164167e-04
2.351000000000000000e+03 2.747495651245117188e+01 2.365344285964965820e+00 2.622444927692413330e-02 -8.321990966796875000e-01 -2.417923957109451294e-01 -2.288472801446914673e-01
2.352000000000000000e+03 8.726862907409667969e+00 -8.128270149230957031e+00 -6.301714456640183926e-04 -1.244342536665499210e-03 -5.623542238026857376e-04 1.227013301104307175e-03
2.353000000000000000e+03 9.066316604614257812e+00 1.763763236999511719e+01 -2.071079507004469633e-04 -1.062219016603194177e-04 -9.399895498063415289e-05 3.083758565480820835e-05
2.354000000000000000e+03 8.911937713623046875e+00 1.498028373718261719e+01 3.603053846745751798e-05 -4.580566383083350956e-06 9.434991625312250108e-06 -1.537412026664242148e-04
2.355000000000000000e+03 7.384889602661132812e+00 2.071693992614746094e+01 7.757201092317700386e-05 1.052006700774654746e-05 2.642762410687282681e-05 -2.128862251993268728e-04
2.356000000000000000e+03 9.915021896362304688e+00 2.325922966003417969e+01 1.975454797502607107e-04 1.779597077984362841e-04 1.126515562646090984e-04 1.017016111291013658e-04
2.357000000000000000e+03 6.525467872619628906e+00 1.206195259094238281e+01 -1.468190384912304580e-05 9.599399163562338799e-06 -1.524751155557169113e-06 6.467671482823789120e-05
2.358000000000000000e+03 2.733526802062988281e+01 -7.116472721099853516e+00 3.074452467262744904e-02 -9.107336997985839844e-01 -2.639967501163482666e-01 -1.408823132514953613e-01
2.359000000000000000e+03 2.784116935729980469e+01 -3.392041921615600586e+00 4.457959905266761780e-02 -8.165811300277709961e-01 -2.316004484891891479e-01 -1.600822061300277710e-01
2.360000000000000000e+03 7.386839294433593750e+01 2.793331336975097656e+01 5.732849240303039551e-01 7.105603694915771484e+00 2.303666591644287109e+00 -8.290174007415771484e-01
2.361000000000000000e+03 1.087380886077880859e+01 -1.413318538665771484e+01 -1.066116499714553356e-03 -1.496936543844640255e-03 -7.689159247092902660e-04 1.060744281858205795e-03
2.362000000000000000e+03 1.132064151763916016e+01 -1.183971977233886719e+01 -1.931473612785339355e-03 -5.353725864551961422e-04 -7.400538888759911060e-04 6.807207246311008930e-04
2.363000000000000000e+03 6.990560150146484375e+01 -2.531181907653808594e+01 6.893708836287260056e-03 7.157534599304199219e+00 2.149328470230102539e+00 3.243055939674377441e-02
2.364000000000000000e+03 6.952375793457031250e+01 -3.085629653930664062e+01 -1.632894738577306271e-03 7.039697170257568359e+00 2.111419200897216797e+00 3.634649887681007385e-02
2.365000000000000000e+03 7.363195037841796875e+01 3.316173171997070312e+01 5.767129659652709961e-01 7.185922622680664062e+00 2.328790664672851562e+00 1.709683835506439209e-01
2.366000000000000000e+03 7.272014617919921875e+01 3.201364517211914062e+01 8.723526597023010254e-01 7.452861309051513672e+00 2.497564077377319336e+00 1.048192288726568222e-02
2.367000000000000000e+03 7.009167480468750000e+01 -3.269735717773437500e+01 3.178375586867332458e-02 7.156445980072021484e+00 2.156468868255615234e+00 3.038314543664455414e-02
2.368000000000000000e+03 7.032389068603515625e+01 -3.498525238037109375e+01 -6.656945683062076569e-03 7.169531822204589844e+00 2.148862361907958984e+00 6.977244745939970016e-03
2.369000000000000000e+03 7.384848022460937500e+01 2.668534469604492188e+01 4.250748455524444580e-01 7.226042270660400391e+00 2.295335292816162109e+00 -9.984889626502990723e-01
2.370000000000000000e+03 1.006073570251464844e+01 2.726425361633300781e+01 -4.067129921168088913e-04 -1.941378723131492734e-04 -1.802552578737959266e-04 -4.531880404101684690e-05
2.371000000000000000e+03 7.147028350830078125e+01 -2.304239654541015625e+01 1.341045182198286057e-02 7.448739051818847656e+00 2.238644838333129883e+00 3.745970502495765686e-02
2.372000000000000000e+03 7.352680206298828125e+01 2.271525192260742188e+01 -1.825230568647384644e-02 7.677575588226318359e+00 2.297796964645385742e+00 -1.193595767021179199e+00
2.373000000000000000e+03 7.364886474609375000e+01 2.133131027221679688e+01 -1.488568335771560669e-01 7.729990959167480469e+00 2.274340391159057617e+00 -1.130090594291687012e+00
2.374000000000000000e+03 7.474748992919921875e+01 2.265732002258300781e+01 -5.672435276210308075e-03 7.325912475585937500e+00 2.196072101593017578e+00 -1.083582878112792969e+00
2.375000000000000000e+03 7.360630035400390625e+01 1.135694789886474609e+01 -2.395202219486236572e-01 7.939846038818359375e+00 2.310097694396972656e+00 -4.343160688877105713e-01
2.376000000000000000e+03 7.354980468750000000e+01 1.269959926605224609e+01 -2.702156901359558105e-01 7.928964138031005859e+00 2.297624588012695312e+00 -5.180031657218933105e-01
2.377000000000000000e+03 7.267456054687500000e+01 2.565439987182617188e+01 3.942703604698181152e-01 7.708170890808105469e+00 2.430732250213623047e+00 -1.187732696533203125e+00
2.378000000000000000e+03 7.391812133789062500e+01 -2.781152725219726562e+01 -4.810191225260496140e-03 7.854777812957763672e+00 2.354990243911743164e+00 4.174118861556053162e-03
2.379000000000000000e+03 7.365112304687500000e+01 1.998033714294433594e+01 -2.216012775897979736e-01 7.784752845764160156e+00 2.268945455551147461e+00 -1.051162838935852051e+00
2.380000000000000000e+03 7.294736480712890625e+01 -1.743169593811035156e+01 3.744041780009865761e-03 7.771160125732421875e+00 2.332471370697021484e+00 3.671210259199142456e-02
2.381000000000000000e+03 7.352685546875000000e+01 1.860090065002441406e+01 -2.868771851062774658e-01 7.859265804290771484e+00 2.271716594696044922e+00 -9.638179540634155273e-01
2.382000000000000000e+03 7.300988006591796875e+01 -9.965497016906738281e+00 -1.793536916375160217e-02 7.790701866149902344e+00 2.331830024719238281e+00 2.146342583000659943e-02
2.383000000000000000e+03 7.269934844970703125e+01 -2.219148635864257812e+00 -5.122265592217445374e-02 7.758429527282714844e+00 2.312162160873413086e+00 -2.201901935040950775e-02
2.384000000000000000e+03 7.477198791503906250e+01 8.710972785949707031e+00 -1.358933150768280029e-01 8.074794769287109375e+00 2.381670475006103516e+00 -2.871554791927337646e-01
2.385000000000000000e+03 7.281816101074218750e+01 -3.627252578735351562e+00 -3.847061470150947571e-02 7.778552055358886719e+00 2.322024345397949219e+00 -9.097770787775516510e-03
2.386000000000000000e+03 7.075640106201171875e+01 4.182381153106689453e+00 -1.764666289091110229e-01 7.505993366241455078e+00 2.198858022689819336e+00 -1.050472930073738098e-01
2.387000000000000000e+03 7.239179992675781250e+01 6.275887012481689453e+00 -1.866270303726196289e-01 7.784385204315185547e+00 2.279327392578125000e+00 -1.914933919906616211e-01
2.388000000000000000e+03 7.338858795166015625e+01 4.849648475646972656e+00 -1.270255148410797119e-01 7.914336681365966797e+00 2.336193323135375977e+00 -1.528480947017669678e-01
2.389000000000000000e+03 7.424656677246093750e+01 -6.403238296508789062e+00 -1.227378007024526596e-02 8.041045188903808594e+00 2.408631563186645508e+00 4.683551844209432602e-03
2.390000000000000000e+03 7.384333801269531250e+01 -1.314493656158447266e+01 -4.099906887859106064e-03 7.927159786224365234e+00 2.376917839050292969e+00 2.274702116847038269e-02
2.391000000000000000e+03 7.364072418212890625e+01 -2.026157760620117188e+01 3.575617680326104164e-03 7.870635509490966797e+00 2.362263441085815430e+00 2.870110422372817993e-02
2.392000000000000000e+03 8.454083442687988281e+00 3.702066421508789062e+01 -7.541962550021708012e-04 -4.307689596316777170e-05 -2.391819434706121683e-04 -5.850805900990962982e-04
2.393000000000000000e+03 7.359775543212890625e+01 7.450322151184082031e+00 -1.647073477506637573e-01 7.948083400726318359e+00 2.335012674331665039e+00 -2.441484630107879639e-01
2.394000000000000000e+03 7.202619171142578125e+01 -2.675799179077148438e+01 1.218550093472003937e-02 7.528842449188232422e+00 2.262308359146118164e+00 3.641845658421516418e-02
2.395000000000000000e+03 7.306156921386718750e+01 -2.872990798950195312e+01 1.306739076972007751e-02 7.706947326660156250e+00 2.316004514694213867e+00 1.812648400664329529e-02
2.396000000000000000e+03 7.457977294921875000e+01 1.560894680023193359e+01 -2.310482710599899292e-01 7.863665103912353516e+00 2.289785146713256836e+00 -7.020702362060546875e-01
2.397000000000000000e+03 7.343786621093750000e+01 1.409560203552246094e+01 -3.041452169418334961e-01 7.922959804534912109e+00 2.285644292831420898e+00 -6.092835068702697754e-01
2.398000000000000000e+03 1.142993736267089844e+01 9.121975898742675781e+00 -1.784617925295606256e-04 -3.468653085292316973e-05 -6.394449155777692795e-05 -4.942481609759852290e-05
2.399000000000000000e+03 8.994651794433593750e+00 -1.920532226562500000e+01 2.526503056287765503e-03 1.163434470072388649e-03 1.106981304474174976e-03 -4.433913854882121086e-04
2.400000000000000000e+03 1.050671100616455078e+01 -1.717102813720703125e+01 -3.354332875460386276e-03 -3.591676359064877033e-04 -1.114050159230828285e-03 6.575398729182779789e-04
2.401000000000000000e+03 2.643056869506835938e+01 2.683648490905761719e+01 -1.016508936882019043e-01 -1.790483444929122925e-01 -8.420976996421813965e-02 -2.926823794841766357e-01
2.402000000000000000e+03 2.545995330810546875e+01 2.554973411560058594e+01 -6.230241805315017700e-02 -2.545822560787200928e-01 -9.506540000438690186e-02 -2.840696573257446289e-01
2.403000000000000000e+03 2.832513809204101562e+01 1.591088485717773438e+01 4.009784013032913208e-02 -4.808191061019897461e-01 -1.322163790464401245e-01 -4.519510865211486816e-01
2.404000000000000000e+03 2.709767913818359375e+01 1.732041740417480469e+01 1.811612956225872040e-02 -5.311637520790100098e-01 -1.539142876863479614e-01 -4.221076071262359619e-01
2.405000000000000000e+03 1.210867977142333984e+01 -2.136619186401367188e+01 -7.418077439069747925e-04 1.677207765169441700e-03 2.806200063787400723e-04 -2.211872953921556473e-03
2.406000000000000000e+03 9.851936340332031250e+00 -2.060659217834472656e+01 2.695393981412053108e-03 8.568252669647336006e-04 1.065665739588439465e-03 -1.725646201521158218e-03
2.407000000000000000e+03 2.723489761352539062e+01 7.464736938476562500e+00 2.912585623562335968e-02 -8.032671213150024414e-01 -2.322423905134201050e-01 -3.083442747592926025e-01
2.408000000000000000e+03 2.723311424255371094e+01 8.851204872131347656e+00 3.413285315036773682e-02 -7.754860520362854004e-01 -2.224059700965881348e-01 -3.323569595813751221e-01
2.409000000000000000e+03 2.599847793579101562e+01 1.021618080139160156e+01 2.404779940843582153e-02 -8.995874524116516113e-01 -2.626619040966033936e-01 -3.161773085594177246e-01
2.410000000000000000e+03 2.596694564819335938e+01 1.304763126373291016e+01 2.865668199956417084e-02 -7.989509701728820801e-01 -2.310882806777954102e-01 -3.437611162662506104e-01
2.411000000000000000e+03 2.973623847961425781e+01 7.533996105194091797e+00 7.537493854761123657e-02 -4.595554172992706299e-01 -1.152541488409042358e-01 -3.419440388679504395e-01
2.412000000000000000e+03 9.918752670288085938e+00 2.142875671386718750e+01 -8.666615940455812961e-06 1.043316951836459339e-04 2.869952368200756609e-05 1.961411471711471677e-04
2.413000000000000000e+03 6.027534484863281250e+00 -8.394266128540039062e+00 -7.589861052110791206e-04 -1.910020946525037289e-04 -2.849964657798409462e-04 -2.832015452440828085e-04
2.414000000000000000e+03 4.951239109039306641e+00 -8.680714607238769531e+00 1.163560082204639912e-03 9.549396054353564978e-05 3.777162055484950542e-04 3.764538560062646866e-04
2.415000000000000000e+03 2.591609764099121094e+01 1.587483882904052734e+01 2.070306986570358276e-02 -6.843096017837524414e-01 -1.990819722414016724e-01 -3.648005127906799316e-01
2.416000000000000000e+03 2.714823722839355469e+01 1.449903297424316406e+01 3.720391914248466492e-02 -6.275040507316589355e-01 -1.770900338888168335e-01 -4.019781649112701416e-01
2.417000000000000000e+03 6.888823032379150391e+00 2.496288490295410156e+01 -3.953053965233266354e-04 -1.790884998627007008e-04 -1.723181630950421095e-04 -6.688550638500601053e-05
2.418000000000000000e+03 8.263812065124511719e+00 -1.616919326782226562e+01 2.976541640236973763e-03 -9.866359177976846695e-04 5.969716585241258144e-04 -2.222338807769119740e-04
2.419000000000000000e+03 8.736198425292968750e+00 -2.630692291259765625e+01 -3.084060037508606911e-03 -1.576814684085547924e-03 -1.398262451402842999e-03 6.123542552813887596e-04
2.420000000000000000e+03 5.903235435485839844e+00 -2.398564147949218750e+01 -4.052295349538326263e-03 1.406849332852289081e-05 -1.211468013934791088e-03 7.155958446674048901e-04
2.421000000000000000e+03 6.886471748352050781e+00 -1.758043098449707031e+01 -2.111300127580761909e-03 -1.258633215911686420e-03 -1.010979991406202316e-03 7.978448411449790001e-04
2.422000000000000000e+03 2.620560646057128906e+01 2.906354522705078125e+01 -1.168491840362548828e-01 -1.084228977560997009e-01 -6.758162379264831543e-02 -2.138552963733673096e-01
2.423000000000000000e+03 1.163931941986083984e+01 -2.297242355346679688e+01 -5.405236966907978058e-03 2.939064987003803253e-03 -7.398515590466558933e-04 -1.943357521668076515e-03
2.424000000000000000e+03 6.940296173095703125e+00 1.982156181335449219e+01 -1.503771054558455944e-04 -1.841123594203963876e-04 -1.003468350972980261e-04 1.032102736644446850e-04
2.425000000000000000e+03 5.333198547363281250e+00 1.950692749023437500e+01 3.787075402215123177e-04 -1.243409587914356962e-05 1.098820284823887050e-04 7.734098471701145172e-05
2.426000000000000000e+03 6.461573600769042969e+00 1.555698871612548828e+01 -6.166288221720606089e-05 1.064635434886440635e-04 1.344019983662292361e-05 -1.692444129730574787e-05
2.427000000000000000e+03 7.228014945983886719e+00 1.476108551025390625e+01 -2.352818410145118833e-05 -1.857204551924951375e-05 -1.263006834051338956e-05 -9.771619079401716590e-05
2.428000000000000000e+03 5.448181152343750000e+00 -2.001085472106933594e+01 3.436767263337969780e-03 1.771349197952076793e-04 1.084170653484761715e-03 -4.685870080720633268e-04
2.429000000000000000e+03 7.649292469024658203e+00 -2.002411270141601562e+01 3.114119404926896095e-03 5.688097444362938404e-04 1.104878727346658707e-03 -5.407667485997080803e-04
2.430000000000000000e+03 2.696445465087890625e+01 2.156950569152832031e+01 -3.225825726985931396e-02 -3.728134930133819580e-01 -1.215215250849723816e-01 -4.117140173912048340e-01
2.431000000000000000e+03 2.758253860473632812e+01 -1.512871837615966797e+01 2.135552838444709778e-02 -8.551326394081115723e-01 -2.501331269741058350e-01 -8.200068771839141846e-02
2.432000000000000000e+03 2.724232292175292969e+01 -9.681461334228515625e+00 1.716841012239456177e-02 -9.211931228637695312e-01 -2.712074220180511475e-01 -1.258911043405532837e-01
2.433000000000000000e+03 1.093173408508300781e+01 -2.498848533630371094e+01 4.345199558883905411e-03 3.141826950013637543e-03 2.246107906103134155e-03 -3.631056752055883408e-03
2.434000000000000000e+03 1.101578140258789062e+01 -2.383256912231445312e+01 -2.199060050770640373e-03 -3.554814960807561874e-03 -1.726162503473460674e-03 4.175702575594186783e-03
2.435000000000000000e+03 5.620558261871337891e+00 1.493669223785400391e+01 -2.789703430607914925e-04 -3.480210580164566636e-05 -9.413173393113538623e-05 -4.927785994368605316e-05
2.436000000000000000e+03 6.691443443298339844e+00 -1.436738014221191406e+01 -2.241965383291244507e-03 9.331449109595268965e-05 -6.445952458307147026e-04 7.958234637044370174e-04
2.437000000000000000e+03 2.556395912170410156e+01 2.423725318908691406e+01 -5.053129792213439941e-02 -3.102379739284515381e-01 -1.082307845354080200e-01 -3.154467642307281494e-01
2.438000000000000000e+03 4.796358108520507812e+00 9.582321166992187500e+00 -2.600285224616527557e-04 1.817298652895260602e-05 -7.255666423588991165e-05 5.356330802896991372e-05
2.439000000000000000e+03 8.293575286865234375e+00 8.633093833923339844e+00 6.459116411861032248e-05 -1.087297496269457042e-04 -1.324157619819743559e-05 4.895416350336745381e-05
2.440000000000000000e+03 5.817847728729248047e+00 7.078971862792968750e+00 2.018506056629121304e-04 -4.349181836005300283e-06 5.925042569288052619e-05 -2.808753606586833484e-06
2.441000000000000000e+03 5.730270862579345703e+00 7.929101467132568359e+00 -2.463702985551208258e-04 8.414140211243648082e-06 -7.138684304663911462e-05 2.480362309142947197e-05
2.442000000000000000e+03 1.004932880401611328e+01 1.264826869964599609e+01 -1.294190733460709453e-04 -7.418702443828806281e-05 -6.108183151809498668e-05 6.017470150254666805e-05
2.443000000000000000e+03 5.662494182586669922e+00 -1.294346332550048828e+01 -2.422807272523641586e-03 -2.135324320988729596e-04 -7.909018895588815212e-04 -8.297269960166886449e-05
2.444000000000000000e+03 6.933542251586914062e+00 -1.316215038299560547e+01 1.801845501177012920e-03 6.452697562053799629e-04 7.341345772147178650e-04 -8.749285480007529259e-04
2.445000000000000000e+03 7.859883785247802734e+00 9.207529067993164062e+00 -2.367437900829827413e-06 6.184883386595174670e-05 1.784441883501131088e-05 5.116478973832272459e-07
2.446000000000000000e+03 7.682672500610351562e+00 -1.406076526641845703e+01 6.222420488484203815e-04 2.082553255604580045e-04 2.491492195986211300e-04 -3.480289888102561235e-04
2.447000000000000000e+03 5.789679527282714844e+00 -7.207499504089355469e+00 8.775236783549189568e-04 1.771123061189427972e-04 3.163907967973500490e-04 3.187019610777497292e-04
2.448000000000000000e+03 2.779726982116699219e+01 -1.909044647216796875e+01 4.509899392724037170e-02 -7.805886268615722656e-01 -2.206469029188156128e-01 -5.696841329336166382e-02
2.449000000000000000e+03 7.483040618896484375e+01 3.211024093627929688e+01 4.855498671531677246e-01 6.570743083953857422e+00 2.116887807846069336e+00 -4.980995506048202515e-02
2.450000000000000000e+03 2.596268844604492188e+01 -1.521499633789062500e+01 -1.411329372785985470e-03 -1.154471755027770996e+00 -3.467649221420288086e-01 -7.501639425754547119e-02
2.451000000000000000e+03 2.723103713989257812e+01 6.109498977661132812e+00 2.067998051643371582e-02 -8.282416462898254395e-01 -2.422685027122497559e-01 -2.865713536739349365e-01
2.452000000000000000e+03 2.786649322509765625e+01 1.320157170295715332e+00 3.858836367726325989e-02 -7.743631005287170410e-01 -2.207324206829071045e-01 -2.143377512693405151e-01
2.453000000000000000e+03 2.846822547912597656e+01 4.904579162597656250e+00 4.072671011090278625e-02 -6.617044210433959961e-01 -1.862933039665222168e-01 -2.817298471927642822e-01
2.454000000000000000e+03 9.636670112609863281e+00 1.601630592346191406e+01 -1.405535585945472121e-04 2.638388468767516315e-05 -3.425090108066797256e-05 1.347695215372368693e-04
2.455000000000000000e+03 1.015908241271972656e+01 -3.114241218566894531e+01 3.168054856359958649e-03 -6.296452600508928299e-03 -9.385193116031587124e-04 4.139583325013518333e-05
2.456000000000000000e+03 2.717821311950683594e+01 1.308603763580322266e+01 4.318500682711601257e-02 -6.704263687133789062e-01 -1.881724148988723755e-01 -3.874050676822662354e-01
2.457000000000000000e+03 1.015421390533447266e+01 -1.479982757568359375e+01 -2.760830335319042206e-03 1.147567527368664742e-03 -4.839788889512419701e-04 -6.482476601377129555e-04
2.458000000000000000e+03 1.080291271209716797e+01 2.975595474243164062e+01 -6.240858929231762886e-04 2.997403207700699568e-04 -9.730366582516580820e-05 -3.704194386955350637e-04
2.459000000000000000e+03 2.461196517944335938e+01 -2.373037338256835938e+01 2.727402001619338989e-02 -1.368129849433898926e+00 -4.022567570209503174e-01 -8.127874135971069336e-02
2.460000000000000000e+03 2.729728507995605469e+01 3.550171852111816406e+00 1.671114936470985413e-02 -8.588180541992187500e-01 -2.526320815086364746e-01 -2.426633536815643311e-01
2.461000000000000000e+03 2.582041549682617188e+01 2.011491775512695312e+01 -9.243448264896869659e-03 -4.945703744888305664e-01 -1.511441469192504883e-01 -3.689419627189636230e-01
2.462000000000000000e+03 2.430803680419921875e+01 -3.081219100952148438e+01 -8.186751604080200195e-02 -1.417155504226684570e+00 -4.497068822383880615e-01 -9.245603531599044800e-02
2.463000000000000000e+03 2.442991447448730469e+01 -2.835667228698730469e+01 -2.735973149538040161e-02 -1.399315834045410156e+00 -4.280026555061340332e-01 -8.608425408601760864e-02
2.464000000000000000e+03 4.806318283081054688e+01 4.147555160522460938e+01 7.109435796737670898e-01 -2.241461127996444702e-01 1.460392326116561890e-01 7.184477150440216064e-02
2.465000000000000000e+03 4.489470672607421875e+01 4.033459091186523438e+01 3.961870074272155762e-01 -3.094252645969390869e-01 2.602852135896682739e-02 1.637945175170898438e-01
2.466000000000000000e+03 1.172550582885742188e+01 3.471315002441406250e+01 9.824937442317605019e-04 7.648875180166214705e-05 3.176947357133030891e-04 -1.435143494745716453e-04
2.467000000000000000e+03 1.150251102447509766e+01 -7.111535549163818359e+00 -1.334990374743938446e-03 1.154276324086822569e-04 -3.658688510768115520e-04 -5.668073936249129474e-05
2.468000000000000000e+03 9.636322975158691406e+00 -6.310890197753906250e+00 -7.731229998171329498e-04 -7.374620763584971428e-04 -4.531755112111568451e-04 1.144245034083724022e-03
2.469000000000000000e+03 1.052626323699951172e+01 2.827478981018066406e+01 2.429283049423247576e-04 1.114832120947539806e-04 1.063234594766981900e-04 -1.214108997373841703e-04
2.470000000000000000e+03 2.630721282958984375e+01 -2.368221855163574219e+01 2.027884498238563538e-02 -1.051964998245239258e+00 -3.095058500766754150e-01 -7.719954103231430054e-02
2.471000000000000000e+03 7.176153564453125000e+01 -2.143742179870605469e+01 -8.453765767626464367e-04 7.509962558746337891e+00 2.252735137939453125e+00 3.742817789316177368e-02
2.472000000000000000e+03 7.292863464355468750e+01 -1.623054695129394531e+01 5.553758237510919571e-03 7.784726142883300781e+00 2.337084054946899414e+00 2.420892007648944855e-02
2.473000000000000000e+03 6.830323696136474609e+00 -3.426552963256835938e+01 1.629732921719551086e-02 -6.704358384013175964e-03 2.877891063690185547e-03 9.615364484488964081e-03
2.474000000000000000e+03 9.115538597106933594e+00 -3.652669525146484375e+01 1.748902164399623871e-02 -2.404485829174518585e-02 -1.966750947758555412e-03 1.561708282679319382e-02
2.475000000000000000e+03 2.753037071228027344e+01 -4.482011795043945312e-01 3.619765862822532654e-02 -8.655447959899902344e-01 -2.488041520118713379e-01 -1.895839571952819824e-01
2.476000000000000000e+03 7.313508605957031250e+01 -7.705121040344238281e+00 -1.834679767489433289e-02 7.813643455505371094e+00 2.338588953018188477e+00 1.749746128916740417e-02
2.477000000000000000e+03 1.061677169799804688e+01 3.689184188842773438e+01 1.170852570794522762e-03 -6.908510113134980202e-05 3.305302525404840708e-04 2.204491465818136930e-04
2.478000000000000000e+03 1.013416099548339844e+01 3.509080886840820312e+01 -1.068414538167417049e-03 1.453962322557345033e-04 -2.769055136013776064e-04 -2.599573927000164986e-04
2.479000000000000000e+03 8.351902008056640625e+00 3.909305953979492188e+01 4.101879312656819820e-04 3.632720618043094873e-04 2.320380008313804865e-04 6.670372094959020615e-04
2.480000000000000000e+03 7.316258239746093750e+01 3.581713485717773438e+01 1.855705529451370239e-01 7.657291889190673828e+00 2.352858781814575195e+00 4.943362474441528320e-01
2.481000000000000000e+03 7.163594055175781250e+01 3.303146743774414062e+01 9.860017895698547363e-01 8.015463829040527344e+00 2.700439691543579102e+00 3.478156030178070068e-01
2.482000000000000000e+03 7.410334014892578125e+01 5.668104290962219238e-01 -5.682383477687835693e-02 8.032016754150390625e+00 2.392557859420776367e+00 -6.343946605920791626e-02
2.483000000000000000e+03 1.040446376800537109e+01 -1.058006477355957031e+01 -1.862699864432215691e-03 -2.528709592297673225e-04 -6.346712470985949039e-04 7.977361674420535564e-04
2.484000000000000000e+03 9.908764839172363281e+00 -1.381454944610595703e+01 1.757082529366016388e-03 5.451957113109529018e-04 6.906834896653890610e-04 2.134931564796715975e-04
2.485000000000000000e+03 5.978099060058593750e+01 2.911618041992187500e+01 2.667960643768310547e+00 7.584366798400878906e+00 3.075698375701904297e+00 6.259692192077636719e+00
2.486000000000000000e+03 6.365723037719726562e+01 3.034037780761718750e+01 6.514072418212890625e+00 1.358977127075195312e+01 6.031153202056884766e+00 -9.831857681274414062e-01
2.487000000000000000e+03 6.245269393920898438e+01 2.873189926147460938e+01 1.468681573867797852e+00 1.648537826538085938e+01 5.386218070983886719e+00 -4.184376001358032227e-01
2.488000000000000000e+03 6.319883728027343750e+01 2.959754180908203125e+01 4.790018558502197266e+00 1.516297340393066406e+01 5.985897541046142578e+00 -1.870075464248657227e+00
2.489000000000000000e+03 6.362714004516601562e+01 3.441389465332031250e+01 2.660527527332305908e-01 1.394012546539306641e+01 4.261853694915771484e+00 1.115725398063659668e+00
2.490000000000000000e+03 6.205990219116210938e+01 3.330347061157226562e+01 3.542524576187133789e-01 1.738827705383300781e+01 5.322758674621582031e+00 7.206596899777650833e-03
2.491000000000000000e+03 6.355373764038085938e+01 3.143137931823730469e+01 6.990487098693847656e+00 1.382052612304687500e+01 6.243304252624511719e+00 1.177648067474365234e+00
2.492000000000000000e+03 6.049689865112304688e+01 3.346299743652343750e+01 3.789946138858795166e-01 1.215524959564208984e+01 3.760273218154907227e+00 -4.678003311157226562e+00
2.493000000000000000e+03 6.062623596191406250e+01 3.388877105712890625e+01 -1.554678827524185181e-01 1.233300495147705078e+01 3.653261184692382812e+00 -3.903146028518676758e+00
2.494000000000000000e+03 6.343374633789062500e+01 3.175818443298339844e+01 6.501860618591308594e+00 1.428992080688476562e+01 6.237534523010253906e+00 1.801759600639343262e+00
2.495000000000000000e+03 6.327063369750976562e+01 3.266247558593750000e+01 3.595474720001220703e+00 1.520396709442138672e+01 5.639832496643066406e+00 2.210355520248413086e+00
2.496000000000000000e+03 6.299286270141601562e+01 3.331783294677734375e+01 1.563498258590698242e+00 1.567980957031250000e+01 5.172992229461669922e+00 1.587365746498107910e+00
2.497000000000000000e+03 5.875460052490234375e+01 3.457175445556640625e+01 9.344081282615661621e-01 5.127580642700195312e+00 1.818596601486206055e+00 -3.304333209991455078e+00
2.498000000000000000e+03 5.957265853881835938e+01 3.347848510742187500e+01 1.445665001869201660e+00 6.885014533996582031e+00 2.499203920364379883e+00 -4.606266021728515625e+00
2.499000000000000000e+03 5.778314971923828125e+01 2.781508445739746094e+01 1.349040508270263672e+00 2.696213722229003906e+00 1.213576316833496094e+00 3.189920902252197266e+00
2.500000000000000000e+03 5.844770812988281250e+01 2.793936920166015625e+01 1.555063128471374512e+00 3.922420263290405273e+00 1.643244981765747070e+00 3.936107635498046875e+00
2.501000000000000000e+03 5.489996337890625000e+01 2.613657379150390625e+01 5.865016579627990723e-01 1.393151998519897461e+00 5.938960909843444824e-01 1.582418203353881836e+00
2.502000000000000000e+03 5.615572357177734375e+01 2.673082923889160156e+01 8.306522965431213379e-01 1.853539705276489258e+00 8.052576184272766113e-01 2.167493581771850586e+00
2.503000000000000000e+03 5.424209976196289062e+01 2.611506843566894531e+01 4.319900870323181152e-01 1.121263265609741211e+00 4.659760296344757080e-01 1.285424470901489258e+00
2.504000000000000000e+03 5.672768783569335938e+01 2.658596801757812500e+01 9.528832435607910156e-01 2.486527442932128906e+00 1.031823158264160156e+00 2.577289342880249023e+00
2.505000000000000000e+03 8.939838409423828125e+00 6.465712070465087891e+00 1.071773731382563710e-04 6.488196959253400564e-05 5.161780063644982874e-05 -1.235546824318589643e-05
2.506000000000000000e+03 2.708609580993652344e+01 2.917030715942382812e+01 -1.466101109981536865e-01 -9.169194847345352173e-02 -7.149061560630798340e-02 -2.359990030527114868e-01
2.507000000000000000e+03 4.889778518676757812e+01 2.691954612731933594e+01 -6.861312389373779297e-01 2.142288535833358765e-01 -1.415707170963287354e-01 -6.912446022033691406e-02
2.508000000000000000e+03 4.575312423706054688e+01 2.733672904968261719e+01 -8.711175918579101562e-01 1.507729142904281616e-01 -2.161033898591995239e-01 -2.988108694553375244e-01
2.509000000000000000e+03 7.746973514556884766e+00 5.866268634796142578e+00 3.492812538752332330e-05 -1.675863859418313950e-05 5.450845492305234075e-06 -1.517777582193957642e-05
2.510000000000000000e+03 2.660287475585937500e+01 2.558531379699707031e+01 -8.799764513969421387e-02 -2.249403595924377441e-01 -9.388140588998794556e-02 -3.313981294631958008e-01
2.511000000000000000e+03 3.171678161621093750e+01 2.925531005859375000e+01 -3.520837128162384033e-01 7.157512474805116653e-03 -1.034778580069541931e-01 -3.341875672340393066e-01
2.512000000000000000e+03 3.173886871337890625e+01 2.994136810302734375e+01 -3.672301769256591797e-01 1.685525849461555481e-02 -1.051124781370162964e-01 -2.976177334785461426e-01
2.513000000000000000e+03 2.798994064331054688e+01 3.007441711425781250e+01 -1.861524879932403564e-01 -5.301167070865631104e-02 -7.174924761056900024e-02 -2.254242748022079468e-01
2.514000000000000000e+03 3.241032028198242188e+01 2.918540191650390625e+01 -3.866036832332611084e-01 2.010333165526390076e-02 -1.099501028656959534e-01 -3.469886481761932373e-01
2.515000000000000000e+03 3.170465660095214844e+01 2.859362030029296875e+01 -3.339018523693084717e-01 -2.957503078505396843e-03 -1.010578125715255737e-01 -3.664436936378479004e-01
2.516000000000000000e+03 2.797563552856445312e+01 2.916740036010742188e+01 -1.800276637077331543e-01 -7.380846142768859863e-02 -7.615084201097488403e-02 -2.600747346878051758e-01
2.517000000000000000e+03 2.808398628234863281e+01 2.818679237365722656e+01 -1.721125245094299316e-01 -9.861919283866882324e-02 -8.121951669454574585e-02 -3.002161681652069092e-01
2.518000000000000000e+03 1.052735900878906250e+01 6.802084922790527344e+00 1.498129131505265832e-04 4.328978320700116456e-05 5.793081072624772787e-05 7.058223854983225465e-05
2.519000000000000000e+03 3.377885055541992188e+01 2.894934082031250000e+01 -4.540901184082031250e-01 4.235361143946647644e-02 -1.235209479928016663e-01 -3.738980293273925781e-01
2.520000000000000000e+03 3.883538436889648438e+01 2.791445350646972656e+01 -6.730965375900268555e-01 1.079017445445060730e-01 -1.695584356784820557e-01 -4.385229349136352539e-01
2.521000000000000000e+03 3.672185516357421875e+01 2.905402946472167969e+01 -6.421298980712890625e-01 8.251500129699707031e-02 -1.678844690322875977e-01 -3.763849139213562012e-01
2.522000000000000000e+03 3.724708557128906250e+01 2.745554733276367188e+01 -5.458818674087524414e-01 9.125398099422454834e-02 -1.363883614540100098e-01 -4.679562747478485107e-01
2.523000000000000000e+03 8.027923583984375000e+00 -5.875534057617187500e+00 -8.263429044745862484e-04 -7.318145944736897945e-04 -4.674472438637167215e-04 1.911911822389811277e-04
2.524000000000000000e+03 3.599336242675781250e+01 2.920181846618652344e+01 -6.024225354194641113e-01 7.482357323169708252e-02 -1.582796871662139893e-01 -3.670948147773742676e-01
2.525000000000000000e+03 3.661374282836914062e+01 2.833980751037597656e+01 -5.836799144744873047e-01 8.230941742658615112e-02 -1.504111588001251221e-01 -4.210255742073059082e-01
2.526000000000000000e+03 4.885078048706054688e+01 2.622354507446289062e+01 -4.529245495796203613e-01 2.912048697471618652e-01 -4.851589724421501160e-02 -2.687878161668777466e-02
2.527000000000000000e+03 8.373484611511230469e+00 -9.201819419860839844e+00 6.576644373126327991e-04 1.406361116096377373e-03 6.192076834850013256e-04 -1.395259634591639042e-03
2.528000000000000000e+03 5.728376770019531250e+01 3.507854461669921875e+01 8.134012222290039062e-01 2.709597110748291016e+00 1.056899547576904297e+00 -2.013003826141357422e+00
2.529000000000000000e+03 5.755915069580078125e+01 3.441442108154296875e+01 9.435120224952697754e-01 2.427410125732421875e+00 1.011276602745056152e+00 -2.135571956634521484e+00
2.530000000000000000e+03 4.268046951293945312e+01 2.789434051513671875e+01 -8.846206068992614746e-01 1.279562860727310181e-01 -2.269992828369140625e-01 -3.824293017387390137e-01
2.531000000000000000e+03 4.399737930297851562e+01 2.619667053222656250e+01 -5.861163139343261719e-01 1.886971741914749146e-01 -1.192257404327392578e-01 -3.889818787574768066e-01
2.532000000000000000e+03 3.516866302490234375e+01 2.864496040344238281e+01 -5.191814899444580078e-01 6.261414289474487305e-02 -1.369701921939849854e-01 -3.999578654766082764e-01
2.533000000000000000e+03 4.810238265991210938e+01 2.700679016113281250e+01 -7.525341510772705078e-01 1.918027698993682861e-01 -1.682194024324417114e-01 -1.463151276111602783e-01
2.534000000000000000e+03 3.446789550781250000e+01 2.880150985717773438e+01 -4.873704612255096436e-01 5.236157774925231934e-02 -1.305026710033416748e-01 -3.875283896923065186e-01
2.535000000000000000e+03 5.128462982177734375e+01 2.742447853088378906e+01 -6.899180412292480469e-01 2.348690927028656006e-01 -1.365146785974502563e-01 1.852786242961883545e-01
2.536000000000000000e+03 5.280922698974609375e+01 2.672902488708496094e+01 -1.037370711565017700e-01 5.357969403266906738e-01 1.296179592609405518e-01 6.359365582466125488e-01
2.537000000000000000e+03 4.181106567382812500e+01 2.734735107421875000e+01 -7.460891604423522949e-01 1.370520144701004028e-01 -1.827111393213272095e-01 -4.276292026042938232e-01
2.538000000000000000e+03 3.650229263305664062e+01 2.759818267822265625e+01 -5.217116475105285645e-01 7.960839569568634033e-02 -1.326309740543365479e-01 -4.611087143421173096e-01
2.539000000000000000e+03 1.061186599731445312e+01 -7.440934181213378906e+00 1.129766576923429966e-03 2.082035643979907036e-04 4.013910365756601095e-04 -2.335953031433746219e-04
2.540000000000000000e+03 4.257123184204101562e+01 2.719897460937500000e+01 -7.496045827865600586e-01 1.455169767141342163e-01 -1.812262833118438721e-01 -4.155915081501007080e-01
2.541000000000000000e+03 4.969479370117187500e+01 2.684651374816894531e+01 -6.029333472251892090e-01 2.485900819301605225e-01 -1.063029766082763672e-01 2.657316997647285461e-02
2.542000000000000000e+03 5.048786926269531250e+01 2.679088401794433594e+01 -5.048261880874633789e-01 2.910711467266082764e-01 -6.412651389837265015e-02 1.400723308324813843e-01
2.543000000000000000e+03 4.731299591064453125e+01 2.710592460632324219e+01 -8.051132559776306152e-01 1.727857589721679688e-01 -1.896982491016387939e-01 -2.093545049428939819e-01
2.544000000000000000e+03 1.154962539672851562e+01 5.719669342041015625e+00 1.591424806974828243e-04 1.457210782973561436e-05 5.211437382968142629e-05 3.839681085082702339e-05
2.545000000000000000e+03 1.149689197540283203e+01 7.916261672973632812e+00 1.692195801297202706e-04 3.055272100027650595e-05 5.993169179419055581e-05 5.001570389140397310e-05
2.546000000000000000e+03 4.566458892822265625e+01 2.663266563415527344e+01 -6.848382949829101562e-01 1.875908821821212769e-01 -1.491742134094238281e-01 -3.066556155681610107e-01
2.547000000000000000e+03 4.645172119140625000e+01 2.651234626770019531e+01 -6.453667283058166504e-01 2.029703110456466675e-01 -1.327189356088638306e-01 -2.576448619365692139e-01
2.548000000000000000e+03 5.354183959960937500e+01 2.609044837951660156e+01 2.793486416339874268e-01 9.011266231536865234e-01 3.541425764560699463e-01 1.015081167221069336e+00
2.549000000000000000e+03 1.109730052947998047e+01 -6.191387653350830078e+00 9.941880125552415848e-04 -8.356294711120426655e-04 4.756756970891728997e-05 9.922317694872617722e-04
2.550000000000000000e+03 1.082407474517822266e+01 -5.374358654022216797e+00 -9.268698631785809994e-04 -2.612952957861125469e-04 -3.564495418686419725e-04 1.038487098412588239e-04
2.551000000000000000e+03 8.946263313293457031e+00 1.116398715972900391e+01 -1.466726534999907017e-04 -7.055777678033336997e-05 -6.516912981169298291e-05 -3.938747977372258902e-05
2.552000000000000000e+03 7.296852111816406250e+00 1.302816200256347656e+01 -3.445747097430285066e-06 -3.225140244467183948e-05 -1.070914458978222683e-05 -1.328374637523666024e-04
2.553000000000000000e+03 9.844202995300292969e+00 1.426806259155273438e+01 3.937403016607277095e-05 -4.308675488573499024e-05 -1.113817233999725431e-06 1.721314911264926195e-04
2.554000000000000000e+03 7.760700702667236328e+00 1.710053634643554688e+01 -1.489255519118160009e-04 8.712439739610999823e-05 -1.854034599091392010e-05 1.494565658504143357e-04
2.555000000000000000e+03 7.977372169494628906e+00 -1.521263599395751953e+01 -2.034985460340976715e-03 3.580496704671531916e-04 -5.030807224102318287e-04 5.910897161811590195e-04
2.556000000000000000e+03 9.369358062744140625e+00 -1.052612495422363281e+01 2.267131349071860313e-03 -3.913028631359338760e-04 5.627485224977135658e-04 -8.161658188328146935e-04
2.557000000000000000e+03 5.821412277221679688e+01 3.780464553833007812e+01 1.076770499348640442e-01 5.348305225372314453e+00 1.636794686317443848e+00 -1.812629103660583496e+00
2.558000000000000000e+03 5.786956405639648438e+01 3.519089508056640625e+01 8.308340311050415039e-01 3.666105747222900391e+00 1.349081873893737793e+00 -2.501499414443969727e+00
2.559000000000000000e+03 1.044142150878906250e+01 9.086975097656250000e+00 1.906531106214970350e-04 3.105842915829271078e-05 6.651345756836235523e-05 5.375243927119299769e-05
2.560000000000000000e+03 2.971132087707519531e+01 4.930157184600830078e+00 6.564850360155105591e-02 -4.753223061561584473e-01 -1.229021400213241577e-01 -2.889217138290405273e-01
2.561000000000000000e+03 5.139083385467529297e+00 7.420763969421386719e+00 6.210713036125525832e-05 8.274765605165157467e-06 2.111456888087559491e-05 1.738050559652037919e-05
2.562000000000000000e+03 5.399891376495361328e+00 1.015565872192382812e+01 8.165044710040092468e-05 -5.657363726641051471e-05 7.523044132540235296e-06 -5.434241757029667497e-06
2.563000000000000000e+03 1.002797603607177734e+01 1.147127151489257812e+01 1.963099639397114515e-04 8.367121336050331593e-05 8.399435319006443024e-05 -1.283768051507649943e-05
2.564000000000000000e+03 1.059493160247802734e+01 -8.395658493041992188e+00 -1.200993545353412628e-03 -5.168570205569267273e-04 -5.153551464900374413e-04 5.328179104253649712e-04
2.565000000000000000e+03 1.049790668487548828e+01 -9.471497535705566406e+00 1.393301878124475479e-03 5.177397397346794605e-04 5.733124562539160252e-04 -7.058361661620438099e-04
2.566000000000000000e+03 6.720696926116943359e+00 8.958845138549804688e+00 9.405905075254850090e-06 -4.889585397904738784e-05 -1.184698430733988062e-05 5.721913476008921862e-05
2.567000000000000000e+03 7.207473754882812500e+01 -1.983277130126953125e+01 -2.116525312885642052e-03 7.565441131591796875e+00 2.268997430801391602e+00 2.945990487933158875e-02
2.568000000000000000e+03 1.157918643951416016e+01 -8.282638549804687500e+00 1.445056986995041370e-03 2.161376760341227055e-04 4.983583930879831314e-04 -2.270874829264357686e-04
2.569000000000000000e+03 9.190433502197265625e+00 -7.194533348083496094e+00 5.973580991849303246e-04 1.056729932315647602e-03 4.962264210917055607e-04 -1.479734550230205059e-03
2.570000000000000000e+03 7.250107574462890625e+01 -7.422937154769897461e-01 -6.963139772415161133e-02 7.729813098907470703e+00 2.298054456710815430e+00 -3.685359284281730652e-02
2.571000000000000000e+03 7.030090332031250000e+01 -3.736226081848144531e+00 -5.733029171824455261e-02 7.317858219146728516e+00 2.178158283233642578e+00 1.344066299498081207e-02
2.572000000000000000e+03 8.379971504211425781e+00 2.633042144775390625e+01 -4.053015436511486769e-04 -2.595553814899176359e-04 -1.994570775423198938e-04 8.298031025333330035e-05
2.573000000000000000e+03 9.653610229492187500e+00 2.458892822265625000e+01 -3.556327428668737411e-04 -2.449763123877346516e-04 -1.801827165763825178e-04 -4.858526881434954703e-05
2.574000000000000000e+03 7.317749023437500000e+01 3.524093389511108398e+00 -1.078008264303207397e-01 7.875596523284912109e+00 2.330338716506958008e+00 -1.163906231522560120e-01
2.575000000000000000e+03 7.255897521972656250e+01 7.528122067451477051e-01 -8.473673462867736816e-02 7.749915599822998047e+00 2.299553632736206055e+00 -5.681948363780975342e-02
2.576000000000000000e+03 7.176985931396484375e+01 2.350191497802734375e+01 4.105445370078086853e-02 8.148358345031738281e+00 2.456823825836181641e+00 -1.290982246398925781e+00
2.577000000000000000e+03 3.070052146911621094e+01 -1.933476448059082031e+01 4.274635389447212219e-02 -2.811015844345092773e-01 -7.150657474994659424e-02 -6.812741607427597046e-02
2.578000000000000000e+03 2.759565925598144531e+01 -1.786466026306152344e+01 2.288621664047241211e-02 -8.541836142539978027e-01 -2.493892163038253784e-01 -5.809049308300018311e-02
2.579000000000000000e+03 6.325022220611572266e+00 -9.630021095275878906e+00 6.136443116702139378e-04 1.537174684926867485e-04 2.302085340488702059e-04 4.061946528963744640e-04
2.580000000000000000e+03 7.186069488525390625e+01 -2.539056396484375000e+01 1.233281940221786499e-02 7.512034893035888672e+00 2.257310390472412109e+00 3.421702608466148376e-02
2.581000000000000000e+03 7.259588623046875000e+01 2.130138778686523438e+01 -1.988009959459304810e-01 7.955190181732177734e+00 2.326916694641113281e+00 -1.167973399162292480e+00
2.582000000000000000e+03 7.159497833251953125e+01 2.021157073974609375e+01 -3.627490997314453125e-01 8.186926841735839844e+00 2.347253322601318359e+00 -1.091591954231262207e+00
2.583000000000000000e+03 7.354950714111328125e+01 2.411011123657226562e+01 1.320713013410568237e-01 7.563932418823242188e+00 2.308801174163818359e+00 -1.192731976509094238e+00
2.584000000000000000e+03 1.016743087768554688e+01 -1.947791481018066406e+01 -3.557079471647739410e-03 -6.240881630219519138e-04 -1.254350296221673489e-03 1.032801344990730286e-03
2.585000000000000000e+03 7.580343723297119141e+00 -2.192848014831542969e+01 4.922264721244573593e-03 -9.249929571524262428e-04 1.199181424453854561e-03 -2.719887997955083847e-03
2.586000000000000000e+03 7.248042297363281250e+01 8.743879318237304688e+00 -2.388801574707031250e-01 7.829236030578613281e+00 2.277106761932373047e+00 -2.920243442058563232e-01
2.587000000000000000e+03 7.241082763671875000e+01 1.882183265686035156e+01 -3.611837327480316162e-01 8.011939048767089844e+00 2.295226573944091797e+00 -9.881668090820312500e-01
2.588000000000000000e+03 7.352535247802734375e+01 6.158293247222900391e+00 -1.425601094961166382e-01 7.937695503234863281e+00 2.338540554046630859e+00 -1.958645433187484741e-01
2.589000000000000000e+03 7.028421020507812500e+01 3.084220170974731445e+00 -1.634525507688522339e-01 7.406923770904541016e+00 2.173041343688964844e+00 -7.624344527721405029e-02
2.590000000000000000e+03 7.324810028076171875e+01 -8.806770324707031250e+00 -7.542433217167854309e-03 7.842491149902343750e+00 2.350484609603881836e+00 1.155476272106170654e-02
2.591000000000000000e+03 7.184700775146484375e+01 -9.451336860656738281e+00 -1.680340617895126343e-02 7.551470756530761719e+00 2.260400056838989258e+00 3.076143376529216766e-02
2.592000000000000000e+03 7.157908630371093750e+01 -4.987604618072509766e+00 -3.920432552695274353e-02 7.549098968505859375e+00 2.252968311309814453e+00 8.612892590463161469e-03
2.593000000000000000e+03 7.202007293701171875e+01 1.750325775146484375e+01 -4.291200935840606689e-01 8.035392761230468750e+00 2.281881809234619141e+00 -8.648741245269775391e-01
2.594000000000000000e+03 7.325334167480468750e+01 1.558848762512207031e+01 -3.364616632461547852e-01 7.925293922424316406e+00 2.276649713516235352e+00 -7.304430007934570312e-01
2.595000000000000000e+03 7.247547149658203125e+01 1.000279235839843750e+01 -2.699401378631591797e-01 7.848970413208007812e+00 2.273709058761596680e+00 -3.545508980751037598e-01
2.596000000000000000e+03 7.362659454345703125e+01 8.738749504089355469e+00 -1.852478682994842529e-01 7.950652122497558594e+00 2.329621315002441406e+00 -2.997270226478576660e-01
2.597000000000000000e+03 6.702261924743652344e+00 2.374608039855957031e+01 3.829204360954463482e-04 8.998472185339778662e-05 1.418715401086956263e-04 -3.909082442987710238e-05
2.598000000000000000e+03 7.178596019744873047e+00 2.223859024047851562e+01 2.763868251349776983e-04 -8.224712655646726489e-05 5.824191248393617570e-05 -2.586498449090868235e-04
2.599000000000000000e+03 2.722355651855468750e+01 1.025675582885742188e+01 4.163254424929618835e-02 -7.442972064018249512e-01 -2.107993960380554199e-01 -3.519687354564666748e-01
2.600000000000000000e+03 2.708137321472167969e+01 1.873814010620117188e+01 4.441397730261087418e-03 -4.774115979671478271e-01 -1.418910622596740723e-01 -4.259852468967437744e-01
2.601000000000000000e+03 3.109318161010742188e+01 2.796115684509277344e+01 -2.900958061218261719e-01 -2.744358032941818237e-02 -9.526181966066360474e-02 -3.831964135169982910e-01
2.602000000000000000e+03 7.194680786132812500e+01 1.524691677093505859e+01 -4.304534494876861572e-01 7.963516712188720703e+00 2.259918928146362305e+00 -6.839103102684020996e-01
2.603000000000000000e+03 2.965365409851074219e+01 1.171777343750000000e+01 8.045970648527145386e-02 -4.354023635387420654e-01 -1.064827963709831238e-01 -4.210833311080932617e-01
2.604000000000000000e+03 2.955092811584472656e+01 1.861628913879394531e+01 1.316235400736331940e-02 -3.227128982543945312e-01 -9.286516159772872925e-02 -5.023460388183593750e-01
2.605000000000000000e+03 9.201574325561523438e+00 -1.816036796569824219e+01 -2.978936303406953812e-03 -7.258279947564005852e-04 -1.111429301090538502e-03 3.224351385142654181e-04
2.606000000000000000e+03 2.831080818176269531e+01 1.872239303588867188e+01 6.452075205743312836e-03 -3.988581299781799316e-01 -1.177218183875083923e-01 -4.698808491230010986e-01
2.607000000000000000e+03 7.237409210205078125e+01 -1.265283107757568359e+01 -3.760613501071929932e-03 7.658031463623046875e+00 2.296281337738037109e+00 2.538825571537017822e-02
2.608000000000000000e+03 7.043496704101562500e+01 -1.770840454101562500e+01 4.018140956759452820e-03 7.268590450286865234e+00 2.181782722473144531e+00 3.626703470945358276e-02
2.609000000000000000e+03 7.315334796905517578e+00 -2.525113868713378906e+01 -3.971473779529333115e-03 -4.974483163096010685e-04 -1.340676681138575077e-03 1.032044528983533382e-03
2.610000000000000000e+03 6.290235519409179688e+00 1.716742324829101562e+01 -1.282710945815779269e-05 1.420105108991265297e-04 3.875502079608850181e-05 1.540192606626078486e-04
2.611000000000000000e+03 6.924060821533203125e+00 1.873384284973144531e+01 1.746932684909552336e-04 2.108933113049715757e-04 1.156759753939695656e-04 -4.683130464400164783e-05
2.612000000000000000e+03 6.553496837615966797e+00 -1.997115135192871094e+01 -3.680667374283075333e-03 3.035775625903625041e-05 -1.095092855393886566e-03 4.592468321789056063e-04
2.613000000000000000e+03 7.821369647979736328e+00 -1.898051071166992188e+01 -2.628211863338947296e-03 -7.782853208482265472e-04 -1.021949108690023422e-03 4.061174113303422928e-04
2.614000000000000000e+03 7.651585578918457031e+00 -1.199004840850830078e+01 -1.087591517716646194e-03 -8.007106953300535679e-04 -5.664906348101794720e-04 8.013026672415435314e-04
2.615000000000000000e+03 9.245549201965332031e+00 -1.149014854431152344e+01 -2.198153873905539513e-03 6.996162846917286515e-05 -6.384576554410159588e-04 3.797161043621599674e-04
2.616000000000000000e+03 2.839093589782714844e+01 1.310960578918457031e+01 5.744770914316177368e-02 -5.450087785720825195e-01 -1.462683230638504028e-01 -4.207440614700317383e-01
2.617000000000000000e+03 2.759802436828613281e+01 -4.622688293457031250e+00 4.017619788646697998e-02 -8.640118241310119629e-01 -2.471506893634796143e-01 -1.544407308101654053e-01
2.618000000000000000e+03 2.955600929260253906e+01 -2.594848871231079102e+00 6.771975010633468628e-02 -5.184783339500427246e-01 -1.352275758981704712e-01 -1.749096512794494629e-01
2.619000000000000000e+03 2.705228424072265625e+01 2.015927696228027344e+01 -1.518829073756933212e-02 -4.237361848354339600e-01 -1.316773444414138794e-01 -4.225140213966369629e-01
2.620000000000000000e+03 9.868980407714843750e+00 -2.373080062866210938e+01 4.853358492255210876e-03 1.686949399299919605e-03 1.962092239409685135e-03 -1.921708928421139717e-03
2.621000000000000000e+03 8.498355865478515625e+00 -2.109149169921875000e+01 3.982983063906431198e-03 -6.023470778018236160e-04 1.014190842397511005e-03 -1.539669814519584179e-03
2.622000000000000000e+03 8.577075004577636719e+00 -2.507786178588867188e+01 4.398136865347623825e-03 2.543693874031305313e-03 2.082549268379807472e-03 -1.183583517558872700e-03
2.623000000000000000e+03 7.097064971923828125e+01 -1.194943428039550781e+01 -9.879519231617450714e-03 7.356564521789550781e+00 2.204005479812622070e+00 3.654026612639427185e-02
2.624000000000000000e+03 9.291906356811523438e+00 -1.605025100708007812e+01 -3.189681796357035637e-03 3.611764113884419203e-04 -8.485516300424933434e-04 5.936585366725921631e-04
2.625000000000000000e+03 2.842524909973144531e+01 1.169891643524169922e+01 6.120480597019195557e-02 -5.707653760910034180e-01 -1.528681665658950806e-01 -4.006191790103912354e-01
2.626000000000000000e+03 6.024037361145019531e+00 9.512142181396484375e+00 -1.301640586461871862e-04 6.129538815002888441e-05 -2.066060187644325197e-05 3.084709760514670052e-06
2.627000000000000000e+03 9.664679527282714844e+00 6.616606235504150391e+00 -3.835399547824636102e-05 -1.086479605874046683e-04 -4.410058681969530880e-05 -7.380716851912438869e-05
2.628000000000000000e+03 6.652840614318847656e+00 1.043011379241943359e+01 8.093541691778227687e-05 -4.084113606950268149e-05 1.202828389068599790e-05 2.777408326437580399e-06
2.629000000000000000e+03 2.926556205749511719e+01 2.192412376403808594e+01 -5.680455267429351807e-02 -2.547464072704315186e-01 -9.346528351306915283e-02 -4.870371818542480469e-01
2.630000000000000000e+03 2.744041633605957031e+01 -5.864821434020996094e+00 3.558219224214553833e-02 -8.961359858512878418e-01 -2.581661343574523926e-01 -1.479233056306838989e-01
2.631000000000000000e+03 2.820479774475097656e+01 2.163644218444824219e+01 -4.517286643385887146e-02 -3.076975643634796143e-01 -1.058611273765563965e-01 -4.592399001121520996e-01
2.632000000000000000e+03 2.834070396423339844e+01 2.017733383178710938e+01 -1.779599674046039581e-02 -3.494775295257568359e-01 -1.101820617914199829e-01 -4.705560803413391113e-01
2.633000000000000000e+03 2.847547149658203125e+01 6.173403739929199219e+00 4.581476375460624695e-02 -6.464897990226745605e-01 -1.802025139331817627e-01 -3.035413920879364014e-01
2.634000000000000000e+03 8.299560546875000000e+00 3.336616516113281250e+01 -7.960438961163163185e-04 8.443722617812454700e-05 -2.134819951606914401e-04 -4.246029420755803585e-04
2.635000000000000000e+03 8.844181060791015625e+00 3.005299186706542969e+01 -3.042998141609132290e-04 1.703891612123697996e-04 -4.017319588456302881e-05 -4.250881029292941093e-04
2.636000000000000000e+03 3.006134796142578125e+01 -9.524808883666992188e+00 4.382690787315368652e-02 -4.206987023353576660e-01 -1.130615398287773132e-01 -1.180557385087013245e-01
2.637000000000000000e+03 2.869404792785644531e+01 -8.367724418640136719e+00 3.432969376444816589e-02 -6.671444177627563477e-01 -1.898444145917892456e-01 -1.323087066411972046e-01
2.638000000000000000e+03 2.723943138122558594e+01 4.802758693695068359e+00 1.936424523591995239e-02 -8.475782871246337891e-01 -2.484642118215560913e-01 -2.607271075248718262e-01
2.639000000000000000e+03 7.290537261962890625e+01 -6.432355403900146484e+00 -2.348513528704643250e-02 7.783094882965087891e+00 2.327883005142211914e+00 9.739757515490055084e-03
2.640000000000000000e+03 7.368581771850585938e+00 1.131847476959228516e+01 -6.892163219163194299e-05 5.281448466121219099e-06 -1.909205457195639610e-05 -4.183901910437270999e-05
2.641000000000000000e+03 7.149795532226562500e+01 -2.841989898681640625e+01 2.184985205531120300e-03 7.399976730346679688e+00 2.220648527145385742e+00 2.820227108895778656e-02
2.642000000000000000e+03 7.080976867675781250e+01 -2.629977035522460938e+01 1.045063883066177368e-02 7.279262065887451172e+00 2.186913728713989258e+00 3.364431113004684448e-02
2.643000000000000000e+03 9.701868057250976562e+00 2.897304344177246094e+01 9.254848919226787984e-06 -1.502611557953059673e-04 -4.230189369991421700e-05 3.598678740672767162e-04
2.644000000000000000e+03 8.829205513000488281e+00 2.782590675354003906e+01 3.535233845468610525e-04 1.617025554878637195e-04 1.545677805552259088e-04 -1.333708787569776177e-04
2.645000000000000000e+03 2.877465248107910156e+01 -1.123177170753479004e+00 5.021394044160842896e-02 -6.517435908317565918e-01 -1.804589033126831055e-01 -1.922618597745895386e-01
2.646000000000000000e+03 1.032328224182128906e+01 -2.981450462341308594e+01 8.033604361116886139e-03 5.956426262855529785e-03 4.197008907794952393e-03 -6.111867260187864304e-03
2.647000000000000000e+03 7.585677623748779297e+00 -3.097656631469726562e+01 4.195500630885362625e-03 -6.085616070777177811e-03 -5.670346436090767384e-04 -1.322801457718014717e-03
2.648000000000000000e+03 7.155479431152343750e+01 2.551701068878173828e+00 -1.259143352508544922e-01 7.613749504089355469e+00 2.246350526809692383e+00 -8.209729939699172974e-02
2.649000000000000000e+03 7.014089965820312500e+01 1.699510663747787476e-01 -1.124161705374717712e-01 7.338636398315429688e+00 2.167865991592407227e+00 -2.177145145833492279e-02
2.650000000000000000e+03 3.029202842712402344e+01 2.928267860412597656e+01 -2.816137969493865967e-01 -2.246802672743797302e-02 -9.122455120086669922e-02 -3.093388378620147705e-01
2.651000000000000000e+03 2.941843605041503906e+01 1.212659835815429688e+00 6.269853562116622925e-02 -5.398668646812438965e-01 -1.431504935026168823e-01 -2.234169542789459229e-01
2.652000000000000000e+03 2.847708892822265625e+01 3.729794979095458984e+00 3.882449120283126831e-02 -6.694456934928894043e-01 -1.891863644123077393e-01 -2.585503756999969482e-01
2.653000000000000000e+03 2.618861198425292969e+01 -2.067426681518554688e+01 2.683039940893650055e-02 -1.095917224884033203e+00 -3.207260370254516602e-01 -6.406030058860778809e-02
2.654000000000000000e+03 7.152826690673828125e+01 -6.356941223144531250e+00 -3.062476217746734619e-02 7.526925086975097656e+00 2.248889923095703125e+00 1.539146713912487030e-02
2.655000000000000000e+03 7.229621124267578125e+01 -8.308646202087402344e+00 -1.094185840338468552e-02 7.657756328582763672e+00 2.294044494628906250e+00 2.580643631517887115e-02
2.656000000000000000e+03 1.221977806091308594e+01 3.294489669799804688e+01 2.252065023640170693e-04 2.439382078591734171e-04 1.407434028806164861e-04 -3.141880442854017019e-04
2.657000000000000000e+03 2.852042961120605469e+01 4.708323776721954346e-01 4.576329141855239868e-02 -6.878220438957214355e-01 -1.926176398992538452e-01 -2.027482688426971436e-01
2.658000000000000000e+03 6.485491752624511719e+00 3.674736022949218750e+01 3.021695883944630623e-04 3.679927904158830643e-04 2.010487078223377466e-04 5.713189602829515934e-04
2.659000000000000000e+03 7.183278656005859375e+01 -1.614773941040039062e+01 -4.669431131333112717e-03 7.509968280792236328e+00 2.251589775085449219e+00 3.731603175401687622e-02
2.660000000000000000e+03 7.168927001953125000e+01 -1.395925426483154297e+01 -8.286133408546447754e-03 7.516951560974121094e+00 2.252599477767944336e+00 3.350545465946197510e-02
2.661000000000000000e+03 2.831745529174804688e+01 -2.697945022583007812e+01 -4.365351516753435135e-03 -6.635125279426574707e-01 -2.003633677959442139e-01 -5.601666867733001709e-02
2.662000000000000000e+03 2.820451164245605469e+01 -2.519223785400390625e+01 4.211016930639743805e-03 -6.978587508201599121e-01 -2.080943286418914795e-01 -5.975732579827308655e-02
2.663000000000000000e+03 1.004339504241943359e+01 -1.277048206329345703e+01 -1.724794041365385056e-03 -7.909974083304405212e-04 -7.547374116256833076e-04 1.022481083055026829e-04
2.664000000000000000e+03 9.053668975830078125e+00 -1.498194599151611328e+01 2.766968449577689171e-03 -5.786053952760994434e-04 6.565088988281786442e-04 -2.416677307337522507e-04
2.665000000000000000e+03 2.745255088806152344e+01 -1.371463584899902344e+01 5.818653386086225510e-03 -8.727099895477294922e-01 -2.600674033164978027e-01 -9.204689413309097290e-02
2.666000000000000000e+03 8.907401084899902344e+00 2.060017395019531250e+01 -2.960734309453982860e-05 -8.079204417299479246e-05 -3.311981345177628100e-05 -4.674002047977410257e-05
2.667000000000000000e+03 6.635528087615966797e+00 2.777136802673339844e+01 -1.845794904511421919e-04 8.030415301618631929e-06 -5.296472590998746455e-05 -1.722534070722758770e-04
2.668000000000000000e+03 6.961733341217041016e+00 2.641726303100585938e+01 3.705587296281009912e-04 2.224718336947262287e-04 1.779091689968481660e-04 5.959422560408711433e-05
2.669000000000000000e+03 8.854757308959960938e+00 -1.254671096801757812e+01 1.973686041310429573e-03 5.250202957540750504e-04 7.496119360439479351e-04 1.145610876847058535e-04
2.670000000000000000e+03 7.136096954345703125e+01 -3.035354042053222656e+01 1.251122448593378067e-02 7.359755516052246094e+00 2.211679935455322266e+00 2.686432562768459320e-02
2.671000000000000000e+03 7.045124816894531250e+01 3.374547958374023438e+01 1.095866084098815918e+00 8.573315620422363281e+00 2.900754451751708984e+00 6.695428490638732910e-01
2.672000000000000000e+03 8.626387596130371094e+00 1.660000801086425781e+01 1.850373228080570698e-04 -4.586323484545573592e-05 4.175222784397192299e-05 -1.226847671205177903e-04
2.673000000000000000e+03 8.946596145629882812e+00 2.250978088378906250e+01 8.878517837729305029e-05 -1.057515983120538294e-04 -5.089926162327174097e-06 -1.268664782401174307e-04
2.674000000000000000e+03 6.063666915893554688e+01 2.828640365600585938e+01 4.233448207378387451e-01 1.254027748107910156e+01 3.889086723327636719e+00 4.959865093231201172e+00
2.675000000000000000e+03 6.133979797363281250e+01 2.788880920410156250e+01 -2.582714855670928955e-01 1.416078472137451172e+01 4.170753955841064453e+00 3.048667907714843750e+00
2.676000000000000000e+03 6.108537292480468750e+01 2.824153327941894531e+01 1.262665819376707077e-02 1.425227642059326172e+01 4.279470920562744141e+00 3.792358160018920898e+00
2.677000000000000000e+03 6.149103927612304688e+01 3.388854217529296875e+01 -6.445427536964416504e-01 1.532977962493896484e+01 4.405570983886718750e+00 -1.968437314033508301e+00
2.678000000000000000e+03 6.143710327148437500e+01 3.333842086791992188e+01 -3.498143553733825684e-01 1.687936019897460938e+01 4.958863735198974609e+00 -2.206891775131225586e+00
2.679000000000000000e+03 5.895502853393554688e+01 2.863188743591308594e+01 2.093878269195556641e+00 4.295509338378906250e+00 1.916816234588623047e+00 4.527482509613037109e+00
2.680000000000000000e+03 6.327627182006835938e+01 2.980708885192871094e+01 5.508071899414062500e+00 1.484605884552001953e+01 6.106239318847656250e+00 -1.779924631118774414e+00
2.681000000000000000e+03 6.213365554809570312e+01 2.818741989135742188e+01 2.728109955787658691e-01 1.562066268920898438e+01 4.768042087554931641e+00 8.883360624313354492e-01
2.682000000000000000e+03 6.455531311035156250e+01 3.130739212036132812e+01 5.435672760009765625e+00 1.212219619750976562e+01 5.267360687255859375e+00 6.561617851257324219e-01
2.683000000000000000e+03 6.363393783569335938e+01 3.249396133422851562e+01 4.233828544616699219e+00 1.433898258209228516e+01 5.571843147277832031e+00 2.208000183105468750e+00
2.684000000000000000e+03 6.422467803955078125e+01 3.254284667968750000e+01 3.870248079299926758e+00 1.310036277770996094e+01 5.091183185577392578e+00 1.885946750640869141e+00
2.685000000000000000e+03 6.351097488403320312e+01 3.320159530639648438e+01 2.254027366638183594e+00 1.466276645660400391e+01 5.075038433074951172e+00 1.958571434020996094e+00
2.686000000000000000e+03 6.412158966064453125e+01 3.179946327209472656e+01 5.416433811187744141e+00 1.286669635772705078e+01 5.484939098358154297e+00 1.385406494140625000e+00
2.687000000000000000e+03 6.423532104492187500e+01 3.217060852050781250e+01 4.695782661437988281e+00 1.278612899780273438e+01 5.244573593139648438e+00 1.610923886299133301e+00
2.688000000000000000e+03 5.861443710327148438e+01 3.346376419067382812e+01 1.496937751770019531e+00 3.340994596481323242e+00 1.451379656791687012e+00 -3.187352657318115234e+00
2.689000000000000000e+03 5.894198989868164062e+01 3.377125549316406250e+01 1.278407812118530273e+00 4.741015911102294922e+00 1.805827021598815918e+00 -3.692093849182128906e+00
2.690000000000000000e+03 6.026221466064453125e+01 3.405864334106445312e+01 1.397689133882522583e-01 1.041061019897460938e+01 3.165113687515258789e+00 -4.157978534698486328e+00
2.691000000000000000e+03 6.215584564208984375e+01 3.370864486694335938e+01 -1.858254969120025635e-01 1.627855110168457031e+01 4.827817916870117188e+00 -2.119195163249969482e-01
2.692000000000000000e+03 6.297921371459960938e+01 3.395496749877929688e+01 3.083484470844268799e-01 1.504461765289306641e+01 4.605889797210693359e+00 9.264275431632995605e-01
2.693000000000000000e+03 6.014651870727539062e+01 2.800475692749023438e+01 7.399480342864990234e-01 9.875302314758300781e+00 3.184575080871582031e+00 5.064055919647216797e+00
2.694000000000000000e+03 5.937839126586914062e+01 2.784421157836914062e+01 1.273252964019775391e+00 6.857948780059814453e+00 2.439360618591308594e+00 4.917178153991699219e+00
2.695000000000000000e+03 5.820747375488281250e+01 2.754138565063476562e+01 1.366701841354370117e+00 3.827486038208007812e+00 1.558256387710571289e+00 3.736072301864624023e+00
2.696000000000000000e+03 5.550693893432617188e+01 2.613802719116210938e+01 7.262885570526123047e-01 1.747380018234252930e+00 7.421005964279174805e-01 1.911178350448608398e+00
2.697000000000000000e+03 5.740531158447265625e+01 2.685197639465332031e+01 1.061821579933166504e+00 3.132394075393676758e+00 1.258264660835266113e+00 3.042259454727172852e+00
2.698000000000000000e+03 5.488305664062500000e+01 2.550698852539062500e+01 6.560229659080505371e-01 1.696991682052612305e+00 7.059044241905212402e-01 1.707559108734130859e+00
2.699000000000000000e+03 5.607016754150390625e+01 2.610128211975097656e+01 8.178648948669433594e-01 2.213071584701538086e+00 9.092809557914733887e-01 2.250858545303344727e+00
2.700000000000000000e+03 4.488196182250976562e+01 2.676329231262207031e+01 -7.149755358695983887e-01 1.725696474313735962e-01 -1.627217680215835571e-01 -3.463225960731506348e-01
2.701000000000000000e+03 3.103697586059570312e+01 2.860310935974121094e+01 -3.032759428024291992e-01 -1.803713664412498474e-02 -9.639392048120498657e-02 -3.544518947601318359e-01
2.702000000000000000e+03 2.955366325378417969e+01 2.924722671508789062e+01 -2.466422766447067261e-01 -3.914991766214370728e-02 -8.573766052722930908e-02 -2.953688800334930420e-01
2.703000000000000000e+03 3.066344261169433594e+01 2.728052330017089844e+01 -2.520094215869903564e-01 -5.327489227056503296e-02 -9.158529341220855713e-02 -4.013483822345733643e-01
2.704000000000000000e+03 3.301554870605468750e+01 2.840896034240722656e+01 -3.918420672416687012e-01 2.218964137136936188e-02 -1.108957231044769287e-01 -3.946617841720581055e-01
2.705000000000000000e+03 3.309558486938476562e+01 2.908032608032226562e+01 -4.211936891078948975e-01 3.142653778195381165e-02 -1.169301494956016541e-01 -3.605358898639678955e-01
2.706000000000000000e+03 2.878769874572753906e+01 2.920269584655761719e+01 -2.131711691617965698e-01 -5.680251866579055786e-02 -8.099211007356643677e-02 -2.799955904483795166e-01
2.707000000000000000e+03 2.982151031494140625e+01 2.768018150329589844e+01 -2.298304885625839233e-01 -6.675049662590026855e-02 -8.897429704666137695e-02 -3.678137063980102539e-01
2.708000000000000000e+03 2.722157669067382812e+01 2.808172416687011719e+01 -1.401890963315963745e-01 -1.217677369713783264e-01 -7.858704775571823120e-02 -2.788183987140655518e-01
2.709000000000000000e+03 2.888687515258789062e+01 2.831860542297363281e+01 -2.040046602487564087e-01 -7.677860558032989502e-02 -8.423498272895812988e-02 -3.177176117897033691e-01
2.710000000000000000e+03 5.204804229736328125e+01 2.673405265808105469e+01 -2.565530836582183838e-01 4.285564124584197998e-01 5.160099267959594727e-02 4.397423565387725830e-01
2.711000000000000000e+03 3.799300765991210938e+01 2.731678390502929688e+01 -5.688461661338806152e-01 1.018376201391220093e-01 -1.401025652885437012e-01 -4.733455777168273926e-01
2.712000000000000000e+03 5.280851745605468750e+01 2.607177925109863281e+01 1.290386021137237549e-01 7.284705042839050293e-01 2.572527229785919189e-01 7.715321779251098633e-01
2.713000000000000000e+03 4.965933227539062500e+01 2.615501594543457031e+01 -3.626485466957092285e-01 3.388095200061798096e-01 -7.151709403842687607e-03 8.480968326330184937e-02
2.714000000000000000e+03 3.588451385498046875e+01 2.848925971984863281e+01 -5.518109798431396484e-01 7.226437330245971680e-02 -1.438639760017395020e-01 -4.118268191814422607e-01
2.715000000000000000e+03 3.367363357543945312e+01 2.825558662414550781e+01 -4.195001721382141113e-01 3.353956714272499084e-02 -1.157881766557693481e-01 -4.100837409496307373e-01
2.716000000000000000e+03 3.434729003906250000e+01 2.808492279052734375e+01 -4.448269903659820557e-01 4.482644051313400269e-02 -1.200001612305641174e-01 -4.246125817298889160e-01
2.717000000000000000e+03 4.467610168457031250e+01 2.533420753479003906e+01 -4.089977443218231201e-01 2.444970607757568359e-01 -4.935020580887794495e-02 -3.472811877727508545e-01
2.718000000000000000e+03 3.504461288452148438e+01 2.791356658935546875e+01 -4.705993235111236572e-01 5.588440597057342529e-02 -1.244144737720489502e-01 -4.390509426593780518e-01
2.719000000000000000e+03 4.478003692626953125e+01 2.605467414855957031e+01 -5.549180507659912109e-01 2.074850052595138550e-01 -1.042299196124076843e-01 -3.509349822998046875e-01
2.720000000000000000e+03 5.423386383056640625e+01 2.546935844421386719e+01 5.462000966072082520e-01 1.396248459815979004e+00 5.827345252037048340e-01 1.419438600540161133e+00
2.721000000000000000e+03 4.105887985229492188e+01 2.749339485168457031e+01 -7.347077727317810059e-01 1.308917999267578125e-01 -1.811447888612747192e-01 -4.348782300949096680e-01
2.722000000000000000e+03 4.653105545043945312e+01 2.721629142761230469e+01 -8.435116410255432129e-01 1.614010632038116455e-01 -2.046331763267517090e-01 -2.589455544948577881e-01
2.723000000000000000e+03 4.031423187255859375e+01 2.763813591003417969e+01 -7.189636230468750000e-01 1.228161752223968506e-01 -1.788442283868789673e-01 -4.388954043388366699e-01
2.724000000000000000e+03 5.834988784790039062e+01 3.422811508178710938e+01 1.126510262489318848e+00 3.679905176162719727e+00 1.441924691200256348e+00 -2.913903951644897461e+00
2.725000000000000000e+03 5.797694015502929688e+01 3.672970962524414062e+01 4.406037032604217529e-01 4.665358066558837891e+00 1.531788587570190430e+00 -2.216302394866943359e+00
2.726000000000000000e+03 5.046443557739257812e+01 2.610531234741210938e+01 -2.572201192378997803e-01 4.036498069763183594e-01 4.392891004681587219e-02 2.196818441152572632e-01
2.727000000000000000e+03 5.127210617065429688e+01 2.675399780273437500e+01 -3.889086246490478516e-01 3.515123426914215088e-01 -1.121888216584920883e-02 2.787787914276123047e-01
2.728000000000000000e+03 4.804492950439453125e+01 2.630729293823242188e+01 -5.307171344757080078e-01 2.527169585227966309e-01 -8.340004831552505493e-02 -1.200557202100753784e-01
2.729000000000000000e+03 4.011005401611328125e+01 2.619230079650878906e+01 -5.189783573150634766e-01 1.399798095226287842e-01 -1.136995628476142883e-01 -4.967618882656097412e-01
2.730000000000000000e+03 4.094915008544921875e+01 2.678753662109375000e+01 -6.257101297378540039e-01 1.408207863569259644e-01 -1.454668194055557251e-01 -4.653902947902679443e-01
2.731000000000000000e+03 5.125955581665039062e+01 2.607604026794433594e+01 -1.415627598762512207e-01 4.848832488059997559e-01 1.029961481690406799e-01 3.756542205810546875e-01
2.732000000000000000e+03 2.743482208251953125e+01 2.693698310852050781e+01 -1.338920593261718750e-01 -1.506282985210418701e-01 -8.535610884428024292e-02 -3.225618898868560791e-01
2.733000000000000000e+03 4.637060928344726562e+01 2.580308723449707031e+01 -4.657250344753265381e-01 2.541747987270355225e-01 -6.346507370471954346e-02 -2.437079548835754395e-01
2.734000000000000000e+03 5.877967834472656250e+01 3.906643295288085938e+01 -3.602513074874877930e-01 6.345767021179199219e+00 1.795654773712158203e+00 -1.241932272911071777e+00
2.735000000000000000e+03 7.296911621093750000e+01 2.790104675292968750e+01 7.149263024330139160e-01 7.448945522308349609e+00 2.449161529541015625e+00 -9.003591537475585938e-01
2.736000000000000000e+03 4.322517013549804688e+01 2.634605407714843750e+01 -6.074046492576599121e-01 1.757172495126724243e-01 -1.295062154531478882e-01 -4.169580638408660889e-01
2.737000000000000000e+03 7.031413269042968750e+01 -4.919815063476562500e+00 -4.649514332413673401e-02 7.301404476165771484e+00 2.176472663879394531e+00 1.746125333011150360e-02
2.738000000000000000e+03 7.103038024902343750e+01 1.262156009674072266e+00 -1.169444695115089417e-01 7.502250194549560547e+00 2.215591669082641602e+00 -5.138126760721206665e-02
2.739000000000000000e+03 7.194485473632812500e+01 3.802951812744140625e+00 -1.450287550687789917e-01 7.686306953430175781e+00 2.262383460998535156e+00 -1.121629029512405396e-01
2.740000000000000000e+03 3.957427215576171875e+01 2.777789306640625000e+01 -6.979988813400268555e-01 1.162676811218261719e-01 -1.745193600654602051e-01 -4.393161237239837646e-01
2.741000000000000000e+03 3.790285491943359375e+01 2.654796600341796875e+01 -4.896533489227294922e-01 1.034558638930320740e-01 -1.158592477440834045e-01 -5.043950080871582031e-01
2.742000000000000000e+03 9.880378723144531250e+00 -7.452491760253906250e+00 -6.877016276121139526e-04 -9.970588143914937973e-04 -5.054281209595501423e-04 1.244296901859343052e-03
2.743000000000000000e+03 7.238644409179687500e+01 2.252648925781250000e+01 -7.667507976293563843e-02 7.996467113494873047e+00 2.375937700271606445e+00 -1.242635607719421387e+00
2.744000000000000000e+03 1.031148529052734375e+01 -6.725576400756835938e+00 -4.704662133008241653e-04 9.544851491227746010e-04 1.452056894777342677e-04 -1.092081773094832897e-03
2.745000000000000000e+03 8.037646293640136719e+00 1.053161334991455078e+01 9.360260446555912495e-05 3.402151924092322588e-05 3.828723856713622808e-05 1.233693365065846592e-05
2.746000000000000000e+03 9.345408439636230469e+00 1.006761837005615234e+01 1.621236442588269711e-04 6.427665357477962971e-05 6.792008935008198023e-05 5.639285518554970622e-05
2.747000000000000000e+03 6.976375579833984375e+01 -8.562061309814453125e+00 -2.704932540655136108e-02 7.156705856323242188e+00 2.138896942138671875e+00 3.305330872535705566e-02
2.748000000000000000e+03 6.492690563201904297e+00 8.017178535461425781e+00 1.331914972979575396e-04 7.926679973024874926e-05 6.373749056365340948e-05 -8.281663031084463000e-05
2.749000000000000000e+03 8.783993721008300781e+00 8.249759674072265625e+00 -1.442127249902114272e-04 5.444274393084924668e-06 -4.163053381489589810e-05 -7.137387729017063975e-05
2.750000000000000000e+03 7.407810211181640625e+00 -1.659943962097167969e+01 4.451816130313090980e-05 1.384133938699960709e-03 4.285956383682787418e-04 -8.561239228583872318e-04
2.751000000000000000e+03 9.645799636840820312e+00 -8.365093231201171875e+00 1.062422175891697407e-03 8.396920748054981232e-04 5.706342635676264763e-04 -1.015653717331588268e-03
2.752000000000000000e+03 2.830789756774902344e+01 1.730829811096191406e+01 2.667103521525859833e-02 -4.425868690013885498e-01 -1.247747540473937988e-01 -4.628549218177795410e-01
2.753000000000000000e+03 9.155591964721679688e+00 7.188396930694580078e+00 -1.617366651771590114e-04 6.617173494305461645e-05 -2.866947761503979564e-05 3.361425842740572989e-05
2.754000000000000000e+03 8.267402648925781250e+00 6.324275016784667969e+00 -1.081272494047880173e-04 -3.826972897513769567e-05 -4.391909169498831034e-05 -4.314770649216370657e-06
2.755000000000000000e+03 3.047087097167968750e+01 2.787192916870117188e+01 -2.605273723602294922e-01 -4.592917114496231079e-02 -9.193696081638336182e-02 -3.749911487102508545e-01
2.756000000000000000e+03 7.153580474853515625e+01 -3.667218446731567383e+00 -5.007311701774597168e-02 7.544539451599121094e+00 2.248339891433715820e+00 -1.147244125604629517e-03
2.757000000000000000e+03 7.013556671142578125e+01 -2.604015827178955078e+00 -6.666044890880584717e-02 7.292796134948730469e+00 2.167840719223022461e+00 9.226986207067966461e-03
2.758000000000000000e+03 6.971834564208984375e+01 -1.164143562316894531e+01 -1.289141830056905746e-02 7.156965255737304688e+00 2.143222093582153320e+00 5.467840284109115601e-02
2.759000000000000000e+03 2.845293998718261719e+01 1.028698635101318359e+01 5.928541347384452820e-02 -5.935983061790466309e-01 -1.602938771247863770e-01 -3.790915012359619141e-01
2.760000000000000000e+03 2.835546493530273438e+01 1.451427268981933594e+01 5.167203769087791443e-02 -5.149534344673156738e-01 -1.389844119548797607e-01 -4.378493428230285645e-01
2.761000000000000000e+03 6.951998138427734375e+01 -2.411100196838378906e+01 2.185687795281410217e-02 7.092930793762207031e+00 2.134436368942260742e+00 3.155414015054702759e-02
2.762000000000000000e+03 6.812217712402343750e+01 -2.914319419860839844e+01 1.467022579163312912e-02 6.812329292297363281e+00 2.048099994659423828e+00 4.059733077883720398e-02
2.763000000000000000e+03 3.076093101501464844e+01 1.715619659423828125e+01 4.963615164160728455e-02 -2.643522620201110840e-01 -6.441483646631240845e-02 -5.150413513183593750e-01
2.764000000000000000e+03 7.136919403076171875e+01 1.914724731445312500e+01 -4.416962563991546631e-01 8.183055877685546875e+00 2.322407722473144531e+00 -9.838564395904541016e-01
2.765000000000000000e+03 8.014060020446777344e+00 -7.589548587799072266e+00 -6.079309387132525444e-04 1.043355441652238369e-03 1.306273479713127017e-04 -4.171557666268199682e-04
2.766000000000000000e+03 7.383215427398681641e+00 -9.189623832702636719e+00 -5.824068794026970863e-04 -3.838468983303755522e-04 -2.898761304095387459e-04 5.711199264624156058e-05
2.767000000000000000e+03 7.049867248535156250e+01 -1.597690105438232422e+01 -9.666389785706996918e-03 7.268749237060546875e+00 2.177724838256835938e+00 3.355357423424720764e-02
2.768000000000000000e+03 7.122817230224609375e+01 1.637949180603027344e+01 -4.950142800807952881e-01 8.040295600891113281e+00 2.263584613800048828e+00 -7.379379272460937500e-01
2.769000000000000000e+03 7.079652404785156250e+01 1.464453220367431641e+01 -5.122889280319213867e-01 7.949675083160400391e+00 2.231215953826904297e+00 -5.748370885848999023e-01
2.770000000000000000e+03 2.902815055847167969e+01 -4.793083190917968750e+00 4.963185265660285950e-02 -6.169946789741516113e-01 -1.702088415622711182e-01 -1.547794044017791748e-01
2.771000000000000000e+03 3.053197288513183594e+01 -6.440871357917785645e-01 6.426906585693359375e-02 -3.739074468612670898e-01 -9.289151430130004883e-02 -2.046299874782562256e-01
2.772000000000000000e+03 7.246277618408203125e+01 7.506714820861816406e+00 -2.087507694959640503e-01 7.810433864593505859e+00 2.280504941940307617e+00 -2.396346777677536011e-01
2.773000000000000000e+03 7.286696624755859375e+01 2.679527473449707031e+01 5.534505844116210938e-01 7.556020259857177734e+00 2.432841300964355469e+00 -1.067000508308410645e+00
2.774000000000000000e+03 7.028322601318359375e+01 2.347056579589843750e+01 -3.965591639280319214e-02 8.615846633911132812e+00 2.572857141494750977e+00 -1.295561075210571289e+00
2.775000000000000000e+03 3.089471244812011719e+01 1.172479629516601562e+01 1.052485704421997070e-01 -2.998600006103515625e-01 -5.838342756032943726e-02 -4.306609332561492920e-01
2.776000000000000000e+03 2.847928047180175781e+01 7.509157180786132812e+00 5.017741024494171143e-02 -6.306357383728027344e-01 -1.741375029087066650e-01 -3.307390511035919189e-01
2.777000000000000000e+03 2.968984031677246094e+01 1.030809402465820312e+01 8.243176341056823730e-02 -4.452910423278808594e-01 -1.088577806949615479e-01 -3.952387869358062744e-01
2.778000000000000000e+03 8.469335556030273438e+00 -2.188110351562500000e+01 -6.660213693976402283e-03 2.978991251438856125e-03 -1.104366732761263847e-03 1.732937293127179146e-03
2.779000000000000000e+03 8.753279685974121094e+00 -2.021219062805175781e+01 -2.980506978929042816e-03 -3.093776467721909285e-04 -9.869653731584548950e-04 7.777934079058468342e-04
2.780000000000000000e+03 7.240293884277343750e+01 1.256401538848876953e+01 -3.393505811691284180e-01 7.887469768524169922e+00 2.264435768127441406e+00 -5.000656843185424805e-01
2.781000000000000000e+03 7.129762268066406250e+01 1.116887760162353516e+01 -3.658720552921295166e-01 7.786384105682373047e+00 2.226153612136840820e+00 -3.890591859817504883e-01
2.782000000000000000e+03 7.093314361572265625e+01 1.811153221130371094e+01 -5.187711119651794434e-01 8.181024551391601562e+00 2.298676013946533203e+00 -8.649341464042663574e-01
2.783000000000000000e+03 9.410656929016113281e+00 -9.448867797851562500e+00 -1.397786196321249008e-03 -6.402567378245294094e-04 -6.114128627814352512e-04 9.994797874242067337e-04
2.784000000000000000e+03 7.808529376983642578e+00 -1.015200328826904297e+01 4.172207845840603113e-04 -1.064700074493885040e-03 -1.942437957040965557e-04 7.570035522803664207e-04
2.785000000000000000e+03 8.118873596191406250e+00 1.398068141937255859e+01 -1.514100844701715687e-08 3.174010771544999443e-06 9.476609079683839809e-07 1.352895196760073304e-04
2.786000000000000000e+03 6.908106994628906250e+01 3.687628507614135742e+00 -2.019454687833786011e-01 7.221276760101318359e+00 2.105799436569213867e+00 -4.675714671611785889e-02
2.787000000000000000e+03 2.957654380798339844e+01 1.450850486755371094e+01 6.641363352537155151e-02 -4.032280743122100830e-01 -1.010443344712257385e-01 -4.638293981552124023e-01
2.788000000000000000e+03 6.066063880920410156e+00 2.020894432067871094e+01 3.428908530622720718e-05 1.062296505551785231e-04 4.215562148601748049e-05 -3.578906398615799844e-05
2.789000000000000000e+03 8.072174072265625000e+00 1.788986778259277344e+01 1.855233131209388375e-04 1.735470286803320050e-04 1.077210981748066843e-04 -6.001206202199682593e-05
2.790000000000000000e+03 2.877521514892578125e+01 -7.145839214324951172e+00 3.640473261475563049e-02 -6.581483483314514160e-01 -1.865230947732925415e-01 -1.398959308862686157e-01
2.791000000000000000e+03 8.586850166320800781e+00 -2.277599525451660156e+01 5.027004517614841461e-03 5.827708519063889980e-04 1.682932605035603046e-03 -2.020605141296982765e-03
2.792000000000000000e+03 8.040564537048339844e+00 -1.794084930419921875e+01 2.070176182314753532e-03 1.299188472330570221e-03 1.010809326544404030e-03 -9.616124589229002595e-05
2.793000000000000000e+03 6.547014236450195312e+00 -2.110234069824218750e+01 3.699304768815636635e-03 3.014551184605807066e-04 1.200227998197078705e-03 -4.443086509127169847e-04
2.794000000000000000e+03 2.888429641723632812e+01 -5.956701755523681641e+00 4.452834650874137878e-02 -6.379372477531433105e-01 -1.780226677656173706e-01 -1.454323232173919678e-01
2.795000000000000000e+03 8.117644309997558594e+00 2.153678131103515625e+01 -6.218623457243666053e-05 3.561231642379425466e-05 -7.972175808390602469e-06 1.693820086074993014e-04
2.796000000000000000e+03 7.099826049804687500e+01 -1.006980061531066895e+00 -8.460558205842971802e-02 7.470781803131103516e+00 2.215852975845336914e+00 -1.828541606664657593e-02
2.797000000000000000e+03 7.454121589660644531e+00 -2.279507827758789062e+01 -3.936161752790212631e-03 -3.493040276225656271e-05 -1.191327581182122231e-03 3.298081923276185989e-03
2.798000000000000000e+03 8.745427131652832031e+00 -3.232705688476562500e+01 1.565385796129703522e-02 -1.026805303990840912e-02 1.615741755813360214e-03 -3.466475987806916237e-03
2.799000000000000000e+03 9.765915870666503906e+00 -2.607575035095214844e+01 4.113738425076007843e-03 3.370226360857486725e-03 2.245189389213919640e-03 -4.298417828977108002e-03
2.800000000000000000e+03 8.582052230834960938e+00 -2.386554336547851562e+01 -3.940418828278779984e-03 -9.501490276306867599e-04 -1.467170310206711292e-03 1.408097101375460625e-03
2.801000000000000000e+03 9.776962280273437500e+00 -2.496655273437500000e+01 -3.873155219480395317e-03 -1.836012932471930981e-03 -1.712750410661101341e-03 2.780255861580371857e-03
2.802000000000000000e+03 8.527396202087402344e+00 9.718582153320312500e+00 -8.173486276064068079e-05 -7.266227476065978408e-05 -4.631913907360285521e-05 -2.593018143670633435e-05
2.803000000000000000e+03 7.304174423217773438e+00 9.804116249084472656e+00 -7.037712202873080969e-05 1.565776983625255525e-05 -1.641580456634983420e-05 -1.931119004439096898e-05
2.804000000000000000e+03 3.035008239746093750e+01 2.855495643615722656e+01 -2.711848020553588867e-01 -3.432590886950492859e-02 -9.165321290493011475e-02 -3.433669507503509521e-01
2.805000000000000000e+03 9.892300605773925781e+00 3.200938415527343750e+01 -8.130875648930668831e-04 2.393433096585795283e-04 -1.721232692943885922e-04 -3.037243441212922335e-04
2.806000000000000000e+03 2.798893737792968750e+01 -2.048546409606933594e+01 1.401270274072885513e-02 -7.580397129058837891e-01 -2.232080996036529541e-01 -6.553826481103897095e-02
2.807000000000000000e+03 3.066260337829589844e+01 -2.251718521118164062e+01 3.321238234639167786e-02 -2.702274620532989502e-01 -7.110451906919479370e-02 -2.748746797442436218e-02
2.808000000000000000e+03 2.939037895202636719e+01 -2.205490112304687500e+01 3.590693324804306030e-02 -5.299249291419982910e-01 -1.482053995132446289e-01 -4.672686755657196045e-02
2.809000000000000000e+03 6.848831176757812500e+01 -2.078615951538085938e+01 7.726395037025213242e-03 6.873462677001953125e+00 2.064356803894042969e+00 3.920751437544822693e-02
2.810000000000000000e+03 7.038269042968750000e+01 -1.944009780883789062e+01 -6.887019262649118900e-04 7.249572753906250000e+00 2.174665212631225586e+00 3.853070735931396484e-02
2.811000000000000000e+03 7.147483825683593750e+01 2.217845916748046875e+01 -1.647060811519622803e-01 8.259187698364257812e+00 2.428344488143920898e+00 -1.235500812530517578e+00
2.812000000000000000e+03 2.973627853393554688e+01 6.199664115905761719e+00 7.067225128412246704e-02 -4.676437973976135254e-01 -1.190914586186408997e-01 -3.165357112884521484e-01
2.813000000000000000e+03 2.899285697937011719e+01 -1.352696514129638672e+01 1.815801486372947693e-02 -5.977880358695983887e-01 -1.738890111446380615e-01 -8.685776591300964355e-02
2.814000000000000000e+03 2.880662155151367188e+01 -1.216952514648437500e+01 1.790365576744079590e-02 -6.388636231422424316e-01 -1.862879991531372070e-01 -9.906056523323059082e-02
2.815000000000000000e+03 7.854334354400634766e+00 2.333779144287109375e+01 -3.725609567482024431e-04 7.287776497832965106e-06 -1.095819534384645522e-04 1.394522114424034953e-04
2.816000000000000000e+03 1.071569728851318359e+01 -2.733020591735839844e+01 6.633496377617120743e-03 2.622562693431973457e-03 2.776817651465535164e-03 -3.626283723860979080e-03
2.817000000000000000e+03 1.116980934143066406e+01 -3.427289962768554688e+01 3.835577890276908875e-02 -1.283602556213736534e-03 1.112165208905935287e-02 -9.393235668540000916e-03
2.818000000000000000e+03 2.797833633422851562e+01 2.434472274780273438e+01 -9.937557578086853027e-02 -2.244826555252075195e-01 -9.715747088193893433e-02 -4.089184701442718506e-01
2.819000000000000000e+03 2.971930694580078125e+01 8.909636497497558594e+00 7.875726372003555298e-02 -4.535523653030395508e-01 -1.124385297298431396e-01 -3.696288764476776123e-01
2.820000000000000000e+03 2.777175331115722656e+01 2.567800521850585938e+01 -1.197601035237312317e-01 -1.851226240396499634e-01 -9.146481752395629883e-02 -3.730407655239105225e-01
2.821000000000000000e+03 7.142749786376953125e+01 2.493855476379394531e+01 3.217944204807281494e-01 8.237656593322753906e+00 2.567835092544555664e+00 -1.320974469184875488e+00
2.822000000000000000e+03 7.162322998046875000e+01 2.124527931213378906e+01 -2.620412409305572510e-01 8.212471961975097656e+00 2.385129213333129883e+00 -1.185314297676086426e+00
2.823000000000000000e+03 7.008473968505859375e+01 -2.109904670715332031e+01 -2.563533606007695198e-03 7.166348934173583984e+00 2.149135589599609375e+00 3.116236813366413116e-02
2.824000000000000000e+03 2.854024696350097656e+01 2.703920602798461914e+00 3.985700011253356934e-02 -6.666586995124816895e-01 -1.880405098199844360e-01 -2.375800907611846924e-01
2.825000000000000000e+03 2.964826583862304688e+01 3.752607107162475586e+00 6.291931867599487305e-02 -4.860325455665588379e-01 -1.269339621067047119e-01 -2.660203874111175537e-01
2.826000000000000000e+03 2.961474609375000000e+01 1.312162590026855469e+01 7.665476202964782715e-02 -4.208192825317382812e-01 -1.032493487000465393e-01 -4.438101053237915039e-01
2.827000000000000000e+03 7.133270263671875000e+01 7.532248020172119141e+00 -2.521657645702362061e-01 7.671800613403320312e+00 2.225890398025512695e+00 -2.174350917339324951e-01
2.828000000000000000e+03 6.866544342041015625e+01 -1.757708358764648438e+01 3.083207178860902786e-03 6.916661739349365234e+00 2.075923442840576172e+00 4.224135726690292358e-02
2.829000000000000000e+03 2.923464012145996094e+01 -1.498509693145751953e+01 2.224493585526943207e-02 -5.408716201782226562e-01 -1.555880010128021240e-01 -8.262587338685989380e-02
2.830000000000000000e+03 6.825293731689453125e+01 -3.225084304809570312e+01 2.550826407968997955e-02 6.824560642242431641e+00 2.055020570755004883e+00 3.854059055447578430e-02
2.831000000000000000e+03 7.063194274902343750e+01 -1.325984191894531250e+01 -7.723160553723573685e-03 7.308860778808593750e+00 2.190341234207153320e+00 4.372027888894081116e-02
2.832000000000000000e+03 8.383711814880371094e+00 3.514035034179687500e+01 8.169731008820235729e-04 -3.940597537166468101e-07 2.449737221468240023e-04 4.958022618666291237e-04
2.833000000000000000e+03 6.974285125732421875e+01 -2.765832710266113281e+01 1.208843663334846497e-02 7.086714744567871094e+00 2.129641056060791016e+00 4.049463570117950439e-02
2.834000000000000000e+03 6.845233917236328125e+01 -2.616472816467285156e+01 4.024372436106204987e-03 6.850951194763183594e+00 2.056492805480957031e+00 4.257243499159812927e-02
2.835000000000000000e+03 7.130988311767578125e+01 9.936708450317382812e+00 -3.312724530696868896e-01 7.743033885955810547e+00 2.223528385162353516e+00 -3.222991526126861572e-01
2.836000000000000000e+03 2.890657615661621094e+01 1.915758728981018066e+00 5.013394728302955627e-02 -6.053888797760009766e-01 -1.665764749050140381e-01 -2.271160036325454712e-01
2.837000000000000000e+03 2.965666007995605469e+01 1.997564697265625000e+01 -1.754349470138549805e-02 -2.812852561473846436e-01 -8.964862674474716187e-02 -5.074746608734130859e-01
2.838000000000000000e+03 3.004933738708496094e+01 2.108943367004394531e+01 -4.677969217300415039e-02 -2.340817004442214966e-01 -8.425841480493545532e-02 -5.111523270606994629e-01
2.839000000000000000e+03 2.225161933898925781e+01 -3.573450088500976562e+01 -1.676693409681320190e-01 -1.663832902908325195e+00 -5.494506955146789551e-01 -1.313014049082994461e-02
2.840000000000000000e+03 2.788987350463867188e+01 -2.204284477233886719e+01 2.080864831805229187e-02 -7.741821408271789551e-01 -2.260120511054992676e-01 -7.285267859697341919e-02
2.841000000000000000e+03 2.798396110534667969e+01 -2.358429145812988281e+01 3.577241674065589905e-02 -7.404417395591735840e-01 -2.114007920026779175e-01 -6.257678568363189697e-02
2.842000000000000000e+03 7.257614898681640625e+01 -3.448237991333007812e+01 2.742066979408264160e-03 7.603758811950683594e+00 2.281950235366821289e+00 -1.097793038934469223e-02
2.843000000000000000e+03 7.157572937011718750e+01 2.829563903808593750e+01 1.040005803108215332e+00 7.947918415069580078e+00 2.696377277374267578e+00 -8.957527875900268555e-01
2.844000000000000000e+03 7.129298400878906250e+01 3.681968688964843750e+01 3.934776177629828453e-04 8.596049308776855469e+00 2.578932762145996094e+00 7.801839709281921387e-01
2.845000000000000000e+03 7.113684082031250000e+01 1.356038761138916016e+01 -4.522072076797485352e-01 7.885396003723144531e+00 2.229956626892089844e+00 -5.241860747337341309e-01
2.846000000000000000e+03 7.226270294189453125e+01 1.388379478454589844e+01 -3.775043785572052002e-01 7.910531997680664062e+00 2.259908199310302734e+00 -5.875654220581054688e-01
2.847000000000000000e+03 9.068399429321289062e+00 1.318589878082275391e+01 -1.519964939689089078e-06 3.691096571856178343e-05 1.061730017681838945e-05 -1.035354289342649281e-04
2.848000000000000000e+03 5.966479110717773438e+01 2.813016128540039062e+01 1.361995935440063477e+00 7.812932968139648438e+00 2.752478837966918945e+00 5.278969764709472656e+00
2.849000000000000000e+03 5.870910644531250000e+01 2.830100250244140625e+01 1.754338145256042480e+00 4.002194404602050781e+00 1.726959705352783203e+00 4.230635643005371094e+00
2.850000000000000000e+03 5.800915145874023438e+01 2.711090660095214844e+01 1.172561168670654297e+00 3.824927806854248047e+00 1.499246716499328613e+00 3.565609216690063477e+00
2.851000000000000000e+03 5.969469451904296875e+01 3.381290435791015625e+01 9.485455155372619629e-01 7.660294055938720703e+00 2.582651853561401367e+00 -4.353562355041503906e+00
2.852000000000000000e+03 6.394608688354492188e+01 2.990444946289062500e+01 5.207154273986816406e+00 1.317970848083496094e+01 5.516058444976806641e+00 -1.385458350181579590e+00
2.853000000000000000e+03 6.159949874877929688e+01 2.822328376770019531e+01 -3.135223686695098877e-02 1.547664833068847656e+01 4.633588790893554688e+00 2.264078855514526367e+00
2.854000000000000000e+03 6.403212738037109375e+01 3.083271408081054688e+01 6.302355289459228516e+00 1.282111358642578125e+01 5.737040519714355469e+00 -1.771279238164424896e-02
2.855000000000000000e+03 6.191478347778320312e+01 2.786881065368652344e+01 -1.383803486824035645e-01 1.478317642211914062e+01 4.393438816070556641e+00 1.618647813796997070e+00
2.856000000000000000e+03 5.858013916015625000e+01 3.381017684936523438e+01 1.178884267807006836e+00 3.799938917160034180e+00 1.493646979331970215e+00 -3.148623704910278320e+00
2.857000000000000000e+03 6.449138641357421875e+01 3.085843658447265625e+01 5.616077899932861328e+00 1.209534645080566406e+01 5.313426971435546875e+00 5.564379505813121796e-03
2.858000000000000000e+03 6.377569580078125000e+01 3.113646507263183594e+01 6.769983291625976562e+00 1.323941612243652344e+01 6.002819538116455078e+00 4.954581260681152344e-01
2.859000000000000000e+03 6.431058502197265625e+01 3.331927871704101562e+01 2.489912986755371094e+00 1.336610889434814453e+01 4.756806373596191406e+00 1.942207098007202148e+00
2.860000000000000000e+03 6.217203903198242188e+01 3.425167083740234375e+01 -4.943837225437164307e-01 1.515279865264892578e+01 4.397524356842041016e+00 -5.398762226104736328e-01
2.861000000000000000e+03 5.920530319213867188e+01 2.840261840820312500e+01 1.860430479049682617e+00 5.772591114044189453e+00 2.289906501770019531e+00 4.967536926269531250e+00
2.862000000000000000e+03 6.443611145019531250e+01 3.385561752319335938e+01 1.554348707199096680e+00 1.322506332397460938e+01 4.433823585510253906e+00 1.750591158866882324e+00
2.863000000000000000e+03 6.172812652587890625e+01 3.360691452026367188e+01 -4.074028134346008301e-01 1.632876968383789062e+01 4.776409626007080078e+00 -1.220804929733276367e+00
2.864000000000000000e+03 6.395658493041992188e+01 3.289163589477539062e+01 3.119360208511352539e+00 1.368067550659179688e+01 5.040010452270507812e+00 2.031057357788085938e+00
2.865000000000000000e+03 5.547289657592773438e+01 2.552848243713378906e+01 7.358753681182861328e-01 2.065374851226806641e+00 8.403750061988830566e-01 1.994936943054199219e+00
2.866000000000000000e+03 5.724147415161132812e+01 2.637069892883300781e+01 9.810014367103576660e-01 3.266208410263061523e+00 1.274163007736206055e+00 2.966979742050170898e+00
2.867000000000000000e+03 5.866762542724609375e+01 3.561598968505859375e+01 5.066365599632263184e-01 5.522532939910888672e+00 1.808750867843627930e+00 -2.900399208068847656e+00
2.868000000000000000e+03 5.802830886840820312e+01 3.467816162109375000e+01 1.006069540977478027e+00 3.477573871612548828e+00 1.345093011856079102e+00 -2.690935850143432617e+00
2.869000000000000000e+03 3.236172866821289062e+01 2.852770614624023438e+01 -3.641401827335357666e-01 1.001183688640594482e-02 -1.062385067343711853e-01 -3.799632489681243896e-01
2.870000000000000000e+03 3.191577529907226562e+01 2.694351196289062500e+01 -2.849749624729156494e-01 -3.016409091651439667e-02 -9.454171359539031982e-02 -4.380759596824645996e-01
2.871000000000000000e+03 3.229436874389648438e+01 2.790624237060546875e+01 -3.378469049930572510e-01 -1.530888257548213005e-03 -1.018133386969566345e-01 -4.081621766090393066e-01
2.872000000000000000e+03 2.963723945617675781e+01 2.845137214660644531e+01 -2.375442236661911011e-01 -5.507121980190277100e-02 -8.778463304042816162e-02 -3.327896893024444580e-01
2.873000000000000000e+03 2.878351402282714844e+01 2.604135131835937500e+01 -1.542107015848159790e-01 -1.440257430076599121e-01 -8.947093039751052856e-02 -3.958229124546051025e-01
2.874000000000000000e+03 5.546153259277343750e+01 2.492833709716796875e+01 7.178208827972412109e-01 2.341405391693115234e+00 9.177678823471069336e-01 2.041221618652343750e+00
2.875000000000000000e+03 5.600942993164062500e+01 2.551475715637207031e+01 7.756444811820983887e-01 2.488866567611694336e+00 9.793533086776733398e-01 2.263970851898193359e+00
2.876000000000000000e+03 4.159743118286132812e+01 2.593569755554199219e+01 -5.143418908119201660e-01 1.669633537530899048e-01 -1.042135581374168396e-01 -4.724820554256439209e-01
2.877000000000000000e+03 3.576525115966796875e+01 2.775054359436035156e+01 -4.958838522434234619e-01 6.795790791511535645e-02 -1.283777803182601929e-01 -4.509730935096740723e-01
2.878000000000000000e+03 3.714836502075195312e+01 2.668556785583496094e+01 -4.746336638927459717e-01 9.026620537042617798e-02 -1.153102368116378784e-01 -5.017837882041931152e-01
2.879000000000000000e+03 3.218856048583984375e+01 2.735294532775878906e+01 -3.145225346088409424e-01 -1.330885849893093109e-02 -9.834941476583480835e-02 -4.287624061107635498e-01
2.880000000000000000e+03 3.638965988159179688e+01 2.682814788818359375e+01 -4.557197093963623047e-01 7.593364268541336060e-02 -1.139358207583427429e-01 -4.951822161674499512e-01
2.881000000000000000e+03 3.489388656616210938e+01 2.715301132202148438e+01 -4.170617163181304932e-01 4.712274298071861267e-02 -1.109816879034042358e-01 -4.726850688457489014e-01
2.882000000000000000e+03 3.563354110717773438e+01 2.698205566406250000e+01 -4.367959499359130859e-01 6.094849482178688049e-02 -1.127542406320571899e-01 -4.855395257472991943e-01
2.883000000000000000e+03 4.246030426025390625e+01 2.649748420715332031e+01 -6.220045089721679688e-01 1.623391062021255493e-01 -1.378996223211288452e-01 -4.388874769210815430e-01
2.884000000000000000e+03 4.388529205322265625e+01 2.547748756408691406e+01 -4.468786716461181641e-01 2.209404408931732178e-01 -6.778146326541900635e-02 -3.912924230098724365e-01
2.885000000000000000e+03 4.962361907958984375e+01 2.545681190490722656e+01 -1.576728224754333496e-01 4.447357952594757080e-01 8.611888438463211060e-02 1.510918885469436646e-01
2.886000000000000000e+03 5.281002044677734375e+01 2.540216827392578125e+01 3.050788938999176025e-01 9.397073984146118164e-01 3.734358847141265869e-01 9.021113514900207520e-01
2.887000000000000000e+03 5.204412078857421875e+01 2.606557655334472656e+01 -9.867117740213871002e-03 5.917601585388183594e-01 1.745679229497909546e-01 5.620920658111572266e-01
2.888000000000000000e+03 4.170140838623046875e+01 2.664513778686523438e+01 -6.268215775489807129e-01 1.525219529867172241e-01 -1.422898918390274048e-01 -4.543136060237884521e-01
2.889000000000000000e+03 4.235145187377929688e+01 2.578717422485351562e+01 -4.995267391204833984e-01 1.836777329444885254e-01 -9.475470334291458130e-02 -4.521225392818450928e-01
2.890000000000000000e+03 4.311198425292968750e+01 2.563031768798828125e+01 -4.781309962272644043e-01 1.992712616920471191e-01 -8.365792036056518555e-02 -4.263277351856231689e-01
2.891000000000000000e+03 4.724490356445312500e+01 2.640374183654785156e+01 -5.937941074371337891e-01 2.259476631879806519e-01 -1.103539243340492249e-01 -1.955559402704238892e-01
2.892000000000000000e+03 4.880320358276367188e+01 2.552156639099121094e+01 -2.528415322303771973e-01 3.766924738883972168e-01 3.715528920292854309e-02 2.353960275650024414e-02
2.893000000000000000e+03 4.798671722412109375e+01 2.560220718383789062e+01 -3.348447978496551514e-01 3.262067139148712158e-01 -2.591425785794854164e-03 -8.255988359451293945e-02
2.894000000000000000e+03 4.557192230224609375e+01 2.592294692993164062e+01 -5.156253576278686523e-01 2.271598428487777710e-01 -8.653966337442398071e-02 -3.036948144435882568e-01
2.895000000000000000e+03 4.717575073242187500e+01 2.569621467590332031e+01 -4.061245322227478027e-01 2.843944132328033447e-01 -3.651903197169303894e-02 -1.711725741624832153e-01
2.896000000000000000e+03 5.044117355346679688e+01 2.541171073913574219e+01 -5.469618737697601318e-02 5.296077132225036621e-01 1.424734592437744141e-01 3.010188937187194824e-01
2.897000000000000000e+03 3.947117614746093750e+01 2.705245018005371094e+01 -6.050087809562683105e-01 1.213873550295829773e-01 -1.450864225625991821e-01 -4.754024147987365723e-01
2.898000000000000000e+03 5.354073715209960938e+01 2.543206405639648438e+01 4.267773926258087158e-01 1.147440314292907715e+00 4.722653031349182129e-01 1.147101998329162598e+00
2.899000000000000000e+03 5.124777221679687500e+01 2.538830566406250000e+01 5.991972982883453369e-02 6.371425390243530273e-01 2.091186791658401489e-01 4.762609004974365234e-01
2.900000000000000000e+03 2.927518081665039062e+01 2.416494750976562500e+01 -1.195025518536567688e-01 -1.822603791952133179e-01 -9.052888303995132446e-02 -4.551847875118255615e-01
2.901000000000000000e+03 6.836215972900390625e+00 -6.938877582550048828e+00 -6.852113874629139900e-04 -2.571963705122470856e-04 -2.827223215717822313e-04 -2.784591051749885082e-04
2.902000000000000000e+03 7.068056488037109375e+01 2.039290237426757812e+01 -4.351091682910919189e-01 8.386065483093261719e+00 2.385287046432495117e+00 -1.056764125823974609e+00
2.903000000000000000e+03 5.906368255615234375e+01 3.421503829956054688e+01 1.042155385017395020e+00 5.664442062377929688e+00 2.011979341506958008e+00 -3.777811050415039062e+00
2.904000000000000000e+03 5.895911407470703125e+01 3.638963699340820312e+01 8.527289330959320068e-02 6.423174858093261719e+00 1.952534317970275879e+00 -2.546325445175170898e+00
2.905000000000000000e+03 7.839933395385742188e+00 8.118452072143554688e+00 -7.591405301354825497e-05 1.436685997759923339e-04 2.032636257354170084e-05 -4.214945874991826713e-05
2.906000000000000000e+03 6.913001251220703125e+01 -3.779623746871948242e+00 -6.019880250096321106e-02 7.079906940460205078e+00 2.105912446975708008e+00 3.052085079252719879e-02
2.907000000000000000e+03 6.871391296386718750e+01 -7.063808441162109375e+00 -3.482925891876220703e-02 6.985190868377685547e+00 2.085108518600463867e+00 4.504803940653800964e-02
2.908000000000000000e+03 3.873524856567382812e+01 2.718119430541992188e+01 -5.883436203002929688e-01 1.121542230248451233e-01 -1.428568214178085327e-01 -4.749673902988433838e-01
2.909000000000000000e+03 8.780063629150390625e+00 -1.378573226928710938e+01 -2.008324488997459412e-03 -1.446039677830412984e-04 -6.458784919232130051e-04 7.459097105311229825e-05
2.910000000000000000e+03 7.018931579589843750e+01 -9.735917091369628906e+00 -1.903463900089263916e-02 7.227275848388671875e+00 2.162472248077392578e+00 4.269036278128623962e-02
2.911000000000000000e+03 6.826985931396484375e+01 -1.253872299194335938e+01 -1.777330995537340641e-03 6.858032703399658203e+00 2.056876659393310547e+00 4.723461344838142395e-02
2.912000000000000000e+03 2.911756515502929688e+01 2.741967201232910156e+01 -1.957277655601501465e-01 -9.512639790773391724e-02 -8.725625276565551758e-02 -3.601381480693817139e-01
2.913000000000000000e+03 2.952770614624023438e+01 1.724947738647460938e+01 3.549894690513610840e-02 -3.538508415222167969e-01 -9.550557285547256470e-02 -4.936690032482147217e-01
2.914000000000000000e+03 3.192403411865234375e+01 -3.946207046508789062e+00 8.943384885787963867e-02 -9.409485757350921631e-02 -1.398302731104195118e-03 -1.565968692302703857e-01
2.915000000000000000e+03 3.059593582153320312e+01 -3.856679201126098633e+00 7.313802838325500488e-02 -3.523199260234832764e-01 -8.375457674264907837e-02 -1.677902042865753174e-01
2.916000000000000000e+03 6.865287780761718750e+01 -1.928073120117187500e+01 -1.167224181699566543e-04 6.899758815765380859e+00 2.069892644882202148e+00 4.116436094045639038e-02
2.917000000000000000e+03 3.093428802490234375e+01 1.031993293762207031e+01 1.050877869129180908e-01 -2.992498278617858887e-01 -5.824861675500869751e-02 -4.031860530376434326e-01
2.918000000000000000e+03 2.954359626770019531e+01 1.588247966766357422e+01 5.412748083472251892e-02 -3.809767067432403564e-01 -9.805476665496826172e-02 -4.806197285652160645e-01
2.919000000000000000e+03 7.096037292480468750e+01 2.412458038330078125e+01 1.432006210088729858e-01 8.394214630126953125e+00 2.561224460601806641e+00 -1.323900103569030762e+00
2.920000000000000000e+03 2.912704086303710938e+01 2.300620841979980469e+01 -8.577992767095565796e-02 -2.276320606470108032e-01 -9.402360022068023682e-02 -4.716536700725555420e-01
2.921000000000000000e+03 3.169582557678222656e+01 2.739267730712890625e+01 -2.945646345615386963e-01 -2.582646906375885010e-02 -9.611733257770538330e-02 -4.163779914379119873e-01
2.922000000000000000e+03 7.129537200927734375e+01 6.391080856323242188e+00 -2.256050705909729004e-01 7.637691497802734375e+00 2.223625898361206055e+00 -1.774216741323471069e-01
2.923000000000000000e+03 6.975930786132812500e+01 -1.544250845909118652e+00 -9.202787280082702637e-02 7.224878311157226562e+00 2.139855146408081055e+00 5.894213914871215820e-03
2.924000000000000000e+03 6.771334075927734375e+01 -2.434794044494628906e+01 1.081101596355438232e-02 6.729080200195312500e+00 2.021967411041259766e+00 4.346254095435142517e-02
2.925000000000000000e+03 6.783663177490234375e+01 -2.243704032897949219e+01 7.005840539932250977e-03 6.753883361816406250e+00 2.028266668319702148e+00 3.686803951859474182e-02
2.926000000000000000e+03 6.998352813720703125e+01 -7.338683128356933594e+00 -3.304911777377128601e-02 7.210000038146972656e+00 2.153085231781005859e+00 3.110858239233493805e-02
2.927000000000000000e+03 6.930606842041015625e+01 -1.043664169311523438e+01 -2.289851754903793335e-02 7.074773788452148438e+00 2.115562677383422852e+00 4.360679164528846741e-02
2.928000000000000000e+03 7.547490596771240234e+00 -2.101923942565917969e+01 -4.085739143192768097e-03 5.712447455152869225e-04 -1.054348307661712170e-03 1.282490906305611134e-03
2.929000000000000000e+03 6.738010406494140625e+00 -2.219404411315917969e+01 -3.680064808577299118e-03 1.168908784165978432e-03 -7.533468306064605713e-04 -2.154706162400543690e-04
2.930000000000000000e+03 6.917261505126953125e+01 1.920661735534667969e+01 -6.469408273696899414e-01 8.495331764221191406e+00 2.354517221450805664e+00 -7.983532547950744629e-01
2.931000000000000000e+03 7.018914031982421875e+01 1.556167030334472656e+01 -5.699422955513000488e-01 8.017898559570312500e+00 2.234386920928955078e+00 -5.898106098175048828e-01
2.932000000000000000e+03 8.284690856933593750e+00 -1.701152992248535156e+01 -2.982389181852340698e-03 -2.664291532710194588e-04 -9.746454888954758644e-04 6.227332050912082195e-05
2.933000000000000000e+03 3.049823379516601562e+01 -1.322200012207031250e+01 2.386370673775672913e-02 -3.388691544532775879e-01 -9.450162947177886963e-02 -9.234033524990081787e-02
2.934000000000000000e+03 6.919359588623046875e+01 -1.430326080322265625e+01 3.896218026056885719e-03 7.033260345458984375e+00 2.111146926879882812e+00 4.639492928981781006e-02
2.935000000000000000e+03 7.051731872558593750e+01 -1.448281097412109375e+01 2.710946369916200638e-03 7.294647216796875000e+00 2.189207315444946289e+00 3.396933525800704956e-02
2.936000000000000000e+03 9.104480743408203125e+00 -2.826926422119140625e+01 5.442875437438488007e-03 3.928444348275661469e-03 2.811396028846502304e-03 -3.361285896971821785e-03
2.937000000000000000e+03 7.165830230712890625e+01 2.596903228759765625e+01 5.355505943298339844e-01 8.074502944946289062e+00 2.583015918731689453e+00 -1.236373066902160645e+00
2.938000000000000000e+03 7.065618133544921875e+01 2.213592147827148438e+01 -2.314555048942565918e-01 8.492196083068847656e+00 2.478222131729125977e+00 -1.216195821762084961e+00
2.939000000000000000e+03 2.623601150512695312e+01 -2.214015388488769531e+01 3.002103231847286224e-02 -1.066953301429748535e+00 -3.110796809196472168e-01 -7.523293048143386841e-02
2.940000000000000000e+03 7.042624664306640625e+01 1.951829528808593750e+01 -5.129825472831726074e-01 8.351338386535644531e+00 2.351506710052490234e+00 -9.547725915908813477e-01
2.941000000000000000e+03 6.999337768554687500e+01 1.866741943359375000e+01 -5.856819152832031250e-01 8.331292152404785156e+00 2.323683261871337891e+00 -8.426859974861145020e-01
2.942000000000000000e+03 7.026335906982421875e+01 1.717634201049804688e+01 -5.825509428977966309e-01 8.164194107055664062e+00 2.274492979049682617e+00 -7.389612197875976562e-01
2.943000000000000000e+03 3.043548202514648438e+01 -4.915212631225585938e+00 7.070911675691604614e-02 -3.683149814605712891e-01 -8.928176015615463257e-02 -1.519872546195983887e-01
2.944000000000000000e+03 3.132126998901367188e+01 -1.629079055786132812e+01 3.725609555840492249e-02 -1.748752743005752563e-01 -4.128575325012207031e-02 -6.920104473829269409e-02
2.945000000000000000e+03 2.914107131958007812e+01 -1.822099685668945312e+01 3.388767689466476440e-02 -5.495707988739013672e-01 -1.547049432992935181e-01 -6.016775593161582947e-02
2.946000000000000000e+03 7.012360382080078125e+01 1.105939960479736328e+01 -4.306433200836181641e-01 7.690868854522705078e+00 2.178067684173583984e+00 -3.216101825237274170e-01
2.947000000000000000e+03 7.013066864013671875e+01 9.844668388366699219e+00 -3.802591264247894287e-01 7.617694377899169922e+00 2.171230554580688477e+00 -2.645009458065032959e-01
2.948000000000000000e+03 3.097381973266601562e+01 8.921441078186035156e+00 1.048766076564788818e-01 -2.955605983734130859e-01 -5.720520019531250000e-02 -3.747501969337463379e-01
2.949000000000000000e+03 3.086046981811523438e+01 1.311851882934570312e+01 9.672122448682785034e-02 -2.974965870380401611e-01 -6.023260951042175293e-02 -4.576292037963867188e-01
2.950000000000000000e+03 3.097817611694335938e+01 4.876308917999267578e+00 9.385582804679870605e-02 -2.932693660259246826e-01 -5.982406064867973328e-02 -2.907925844192504883e-01
2.951000000000000000e+03 3.101201248168945312e+01 6.187880516052246094e+00 9.656243771314620972e-02 -2.882281243801116943e-01 -5.749970301985740662e-02 -3.176816403865814209e-01
2.952000000000000000e+03 3.078655052185058594e+01 1.583046054840087891e+01 6.884757429361343384e-02 -2.790580391883850098e-01 -6.306313723325729370e-02 -4.992198646068572998e-01
2.953000000000000000e+03 1.269278430938720703e+01 -3.288707733154296875e+01 1.924687251448631287e-02 1.459400169551372528e-02 1.015226170420646667e-02 -1.430910173803567886e-02
2.954000000000000000e+03 7.653420448303222656e+00 -3.232632827758789062e+01 1.394774671643972397e-02 -2.973678754642605782e-03 3.292220411822199821e-03 6.513287313282489777e-03
2.955000000000000000e+03 3.082503700256347656e+01 -1.464927577972412109e+01 3.262938559055328369e-02 -2.915718853473663330e-01 -7.768275588750839233e-02 -7.772170752286911011e-02
2.956000000000000000e+03 2.948655891418457031e+01 -1.661794853210449219e+01 3.667828068137168884e-02 -4.973687231540679932e-01 -1.382071375846862793e-01 -7.490038126707077026e-02
2.957000000000000000e+03 2.996553611755371094e+01 2.255341339111328125e+01 -8.668047189712524414e-02 -1.914329975843429565e-01 -8.343403786420822144e-02 -5.019861459732055664e-01
2.958000000000000000e+03 3.228237533569335938e+01 4.786692619323730469e+00 1.185464709997177124e-01 -1.056276857852935791e-01 3.875636029988527298e-03 -2.843534350395202637e-01
2.959000000000000000e+03 7.343041992187500000e+01 3.066628074645996094e+01 7.975266575813293457e-01 7.151542186737060547e+00 2.384720802307128906e+00 -2.920527756214141846e-01
2.960000000000000000e+03 7.098128509521484375e+01 3.197067832946777344e+01 1.330791592597961426e+00 8.146745681762695312e+00 2.843261003494262695e+00 1.251030415296554565e-01
2.961000000000000000e+03 6.999797821044921875e+01 3.258873748779296875e+01 1.532364010810852051e+00 8.621975898742675781e+00 3.046302080154418945e+00 4.104904532432556152e-01
2.962000000000000000e+03 8.964456558227539062e+00 -2.964798927307128906e+01 1.119188615120947361e-03 -4.593930672854185104e-03 -1.042422605678439140e-03 5.454026395455002785e-04
2.963000000000000000e+03 7.183044433593750000e+01 3.883113479614257812e+01 -4.695563912391662598e-01 8.446505546569824219e+00 2.393084764480590820e+00 5.062368512153625488e-01
2.964000000000000000e+03 2.598350524902343750e+01 -3.065638351440429688e+01 -6.907501071691513062e-02 -1.089428663253784180e+00 -3.475510776042938232e-01 -4.968961328268051147e-02
2.965000000000000000e+03 3.484491729736328125e+01 -3.516207122802734375e+01 3.533955663442611694e-02 5.353771448135375977e-01 1.712149977684020996e-01 1.253967639058828354e-02
2.966000000000000000e+03 6.906028747558593750e+01 -6.289782524108886719e-01 -1.132196262478828430e-01 7.119046688079833984e+00 2.101748228073120117e+00 5.333969369530677795e-03
2.967000000000000000e+03 6.969293212890625000e+01 2.014245033264160156e+00 -1.569837331771850586e-01 7.275268077850341797e+00 2.135485410690307617e+00 -3.690223768353462219e-02
2.968000000000000000e+03 6.042608642578125000e+01 2.782913208007812500e+01 3.037853240966796875e-01 1.099828720092773438e+01 3.390621662139892578e+00 4.649874687194824219e+00
2.969000000000000000e+03 6.037847518920898438e+01 2.815708160400390625e+01 5.865469574928283691e-01 1.139035415649414062e+01 3.593070268630981445e+00 5.082198619842529297e+00
2.970000000000000000e+03 5.991878128051757812e+01 3.405466461181640625e+01 4.634748995304107666e-01 9.009246826171875000e+00 2.841816425323486328e+00 -4.289870738983154297e+00
2.971000000000000000e+03 5.993263244628906250e+01 3.488863372802734375e+01 6.932004354894161224e-03 8.926447868347167969e+00 2.680014133453369141e+00 -3.566922426223754883e+00
2.972000000000000000e+03 5.949063110351562500e+01 2.840913391113281250e+01 1.728662133216857910e+00 6.847496986389160156e+00 2.572847604751586914e+00 5.355084896087646484e+00
2.973000000000000000e+03 5.881478500366210938e+01 2.768965339660644531e+01 1.379834294319152832e+00 5.192437648773193359e+00 1.971681594848632812e+00 4.349521160125732422e+00
2.974000000000000000e+03 6.267613983154296875e+01 2.824183464050292969e+01 8.730807304382324219e-01 1.528958415985107422e+01 4.848799705505371094e+00 -2.662129104137420654e-01
2.975000000000000000e+03 6.078443527221679688e+01 2.793966484069824219e+01 5.426496639847755432e-02 1.245025920867919922e+01 3.751357316970825195e+00 4.249129772186279297e+00
2.976000000000000000e+03 6.409877014160156250e+01 3.051648139953613281e+01 6.029491901397705078e+00 1.267425346374511719e+01 5.611123561859130859e+00 -6.106814146041870117e-01
2.977000000000000000e+03 6.348773193359375000e+01 2.860918807983398438e+01 2.279734373092651367e+00 1.429352283477783203e+01 4.971977233886718750e+00 -1.427193999290466309e+00
2.978000000000000000e+03 6.394736099243164062e+01 2.919317626953125000e+01 3.798317670822143555e+00 1.350500202178955078e+01 5.190996170043945312e+00 -1.668382048606872559e+00
2.979000000000000000e+03 6.039548492431640625e+01 3.454549407958984375e+01 -2.554274499416351318e-01 1.063414287567138672e+01 3.113614559173583984e+00 -3.599784135818481445e+00
2.980000000000000000e+03 5.919244384765625000e+01 3.467654800415039062e+01 6.600074172019958496e-01 6.426198005676269531e+00 2.125861644744873047e+00 -3.550376653671264648e+00
2.981000000000000000e+03 6.412873840332031250e+01 2.960061454772949219e+01 4.543901920318603516e+00 1.300051593780517578e+01 5.263325214385986328e+00 -1.496134519577026367e+00
2.982000000000000000e+03 6.250212097167968750e+01 2.789291572570800781e+01 2.631921768188476562e-01 1.479556941986083984e+01 4.517628669738769531e+00 3.794490098953247070e-01
2.983000000000000000e+03 6.344619750976562500e+01 2.963302040100097656e+01 4.814923763275146484e+00 1.436480998992919922e+01 5.753920078277587891e+00 -1.759689450263977051e+00
2.984000000000000000e+03 6.164832687377929688e+01 2.751289749145507812e+01 -3.962380886077880859e-01 1.374971675872802734e+01 4.006043910980224609e+00 2.307961463928222656e+00
2.985000000000000000e+03 5.861258697509765625e+01 2.729055976867675781e+01 1.204226851463317871e+00 4.988476276397705078e+00 1.857810974121093750e+00 4.043285846710205078e+00
2.986000000000000000e+03 6.539243316650390625e+01 3.061955261230468750e+01 4.557624816894531250e+00 1.114253044128417969e+01 4.710046768188476562e+00 -2.859216630458831787e-01
2.987000000000000000e+03 6.169177246093750000e+01 3.432956695556640625e+01 -7.654900550842285156e-01 1.470629024505615234e+01 4.182240009307861328e+00 -1.554735541343688965e+00
2.988000000000000000e+03 5.904230499267578125e+01 2.807051467895507812e+01 1.596153020858764648e+00 5.493181228637695312e+00 2.126800298690795898e+00 4.711576461791992188e+00
2.989000000000000000e+03 6.462619781494140625e+01 3.215410995483398438e+01 4.496544361114501953e+00 1.241156196594238281e+01 5.072431564331054688e+00 1.486988186836242676e+00
2.990000000000000000e+03 6.441574096679687500e+01 3.464517974853515625e+01 4.231833517551422119e-01 1.296358871459960938e+01 4.016031742095947266e+00 1.319905996322631836e+00
2.991000000000000000e+03 6.491002655029296875e+01 3.307454299926757812e+01 2.839189529418945312e+00 1.236277294158935547e+01 4.560588836669921875e+00 1.721107363700866699e+00
2.992000000000000000e+03 6.462967681884765625e+01 3.174526786804199219e+01 5.009422302246093750e+00 1.217246437072753906e+01 5.154565811157226562e+00 1.116272091865539551e+00
2.993000000000000000e+03 6.506362152099609375e+01 3.371780776977539062e+01 1.860063195228576660e+00 1.231231594085693359e+01 4.251713752746582031e+00 1.673051595687866211e+00
2.994000000000000000e+03 6.498571777343750000e+01 3.076922416687011719e+01 4.979646682739257812e+00 1.149514961242675781e+01 4.942439079284667969e+00 -1.221733316779136658e-01
2.995000000000000000e+03 6.549103546142578125e+01 3.266806793212890625e+01 3.228479385375976562e+00 1.152931690216064453e+01 4.427338600158691406e+00 1.388541579246520996e+00
2.996000000000000000e+03 6.224000930786132812e+01 3.479326629638671875e+01 -8.737734556198120117e-01 1.399535846710205078e+01 3.936475515365600586e+00 -7.538060545921325684e-01
2.997000000000000000e+03 6.265964508056640625e+01 3.449133300781250000e+01 -4.284787178039550781e-01 1.476069641113281250e+01 4.299665451049804688e+00 1.293776631355285645e-01
2.998000000000000000e+03 6.130264663696289062e+01 3.444166564941406250e+01 -7.885181903839111328e-01 1.361733245849609375e+01 3.848644256591796875e+00 -2.397593975067138672e+00
2.999000000000000000e+03 5.783982467651367188e+01 2.667062759399414062e+01 1.048126101493835449e+00 3.913530349731445312e+00 1.488496899604797363e+00 3.401822566986083984e+00
3.000000000000000000e+03 5.488518142700195312e+01 2.487308311462402344e+01 6.713548898696899414e-01 2.000966072082519531e+00 8.016963005065917969e-01 1.794706106185913086e+00
3.001000000000000000e+03 5.660491561889648438e+01 2.600341224670410156e+01 8.638734817504882812e-01 2.723582029342651367e+00 1.076236605644226074e+00 2.565008401870727539e+00
3.002000000000000000e+03 3.352185440063476562e+01 2.755355072021484375e+01 -3.793401122093200684e-01 2.212731167674064636e-02 -1.071638390421867371e-01 -4.407530128955841064e-01
3.003000000000000000e+03 3.169710159301757812e+01 2.797162818908691406e+01 -3.145723640918731689e-01 -1.464809570461511612e-02 -9.876614063978195190e-02 -3.932348191738128662e-01
3.004000000000000000e+03 3.014700698852539062e+01 2.698335838317871094e+01 -2.256207615137100220e-01 -7.400662451982498169e-02 -8.988821506500244141e-02 -4.001452028751373291e-01
3.005000000000000000e+03 3.101144790649414062e+01 2.549194717407226562e+01 -2.009007930755615234e-01 -8.913892507553100586e-02 -8.701191842555999756e-02 -4.689289331436157227e-01
3.006000000000000000e+03 3.705879211425781250e+01 2.589336585998535156e+01 -4.008249938488006592e-01 8.899592608213424683e-02 -9.354872256517410278e-02 -5.284699201583862305e-01
3.007000000000000000e+03 4.084788894653320312e+01 2.607136154174804688e+01 -5.199171304702758789e-01 1.539366990327835083e-01 -1.097941324114799500e-01 -4.863801896572113037e-01
3.008000000000000000e+03 2.962457084655761719e+01 2.519423675537109375e+01 -1.571647226810455322e-01 -1.406417787075042725e-01 -8.934194594621658325e-02 -4.400955736637115479e-01
3.009000000000000000e+03 2.833060073852539062e+01 2.714210891723632812e+01 -1.624843478202819824e-01 -1.249563544988632202e-01 -8.623220771551132202e-02 -3.436936736106872559e-01
3.010000000000000000e+03 4.547992706298828125e+01 2.520362281799316406e+01 -3.618063330650329590e-01 2.757884562015533447e-01 -2.580535784363746643e-02 -2.901314198970794678e-01
3.011000000000000000e+03 4.299311447143554688e+01 2.489390373229980469e+01 -3.551155328750610352e-01 2.293893843889236450e-01 -3.771784901618957520e-02 -4.269743263721466064e-01
3.012000000000000000e+03 4.457537841796875000e+01 2.459526824951171875e+01 -2.753621637821197510e-01 2.906932234764099121e-01 4.599320702254772186e-03 -3.338583111763000488e-01
3.013000000000000000e+03 3.628073120117187500e+01 2.603912544250488281e+01 -3.899747729301452637e-01 7.096417993307113647e-02 -9.570317715406417847e-02 -5.230789780616760254e-01
3.014000000000000000e+03 3.289802932739257812e+01 2.775308227539062500e+01 -3.609267175197601318e-01 1.098208781331777573e-02 -1.049833893775939941e-01 -4.243284463882446289e-01
3.015000000000000000e+03 3.549481964111328125e+01 2.619103240966796875e+01 -3.751390874385833740e-01 5.317172408103942871e-02 -9.659020602703094482e-02 -5.143526196479797363e-01
3.016000000000000000e+03 4.224256515502929688e+01 2.506474685668945312e+01 -3.864698708057403564e-01 2.041553556919097900e-01 -5.469435453414916992e-02 -4.584448039531707764e-01
3.017000000000000000e+03 5.123812484741210938e+01 2.468654060363769531e+01 2.139277011156082153e-01 8.037045598030090332e-01 3.052896857261657715e-01 5.697825551033020020e-01
3.018000000000000000e+03 4.875817108154296875e+01 2.481123542785644531e+01 -8.147008717060089111e-02 4.750820994377136230e-01 1.180836036801338196e-01 7.967069745063781738e-02
3.019000000000000000e+03 5.204115676879882812e+01 2.538585281372070312e+01 1.782817244529724121e-01 7.725489139556884766e-01 2.852492034435272217e-01 6.752929687500000000e-01
3.020000000000000000e+03 5.281535339355468750e+01 2.471546554565429688e+01 4.242881834506988525e-01 1.165235877037048340e+00 4.768572449684143066e-01 1.012985587120056152e+00
3.021000000000000000e+03 4.958984756469726562e+01 2.474890899658203125e+01 1.067950762808322906e-02 5.601505637168884277e-01 1.712490320205688477e-01 2.193268984556198120e-01
3.022000000000000000e+03 4.020603179931640625e+01 2.692410469055175781e+01 -6.179300546646118164e-01 1.319689452648162842e-01 -1.457883417606353760e-01 -4.715750813484191895e-01
3.023000000000000000e+03 3.938344955444335938e+01 2.630088424682617188e+01 -5.123649239540100098e-01 1.282114982604980469e-01 -1.152460351586341858e-01 -5.019641518592834473e-01
3.024000000000000000e+03 5.204142379760742188e+01 2.469037055969238281e+01 3.217118680477142334e-01 9.684843420982360840e-01 3.870588839054107666e-01 7.818254232406616211e-01
3.025000000000000000e+03 6.959353637695312500e+01 1.993489646911621094e+01 -5.612123012542724609e-01 8.517201423645019531e+00 2.386796712875366211e+00 -9.217660427093505859e-01
3.026000000000000000e+03 4.629202270507812500e+01 2.508618164062500000e+01 -3.055913746356964111e-01 3.092340528964996338e-01 1.092800754122436047e-03 -2.211783081293106079e-01
3.027000000000000000e+03 4.710983276367187500e+01 2.498148155212402344e+01 -2.402802258729934692e-01 3.535950183868408203e-01 3.399443998932838440e-02 -1.379088163375854492e-01
3.028000000000000000e+03 5.971763229370117188e+01 3.591011810302734375e+01 -2.431434839963912964e-01 8.094313621520996094e+00 2.355351209640502930e+00 -2.824798822402954102e+00
3.029000000000000000e+03 5.041917419433593750e+01 2.470638656616210938e+01 1.117737740278244019e-01 6.701827645301818848e-01 2.345869690179824829e-01 3.824293613433837891e-01
3.030000000000000000e+03 5.354589462280273438e+01 2.475729560852050781e+01 5.218498706817626953e-01 1.399613857269287109e+00 5.764390826225280762e-01 1.258889317512512207e+00
3.031000000000000000e+03 6.938523864746093750e+01 1.785497093200683594e+01 -6.564348936080932617e-01 8.294916152954101562e+00 2.291544437408447266e+00 -7.012394666671752930e-01
3.032000000000000000e+03 6.941236877441406250e+01 1.634554100036621094e+01 -6.411960124969482422e-01 8.107265472412109375e+00 2.239820718765258789e+00 -5.785449147224426270e-01
3.033000000000000000e+03 7.011971282958984375e+01 1.222762298583984375e+01 -4.659733772277832031e-01 7.765578269958496094e+00 2.189881324768066406e+00 -3.898485004901885986e-01
3.034000000000000000e+03 6.079734802246093750e+01 3.587953186035156250e+01 -9.670508503913879395e-01 1.064810562133789062e+01 2.904316425323486328e+00 -2.341992378234863281e+00
3.035000000000000000e+03 6.816070556640625000e+01 -9.576101303100585938e+00 -1.705257408320903778e-02 6.861994266510009766e+00 2.053482532501220703e+00 5.356371402740478516e-02
3.036000000000000000e+03 6.757619476318359375e+01 -1.071811771392822266e+01 -1.679767854511737823e-02 6.743361473083496094e+00 2.017969131469726562e+00 4.874468967318534851e-02
3.037000000000000000e+03 3.048186683654785156e+01 2.393913078308105469e+01 -1.390167474746704102e-01 -1.396905630826950073e-01 -8.361219614744186401e-02 -4.959255754947662354e-01
3.038000000000000000e+03 9.558649063110351562e+00 9.040045738220214844e+00 -1.770650123944506049e-04 -4.415100556798279285e-05 -6.636480975430458784e-05 -4.993559559807181358e-05
3.039000000000000000e+03 8.828404426574707031e+00 8.950069427490234375e+00 1.009763363981619477e-04 8.655195415485650301e-05 5.625848643830977380e-05 4.781110328622162342e-05
3.040000000000000000e+03 6.875049591064453125e+01 -1.981106042861938477e+00 -8.909600973129272461e-02 7.055871963500976562e+00 2.090032815933227539e+00 2.026653289794921875e-02
3.041000000000000000e+03 7.018246459960937500e+01 7.481501579284667969e+00 -2.871007919311523438e-01 7.529295921325683594e+00 2.172658443450927734e+00 -1.809054613113403320e-01
3.042000000000000000e+03 7.132316589355468750e+01 8.713813781738281250e+00 -2.880313992500305176e-01 7.706398010253906250e+00 2.225509881973266602e+00 -2.639198601245880127e-01
3.043000000000000000e+03 3.782718658447265625e+01 2.574881362915039062e+01 -4.105676710605621338e-01 1.062820479273796082e-01 -9.128569066524505615e-02 -5.304045081138610840e-01
3.044000000000000000e+03 3.864966201782226562e+01 2.641717720031738281e+01 -5.023747086524963379e-01 1.158853247761726379e-01 -1.159468144178390503e-01 -5.055771470069885254e-01
3.045000000000000000e+03 3.198438453674316406e+01 1.706799697875976562e+01 6.424125283956527710e-02 -1.704467982053756714e-01 -3.186166658997535706e-02 -5.280239582061767578e-01
3.046000000000000000e+03 3.198638916015625000e+01 1.829090690612792969e+01 3.579378500580787659e-02 -1.622355282306671143e-01 -3.793252259492874146e-02 -5.412399172782897949e-01
3.047000000000000000e+03 2.953542327880859375e+01 2.657142829895019531e+01 -1.938713341951370239e-01 -1.015641316771507263e-01 -8.863063901662826538e-02 -4.012016057968139648e-01
3.048000000000000000e+03 7.286419677734375000e+01 2.901514434814453125e+01 8.479370474815368652e-01 7.407045841217041016e+00 2.476494789123535156e+00 -6.828365921974182129e-01
3.049000000000000000e+03 7.184445190429687500e+01 3.114809608459472656e+01 1.188693284988403320e+00 7.795221805572509766e+00 2.695174455642700195e+00 -1.586555242538452148e-01
3.050000000000000000e+03 3.206109619140625000e+01 1.577745532989501953e+01 9.016075730323791504e-02 -1.748305857181549072e-01 -2.540094777941703796e-02 -5.090667605400085449e-01
3.051000000000000000e+03 3.218404388427734375e+01 1.032030105590820312e+01 1.322447359561920166e-01 -1.537199020385742188e-01 -6.442546378821134567e-03 -4.018645882606506348e-01
3.052000000000000000e+03 3.214827346801757812e+01 1.171399974822998047e+01 1.287793070077896118e-01 -1.637536287307739258e-01 -1.049229595810174942e-02 -4.312764704227447510e-01
3.053000000000000000e+03 3.223308563232421875e+01 8.926377296447753906e+00 1.302040368318557739e-01 -1.402569562196731567e-01 -3.015877213329076767e-03 -3.714549541473388672e-01
3.054000000000000000e+03 7.126293945312500000e+01 1.238325786590576172e+01 -4.029725492000579834e-01 7.828485012054443359e+00 2.227653741836547852e+00 -4.551082849502563477e-01
3.055000000000000000e+03 3.092275810241699219e+01 1.964041137695312500e+01 -7.051212247461080551e-03 -2.104305773973464966e-01 -6.524453312158584595e-02 -5.364126563072204590e-01
3.056000000000000000e+03 3.058209609985351562e+01 2.184861183166503906e+01 -7.199770957231521606e-02 -1.835758686065673828e-01 -7.667206972837448120e-02 -5.216352939605712891e-01
3.057000000000000000e+03 6.793923950195312500e+01 1.910187721252441406e+01 -7.634823918342590332e-01 8.576367378234863281e+00 2.343865394592285156e+00 -5.900898575782775879e-01
3.058000000000000000e+03 6.853474426269531250e+01 5.368665695190429688e+00 -2.641738057136535645e-01 7.189100742340087891e+00 2.077478170394897461e+00 -5.942354351282119751e-02
3.059000000000000000e+03 7.111251831054687500e+01 5.278238773345947266e+00 -2.020554542541503906e-01 7.582865715026855469e+00 2.214243173599243164e+00 -1.353744417428970337e-01
3.060000000000000000e+03 6.922893524169921875e+01 1.479492664337158203e+01 -6.118605732917785645e-01 7.939368724822998047e+00 2.198252439498901367e+00 -4.545412063598632812e-01
3.061000000000000000e+03 6.280470848083496094e+00 -3.110736083984375000e+01 1.041687838733196259e-02 -1.202950137667357922e-03 2.764178439974784851e-03 3.799929749220609665e-03
3.062000000000000000e+03 6.807514953613281250e+01 1.207755357027053833e-01 -1.275739073753356934e-01 6.957418441772460938e+00 2.048953294754028320e+00 1.946580037474632263e-02
3.063000000000000000e+03 6.225437545776367188e+01 -2.025127220153808594e+01 7.786472793668508530e-03 5.648927688598632812e+00 1.697014212608337402e+00 4.667086526751518250e-02
3.064000000000000000e+03 6.451390075683593750e+01 -2.305046463012695312e+01 1.551312673836946487e-02 6.122982501983642578e+00 1.841548681259155273e+00 3.654073551297187805e-02
3.065000000000000000e+03 3.082630538940429688e+01 1.448575210571289062e+01 8.622648566961288452e-02 -2.893830239772796631e-01 -6.094695627689361572e-02 -4.804062247276306152e-01
3.066000000000000000e+03 3.033906173706054688e+01 -6.026687145233154297e+00 4.901525005698204041e-02 -3.875416517257690430e-01 -1.015579178929328918e-01 -1.405798494815826416e-01
3.067000000000000000e+03 3.100338935852050781e+01 7.540447235107421875e+00 1.009426340460777283e-01 -2.923931777477264404e-01 -5.743516236543655396e-02 -3.461846709251403809e-01
3.068000000000000000e+03 3.210588073730468750e+01 1.942342567443847656e+01 6.227636709809303284e-03 -1.458351463079452515e-01 -4.188225045800209045e-02 -5.523948073387145996e-01
3.069000000000000000e+03 6.860712432861328125e+01 1.848962020874023438e+01 -7.185081243515014648e-01 8.432579040527343750e+00 2.314221143722534180e+00 -6.434828042984008789e-01
3.070000000000000000e+03 3.001714134216308594e+01 -1.593211770057678223e+00 7.336638867855072021e-02 -4.473542571067810059e-01 -1.121963635087013245e-01 -1.888877600431442261e-01
3.071000000000000000e+03 3.092870903015136719e+01 2.596558630466461182e-01 6.343539059162139893e-02 -3.180759847164154053e-01 -7.639217376708984375e-02 -2.146771550178527832e-01
3.072000000000000000e+03 3.086572074890136719e+01 3.620978832244873047e+00 8.653602004051208496e-02 -3.130145370960235596e-01 -6.794355809688568115e-02 -2.632503211498260498e-01
3.073000000000000000e+03 3.061135482788085938e+01 2.437206268310546875e+00 7.643709331750869751e-02 -3.547264933586120605e-01 -8.348682522773742676e-02 -2.412673979997634888e-01
3.074000000000000000e+03 3.291933822631835938e+01 2.615631866455078125e+01 -2.870124578475952148e-01 -1.471261773258447647e-02 -9.051752090454101562e-02 -4.868683516979217529e-01
3.075000000000000000e+03 7.073134613037109375e+01 2.126887893676757812e+01 -3.416582643985748291e-01 8.443338394165039062e+00 2.430504083633422852e+00 -1.143908381462097168e+00
3.076000000000000000e+03 3.230422973632812500e+01 6.159155368804931641e+00 1.242800503969192505e-01 -1.131142228841781616e-01 3.349749138578772545e-03 -3.114823102951049805e-01
3.077000000000000000e+03 3.217676162719726562e+01 3.425238132476806641e+00 1.140706017613410950e-01 -1.160189807415008545e-01 -5.845155101269483566e-04 -2.595915496349334717e-01
3.078000000000000000e+03 7.051951599121093750e+01 2.963962554931640625e+01 1.540193080902099609e+00 8.300645828247070312e+00 2.952251672744750977e+00 -6.038779020309448242e-01
3.079000000000000000e+03 3.213407135009765625e+01 1.309719276428222656e+01 1.237076595425605774e-01 -1.693153828382492065e-01 -1.368231792002916336e-02 -4.597620069980621338e-01
3.080000000000000000e+03 3.212128448486328125e+01 1.445312404632568359e+01 1.069946214556694031e-01 -1.741359978914260864e-01 -2.014240995049476624e-02 -4.866164922714233398e-01
3.081000000000000000e+03 6.935830688476562500e+01 3.549866867065429688e+01 5.109104514122009277e-01 9.343582153320312500e+00 2.956347942352294922e+00 1.017446637153625488e+00
3.082000000000000000e+03 6.633367919921875000e+01 3.442472076416015625e+01 1.205873847007751465e+00 1.108501815795898438e+01 3.687267541885375977e+00 1.418740630149841309e+00
3.083000000000000000e+03 7.935059547424316406e+00 1.995692443847656250e+01 1.274377136724069715e-04 1.768371002981439233e-04 9.128243982559069991e-05 2.381066042289603502e-05
3.084000000000000000e+03 3.227893066406250000e+01 7.539290428161621094e+00 1.285670548677444458e-01 -1.245482936501502991e-01 1.205629552714526653e-03 -3.420163094997406006e-01
3.085000000000000000e+03 3.193858146667480469e+01 2.086221694946289062e+00 9.920639544725418091e-02 -1.485480368137359619e-01 -1.480249222368001938e-02 -2.330067902803421021e-01
3.086000000000000000e+03 6.972054290771484375e+01 -2.267550849914550781e+01 9.546634741127490997e-03 7.115880012512207031e+00 2.137627840042114258e+00 2.812766283750534058e-02
3.087000000000000000e+03 3.019502449035644531e+01 -2.488917160034179688e+01 1.858725398778915405e-02 -3.384716808795928955e-01 -9.596533328294754028e-02 -3.619739040732383728e-02
3.088000000000000000e+03 2.953699111938476562e+01 -2.334217643737792969e+01 3.073862940073013306e-02 -4.629980623722076416e-01 -1.296778321266174316e-01 -4.373221471905708313e-02
3.089000000000000000e+03 6.806121063232421875e+01 3.541156768798828125e+01 5.760937929153442383e-01 1.000883293151855469e+01 3.175478219985961914e+00 1.145165920257568359e+00
3.090000000000000000e+03 5.989039230346679688e+01 2.783192634582519531e+01 8.301486968994140625e-01 8.881796836853027344e+00 2.913583517074584961e+00 5.024660110473632812e+00
3.091000000000000000e+03 6.377421569824218750e+01 2.842876815795898438e+01 2.128714084625244141e+00 1.374485206604003906e+01 4.762069702148437500e+00 -1.407608866691589355e+00
3.092000000000000000e+03 6.030386352539062500e+01 2.743254470825195312e+01 2.210147529840469360e-01 1.026903343200683594e+01 3.147014617919921875e+00 4.414656639099121094e+00
3.093000000000000000e+03 6.100835037231445312e+01 2.753900337219238281e+01 -2.330330461263656616e-01 1.249852752685546875e+01 3.679648160934448242e+00 3.614029169082641602e+00
3.094000000000000000e+03 6.447814178466796875e+01 2.974241447448730469e+01 4.616578102111816406e+00 1.234856510162353516e+01 5.089542865753173828e+00 -1.274515748023986816e+00
3.095000000000000000e+03 6.423561859130859375e+01 2.926015472412109375e+01 3.853366136550903320e+00 1.286680030822753906e+01 5.016049861907958984e+00 -1.560486555099487305e+00
3.096000000000000000e+03 6.069490432739257812e+01 3.497463989257812500e+01 -6.518377065658569336e-01 1.119026660919189453e+01 3.161528825759887695e+00 -3.001796245574951172e+00
3.097000000000000000e+03 6.444907379150390625e+01 3.041929817199707031e+01 5.451284885406494141e+00 1.219434642791748047e+01 5.293689250946044922e+00 -6.549930572509765625e-01
3.098000000000000000e+03 6.309397125244140625e+01 2.800072860717773438e+01 9.148669838905334473e-01 1.442698097229003906e+01 4.602554321289062500e+00 -5.833263993263244629e-01
3.099000000000000000e+03 6.487611389160156250e+01 3.031035232543945312e+01 4.930085659027099609e+00 1.171193695068359375e+01 4.992606639862060547e+00 -6.935811638832092285e-01
3.100000000000000000e+03 5.935658645629882812e+01 3.526076889038085938e+01 2.855499684810638428e-01 7.113904476165771484e+00 2.219836235046386719e+00 -3.259310722351074219e+00
3.101000000000000000e+03 6.028251266479492188e+01 3.541444396972656250e+01 -4.859053492546081543e-01 9.746745109558105469e+00 2.778251886367797852e+00 -2.956470966339111328e+00
3.102000000000000000e+03 5.842970275878906250e+01 2.688005256652832031e+01 1.058341622352600098e+00 4.806367397308349609e+00 1.759412765502929688e+00 3.863145828247070312e+00
3.103000000000000000e+03 5.651531600952148438e+01 2.544995307922363281e+01 7.952293157577514648e-01 2.978872776031494141e+00 1.132230639457702637e+00 2.557801961898803711e+00
3.104000000000000000e+03 6.516584777832031250e+01 3.125154495239257812e+01 4.666502952575683594e+00 1.135772514343261719e+01 4.807268619537353516e+00 3.855073451995849609e-01
3.105000000000000000e+03 5.597397232055664062e+01 2.495946502685546875e+01 7.461500167846679688e-01 2.733093976974487305e+00 1.043773174285888672e+00 2.271367311477661133e+00
3.106000000000000000e+03 5.772011947631835938e+01 2.620521926879882812e+01 9.188822507858276367e-01 4.075195312500000000e+00 1.498223304748535156e+00 3.266506671905517578e+00
3.107000000000000000e+03 6.586666870117187500e+01 3.204146194458007812e+01 3.643218040466308594e+00 1.085873889923095703e+01 4.350587368011474609e+00 8.626701235771179199e-01
3.108000000000000000e+03 6.612457275390625000e+01 3.315476608276367188e+01 2.435018301010131836e+00 1.101041698455810547e+01 4.033630847930908203e+00 1.342215061187744141e+00
3.109000000000000000e+03 6.240482330322265625e+01 3.545128631591796875e+01 -1.151450991630554199e+00 1.320792293548583984e+01 3.616941690444946289e+00 -7.046310901641845703e-01
3.110000000000000000e+03 6.224521255493164062e+01 3.753561782836914062e+01 -1.521157979965209961e+00 1.124988555908203125e+01 2.918618440628051758e+00 -8.644746541976928711e-01
3.111000000000000000e+03 3.117136192321777344e+01 2.736946296691894531e+01 -2.767261564731597900e-01 -3.708839416503906250e-02 -9.414436668157577515e-02 -4.078965187072753906e-01
3.112000000000000000e+03 3.064039039611816406e+01 2.644168281555175781e+01 -2.247898131608963013e-01 -7.424513995647430420e-02 -8.971048891544342041e-02 -4.329243898391723633e-01
3.113000000000000000e+03 5.492526245117187500e+01 2.423430633544921875e+01 6.596381068229675293e-01 2.317114114761352539e+00 8.930256962776184082e-01 1.851332545280456543e+00
3.114000000000000000e+03 5.644171142578125000e+01 2.492859458923339844e+01 7.169871926307678223e-01 3.220777750015258789e+00 1.181329488754272461e+00 2.501739263534545898e+00
3.115000000000000000e+03 6.025965499877929688e+01 3.654981613159179688e+01 -7.602447867393493652e-01 9.174504280090332031e+00 2.524277925491333008e+00 -2.218930959701538086e+00
3.116000000000000000e+03 3.018386459350585938e+01 2.590402603149414062e+01 -1.941070705652236938e-01 -1.011622995138168335e-01 -8.858080953359603882e-02 -4.339283406734466553e-01
3.117000000000000000e+03 5.423789596557617188e+01 2.481191825866699219e+01 6.061027050018310547e-01 1.680619955062866211e+00 6.860167980194091797e-01 1.519443273544311523e+00
3.118000000000000000e+03 5.426480865478515625e+01 2.414426422119140625e+01 6.252146959304809570e-01 1.958674669265747070e+00 7.751668095588684082e-01 1.591917753219604492e+00
3.119000000000000000e+03 3.697593307495117188e+01 2.509288024902343750e+01 -3.306184709072113037e-01 8.738522231578826904e-02 -7.296997308731079102e-02 -5.478150844573974609e-01
3.120000000000000000e+03 4.141314315795898438e+01 2.450628280639648438e+01 -3.071995675563812256e-01 1.988606154918670654e-01 -3.250168636441230774e-02 -4.879250526428222656e-01
3.121000000000000000e+03 3.471414566040039062e+01 2.636246681213378906e+01 -3.604857623577117920e-01 3.472420200705528259e-02 -9.772846847772598267e-02 -5.017848610877990723e-01
3.122000000000000000e+03 3.618156814575195312e+01 2.524886703491210938e+01 -3.249568045139312744e-01 6.705112755298614502e-02 -7.737170159816741943e-02 -5.443789362907409668e-01
3.123000000000000000e+03 4.150204086303710938e+01 2.522087478637695312e+01 -4.071658551692962646e-01 1.860654056072235107e-01 -6.633014231920242310e-02 -4.813919067382812500e-01
3.124000000000000000e+03 4.190854263305664062e+01 2.356973075866699219e+01 -1.850501745939254761e-01 2.607484757900238037e-01 2.270949259400367737e-02 -4.534117579460144043e-01
3.125000000000000000e+03 3.396405029296875000e+01 2.657661628723144531e+01 -3.473237752914428711e-01 1.962763816118240356e-02 -9.830884635448455811e-02 -4.853102862834930420e-01
3.126000000000000000e+03 3.536531066894531250e+01 2.539372825622558594e+01 -3.161441087722778320e-01 4.412916302680969238e-02 -8.160448074340820312e-02 -5.370536446571350098e-01
3.127000000000000000e+03 4.365386962890625000e+01 2.395737457275390625e+01 -1.995249539613723755e-01 2.987247109413146973e-01 2.975992485880851746e-02 -3.734728991985321045e-01
3.128000000000000000e+03 4.377051162719726562e+01 2.473520088195800781e+01 -3.194565773010253906e-01 2.547491788864135742e-01 -1.941221207380294800e-02 -3.871613740921020508e-01
3.129000000000000000e+03 4.211758804321289062e+01 2.432548713684082031e+01 -2.814629673957824707e-01 2.358109354972839355e-01 -1.369561161845922470e-02 -4.587900638580322266e-01
3.130000000000000000e+03 4.784225082397460938e+01 2.343176651000976562e+01 9.942011535167694092e-02 5.941491127014160156e-01 2.080707699060440063e-01 5.999119579792022705e-02
3.131000000000000000e+03 4.793144607543945312e+01 2.488967132568359375e+01 -1.662169545888900757e-01 4.061874747276306152e-01 7.199115306138992310e-02 -3.869593515992164612e-02
3.132000000000000000e+03 4.788212203979492188e+01 2.416762542724609375e+01 -2.134006470441818237e-02 4.967581033706665039e-01 1.426254212856292725e-01 9.690402075648307800e-03
3.133000000000000000e+03 5.204765701293945312e+01 2.397207832336425781e+01 4.193612337112426758e-01 1.176932930946350098e+00 4.788882434368133545e-01 8.736354708671569824e-01
3.134000000000000000e+03 4.871755981445312500e+01 2.408986473083496094e+01 6.006372720003128052e-02 5.806958079338073730e-01 1.922278553247451782e-01 1.372236758470535278e-01
3.135000000000000000e+03 4.539543914794921875e+01 2.447155570983886719e+01 -2.225798219442367554e-01 3.275151252746582031e-01 3.148059174418449402e-02 -2.688524127006530762e-01
3.136000000000000000e+03 4.622279739379882812e+01 2.435894393920898438e+01 -1.633998900651931763e-01 3.739068806171417236e-01 6.315208971500396729e-02 -1.913696825504302979e-01
3.137000000000000000e+03 4.705205917358398438e+01 2.425749015808105469e+01 -9.658169746398925781e-02 4.282704889774322510e-01 9.950663894414901733e-02 -9.887029230594635010e-02
3.138000000000000000e+03 5.123248672485351562e+01 2.396543121337890625e+01 3.338428139686584473e-01 9.839413762092590332e-01 3.953352570533752441e-01 6.547083854675292969e-01
3.139000000000000000e+03 4.955945205688476562e+01 2.402743911743164062e+01 1.494565904140472412e-01 6.882109045982360840e-01 2.513002455234527588e-01 2.873400449752807617e-01
3.140000000000000000e+03 5.040020370483398438e+01 2.398456954956054688e+01 2.405789345502853394e-01 8.189384341239929199e-01 3.178552091121673584e-01 4.591932594776153564e-01
3.141000000000000000e+03 5.282799530029296875e+01 2.400452041625976562e+01 5.014193654060363770e-01 1.401947617530822754e+00 5.710101127624511719e-01 1.106775879859924316e+00
3.142000000000000000e+03 7.211828613281250000e+01 2.875821113586425781e+01 9.857062697410583496e-01 7.712445259094238281e+00 2.609445333480834961e+00 -7.709307670593261719e-01
3.143000000000000000e+03 7.005657958984375000e+01 2.516137504577636719e+01 3.894123733043670654e-01 8.724178314208984375e+00 2.734077215194702148e+00 -1.353258609771728516e+00
3.144000000000000000e+03 3.858327102661132812e+01 2.561834526062011719e+01 -4.162127077579498291e-01 1.212321296334266663e-01 -8.849417418241500854e-02 -5.270156860351562500e-01
3.145000000000000000e+03 3.115278816223144531e+01 2.066999626159667969e+01 -3.778116032481193542e-02 -1.842681467533111572e-01 -6.661479175090789795e-02 -5.406827926635742188e-01
3.146000000000000000e+03 4.076305389404296875e+01 2.534429550170898438e+01 -4.190454185009002686e-01 1.663455069065093994e-01 -7.580997794866561890e-02 -5.002422332763671875e-01
3.147000000000000000e+03 4.003731918334960938e+01 2.543618965148925781e+01 -4.224180281162261963e-01 1.509781777858734131e-01 -8.143195509910583496e-02 -5.119521021842956543e-01
3.148000000000000000e+03 7.067713165283203125e+01 2.521134757995605469e+01 3.908043503761291504e-01 8.458447456359863281e+00 2.654775619506835938e+00 -1.334632158279418945e+00
3.149000000000000000e+03 6.989787292480468750e+01 2.061538696289062500e+01 -4.895858764648437500e-01 8.536177635192871094e+00 2.413977384567260742e+00 -1.002869248390197754e+00
3.150000000000000000e+03 6.846970367431640625e+01 1.972302818298339844e+01 -6.917028427124023438e-01 8.642657279968261719e+00 2.385286331176757812e+00 -7.308603525161743164e-01
3.151000000000000000e+03 7.035844421386718750e+01 2.461502456665039062e+01 2.391190677881240845e-01 8.600175857543945312e+00 2.651788711547851562e+00 -1.344381093978881836e+00
3.152000000000000000e+03 6.976378631591796875e+01 2.417820549011230469e+01 1.069366186857223511e-01 8.813765525817871094e+00 2.676210641860961914e+00 -1.319545865058898926e+00
3.153000000000000000e+03 3.066177558898925781e+01 2.478143501281738281e+01 -1.671456545591354370e-01 -1.185278967022895813e-01 -8.570206165313720703e-02 -4.796251654624938965e-01
3.154000000000000000e+03 3.231386947631835938e+01 2.565752220153808594e+01 -2.458036839962005615e-01 -4.189582541584968567e-02 -8.630985021591186523e-02 -4.921203255653381348e-01
3.155000000000000000e+03 6.861051177978515625e+01 1.707971763610839844e+01 -7.161324024200439453e-01 8.221035003662109375e+00 2.251470565795898438e+00 -5.336443781852722168e-01
3.156000000000000000e+03 7.072507476806640625e+01 2.606146049499511719e+01 6.341763138771057129e-01 8.415623664855957031e+00 2.714940071105957031e+00 -1.297212839126586914e+00
3.157000000000000000e+03 7.110897064208984375e+01 2.756595993041992188e+01 9.723845124244689941e-01 8.176583290100097656e+00 2.744690179824829102e+00 -1.082743644714355469e+00
3.158000000000000000e+03 3.452082443237304688e+01 1.609921455383300781e+01 1.256755441427230835e-01 2.583736740052700043e-02 4.545387253165245056e-02 -5.051703453063964844e-01
3.159000000000000000e+03 3.308312225341796875e+01 1.818336296081542969e+01 4.980367422103881836e-02 -9.376348555088043213e-02 -1.318794395774602890e-02 -5.465675592422485352e-01
3.160000000000000000e+03 6.895745086669921875e+01 1.096492290496826172e+01 -4.763158857822418213e-01 7.564384937286376953e+00 2.126420736312866211e+00 -2.320965528488159180e-01
3.161000000000000000e+03 7.014425659179687500e+01 8.633039474487304688e+00 -3.349174857139587402e-01 7.561755657196044922e+00 2.168051481246948242e+00 -2.193159013986587524e-01
3.162000000000000000e+03 3.118937683105468750e+01 2.226130294799804688e+01 -8.716338127851486206e-02 -1.474814862012863159e-01 -7.039345800876617432e-02 -5.337610244750976562e-01
3.163000000000000000e+03 3.072364044189453125e+01 2.304409027099609375e+01 -1.113335639238357544e-01 -1.505778133869171143e-01 -7.857341319322586060e-02 -5.137894153594970703e-01
3.164000000000000000e+03 3.349776840209960938e+01 8.932742118835449219e+00 1.589218974113464355e-01 1.581070385873317719e-02 5.241977795958518982e-02 -3.608975708484649658e-01
3.165000000000000000e+03 6.894020843505859375e+01 1.219834518432617188e+01 -5.354376435279846191e-01 7.673155784606933594e+00 2.141315460205078125e+00 -2.855783104896545410e-01
3.166000000000000000e+03 3.318628692626953125e+01 1.922466468811035156e+01 2.088706567883491516e-02 -8.367326855659484863e-02 -1.883586123585700989e-02 -5.575308203697204590e-01
3.167000000000000000e+03 3.342313766479492188e+01 1.304487419128417969e+01 1.498693078756332397e-01 -3.899485245347023010e-02 3.326233848929405212e-02 -4.525334537029266357e-01
3.168000000000000000e+03 6.930506134033203125e+01 6.199584007263183594e+00 -2.754560410976409912e-01 7.333695411682128906e+00 2.117471933364868164e+00 -1.071652099490165710e-01
3.169000000000000000e+03 6.961670684814453125e+01 4.683004379272460938e+00 -2.132421284914016724e-01 7.343952655792236328e+00 2.139213085174560547e+00 -9.106270968914031982e-02
3.170000000000000000e+03 6.848055267333984375e+01 2.693485736846923828e+00 -1.877511292695999146e-01 7.089227676391601562e+00 2.070442914962768555e+00 -1.462398190051317215e-02
3.171000000000000000e+03 6.893435668945312500e+01 1.028813362121582031e+00 -1.437311768531799316e-01 7.130163192749023438e+00 2.095929622650146484e+00 -7.101151160895824432e-03
3.172000000000000000e+03 6.902323913574218750e+01 2.894697761535644531e+01 1.871671557426452637e+00 8.936666488647460938e+00 3.242501497268676758e+00 -9.068199396133422852e-01
3.173000000000000000e+03 3.343677139282226562e+01 1.031031036376953125e+01 1.576258689165115356e-01 -8.321965113282203674e-03 4.479117318987846375e-02 -3.912183344364166260e-01
3.174000000000000000e+03 6.866365051269531250e+01 -1.134383010864257812e+01 -2.380328066647052765e-02 6.925470352172851562e+00 2.070500135421752930e+00 4.445933178067207336e-02
3.175000000000000000e+03 6.853588867187500000e+01 -8.336604118347167969e+00 -3.314356878399848938e-02 6.942544937133789062e+00 2.072820425033569336e+00 5.415512621402740479e-02
3.176000000000000000e+03 6.549665927886962891e+00 2.125307083129882812e+01 -2.031468029599636793e-04 -5.049987066740868613e-06 -6.245903932722285390e-05 1.376362924929708242e-04
3.177000000000000000e+03 3.176334571838378906e+01 -4.943458557128906250e+00 7.743418961763381958e-02 -1.311232149600982666e-01 -1.610670797526836395e-02 -1.558127701282501221e-01
3.178000000000000000e+03 3.143756103515625000e+01 -8.377753257751464844e+00 6.182642653584480286e-02 -1.773765385150909424e-01 -3.466503322124481201e-02 -1.133665293455123901e-01
3.179000000000000000e+03 3.022686004638671875e+01 -7.172851562500000000e+00 4.331646859645843506e-02 -3.991377651691436768e-01 -1.067463904619216919e-01 -1.373123675584793091e-01
3.180000000000000000e+03 6.958015441894531250e+01 3.160365104675292969e+01 1.857076406478881836e+00 8.670575141906738281e+00 3.158295392990112305e+00 1.147524863481521606e-01
3.181000000000000000e+03 6.658076477050781250e+01 3.244713973999023438e+01 2.951057434082031250e+00 1.042303466796875000e+01 4.012228012084960938e+00 9.278683662414550781e-01
3.182000000000000000e+03 6.927492523193359375e+01 3.415591430664062500e+01 1.123880863189697266e+00 9.193467140197753906e+00 3.095204591751098633e+00 9.015502333641052246e-01
3.183000000000000000e+03 3.037559509277343750e+01 1.437374472618103027e+00 7.430600374937057495e-02 -3.846478462219238281e-01 -9.310255944728851318e-02 -2.262753397226333618e-01
3.184000000000000000e+03 3.176388168334960938e+01 -1.009635806083679199e+00 9.083511680364608765e-02 -1.559119373559951782e-01 -1.952304691076278687e-02 -1.819112896919250488e-01
3.185000000000000000e+03 3.078302955627441406e+01 -2.882410764694213867e+00 6.584284454584121704e-02 -3.194119930267333984e-01 -7.607074081897735596e-02 -1.769722551107406616e-01
3.186000000000000000e+03 3.010189056396484375e+01 -1.070418643951416016e+01 3.200899064540863037e-02 -4.151140451431274414e-01 -1.149315237998962402e-01 -1.073812693357467651e-01
3.187000000000000000e+03 3.023473167419433594e+01 -1.192849731445312500e+01 3.524360060691833496e-02 -3.765663206577301025e-01 -1.023968160152435303e-01 -9.753960371017456055e-02
3.188000000000000000e+03 3.349322891235351562e+01 1.442331123352050781e+01 1.366302818059921265e-01 -4.409069567918777466e-02 2.776187472045421600e-02 -4.820209443569183350e-01
3.189000000000000000e+03 6.943433380126953125e+01 2.299301719665527344e+01 -2.057558298110961914e-01 8.862267494201660156e+00 2.596953392028808594e+00 -1.216578245162963867e+00
3.190000000000000000e+03 6.885379028320312500e+01 2.043185234069824219e+01 -6.053042411804199219e-01 8.717864990234375000e+00 2.433768272399902344e+00 -8.754739761352539062e-01
3.191000000000000000e+03 6.436910152435302734e+00 -3.260567855834960938e+01 2.245843177661299706e-03 -4.614328034222126007e-03 -7.105455151759088039e-04 2.911730436608195305e-03
3.192000000000000000e+03 7.010954284667968750e+01 1.327107810974121094e+01 -5.067815780639648438e-01 7.824763774871826172e+00 2.195394515991210938e+00 -4.376679360866546631e-01
3.193000000000000000e+03 6.738760375976562500e+01 1.313641166687011719e+01 -6.368727087974548340e-01 7.626006126403808594e+00 2.096740007400512695e+00 -1.641635149717330933e-01
3.194000000000000000e+03 3.200829315185546875e+01 -1.276863765716552734e+01 4.063446447253227234e-02 -8.370488137006759644e-02 -1.292112469673156738e-02 -9.264992177486419678e-02
3.195000000000000000e+03 3.230899047851562500e+01 -1.413699245452880859e+01 4.184748604893684387e-02 -1.252087578177452087e-02 8.797982707619667053e-03 -8.361146599054336548e-02
3.196000000000000000e+03 6.746511077880859375e+01 -1.538263988494873047e+01 1.995045924559235573e-03 6.707768440246582031e+00 2.012928962707519531e+00 4.803214594721794128e-02
3.197000000000000000e+03 6.725295257568359375e+01 -1.995971488952636719e+01 4.841265268623828888e-03 6.661043167114257812e+00 1.999765396118164062e+00 4.887551814317703247e-02
3.198000000000000000e+03 3.362486648559570312e+01 4.716150760650634766e+00 1.442379653453826904e-01 8.320662379264831543e-02 6.823337823152542114e-02 -2.700543701648712158e-01
3.199000000000000000e+03 3.244168472290039062e+01 -1.804349136352539062e+01 4.144989699125289917e-02 3.106318973004817963e-02 2.175392583012580872e-02 -6.117905303835868835e-02
3.200000000000000000e+03 6.820011138916015625e+01 -1.332712769508361816e+00 -1.109373494982719421e-01 6.942155838012695312e+00 2.049365520477294922e+00 2.303685806691646576e-02
3.201000000000000000e+03 6.660610198974609375e+01 -2.727577018737792969e+01 1.065314747393131256e-02 6.552664279937744141e+00 1.968995213508605957e+00 3.596677631139755249e-02
3.202000000000000000e+03 6.852396392822265625e+01 3.912631988525390625e+01 -1.027079701423645020e+00 1.013594150543212891e+01 2.732658386230468750e+00 6.503760218620300293e-01
3.203000000000000000e+03 6.396412658691406250e+01 3.919783401489257812e+01 -1.700059533119201660e+00 1.110498523712158203e+01 2.821477651596069336e+00 -1.387651860713958740e-01
3.204000000000000000e+03 6.228516387939453125e+01 2.752992630004882812e+01 -1.767680644989013672e-01 1.420557212829589844e+01 4.208641052246093750e+00 1.003162026405334473e+00
3.205000000000000000e+03 6.458695983886718750e+01 2.930607986450195312e+01 3.806218385696411133e+00 1.237540912628173828e+01 4.854488372802734375e+00 -1.469387292861938477e+00
3.206000000000000000e+03 6.488568878173828125e+01 2.983918762207031250e+01 4.456430435180664062e+00 1.184297466278076172e+01 4.889821529388427734e+00 -1.082143306732177734e+00
3.207000000000000000e+03 6.354436492919921875e+01 2.776480674743652344e+01 9.485404491424560547e-01 1.361778640747070312e+01 4.369897842407226562e+00 -8.568662405014038086e-01
3.208000000000000000e+03 6.414264678955078125e+01 2.896790504455566406e+01 3.280391216278076172e+00 1.313072872161865234e+01 4.923336029052734375e+00 -1.637321233749389648e+00
3.209000000000000000e+03 5.712300109863281250e+01 2.585020446777343750e+01 8.613971471786499023e-01 3.421288967132568359e+00 1.284805774688720703e+00 2.893431186676025391e+00
3.210000000000000000e+03 5.886048507690429688e+01 2.661075782775878906e+01 7.663162946701049805e-01 6.004539012908935547e+00 2.031256675720214844e+00 3.974662780761718750e+00
3.211000000000000000e+03 6.363198089599609375e+01 2.813445854187011719e+01 1.511681675910949707e+00 1.379097461700439453e+01 4.590796947479248047e+00 -1.147878766059875488e+00
3.212000000000000000e+03 6.531295776367187500e+01 2.986545944213867188e+01 4.163558483123779297e+00 1.130462741851806641e+01 4.640455722808837891e+00 -9.527766108512878418e-01
3.213000000000000000e+03 5.950608444213867188e+01 2.731967926025390625e+01 8.469400405883789062e-01 7.548582077026367188e+00 2.518656730651855469e+00 4.675493240356445312e+00
3.214000000000000000e+03 6.065006256103515625e+01 2.715488243103027344e+01 -1.327269971370697021e-01 1.102539920806884766e+01 3.267801761627197266e+00 3.894403457641601562e+00
3.215000000000000000e+03 6.292473602294921875e+01 2.761428833007812500e+01 3.114456534385681152e-01 1.413193988800048828e+01 4.333015441894531250e+00 -6.332206726074218750e-02
3.216000000000000000e+03 5.900966262817382812e+01 2.707376861572265625e+01 9.625032544136047363e-01 6.207413196563720703e+00 2.150974988937377930e+00 4.283097267150878906e+00
3.217000000000000000e+03 6.866311645507812500e+01 3.198146057128906250e+01 2.172901630401611328e+00 9.137166023254394531e+00 3.393020391464233398e+00 3.714097142219543457e-01
3.218000000000000000e+03 6.112914276123046875e+01 3.529928588867187500e+01 -9.748609662055969238e-01 1.188645935058593750e+01 3.273479700088500977e+00 -2.284503698348999023e+00
3.219000000000000000e+03 6.170481491088867188e+01 3.547439956665039062e+01 -1.188843846321105957e+00 1.257865142822265625e+01 3.416942358016967773e+00 -1.517945528030395508e+00
3.220000000000000000e+03 6.569113922119140625e+01 3.100986099243164062e+01 4.268836021423339844e+00 1.084645462036132812e+01 4.534586906433105469e+00 1.140673086047172546e-01
3.221000000000000000e+03 5.551109313964843750e+01 2.433219146728515625e+01 6.855785250663757324e-01 2.640006780624389648e+00 9.976755976676940918e-01 2.101737260818481445e+00
3.222000000000000000e+03 5.763908004760742188e+01 2.568766212463378906e+01 7.564772963523864746e-01 4.198327541351318359e+00 1.486441373825073242e+00 3.137446880340576172e+00
3.223000000000000000e+03 3.437426757812500000e+01 2.470235824584960938e+01 -2.498695552349090576e-01 9.331973269581794739e-03 -7.216127216815948486e-02 -5.452681779861450195e-01
3.224000000000000000e+03 3.102838325500488281e+01 2.688094329833984375e+01 -2.560499012470245361e-01 -5.015876889228820801e-02 -9.186260402202606201e-02 -4.245781302452087402e-01
3.225000000000000000e+03 5.859116744995117188e+01 2.621705245971679688e+01 7.149696350097656250e-01 5.602231502532958984e+00 1.895160317420959473e+00 3.762738943099975586e+00
3.226000000000000000e+03 4.532842636108398438e+01 2.372525215148925781e+01 -9.875586628913879395e-02 3.875393867492675781e-01 8.663505315780639648e-02 -2.417133003473281860e-01
3.227000000000000000e+03 5.500616455078125000e+01 2.360747337341308594e+01 6.305192112922668457e-01 2.597748994827270508e+00 9.684804677963256836e-01 1.885842680931091309e+00
3.228000000000000000e+03 5.638837814331054688e+01 2.444394874572753906e+01 6.660684943199157715e-01 3.391899108886718750e+00 1.217390298843383789e+00 2.438153028488159180e+00
3.229000000000000000e+03 6.620355224609375000e+01 3.142099380493164062e+01 3.747982025146484375e+00 1.052700138092041016e+01 4.282495021820068359e+00 3.900251388549804688e-01
3.230000000000000000e+03 6.521503448486328125e+01 3.178982353210449219e+01 4.349384307861328125e+00 1.150162315368652344e+01 4.755301952362060547e+00 9.049736261367797852e-01
3.231000000000000000e+03 3.609575653076171875e+01 2.447417831420898438e+01 -2.664937973022460938e-01 6.196552142500877380e-02 -6.135848164558410645e-02 -5.586982965469360352e-01
3.232000000000000000e+03 3.853606796264648438e+01 2.477870368957519531e+01 -3.283178210258483887e-01 1.303384602069854736e-01 -5.939381569623947144e-02 -5.437623262405395508e-01
3.233000000000000000e+03 6.151347351074218750e+01 3.623179626464843750e+01 -1.267772197723388672e+00 1.150152683258056641e+01 3.070126533508300781e+00 -1.590736627578735352e+00
3.234000000000000000e+03 5.943057250976562500e+01 3.723972320556640625e+01 -3.869167566299438477e-01 7.359114170074462891e+00 2.091659069061279297e+00 -2.057470083236694336e+00
3.235000000000000000e+03 3.527094650268554688e+01 2.460126686096191406e+01 -2.604635357856750488e-01 3.864780440926551819e-02 -6.654471904039382935e-02 -5.541449785232543945e-01
3.236000000000000000e+03 3.269961929321289062e+01 2.712765312194824219e+01 -3.234659433364868164e-01 -4.597819875925779343e-03 -9.841912984848022461e-02 -4.468411207199096680e-01
3.237000000000000000e+03 3.366454696655273438e+01 2.577555656433105469e+01 -2.923606634140014648e-01 4.203112621325999498e-05 -8.769559115171432495e-02 -5.090020895004272461e-01
3.238000000000000000e+03 4.264586257934570312e+01 2.327128410339355469e+01 -1.296318620443344116e-01 2.974894940853118896e-01 5.035728961229324341e-02 -4.116334319114685059e-01
3.239000000000000000e+03 4.285355758666992188e+01 2.412002754211425781e+01 -2.445090562105178833e-01 2.583797872066497803e-01 4.161217715591192245e-03 -4.214034974575042725e-01
3.240000000000000000e+03 6.901490783691406250e+01 2.381476974487304688e+01 -4.160527512431144714e-02 9.085621833801269531e+00 2.713205099105834961e+00 -1.267079472541809082e+00
3.241000000000000000e+03 4.354933929443359375e+01 2.314289474487304688e+01 -8.307820558547973633e-02 3.481383621692657471e-01 7.951804250478744507e-02 -3.527205884456634521e-01
3.242000000000000000e+03 4.448748016357421875e+01 2.383345603942871094e+01 -1.504525989294052124e-01 3.401008844375610352e-01 5.689448490738868713e-02 -3.127985000610351562e-01
3.243000000000000000e+03 4.951031875610351562e+01 2.252718544006347656e+01 3.421458005905151367e-01 9.653576612472534180e-01 3.922510445117950439e-01 4.093570411205291748e-01
3.244000000000000000e+03 4.070278930664062500e+01 2.461416053771972656e+01 -3.232483565807342529e-01 1.815104633569717407e-01 -4.252136498689651489e-02 -5.001333951950073242e-01
3.245000000000000000e+03 6.519342803955078125e+01 3.440623092651367188e+01 8.948459029197692871e-01 1.218438053131103516e+01 3.923768043518066406e+00 1.487543225288391113e+00
3.246000000000000000e+03 6.528750610351562500e+01 3.695702362060546875e+01 -9.288451671600341797e-01 1.171398448944091797e+01 3.235541582107543945e+00 6.965383291244506836e-01
3.247000000000000000e+03 4.868283843994140625e+01 2.335298347473144531e+01 1.777994632720947266e-01 6.963951587677001953e-01 2.622583806514739990e-01 1.949616372585296631e-01
3.248000000000000000e+03 5.356364822387695312e+01 2.406362152099609375e+01 5.709307789802551270e-01 1.655882239341735840e+00 6.680439114570617676e-01 1.345647573471069336e+00
3.249000000000000000e+03 5.432538986206054688e+01 2.348024940490722656e+01 6.117415428161621094e-01 2.239420652389526367e+00 8.553486466407775879e-01 1.650577783584594727e+00
3.250000000000000000e+03 5.206063079833984375e+01 2.322329330444335938e+01 4.878753721714019775e-01 1.400466680526733398e+00 5.665026307106018066e-01 9.485423564910888672e-01
3.251000000000000000e+03 4.616957092285156250e+01 2.362035179138183594e+01 -3.910353407263755798e-02 4.443615674972534180e-01 1.215774118900299072e-01 -1.555400341749191284e-01
3.252000000000000000e+03 4.700693511962890625e+01 2.352162551879882812e+01 2.801830880343914032e-02 5.121567845344543457e-01 1.620525270700454712e-01 -5.557657778263092041e-02
3.253000000000000000e+03 4.953273391723632812e+01 2.328831100463867188e+01 2.575545608997344971e-01 8.223536014556884766e-01 3.239724338054656982e-01 3.504116535186767578e-01
3.254000000000000000e+03 5.038473129272460938e+01 2.324236488342285156e+01 3.395262062549591064e-01 9.798346757888793945e-01 3.958082795143127441e-01 5.298418998718261719e-01
3.255000000000000000e+03 5.285747146606445312e+01 2.325995254516601562e+01 5.429270863533020020e-01 1.647009015083312988e+00 6.569808125495910645e-01 1.181581139564514160e+00
3.256000000000000000e+03 5.361022949218750000e+01 2.335096168518066406e+01 5.818291902542114258e-01 1.918446063995361328e+00 7.500826120376586914e-01 1.407853603363037109e+00
3.257000000000000000e+03 6.943010711669921875e+01 2.487981414794921875e+01 2.981318235397338867e-01 8.975794792175292969e+00 2.782177925109863281e+00 -1.344213128089904785e+00
3.258000000000000000e+03 6.996589660644531250e+01 2.773563575744628906e+01 1.251080513000488281e+00 8.617776870727539062e+00 2.960657119750976562e+00 -1.125855803489685059e+00
3.259000000000000000e+03 7.052079010009765625e+01 2.830232810974121094e+01 1.302389383316040039e+00 8.380060195922851562e+00 2.904734849929809570e+00 -9.713131785392761230e-01
3.260000000000000000e+03 6.900141906738281250e+01 -2.826231241226196289e+00 -7.610951364040374756e-02 7.077483654022216797e+00 2.100412130355834961e+00 2.547883242368698120e-02
3.261000000000000000e+03 7.026120758056640625e+01 6.464104652404785156e+00 -2.627565860748291016e-01 7.500555992126464844e+00 2.171339750289916992e+00 -1.495876759290695190e-01
3.262000000000000000e+03 6.734933471679687500e+01 3.320148944854736328e+00 -2.109206616878509521e-01 6.914063453674316406e+00 2.010942697525024414e+00 1.272811461240053177e-02
3.263000000000000000e+03 3.931886291503906250e+01 2.551663589477539062e+01 -4.202283322811126709e-01 1.360837817192077637e-01 -8.524335920810699463e-02 -5.220302343368530273e-01
3.264000000000000000e+03 4.000518417358398438e+01 2.465014076232910156e+01 -3.311661183834075928e-01 1.682510077953338623e-01 -4.887453094124794006e-02 -5.208011269569396973e-01
3.265000000000000000e+03 6.896625518798828125e+01 9.743775367736816406e+00 -4.193908572196960449e-01 7.478658199310302734e+00 2.117780208587646484e+00 -1.921258568763732910e-01
3.266000000000000000e+03 6.897618865966796875e+01 7.271192073822021484e+00 -3.186141252517700195e-01 7.333303451538085938e+00 2.104406833648681641e+00 -1.199843883514404297e-01
3.267000000000000000e+03 3.231704711914062500e+01 2.048629760742187500e+01 -3.051591105759143829e-02 -1.217100322246551514e-01 -4.566778242588043213e-02 -5.584959983825683594e-01
3.268000000000000000e+03 6.777634429931640625e+01 1.733123421669006348e+00 -1.734554767608642578e-01 6.941086769104003906e+00 2.030289411544799805e+00 1.361236348748207092e-02
3.269000000000000000e+03 3.156649589538574219e+01 2.456279373168945312e+01 -1.814025491476058960e-01 -8.923006057739257812e-02 -8.118978142738342285e-02 -5.049064755439758301e-01
3.270000000000000000e+03 6.782089996337890625e+01 1.083750152587890625e+01 -5.032227635383605957e-01 7.424787044525146484e+00 2.076469421386718750e+00 -1.405941247940063477e-01
3.271000000000000000e+03 3.122984886169433594e+01 -2.015880823135375977e+00 9.059233218431472778e-02 -2.256436794996261597e-01 -4.051540419459342957e-02 -1.788332611322402954e-01
3.272000000000000000e+03 3.180041122436523438e+01 2.519144248962402344e+01 -2.109143882989883423e-01 -6.851746141910552979e-02 -8.382955938577651978e-02 -4.933978617191314697e-01
3.273000000000000000e+03 3.203929519653320312e+01 2.247999191284179688e+01 -1.086707115173339844e-01 -1.077521070837974548e-01 -6.492684781551361084e-02 -5.426777005195617676e-01
3.274000000000000000e+03 3.133751869201660156e+01 2.152111244201660156e+01 -6.516049057245254517e-02 -1.594817936420440674e-01 -6.739268451929092407e-02 -5.395169258117675781e-01
3.275000000000000000e+03 6.850188446044921875e+01 1.554285717010498047e+01 -6.789934039115905762e-01 7.989519596099853516e+00 2.193157911300659180e+00 -4.101848304271697998e-01
3.276000000000000000e+03 3.411408996582031250e+01 1.900985527038574219e+01 3.359672427177429199e-02 -2.813921123743057251e-02 1.637253793887794018e-03 -5.578676462173461914e-01
3.277000000000000000e+03 3.407004165649414062e+01 1.814210891723632812e+01 6.674540042877197266e-02 -3.027799911797046661e-02 1.094022113829851151e-02 -5.459956526756286621e-01
3.278000000000000000e+03 6.739633178710937500e+01 1.969170188903808594e+01 -7.947331666946411133e-01 8.737958908081054688e+00 2.382967710494995117e+00 -5.367020368576049805e-01
3.279000000000000000e+03 3.452521896362304688e+01 2.554961013793945312e+01 -3.034759461879730225e-01 2.211791835725307465e-02 -8.440741151571273804e-02 -5.256582498550415039e-01
3.280000000000000000e+03 3.163365936279296875e+01 2.325875473022460938e+01 -1.342515200376510620e-01 -1.058606877923011780e-01 -7.203366607427597046e-02 -5.297106504440307617e-01
3.281000000000000000e+03 3.254664611816406250e+01 2.505996322631835938e+01 -2.282877564430236816e-01 -4.427660629153251648e-02 -8.176930993795394897e-02 -5.121052265167236328e-01
3.282000000000000000e+03 7.170719909667968750e+01 2.957229042053222656e+01 1.183970093727111816e+00 7.836401462554931641e+00 2.706111431121826172e+00 -5.773722529411315918e-01
3.283000000000000000e+03 7.249121856689453125e+01 3.013296318054199219e+01 1.022360563278198242e+00 7.533052444458007812e+00 2.566623926162719727e+00 -4.308370351791381836e-01
3.284000000000000000e+03 3.531549072265625000e+01 1.658568954467773438e+01 1.312722265720367432e-01 9.424351155757904053e-02 6.765472143888473511e-02 -5.021396279335021973e-01
3.285000000000000000e+03 3.465313339233398438e+01 1.161846542358398438e+01 1.836365461349487305e-01 1.094072163105010986e-01 8.791313320398330688e-02 -4.027995467185974121e-01
3.286000000000000000e+03 6.726255035400390625e+01 -7.923480272293090820e-01 -1.189499944448471069e-01 6.788640499114990234e+00 2.000907182693481445e+00 4.506837204098701477e-02
3.287000000000000000e+03 6.886756896972656250e+01 2.180511474609375000e+01 -4.704251587390899658e-01 8.911972999572753906e+00 2.532464265823364258e+00 -1.024115204811096191e+00
3.288000000000000000e+03 6.976063537597656250e+01 2.211345100402832031e+01 -3.121905624866485596e-01 8.704137802124023438e+00 2.517584085464477539e+00 -1.161337971687316895e+00
3.289000000000000000e+03 3.356390762329101562e+01 7.545680046081542969e+00 1.550920158624649048e-01 4.142700135707855225e-02 5.895570665597915649e-02 -3.289910852909088135e-01
3.290000000000000000e+03 3.477128982543945312e+01 8.953522682189941406e+00 1.850150674581527710e-01 1.732119619846343994e-01 1.074681058526039124e-01 -3.410860002040863037e-01
3.291000000000000000e+03 7.045725250244140625e+01 2.696482467651367188e+01 9.128564596176147461e-01 8.466299057006835938e+00 2.813746690750122070e+00 -1.215787529945373535e+00
3.292000000000000000e+03 6.895526885986328125e+01 3.301253128051757812e+01 1.731014847755432129e+00 9.137865066528320312e+00 3.260663986206054688e+00 6.942784786224365234e-01
3.293000000000000000e+03 3.487127304077148438e+01 1.420170497894287109e+01 1.676170229911804199e-01 8.260741084814071655e-02 7.506732642650604248e-02 -4.619550108909606934e-01
3.294000000000000000e+03 3.010212898254394531e+01 -8.351016044616699219e+00 4.545823857188224792e-02 -4.184440374374389648e-01 -1.118957400321960449e-01 -1.300164610147476196e-01
3.295000000000000000e+03 2.866287612915039062e+01 -9.611071586608886719e+00 2.705951966345310211e-02 -6.720314025878906250e-01 -1.934915632009506226e-01 -1.202907562255859375e-01
3.296000000000000000e+03 6.835707092285156250e+01 1.390880489349365234e+01 -6.224920153617858887e-01 7.785777091979980469e+00 2.148985624313354492e+00 -3.062058687210083008e-01
3.297000000000000000e+03 6.789254760742187500e+01 1.781275749206542969e+01 -7.727576494216918945e-01 8.336795806884765625e+00 2.269211292266845703e+00 -4.758547842502593994e-01
3.298000000000000000e+03 6.763870239257812500e+01 1.471761417388916016e+01 -6.950760483741760254e-01 7.831789493560791016e+00 2.141013860702514648e+00 -2.506395876407623291e-01
3.299000000000000000e+03 6.802646636962890625e+01 2.152401924133300781e+01 -6.022198796272277832e-01 9.017827987670898438e+00 2.524682521820068359e+00 -8.482661247253417969e-01
3.300000000000000000e+03 6.772895812988281250e+01 1.204733562469482422e+01 -5.716710686683654785e-01 7.536900520324707031e+00 2.089568853378295898e+00 -1.664967983961105347e-01
3.301000000000000000e+03 6.916533660888671875e+01 1.331913185119628906e+01 -5.660564899444580078e-01 7.781165122985839844e+00 2.164532661437988281e+00 -3.564155101776123047e-01
3.302000000000000000e+03 2.869879722595214844e+01 -1.087181949615478516e+01 2.499647997319698334e-02 -6.558348536491394043e-01 -1.892515122890472412e-01 -1.114958226680755615e-01
3.303000000000000000e+03 6.523332214355468750e+01 -9.154264450073242188e+00 -2.484563738107681274e-02 6.279575824737548828e+00 1.876419067382812500e+00 7.117581367492675781e-02
3.304000000000000000e+03 6.639144134521484375e+01 -1.001856517791748047e+01 -1.624942757189273834e-02 6.530303001403808594e+00 1.954216122627258301e+00 5.959200859069824219e-02
3.305000000000000000e+03 7.080715179443359375e+01 -8.846717834472656250e+00 -1.337973121553659439e-02 7.384779930114746094e+00 2.211420059204101562e+00 3.027416393160820007e-02
3.306000000000000000e+03 3.562009811401367188e+01 -1.762013816833496094e+01 4.841347411274909973e-02 6.326637864112854004e-01 2.043231725692749023e-01 -4.568900167942047119e-02
3.307000000000000000e+03 3.282278442382812500e+01 -1.540393352508544922e+01 4.492467641830444336e-02 1.051065772771835327e-01 4.500937461853027344e-02 -7.949963212013244629e-02
3.308000000000000000e+03 3.143202590942382812e+01 1.059174537658691406e+00 8.666090667247772217e-02 -2.140389382839202881e-01 -3.821340948343276978e-02 -2.182135581970214844e-01
3.309000000000000000e+03 3.328126525878906250e+01 2.321544736623764038e-01 1.053871214389801025e-01 5.218512937426567078e-02 4.727167636156082153e-02 -2.001913934946060181e-01
3.310000000000000000e+03 3.290445709228515625e+01 -4.556207656860351562e+00 8.513990789651870728e-02 7.258530706167221069e-02 4.731756448745727539e-02 -1.508847624063491821e-01
3.311000000000000000e+03 6.468618011474609375e+01 -1.386771392822265625e+01 3.967203199863433838e-03 6.157437801361083984e+00 1.848421454429626465e+00 5.894972756505012512e-02
3.312000000000000000e+03 6.106857681274414062e+01 3.713039779663085938e+01 -1.256405591964721680e+00 1.030091381072998047e+01 2.713352441787719727e+00 -1.613909244537353516e+00
3.313000000000000000e+03 6.747600555419921875e+01 3.675327301025390625e+01 -2.582895755767822266e-01 1.050672531127929688e+01 3.074530601501464844e+00 1.047181963920593262e+00
3.314000000000000000e+03 3.038377952575683594e+01 -2.680654335021972656e+01 1.628829748369753361e-03 -2.742661833763122559e-01 -8.179120719432830811e-02 -2.420918270945549011e-02
3.315000000000000000e+03 6.365898895263671875e+01 2.885128402709960938e+01 2.905307769775390625e+00 1.403815746307373047e+01 5.083039283752441406e+00 -1.604611039161682129e+00
3.316000000000000000e+03 6.438053131103515625e+01 2.875834083557128906e+01 2.959519147872924805e+00 1.277763175964355469e+01 4.721145153045654297e+00 -1.600880742073059082e+00
3.317000000000000000e+03 5.917133712768554688e+01 2.747880363464355469e+01 1.117208123207092285e+00 6.371898174285888672e+00 2.246731758117675781e+00 4.557214736938476562e+00
3.318000000000000000e+03 5.965721511840820312e+01 2.763116836547851562e+01 9.180785417556762695e-01 7.941655158996582031e+00 2.657920122146606445e+00 4.883042335510253906e+00
3.319000000000000000e+03 6.497541046142578125e+01 2.938571929931640625e+01 3.779886722564697266e+00 1.181509494781494141e+01 4.678494453430175781e+00 -1.341632366180419922e+00
3.320000000000000000e+03 6.405508422851562500e+01 2.827970886230468750e+01 2.032891750335693359e+00 1.322401523590087891e+01 4.577072143554687500e+00 -1.423588633537292480e+00
3.321000000000000000e+03 6.245438766479492188e+01 2.677466583251953125e+01 -4.823828339576721191e-01 1.300174522399902344e+01 3.755808830261230469e+00 1.038602709770202637e+00
3.322000000000000000e+03 6.132771682739257812e+01 2.713303565979003906e+01 -4.714409708976745605e-01 1.251617050170898438e+01 3.613418817520141602e+00 2.881725788116455078e+00
3.323000000000000000e+03 6.572984313964843750e+01 2.992831230163574219e+01 3.853791713714599609e+00 1.088880825042724609e+01 4.422780036926269531e+00 -8.105229139328002930e-01
3.324000000000000000e+03 6.528120422363281250e+01 3.026507377624511719e+01 4.468750000000000000e+00 1.127419471740722656e+01 4.722883701324462891e+00 -6.204303503036499023e-01
3.325000000000000000e+03 5.817622375488281250e+01 2.610257339477539062e+01 8.022059202194213867e-01 4.891818046569824219e+00 1.708207249641418457e+00 3.511407136917114258e+00
3.326000000000000000e+03 5.701022720336914062e+01 2.532203102111816406e+01 7.558711767196655273e-01 3.535532951354980469e+00 1.287421226501464844e+00 2.793269872665405273e+00
3.327000000000000000e+03 6.314617538452148438e+01 3.512850952148437500e+01 -6.827591657638549805e-01 1.366185474395751953e+01 3.893728733062744141e+00 3.265642225742340088e-01
3.328000000000000000e+03 6.245109558105468750e+01 3.636843490600585938e+01 -1.385735392570495605e+00 1.230877780914306641e+01 3.276912689208984375e+00 -7.273406982421875000e-01
3.329000000000000000e+03 6.467170715332031250e+01 3.572508621215820312e+01 -4.101553857326507568e-01 1.245996475219726562e+01 3.614942789077758789e+00 9.620624184608459473e-01
3.330000000000000000e+03 6.378345108032226562e+01 3.753009796142578125e+01 -1.458770632743835449e+00 1.184976673126220703e+01 3.117298841476440430e+00 2.962274104356765747e-02
3.331000000000000000e+03 5.598875808715820312e+01 2.444458961486816406e+01 6.844318509101867676e-01 2.952066421508789062e+00 1.090949535369873047e+00 2.262085437774658203e+00
3.332000000000000000e+03 5.820310211181640625e+01 2.556465721130371094e+01 5.992314219474792480e-01 5.104170799255371094e+00 1.711020708084106445e+00 3.362200975418090820e+00
3.333000000000000000e+03 6.900428009033203125e+01 2.789915275573730469e+01 1.495409131050109863e+00 9.033647537231445312e+00 3.158716917037963867e+00 -1.170876622200012207e+00
3.334000000000000000e+03 6.570205688476562500e+01 3.387373733520507812e+01 1.728433609008789062e+00 1.164162063598632812e+01 4.011016368865966797e+00 1.578487753868103027e+00
3.335000000000000000e+03 6.564521789550781250e+01 3.516524887084960938e+01 3.891294300556182861e-01 1.179842853546142578e+01 3.656267404556274414e+00 1.311124205589294434e+00
3.336000000000000000e+03 6.684908294677734375e+01 3.363417434692382812e+01 1.810175657272338867e+00 1.054069900512695312e+01 3.705262422561645508e+00 1.274693369865417480e+00
3.337000000000000000e+03 5.566492080688476562e+01 2.373834419250488281e+01 6.163544654846191406e-01 3.027533054351806641e+00 1.093166232109069824e+00 2.142743825912475586e+00
3.338000000000000000e+03 5.687398529052734375e+01 2.483554077148437500e+01 6.972573995590209961e-01 3.624858379364013672e+00 1.296634674072265625e+00 2.724145889282226562e+00
3.339000000000000000e+03 4.528982162475585938e+01 2.296680068969726562e+01 1.025157328695058823e-02 4.550969600677490234e-01 1.396045684814453125e-01 -2.079662978649139404e-01
3.340000000000000000e+03 4.613727569580078125e+01 2.286985969543457031e+01 6.869060546159744263e-02 5.224470496177673340e-01 1.773412972688674927e-01 -1.156918257474899292e-01
3.341000000000000000e+03 6.341537857055664062e+01 2.734915161132812500e+01 4.222854673862457275e-01 1.339632129669189453e+01 4.145582199096679688e+00 -4.630748033523559570e-01
3.342000000000000000e+03 3.524817276000976562e+01 2.380466651916503906e+01 -2.108349055051803589e-01 3.260985761880874634e-02 -5.346751585602760315e-02 -5.642743706703186035e-01
3.343000000000000000e+03 3.767410659790039062e+01 2.410045623779296875e+01 -2.546288371086120605e-01 1.109429970383644104e-01 -4.310574755072593689e-02 -5.575391054153442383e-01
3.344000000000000000e+03 3.361544799804687500e+01 2.363815307617187500e+01 -1.776601672172546387e-01 -2.756011299788951874e-02 -6.156608462333679199e-02 -5.568353533744812012e-01
3.345000000000000000e+03 4.528405380249023438e+01 2.220060729980468750e+01 1.041465848684310913e-01 5.287586450576782227e-01 1.898715645074844360e-01 -1.692793816328048706e-01
3.346000000000000000e+03 5.575093078613281250e+01 2.309986305236816406e+01 5.442965030670166016e-01 3.308295249938964844e+00 1.155777454376220703e+00 2.125775337219238281e+00
3.347000000000000000e+03 5.618039321899414062e+01 2.401057624816894531e+01 6.082335114479064941e-01 3.314024686813354492e+00 1.176677465438842773e+00 2.329560041427612305e+00
3.348000000000000000e+03 4.442920303344726562e+01 2.305350685119628906e+01 -3.969880938529968262e-02 3.956751227378845215e-01 1.067928969860076904e-01 -2.867465019226074219e-01
3.349000000000000000e+03 4.863288879394531250e+01 2.180739021301269531e+01 3.450267612934112549e-01 9.486536979675292969e-01 3.881041407585144043e-01 3.008793890476226807e-01
3.350000000000000000e+03 4.781246566772460938e+01 2.267631721496582031e+01 2.019254714250564575e-01 7.002391219139099121e-01 2.706493735313415527e-01 1.116653382778167725e-01
3.351000000000000000e+03 3.237136077880859375e+01 2.658500862121582031e+01 -2.866105735301971436e-01 -2.486214041709899902e-02 -9.344181418418884277e-02 -4.618621468544006348e-01
3.352000000000000000e+03 3.215307235717773438e+01 2.371404647827148438e+01 -1.573098450899124146e-01 -8.047968149185180664e-02 -7.133685797452926636e-02 -5.336174964904785156e-01
3.353000000000000000e+03 4.131476974487304688e+01 2.382491683959960938e+01 -2.374016642570495605e-01 2.097967118024826050e-01 -8.281484246253967285e-03 -4.838000833988189697e-01
3.354000000000000000e+03 6.752624511718750000e+01 3.411039733886718750e+01 1.437518477439880371e+00 1.016264247894287109e+01 3.480048418045043945e+00 1.179669499397277832e+00
3.355000000000000000e+03 4.697624588012695312e+01 2.277000808715820312e+01 1.322705447673797607e-01 6.034151911735534668e-01 2.207057178020477295e-01 -9.644191712141036987e-03
3.356000000000000000e+03 5.123027038574218750e+01 2.321979713439941406e+01 4.166432619094848633e-01 1.167070984840393066e+00 4.751142561435699463e-01 7.282022833824157715e-01
3.357000000000000000e+03 5.291706848144531250e+01 2.246008682250976562e+01 5.574324131011962891e-01 1.924849629402160645e+00 7.446846365928649902e-01 1.239919900894165039e+00
3.358000000000000000e+03 5.207691574096679688e+01 2.244175720214843750e+01 5.191991925239562988e-01 1.611964821815490723e+00 6.393492221832275391e-01 1.000771522521972656e+00
3.359000000000000000e+03 5.122915267944335938e+01 2.244886207580566406e+01 4.709511995315551758e-01 1.358768820762634277e+00 5.489159822463989258e-01 7.898873090744018555e-01
3.360000000000000000e+03 3.236857986450195312e+01 2.438755607604980469e+01 -1.948730349540710449e-01 -5.758665129542350769e-02 -7.573790848255157471e-02 -5.266938209533691406e-01
3.361000000000000000e+03 5.371330261230468750e+01 2.261256980895996094e+01 5.775178074836730957e-01 2.209166049957275391e+00 8.360051512718200684e-01 1.467080354690551758e+00
3.362000000000000000e+03 6.992938232421875000e+01 2.585885238647460938e+01 6.308232545852661133e-01 8.770436286926269531e+00 2.820378065109252930e+00 -1.342142820358276367e+00
3.363000000000000000e+03 6.871482086181640625e+01 2.460150718688964844e+01 1.756447702646255493e-01 9.233510971069335938e+00 2.822746753692626953e+00 -1.309906959533691406e+00
3.364000000000000000e+03 6.816451263427734375e+01 2.074515342712402344e+01 -6.487914919853210449e-01 8.854418754577636719e+00 2.461688280105590820e+00 -7.985679507255554199e-01
3.365000000000000000e+03 3.929343032836914062e+01 2.467902565002441406e+01 -3.294361531734466553e-01 1.469911038875579834e-01 -5.473351851105690002e-02 -5.336988568305969238e-01
3.366000000000000000e+03 7.040525054931640625e+01 3.105778884887695312e+01 1.640968799591064453e+00 8.332631111145019531e+00 2.992080211639404297e+00 -1.335833072662353516e-01
3.367000000000000000e+03 6.572531127929687500e+01 2.965476512908935547e+00 -2.084677517414093018e-01 6.623600482940673828e+00 1.924539804458618164e+00 6.821622699499130249e-02
3.368000000000000000e+03 6.793730926513671875e+01 4.309360504150390625e+00 -2.408280670642852783e-01 7.045426368713378906e+00 2.041379451751708984e+00 -1.524094119668006897e-02
3.369000000000000000e+03 3.356906890869140625e+01 3.260650873184204102e+00 1.361384838819503784e-01 9.291959553956985474e-02 6.871742010116577148e-02 -2.458942383527755737e-01
3.370000000000000000e+03 6.893639373779296875e+01 -5.916791915893554688e+00 -4.998782277107238770e-02 7.026640892028808594e+00 2.092995882034301758e+00 3.883849084377288818e-02
3.371000000000000000e+03 3.328635787963867188e+01 -2.429151296615600586e+00 1.047224476933479309e-01 9.921095520257949829e-02 6.118002161383628845e-02 -1.622840762138366699e-01
3.372000000000000000e+03 3.194913291931152344e+01 1.944077610969543457e-01 8.420195430517196655e-02 -1.345190852880477905e-01 -1.509513892233371735e-02 -1.981041729450225830e-01
3.373000000000000000e+03 6.784336853027343750e+01 9.651304244995117188e+00 -4.489176571369171143e-01 7.329555988311767578e+00 2.064191341400146484e+00 -1.096094027161598206e-01
3.374000000000000000e+03 6.928946685791015625e+01 2.104592132568359375e+01 -5.120905041694641113e-01 8.715792655944824219e+00 2.461110591888427734e+00 -9.898540973663330078e-01
3.375000000000000000e+03 6.851390838623046875e+01 2.267441749572753906e+01 -3.664935827255249023e-01 9.123487472534179688e+00 2.627098321914672852e+00 -1.077856063842773438e+00
3.376000000000000000e+03 3.346158599853515625e+01 2.019501304626464844e+01 -1.663139276206493378e-02 -6.312096863985061646e-02 -2.392570860683917999e-02 -5.678408741950988770e-01
3.377000000000000000e+03 6.524918365478515625e+01 1.705836677551269531e+01 -8.727739453315734863e-01 7.994457721710205078e+00 2.136505126953125000e+00 1.227661147713661194e-01
3.378000000000000000e+03 6.768684387207031250e+01 1.631017684936523438e+01 -7.536089420318603516e-01 8.070850372314453125e+00 2.195172548294067383e+00 -3.302536606788635254e-01
3.379000000000000000e+03 3.575387191772460938e+01 1.815941810607910156e+01 9.655059874057769775e-02 9.828279167413711548e-02 5.845001712441444397e-02 -5.323476791381835938e-01
3.380000000000000000e+03 3.417515945434570312e+01 1.716649055480957031e+01 9.394554793834686279e-02 -1.641490869224071503e-02 2.325919270515441895e-02 -5.283364653587341309e-01
3.381000000000000000e+03 7.020308685302734375e+01 -6.130918979644775391e+00 -3.873948007822036743e-02 7.265930652618408203e+00 2.168157339096069336e+00 2.572168596088886261e-02
3.382000000000000000e+03 6.999030303955078125e+01 2.897171592712402344e+01 1.592527747154235840e+00 8.521182060241699219e+00 3.034112930297851562e+00 -8.382399678230285645e-01
3.383000000000000000e+03 6.938893127441406250e+01 2.728285980224609375e+01 1.164652466773986816e+00 8.908019065856933594e+00 3.021801471710205078e+00 -1.246605277061462402e+00
3.384000000000000000e+03 4.136328887939453125e+01 2.315195465087890625e+01 -1.461272388696670532e-01 2.507881522178649902e-01 3.139827772974967957e-02 -4.690731167793273926e-01
3.385000000000000000e+03 4.068609237670898438e+01 2.390738677978515625e+01 -2.459200918674468994e-01 1.984412372112274170e-01 -1.424365863204002380e-02 -5.014699697494506836e-01
3.386000000000000000e+03 3.708862686157226562e+01 1.159383964538574219e+01 2.374525368213653564e-01 3.817661106586456299e-01 1.857655942440032959e-01 -3.461910188198089600e-01
3.387000000000000000e+03 3.469635009765625000e+01 1.291868591308593750e+01 1.802335083484649658e-01 8.815669268369674683e-02 8.051706105470657349e-02 -4.323566555976867676e-01
3.388000000000000000e+03 6.711657714843750000e+01 3.110603332519531250e+01 3.135529994964599609e+00 9.829794883728027344e+00 3.889597415924072266e+00 5.389301478862762451e-02
3.389000000000000000e+03 3.126923179626464844e+01 2.609463882446289062e+01 -2.329727262258529663e-01 -6.284982711076736450e-02 -8.874677121639251709e-02 -4.580572247505187988e-01
3.390000000000000000e+03 3.611695480346679688e+01 1.384746265411376953e+01 2.106292992830276489e-01 2.195189893245697021e-01 1.290444880723953247e-01 -4.240904748439788818e-01
3.391000000000000000e+03 6.631249237060546875e+01 1.268537139892578125e+01 -6.330218315124511719e-01 7.400945663452148438e+00 2.030377149581909180e+00 -3.381126094609498978e-03
3.392000000000000000e+03 6.827993011474609375e+01 3.431250381469726562e+01 1.178614497184753418e+00 9.698357582092285156e+00 3.263091564178466797e+00 1.076955914497375488e+00
3.393000000000000000e+03 2.943214225769042969e+01 -1.779306828975677490e-01 4.769529402256011963e-02 -5.426425337791442871e-01 -1.484841853380203247e-01 -2.029006332159042358e-01
3.394000000000000000e+03 6.603447723388671875e+01 3.054501914978027344e+01 3.860067367553710938e+00 1.054279136657714844e+01 4.320857524871826172e+00 -3.223852217197418213e-01
3.395000000000000000e+03 6.658792114257812500e+01 1.171245193481445312e+01 -5.820820927619934082e-01 7.340730190277099609e+00 2.027594566345214844e+00 -2.859890460968017578e-02
3.396000000000000000e+03 6.776939392089843750e+01 -2.127741098403930664e+00 -9.765650331974029541e-02 6.846821784973144531e+00 2.024749517440795898e+00 3.805577009916305542e-02
3.397000000000000000e+03 3.587928009033203125e+01 1.156667232513427734e+01 2.104655057191848755e-01 2.482942044734954834e-01 1.376279145479202271e-01 -3.755673170089721680e-01
3.398000000000000000e+03 3.699021911621093750e+01 1.264949893951416016e+01 2.333218753337860107e-01 3.490548133850097656e-01 1.747130006551742554e-01 -3.712150454521179199e-01
3.399000000000000000e+03 3.367425537109375000e+01 -1.421214389801025391e+01 4.332897812128067017e-02 2.691049575805664062e-01 9.373017400503158569e-02 -7.650323957204818726e-02
3.400000000000000000e+03 3.359656524658203125e+01 -9.586767196655273438e+00 5.908432230353355408e-02 2.040271461009979248e-01 7.893344014883041382e-02 -1.162871271371841431e-01
3.401000000000000000e+03 6.755835723876953125e+01 2.062540245056152344e+01 -7.249151468276977539e-01 8.932645797729492188e+00 2.462319374084472656e+00 -6.683894991874694824e-01
3.402000000000000000e+03 6.790421295166015625e+01 2.015555572509765625e+01 -7.212578058242797852e-01 8.769722938537597656e+00 2.414539337158203125e+00 -6.875501871109008789e-01
3.403000000000000000e+03 3.232048797607421875e+01 2.151615333557128906e+01 -6.970724463462829590e-02 -1.092774122953414917e-01 -5.369539931416511536e-02 -5.574833750724792480e-01
3.404000000000000000e+03 3.440087890625000000e+01 2.382379722595214844e+01 -1.998754143714904785e-01 4.792803898453712463e-03 -5.852478370070457458e-02 -5.597839355468750000e-01
3.405000000000000000e+03 6.662751770019531250e+01 -1.839774608612060547e+00 -1.029188632965087891e-01 6.644492149353027344e+00 1.962471961975097656e+00 5.512804910540580750e-02
3.406000000000000000e+03 6.737767791748046875e+01 5.960756301879882812e+00 -3.022501468658447266e-01 7.031092643737792969e+00 2.018652677536010742e+00 -1.822008751332759857e-02
3.407000000000000000e+03 6.697263336181640625e+01 -8.991184234619140625e+00 -2.489813789725303650e-02 6.628184795379638672e+00 1.980985999107360840e+00 4.984870925545692444e-02
3.408000000000000000e+03 3.341310882568359375e+01 1.758397102355957031e+00 1.243558526039123535e-01 7.271939516067504883e-02 5.912257358431816101e-02 -2.225725501775741577e-01
3.409000000000000000e+03 3.656852722167968750e+01 1.624097466468811035e+00 1.637686192989349365e-01 5.788652300834655762e-01 2.227901518344879150e-01 -1.757250130176544189e-01
3.410000000000000000e+03 6.895197296142578125e+01 -1.582940673828125000e+01 -7.092088926583528519e-03 6.982727527618408203e+00 2.092690706253051758e+00 4.687905311584472656e-02
3.411000000000000000e+03 6.617086791992187500e+01 -1.709974110126495361e-01 -1.302611976861953735e-01 6.595248222351074219e+00 1.939496159553527832e+00 6.136536225676536560e-02
3.412000000000000000e+03 6.698518371582031250e+01 7.948640584945678711e-01 -1.530771702527999878e-01 6.772292613983154297e+00 1.985764622688293457e+00 4.300229251384735107e-02
3.413000000000000000e+03 3.589494323730468750e+01 1.607691001892089844e+01 1.539249271154403687e-01 1.339284032583236694e-01 8.635599911212921143e-02 -4.827686846256256104e-01
3.414000000000000000e+03 3.535079956054687500e+01 1.527909851074218750e+01 1.591210961341857910e-01 1.056170985102653503e-01 7.942145317792892456e-02 -4.758472442626953125e-01
3.415000000000000000e+03 6.727678680419921875e+01 1.854733848571777344e+01 -8.285989761352539062e-01 8.484155654907226562e+00 2.296666860580444336e+00 -3.993309438228607178e-01
3.416000000000000000e+03 3.183175849914550781e+01 -6.033606529235839844e+00 6.557862460613250732e-02 -1.408447474241256714e-01 -2.257983386516571045e-02 -1.488756537437438965e-01
3.417000000000000000e+03 3.341735839843750000e+01 -5.906990051269531250e+00 8.443958312273025513e-02 1.739387214183807373e-01 7.751349359750747681e-02 -1.347002387046813965e-01
3.418000000000000000e+03 6.787977600097656250e+01 -1.388382434844970703e+01 -2.025696448981761932e-03 6.790471076965332031e+00 2.036533594131469727e+00 5.108502879738807678e-02
3.419000000000000000e+03 3.128315544128417969e+01 -2.096409034729003906e+01 4.172199591994285583e-02 -1.477389484643936157e-01 -3.180508688092231750e-02 -4.381671547889709473e-02
3.420000000000000000e+03 3.400004196166992188e+01 -1.653553199768066406e+01 5.487406253814697266e-02 3.373837471008300781e-01 1.176773384213447571e-01 -5.718388035893440247e-02
3.421000000000000000e+03 6.896157073974609375e+01 8.517532348632812500e+00 -3.706054091453552246e-01 7.399768829345703125e+00 2.108749151229858398e+00 -1.524689644575119019e-01
3.422000000000000000e+03 6.771855163574218750e+01 7.197167873382568359e+00 -3.441646099090576172e-01 7.149933815002441406e+00 2.041730642318725586e+00 -5.215680599212646484e-02
3.423000000000000000e+03 6.476751708984375000e+01 2.853593826293945312e+01 2.540153264999389648e+00 1.224010086059570312e+01 4.434076309204101562e+00 -1.535520911216735840e+00
3.424000000000000000e+03 6.420057678222656250e+01 2.852462005615234375e+01 2.475149869918823242e+00 1.306769847869873047e+01 4.662854671478271484e+00 -1.542370915412902832e+00
3.425000000000000000e+03 5.994640731811523438e+01 2.752884674072265625e+01 5.954030752182006836e-01 9.082221031188964844e+00 2.903287410736083984e+00 4.798425674438476562e+00
3.426000000000000000e+03 6.505647277832031250e+01 2.895946884155273438e+01 3.187047243118286133e+00 1.180472183227539062e+01 4.497530937194824219e+00 -1.468690514564514160e+00
3.427000000000000000e+03 6.271333312988281250e+01 2.721391105651855469e+01 -1.401890367269515991e-01 1.363671302795410156e+01 4.048956871032714844e+00 4.943034946918487549e-01
3.428000000000000000e+03 6.201913070678710938e+01 2.713422584533691406e+01 -4.609235227108001709e-01 1.334057998657226562e+01 3.863896846771240234e+00 1.647008538246154785e+00
3.429000000000000000e+03 6.468814086914062500e+01 2.889489173889160156e+01 3.140546798706054688e+00 1.231613731384277344e+01 4.637005329132080078e+00 -1.544932484626770020e+00
3.430000000000000000e+03 6.703236389160156250e+01 2.415059089660644531e+01 -1.929871588945388794e-01 9.865301132202148438e+00 2.901694059371948242e+00 -1.037527799606323242e+00
3.431000000000000000e+03 6.788610839843750000e+01 2.439557266235351562e+01 1.427479274570941925e-02 9.572580337524414062e+00 2.876056671142578125e+00 -1.208147048950195312e+00
3.432000000000000000e+03 6.578360748291015625e+01 2.948980522155761719e+01 3.484356403350830078e+00 1.089318275451660156e+01 4.313261985778808594e+00 -1.110749602317810059e+00
3.433000000000000000e+03 5.940075302124023438e+01 2.694123077392578125e+01 6.779921054840087891e-01 7.286108970642089844e+00 2.389230251312255859e+00 4.357798576354980469e+00
3.434000000000000000e+03 6.052194213867187500e+01 2.637915802001953125e+01 -2.627170681953430176e-01 9.931423187255859375e+00 2.900611877441406250e+00 3.548777341842651367e+00
3.435000000000000000e+03 5.981965637207031250e+01 2.722645378112792969e+01 5.387251377105712891e-01 8.645055770874023438e+00 2.755134344100952148e+00 4.559573650360107422e+00
3.436000000000000000e+03 5.724283981323242188e+01 2.459227371215820312e+01 5.914757847785949707e-01 4.151431083679199219e+00 1.422872066497802734e+00 2.808865070343017578e+00
3.437000000000000000e+03 6.773847198486328125e+01 3.052085494995117188e+01 2.810523986816406250e+00 9.451149940490722656e+00 3.678502321243286133e+00 -3.273783326148986816e-01
3.438000000000000000e+03 6.563287353515625000e+01 3.033490180969238281e+01 4.177326679229736328e+00 1.091829681396484375e+01 4.528687000274658203e+00 -5.317270159721374512e-01
3.439000000000000000e+03 5.682798004150390625e+01 2.435908889770507812e+01 6.185750961303710938e-01 3.841911792755126953e+00 1.338146090507507324e+00 2.630073785781860352e+00
3.440000000000000000e+03 6.638472747802734375e+01 3.600458908081054688e+01 -3.550295904278755188e-02 1.115494537353515625e+01 3.335832595825195312e+00 1.174698948860168457e+00
3.441000000000000000e+03 5.442885971069335938e+01 2.284054565429687500e+01 5.857375860214233398e-01 2.505976676940917969e+00 9.275142550468444824e-01 1.695728659629821777e+00
3.442000000000000000e+03 6.855368804931640625e+01 2.534469032287597656e+01 4.184655547142028809e-01 9.340023040771484375e+00 2.927546501159667969e+00 -1.344219565391540527e+00
3.443000000000000000e+03 6.971833038330078125e+01 2.659386634826660156e+01 8.775584697723388672e-01 8.814227104187011719e+00 2.907535552978515625e+00 -1.316986203193664551e+00
3.444000000000000000e+03 6.738627624511718750e+01 3.285388946533203125e+01 2.283494710922241211e+00 9.919077873229980469e+00 3.660771846771240234e+00 9.113942384719848633e-01
3.445000000000000000e+03 6.817136383056640625e+01 2.352680206298828125e+01 -2.254922538995742798e-01 9.330246925354003906e+00 2.731426239013671875e+00 -1.132209897041320801e+00
3.446000000000000000e+03 6.761891174316406250e+01 2.236878776550292969e+01 -5.331220626831054688e-01 9.297094345092773438e+00 2.629191637039184570e+00 -8.827190995216369629e-01
3.447000000000000000e+03 4.351771163940429688e+01 2.230279922485351562e+01 1.388799026608467102e-02 3.994397521018981934e-01 1.239983215928077698e-01 -3.253822922706604004e-01
3.448000000000000000e+03 4.441889572143554688e+01 2.226827049255371094e+01 5.560955777764320374e-02 4.608408212661743164e-01 1.549351066350936890e-01 -2.540879845619201660e-01
3.449000000000000000e+03 3.397419357299804688e+01 2.098512268066406250e+01 -4.880623146891593933e-02 -3.702214732766151428e-02 -2.574851363897323608e-02 -5.719240307807922363e-01
3.450000000000000000e+03 3.677324295043945312e+01 2.354575157165527344e+01 -2.048123776912689209e-01 8.662531524896621704e-02 -3.545612096786499023e-02 -5.673137307167053223e-01
3.451000000000000000e+03 6.773410797119140625e+01 3.201802444458007812e+01 2.557051420211791992e+00 9.582595825195312500e+00 3.641894102096557617e+00 5.066543817520141602e-01
3.452000000000000000e+03 4.695854187011718750e+01 2.199335098266601562e+01 2.224641889333724976e-01 7.022094130516052246e-01 2.774020731449127197e-01 3.842588514089584351e-02
3.453000000000000000e+03 6.923529052734375000e+01 2.558873939514160156e+01 5.400118231773376465e-01 9.057078361511230469e+00 2.879127025604248047e+00 -1.369055271148681641e+00
3.454000000000000000e+03 6.905746459960937500e+01 2.627075386047363281e+01 8.050068020820617676e-01 9.124773025512695312e+00 2.978934049606323242e+00 -1.364054441452026367e+00
3.455000000000000000e+03 4.865490722656250000e+01 2.259450340270996094e+01 2.703623771667480469e-01 8.188093304634094238e-01 3.267515301704406738e-01 2.489701807498931885e-01
3.456000000000000000e+03 4.778990554809570312e+01 2.189260673522949219e+01 2.821755409240722656e-01 8.135920763015747070e-01 3.287302851676940918e-01 1.600871682167053223e-01
3.457000000000000000e+03 3.775845718383789062e+01 2.492836189270019531e+01 -3.289842307567596436e-01 1.089200302958488464e-01 -6.601925939321517944e-02 -5.482001900672912598e-01
3.458000000000000000e+03 4.949409103393554688e+01 2.173896026611328125e+01 4.016512632369995117e-01 1.114096522331237793e+00 4.547243416309356689e-01 4.586955606937408447e-01
3.459000000000000000e+03 5.037213134765625000e+01 2.247757339477539062e+01 4.086804687976837158e-01 1.143581748008728027e+00 4.656786620616912842e-01 5.882320404052734375e-01
3.460000000000000000e+03 5.538237380981445312e+01 2.194410705566406250e+01 4.470382034778594971e-01 3.371161937713623047e+00 1.145460009574890137e+00 1.913473129272460938e+00
3.461000000000000000e+03 5.639225387573242188e+01 2.306477165222167969e+01 4.629963934421539307e-01 3.795600175857543945e+00 1.277578949928283691e+00 2.290445327758789062e+00
3.462000000000000000e+03 5.291127395629882812e+01 2.161233329772949219e+01 5.414572954177856445e-01 2.146872520446777344e+00 8.064989447593688965e-01 1.248732805252075195e+00
3.463000000000000000e+03 5.036317062377929688e+01 2.168878555297851562e+01 4.564389288425445557e-01 1.312136650085449219e+00 5.305726528167724609e-01 6.390686631202697754e-01
3.464000000000000000e+03 5.122628784179687500e+01 2.165510177612304688e+01 4.988608658313751221e-01 1.546420454978942871e+00 6.135843992233276367e-01 8.309145569801330566e-01
3.465000000000000000e+03 6.881806182861328125e+01 2.690535736083984375e+01 1.082481622695922852e+00 9.212320327758789062e+00 3.088440656661987305e+00 -1.342842936515808105e+00
3.466000000000000000e+03 5.363124465942382812e+01 2.149107933044433594e+01 5.380201339721679688e-01 2.479332923889160156e+00 9.052059054374694824e-01 1.434887170791625977e+00
3.467000000000000000e+03 6.651879119873046875e+01 7.383744239807128906e+00 -3.690036237239837646e-01 6.954409599304199219e+00 1.975621819496154785e+00 1.954720169305801392e-02
3.468000000000000000e+03 6.690921020507812500e+01 3.175839042663574219e+01 3.113218307495117188e+00 1.004613018035888672e+01 3.947804689407348633e+00 4.969776868820190430e-01
3.469000000000000000e+03 6.653090667724609375e+01 3.084132766723632812e+01 3.552277803421020508e+00 1.019977664947509766e+01 4.125616550445556641e+00 -1.316026002168655396e-01
3.470000000000000000e+03 3.590289306640625000e+01 1.275209617614746094e+01 2.091244608163833618e-01 2.229145020246505737e-01 1.296116858720779419e-01 -4.002815186977386475e-01
3.471000000000000000e+03 5.397954177856445312e+01 2.199542045593261719e+01 5.423614978790283203e-01 2.512201547622680664e+00 9.163689613342285156e-01 1.529503345489501953e+00
3.472000000000000000e+03 6.949472808837890625e+01 2.839171981811523438e+01 1.573400139808654785e+00 8.780694961547851562e+00 3.106228590011596680e+00 -1.026265978813171387e+00
3.473000000000000000e+03 6.922111511230468750e+01 3.075167846679687500e+01 2.119030237197875977e+00 8.797619819641113281e+00 3.274995088577270508e+00 -2.141393423080444336e-01
3.474000000000000000e+03 6.682132720947265625e+01 1.542804813385009766e+01 -7.660967111587524414e-01 7.881823539733886719e+00 2.134717941284179688e+00 -1.518191993236541748e-01
3.475000000000000000e+03 6.685009765625000000e+01 1.397574043273925781e+01 -6.918901205062866211e-01 7.678781986236572266e+00 2.096067667007446289e+00 -1.221770495176315308e-01
3.476000000000000000e+03 4.055651092529296875e+01 2.325200462341308594e+01 -1.658866256475448608e-01 2.183702290058135986e-01 1.574508100748062134e-02 -4.999136328697204590e-01
3.477000000000000000e+03 6.636573028564453125e+01 1.996175003051757812e+01 -8.918834924697875977e-01 8.873687744140625000e+00 2.394541263580322266e+00 -3.001418411731719971e-01
3.478000000000000000e+03 6.807938385009765625e+01 -3.756536722183227539e+00 -5.762951076030731201e-02 6.891660690307617188e+00 2.050209283828735352e+00 3.734695166349411011e-02
3.479000000000000000e+03 6.719172668457031250e+01 -7.915329933166503906e+00 -3.528955951333045959e-02 6.667287826538085938e+00 1.989599585533142090e+00 5.326059833168983459e-02
3.480000000000000000e+03 6.806446838378906250e+01 3.344146347045898438e+01 1.768759727478027344e+00 9.676305770874023438e+00 3.433519601821899414e+00 9.482298493385314941e-01
3.481000000000000000e+03 6.850210571289062500e+01 3.107948684692382812e+01 2.423321962356567383e+00 9.111447334289550781e+00 3.460430860519409180e+00 -4.455558210611343384e-02
3.482000000000000000e+03 6.778849792480468750e+01 3.119647216796875000e+01 2.733779430389404297e+00 9.446342468261718750e+00 3.654036760330200195e+00 5.442406982183456421e-02
3.483000000000000000e+03 4.007905197143554688e+01 2.381858444213867188e+01 -2.298128604888916016e-01 1.937733888626098633e-01 -1.081183925271034241e-02 -5.215730667114257812e-01
3.484000000000000000e+03 4.148483657836914062e+01 2.222511482238769531e+01 -4.331747815012931824e-02 3.012069761753082275e-01 7.736685127019882202e-02 -4.426787197589874268e-01
3.485000000000000000e+03 6.569190216064453125e+01 5.300308704376220703e+00 -2.847426235675811768e-01 6.695029735565185547e+00 1.923086166381835938e+00 6.941642612218856812e-02
3.486000000000000000e+03 6.668948364257812500e+01 2.376532077789306641e+00 -1.963531970977783203e-01 6.764558792114257812e+00 1.970461726188659668e+00 4.244992509484291077e-02
3.487000000000000000e+03 3.328289794921875000e+01 2.176349258422851562e+01 -8.271714299917221069e-02 -6.276724487543106079e-02 -4.364531859755516052e-02 -5.658427476882934570e-01
3.488000000000000000e+03 3.342406845092773438e+01 2.491674804687500000e+01 -2.388813048601150513e-01 -1.874913834035396576e-02 -7.728913426399230957e-02 -5.288983583450317383e-01
3.489000000000000000e+03 3.537640762329101562e+01 2.124805450439453125e+01 -5.486281961202621460e-02 3.835979476571083069e-02 -4.950907547026872635e-03 -5.732734203338623047e-01
3.490000000000000000e+03 6.354687881469726562e+01 3.615322113037109375e+01 -1.069230794906616211e+00 1.272638034820556641e+01 3.497144937515258789e+00 2.182714641094207764e-01
3.491000000000000000e+03 6.675415802001953125e+01 1.926032447814941406e+01 -8.746685981750488281e-01 8.676393508911132812e+00 2.340517520904541016e+00 -3.371427655220031738e-01
3.492000000000000000e+03 6.682082366943359375e+01 3.038463592529296875e+01 3.274557828903198242e+00 1.003290081024169922e+01 3.992237567901611328e+00 -4.250599145889282227e-01
3.493000000000000000e+03 6.162730026245117188e+01 3.890859222412109375e+01 -1.515409231185913086e+00 1.011624717712402344e+01 2.580251455307006836e+00 -8.731186985969543457e-01
3.494000000000000000e+03 3.378817749023437500e+01 2.285897827148437500e+01 -1.381622999906539917e-01 -2.578204870223999023e-02 -4.918330162763595581e-02 -5.678333640098571777e-01
3.495000000000000000e+03 3.295534896850585938e+01 2.268095397949218750e+01 -1.259814947843551636e-01 -6.895347684621810913e-02 -5.848049372434616089e-02 -5.561767220497131348e-01
3.496000000000000000e+03 6.023566818237304688e+01 3.811663055419921875e+01 -9.596179127693176270e-01 8.651082038879394531e+00 2.307439327239990234e+00 -1.431573152542114258e+00
3.497000000000000000e+03 6.012912750244140625e+01 4.052525711059570312e+01 -1.058246254920959473e+00 8.131015777587890625e+00 2.121830940246582031e+00 -6.192246675491333008e-01
3.498000000000000000e+03 6.945826721191406250e+01 -1.294668102264404297e+01 -3.687237855046987534e-03 7.106755733489990234e+00 2.130920410156250000e+00 4.566009715199470520e-02
3.499000000000000000e+03 6.708507537841796875e+01 3.499922561645507812e+01 7.852758765220642090e-01 1.064402294158935547e+01 3.428789854049682617e+00 1.285979986190795898e+00
3.500000000000000000e+03 3.848807907104492188e+01 2.389584159851074219e+01 -2.378665357828140259e-01 1.389422714710235596e-01 -2.967727556824684143e-02 -5.507614016532897949e-01
3.501000000000000000e+03 3.486287689208984375e+01 7.576750278472900391e+00 1.849620044231414795e-01 2.113208025693893433e-01 1.188848391175270081e-01 -3.103602230548858643e-01
3.502000000000000000e+03 6.909605407714843750e+01 -4.819581031799316406e+00 -4.990129545331001282e-02 7.066388607025146484e+00 2.104946136474609375e+00 3.154911845922470093e-02
3.503000000000000000e+03 3.594935989379882812e+01 1.031510162353515625e+01 2.143041491508483887e-01 2.858485877513885498e-01 1.500458270311355591e-01 -3.472581803798675537e-01
3.504000000000000000e+03 3.650959396362304688e+01 1.485848522186279297e+01 1.914743781089782715e-01 2.210791558027267456e-01 1.237660571932792664e-01 -4.390849769115447998e-01
3.505000000000000000e+03 3.445633697509765625e+01 1.970088195800781250e+01 1.374328788369894028e-02 -2.965589286759495735e-03 3.233309602364897728e-03 -5.654797554016113281e-01
3.506000000000000000e+03 3.505022811889648438e+01 1.735989761352539062e+01 1.096745431423187256e-01 5.723608285188674927e-02 5.007318779826164246e-02 -5.222535729408264160e-01
3.507000000000000000e+03 6.495067596435546875e+01 2.275285005569458008e+00 -1.943402886390686035e-01 6.421855926513671875e+00 1.868254661560058594e+00 1.043429374694824219e-01
3.508000000000000000e+03 6.733786773681640625e+01 -6.716073036193847656e+00 -3.776276856660842896e-02 6.709455013275146484e+00 2.001507759094238281e+00 5.628500878810882568e-02
3.509000000000000000e+03 3.494778442382812500e+01 1.817827415466308594e+01 8.162257820367813110e-02 3.825962543487548828e-02 3.596466034650802612e-02 -5.427535772323608398e-01
3.510000000000000000e+03 3.497732162475585938e+01 2.039738464355468750e+01 -1.124910451471805573e-02 2.099524810910224915e-02 2.923842752352356911e-03 -5.692673325538635254e-01
3.511000000000000000e+03 6.693743133544921875e+01 -1.706706809997558594e+01 9.130685939453542233e-04 6.599434852600097656e+00 1.980104327201843262e+00 4.601838439702987671e-02
3.512000000000000000e+03 3.498603439331054688e+01 1.626841187477111816e+00 1.490562260150909424e-01 3.384985029697418213e-01 1.462664157152175903e-01 -2.041241526603698730e-01
3.513000000000000000e+03 6.607234954833984375e+01 -8.169852256774902344e+00 -2.925707027316093445e-02 6.466181278228759766e+00 1.931077361106872559e+00 6.411050260066986084e-02
3.514000000000000000e+03 3.488854980468750000e+01 -4.606445133686065674e-02 1.288299411535263062e-01 3.433787524700164795e-01 1.416626125574111938e-01 -1.812326014041900635e-01
3.515000000000000000e+03 3.148912048339843750e+01 -1.051197814941406250e+01 4.764275997877120972e-02 -1.577187031507492065e-01 -3.302278369665145874e-02 -1.101828217506408691e-01
3.516000000000000000e+03 3.171243667602539062e+01 -7.231381416320800781e+00 5.912408232688903809e-02 -1.636702865362167358e-01 -3.136385977268218994e-02 -1.292303353548049927e-01
3.517000000000000000e+03 6.572576904296875000e+01 1.766286087036132812e+01 -8.893231153488159180e-01 8.209410667419433594e+00 2.196026325225830078e+00 -1.498840190470218658e-02
3.518000000000000000e+03 6.597871398925781250e+01 1.359034824371337891e+01 -6.853294968605041504e-01 7.482611179351806641e+00 2.039184570312500000e+00 2.780664898455142975e-02
3.519000000000000000e+03 6.471080780029296875e+01 1.113279533386230469e+01 -5.501784682273864746e-01 6.961760520935058594e+00 1.923474550247192383e+00 1.712303906679153442e-01
3.520000000000000000e+03 6.388772201538085938e+01 -1.163213539123535156e+01 -4.977378528565168381e-03 6.018816471099853516e+00 1.804151773452758789e+00 7.238659262657165527e-02
3.521000000000000000e+03 6.656150054931640625e+01 -1.325745868682861328e+01 -1.540111261419951916e-03 6.535407066345214844e+00 1.960160017013549805e+00 5.184910446405410767e-02
3.522000000000000000e+03 6.780705261230468750e+01 8.452170372009277344e+00 -3.938360810279846191e-01 7.241289615631103516e+00 2.054236173629760742e+00 -8.272571116685867310e-02
3.523000000000000000e+03 6.624549865722656250e+01 3.830930709838867188e+01 -1.148243546485900879e+00 1.093556118011474609e+01 2.936195135116577148e+00 6.323084831237792969e-01
3.524000000000000000e+03 6.617355346679687500e+01 6.320527076721191406e+00 -3.277703225612640381e-01 6.833595275878906250e+00 1.951747536659240723e+00 4.623512551188468933e-02
3.525000000000000000e+03 3.572486877441406250e+01 -1.325887775421142578e+01 5.408116430044174194e-02 6.305873990058898926e-01 2.054005712270736694e-01 -6.199793890118598938e-02
3.526000000000000000e+03 3.478645706176757812e+01 -1.025038719177246094e+01 8.250205963850021362e-02 4.155375063419342041e-01 1.494118720293045044e-01 -9.375048428773880005e-02
3.527000000000000000e+03 3.156610870361328125e+01 -1.159983634948730469e+01 3.978392109274864197e-02 -1.520161926746368408e-01 -3.366968408226966858e-02 -1.030859276652336121e-01
3.528000000000000000e+03 3.332988357543945312e+01 -1.198227500915527344e+01 5.457386001944541931e-02 1.693086475133895874e-01 6.716474890708923340e-02 -9.358246624469757080e-02
3.529000000000000000e+03 6.394844436645507812e+01 2.771161842346191406e+01 1.116449236869812012e+00 1.309980869293212891e+01 4.264877319335937500e+00 -1.041636824607849121e+00
3.530000000000000000e+03 6.319906997680664062e+01 2.692341995239257812e+01 -7.424706965684890747e-02 1.307235527038574219e+01 3.899432659149169922e+00 4.232871159911155701e-02
3.531000000000000000e+03 6.129094314575195312e+01 2.629530906677246094e+01 -6.173844933509826660e-01 1.131513786315917969e+01 3.209326028823852539e+00 2.696106910705566406e+00
3.532000000000000000e+03 6.169481658935546875e+01 2.671205139160156250e+01 -6.134344935417175293e-01 1.236603927612304688e+01 3.525781631469726562e+00 2.225110292434692383e+00
3.533000000000000000e+03 6.095656204223632812e+01 2.674611663818359375e+01 -4.272962212562561035e-01 1.129267692565917969e+01 3.259613990783691406e+00 3.261202335357666016e+00
3.534000000000000000e+03 6.543640899658203125e+01 2.900689888000488281e+01 3.141066789627075195e+00 1.136541175842285156e+01 4.351943492889404297e+00 -1.398211836814880371e+00
3.535000000000000000e+03 5.934648513793945312e+01 2.646967887878417969e+01 4.597597122192382812e-01 7.168169975280761719e+00 2.288378953933715820e+00 4.026930809020996094e+00
3.536000000000000000e+03 6.510916900634765625e+01 2.854895019531250000e+01 2.582454442977905273e+00 1.179945373535156250e+01 4.314572334289550781e+00 -1.527820706367492676e+00
3.537000000000000000e+03 5.985095596313476562e+01 2.655575370788574219e+01 1.747025996446609497e-01 8.490772247314453125e+00 2.599642276763916016e+00 4.018411636352539062e+00
3.538000000000000000e+03 6.659779357910156250e+01 2.999135589599609375e+01 3.334641218185424805e+00 1.017530250549316406e+01 4.052983283996582031e+00 -6.520162224769592285e-01
3.539000000000000000e+03 5.766721343994140625e+01 2.425657272338867188e+01 4.281020760536193848e-01 4.777441978454589844e+00 1.561663150787353516e+00 2.856562852859497070e+00
3.540000000000000000e+03 5.804863739013671875e+01 2.491283798217773438e+01 4.786475598812103271e-01 5.104624748229980469e+00 1.674981713294982910e+00 3.164137363433837891e+00
3.541000000000000000e+03 6.616881561279296875e+01 3.002443122863769531e+01 3.573046445846557617e+00 1.046231555938720703e+01 4.210608482360839844e+00 -6.873909235000610352e-01
3.542000000000000000e+03 6.000535583496093750e+01 2.608434486389160156e+01 -3.208445757627487183e-02 8.614194869995117188e+00 2.574633121490478516e+00 3.717597723007202148e+00
3.543000000000000000e+03 5.881042861938476562e+01 2.568294334411621094e+01 4.397303462028503418e-01 6.122773647308349609e+00 1.968751311302185059e+00 3.591647863388061523e+00
3.544000000000000000e+03 5.667221832275390625e+01 2.376564407348632812e+01 5.225124359130859375e-01 3.843179941177368164e+00 1.309707641601562500e+00 2.475700139999389648e+00
3.545000000000000000e+03 4.455590820312500000e+01 2.072990417480468750e+01 2.034606188535690308e-01 6.079753041267395020e-01 2.434307783842086792e-01 -1.703334748744964600e-01
3.546000000000000000e+03 4.530224609375000000e+01 2.143331909179687500e+01 1.834613978862762451e-01 6.108540892601013184e-01 2.382946461439132690e-01 -1.288245171308517456e-01
3.547000000000000000e+03 5.459589385986328125e+01 2.224035644531250000e+01 5.393897294998168945e-01 2.759883880615234375e+00 9.897820353507995605e-01 1.722165465354919434e+00
3.548000000000000000e+03 5.516587829589843750e+01 2.242588996887207031e+01 5.252984166145324707e-01 3.051625251770019531e+00 1.073077082633972168e+00 1.898225545883178711e+00
3.549000000000000000e+03 4.612654495239257812e+01 2.210225868225097656e+01 1.600727736949920654e-01 6.101531982421875000e-01 2.310677766799926758e-01 -7.204745709896087646e-02
3.550000000000000000e+03 4.254819869995117188e+01 2.232004928588867188e+01 -2.248938940465450287e-02 3.466923534870147705e-01 9.726089239120483398e-02 -3.891358077526092529e-01
3.551000000000000000e+03 4.380100250244140625e+01 2.062047386169433594e+01 1.778752207756042480e-01 5.478351712226867676e-01 2.177131175994873047e-01 -2.340420484542846680e-01
3.552000000000000000e+03 6.700428771972656250e+01 2.028273773193359375e+01 -8.124327063560485840e-01 8.915550231933593750e+00 2.430935382843017578e+00 -5.051378607749938965e-01
3.553000000000000000e+03 6.790124511718750000e+01 2.587516403198242188e+01 6.275025606155395508e-01 9.701049804687500000e+00 3.098565816879272461e+00 -1.374925732612609863e+00
3.554000000000000000e+03 4.694247436523437500e+01 2.118138885498046875e+01 2.935178577899932861e-01 8.093661665916442871e-01 3.308652043342590332e-01 8.502584695816040039e-02
3.555000000000000000e+03 3.455399322509765625e+01 2.298170471191406250e+01 -1.494665890932083130e-01 7.689876016229391098e-03 -4.253301396965980530e-02 -5.737861990928649902e-01
3.556000000000000000e+03 3.599414443969726562e+01 2.300076675415039062e+01 -1.648664027452468872e-01 5.549467727541923523e-02 -3.281151875853538513e-02 -5.728688240051269531e-01
3.557000000000000000e+03 4.861273193359375000e+01 2.011260795593261719e+01 4.329112470149993896e-01 1.233443975448608398e+00 4.999065399169921875e-01 3.838913738727569580e-01
3.558000000000000000e+03 5.122594070434570312e+01 2.084466552734375000e+01 5.137168765068054199e-01 1.726280570030212402e+00 6.719992160797119141e-01 8.611857295036315918e-01
3.559000000000000000e+03 3.400709915161132812e+01 2.212778663635253906e+01 -1.028738394379615784e-01 -2.413097023963928223e-02 -3.810144215822219849e-02 -5.720608234405517578e-01
3.560000000000000000e+03 4.948713684082031250e+01 2.092184066772460938e+01 4.434432983398437500e-01 1.269368171691894531e+00 5.138434171676635742e-01 5.034258961677551270e-01
3.561000000000000000e+03 5.036252212524414062e+01 2.087833595275878906e+01 4.824542999267578125e-01 1.483238816261291504e+00 5.897079110145568848e-01 6.778759360313415527e-01
3.562000000000000000e+03 5.207575225830078125e+01 2.163298988342285156e+01 5.332174897193908691e-01 1.813640713691711426e+00 7.040574550628662109e-01 1.037163734436035156e+00
3.563000000000000000e+03 6.613546752929687500e+01 1.448629856109619141e+01 -7.344794273376464844e-01 7.632381916046142578e+00 2.069370746612548828e+00 -8.920926600694656372e-03
3.564000000000000000e+03 6.213599395751953125e+01 2.627648353576660156e+01 -6.930266618728637695e-01 1.212553787231445312e+01 3.429753541946411133e+00 1.589443445205688477e+00
3.565000000000000000e+03 6.728041076660156250e+01 2.124483299255371094e+01 -7.122055888175964355e-01 9.077298164367675781e+00 2.509527921676635742e+00 -6.672029495239257812e-01
3.566000000000000000e+03 5.422956848144531250e+01 2.146278381347656250e+01 5.068166851997375488e-01 2.831931591033935547e+00 1.001624464988708496e+00 1.590264439582824707e+00
3.567000000000000000e+03 5.621223831176757812e+01 2.237877464294433594e+01 3.980183005332946777e-01 3.816748380661010742e+00 1.264430046081542969e+00 2.132207393646240234e+00
3.568000000000000000e+03 3.581141662597656250e+01 1.749678421020507812e+01 1.266489624977111816e-01 1.203902810811996460e-01 7.411176711320877075e-02 -5.126894116401672363e-01
3.569000000000000000e+03 4.177620697021484375e+01 2.110119438171386719e+01 6.551072746515274048e-02 3.717133104801177979e-01 1.311672031879425049e-01 -3.974271416664123535e-01
3.570000000000000000e+03 6.944973754882812500e+01 2.955479049682617188e+01 1.895927190780639648e+00 8.728293418884277344e+00 3.187266111373901367e+00 -6.852917075157165527e-01
3.571000000000000000e+03 3.934620285034179688e+01 2.373963165283203125e+01 -2.240104377269744873e-01 1.685090214014053345e-01 -1.665042154490947723e-02 -5.362675189971923828e-01
3.572000000000000000e+03 6.888158416748046875e+01 3.001884651184082031e+01 2.189330339431762695e+00 8.935852050781250000e+00 3.337554931640625000e+00 -5.246167778968811035e-01
3.573000000000000000e+03 3.645790863037109375e+01 1.777743530273437500e+01 1.277104914188385010e-01 1.545416116714477539e-01 8.467562496662139893e-02 -5.056681036949157715e-01
3.574000000000000000e+03 3.718627166748046875e+01 1.353778553009033203e+01 2.376843541860580444e-01 3.365699052810668945e-01 1.722762733697891235e-01 -3.826519548892974854e-01
3.575000000000000000e+03 6.616504669189453125e+01 2.063962364196777344e+01 -8.903529644012451172e-01 9.033659934997558594e+00 2.442991971969604492e+00 -2.824460566043853760e-01
3.576000000000000000e+03 6.558036041259765625e+01 1.970873641967773438e+01 -9.444937109947204590e-01 8.742300033569335938e+00 2.339342117309570312e+00 -4.153185337781906128e-02
3.577000000000000000e+03 3.728285598754882812e+01 2.248681640625000000e+01 -1.289379596710205078e-01 1.114062592387199402e-01 -5.259509198367595673e-03 -5.641907453536987305e-01
3.578000000000000000e+03 6.460865020751953125e+01 5.715466022491455078e+00 -2.996888160705566406e-01 6.511787891387939453e+00 1.863629817962646484e+00 1.299132257699966431e-01
3.579000000000000000e+03 3.684424209594726562e+01 1.691201591491699219e+01 1.598228365182876587e-01 1.996968090534210205e-01 1.078558936715126038e-01 -4.800994098186492920e-01
3.580000000000000000e+03 3.650965118408203125e+01 3.236582517623901367e+00 1.834650039672851562e-01 5.430401563644409180e-01 2.179515510797500610e-01 -1.972796022891998291e-01
3.581000000000000000e+03 3.501980972290039062e+01 3.195942401885986328e+00 1.562180817127227783e-01 3.083683252334594727e-01 1.393759250640869141e-01 -2.259245812892913818e-01
3.582000000000000000e+03 6.669783020019531250e+01 8.480555534362792969e+00 -4.122872054576873779e-01 7.070364952087402344e+00 1.997423291206359863e+00 -8.104663342237472534e-03
3.583000000000000000e+03 6.673025512695312500e+01 1.065950012207031250e+01 -5.200065374374389648e-01 7.258830547332763672e+00 2.021647214889526367e+00 -3.298231214284896851e-02
3.584000000000000000e+03 3.930667495727539062e+01 2.272466659545898438e+01 -1.311888992786407471e-01 1.881283074617385864e-01 1.708182506263256073e-02 -5.299583673477172852e-01
3.585000000000000000e+03 3.753384780883789062e+01 2.328507995605468750e+01 -1.855303347110748291e-01 1.147141605615615845e-01 -2.124485187232494354e-02 -5.619053840637207031e-01
3.586000000000000000e+03 3.605863571166992188e+01 9.007520675659179688e+00 2.169511318206787109e-01 3.320539295673370361e-01 1.647015213966369629e-01 -3.124561011791229248e-01
3.587000000000000000e+03 3.828805160522460938e+01 1.179589939117431641e+01 2.694523036479949951e-01 5.215415954589843750e-01 2.372981756925582886e-01 -3.042122423648834229e-01
3.588000000000000000e+03 6.590626525878906250e+01 1.483567714691162109e+00 -1.763358116149902344e-01 6.583095073699951172e+00 1.922027826309204102e+00 6.889632344245910645e-02
3.589000000000000000e+03 6.625948333740234375e+01 3.870453834533691406e+00 -2.398242354393005371e-01 6.739952087402343750e+00 1.950038433074951172e+00 4.853715375065803528e-02
3.590000000000000000e+03 3.630287933349609375e+01 6.241201877593994141e+00 2.053451985120773315e-01 4.399679303169250488e-01 1.935939490795135498e-01 -2.535190284252166748e-01
3.591000000000000000e+03 6.496711730957031250e+01 1.322851085662841797e+01 -6.647068858146667480e-01 7.267676830291748047e+00 1.980890989303588867e+00 1.540683060884475708e-01
3.592000000000000000e+03 5.689634704589843750e+01 4.143848037719726562e+01 7.886406965553760529e-03 4.828811168670654297e+00 1.451009154319763184e+00 -3.621465861797332764e-01
3.593000000000000000e+03 3.544570159912109375e+01 -2.711226224899291992e+00 1.219970434904098511e-01 4.558203518390655518e-01 1.733452230691909790e-01 -1.408352553844451904e-01
3.594000000000000000e+03 6.570756530761718750e+01 1.048259925842285156e+01 -5.177475214004516602e-01 7.068290710449218750e+00 1.965162992477416992e+00 6.345684826374053955e-02
3.595000000000000000e+03 6.545773315429687500e+01 7.604779243469238281e+00 -3.832168579101562500e-01 6.781458854675292969e+00 1.919472575187683105e+00 9.148301929235458374e-02
3.596000000000000000e+03 3.494632720947265625e+01 6.163001060485839844e+00 1.770172119140625000e-01 2.487389445304870605e-01 1.277268528938293457e-01 -2.788814604282379150e-01
3.597000000000000000e+03 3.618164443969726562e+01 7.650958061218261719e+00 2.084043174982070923e-01 3.868002891540527344e-01 1.785613894462585449e-01 -2.807419300079345703e-01
3.598000000000000000e+03 3.771964645385742188e+01 1.450392532348632812e+01 2.345472127199172974e-01 3.502161502838134766e-01 1.754290014505386353e-01 -3.921184837818145752e-01
3.599000000000000000e+03 3.685926818847656250e+01 1.851409721374511719e+01 1.054558381438255310e-01 1.663031727075576782e-01 8.152770251035690308e-02 -5.127493143081665039e-01
3.600000000000000000e+03 6.354607772827148438e+01 3.572777032852172852e+00 -2.207182049751281738e-01 6.199330329895019531e+00 1.793583631515502930e+00 1.628517806529998779e-01
3.601000000000000000e+03 3.500385665893554688e+01 -5.285795688629150391e+00 1.006062030792236328e-01 4.206994771957397461e-01 1.563916951417922974e-01 -1.158913522958755493e-01
3.602000000000000000e+03 3.410917663574218750e+01 -3.747802495956420898e+00 9.278746694326400757e-02 2.285129427909851074e-01 9.639012068510055542e-02 -1.466953158378601074e-01
3.603000000000000000e+03 6.450314331054687500e+01 -1.031702327728271484e+01 -1.147588994354009628e-02 6.139578819274902344e+00 1.838430881500244141e+00 6.785408407449722290e-02
3.604000000000000000e+03 6.311406707763671875e+01 -9.294099807739257812e+00 -1.297872979193925858e-02 5.853849887847900391e+00 1.752261400222778320e+00 8.232071250677108765e-02
3.605000000000000000e+03 6.523878479003906250e+01 -1.248643112182617188e+01 -5.836188793182373047e-03 6.279812335968017578e+00 1.882192850112915039e+00 5.715137347579002380e-02
3.606000000000000000e+03 6.409339904785156250e+01 -8.109028816223144531e+00 -2.716444991528987885e-02 6.065964221954345703e+00 1.811639904975891113e+00 8.180241286754608154e-02
3.607000000000000000e+03 3.595624542236328125e+01 -1.173685932159423828e+01 8.087722212076187134e-02 6.757818460464477539e-01 2.269977182149887085e-01 -6.737055629491806030e-02
3.608000000000000000e+03 3.253838729858398438e+01 -8.776414871215820312e+00 5.552250891923904419e-02 1.580655016005039215e-02 2.139871753752231598e-02 -1.199825033545494080e-01
3.609000000000000000e+03 6.600532531738281250e+01 -6.008898258209228516e+00 -4.168012365698814392e-02 6.470310211181640625e+00 1.928588986396789551e+00 6.174205988645553589e-02
3.610000000000000000e+03 3.670739364624023438e+01 -1.560564804077148438e+01 6.737509369850158691e-02 8.382088541984558105e-01 2.716751992702484131e-01 -4.756422340869903564e-02
3.611000000000000000e+03 6.446672058105468750e+01 2.847120094299316406e+01 2.440485000610351562e+00 1.261794185638427734e+01 4.517528057098388672e+00 -1.540637135505676270e+00
3.612000000000000000e+03 6.619557952880859375e+01 2.953257369995117188e+01 3.259841203689575195e+00 1.053572750091552734e+01 4.138670444488525391e+00 -1.009047031402587891e+00
3.613000000000000000e+03 6.776113891601562500e+01 2.918636703491210938e+01 2.382811546325683594e+00 9.534120559692382812e+00 3.575079679489135742e+00 -9.464952945709228516e-01
3.614000000000000000e+03 6.681201934814453125e+01 2.190442085266113281e+01 -7.063566446304321289e-01 9.338062286376953125e+00 2.589511632919311523e+00 -6.210442185401916504e-01
3.615000000000000000e+03 6.680513000488281250e+01 2.802320480346679688e+01 1.941829562187194824e+00 1.029803276062011719e+01 3.671958923339843750e+00 -1.388613343238830566e+00
3.616000000000000000e+03 6.486953735351562500e+01 2.800188446044921875e+01 1.820312500000000000e+00 1.205697822570800781e+01 4.163187503814697266e+00 -1.457505941390991211e+00
3.617000000000000000e+03 5.977143859863281250e+01 2.692607879638671875e+01 3.731626272201538086e-01 8.339763641357421875e+00 2.613877773284912109e+00 4.306866168975830078e+00
3.618000000000000000e+03 6.410118865966796875e+01 2.595964241027832031e+01 -2.337557375431060791e-01 1.181756782531738281e+01 3.475143671035766602e+00 -3.388166725635528564e-01
3.619000000000000000e+03 5.286954879760742188e+01 2.077963066101074219e+01 5.163928866386413574e-01 2.335314273834228516e+00 8.555121421813964844e-01 1.227402925491333008e+00
3.620000000000000000e+03 5.452481460571289062e+01 2.009731292724609375e+01 3.828725814819335938e-01 3.258136034011840820e+00 1.092302560806274414e+00 1.534731149673461914e+00
3.621000000000000000e+03 6.694913482666015625e+01 2.974925804138183594e+01 2.960785865783691406e+00 9.931801795959472656e+00 3.867776155471801758e+00 -7.670415639877319336e-01
3.622000000000000000e+03 5.727340698242187500e+01 2.357299613952636719e+01 3.851993083953857422e-01 4.497167110443115234e+00 1.464709877967834473e+00 2.604681491851806641e+00
3.623000000000000000e+03 6.022097396850585938e+01 2.550905418395996094e+01 -2.920531034469604492e-01 8.723570823669433594e+00 2.529455184936523438e+00 3.304107904434204102e+00
3.624000000000000000e+03 5.859622955322265625e+01 2.457913017272949219e+01 2.311676740646362305e-01 5.947965145111083984e+00 1.853739857673645020e+00 3.166910409927368164e+00
3.625000000000000000e+03 5.668424987792968750e+01 2.226727294921875000e+01 3.083495795726776123e-01 4.251463413238525391e+00 1.367943882942199707e+00 2.240774631500244141e+00
3.626000000000000000e+03 4.612234115600585938e+01 2.131693077087402344e+01 2.372479140758514404e-01 7.030524611473083496e-01 2.820901274681091309e-01 -2.765929885208606720e-02
3.627000000000000000e+03 4.271802902221679688e+01 2.133496856689453125e+01 7.691814005374908447e-02 4.142841100692749023e-01 1.473606824874877930e-01 -3.450685143470764160e-01
3.628000000000000000e+03 4.304915618896484375e+01 2.040407371520996094e+01 1.642386764287948608e-01 5.062989592552185059e-01 2.011612951755523682e-01 -2.860050797462463379e-01
3.629000000000000000e+03 6.845046234130859375e+01 2.601246643066406250e+01 7.023046612739562988e-01 9.422474861145019531e+00 3.037433862686157227e+00 -1.378058910369873047e+00
3.630000000000000000e+03 6.111650466918945312e+01 2.538923263549804688e+01 -6.692399382591247559e-01 1.006374931335449219e+01 2.818352699279785156e+00 2.626871347427368164e+00
3.631000000000000000e+03 6.728755187988281250e+01 2.325523376464843750e+01 -4.153741896152496338e-01 9.560740470886230469e+00 2.743610143661499023e+00 -9.357779622077941895e-01
3.632000000000000000e+03 4.527772903442382812e+01 2.001888084411621094e+01 2.865059077739715576e-01 7.564305663108825684e-01 3.128809332847595215e-01 -5.949954688549041748e-02
3.633000000000000000e+03 3.531037521362304688e+01 2.299313354492187500e+01 -1.606499552726745605e-01 3.331343829631805420e-02 -3.820095583796501160e-02 -5.709562897682189941e-01
3.634000000000000000e+03 6.828553771972656250e+01 2.659697341918945312e+01 9.720403552055358887e-01 9.499912261962890625e+00 3.141585826873779297e+00 -1.381997585296630859e+00
3.635000000000000000e+03 6.817484283447265625e+01 2.796944427490234375e+01 1.686703205108642578e+00 9.437096595764160156e+00 3.337139844894409180e+00 -1.239798188209533691e+00
3.636000000000000000e+03 6.696013641357421875e+01 2.677172279357910156e+01 1.074030518531799316e+00 1.026095962524414062e+01 3.400497198104858398e+00 -1.425109744071960449e+00
3.637000000000000000e+03 4.531612014770507812e+01 2.068698883056640625e+01 2.460689097642898560e-01 6.880075931549072266e-01 2.802229523658752441e-01 -8.825651556253433228e-02
3.638000000000000000e+03 4.954528045654296875e+01 1.923565292358398438e+01 4.828984141349792480e-01 1.586260914802551270e+00 6.207478046417236328e-01 5.754866003990173340e-01
3.639000000000000000e+03 3.739933776855468750e+01 2.039501190185546875e+01 1.782986521720886230e-02 1.518610417842864990e-01 5.090727284550666809e-02 -5.388197302818298340e-01
3.640000000000000000e+03 3.585552215576171875e+01 1.896405410766601562e+01 6.007560715079307556e-02 8.516539633274078369e-02 4.357229918241500854e-02 -5.444446802139282227e-01
3.641000000000000000e+03 4.949860763549804688e+01 2.008168601989746094e+01 4.683136641979217529e-01 1.430516600608825684e+00 5.696491003036499023e-01 5.428181290626525879e-01
3.642000000000000000e+03 6.722892761230468750e+01 3.056174087524414062e+01 3.089861631393432617e+00 9.725930213928222656e+00 3.844737529754638672e+00 -3.077676594257354736e-01
3.643000000000000000e+03 5.037935638427734375e+01 2.005582427978515625e+01 4.966500401496887207e-01 1.649110436439514160e+00 6.437281370162963867e-01 7.078382372856140137e-01
3.644000000000000000e+03 5.206582260131835938e+01 2.081326293945312500e+01 5.251771211624145508e-01 2.015079975128173828e+00 7.620771527290344238e-01 1.050788760185241699e+00
3.645000000000000000e+03 6.600717163085937500e+01 1.886738777160644531e+01 -9.172574281692504883e-01 8.539068222045898438e+00 2.286543369293212891e+00 -1.238795891404151917e-01
3.646000000000000000e+03 4.095210266113281250e+01 2.056063652038574219e+01 7.924278080463409424e-02 3.487800061702728271e-01 1.284068375825881958e-01 -4.228070974349975586e-01
3.647000000000000000e+03 4.036854553222656250e+01 2.235776519775390625e+01 -7.937598973512649536e-02 2.451620250940322876e-01 4.973581060767173767e-02 -4.910964667797088623e-01
3.648000000000000000e+03 6.773770904541015625e+01 2.756247520446777344e+01 1.537383437156677246e+00 9.723093032836914062e+00 3.378142833709716797e+00 -1.359733462333679199e+00
3.649000000000000000e+03 6.759136199951171875e+01 2.676493835449218750e+01 1.052923798561096191e+00 9.832872390747070312e+00 3.265738964080810547e+00 -1.400611162185668945e+00
3.650000000000000000e+03 6.296068954467773438e+01 2.646397018432617188e+01 -4.347789883613586426e-01 1.262439346313476562e+01 3.656884193420410156e+00 5.317854881286621094e-01
3.651000000000000000e+03 6.303378295898437500e+01 5.206204414367675781e+00 -2.609664797782897949e-01 6.168880939483642578e+00 1.772374391555786133e+00 2.073096483945846558e-01
3.652000000000000000e+03 6.508437347412109375e+01 6.670134544372558594e+00 -3.399164080619812012e-01 6.654229640960693359e+00 1.894293904304504395e+00 1.074202135205268860e-01
3.653000000000000000e+03 3.606118011474609375e+01 1.990171623229980469e+01 2.548995614051818848e-02 8.441603928804397583e-02 3.297179937362670898e-02 -5.551860928535461426e-01
3.654000000000000000e+03 3.450680923461914062e+01 2.159339523315429688e+01 -7.803716510534286499e-02 -5.272985901683568954e-03 -2.499304525554180145e-02 -5.746307969093322754e-01
3.655000000000000000e+03 6.417994689941406250e+01 2.008785438537597656e+01 -9.955851435661315918e-01 8.692714691162109375e+00 2.309139013290405273e+00 3.813303112983703613e-01
3.656000000000000000e+03 6.608514404296875000e+01 1.686277770996093750e+01 -8.404739499092102051e-01 8.065499305725097656e+00 2.167507648468017578e+00 -8.022287487983703613e-02
3.657000000000000000e+03 6.562265014648437500e+01 2.212619209289550781e+01 -8.401902318000793457e-01 9.549942970275878906e+00 2.612925767898559570e+00 -2.900480628013610840e-01
3.658000000000000000e+03 6.628725433349609375e+01 2.128153038024902344e+01 -8.391172289848327637e-01 9.234925270080566406e+00 2.518742561340332031e+00 -3.913350999355316162e-01
3.659000000000000000e+03 3.819540786743164062e+01 1.768910527229309082e+00 1.865190267562866211e-01 8.488388657569885254e-01 3.106073737144470215e-01 -1.402329504489898682e-01
3.660000000000000000e+03 3.641521072387695312e+01 4.770840167999267578e+00 1.938325017690658569e-01 4.886300265789031982e-01 2.047387510538101196e-01 -2.246669232845306396e-01
3.661000000000000000e+03 3.640414047241210938e+01 2.084629440307617188e+01 -2.676993794739246368e-02 9.273768216371536255e-02 1.979032345116138458e-02 -5.623467564582824707e-01
3.662000000000000000e+03 6.586931610107421875e+01 1.589621543884277344e+01 -8.145344257354736328e-01 7.873200893402099609e+00 2.117599964141845703e+00 -9.302171878516674042e-03
3.663000000000000000e+03 6.526055908203125000e+01 1.490289688110351562e+01 -7.610100507736206055e-01 7.575387001037597656e+00 2.044312953948974609e+00 1.177059262990951538e-01
3.664000000000000000e+03 4.005278778076171875e+01 2.130175209045410156e+01 3.530006390064954758e-03 2.698001265525817871e-01 8.199903368949890137e-02 -4.803681373596191406e-01
3.665000000000000000e+03 3.904274368286132812e+01 2.175546455383300781e+01 -5.367561802268028259e-02 1.996565014123916626e-01 4.379426315426826477e-02 -5.248901247978210449e-01
3.666000000000000000e+03 3.836629104614257812e+01 2.300019645690917969e+01 -1.636984497308731079e-01 1.443879455327987671e-01 -5.793151445686817169e-03 -5.513327717781066895e-01
3.667000000000000000e+03 3.880472946166992188e+01 1.376261520385742188e+01 2.715734243392944336e-01 4.974275827407836914e-01 2.307002991437911987e-01 -3.294946253299713135e-01
3.668000000000000000e+03 3.795413970947265625e+01 1.290565109252929688e+01 2.529603242874145508e-01 4.421180486679077148e-01 2.085235118865966797e-01 -3.410303890705108643e-01
3.669000000000000000e+03 6.571794891357421875e+01 9.523509025573730469e+00 -4.664208889007568359e-01 6.991253852844238281e+00 1.957449913024902344e+00 6.386303156614303589e-02
3.670000000000000000e+03 6.565917968750000000e+01 8.555943489074707031e+00 -4.266755580902099609e-01 6.891896724700927734e+00 1.939566254615783691e+00 7.437261193990707397e-02
3.671000000000000000e+03 3.721560668945312500e+01 1.038972091674804688e+01 2.477546036243438721e-01 4.372374415397644043e-01 2.054976224899291992e-01 -3.087578117847442627e-01
3.672000000000000000e+03 3.846698760986328125e+01 1.054717350006103516e+01 2.782196402549743652e-01 6.019154787063598633e-01 2.640405297279357910e-01 -2.658506929874420166e-01
3.673000000000000000e+03 6.718692016601562500e+01 -3.452427148818969727e+00 -6.930901110172271729e-02 6.742538928985595703e+00 2.001969099044799805e+00 5.527310818433761597e-02
3.674000000000000000e+03 6.540504455566406250e+01 -1.242430806159973145e+00 -1.121376082301139832e-01 6.424615383148193359e+00 1.893743395805358887e+00 7.693726569414138794e-02
3.675000000000000000e+03 3.736729049682617188e+01 9.116454124450683594e+00 2.436193078756332397e-01 5.032923221588134766e-01 2.240734845399856567e-01 -2.763121128082275391e-01
3.676000000000000000e+03 6.475898742675781250e+01 1.036125946044921875e+01 -5.077031850814819336e-01 6.871364593505859375e+00 1.909098505973815918e+00 1.572441756725311279e-01
3.677000000000000000e+03 6.557934570312500000e+01 1.141824817657470703e+01 -5.674328207969665527e-01 7.135272979736328125e+00 1.970352053642272949e+00 8.103901147842407227e-02
3.678000000000000000e+03 6.407570648193359375e+01 7.092856407165527344e+00 -3.499445319175720215e-01 6.489904403686523438e+00 1.841987967491149902e+00 1.694749146699905396e-01
3.679000000000000000e+03 3.658789443969726562e+01 -1.244194656610488892e-01 1.532936841249465942e-01 6.176355481147766113e-01 2.312787622213363647e-01 -1.543173342943191528e-01
3.680000000000000000e+03 6.394035339355468750e+01 1.500081777572631836e+00 -1.661145389080047607e-01 6.203730583190917969e+00 1.811284780502319336e+00 1.246739625930786133e-01
3.681000000000000000e+03 6.504124450683593750e+01 5.714426636695861816e-01 -1.457569152116775513e-01 6.397287845611572266e+00 1.875459194183349609e+00 8.865740150213241577e-02
3.682000000000000000e+03 6.438570404052734375e+01 1.186683940887451172e+01 -5.838130116462707520e-01 6.978040218353271484e+00 1.918268203735351562e+00 2.140624970197677612e-01
3.683000000000000000e+03 3.636098861694335938e+01 -4.228433609008789062e+00 1.169536262750625610e-01 6.482254266738891602e-01 2.295537143945693970e-01 -1.158835217356681824e-01
3.684000000000000000e+03 6.511740112304687500e+01 -7.045998573303222656e+00 -3.791324794292449951e-02 6.293922901153564453e+00 1.876802921295166016e+00 7.382944971323013306e-02
3.685000000000000000e+03 6.053706741333007812e+01 -8.659058570861816406e+00 -3.864738857373595238e-03 5.369874477386474609e+00 1.609802961349487305e+00 1.063131913542747498e-01
3.686000000000000000e+03 3.687692260742187500e+01 -1.864292263984680176e+00 1.428266912698745728e-01 6.941671371459960938e-01 2.510981559753417969e-01 -1.350664645433425903e-01
3.687000000000000000e+03 3.327047729492187500e+01 -7.425642013549804688e+00 7.746590673923492432e-02 1.618964821100234985e-01 7.180871814489364624e-02 -1.262567043304443359e-01
3.688000000000000000e+03 3.468622207641601562e+01 -8.126746177673339844e+00 7.352757453918457031e-02 4.029456675052642822e-01 1.429419815540313721e-01 -1.030878350138664246e-01
3.689000000000000000e+03 3.799317932128906250e+01 1.571825408935546875e+01 2.139926552772521973e-01 3.382489681243896484e-01 1.656724810600280762e-01 -4.138624966144561768e-01
3.690000000000000000e+03 3.682741546630859375e+01 1.586170864105224609e+01 1.806622296571731567e-01 2.200351506471633911e-01 1.202092170715332031e-01 -4.551065862178802490e-01
3.691000000000000000e+03 6.241135787963867188e+01 -1.074898910522460938e+01 -5.387001205235719681e-03 5.707703590393066406e+00 1.710694909095764160e+00 8.059187978506088257e-02
3.692000000000000000e+03 3.728185653686523438e+01 -1.020054912567138672e+01 8.208890259265899658e-02 8.900094032287597656e-01 2.916294932365417480e-01 -6.006427481770515442e-02
3.693000000000000000e+03 3.429259490966796875e+01 -1.956623458862304688e+01 4.233793541789054871e-02 3.830835819244384766e-01 1.276264488697052002e-01 -5.115590617060661316e-02
3.694000000000000000e+03 6.145161819458007812e+01 2.489201354980468750e+01 -8.029055595397949219e-01 1.003857517242431641e+01 2.770700931549072266e+00 2.221744775772094727e+00
3.695000000000000000e+03 6.622469329833984375e+01 2.909420585632324219e+01 2.972802162170410156e+00 1.059195709228515625e+01 4.069427967071533203e+00 -1.210797667503356934e+00
3.696000000000000000e+03 6.586968994140625000e+01 2.862309455871582031e+01 2.610538959503173828e+00 1.098638725280761719e+01 4.079077720642089844e+00 -1.401172637939453125e+00
3.697000000000000000e+03 5.942010498046875000e+01 2.590460586547851562e+01 2.283468842506408691e-01 7.373620033264160156e+00 2.280590057373046875e+00 3.733057022094726562e+00
3.698000000000000000e+03 6.079796218872070312e+01 2.589464950561523438e+01 -5.004565715789794922e-01 1.008609008789062500e+01 2.875689983367919922e+00 3.048281431198120117e+00
3.699000000000000000e+03 5.906038284301757812e+01 2.509500694274902344e+01 1.721577346324920654e-01 6.551021575927734375e+00 2.016953706741333008e+00 3.379571676254272461e+00
3.700000000000000000e+03 6.167529678344726562e+01 2.580771255493164062e+01 -7.564703822135925293e-01 1.118775558471679688e+01 3.129385471343994141e+00 2.119398593902587891e+00
3.701000000000000000e+03 5.818441390991210938e+01 2.393966484069824219e+01 2.254604399204254150e-01 5.444338321685791016e+00 1.700939536094665527e+00 2.867287874221801758e+00
3.702000000000000000e+03 6.716609191894531250e+01 3.013487434387207031e+01 2.970376729965209961e+00 9.775832176208496094e+00 3.823862791061401367e+00 -5.758346319198608398e-01
3.703000000000000000e+03 6.716411590576171875e+01 2.832619094848632812e+01 2.111827373504638672e+00 9.996390342712402344e+00 3.632465362548828125e+00 -1.291649818420410156e+00
3.704000000000000000e+03 6.818470764160156250e+01 2.884928131103515625e+01 2.091688871383666992e+00 9.343842506408691406e+00 3.430659532546997070e+00 -1.013396739959716797e+00
3.705000000000000000e+03 6.758264160156250000e+01 2.995562171936035156e+01 2.732650518417358398e+00 9.570318222045898438e+00 3.690890550613403320e+00 -6.231340169906616211e-01
3.706000000000000000e+03 5.207517242431640625e+01 1.999868202209472656e+01 5.029723048210144043e-01 2.193694591522216797e+00 8.090000748634338379e-01 1.047058582305908203e+00
3.707000000000000000e+03 6.746054077148437500e+01 2.601325416564941406e+01 6.636660099029541016e-01 9.919948577880859375e+00 3.175084590911865234e+00 -1.373424768447875977e+00
3.708000000000000000e+03 6.782225799560546875e+01 2.634799575805664062e+01 8.622217774391174316e-01 9.731516838073730469e+00 3.178121566772460938e+00 -1.397320270538330078e+00
3.709000000000000000e+03 5.746564483642578125e+01 2.262772560119628906e+01 2.020141780376434326e-01 4.858606338500976562e+00 1.518186211585998535e+00 2.438906908035278320e+00
3.710000000000000000e+03 6.853804016113281250e+01 2.939003372192382812e+01 2.184184312820434570e+00 9.130468368530273438e+00 3.394396066665649414e+00 -8.019514679908752441e-01
3.711000000000000000e+03 4.410201263427734375e+01 1.983840179443359375e+01 2.477549314498901367e-01 6.457681655883789062e-01 2.680569291114807129e-01 -1.722864210605621338e-01
3.712000000000000000e+03 6.713758087158203125e+01 2.543240737915039062e+01 3.190620243549346924e-01 1.002927589416503906e+01 3.104501485824584961e+00 -1.254451036453247070e+00
3.713000000000000000e+03 6.781585693359375000e+01 2.521930885314941406e+01 3.045675456523895264e-01 9.688812255859375000e+00 2.998013973236083984e+00 -1.296537280082702637e+00
3.714000000000000000e+03 6.644600677490234375e+01 2.315424728393554688e+01 -5.695946812629699707e-01 9.746760368347167969e+00 2.753149747848510742e+00 -6.996138691902160645e-01
3.715000000000000000e+03 6.700877380371093750e+01 2.760179138183593750e+01 1.601274013519287109e+00 1.018595314025878906e+01 3.536168098449707031e+00 -1.410989880561828613e+00
3.716000000000000000e+03 4.347174072265625000e+01 1.954208183288574219e+01 2.431987375020980835e-01 6.150102019309997559e-01 2.574626803398132324e-01 -2.161014229059219360e-01
3.717000000000000000e+03 5.711578750610351562e+01 2.198506355285644531e+01 2.014054059982299805e-01 4.621988773345947266e+00 1.447018265724182129e+00 2.256734848022460938e+00
3.718000000000000000e+03 5.436155319213867188e+01 2.082417106628417969e+01 4.504542052745819092e-01 3.043537855148315430e+00 1.048197627067565918e+00 1.579792380332946777e+00
3.719000000000000000e+03 5.507067108154296875e+01 2.103871917724609375e+01 4.029708206653594971e-01 3.377883672714233398e+00 1.134256362915039062e+00 1.739801287651062012e+00
3.720000000000000000e+03 4.231013107299804688e+01 2.008961677551269531e+01 1.641266494989395142e-01 4.777675271034240723e-01 1.925682425498962402e-01 -3.255585432052612305e-01
3.721000000000000000e+03 4.677441406250000000e+01 1.936451721191406250e+01 3.894925117492675781e-01 1.034478783607482910e+00 4.271914064884185791e-01 1.528764665126800537e-01
3.722000000000000000e+03 4.608901214599609375e+01 2.051914596557617188e+01 2.977408468723297119e-01 7.974666953086853027e-01 3.285622596740722656e-01 8.627530187368392944e-03
3.723000000000000000e+03 6.398218536376953125e+01 1.263006591796875000e+01 -6.190417408943176270e-01 6.970649242401123047e+00 1.905482292175292969e+00 2.918939292430877686e-01
3.724000000000000000e+03 6.446443939208984375e+01 1.542982482910156250e+01 -7.855706214904785156e-01 7.512035846710205078e+00 2.017939567565917969e+00 2.690170705318450928e-01
3.725000000000000000e+03 4.774526977539062500e+01 2.017206954956054688e+01 3.940061330795288086e-01 1.060701608657836914e+00 4.364123046398162842e-01 2.462606877088546753e-01
3.726000000000000000e+03 4.876950836181640625e+01 1.831532287597656250e+01 4.690043032169342041e-01 1.551145315170288086e+00 6.060448884963989258e-01 4.698563814163208008e-01
3.727000000000000000e+03 4.690050125122070312e+01 2.031549072265625000e+01 3.516248464584350586e-01 9.226639270782470703e-01 3.822866380214691162e-01 1.263834089040756226e-01
3.728000000000000000e+03 4.469163131713867188e+01 2.005292320251464844e+01 2.579257488250732422e-01 6.811331510543823242e-01 2.817176580429077148e-01 -1.288758963346481323e-01
3.729000000000000000e+03 5.289165878295898438e+01 1.997939109802246094e+01 4.810620844364166260e-01 2.504351139068603516e+00 8.956239819526672363e-01 1.205958247184753418e+00
3.730000000000000000e+03 5.362735748291015625e+01 2.075762748718261719e+01 4.937776923179626465e-01 2.648081541061401367e+00 9.425577521324157715e-01 1.399168491363525391e+00
3.731000000000000000e+03 5.042213821411132812e+01 1.923482894897460938e+01 4.919381141662597656e-01 1.816446065902709961e+00 6.925152540206909180e-01 7.280113697052001953e-01
3.732000000000000000e+03 6.558964538574218750e+01 2.143238830566406250e+01 -9.036791920661926270e-01 9.315029144287109375e+00 2.523404836654663086e+00 -1.874231994152069092e-01
3.733000000000000000e+03 6.543801879882812500e+01 2.059234809875488281e+01 -9.413640499114990234e-01 8.989885330200195312e+00 2.414556503295898438e+00 -5.355193838477134705e-02
3.734000000000000000e+03 5.127121734619140625e+01 1.921417999267578125e+01 4.920329451560974121e-01 2.072080135345458984e+00 7.692339420318603516e-01 8.836240172386169434e-01
3.735000000000000000e+03 4.282693099975585938e+01 1.919330024719238281e+01 2.400997281074523926e-01 5.861526131629943848e-01 2.478756904602050781e-01 -2.565466761589050293e-01
3.736000000000000000e+03 3.829381179809570312e+01 2.000614929199218750e+01 5.775443464517593384e-02 2.125354260206222534e-01 8.108696341514587402e-02 -5.088961124420166016e-01
3.737000000000000000e+03 3.811503219604492188e+01 2.212249946594238281e+01 -9.542635828256607056e-02 1.507948040962219238e-01 1.661053113639354706e-02 -5.498875379562377930e-01
3.738000000000000000e+03 3.660150909423828125e+01 2.284521675109863281e+01 -1.510905325412750244e-01 8.801391720771789551e-02 -1.892298646271228790e-02 -5.706323981285095215e-01
3.739000000000000000e+03 6.356674194335937500e+01 6.184440135955810547e+00 -3.144832253456115723e-01 6.339131355285644531e+00 1.807394504547119141e+00 1.957904696464538574e-01
3.740000000000000000e+03 6.471564483642578125e+01 3.253962278366088867e+00 -2.192654162645339966e-01 6.409582614898681641e+00 1.857095241546630859e+00 1.086829155683517456e-01
3.741000000000000000e+03 6.805068969726562500e+01 2.971997261047363281e+01 2.474323034286499023e+00 9.337833404541015625e+00 3.543647050857543945e+00 -7.055051326751708984e-01
3.742000000000000000e+03 6.623446655273437500e+01 2.243444824218750000e+01 -7.122644782066345215e-01 9.572612762451171875e+00 2.658104419708251953e+00 -5.389601588249206543e-01
3.743000000000000000e+03 6.482975006103515625e+01 2.153387832641601562e+01 -9.642786979675292969e-01 9.349103927612304688e+00 2.515447616577148438e+00 7.896699011325836182e-02
3.744000000000000000e+03 6.418032836914062500e+01 -4.547619819641113281e-01 -1.215529665350914001e-01 6.200896263122558594e+00 1.823802947998046875e+00 1.075049415230751038e-01
3.745000000000000000e+03 3.942836380004882812e+01 1.188308334350585938e+01 2.945202291011810303e-01 6.395652294158935547e-01 2.802256345748901367e-01 -2.573760747909545898e-01
3.746000000000000000e+03 6.520576477050781250e+01 1.845289611816406250e+01 -9.289057850837707520e-01 8.336485862731933594e+00 2.222274065017700195e+00 9.085409343242645264e-02
3.747000000000000000e+03 3.545301818847656250e+01 2.213564682006835938e+01 -1.049116700887680054e-01 4.217118397355079651e-02 -1.882214471697807312e-02 -5.766053199768066406e-01
3.748000000000000000e+03 6.285996627807617188e+01 1.069277286529541016e+01 -4.883419275283813477e-01 6.526640415191650391e+00 1.811489462852478027e+00 3.484020233154296875e-01
3.749000000000000000e+03 6.468169403076171875e+01 9.477256774902343750e+00 -4.633019268512725830e-01 6.791020393371582031e+00 1.898315548896789551e+00 1.529074907302856445e-01
3.750000000000000000e+03 3.747103500366210938e+01 -3.325133562088012695e+00 1.356051117181777954e-01 8.289659619331359863e-01 2.893713116645812988e-01 -1.126222461462020874e-01
3.751000000000000000e+03 6.469140625000000000e+01 -2.465427637100219727e+00 -8.996886014938354492e-02 6.262543201446533203e+00 1.851772308349609375e+00 9.288118779659271240e-02
3.752000000000000000e+03 3.869764709472656250e+01 9.303666114807128906e+00 2.689194381237030029e-01 6.722640991210937500e-01 2.823550701141357422e-01 -2.348695844411849976e-01
3.753000000000000000e+03 6.177951049804687500e+01 -3.751331090927124023e+00 -5.358839035034179688e-02 5.660696506500244141e+00 1.682132482528686523e+00 1.298035383224487305e-01
3.754000000000000000e+03 3.830509567260742188e+01 8.566191792488098145e-02 1.715797185897827148e-01 9.193294048309326172e-01 3.272727131843566895e-01 -1.183937937021255493e-01
3.755000000000000000e+03 6.408499145507812500e+01 4.707073211669921875e+00 -2.610320448875427246e-01 6.364158153533935547e+00 1.830937862396240234e+00 1.511045098304748535e-01
3.756000000000000000e+03 6.243397140502929688e+01 4.199552536010742188e+00 -2.195450514554977417e-01 5.977050781250000000e+00 1.727251648902893066e+00 2.151677012443542480e-01
3.757000000000000000e+03 3.804014205932617188e+01 3.390345096588134766e+00 2.040589302778244019e-01 7.771127223968505859e-01 2.943514883518218994e-01 -1.637517511844635010e-01
3.758000000000000000e+03 3.752685928344726562e+01 7.784942626953125000e+00 2.370770126581192017e-01 5.642982721328735352e-01 2.404125779867172241e-01 -2.457247972488403320e-01
3.759000000000000000e+03 6.279251861572265625e+01 2.433914184570312500e+00 -1.766706705093383789e-01 5.998666286468505859e+00 1.746598720550537109e+00 1.744082272052764893e-01
3.760000000000000000e+03 6.190749359130859375e+01 -7.986810684204101562e+00 -1.617977581918239594e-02 5.632713794708251953e+00 1.684960246086120605e+00 9.956103563308715820e-02
3.761000000000000000e+03 3.710291671752929688e+01 1.947974395751953125e+01 6.293872743844985962e-02 1.611289083957672119e-01 6.722029298543930054e-02 -5.268293619155883789e-01
3.762000000000000000e+03 6.198785781860351562e+01 -1.232411956787109375e+01 3.189043607562780380e-03 5.609901905059814453e+00 1.683927178382873535e+00 7.371801137924194336e-02
3.763000000000000000e+03 3.948013305664062500e+01 -1.947930335998535156e+01 5.371800437569618225e-02 1.361951112747192383e+00 4.247007369995117188e-01 -1.876377314329147339e-02
3.764000000000000000e+03 3.758237838745117188e+01 -5.619923591613769531e+00 1.156781762838363647e-01 8.859630227088928223e-01 3.004923462867736816e-01 -8.746045827865600586e-02
3.765000000000000000e+03 6.358520126342773438e+01 1.131517505645751953e+01 -5.337328910827636719e-01 6.721038818359375000e+00 1.856191754341125488e+00 3.068750202655792236e-01
3.766000000000000000e+03 3.638175582885742188e+01 -2.080127906799316406e+01 4.711221531033515930e-02 7.965824007987976074e-01 2.531083822250366211e-01 -3.540408238768577576e-02
3.767000000000000000e+03 3.978989791870117188e+01 1.462405395507812500e+01 2.881253063678741455e-01 5.684087872505187988e-01 2.569602429866790771e-01 -3.081731796264648438e-01
3.768000000000000000e+03 6.299842453002929688e+01 -6.938478469848632812e+00 -2.601974457502365112e-02 5.876721858978271484e+00 1.755210638046264648e+00 9.326791763305664062e-02
3.769000000000000000e+03 6.085250473022460938e+01 -1.028729438781738281e+01 3.332637948915362358e-03 5.407042026519775391e+00 1.623112440109252930e+00 9.593340754508972168e-02
3.770000000000000000e+03 6.315341567993164062e+01 7.681659698486328125e+00 -3.647921085357666016e-01 6.338312149047851562e+00 1.792056083679199219e+00 2.499845325946807861e-01
3.771000000000000000e+03 6.495053100585937500e+01 -4.850358963012695312e+00 -5.966018140316009521e-02 6.273646831512451172e+00 1.864196062088012695e+00 7.854882627725601196e-02
3.772000000000000000e+03 6.548561096191406250e+01 2.856529617309570312e+01 2.597664594650268555e+00 1.138672542572021484e+01 4.195317268371582031e+00 -1.476918816566467285e+00
3.773000000000000000e+03 6.270413208007812500e+01 2.594681167602539062e+01 -6.857168674468994141e-01 1.197380828857421875e+01 3.386427402496337891e+00 9.803180694580078125e-01
3.774000000000000000e+03 6.563520812988281250e+01 2.371689987182617188e+01 -6.049069166183471680e-01 1.014431190490722656e+01 2.861821413040161133e+00 -5.085002183914184570e-01
3.775000000000000000e+03 6.418003082275390625e+01 2.743197059631347656e+01 9.406926035881042480e-01 1.273489189147949219e+01 4.102675437927246094e+00 -1.069606304168701172e+00
3.776000000000000000e+03 6.372290802001953125e+01 2.665360450744628906e+01 1.180175412446260452e-02 1.254841899871826172e+01 3.768066167831420898e+00 -3.369067013263702393e-01
3.777000000000000000e+03 6.659399414062500000e+01 2.870505714416503906e+01 2.502005100250244141e+00 1.035595321655273438e+01 3.857387304306030273e+00 -1.277692198753356934e+00
3.778000000000000000e+03 6.499944305419921875e+01 2.284325790405273438e+01 -8.370904326438903809e-01 9.911450386047363281e+00 2.722307920455932617e+00 -1.370406895875930786e-01
3.779000000000000000e+03 6.782459259033203125e+01 2.838159179687500000e+01 1.984204888343811035e+00 9.582270622253417969e+00 3.469942569732666016e+00 -1.193394422531127930e+00
3.780000000000000000e+03 6.555790710449218750e+01 2.813428497314453125e+01 2.116816759109497070e+00 1.135955715179443359e+01 4.042912006378173828e+00 -1.479199409484863281e+00
3.781000000000000000e+03 6.729170989990234375e+01 2.717497825622558594e+01 1.309117674827575684e+00 1.002174186706542969e+01 3.399257898330688477e+00 -1.407207012176513672e+00
3.782000000000000000e+03 6.720577239990234375e+01 2.641206359863281250e+01 8.345729112625122070e-01 1.004737186431884766e+01 3.264583587646484375e+00 -1.385066151618957520e+00
3.783000000000000000e+03 6.661572265625000000e+01 2.955287933349609375e+01 3.072193861007690430e+00 1.021402549743652344e+01 3.985865592956542969e+00 -9.418817758560180664e-01
3.784000000000000000e+03 6.746827697753906250e+01 2.872354698181152344e+01 2.255817651748657227e+00 9.734418869018554688e+00 3.597070932388305664e+00 -1.131360769271850586e+00
3.785000000000000000e+03 6.624263000488281250e+01 2.867488288879394531e+01 2.585879087448120117e+00 1.064195537567138672e+01 3.968350410461425781e+00 -1.338072896003723145e+00
3.786000000000000000e+03 5.867757797241210938e+01 2.358968734741210938e+01 1.182154193520545959e-02 6.119925022125244141e+00 1.839523911476135254e+00 2.820319652557373047e+00
3.787000000000000000e+03 5.959906387329101562e+01 2.369534301757812500e+01 -2.923606932163238525e-01 7.200613498687744141e+00 2.072475671768188477e+00 2.722223997116088867e+00
3.788000000000000000e+03 6.575222015380859375e+01 2.320958328247070312e+01 -6.922321915626525879e-01 9.936305999755859375e+00 2.773222208023071289e+00 -4.536218047142028809e-01
3.789000000000000000e+03 6.627123260498046875e+01 2.389596748352050781e+01 -4.160905480384826660e-01 1.005652236938476562e+01 2.892129659652709961e+00 -7.867273688316345215e-01
3.790000000000000000e+03 6.661580657958984375e+01 2.487075042724609375e+01 -1.279531419277191162e-02 1.018375682830810547e+01 3.051288604736328125e+00 -1.079363107681274414e+00
3.791000000000000000e+03 3.867247772216796875e+01 2.086514282226562500e+01 1.107134204357862473e-02 2.065788805484771729e-01 6.529506295919418335e-02 -5.175988078117370605e-01
3.792000000000000000e+03 4.038392639160156250e+01 1.843520927429199219e+01 1.995649486780166626e-01 4.252051711082458496e-01 1.874310374259948730e-01 -3.832589089870452881e-01
3.793000000000000000e+03 5.961398315429687500e+01 2.530514144897460938e+01 -4.839953407645225525e-02 7.609609603881835938e+00 2.268362998962402344e+00 3.369750738143920898e+00
3.794000000000000000e+03 6.744301605224609375e+01 2.796819496154785156e+01 1.814099431037902832e+00 9.842015266418457031e+00 3.496834278106689453e+00 -1.321603417396545410e+00
3.795000000000000000e+03 6.463542938232421875e+01 2.077060127258300781e+01 -9.918259382247924805e-01 9.007933616638183594e+00 2.404832124710083008e+00 2.038135677576065063e-01
3.796000000000000000e+03 5.695867156982421875e+01 2.288088226318359375e+01 3.390338420867919922e-01 4.353274822235107422e+00 1.407692551612854004e+00 2.399186134338378906e+00
3.797000000000000000e+03 4.396218490600585938e+01 1.873767471313476562e+01 3.086565136909484863e-01 7.392469048500061035e-01 3.143710196018218994e-01 -1.393415331840515137e-01
3.798000000000000000e+03 4.636657714843750000e+01 1.850415039062500000e+01 4.058400392532348633e-01 1.079564690589904785e+00 4.456214010715484619e-01 1.374117285013198853e-01
3.799000000000000000e+03 4.033204269409179688e+01 1.979854202270507812e+01 1.156901344656944275e-01 3.511113822460174561e-01 1.400404572486877441e-01 -4.302453100681304932e-01
3.800000000000000000e+03 5.610076141357421875e+01 2.080205345153808594e+01 2.551748156547546387e-01 4.063907623291015625e+00 1.295724749565124512e+00 1.893946647644042969e+00
3.801000000000000000e+03 5.629333496093750000e+01 2.182184219360351562e+01 3.195367753505706787e-01 4.005053997039794922e+00 1.297377228736877441e+00 2.074757337570190430e+00
3.802000000000000000e+03 3.954956817626953125e+01 2.040443038940429688e+01 6.054149568080902100e-02 2.788776457309722900e-01 1.018257364630699158e-01 -4.796533882617950439e-01
3.803000000000000000e+03 5.796099090576171875e+01 2.234595680236816406e+01 4.231959581375122070e-02 5.356350421905517578e+00 1.619601011276245117e+00 2.417275667190551758e+00
3.804000000000000000e+03 5.780395889282226562e+01 2.329023933410644531e+01 2.164420485496520996e-01 5.132479190826416016e+00 1.604676365852355957e+00 2.645232200622558594e+00
3.805000000000000000e+03 6.444712066650390625e+01 1.404870510101318359e+01 -7.033600807189941406e-01 7.283638954162597656e+00 1.974083662033081055e+00 2.381024509668350220e-01
3.806000000000000000e+03 6.237055969238281250e+01 1.137886333465576172e+01 -4.985201954841613770e-01 6.444249629974365234e+00 1.783718824386596680e+00 4.237306416034698486e-01
3.807000000000000000e+03 4.770477294921875000e+01 1.917513847351074219e+01 4.292719066143035889e-01 1.205483078956604004e+00 4.904264807701110840e-01 2.793600261211395264e-01
3.808000000000000000e+03 5.123935699462890625e+01 2.002853012084960938e+01 5.070821642875671387e-01 1.905552029609680176e+00 7.237902283668518066e-01 8.781409859657287598e-01
3.809000000000000000e+03 3.864806747436523438e+01 1.808786201477050781e+01 1.609880924224853516e-01 2.979371845722198486e-01 1.376775801181793213e-01 -4.521784782409667969e-01
3.810000000000000000e+03 3.927598571777343750e+01 1.587790298461914062e+01 2.447351962327957153e-01 4.516555070877075195e-01 2.089172154664993286e-01 -3.660483062267303467e-01
3.811000000000000000e+03 6.259612655639648438e+01 2.488242721557617188e+01 -8.877503275871276855e-01 1.084951496124267578e+01 2.988529443740844727e+00 1.211657404899597168e+00
3.812000000000000000e+03 4.864340591430664062e+01 1.920938873291015625e+01 4.579671323299407959e-01 1.396126508712768555e+00 5.562281012535095215e-01 4.258053302764892578e-01
3.813000000000000000e+03 5.049052429199218750e+01 1.842731094360351562e+01 4.806321859359741211e-01 1.974860548973083496e+00 7.366478443145751953e-01 7.409828901290893555e-01
3.814000000000000000e+03 5.466049194335937500e+01 1.929154586791992188e+01 3.184309005737304688e-01 3.447575330734252930e+00 1.129801869392395020e+00 1.481515407562255859e+00
3.815000000000000000e+03 6.496566009521484375e+01 1.621966934204101562e+01 -8.403969407081604004e-01 7.779374122619628906e+00 2.081693172454833984e+00 1.854995936155319214e-01
3.816000000000000000e+03 3.776136398315429688e+01 2.126517868041992188e+01 -3.477485477924346924e-02 1.522340178489685059e-01 3.523774817585945129e-02 -5.460744500160217285e-01
3.817000000000000000e+03 6.357767868041992188e+01 2.063888740539550781e+01 -1.006918072700500488e+00 8.762073516845703125e+00 2.326546669006347656e+00 6.229522824287414551e-01
3.818000000000000000e+03 6.475196075439453125e+01 1.934626007080078125e+01 -9.691901803016662598e-01 8.545636177062988281e+00 2.272933721542358398e+00 2.146941721439361572e-01
3.819000000000000000e+03 6.273529815673828125e+01 9.322589874267578125e+00 -4.160584211349487305e-01 6.335963249206542969e+00 1.775971412658691406e+00 3.265696763992309570e-01
3.820000000000000000e+03 6.405722045898437500e+01 1.064558696746826172e+01 -5.086460709571838379e-01 6.756124496459960938e+00 1.874243497848510742e+00 2.323237359523773193e-01
3.821000000000000000e+03 6.297281646728515625e+01 4.569736719131469727e-01 -1.329786628484725952e-01 5.961941719055175781e+00 1.748688817024230957e+00 1.480163931846618652e-01
3.822000000000000000e+03 6.203436660766601562e+01 5.730350494384765625e+00 -2.577646970748901367e-01 5.954127311706542969e+00 1.708908796310424805e+00 2.623308598995208740e-01
3.823000000000000000e+03 4.510794830322265625e+01 1.847181129455566406e+01 3.633409142494201660e-01 9.124255180358886719e-01 3.827299177646636963e-01 -1.393201667815446854e-02
3.824000000000000000e+03 4.562174606323242188e+01 1.904720115661621094e+01 3.536244928836822510e-01 9.035664200782775879e-01 3.771572709083557129e-01 2.086793817579746246e-02
3.825000000000000000e+03 4.043719482421875000e+01 1.152505970001220703e+01 3.179465532302856445e-01 8.317857980728149414e-01 3.449197113513946533e-01 -1.979627311229705811e-01
3.826000000000000000e+03 6.334969329833984375e+01 -1.560149908065795898e+00 -1.022378951311111450e-01 5.994918823242187500e+00 1.767804265022277832e+00 1.197899505496025085e-01
3.827000000000000000e+03 3.960606765747070312e+01 3.670711278915405273e+00 2.247179299592971802e-01 1.038187265396118164e+00 3.788715600967407227e-01 -1.141619235277175903e-01
3.828000000000000000e+03 3.998014450073242188e+01 1.960326582193374634e-01 1.887065172195434570e-01 1.207401871681213379e+00 4.188325107097625732e-01 -7.296364754438400269e-02
3.829000000000000000e+03 3.843734741210937500e+01 -1.547716975212097168e+00 1.605943739414215088e-01 9.823845624923706055e-01 3.428936898708343506e-01 -9.982667118310928345e-02
3.830000000000000000e+03 3.890188598632812500e+01 7.989039421081542969e+00 2.668950259685516357e-01 7.520309686660766602e-01 3.056778013706207275e-01 -2.014158070087432861e-01
3.831000000000000000e+03 3.982697296142578125e+01 -3.114949703216552734e+00 1.468857675790786743e-01 1.251380801200866699e+00 4.194799959659576416e-01 -6.206450983881950378e-02
3.832000000000000000e+03 6.446740722656250000e+01 1.729471969604492188e+01 -8.839587569236755371e-01 7.908905029296875000e+00 2.107483863830566406e+00 2.800270318984985352e-01
3.833000000000000000e+03 6.173645401000976562e+01 1.079359912872314453e+01 -4.439977109432220459e-01 6.222026348114013672e+00 1.733408570289611816e+00 4.751054644584655762e-01
3.834000000000000000e+03 6.311391448974609375e+01 1.201688194274902344e+01 -5.568946599960327148e-01 6.695106029510498047e+00 1.841463446617126465e+00 3.692181110382080078e-01
3.835000000000000000e+03 3.785075759887695312e+01 4.929213047027587891e+00 2.198796868324279785e-01 7.100662589073181152e-01 2.789838016033172607e-01 -1.887376159429550171e-01
3.836000000000000000e+03 3.768465805053710938e+01 6.391777992248535156e+00 2.266689985990524292e-01 6.320185065269470215e-01 2.576062381267547607e-01 -2.153785526752471924e-01
3.837000000000000000e+03 6.166610336303710938e+01 3.253488302230834961e+00 -1.842046678066253662e-01 5.768876075744628906e+00 1.675401329994201660e+00 2.305413782596588135e-01
3.838000000000000000e+03 6.335705947875976562e+01 -1.304439830780029297e+01 1.972840866073966026e-03 5.895895957946777344e+00 1.769360661506652832e+00 7.369757443666458130e-02
3.839000000000000000e+03 6.398605346679687500e+01 -5.886470794677734375e+00 -4.389405250549316406e-02 6.069399356842041016e+00 1.807651519775390625e+00 9.629677236080169678e-02
3.840000000000000000e+03 6.106279754638671875e+01 -6.621922492980957031e+00 -1.951404288411140442e-02 5.467153072357177734e+00 1.634291768074035645e+00 1.173816099762916565e-01
3.841000000000000000e+03 3.617405700683593750e+01 -6.888317584991455078e+00 9.675110876560211182e-02 6.588380932807922363e-01 2.266767621040344238e-01 -9.642569720745086670e-02
3.842000000000000000e+03 3.599156188964843750e+01 -1.037581443786621094e+01 9.335433691740036011e-02 6.928560733795166016e-01 2.358631193637847900e-01 -7.232511788606643677e-02
3.843000000000000000e+03 3.712920379638671875e+01 -8.547258377075195312e+00 8.842061460018157959e-02 8.328474164009094238e-01 2.763804197311401367e-01 -7.558423280715942383e-02
3.844000000000000000e+03 3.144913482666015625e+01 -9.424530029296875000e+00 4.489945247769355774e-02 -1.694405525922775269e-01 -3.736232966184616089e-02 -1.121019646525382996e-01
3.845000000000000000e+03 3.264010238647460938e+01 -1.086729240417480469e+01 5.107346549630165100e-02 3.054130636155605316e-02 2.448443137109279633e-02 -1.060073673725128174e-01
3.846000000000000000e+03 6.115790939331054688e+01 -1.699863791465759277e+00 -7.659701257944107056e-02 5.541761398315429688e+00 1.639549255371093750e+00 1.592775583267211914e-01
3.847000000000000000e+03 6.151617431640625000e+01 4.803540706634521484e+00 -2.157347500324249268e-01 5.819399833679199219e+00 1.681099534034729004e+00 2.647280395030975342e-01
3.848000000000000000e+03 6.450450897216796875e+01 2.815707778930664062e+01 1.975508332252502441e+00 1.258039951324462891e+01 4.366772174835205078e+00 -1.465970396995544434e+00
3.849000000000000000e+03 6.629863739013671875e+01 2.826377487182617188e+01 2.193989038467407227e+00 1.064789104461669922e+01 3.852564096450805664e+00 -1.412782669067382812e+00
3.850000000000000000e+03 6.393368148803710938e+01 2.708094024658203125e+01 4.692980647087097168e-01 1.270571613311767578e+01 3.952504396438598633e+00 -7.201203107833862305e-01
3.851000000000000000e+03 6.490953063964843750e+01 2.667632102966308594e+01 5.562592148780822754e-01 1.171550273895263672e+01 3.681528806686401367e+00 -1.063994526863098145e+00
3.852000000000000000e+03 5.951554489135742188e+01 2.472423553466796875e+01 -1.326365172863006592e-01 7.347797870635986328e+00 2.164548397064208984e+00 3.136174440383911133e+00
3.853000000000000000e+03 6.197972488403320312e+01 2.526967620849609375e+01 -8.393495678901672363e-01 1.091867256164550781e+01 3.023796796798706055e+00 1.757386326789855957e+00
3.854000000000000000e+03 6.055154037475585938e+01 2.493305015563964844e+01 -5.210850834846496582e-01 8.931781768798828125e+00 2.523209095001220703e+00 2.864788532257080078e+00
3.855000000000000000e+03 6.434969329833984375e+01 2.295343017578125000e+01 -9.230942130088806152e-01 9.964120864868164062e+00 2.712307929992675781e+00 1.673375964164733887e-01
3.856000000000000000e+03 6.708296203613281250e+01 2.899729156494140625e+01 2.561589956283569336e+00 9.954382896423339844e+00 3.754791975021362305e+00 -1.096322059631347656e+00
3.857000000000000000e+03 6.689449310302734375e+01 2.860067749023437500e+01 2.349370956420898438e+00 1.015361404418945312e+01 3.750895500183105469e+00 -1.259214401245117188e+00
3.858000000000000000e+03 6.663920593261718750e+01 2.836970520019531250e+01 2.240434885025024414e+00 1.037541866302490234e+01 3.784756183624267578e+00 -1.356096029281616211e+00
3.859000000000000000e+03 6.665186309814453125e+01 2.911366081237792969e+01 2.802085638046264648e+00 1.024560928344726562e+01 3.914308547973632812e+00 -1.118420958518981934e+00
3.860000000000000000e+03 6.650581359863281250e+01 2.737224197387695312e+01 1.428121328353881836e+00 1.053705120086669922e+01 3.589551925659179688e+00 -1.433246493339538574e+00
3.861000000000000000e+03 6.599022674560546875e+01 2.776480293273925781e+01 1.743259072303771973e+00 1.094514465332031250e+01 3.806520938873291016e+00 -1.454423785209655762e+00
3.862000000000000000e+03 6.547070312500000000e+01 2.697996520996093750e+01 9.699165225028991699e-01 1.136059188842773438e+01 3.699152708053588867e+00 -1.301957845687866211e+00
3.863000000000000000e+03 6.428677368164062500e+01 2.774498176574707031e+01 1.367268681526184082e+00 1.267555618286132812e+01 4.212847232818603516e+00 -1.271318793296813965e+00
3.864000000000000000e+03 6.013123321533203125e+01 2.327327156066894531e+01 -5.103205442428588867e-01 7.708135604858398438e+00 2.159344673156738281e+00 2.453695774078369141e+00
3.865000000000000000e+03 6.426450347900390625e+01 2.351922798156738281e+01 -8.767995238304138184e-01 1.021698951721191406e+01 2.802057027816772461e+00 1.483911722898483276e-01
3.866000000000000000e+03 6.319243240356445312e+01 2.523987579345703125e+01 -7.545883059501647949e-01 1.143568134307861328e+01 3.204328060150146484e+00 5.963410139083862305e-01
3.867000000000000000e+03 6.351935195922851562e+01 2.620031166076660156e+01 -3.374648988246917725e-01 1.219599723815917969e+01 3.557559728622436523e+00 5.043204873800277710e-02
3.868000000000000000e+03 6.053140640258789062e+01 2.391163635253906250e+01 -6.025116443634033203e-01 8.467353820800781250e+00 2.359452724456787109e+00 2.508848667144775391e+00
3.869000000000000000e+03 6.563525390625000000e+01 2.268709754943847656e+01 -7.640255093574523926e-01 9.823499679565429688e+00 2.717842340469360352e+00 -3.904390037059783936e-01
3.870000000000000000e+03 6.520011901855468750e+01 2.339470863342285156e+01 -7.555184960365295410e-01 1.013671398162841797e+01 2.814358711242675781e+00 -3.000376522541046143e-01
3.871000000000000000e+03 6.593434143066406250e+01 2.453311729431152344e+01 -3.017325997352600098e-01 1.035737037658691406e+01 3.016691446304321289e+00 -8.050881624221801758e-01
3.872000000000000000e+03 6.661795806884765625e+01 2.582042503356933594e+01 4.347782135009765625e-01 1.035858726501464844e+01 3.238009691238403320e+00 -1.250343799591064453e+00
3.873000000000000000e+03 6.342502975463867188e+01 2.145455741882324219e+01 -1.017529368400573730e+00 9.058636665344238281e+00 2.412332296371459961e+00 6.906561255455017090e-01
3.874000000000000000e+03 6.492458343505859375e+01 2.220600700378417969e+01 -9.266226291656494141e-01 9.611975669860839844e+00 2.605606079101562500e+00 5.019466858357191086e-03
3.875000000000000000e+03 3.798387527465820312e+01 1.912377929687500000e+01 9.756074100732803345e-02 2.162768542766571045e-01 9.415128082036972046e-02 -4.979968667030334473e-01
3.876000000000000000e+03 4.088967895507812500e+01 1.513189983367919922e+01 3.005931079387664795e-01 6.555909514427185059e-01 2.868552207946777344e-01 -2.571035325527191162e-01
3.877000000000000000e+03 4.384094238281250000e+01 1.752928733825683594e+01 3.490996956825256348e-01 8.410355448722839355e-01 3.570405840873718262e-01 -1.034908890724182129e-01
3.878000000000000000e+03 6.313775634765625000e+01 2.110633850097656250e+01 -1.001973152160644531e+00 8.802841186523437500e+00 2.340260505676269531e+00 8.130832314491271973e-01
3.879000000000000000e+03 4.048499298095703125e+01 1.717420578002929688e+01 2.460140138864517212e-01 4.977398812770843506e-01 2.231261581182479858e-01 -3.438098728656768799e-01
3.880000000000000000e+03 4.267577362060546875e+01 1.796614646911621094e+01 2.927451133728027344e-01 6.730744838714599609e-01 2.897458970546722412e-01 -2.201455384492874146e-01
3.881000000000000000e+03 5.715780258178710938e+01 2.101862144470214844e+01 9.790617972612380981e-02 4.742790699005126953e+00 1.452208995819091797e+00 2.070950746536254883e+00
3.882000000000000000e+03 6.351127624511718750e+01 1.335668182373046875e+01 -6.427770853042602539e-01 6.969993591308593750e+00 1.898164987564086914e+00 3.662855923175811768e-01
3.883000000000000000e+03 6.437990570068359375e+01 1.812622070312500000e+01 -9.240447878837585449e-01 8.109075546264648438e+00 2.155509233474731445e+00 3.237823545932769775e-01
3.884000000000000000e+03 4.595432281494140625e+01 1.973619079589843750e+01 3.333657681941986084e-01 8.630826473236083984e-01 3.589345216751098633e-01 2.829363197088241577e-02
3.885000000000000000e+03 3.779891967773437500e+01 1.814122772216796875e+01 1.389528363943099976e-01 2.377349734306335449e-01 1.130063459277153015e-01 -4.807388186454772949e-01
3.886000000000000000e+03 3.909599685668945312e+01 1.959456443786621094e+01 9.765124320983886719e-02 2.730335593223571777e-01 1.112054437398910522e-01 -4.765592515468597412e-01
3.887000000000000000e+03 3.785815811157226562e+01 1.699755668640136719e+01 1.820797324180603027e-01 2.790656685829162598e-01 1.383436173200607300e-01 -4.534257948398590088e-01
3.888000000000000000e+03 3.684896087646484375e+01 2.170805740356445312e+01 -7.413376122713088989e-02 1.004256308078765869e-01 7.887559942901134491e-03 -5.649475455284118652e-01
3.889000000000000000e+03 4.333751296997070312e+01 1.835282897949218750e+01 2.997536361217498779e-01 7.096545100212097168e-01 3.028224408626556396e-01 -1.776529848575592041e-01
3.890000000000000000e+03 4.162195587158203125e+01 1.964607429504394531e+01 1.717455983161926270e-01 4.538946747779846191e-01 1.876920759677886963e-01 -3.532407283782958984e-01
3.891000000000000000e+03 5.293028640747070312e+01 1.917748641967773438e+01 4.445430338382720947e-01 2.670788288116455078e+00 9.345993995666503906e-01 1.184199690818786621e+00
3.892000000000000000e+03 5.210087203979492188e+01 1.918801879882812500e+01 4.730908572673797607e-01 2.355091094970703125e+00 8.484545946121215820e-01 1.030710339546203613e+00
3.893000000000000000e+03 5.662915420532226562e+01 2.037842750549316406e+01 1.356279850006103516e-01 4.440701484680175781e+00 1.372898817062377930e+00 1.878763079643249512e+00
3.894000000000000000e+03 4.047472763061523438e+01 1.618956565856933594e+01 2.755195498466491699e-01 5.542603731155395508e-01 2.489339858293533325e-01 -3.114693462848663330e-01
3.895000000000000000e+03 4.198455047607421875e+01 1.757646560668945312e+01 2.822979688644409180e-01 6.284743547439575195e-01 2.732316851615905762e-01 -2.574582993984222412e-01
3.896000000000000000e+03 6.416422271728515625e+01 2.173812294006347656e+01 -9.926062822341918945e-01 9.325033187866210938e+00 2.499728202819824219e+00 3.540438711643218994e-01
3.897000000000000000e+03 4.899250793457031250e+01 1.749661827087402344e+01 4.618395268917083740e-01 1.720750808715820312e+00 6.547771096229553223e-01 5.061829090118408203e-01
3.898000000000000000e+03 5.847967910766601562e+01 2.207040214538574219e+01 -1.120762825012207031e-01 5.846710681915283203e+00 1.720390319824218750e+00 2.371899127960205078e+00
3.899000000000000000e+03 4.925542068481445312e+01 1.681400108337402344e+01 4.594896137714385986e-01 1.880659937858581543e+00 7.020448446273803711e-01 5.452190041542053223e-01
3.900000000000000000e+03 5.131464385986328125e+01 1.840089416503906250e+01 4.652773737907409668e-01 2.228473901748657227e+00 8.081253767013549805e-01 8.764471411705017090e-01
3.901000000000000000e+03 6.218724060058593750e+01 8.292729377746582031e+00 -3.651669621467590332e-01 6.145283222198486328e+00 1.734034895896911621e+00 3.333237469196319580e-01
3.902000000000000000e+03 6.387239837646484375e+01 8.399889945983886719e+00 -4.026609957218170166e-01 6.524520397186279297e+00 1.836557865142822266e+00 2.110532224178314209e-01
3.903000000000000000e+03 5.377908325195312500e+01 1.920445823669433594e+01 3.899065256118774414e-01 3.035957098007202148e+00 1.027759075164794922e+00 1.330057740211486816e+00
3.904000000000000000e+03 5.955450057983398438e+01 5.453568935394287109e+00 -1.737469583749771118e-01 5.365910530090332031e+00 1.557649016380310059e+00 3.576126694679260254e-01
3.905000000000000000e+03 5.212812805175781250e+01 1.836867332458496094e+01 4.452824592590332031e-01 2.504070281982421875e+00 8.848058581352233887e-01 1.012521028518676758e+00
3.906000000000000000e+03 6.286874771118164062e+01 1.677564048767089844e+01 -8.067759275436401367e-01 7.398732185363769531e+00 1.977586865425109863e+00 6.555963158607482910e-01
3.907000000000000000e+03 6.339496612548828125e+01 1.003797912597656250e+01 -4.754649698734283447e-01 6.576365947723388672e+00 1.830270290374755859e+00 2.923319041728973389e-01
3.908000000000000000e+03 6.210656356811523438e+01 1.003156089782714844e+01 -4.240111410617828369e-01 6.248053550720214844e+00 1.747212767601013184e+00 3.959237635135650635e-01
3.909000000000000000e+03 3.908633422851562500e+01 6.615162372589111328e+00 2.505598366260528564e-01 8.308131098747253418e-01 3.244118690490722656e-01 -1.714262068271636963e-01
3.910000000000000000e+03 4.573679351806640625e+01 1.782871246337890625e+01 4.014573991298675537e-01 1.080776691436767578e+00 4.446702301502227783e-01 8.373751491308212280e-02
3.911000000000000000e+03 6.179622650146484375e+01 1.200465393066406250e+01 -4.998555481433868408e-01 6.346606254577636719e+00 1.754025220870971680e+00 5.282750725746154785e-01
3.912000000000000000e+03 3.967585754394531250e+01 1.080325984954833984e+01 2.997179031372070312e-01 7.469840049743652344e-01 3.140105605125427246e-01 -2.162346094846725464e-01
3.913000000000000000e+03 4.268321990966796875e+01 1.600758552551269531e+01 3.435330092906951904e-01 8.233175873756408691e-01 3.500551879405975342e-01 -1.588594317436218262e-01
3.914000000000000000e+03 6.070529556274414062e+01 2.341828584671020508e+00 -1.342755556106567383e-01 5.544664859771728516e+00 1.623116731643676758e+00 2.302969396114349365e-01
3.915000000000000000e+03 4.029475784301757812e+01 8.255073547363281250e+00 2.919769883155822754e-01 9.558794498443603516e-01 3.743569254875183105e-01 -1.462637633085250854e-01
3.916000000000000000e+03 6.310887908935546875e+01 1.538196945190429688e+01 -7.417269945144653320e-01 7.195010185241699219e+00 1.935984849929809570e+00 5.135493278503417969e-01
3.917000000000000000e+03 6.241183853149414062e+01 1.467790794372558594e+01 -6.604200601577758789e-01 6.856235027313232422e+00 1.858744502067565918e+00 6.017985343933105469e-01
3.918000000000000000e+03 6.204454803466796875e+01 -6.087369918823242188e-01 -9.920390695333480835e-02 5.749536514282226562e+00 1.695099830627441406e+00 1.577504128217697144e-01
3.919000000000000000e+03 6.202304840087890625e+01 -5.770520210266113281e+00 -3.788220137357711792e-02 5.681498527526855469e+00 1.693084955215454102e+00 1.074362248182296753e-01
3.920000000000000000e+03 5.993409729003906250e+01 -7.188097000122070312e+00 -1.010127179324626923e-02 5.257304191589355469e+00 1.574160933494567871e+00 1.160908490419387817e-01
3.921000000000000000e+03 3.837353897094726562e+01 -4.266891956329345703e+00 1.370789855718612671e-01 1.024749040603637695e+00 3.485484123229980469e-01 -8.553567528724670410e-02
3.922000000000000000e+03 5.515449523925781250e+01 -7.491733551025390625e+00 3.452738001942634583e-02 4.263045787811279297e+00 1.289271950721740723e+00 1.294604986906051636e-01
3.923000000000000000e+03 6.022172927856445312e+01 -1.330794906616210938e+01 1.594539545476436615e-02 5.266264438629150391e+00 1.584662914276123047e+00 7.422905415296554565e-02
3.924000000000000000e+03 6.012736892700195312e+01 -1.459960460662841797e+01 1.863519474864006042e-02 5.237084388732910156e+00 1.576715946197509766e+00 7.394601404666900635e-02
3.925000000000000000e+03 6.156695938110351562e+01 -1.371377372741699219e+01 1.560202427208423615e-02 5.544274806976318359e+00 1.667963027954101562e+00 6.537654995918273926e-02
3.926000000000000000e+03 6.282012557983398438e+01 -1.440870952606201172e+01 1.097885333001613617e-02 5.780210018157958984e+00 1.737356662750244141e+00 6.533991545438766479e-02
3.927000000000000000e+03 6.106768417358398438e+01 6.169068813323974609e+00 -2.477310448884963989e-01 5.740933418273925781e+00 1.647960782051086426e+00 3.218978643417358398e-01
3.928000000000000000e+03 6.257268524169921875e+01 6.708240032196044922e+00 -3.124154806137084961e-01 6.130253314971923828e+00 1.745351314544677734e+00 2.672520577907562256e-01
3.929000000000000000e+03 6.161534500122070312e+01 7.195218563079833984e+00 -2.938889861106872559e-01 5.920491695404052734e+00 1.687980771064758301e+00 3.278060853481292725e-01
3.930000000000000000e+03 6.076828765869140625e+01 4.113577365875244141e+00 -1.826706230640411377e-01 5.599209785461425781e+00 1.624961733818054199e+00 2.815319001674652100e-01
3.931000000000000000e+03 6.593003082275390625e+01 2.819365119934082031e+01 2.180881023406982422e+00 1.098008346557617188e+01 3.948289394378662109e+00 -1.462511777877807617e+00
3.932000000000000000e+03 6.505158233642578125e+01 2.821518135070800781e+01 2.152477502822875977e+00 1.185333251953125000e+01 4.201743125915527344e+00 -1.486331462860107422e+00
3.933000000000000000e+03 6.461650085449218750e+01 2.722785186767578125e+01 9.217002987861633301e-01 1.217646980285644531e+01 3.929450988769531250e+00 -1.155996322631835938e+00
3.934000000000000000e+03 6.333187866210937500e+01 2.572671508789062500e+01 -5.808928012847900391e-01 1.179735565185546875e+01 3.364938735961914062e+00 3.643276691436767578e-01
3.935000000000000000e+03 6.004216003417968750e+01 2.436364555358886719e+01 -3.833954930305480957e-01 8.001634597778320312e+00 2.285471677780151367e+00 2.864106893539428711e+00
3.936000000000000000e+03 6.479714965820312500e+01 2.623636817932128906e+01 2.018939256668090820e-01 1.159111785888671875e+01 3.537903547286987305e+00 -8.579949140548706055e-01
3.937000000000000000e+03 6.258274841308593750e+01 2.538283538818359375e+01 -8.188232779502868652e-01 1.136493396759033203e+01 3.163833141326904297e+00 1.188741207122802734e+00
3.938000000000000000e+03 6.180684280395507812e+01 2.442970466613769531e+01 -8.886854648590087891e-01 1.005269908905029297e+01 2.749203920364379883e+00 1.806227684020996094e+00
3.939000000000000000e+03 6.443016815185546875e+01 2.683820915222167969e+01 4.941556155681610107e-01 1.214778995513916016e+01 3.792583703994750977e+00 -9.130536913871765137e-01
3.940000000000000000e+03 6.529483032226562500e+01 2.616600227355957031e+01 3.244636952877044678e-01 1.126116371154785156e+01 3.475688219070434570e+00 -1.021160840988159180e+00
3.941000000000000000e+03 6.647206878662109375e+01 2.647893524169921875e+01 7.447292804718017578e-01 1.046347808837890625e+01 3.362462282180786133e+00 -1.301192641258239746e+00
3.942000000000000000e+03 6.365049362182617188e+01 2.248062515258789062e+01 -9.927124977111816406e-01 9.586068153381347656e+00 2.578006505966186523e+00 5.750185251235961914e-01
3.943000000000000000e+03 5.913180541992187500e+01 2.318394660949707031e+01 -1.989832818508148193e-01 6.637803554534912109e+00 1.931646108627319336e+00 2.621809959411621094e+00
3.944000000000000000e+03 6.527969360351562500e+01 2.425392150878906250e+01 -5.293143987655639648e-01 1.047378349304199219e+01 2.983340740203857422e+00 -5.059345960617065430e-01
3.945000000000000000e+03 6.615991973876953125e+01 2.539946937561035156e+01 1.333003640174865723e-01 1.053860473632812500e+01 3.201571464538574219e+00 -1.088789820671081543e+00
3.946000000000000000e+03 6.377667999267578125e+01 2.503105354309082031e+01 -6.785992383956909180e-01 1.119708347320556641e+01 3.155545234680175781e+00 1.982726752758026123e-01
3.947000000000000000e+03 6.473552703857421875e+01 2.385914611816406250e+01 -7.510050535202026367e-01 1.040177059173583984e+01 2.895229578018188477e+00 -1.575249284505844116e-01
3.948000000000000000e+03 5.829911041259765625e+01 2.299767112731933594e+01 3.918519243597984314e-02 5.658082962036132812e+00 1.709180474281311035e+00 2.601501941680908203e+00
3.949000000000000000e+03 4.313844299316406250e+01 1.401591205596923828e+01 3.700322508811950684e-01 1.034115552902221680e+00 4.212443232536315918e-01 -7.117147743701934814e-02
3.950000000000000000e+03 4.154282760620117188e+01 1.834186935424804688e+01 2.358303517103195190e-01 5.294457077980041504e-01 2.295828163623809814e-01 -3.160543143749237061e-01
3.951000000000000000e+03 4.183970260620117188e+01 1.557863426208496094e+01 3.231215178966522217e-01 7.447029948234558105e-01 3.203473389148712158e-01 -2.102916538715362549e-01
3.952000000000000000e+03 5.667532730102539062e+01 2.139497375488281250e+01 2.154210209846496582e-01 4.363558292388916016e+00 1.373693823814392090e+00 2.078461885452270508e+00
3.953000000000000000e+03 6.682785034179687500e+01 2.631748390197753906e+01 7.067203521728515625e-01 1.029309844970703125e+01 3.299945592880249023e+00 -1.323468089103698730e+00
3.954000000000000000e+03 4.989470672607421875e+01 1.697037124633789062e+01 4.485509097576141357e-01 2.029857397079467773e+00 7.435224652290344238e-01 6.358821988105773926e-01
3.955000000000000000e+03 5.134454345703125000e+01 1.757702255249023438e+01 4.404357671737670898e-01 2.376663684844970703e+00 8.451298475265502930e-01 8.621318340301513672e-01
3.956000000000000000e+03 6.398036575317382812e+01 1.890701293945312500e+01 -9.564107060432434082e-01 8.257902145385742188e+00 2.190447330474853516e+00 4.557450711727142334e-01
3.957000000000000000e+03 5.295820236206054688e+01 1.835902404785156250e+01 4.014547169208526611e-01 2.817561149597167969e+00 9.657047390937805176e-01 1.140305995941162109e+00
3.958000000000000000e+03 4.703147888183593750e+01 1.771963500976562500e+01 4.332539737224578857e-01 1.270018935203552246e+00 5.109818577766418457e-01 2.297796458005905151e-01
3.959000000000000000e+03 5.056124877929687500e+01 1.764840507507324219e+01 4.602980911731719971e-01 2.114985942840576172e+00 7.725852131843566895e-01 7.383360266685485840e-01
3.960000000000000000e+03 3.978635787963867188e+01 1.906312370300292969e+01 1.435577869415283203e-01 3.533771932125091553e-01 1.490805000066757202e-01 -4.360769391059875488e-01
3.961000000000000000e+03 4.218170547485351562e+01 1.879205894470214844e+01 2.352559417486190796e-01 5.575067996978759766e-01 2.378288209438323975e-01 -2.877725660800933838e-01
3.962000000000000000e+03 6.355636215209960938e+01 2.194476318359375000e+01 -1.010277032852172852e+00 9.299402236938476562e+00 2.486737489700317383e+00 6.331980228424072266e-01
3.963000000000000000e+03 6.427769470214843750e+01 2.234217071533203125e+01 -9.636756777763366699e-01 9.626006126403808594e+00 2.598699331283569336e+00 2.563121914863586426e-01
3.964000000000000000e+03 3.872622299194335938e+01 1.885389328002929688e+01 1.250002086162567139e-01 2.758256196975708008e-01 1.202477514743804932e-01 -4.713957309722900391e-01
3.965000000000000000e+03 4.510058212280273438e+01 1.715995597839355469e+01 3.954225778579711914e-01 1.049836635589599609e+00 4.335777759552001953e-01 2.744311653077602386e-02
3.966000000000000000e+03 6.324618911743164062e+01 1.850387382507324219e+01 -9.053742289543151855e-01 7.912683010101318359e+00 2.102192640304565430e+00 6.562073230743408203e-01
3.967000000000000000e+03 5.873206329345703125e+01 2.109199905395507812e+01 -2.585993409156799316e-01 6.032203197479248047e+00 1.732081174850463867e+00 2.108760833740234375e+00
3.968000000000000000e+03 5.759827423095703125e+01 2.167452049255371094e+01 6.952725350856781006e-02 5.053827285766601562e+00 1.537006378173828125e+00 2.228697538375854492e+00
3.969000000000000000e+03 4.450752258300781250e+01 1.796280860900878906e+01 3.564051091670989990e-01 8.814100027084350586e-01 3.713445365428924561e-01 -5.636637657880783081e-02
3.970000000000000000e+03 5.382105636596679688e+01 1.837965011596679688e+01 3.406959474086761475e-01 3.179987430572509766e+00 1.056205034255981445e+00 1.273264765739440918e+00
3.971000000000000000e+03 6.258814239501953125e+01 1.271522617340087891e+01 -5.708861947059631348e-01 6.639769077301025391e+00 1.820664882659912109e+00 4.661372303962707520e-01
3.972000000000000000e+03 6.107806777954101562e+01 1.053813076019287109e+01 -3.940028548240661621e-01 6.025840759277343750e+00 1.689551353454589844e+00 5.072838068008422852e-01
3.973000000000000000e+03 4.151619720458984375e+01 1.412706756591796875e+01 3.330954611301422119e-01 7.974621057510375977e-01 3.391672670841217041e-01 -1.909335702657699585e-01
3.974000000000000000e+03 4.177980804443359375e+01 1.239878940582275391e+01 3.465355038642883301e-01 9.430305957794189453e-01 3.868698477745056152e-01 -1.404434740543365479e-01
3.975000000000000000e+03 5.963562774658203125e+01 1.356055140495300293e+00 -9.958261251449584961e-02 5.273761272430419922e+00 1.552253603935241699e+00 2.433899044990539551e-01
3.976000000000000000e+03 3.893808364868164062e+01 1.712785530090332031e+01 2.026632875204086304e-01 3.600993454456329346e-01 1.688287854194641113e-01 -4.162093698978424072e-01
3.977000000000000000e+03 6.318600082397460938e+01 1.748041725158691406e+01 -8.645353913307189941e-01 7.661717414855957031e+00 2.039154529571533203e+00 6.195018291473388672e-01
3.978000000000000000e+03 4.150701904296875000e+01 9.868153572082519531e+00 3.246678113937377930e-01 1.055441260337829590e+00 4.140327274799346924e-01 -1.138944551348686218e-01
3.979000000000000000e+03 6.425586700439453125e+01 1.653052139282226562e+01 -8.384592533111572266e-01 7.700668811798095703e+00 2.058662891387939453e+00 3.157116174697875977e-01
3.980000000000000000e+03 6.136777496337890625e+01 1.330319690704345703e+01 -5.290845036506652832e-01 6.364064216613769531e+00 1.750493884086608887e+00 6.461196541786193848e-01
3.981000000000000000e+03 6.058277893066406250e+01 1.363913154602050781e+01 -4.767423868179321289e-01 6.120987415313720703e+00 1.693273544311523438e+00 7.607234120368957520e-01
3.982000000000000000e+03 6.059252929687500000e+01 5.114567756652832031e+00 -2.005363702774047852e-01 5.585684776306152344e+00 1.615544557571411133e+00 3.055816888809204102e-01
3.983000000000000000e+03 6.385187530517578125e+01 -3.679688692092895508e+00 -7.105364650487899780e-02 6.081327915191650391e+00 1.803082346916198730e+00 1.004828214645385742e-01
3.984000000000000000e+03 6.079778671264648438e+01 3.709829449653625488e-01 -1.032249331474304199e-01 5.511501312255859375e+00 1.622482895851135254e+00 1.936588138341903687e-01
3.985000000000000000e+03 3.986103057861328125e+01 1.992071509361267090e+00 2.060313075780868530e-01 1.131868720054626465e+00 4.013700187206268311e-01 -9.314137697219848633e-02
3.986000000000000000e+03 4.094118118286132812e+01 4.266690731048583984e+00 2.420466989278793335e-01 1.222775459289550781e+00 4.394466578960418701e-01 -7.924808561801910400e-02
3.987000000000000000e+03 4.195709991455078125e+01 3.438372135162353516e+00 2.374915480613708496e-01 1.413418769836425781e+00 4.952730834484100342e-01 -3.479812666773796082e-02
3.988000000000000000e+03 6.022413635253906250e+01 8.843351364135742188e+00 -2.932230234146118164e-01 5.668810367584228516e+00 1.612676143646240234e+00 4.725673198699951172e-01
3.989000000000000000e+03 6.105926513671875000e+01 -4.758250713348388672e+00 -3.791208192706108093e-02 5.482594490051269531e+00 1.633404731750488281e+00 1.298680305480957031e-01
3.990000000000000000e+03 6.292229461669921875e+01 -4.766778945922851562e+00 -5.541382730007171631e-02 5.877397537231445312e+00 1.746595025062561035e+00 1.012134253978729248e-01
3.991000000000000000e+03 3.748740005493164062e+01 -1.165794754028320312e+01 9.630372375249862671e-02 9.721493721008300781e-01 3.205359280109405518e-01 -5.782349407672882080e-02
3.992000000000000000e+03 3.900865554809570312e+01 -8.531275749206542969e+00 9.715177863836288452e-02 1.165317058563232422e+00 3.787406384944915771e-01 -6.125872954726219177e-02
3.993000000000000000e+03 3.927252578735351562e+01 5.187640190124511719e+00 2.400087267160415649e-01 9.089673757553100586e-01 3.446928262710571289e-01 -1.435160636901855469e-01
3.994000000000000000e+03 6.254192733764648438e+01 -2.669783592224121094e+00 -7.660077512264251709e-02 5.826066493988037109e+00 1.724839687347412109e+00 1.243952661752700806e-01
3.995000000000000000e+03 4.156635665893554688e+01 1.118669891357421875e+01 3.379521369934082031e-01 9.836208820343017578e-01 3.964719176292419434e-01 -1.334779858589172363e-01
3.996000000000000000e+03 4.073976898193359375e+01 1.262460422515869141e+01 3.300525546073913574e-01 8.146551847457885742e-01 3.434123098850250244e-01 -2.003226131200790405e-01
3.997000000000000000e+03 3.969520950317382812e+01 -4.711686134338378906e+00 1.345423012971878052e-01 1.244660019874572754e+00 4.137607216835021973e-01 -6.451404094696044922e-02
3.998000000000000000e+03 4.116329574584960938e+01 -4.818154335021972656e+00 1.356101632118225098e-01 1.501046895980834961e+00 4.909971058368682861e-01 -3.156871721148490906e-02
3.999000000000000000e+03 4.151734924316406250e+01 4.102352559566497803e-01 1.972882747650146484e-01 1.444566607475280762e+00 4.925564527511596680e-01 -3.783800080418586731e-02
4.000000000000000000e+03 3.996054458618164062e+01 -1.526388525962829590e+00 1.698039472103118896e-01 1.246414542198181152e+00 4.248655438423156738e-01 -6.304195523262023926e-02
4.001000000000000000e+03 6.542271423339843750e+01 -1.617048072814941406e+01 5.078533198684453964e-03 6.286096572875976562e+00 1.887352466583251953e+00 4.856850579380989075e-02
4.002000000000000000e+03 6.560896301269531250e+01 2.773495483398437500e+01 1.660510540008544922e+00 1.130442142486572266e+01 3.889479398727416992e+00 -1.442260503768920898e+00
4.003000000000000000e+03 6.426036834716796875e+01 2.641341209411621094e+01 1.038963869214057922e-01 1.200854396820068359e+01 3.633732318878173828e+00 -6.256810426712036133e-01
4.004000000000000000e+03 6.639953613281250000e+01 2.784319877624511719e+01 1.839957237243652344e+00 1.061122322082519531e+01 3.735353946685791016e+00 -1.444012761116027832e+00
4.005000000000000000e+03 6.097587203979492188e+01 2.443349456787109375e+01 -6.951977014541625977e-01 9.176967620849609375e+00 2.544531106948852539e+00 2.430024385452270508e+00
4.006000000000000000e+03 6.218187713623046875e+01 2.478289604187011719e+01 -8.924150466918945312e-01 1.053605270385742188e+01 2.893091201782226562e+00 1.536903142929077148e+00
4.007000000000000000e+03 6.142489624023437500e+01 2.393798065185546875e+01 -8.403956890106201172e-01 9.338335037231445312e+00 2.549381971359252930e+00 2.018048286437988281e+00
4.008000000000000000e+03 6.438166809082031250e+01 2.479703903198242188e+01 -6.035611629486083984e-01 1.093120765686035156e+01 3.098294019699096680e+00 -1.532079875469207764e-01
4.009000000000000000e+03 6.454362487792968750e+01 2.526326751708984375e+01 -3.646343052387237549e-01 1.120004844665527344e+01 3.250624418258666992e+00 -4.125138521194458008e-01
4.010000000000000000e+03 6.471927642822265625e+01 2.573578834533691406e+01 -1.190255507826805115e-01 1.138201904296875000e+01 3.378898143768310547e+00 -6.339277029037475586e-01
4.011000000000000000e+03 6.620953369140625000e+01 2.670688056945800781e+01 9.156793951988220215e-01 1.074192523956298828e+01 3.497281312942504883e+00 -1.345205903053283691e+00
4.012000000000000000e+03 6.589166259765625000e+01 2.690362548828125000e+01 1.000162124633789062e+00 1.098787975311279297e+01 3.596412420272827148e+00 -1.339493751525878906e+00
4.013000000000000000e+03 6.556027984619140625e+01 2.512050819396972656e+01 -1.471123993396759033e-01 1.070870208740234375e+01 3.168476819992065430e+00 -8.199729323387145996e-01
4.014000000000000000e+03 6.598480987548828125e+01 2.638873291015625000e+01 6.295275092124938965e-01 1.084927558898925781e+01 3.443640947341918945e+00 -1.262296676635742188e+00
4.015000000000000000e+03 6.303358078002929688e+01 2.261852455139160156e+01 -9.966592788696289062e-01 9.461862564086914062e+00 2.539561033248901367e+00 9.028475284576416016e-01
4.016000000000000000e+03 5.876117706298828125e+01 2.271097183227539062e+01 -1.266798824071884155e-01 6.104041576385498047e+00 1.793208479881286621e+00 2.538132667541503906e+00
4.017000000000000000e+03 6.391526412963867188e+01 2.389246368408203125e+01 -8.735620379447937012e-01 1.042845821380615234e+01 2.866468906402587891e+00 2.952886223793029785e-01
4.018000000000000000e+03 6.623682403564453125e+01 2.612006759643554688e+01 5.288057923316955566e-01 1.064853286743164062e+01 3.353201627731323242e+00 -1.265871882438659668e+00
4.019000000000000000e+03 6.350636291503906250e+01 1.960797882080078125e+01 -9.680269956588745117e-01 8.340107917785644531e+00 2.211624383926391602e+00 6.113763451576232910e-01
4.020000000000000000e+03 4.823900985717773438e+01 1.720265960693359375e+01 4.562435448169708252e-01 1.606615304946899414e+00 6.188576221466064453e-01 4.074060618877410889e-01
4.021000000000000000e+03 4.098875808715820312e+01 1.908263206481933594e+01 1.811244934797286987e-01 4.276178479194641113e-01 1.826227009296417236e-01 -3.725874423980712891e-01
4.022000000000000000e+03 6.303702926635742188e+01 2.025503158569335938e+01 -9.683212041854858398e-01 8.431029319763183594e+00 2.238812446594238281e+00 8.014720082283020020e-01
4.023000000000000000e+03 5.904343795776367188e+01 2.184684181213378906e+01 -2.881009578704833984e-01 6.371903419494628906e+00 1.825140714645385742e+00 2.270296812057495117e+00
4.024000000000000000e+03 4.311409759521484375e+01 1.715590286254882812e+01 3.369873166084289551e-01 7.925363779067993164e-01 3.388570845127105713e-01 -1.535490155220031738e-01
4.025000000000000000e+03 5.771348953247070312e+01 2.062016105651855469e+01 -5.616379529237747192e-02 5.196381568908691406e+00 1.542065262794494629e+00 1.997915744781494141e+00
4.026000000000000000e+03 6.280547714233398438e+01 1.921441078186035156e+01 -9.164400696754455566e-01 7.986960411071777344e+00 2.121156215667724609e+00 8.206380009651184082e-01
4.027000000000000000e+03 5.213755798339843750e+01 1.751542854309082031e+01 4.065566062927246094e-01 2.635001659393310547e+00 9.124674797058105469e-01 9.773788452148437500e-01
4.028000000000000000e+03 6.112288665771484375e+01 1.447046756744384766e+01 -5.641760826110839844e-01 6.450477123260498047e+00 1.765890359878540039e+00 7.639269232749938965e-01
4.029000000000000000e+03 6.299499130249023438e+01 1.403710746765136719e+01 -6.590176820755004883e-01 6.942656040191650391e+00 1.885091543197631836e+00 4.578808248043060303e-01
4.030000000000000000e+03 5.057609176635742188e+01 1.693778419494628906e+01 4.394531846046447754e-01 2.206490278244018555e+00 7.937830090522766113e-01 7.336515784263610840e-01
4.031000000000000000e+03 4.977238845825195312e+01 1.763908767700195312e+01 4.667179882526397705e-01 1.895028710365295410e+00 7.085239887237548828e-01 6.263406276702880859e-01
4.032000000000000000e+03 4.916304016113281250e+01 1.593626403808593750e+01 4.362775087356567383e-01 1.971788644790649414e+00 7.224198579788208008e-01 5.313681960105895996e-01
4.033000000000000000e+03 4.786622619628906250e+01 1.813437080383300781e+01 4.466455280780792236e-01 1.383574128150939941e+00 5.490658879280090332e-01 3.285537362098693848e-01
4.034000000000000000e+03 4.749229812622070312e+01 1.673284912109375000e+01 4.458476305007934570e-01 1.516118407249450684e+00 5.885897874832153320e-01 3.142151236534118652e-01
4.035000000000000000e+03 4.806703948974609375e+01 1.592771244049072266e+01 4.424334466457366943e-01 1.722095608711242676e+00 6.493587493896484375e-01 3.886764645576477051e-01
4.036000000000000000e+03 6.273171615600585938e+01 2.382939910888671875e+01 -9.577485322952270508e-01 1.004894161224365234e+01 2.727357864379882812e+00 1.102581143379211426e+00
4.037000000000000000e+03 6.254820632934570312e+01 2.331882858276367188e+01 -9.733034372329711914e-01 9.647420883178710938e+00 2.602235317230224609e+00 1.192309021949768066e+00
4.038000000000000000e+03 4.582294082641601562e+01 1.653147506713867188e+01 4.139330685138702393e-01 1.222202539443969727e+00 4.908406734466552734e-01 1.092062219977378845e-01
4.039000000000000000e+03 4.433724975585937500e+01 1.665347862243652344e+01 3.835542201995849609e-01 9.948329329490661621e-01 4.135161340236663818e-01 -2.645860984921455383e-02
4.040000000000000000e+03 6.057181549072265625e+01 1.767608261108398438e+01 -6.209151148796081543e-01 6.681327342987060547e+00 1.818123698234558105e+00 1.199917316436767578e+00
4.041000000000000000e+03 5.966638565063476562e+01 1.180061435699462891e+01 -3.509151041507720947e-01 5.717895030975341797e+00 1.610093951225280762e+00 6.866492033004760742e-01
4.042000000000000000e+03 6.113707351684570312e+01 8.644480705261230469e+00 -3.353105187416076660e-01 5.901320457458496094e+00 1.669803023338317871e+00 4.188303351402282715e-01
4.043000000000000000e+03 6.007902526855468750e+01 2.056267738342285156e+01 -5.855686068534851074e-01 6.988121986389160156e+00 1.920765995979309082e+00 1.757497191429138184e+00
4.044000000000000000e+03 5.891204833984375000e+01 9.761043548583984375e+00 -2.495626211166381836e-01 5.350697040557861328e+00 1.530340313911437988e+00 5.818284749984741211e-01
4.045000000000000000e+03 5.898083877563476562e+01 1.625280570983886719e+01 -3.763231635093688965e-01 5.788638114929199219e+00 1.623694539070129395e+00 1.190922379493713379e+00
4.046000000000000000e+03 6.218450927734375000e+01 1.343145847320556641e+01 -5.838532447814941406e-01 6.611120700836181641e+00 1.808180332183837891e+00 5.565289855003356934e-01
4.047000000000000000e+03 6.125889968872070312e+01 1.126564693450927734e+01 -4.388307929039001465e-01 6.121359825134277344e+00 1.704758644104003906e+00 5.387567281723022461e-01
4.048000000000000000e+03 6.100569152832031250e+01 1.244201660156250000e+01 -4.703685045242309570e-01 6.167656421661376953e+00 1.709186315536499023e+00 6.304036974906921387e-01
4.049000000000000000e+03 4.061980438232421875e+01 5.498194694519042969e+00 2.554200887680053711e-01 1.115709066390991211e+00 4.113387465476989746e-01 -1.059959605336189270e-01
4.050000000000000000e+03 4.007227706909179688e+01 9.618882179260253906e+00 2.987399101257324219e-01 8.540858626365661621e-01 3.458477258682250977e-01 -1.811829507350921631e-01
4.051000000000000000e+03 4.322410202026367188e+01 -6.212055206298828125e+00 1.265944838523864746e-01 1.910610795021057129e+00 6.111615896224975586e-01 7.394218351691961288e-03
4.052000000000000000e+03 6.012253952026367188e+01 6.572743892669677734e+00 -2.286740243434906006e-01 5.549575805664062500e+00 1.596270561218261719e+00 3.825970590114593506e-01
4.053000000000000000e+03 5.691900634765625000e+01 4.267565727233886719e+00 -5.625023320317268372e-02 4.683824062347412109e+00 1.388272166252136230e+00 3.678906857967376709e-01
4.054000000000000000e+03 6.221170043945312500e+01 1.722220420837402344e+01 -7.758553028106689453e-01 7.247106552124023438e+00 1.941375374794006348e+00 8.221727609634399414e-01
4.055000000000000000e+03 6.358435440063476562e+01 1.661424636840820312e+01 -8.310511708259582520e-01 7.555141448974609375e+00 2.017226934432983398e+00 4.769604802131652832e-01
4.056000000000000000e+03 6.036719894409179688e+01 -5.577722072601318359e+00 -2.989995293319225311e-02 5.350521564483642578e+00 1.596186399459838867e+00 1.222367882728576660e-01
4.057000000000000000e+03 5.825315475463867188e+01 -2.325530052185058594e+00 -2.598273567855358124e-02 4.896882057189941406e+00 1.461269855499267578e+00 1.936486810445785522e-01
4.058000000000000000e+03 4.268923187255859375e+01 1.836938142776489258e+00 2.192733138799667358e-01 1.623652219772338867e+00 5.528776645660400391e-01 -4.920155741274356842e-03
4.059000000000000000e+03 4.373600006103515625e+01 1.557518291473388672e+01 3.771287202835083008e-01 9.904989004135131836e-01 4.102882742881774902e-01 -6.025858968496322632e-02
4.060000000000000000e+03 4.234771347045898438e+01 1.327116298675537109e+01 3.571485877037048340e-01 9.797552227973937988e-01 4.010711610317230225e-01 -1.141906529664993286e-01
4.061000000000000000e+03 3.927399444580078125e+01 1.841037559509277344e+01 1.635045707225799561e-01 3.316883146762847900e-01 1.485578715801239014e-01 -4.398328661918640137e-01
4.062000000000000000e+03 4.292156219482421875e+01 9.996954917907714844e+00 3.412938714027404785e-01 1.288707971572875977e+00 4.890005588531494141e-01 -3.181958571076393127e-02
4.063000000000000000e+03 5.955155944824218750e+01 -5.994987487792968750e+00 -1.741336286067962646e-02 5.164972782135009766e+00 1.544267892837524414e+00 1.239419579505920410e-01
4.064000000000000000e+03 5.981792068481445312e+01 -6.791349649429321289e-01 -6.740685552358627319e-02 5.285677433013916016e+00 1.565481185913085938e+00 1.972731500864028931e-01
4.065000000000000000e+03 5.877744293212890625e+01 4.332380294799804688e+00 -1.296886205673217773e-01 5.160360813140869141e+00 1.509201645851135254e+00 3.395390510559082031e-01
4.066000000000000000e+03 5.860826873779296875e+01 2.343394756317138672e+00 -8.901725709438323975e-02 5.070152282714843750e+00 1.494340538978576660e+00 2.841729819774627686e-01
4.067000000000000000e+03 6.601692199707031250e+01 -1.872559738159179688e+01 1.567116472870111465e-03 6.416865825653076172e+00 1.925529837608337402e+00 3.589396178722381592e-02
4.068000000000000000e+03 3.931721115112304688e+01 -6.495601177215576172e+00 1.155758574604988098e-01 1.189535975456237793e+00 3.915335536003112793e-01 -6.554592400789260864e-02
4.069000000000000000e+03 5.644703674316406250e+01 -8.580029487609863281e+00 2.470493316650390625e-02 4.555284023284912109e+00 1.373996734619140625e+00 1.130782812833786011e-01
4.070000000000000000e+03 5.914403152465820312e+01 -1.512295436859130859e+01 2.320981770753860474e-02 5.072147369384765625e+00 1.528607130050659180e+00 7.490204274654388428e-02
4.071000000000000000e+03 6.407411956787109375e+01 -1.525804233551025391e+01 8.014630526304244995e-03 6.028868675231933594e+00 1.811064958572387695e+00 6.485188752412796021e-02
4.072000000000000000e+03 3.455834197998046875e+01 -1.158061695098876953e+01 6.723176687955856323e-02 4.024484455585479736e-01 1.409040540456771851e-01 -7.946681231260299683e-02
4.073000000000000000e+03 3.746372604370117188e+01 -1.346830368041992188e+01 6.271268427371978760e-02 9.685873985290527344e-01 3.093900084495544434e-01 -4.852635785937309265e-02
4.074000000000000000e+03 6.342508697509765625e+01 2.410867691040039062e+01 -9.098877906799316406e-01 1.050825595855712891e+01 2.879510402679443359e+00 6.059385538101196289e-01
4.075000000000000000e+03 6.308179855346679688e+01 2.476040077209472656e+01 -8.793097138404846191e-01 1.096308135986328125e+01 3.025131702423095703e+00 8.165026307106018066e-01
4.076000000000000000e+03 6.504879760742187500e+01 2.706656646728515625e+01 9.251473546028137207e-01 1.172716236114501953e+01 3.795692920684814453e+00 -1.234522700309753418e+00
4.077000000000000000e+03 6.037218475341796875e+01 2.139299011230468750e+01 -6.395024657249450684e-01 7.374979019165039062e+00 2.020642995834350586e+00 1.876223087310791016e+00
4.078000000000000000e+03 6.372113037109375000e+01 2.301039123535156250e+01 -9.727567434310913086e-01 9.869813919067382812e+00 2.669116973876953125e+00 5.230274796485900879e-01
4.079000000000000000e+03 6.223463058471679688e+01 2.407415962219238281e+01 -9.283369779586791992e-01 1.000418758392333984e+01 2.722755193710327148e+00 1.452294468879699707e+00
4.080000000000000000e+03 6.570263671875000000e+01 2.620518493652343750e+01 4.544268250465393066e-01 1.098335456848144531e+01 3.431334257125854492e+00 -1.147963523864746094e+00
4.081000000000000000e+03 5.805959701538085938e+01 1.945869827270507812e+01 -1.926266252994537354e-01 5.473500728607177734e+00 1.584262251853942871e+00 1.774127125740051270e+00
4.082000000000000000e+03 5.740436935424804688e+01 1.943164253234863281e+01 -6.124369427561759949e-02 5.040017127990722656e+00 1.493632078170776367e+00 1.790548443794250488e+00
4.083000000000000000e+03 6.496321868896484375e+01 2.484362220764160156e+01 -4.241701364517211914e-01 1.082277679443359375e+01 3.119581937789916992e+00 -4.979310035705566406e-01
4.084000000000000000e+03 6.533680725097656250e+01 2.567685699462890625e+01 4.335808381438255310e-02 1.101921081542968750e+01 3.318770885467529297e+00 -8.789293169975280762e-01
4.085000000000000000e+03 5.557936096191406250e+01 1.945516777038574219e+01 2.126043587923049927e-01 3.952748537063598633e+00 1.249605894088745117e+00 1.634805798530578613e+00
4.086000000000000000e+03 6.163131332397460938e+01 1.770219230651855469e+01 -7.506240010261535645e-01 7.160328865051269531e+00 1.922911524772644043e+00 9.853084683418273926e-01
4.087000000000000000e+03 6.420841217041015625e+01 2.430298805236816406e+01 -7.564043402671813965e-01 1.069634437561035156e+01 2.981981992721557617e+00 5.386112630367279053e-02
4.088000000000000000e+03 6.585974121093750000e+01 2.583683586120605469e+01 2.883332371711730957e-01 1.078468608856201172e+01 3.321905851364135742e+00 -1.114690780639648438e+00
4.089000000000000000e+03 6.557220458984375000e+01 2.735597801208496094e+01 1.305328130722045898e+00 1.132970142364501953e+01 3.790508985519409180e+00 -1.395537614822387695e+00
4.090000000000000000e+03 6.393504714965820312e+01 2.549938392639160156e+01 -4.634798765182495117e-01 1.153630828857421875e+01 3.321848392486572266e+00 -6.706210970878601074e-02
4.091000000000000000e+03 5.986424636840820312e+01 2.248081207275390625e+01 -4.628489911556243896e-01 7.202405929565429688e+00 2.021867036819458008e+00 2.284594058990478516e+00
4.092000000000000000e+03 6.265185546875000000e+01 2.087333869934082031e+01 -9.653409123420715332e-01 8.533472061157226562e+00 2.270439147949218750e+00 9.931169748306274414e-01
4.093000000000000000e+03 5.926355743408203125e+01 2.258741569519042969e+01 -3.052281141281127930e-01 6.685825824737548828e+00 1.914179325103759766e+00 2.440793752670288086e+00
4.094000000000000000e+03 5.966455841064453125e+01 2.164201736450195312e+01 -4.530960321426391602e-01 6.833265304565429688e+00 1.914050817489624023e+00 2.103253126144409180e+00
4.095000000000000000e+03 6.207910537719726562e+01 1.832194519042968750e+01 -8.223870992660522461e-01 7.487653732299804688e+00 1.999579906463623047e+00 9.405830502510070801e-01
4.096000000000000000e+03 6.295261764526367188e+01 2.156478881835937500e+01 -1.002891659736633301e+00 8.943290710449218750e+00 2.382119894027709961e+00 9.199001193046569824e-01
4.097000000000000000e+03 6.296808624267578125e+01 2.207773399353027344e+01 -1.004293441772460938e+00 9.182106971740722656e+00 2.453344106674194336e+00 9.249432682991027832e-01
4.098000000000000000e+03 6.266368103027343750e+01 1.793371200561523438e+01 -8.487668633460998535e-01 7.585449218750000000e+00 2.021004676818847656e+00 7.703201174736022949e-01
4.099000000000000000e+03 5.707509994506835938e+01 1.573238945007324219e+01 -1.260772496461868286e-01 4.862866878509521484e+00 1.421036958694458008e+00 1.204849958419799805e+00
4.100000000000000000e+03 4.633290481567382812e+01 1.717921638488769531e+01 4.228313565254211426e-01 1.220162510871887207e+00 4.928981661796569824e-01 1.593680530786514282e-01
4.101000000000000000e+03 5.296376037597656250e+01 1.751510238647460938e+01 3.626058399677276611e-01 2.940303325653076172e+00 9.908727407455444336e-01 1.088248729705810547e+00
4.102000000000000000e+03 6.169941329956054688e+01 1.651476669311523438e+01 -7.055312395095825195e-01 6.955462932586669922e+00 1.874979496002197266e+00 8.680437803268432617e-01
4.103000000000000000e+03 6.174928665161132812e+01 1.524514865875244141e+01 -6.438696384429931641e-01 6.749540805816650391e+00 1.831701397895812988e+00 7.417810559272766113e-01
4.104000000000000000e+03 5.843934631347656250e+01 1.101755142211914062e+01 -2.322721481323242188e-01 5.242714881896972656e+00 1.503132820129394531e+00 6.907721161842346191e-01
4.105000000000000000e+03 4.879064559936523438e+01 1.542122077941894531e+01 4.312799572944641113e-01 1.969033241271972656e+00 7.200939655303955078e-01 4.804462790489196777e-01
4.106000000000000000e+03 4.349029922485351562e+01 1.635590362548828125e+01 3.622741401195526123e-01 9.073254466056823730e-01 3.808798789978027344e-01 -1.005018055438995361e-01
4.107000000000000000e+03 4.992925262451171875e+01 1.601462554931640625e+01 4.280503690242767334e-01 2.182822942733764648e+00 7.832619547843933105e-01 6.182855963706970215e-01
4.108000000000000000e+03 6.067554855346679688e+01 7.593055248260498047e+00 -2.751431465148925781e-01 5.730348587036132812e+00 1.636561512947082520e+00 3.890762031078338623e-01
4.109000000000000000e+03 4.148445510864257812e+01 1.643273735046386719e+01 3.049570024013519287e-01 6.488669514656066895e-01 2.861472070217132568e-01 -2.552852928638458252e-01
4.110000000000000000e+03 4.233775711059570312e+01 1.678594589233398438e+01 3.223675191402435303e-01 7.266898155212402344e-01 3.147172033786773682e-01 -2.049328386783599854e-01
4.111000000000000000e+03 4.458565521240234375e+01 1.565346527099609375e+01 3.944872617721557617e-01 1.111386060714721680e+00 4.517619907855987549e-01 1.146512106060981750e-02
4.112000000000000000e+03 4.237446594238281250e+01 1.475037765502929688e+01 3.460310995578765869e-01 8.669720292091369629e-01 3.639009296894073486e-01 -1.510235667228698730e-01
4.113000000000000000e+03 5.902653121948242188e+01 8.450383186340332031e+00 -2.227898091077804565e-01 5.324322700500488281e+00 1.530459761619567871e+00 5.137223601341247559e-01
4.114000000000000000e+03 5.918834304809570312e+01 1.314779853820800781e+01 -3.427077233791351318e-01 5.600772857666015625e+00 1.577419519424438477e+00 8.296616673469543457e-01
4.115000000000000000e+03 4.092979049682617188e+01 1.785458183288574219e+01 2.308604270219802856e-01 4.908420741558074951e-01 2.165107578039169312e-01 -3.415811061859130859e-01
4.116000000000000000e+03 3.977522277832031250e+01 1.768326950073242188e+01 2.082430124282836914e-01 4.137800335884094238e-01 1.866069138050079346e-01 -3.949539363384246826e-01
4.117000000000000000e+03 6.049594116210937500e+01 -2.889095544815063477e+00 -5.286718159914016724e-02 5.387993335723876953e+00 1.600537896156311035e+00 1.513768434524536133e-01
4.118000000000000000e+03 5.978809738159179688e+01 7.982955932617187500e+00 -2.556773722171783447e-01 5.530106544494628906e+00 1.582328677177429199e+00 4.593698084354400635e-01
4.119000000000000000e+03 5.957089996337890625e+01 9.261661529541015625e+00 -2.730141878128051758e-01 5.517068386077880859e+00 1.573216199874877930e+00 5.369157195091247559e-01
4.120000000000000000e+03 6.009522628784179688e+01 1.275959205627441406e+01 -4.156100153923034668e-01 5.896688461303710938e+00 1.644323587417602539e+00 7.342024445533752441e-01
4.121000000000000000e+03 6.053569793701171875e+01 1.153255081176757812e+01 -4.032271504402160645e-01 5.940802574157714844e+00 1.661272644996643066e+00 6.058704853057861328e-01
4.122000000000000000e+03 5.471385192871093750e+01 1.841894340515136719e+01 2.607602179050445557e-01 3.605752706527709961e+00 1.159953832626342773e+00 1.406911969184875488e+00
4.123000000000000000e+03 6.025136947631835938e+01 1.056865882873535156e+01 -3.486702740192413330e-01 5.790109157562255859e+00 1.632431745529174805e+00 5.610668659210205078e-01
4.124000000000000000e+03 4.320139312744140625e+01 2.927352428436279297e+00 2.307276576757431030e-01 1.680661678314208984e+00 5.734167695045471191e-01 7.759822066873311996e-03
4.125000000000000000e+03 4.193247222900390625e+01 7.255163669586181641e+00 2.933693826198577881e-01 1.265027284622192383e+00 4.675190150737762451e-01 -6.617598980665206909e-02
4.126000000000000000e+03 4.667489242553710938e+01 1.638472557067871094e+01 4.353410005569458008e-01 1.394352436065673828e+00 5.489080548286437988e-01 2.233044207096099854e-01
4.127000000000000000e+03 4.421311950683593750e+01 -1.436785817146301270e+00 1.700602918863296509e-01 1.991898179054260254e+00 6.485875248908996582e-01 2.748964540660381317e-02
4.128000000000000000e+03 4.207078552246093750e+01 -3.008424520492553711e+00 1.595678329467773438e-01 1.640498518943786621e+00 5.400199294090270996e-01 -1.262916065752506256e-02
4.129000000000000000e+03 4.052714920043945312e+01 6.868224143981933594e+00 2.734948694705963135e-01 1.049489021301269531e+00 3.968951702117919922e-01 -1.211735904216766357e-01
4.130000000000000000e+03 5.736977005004882812e+01 1.247227787971496582e+00 -4.448140412569046021e-02 4.766882896423339844e+00 1.416720509529113770e+00 2.667359709739685059e-01
4.131000000000000000e+03 5.852111434936523438e+01 2.722078859806060791e-01 -5.645983666181564331e-02 5.004479885101318359e+00 1.484405994415283203e+00 2.359366863965988159e-01
4.132000000000000000e+03 4.274662399291992188e+01 4.600970745086669922e+00 2.650306522846221924e-01 1.525155782699584961e+00 5.370559692382812500e-01 -5.056005902588367462e-03
4.133000000000000000e+03 5.782881164550781250e+01 5.161434173583984375e+00 -1.088626012206077576e-01 4.940809249877929688e+00 1.449584007263183594e+00 3.892027735710144043e-01
4.134000000000000000e+03 5.771449279785156250e+01 3.322663545608520508e+00 -7.420932501554489136e-02 4.876943588256835938e+00 1.440820336341857910e+00 3.188195228576660156e-01
4.135000000000000000e+03 4.274609375000000000e+01 7.686354517936706543e-01 2.091505974531173706e-01 1.664265871047973633e+00 5.620249509811401367e-01 9.494017576798796654e-04
4.136000000000000000e+03 4.359555435180664062e+01 1.364027500152587891e+00 2.184314131736755371e-01 1.812658786773681641e+00 6.093270778656005859e-01 2.451017126441001892e-02
4.137000000000000000e+03 4.284519958496093750e+01 1.234961891174316406e+01 3.667717576026916504e-01 1.115479350090026855e+00 4.446753263473510742e-01 -6.400731950998306274e-02
4.138000000000000000e+03 4.102381896972656250e+01 -3.260956764221191406e+00 1.477817296981811523e-01 1.429512262344360352e+00 4.731881916522979736e-01 -3.600522875785827637e-02
4.139000000000000000e+03 4.219068527221679688e+01 -1.022637844085693359e+00 1.827101409435272217e-01 1.589097857475280762e+00 5.315424203872680664e-01 -1.701476238667964935e-02
4.140000000000000000e+03 4.025328445434570312e+01 -1.140838909149169922e+01 9.009622037410736084e-02 1.433538556098937988e+00 4.570904076099395752e-01 -2.752954326570034027e-02
4.141000000000000000e+03 6.604393005371093750e+01 -1.468308925628662109e+01 2.884009154513478279e-03 6.428596973419189453e+00 1.929444313049316406e+00 5.053877457976341248e-02
4.142000000000000000e+03 5.896906661987304688e+01 -8.993014335632324219e+00 8.081519044935703278e-03 5.028160572052001953e+00 1.510872721672058105e+00 1.070126518607139587e-01
4.143000000000000000e+03 5.765671539306640625e+01 -1.202616691589355469e+01 3.019315749406814575e-02 4.783819198608398438e+00 1.444203734397888184e+00 1.003806889057159424e-01
4.144000000000000000e+03 5.886063003540039062e+01 -1.284894180297851562e+01 2.051176689565181732e-02 5.017814159393310547e+00 1.511497855186462402e+00 8.860585838556289673e-02
4.145000000000000000e+03 6.600544738769531250e+01 2.732672882080078125e+01 1.334843039512634277e+00 1.093150424957275391e+01 3.679904222488403320e+00 -1.405897736549377441e+00
4.146000000000000000e+03 6.100143814086914062e+01 2.348027610778808594e+01 -7.517820000648498535e-01 8.700869560241699219e+00 2.384726285934448242e+00 2.120874404907226562e+00
4.147000000000000000e+03 6.067103195190429688e+01 2.298390197753906250e+01 -6.827775239944458008e-01 8.139840126037597656e+00 2.237118721008300781e+00 2.171461820602416992e+00
4.148000000000000000e+03 6.248565292358398438e+01 2.448685073852539062e+01 -9.105850458145141602e-01 1.043806648254394531e+01 2.858244419097900391e+00 1.293385982513427734e+00
4.149000000000000000e+03 6.312918853759765625e+01 2.314330291748046875e+01 -9.904007911682128906e-01 9.776636123657226562e+00 2.635870456695556641e+00 8.494545221328735352e-01
4.150000000000000000e+03 6.376387023925781250e+01 2.349242973327636719e+01 -9.464396834373474121e-01 1.013263416290283203e+01 2.755858421325683594e+00 4.620456099510192871e-01
4.151000000000000000e+03 6.325247192382812500e+01 2.364046478271484375e+01 -9.654859900474548340e-01 1.011200428009033203e+01 2.743955373764038086e+00 7.641986012458801270e-01
4.152000000000000000e+03 6.050610733032226562e+01 2.226388740539550781e+01 -6.606752872467041016e-01 7.798724174499511719e+00 2.141414642333984375e+00 2.059544324874877930e+00
4.153000000000000000e+03 6.361715316772460938e+01 2.456369400024414062e+01 -8.273810744285583496e-01 1.090332221984863281e+01 3.022782325744628906e+00 3.908081352710723877e-01
4.154000000000000000e+03 6.292731857299804688e+01 2.429931259155273438e+01 -9.242336153984069824e-01 1.048438358306884766e+01 2.868044853210449219e+00 9.688876271247863770e-01
4.155000000000000000e+03 5.837799072265625000e+01 2.026069068908691406e+01 -2.150321751832962036e-01 5.708010196685791016e+00 1.647893309593200684e+00 1.926512241363525391e+00
4.156000000000000000e+03 5.672858047485351562e+01 1.903668403625488281e+01 3.497618436813354492e-02 4.579998493194580078e+00 1.384492397308349609e+00 1.681516408920288086e+00
4.157000000000000000e+03 6.237389755249023438e+01 2.212809371948242188e+01 -9.771932959556579590e-01 8.954550743103027344e+00 2.393207311630249023e+00 1.224899649620056152e+00
4.158000000000000000e+03 6.213072967529296875e+01 1.898239517211914062e+01 -8.451471924781799316e-01 7.663673877716064453e+00 2.045557975769042969e+00 9.807966947555541992e-01
4.159000000000000000e+03 6.241310882568359375e+01 1.995316886901855469e+01 -9.202114939689636230e-01 8.082816123962402344e+00 2.148781538009643555e+00 1.012941241264343262e+00
4.160000000000000000e+03 6.182719802856445312e+01 2.139735794067382812e+01 -8.978715538978576660e-01 8.357451438903808594e+00 2.237873792648315430e+00 1.360586524009704590e+00
4.161000000000000000e+03 4.305995941162109375e+01 1.529454994201660156e+01 3.577728271484375000e-01 9.258248209953308105e-01 3.850792944431304932e-01 -1.146877184510231018e-01
4.162000000000000000e+03 5.908424377441406250e+01 2.011009216308593750e+01 -3.739987611770629883e-01 6.203676700592041016e+00 1.748903393745422363e+00 1.822874784469604492e+00
4.163000000000000000e+03 5.813669967651367188e+01 2.136312484741210938e+01 -9.573037922382354736e-02 5.562561035156250000e+00 1.640049219131469727e+00 2.183497428894042969e+00
4.164000000000000000e+03 5.128966903686523438e+01 1.672216415405273438e+01 4.058956503868103027e-01 2.480319261550903320e+00 8.658645153045654297e-01 8.187438249588012695e-01
4.165000000000000000e+03 5.049040603637695312e+01 1.637924766540527344e+01 4.263010919094085693e-01 2.275876283645629883e+00 8.106532692909240723e-01 7.142168283462524414e-01
4.166000000000000000e+03 6.158622741699218750e+01 1.872247505187988281e+01 -7.845453023910522461e-01 7.352569103240966797e+00 1.970407128334045410e+00 1.123783946037292480e+00
4.167000000000000000e+03 5.000790405273437500e+01 1.473907947540283203e+01 3.892784714698791504e-01 2.361882448196411133e+00 8.253482580184936523e-01 6.092631816864013672e-01
4.168000000000000000e+03 5.811886596679687500e+01 1.006132698059082031e+01 -2.003954648971557617e-01 5.111831665039062500e+00 1.473430871963500977e+00 6.374594569206237793e-01
4.169000000000000000e+03 6.106018447875976562e+01 1.577307415008544922e+01 -6.116974949836730957e-01 6.593249797821044922e+00 1.794465661048889160e+00 8.942137956619262695e-01
4.170000000000000000e+03 4.762994766235351562e+01 1.508854866027832031e+01 4.346770346164703369e-01 1.730923533439636230e+00 6.496801972389221191e-01 3.397502601146697998e-01
4.171000000000000000e+03 4.866122055053710938e+01 1.646966171264648438e+01 4.538412988185882568e-01 1.784323334693908691e+00 6.714493632316589355e-01 4.657950997352600098e-01
4.172000000000000000e+03 5.949756240844726562e+01 1.772811889648437500e+01 -4.661010801792144775e-01 6.159860134124755859e+00 1.708127737045288086e+00 1.366935491561889648e+00
4.173000000000000000e+03 5.350649261474609375e+01 1.499992275238037109e+01 2.208661288022994995e-01 3.447903871536254883e+00 1.100630998611450195e+00 9.792318344116210938e-01
4.174000000000000000e+03 6.110524368286132812e+01 1.823500442504882812e+01 -7.132423520088195801e-01 7.058547496795654297e+00 1.903591513633728027e+00 1.163462638854980469e+00
4.175000000000000000e+03 5.649751281738281250e+01 2.356478214263916016e+00 -2.963698469102382660e-02 4.569808483123779297e+00 1.362051367759704590e+00 3.091563284397125244e-01
4.176000000000000000e+03 5.730953979492187500e+01 -5.937336444854736328e+00 1.011387631297111511e-02 4.732621669769287109e+00 1.422820687294006348e+00 1.393750607967376709e-01
4.177000000000000000e+03 5.933337020874023438e+01 1.075322055816650391e+01 -2.960198223590850830e-01 5.518378734588623047e+00 1.566707730293273926e+00 6.334158778190612793e-01
4.178000000000000000e+03 5.775629425048828125e+01 8.364589691162109375e+00 -1.527453809976577759e-01 4.969089984893798828e+00 1.444903373718261719e+00 5.437254905700683594e-01
4.179000000000000000e+03 5.921313476562500000e+01 7.064269542694091797e+00 -1.991459727287292480e-01 5.328648567199707031e+00 1.538850784301757812e+00 4.335416257381439209e-01
4.180000000000000000e+03 4.329941177368164062e+01 5.625029087066650391e+00 2.762442827224731445e-01 1.580036878585815430e+00 5.568843483924865723e-01 8.206606842577457428e-03
4.181000000000000000e+03 4.168331909179687500e+01 8.543891906738281250e+00 3.073421716690063477e-01 1.152141451835632324e+00 4.378451108932495117e-01 -9.138014167547225952e-02
4.182000000000000000e+03 5.883637619018554688e+01 1.488049316406250000e+01 -3.452591598033905029e-01 5.604542255401611328e+00 1.577784895896911621e+00 1.013693690299987793e+00
4.183000000000000000e+03 4.851671981811523438e+01 1.473168945312500000e+01 4.244828224182128906e-01 1.983401179313659668e+00 7.223652005195617676e-01 4.426592588424682617e-01
4.184000000000000000e+03 4.286316680908203125e+01 1.118687343597412109e+01 3.583496510982513428e-01 1.208837866783142090e+00 4.701562821865081787e-01 -4.238123819231987000e-02
4.185000000000000000e+03 4.399936294555664062e+01 1.246021747589111328e+01 3.787570297718048096e-01 1.297684550285339355e+00 5.029324889183044434e-01 1.688645966351032257e-02
4.186000000000000000e+03 4.645046615600585938e+01 1.427462482452392578e+01 4.147683382034301758e-01 1.586558222770690918e+00 6.003979444503784180e-01 2.202276140451431274e-01
4.187000000000000000e+03 4.663703155517578125e+01 1.536368656158447266e+01 4.315562248229980469e-01 1.503239989280700684e+00 5.804388523101806641e-01 2.318116873502731323e-01
4.188000000000000000e+03 4.427644348144531250e+01 2.307525157928466797e+00 2.254941016435623169e-01 1.894054532051086426e+00 6.358646154403686523e-01 4.440500214695930481e-02
4.189000000000000000e+03 4.243584060668945312e+01 6.196012496948242188e+00 2.840127050876617432e-01 1.390130043029785156e+00 5.022428035736083984e-01 -3.114560991525650024e-02
4.190000000000000000e+03 5.856035995483398438e+01 6.113677501678466797e+00 -1.498534232378005981e-01 5.129450321197509766e+00 1.493878960609436035e+00 4.060180485248565674e-01
4.191000000000000000e+03 5.726137924194335938e+01 1.782687568664550781e+01 -1.194063872098922729e-01 5.005092144012451172e+00 1.465705752372741699e+00 1.489447832107543945e+00
4.192000000000000000e+03 6.043529510498046875e+01 1.491902828216552734e+01 -5.127631425857543945e-01 6.247180938720703125e+00 1.720325350761413574e+00 8.935680985450744629e-01
4.193000000000000000e+03 4.529323959350585938e+01 1.149552631378173828e+01 3.777420818805694580e-01 1.609371781349182129e+00 5.961341261863708496e-01 1.301406621932983398e-01
4.194000000000000000e+03 5.762592315673828125e+01 -9.751819610595703125e+00 1.799411512911319733e-02 4.775364398956298828e+00 1.438007593154907227e+00 1.034114882349967957e-01
4.195000000000000000e+03 5.947871017456054688e+01 -1.033876228332519531e+01 8.723358623683452606e-03 5.129522800445556641e+00 1.541473746299743652e+00 1.020650342106819153e-01
4.196000000000000000e+03 4.337263107299804688e+01 -3.108771741390228271e-01 1.908327788114547729e-01 1.796845078468322754e+00 5.963033437728881836e-01 1.235206611454486847e-02
4.197000000000000000e+03 5.958870697021484375e+01 -5.023334503173828125e+00 -1.657233573496341705e-02 5.178369045257568359e+00 1.548539042472839355e+00 1.400705724954605103e-01
4.198000000000000000e+03 5.892547607421875000e+01 -3.666267395019531250e+00 -2.162627875804901123e-02 5.065145492553710938e+00 1.513055801391601562e+00 1.699017733335494995e-01
4.199000000000000000e+03 6.330842208862304688e+01 -1.657691574096679688e+01 1.318807620555162430e-02 5.873948574066162109e+00 1.766140937805175781e+00 6.263569742441177368e-02
4.200000000000000000e+03 4.310069274902343750e+01 -2.294801950454711914e+00 1.657283455133438110e-01 1.797796368598937988e+00 5.890574455261230469e-01 -8.647938375361263752e-04
4.201000000000000000e+03 5.544380569458007812e+01 -9.883013725280761719e+00 3.619277104735374451e-02 4.331814765930175781e+00 1.310402274131774902e+00 9.963038563728332520e-02
4.202000000000000000e+03 3.936245727539062500e+01 -1.387317276000976562e+01 7.715742290019989014e-02 1.297628164291381836e+00 4.124356806278228760e-01 -3.878001496195793152e-02
4.203000000000000000e+03 4.216016387939453125e+01 -1.223075580596923828e+01 8.687029778957366943e-02 1.790726542472839355e+00 5.632790327072143555e-01 -1.047905348241329193e-02
4.204000000000000000e+03 6.113022613525390625e+01 2.129989433288574219e+01 -7.896122336387634277e-01 7.879979133605957031e+00 2.127110004425048828e+00 1.616088628768920898e+00
4.205000000000000000e+03 6.120088577270507812e+01 2.290712738037109375e+01 -8.180702924728393555e-01 8.631898880004882812e+00 2.344148635864257812e+00 1.908355355262756348e+00
4.206000000000000000e+03 6.195958709716796875e+01 2.354950332641601562e+01 -9.274108409881591797e-01 9.473756790161132812e+00 2.563903808593750000e+00 1.592759728431701660e+00
4.207000000000000000e+03 5.937958526611328125e+01 2.086417388916015625e+01 -4.159072935581207275e-01 6.494953632354736328e+00 1.823713898658752441e+00 1.977217197418212891e+00
4.208000000000000000e+03 5.859419250488281250e+01 1.894961929321289062e+01 -3.139862120151519775e-01 5.787413120269775391e+00 1.642028093338012695e+00 1.653128266334533691e+00
4.209000000000000000e+03 5.966518783569335938e+01 1.989243698120117188e+01 -4.991869032382965088e-01 6.584504604339599609e+00 1.825595378875732422e+00 1.705166101455688477e+00
4.210000000000000000e+03 6.205064010620117188e+01 2.066079711914062500e+01 -9.096996188163757324e-01 8.205685615539550781e+00 2.188795804977416992e+00 1.199379205703735352e+00
4.211000000000000000e+03 6.243056106567382812e+01 2.149675559997558594e+01 -9.676283597946166992e-01 8.703212738037109375e+00 2.320675134658813477e+00 1.139351248741149902e+00
4.212000000000000000e+03 5.917022705078125000e+01 1.943168449401855469e+01 -4.087924957275390625e-01 6.167295932769775391e+00 1.727550983428955078e+00 1.695147395133972168e+00
4.213000000000000000e+03 6.114436721801757812e+01 2.215655326843261719e+01 -8.022100925445556641e-01 8.234202384948730469e+00 2.229597568511962891e+00 1.775843143463134766e+00
4.214000000000000000e+03 6.177438735961914062e+01 1.968167304992675781e+01 -8.341851234436035156e-01 7.712822914123535156e+00 2.063591241836547852e+00 1.159167528152465820e+00
4.215000000000000000e+03 6.118003845214843750e+01 1.932226181030273438e+01 -7.539947628974914551e-01 7.337835788726806641e+00 1.975152373313903809e+00 1.280001044273376465e+00
4.216000000000000000e+03 5.297404098510742188e+01 1.664365959167480469e+01 3.194956481456756592e-01 3.068658113479614258e+00 1.016446113586425781e+00 1.034812927246093750e+00
4.217000000000000000e+03 5.210179138183593750e+01 1.657731246948242188e+01 3.722157180309295654e-01 2.757393836975097656e+00 9.388828873634338379e-01 9.246120452880859375e-01
4.218000000000000000e+03 5.763344192504882812e+01 1.888768005371093750e+01 -1.502196192741394043e-01 5.194315910339355469e+00 1.513228893280029297e+00 1.638914942741394043e+00
4.219000000000000000e+03 5.638811492919921875e+01 1.841067695617675781e+01 5.831594392657279968e-02 4.446533203125000000e+00 1.351454734802246094e+00 1.565705776214599609e+00
4.220000000000000000e+03 5.798958587646484375e+01 1.833119773864746094e+01 -2.048178166151046753e-01 5.356331348419189453e+00 1.545454025268554688e+00 1.561651706695556641e+00
4.221000000000000000e+03 5.119713973999023438e+01 1.535020923614501953e+01 3.704538643360137939e-01 2.608084678649902344e+00 8.935616016387939453e-01 7.552335858345031738e-01
4.222000000000000000e+03 5.753924179077148438e+01 1.113560962677001953e+01 -1.781794428825378418e-01 4.988124370574951172e+00 1.442983388900756836e+00 7.203682661056518555e-01
4.223000000000000000e+03 5.925899505615234375e+01 -2.528510093688964844e+00 -3.831106796860694885e-02 5.151830196380615234e+00 1.534055709838867188e+00 1.891621202230453491e-01
4.224000000000000000e+03 5.890539550781250000e+01 -1.532363653182983398e+00 -5.147415399551391602e-02 5.088156223297119141e+00 1.511004686355590820e+00 2.007993906736373901e-01
4.225000000000000000e+03 4.446409988403320312e+01 1.461420917510986328e+01 3.990309238433837891e-01 1.181356906890869141e+00 4.741163551807403564e-01 1.932703331112861633e-02
4.226000000000000000e+03 4.362572479248046875e+01 1.482409858703613281e+01 3.836797177791595459e-01 1.039901971817016602e+00 4.270744919776916504e-01 -4.786153882741928101e-02
4.227000000000000000e+03 5.840191650390625000e+01 8.932567596435546875e+00 -1.972088068723678589e-01 5.177953720092773438e+00 1.494223475456237793e+00 5.513471364974975586e-01
4.228000000000000000e+03 5.985335159301757812e+01 1.402729511260986328e+01 -4.264015555381774902e-01 5.920951843261718750e+00 1.648365020751953125e+00 8.730267882347106934e-01
4.229000000000000000e+03 5.975077819824218750e+01 1.520867061614990234e+01 -4.659931957721710205e-01 6.031068325042724609e+00 1.669522523880004883e+00 1.001620769500732422e+00
4.230000000000000000e+03 5.415849685668945312e+01 1.546080684661865234e+01 1.785088330507278442e-01 3.640244007110595703e+00 1.145625829696655273e+00 1.065353631973266602e+00
4.231000000000000000e+03 5.381875228881835938e+01 1.754330635070800781e+01 2.978291213512420654e-01 3.302299499511718750e+00 1.080038547515869141e+00 1.205017447471618652e+00
4.232000000000000000e+03 5.845172500610351562e+01 1.382328891754150391e+01 -2.802670001983642578e-01 5.380875587463378906e+00 1.530182600021362305e+00 9.441576004028320312e-01
4.233000000000000000e+03 5.870378494262695312e+01 1.210959720611572266e+01 -2.792344093322753906e-01 5.390161514282226562e+00 1.533278107643127441e+00 7.676736712455749512e-01
4.234000000000000000e+03 4.343450546264648438e+01 6.587446212768554688e+00 2.931345701217651367e-01 1.560310363769531250e+00 5.560334920883178711e-01 1.238743122667074203e-02
4.235000000000000000e+03 5.561064529418945312e+01 1.845736694335937500e+01 1.520342230796813965e-01 4.084800720214843750e+00 1.271050453186035156e+00 1.506190061569213867e+00
4.236000000000000000e+03 5.578642654418945312e+01 3.467555999755859375e+00 -1.412408612668514252e-02 4.422548294067382812e+00 1.322527289390563965e+00 3.364038169384002686e-01
4.237000000000000000e+03 4.544398880004882812e+01 1.445855617523193359e+01 4.071385562419891357e-01 1.366418242454528809e+00 5.320670604705810547e-01 1.086245179176330566e-01
4.238000000000000000e+03 4.558840560913085938e+01 1.555885124206542969e+01 4.148612320423126221e-01 1.266914486885070801e+00 5.045326948165893555e-01 1.039610207080841064e-01
4.239000000000000000e+03 4.742786026000976562e+01 1.405825328826904297e+01 4.137532114982604980e-01 1.799002051353454590e+00 6.638265848159790039e-01 3.174136877059936523e-01
4.240000000000000000e+03 5.838977813720703125e+01 7.656417846679687500e+00 -1.726227402687072754e-01 5.112908363342285156e+00 1.482085585594177246e+00 4.903332293033599854e-01
4.241000000000000000e+03 5.525262069702148438e+01 4.594176769256591797e+00 -9.060738375410437584e-04 4.289400100708007812e+00 1.286548137664794922e+00 3.812097311019897461e-01
4.242000000000000000e+03 6.047874069213867188e+01 1.641966056823730469e+01 -5.710968971252441406e-01 6.452555656433105469e+00 1.764437556266784668e+00 1.047434687614440918e+00
4.243000000000000000e+03 4.439793777465820312e+01 5.223540663719177246e-01 2.016152292490005493e-01 1.978265404701232910e+00 6.539641618728637695e-01 4.070837050676345825e-02
4.244000000000000000e+03 5.460363006591796875e+01 -1.121072006225585938e+01 3.668531030416488647e-02 4.173709392547607422e+00 1.263118386268615723e+00 9.931467473506927490e-02
4.245000000000000000e+03 5.559666061401367188e+01 -1.225942420959472656e+01 3.512320667505264282e-02 4.380117416381835938e+00 1.324572205543518066e+00 8.625664561986923218e-02
4.246000000000000000e+03 6.110568618774414062e+01 1.707020759582519531e+01 -6.734494566917419434e-01 6.829402446746826172e+00 1.846785783767700195e+00 1.018672108650207520e+00
4.247000000000000000e+03 4.410838317871093750e+01 1.130075168609619141e+01 3.693664669990539551e-01 1.410950064659118652e+00 5.340949296951293945e-01 3.336741402745246887e-02
4.248000000000000000e+03 5.760606002807617188e+01 6.845070362091064453e+00 -1.159254983067512512e-01 4.892837047576904297e+00 1.433073520660400391e+00 4.587662518024444580e-01
4.249000000000000000e+03 5.695232009887695312e+01 5.922363281250000000e+00 -8.311103284358978271e-02 4.716100215911865234e+00 1.389896750450134277e+00 4.358031153678894043e-01
4.250000000000000000e+03 4.324435043334960938e+01 7.638720989227294922e+00 3.136041462421417236e-01 1.483423829078674316e+00 5.391083955764770508e-01 6.651693955063819885e-03
4.251000000000000000e+03 4.305873489379882812e+01 8.800617218017578125e+00 3.214744329452514648e-01 1.382129311561584473e+00 5.110810995101928711e-01 -1.732101850211620331e-02
4.252000000000000000e+03 5.850160217285156250e+01 -6.049828529357910156e+00 -5.713591352105140686e-03 4.963678359985351562e+00 1.487389445304870605e+00 1.419419646263122559e-01
4.253000000000000000e+03 5.858015441894531250e+01 -7.476306915283203125e+00 4.308654461055994034e-03 4.960972309112548828e+00 1.489584326744079590e+00 1.193957924842834473e-01
4.254000000000000000e+03 6.349541091918945312e+01 -1.895521926879882812e+01 1.437674649059772491e-02 5.899699211120605469e+00 1.774222850799560547e+00 5.252038314938545227e-02
4.255000000000000000e+03 5.669057464599609375e+01 -1.345008754730224609e+01 3.527418151497840881e-02 4.589217185974121094e+00 1.387347340583801270e+00 9.010086208581924438e-02
4.256000000000000000e+03 5.859757232666015625e+01 -4.812937736511230469e+00 -6.511398125439882278e-03 5.001726150512695312e+00 1.498564362525939941e+00 1.524620205163955688e-01
4.257000000000000000e+03 5.618877792358398438e+01 -6.359992980957031250e+00 2.397060953080654144e-02 4.475823879241943359e+00 1.349938273429870605e+00 1.310768574476242065e-01
4.258000000000000000e+03 5.596792984008789062e+01 2.097572684288024902e-01 -4.372069146484136581e-03 4.452394962310791016e+00 1.334406852722167969e+00 2.442862242460250854e-01
4.259000000000000000e+03 4.442029571533203125e+01 -7.835955619812011719e+00 1.152855232357978821e-01 2.152500152587890625e+00 6.803357005119323730e-01 1.996988058090209961e-02
4.260000000000000000e+03 4.109331512451171875e+01 -9.030641555786132812e+00 1.079586222767829895e-01 1.580411553382873535e+00 5.065110325813293457e-01 -2.194649353623390198e-02
4.261000000000000000e+03 6.007858276367187500e+01 1.827782249450683594e+01 -5.564281344413757324e-01 6.526862621307373047e+00 1.791130304336547852e+00 1.375058889389038086e+00
4.262000000000000000e+03 6.070292282104492188e+01 2.000834274291992188e+01 -6.872954964637756348e-01 7.249774932861328125e+00 1.968743801116943359e+00 1.524392247200012207e+00
4.263000000000000000e+03 5.999087905883789062e+01 1.712556266784667969e+01 -5.278090238571166992e-01 6.318642616271972656e+00 1.737250089645385742e+00 1.217273473739624023e+00
4.264000000000000000e+03 5.703271484375000000e+01 1.851032829284667969e+01 -5.752481147646903992e-02 4.868445873260498047e+00 1.443276286125183105e+00 1.601028800010681152e+00
4.265000000000000000e+03 6.179623794555664062e+01 2.288165283203125000e+01 -9.074370265007019043e-01 8.993410110473632812e+00 2.425791978836059570e+00 1.604980230331420898e+00
4.266000000000000000e+03 6.062952041625976562e+01 1.882659530639648438e+01 -6.650736927986145020e-01 6.931823253631591797e+00 1.880024790763854980e+00 1.364249587059020996e+00
4.267000000000000000e+03 5.644318389892578125e+01 1.749386787414550781e+01 7.135547231882810593e-03 4.527322292327880859e+00 1.360337376594543457e+00 1.425146937370300293e+00
4.268000000000000000e+03 5.852261352539062500e+01 1.649250602722167969e+01 -3.055504560470581055e-01 5.560595512390136719e+00 1.576513528823852539e+00 1.278429508209228516e+00
4.269000000000000000e+03 6.135718154907226562e+01 2.043591117858886719e+01 -8.045529127120971680e-01 7.727386951446533203e+00 2.076850175857543945e+00 1.415796041488647461e+00
4.270000000000000000e+03 6.242090988159179688e+01 2.274665069580078125e+01 -9.790374040603637695e-01 9.293070793151855469e+00 2.494210004806518555e+00 1.233075976371765137e+00
4.271000000000000000e+03 5.215433502197265625e+01 1.556158351898193359e+01 3.253830373287200928e-01 2.912701368331909180e+00 9.714252948760986328e-01 8.719952106475830078e-01
4.272000000000000000e+03 4.560512924194335938e+01 1.041102600097656250e+01 3.568843007087707520e-01 1.743548274040222168e+00 6.301297545433044434e-01 1.474387198686599731e-01
4.273000000000000000e+03 4.936883926391601562e+01 1.381841754913330078e+01 3.811385929584503174e-01 2.283815622329711914e+00 7.994862794876098633e-01 5.058249235153198242e-01
4.274000000000000000e+03 4.945606994628906250e+01 1.510136604309082031e+01 4.127981662750244141e-01 2.156012296676635742e+00 7.706431150436401367e-01 5.584553480148315430e-01
4.275000000000000000e+03 4.833608627319335938e+01 1.287310028076171875e+01 3.790350854396820068e-01 2.109393119812011719e+00 7.465284466743469238e-01 3.915637731552124023e-01
4.276000000000000000e+03 5.765204620361328125e+01 1.217809772491455078e+01 -1.929366141557693481e-01 5.046228885650634766e+00 1.455987691879272461e+00 8.144189119338989258e-01
4.277000000000000000e+03 5.669115066528320312e+01 1.656711387634277344e+01 -6.098208948969841003e-02 4.682682514190673828e+00 1.386510252952575684e+00 1.300819277763366699e+00
4.278000000000000000e+03 5.924174880981445312e+01 1.445455741882324219e+01 -3.778494000434875488e-01 5.777513027191162109e+00 1.619899153709411621e+00 9.517798423767089844e-01
4.279000000000000000e+03 5.979578781127929688e+01 1.599446773529052734e+01 -4.773361682891845703e-01 6.124493122100830078e+00 1.694146990776062012e+00 1.067581415176391602e+00
4.280000000000000000e+03 4.415712738037109375e+01 1.358691501617431641e+01 3.827811777591705322e-01 1.217218637466430664e+00 4.799999296665191650e-01 1.333076413720846176e-02
4.281000000000000000e+03 4.525433731079101562e+01 1.341462135314941406e+01 3.978608250617980957e-01 1.438229084014892578e+00 5.508269667625427246e-01 1.062228307127952576e-01
4.282000000000000000e+03 5.444447708129882812e+01 2.767153024673461914e+00 3.274318203330039978e-02 4.086136341094970703e+00 1.235663890838623047e+00 3.209921717643737793e-01
4.283000000000000000e+03 5.407873153686523438e+01 4.109743118286132812e+00 4.614072665572166443e-02 3.985175371170043945e+00 1.209394812583923340e+00 3.696683049201965332e-01
4.284000000000000000e+03 5.685447692871093750e+01 1.425562572479248047e+01 -1.226870194077491760e-01 4.798931121826171875e+00 1.402873277664184570e+00 1.036458134651184082e+00
4.285000000000000000e+03 5.742151260375976562e+01 1.328473949432373047e+01 -1.792903542518615723e-01 4.998634338378906250e+00 1.445803165435791016e+00 9.264805912971496582e-01
4.286000000000000000e+03 5.557395935058593750e+01 1.744504165649414062e+01 1.063690260052680969e-01 4.124499797821044922e+00 1.269260644912719727e+00 1.370606541633605957e+00
4.287000000000000000e+03 5.683952331542968750e+01 7.786996841430664062e+00 -9.232512116432189941e-02 4.701946258544921875e+00 1.382886409759521484e+00 5.142306089401245117e-01
4.288000000000000000e+03 5.771850967407226562e+01 9.182975769042968750e+00 -1.629643291234970093e-01 4.968606472015380859e+00 1.441692590713500977e+00 5.800629258155822754e-01
4.289000000000000000e+03 4.393218231201171875e+01 4.090044021606445312e+00 2.451793551445007324e-01 1.767020463943481445e+00 6.036599278450012207e-01 3.269532695412635803e-02
4.290000000000000000e+03 5.961387252807617188e+01 1.885248756408691406e+01 -4.920434653759002686e-01 6.348278522491455078e+00 1.756870508193969727e+00 1.529627561569213867e+00
4.291000000000000000e+03 5.597121047973632812e+01 6.101303577423095703e+00 -3.860574215650558472e-02 4.467157840728759766e+00 1.328565597534179688e+00 4.466944634914398193e-01
4.292000000000000000e+03 5.626618576049804688e+01 5.150465011596679688e+00 -4.448174685239791870e-02 4.535363674163818359e+00 1.347264647483825684e+00 3.939785361289978027e-01
4.293000000000000000e+03 5.656531143188476562e+01 -1.027292966842651367e+00 -3.517314093187451363e-03 4.587563514709472656e+00 1.375213861465454102e+00 2.172813862562179565e-01
4.294000000000000000e+03 4.705995941162109375e+01 8.001341819763183594e+00 2.980825304985046387e-01 2.195887565612792969e+00 7.481909990310668945e-01 2.151733040809631348e-01
4.295000000000000000e+03 4.426716995239257812e+01 1.016888618469238281e+01 3.500029444694519043e-01 1.509524106979370117e+00 5.578581094741821289e-01 4.962104186415672302e-02
4.296000000000000000e+03 4.388858795166015625e+01 -3.625502586364746094e+00 1.461677849292755127e-01 1.984781026840209961e+00 6.392846107482910156e-01 1.053665205836296082e-02
4.297000000000000000e+03 4.763781356811523438e+01 3.079674720764160156e+00 2.003628164529800415e-01 2.550581932067871094e+00 8.252834081649780273e-01 1.717620044946670532e-01
4.298000000000000000e+03 4.503562545776367188e+01 3.393184661865234375e+00 2.371372133493423462e-01 2.004734039306640625e+00 6.725614070892333984e-01 7.915300875902175903e-02
4.299000000000000000e+03 4.530960464477539062e+01 -4.376126229763031006e-01 1.812064051628112793e-01 2.192085504531860352e+00 7.119875550270080566e-01 6.521644443273544312e-02
4.300000000000000000e+03 5.743755340576171875e+01 -4.606540679931640625e+00 8.685431443154811859e-03 4.748935699462890625e+00 1.427286386489868164e+00 1.588577032089233398e-01
4.301000000000000000e+03 6.230303192138671875e+01 -1.780310058593750000e+01 2.134829573333263397e-02 5.688695907592773438e+00 1.713013291358947754e+00 5.797677487134933472e-02
4.302000000000000000e+03 4.126242065429687500e+01 -1.462780380249023438e+01 7.636266946792602539e-02 1.653488278388977051e+00 5.189552903175354004e-01 -1.373470947146415710e-02
4.303000000000000000e+03 5.903580856323242188e+01 1.830813217163085938e+01 -3.975551724433898926e-01 6.000024318695068359e+00 1.680740714073181152e+00 1.497464060783386230e+00
4.304000000000000000e+03 5.837728881835937500e+01 1.767304039001464844e+01 -2.886389493942260742e-01 5.578276634216308594e+00 1.586891293525695801e+00 1.444828510284423828e+00
4.305000000000000000e+03 6.176741790771484375e+01 2.214167594909667969e+01 -9.004957079887390137e-01 8.596481323242187500e+00 2.308795690536499023e+00 1.495307207107543945e+00
4.306000000000000000e+03 6.015690994262695312e+01 1.940646934509277344e+01 -5.858350396156311035e-01 6.761397361755371094e+00 1.852668642997741699e+00 1.550923109054565430e+00
4.307000000000000000e+03 4.728149414062500000e+01 1.299395465850830078e+01 3.972692787647247314e-01 1.871876120567321777e+00 6.807436347007751465e-01 3.004929721355438232e-01
4.308000000000000000e+03 4.943720245361328125e+01 1.288579559326171875e+01 3.593964874744415283e-01 2.383116722106933594e+00 8.227539658546447754e-01 4.921614229679107666e-01
4.309000000000000000e+03 5.221590042114257812e+01 1.462864875793457031e+01 2.945753633975982666e-01 3.047906875610351562e+00 1.002744674682617188e+00 8.278517127037048340e-01
4.310000000000000000e+03 5.656465911865234375e+01 1.022300434112548828e+01 -8.869562298059463501e-02 4.630722999572753906e+00 1.362608194351196289e+00 6.809729337692260742e-01
4.311000000000000000e+03 5.622844696044921875e+01 8.813874244689941406e+00 -6.889870017766952515e-02 4.547655105590820312e+00 1.343626976013183594e+00 5.872867107391357422e-01
4.312000000000000000e+03 5.131257247924804688e+01 1.438086509704589844e+01 3.412630259990692139e-01 2.750041961669921875e+00 9.273915290832519531e-01 7.319681048393249512e-01
4.313000000000000000e+03 5.885671234130859375e+01 1.559369754791259766e+01 -3.446061611175537109e-01 5.607357501983642578e+00 1.578825354576110840e+00 1.119627475738525391e+00
4.314000000000000000e+03 4.839250183105468750e+01 1.386803817749023438e+01 4.067087173461914062e-01 2.032199859619140625e+00 7.316725850105285645e-01 4.169952571392059326e-01
4.315000000000000000e+03 4.627672576904296875e+01 1.321258831024169922e+01 4.011224806308746338e-01 1.659375667572021484e+00 6.181494593620300293e-01 2.034905701875686646e-01
4.316000000000000000e+03 5.636831283569335938e+01 1.276856517791748047e+01 -7.552315294742584229e-02 4.587149143218994141e+00 1.353487849235534668e+00 8.842794299125671387e-01
4.317000000000000000e+03 5.402745437622070312e+01 1.242101192474365234e+01 1.142033487558364868e-01 3.765408515930175781e+00 1.163883566856384277e+00 8.029698729515075684e-01
4.318000000000000000e+03 5.509362030029296875e+01 1.069961452484130859e+01 1.505822688341140747e-02 4.176879882812500000e+00 1.257581353187561035e+00 7.219468355178833008e-01
4.319000000000000000e+03 5.698938369750976562e+01 9.494852066040039062e+00 -1.194847151637077332e-01 4.755946636199951172e+00 1.390938639640808105e+00 6.205456852912902832e-01
4.320000000000000000e+03 5.627650833129882812e+01 1.511386871337890625e+01 -4.522143676877021790e-02 4.533350944519042969e+00 1.346438884735107422e+00 1.132560610771179199e+00
4.321000000000000000e+03 5.460157394409179688e+01 1.672092628479003906e+01 1.856296509504318237e-01 3.759224176406860352e+00 1.183456182479858398e+00 1.219226956367492676e+00
4.322000000000000000e+03 5.810593414306640625e+01 1.561853694915771484e+01 -2.614999413490295410e-01 5.339511394500732422e+00 1.523403406143188477e+00 1.164328813552856445e+00
4.323000000000000000e+03 5.591028976440429688e+01 1.141979122161865234e+01 -3.635305538773536682e-02 4.417589187622070312e+00 1.314370751380920410e+00 7.718321084976196289e-01
4.324000000000000000e+03 5.888308334350585938e+01 1.713002777099609375e+01 -3.621611297130584717e-01 5.784777641296386719e+00 1.626784920692443848e+00 1.319149613380432129e+00
4.325000000000000000e+03 5.448616409301757812e+01 1.601203536987304688e+01 1.738117337226867676e-01 3.748837232589721680e+00 1.176794648170471191e+00 1.129933595657348633e+00
4.326000000000000000e+03 5.588679885864257812e+01 1.599946498870849609e+01 2.342626452445983887e-02 4.324071407318115234e+00 1.304249286651611328e+00 1.223934888839721680e+00
4.327000000000000000e+03 5.573320388793945312e+01 7.186846256256103516e+00 -3.417237475514411926e-02 4.404986858367919922e+00 1.311244249343872070e+00 5.020076036453247070e-01
4.328000000000000000e+03 5.757051849365234375e+01 1.706628036499023438e+01 -1.723113507032394409e-01 5.130052089691162109e+00 1.487322211265563965e+00 1.380020856857299805e+00
4.329000000000000000e+03 5.510072708129882812e+01 1.434820771217346191e+00 2.005437202751636505e-02 4.246744155883789062e+00 1.280039548873901367e+00 2.761195600032806396e-01
4.330000000000000000e+03 4.602576828002929688e+01 1.215760421752929688e+01 3.831671774387359619e-01 1.703236818313598633e+00 6.259211897850036621e-01 1.779984682798385620e-01
4.331000000000000000e+03 4.440230941772460938e+01 9.000620841979980469e+00 3.371796309947967529e-01 1.609578371047973633e+00 5.840274095535278320e-01 6.853851675987243652e-02
4.332000000000000000e+03 4.258924865722656250e+01 -4.447322845458984375e+00 1.335816532373428345e-01 1.745540261268615723e+00 5.637365579605102539e-01 -8.603048510849475861e-03
4.333000000000000000e+03 4.508548736572265625e+01 -2.589211702346801758e+00 1.525704115629196167e-01 2.198973178863525391e+00 7.054630517959594727e-01 4.380118846893310547e-02
4.334000000000000000e+03 4.627174377441406250e+01 7.003527879714965820e-01 1.888564825057983398e-01 2.345010995864868164e+00 7.601602673530578613e-01 9.593829512596130371e-02
4.335000000000000000e+03 4.525812911987304688e+01 1.521121263504028320e+00 2.115128338336944580e-01 2.124243259429931641e+00 7.007268071174621582e-01 7.964323461055755615e-02
4.336000000000000000e+03 4.601198959350585938e+01 2.570802688598632812e+00 2.194009721279144287e-01 2.243633270263671875e+00 7.389102578163146973e-01 1.067731678485870361e-01
4.337000000000000000e+03 4.572900772094726562e+01 5.371516227722167969e+00 2.599803209304809570e-01 2.051774024963378906e+00 6.935263276100158691e-01 1.140279546380043030e-01
4.338000000000000000e+03 4.451304244995117188e+01 7.818819046020507812e+00 3.165443241596221924e-01 1.696149230003356934e+00 6.038080453872680664e-01 7.354637235403060913e-02
4.339000000000000000e+03 4.595745086669921875e+01 4.232032299041748047e+00 2.418580353260040283e-01 2.141487598419189453e+00 7.150036692619323730e-01 1.161805838346481323e-01
4.340000000000000000e+03 5.427887344360351562e+01 -1.273777484893798828e+01 4.904728755354881287e-02 4.135971546173095703e+00 1.255505681037902832e+00 8.395673334598541260e-02
4.341000000000000000e+03 5.408921432495117188e+01 -1.471474075317382812e+01 4.630488902330398560e-02 4.098235607147216797e+00 1.243362188339233398e+00 7.192401587963104248e-02
4.342000000000000000e+03 5.419983291625976562e+01 -2.718731164932250977e+00 3.951425850391387939e-02 4.064026355743408203e+00 1.231062293052673340e+00 1.816424876451492310e-01
4.343000000000000000e+03 5.535879135131835938e+01 -5.171345233917236328e+00 3.569480031728744507e-02 4.337726116180419922e+00 1.312026262283325195e+00 1.532078385353088379e-01
4.344000000000000000e+03 5.744438934326171875e+01 -1.591389942169189453e+01 3.236833959817886353e-02 4.752902507781982422e+00 1.435581326484680176e+00 7.262198626995086670e-02
4.345000000000000000e+03 5.324475479125976562e+01 -1.918235969543457031e+01 4.848488792777061462e-02 3.951309442520141602e+00 1.199938297271728516e+00 5.266227200627326965e-02
4.346000000000000000e+03 5.681214523315429688e+01 -2.976313352584838867e+00 5.987499025650322437e-04 4.651856422424316406e+00 1.395736575126647949e+00 1.758228540420532227e-01
4.347000000000000000e+03 4.500502777099609375e+01 -1.097748470306396484e+01 9.794574975967407227e-02 2.326388359069824219e+00 7.273002266883850098e-01 2.340004220604896545e-02
4.348000000000000000e+03 5.823369979858398438e+01 1.463839435577392578e+01 -2.578677535057067871e-01 5.302187442779541016e+00 1.513295888900756836e+00 1.030948400497436523e+00
4.349000000000000000e+03 5.783681106567382812e+01 1.628495216369628906e+01 -2.251765578985214233e-01 5.248419284820556641e+00 1.506972789764404297e+00 1.264382243156433105e+00
4.350000000000000000e+03 5.384990692138671875e+01 1.601032829284667969e+01 2.311963289976119995e-01 3.492196559906005859e+00 1.117017865180969238e+00 1.095018982887268066e+00
4.351000000000000000e+03 5.543548583984375000e+01 1.218137264251708984e+01 3.732173354364931583e-04 4.249458312988281250e+00 1.274949431419372559e+00 8.305355310440063477e-01
4.352000000000000000e+03 4.828599929809570312e+01 1.057155036926269531e+01 3.325318098068237305e-01 2.308650016784667969e+00 7.923545837402343750e-01 3.480338752269744873e-01
4.353000000000000000e+03 5.408539962768554688e+01 1.000664997100830078e+01 7.561320066452026367e-02 3.874435901641845703e+00 1.185014724731445312e+00 6.476340889930725098e-01
4.354000000000000000e+03 5.666867446899414062e+01 1.194132900238037109e+01 -1.044221222400665283e-01 4.686417102813720703e+00 1.374598383903503418e+00 8.336176276206970215e-01
4.355000000000000000e+03 5.057666397094726562e+01 1.303501605987548828e+01 3.232342898845672607e-01 2.696182012557983398e+00 9.058248996734619141e-01 6.102899312973022461e-01
4.356000000000000000e+03 5.515370559692382812e+01 1.579369831085205078e+01 9.239073842763900757e-02 4.041594505310058594e+00 1.240195512771606445e+00 1.142329692840576172e+00
4.357000000000000000e+03 5.537358474731445312e+01 1.656688880920410156e+01 9.898833185434341431e-02 4.105165004730224609e+00 1.261245965957641602e+00 1.273675560951232910e+00
4.358000000000000000e+03 5.592920684814453125e+01 1.360833454132080078e+01 -2.888460457324981689e-02 4.436770915985107422e+00 1.322365880012512207e+00 9.569588899612426758e-01
4.359000000000000000e+03 4.510500335693359375e+01 1.242840099334716797e+01 3.875692486763000488e-01 1.475239038467407227e+00 5.588424801826477051e-01 1.076613813638687134e-01
4.360000000000000000e+03 4.577836227416992188e+01 6.670349597930908203e+00 2.875280678272247314e-01 1.995809674263000488e+00 6.850013136863708496e-01 1.304438263177871704e-01
4.361000000000000000e+03 4.577864837646484375e+01 7.926281452178955078e+00 3.102348148822784424e-01 1.935592293739318848e+00 6.737481355667114258e-01 1.430002003908157349e-01
4.362000000000000000e+03 5.726895904541015625e+01 -1.880928039550781250e+00 -1.278425473719835281e-02 4.720870971679687500e+00 1.412425994873046875e+00 1.928373724222183228e-01
4.363000000000000000e+03 5.456952667236328125e+01 -7.482407093048095703e-01 3.781669214367866516e-02 4.119907855987548828e+00 1.247317314147949219e+00 2.260256111621856689e-01
4.364000000000000000e+03 5.458901977539062500e+01 1.372831249237060547e+01 9.683754295110702515e-02 3.908709287643432617e+00 1.201664090156555176e+00 9.149509668350219727e-01
4.365000000000000000e+03 5.542042541503906250e+01 1.441085720062255859e+01 3.537845611572265625e-02 4.208636283874511719e+00 1.273204445838928223e+00 1.034985899925231934e+00
4.366000000000000000e+03 4.815602111816406250e+01 1.337468028068542480e+00 1.771513521671295166e-01 2.720188856124877930e+00 8.692020177841186523e-01 1.620093137025833130e-01
4.367000000000000000e+03 4.443790435791015625e+01 5.355808258056640625e+00 2.722704112529754639e-01 1.806793093681335449e+00 6.237190365791320801e-01 6.107550114393234253e-02
4.368000000000000000e+03 4.666787719726562500e+01 3.517959117889404297e+00 2.191924750804901123e-01 2.330583810806274414e+00 7.649328708648681641e-01 1.343877017498016357e-01
4.369000000000000000e+03 5.354269790649414062e+01 -1.857311725616455078e+00 6.737071275711059570e-02 3.894792795181274414e+00 1.188649058341979980e+00 2.045497596263885498e-01
4.370000000000000000e+03 5.489225006103515625e+01 5.702172279357910156e+00 1.463293097913265228e-02 4.172909259796142578e+00 1.256262779235839844e+00 4.357300102710723877e-01
4.371000000000000000e+03 5.271031570434570312e+01 5.079982280731201172e+00 9.938391298055648804e-02 3.625956058502197266e+00 1.117601990699768066e+00 3.841850459575653076e-01
4.372000000000000000e+03 4.995169067382812500e+01 2.379245042800903320e+00 1.534256041049957275e-01 3.072516918182373047e+00 9.677827358245849609e-01 2.292245477437973022e-01
4.373000000000000000e+03 5.530989837646484375e+01 -1.899923920631408691e+00 2.543111331760883331e-02 4.306097030639648438e+00 1.299458503723144531e+00 2.011582851409912109e-01
4.374000000000000000e+03 4.696410369873046875e+01 1.055442905426025391e+01 3.530238568782806396e-01 1.999988675117492676e+00 7.059037685394287109e-01 2.439173310995101929e-01
4.375000000000000000e+03 5.381114959716796875e+01 4.158452153205871582e-01 4.810565710067749023e-02 3.953337430953979492e+00 1.200432896614074707e+00 2.568400204181671143e-01
4.376000000000000000e+03 5.279433441162109375e+01 3.825139999389648438e+00 8.964093774557113647e-02 3.690587043762207031e+00 1.134068369865417480e+00 3.400870561599731445e-01
4.377000000000000000e+03 5.177563858032226562e+01 -4.927394866943359375e+00 7.977703958749771118e-02 3.574800968170166016e+00 1.096373438835144043e+00 1.338485628366470337e-01
4.378000000000000000e+03 5.413571166992187500e+01 -8.864644050598144531e+00 5.116496235132217407e-02 4.082948207855224609e+00 1.240234017372131348e+00 1.179235428571701050e-01
4.379000000000000000e+03 5.456861114501953125e+01 6.780220985412597656e+00 2.806741371750831604e-02 4.077097415924072266e+00 1.231549382209777832e+00 4.762194156646728516e-01
4.380000000000000000e+03 5.268309020996093750e+01 -1.227482795715332031e+01 6.075288727879524231e-02 3.803726434707641602e+00 1.159343719482421875e+00 7.394201308488845825e-02
4.381000000000000000e+03 6.057860946655273438e+01 -1.563380908966064453e+01 1.928784511983394623e-02 5.321924209594726562e+00 1.602363586425781250e+00 5.928631126880645752e-02
4.382000000000000000e+03 6.100337982177734375e+01 -1.900528526306152344e+01 2.397397346794605255e-02 5.434358596801757812e+00 1.637499809265136719e+00 5.755668133497238159e-02
4.383000000000000000e+03 6.477985382080078125e+01 -2.018416595458984375e+01 2.551219193264842033e-03 6.139542102813720703e+00 1.842628002166748047e+00 3.714812546968460083e-02
4.384000000000000000e+03 5.588320922851562500e+01 -1.528443431854248047e+01 4.252051934599876404e-02 4.447955608367919922e+00 1.347142815589904785e+00 7.717619836330413818e-02
4.385000000000000000e+03 5.883176040649414062e+01 -1.785263633728027344e+01 2.719503268599510193e-02 5.015719413757324219e+00 1.512874364852905273e+00 6.560156494379043579e-02
4.386000000000000000e+03 4.828775405883789062e+01 1.176948738098144531e+01 3.555905222892761230e-01 2.211620807647705078e+00 7.701634168624877930e-01 3.686784803867340088e-01
4.387000000000000000e+03 4.706911087036132812e+01 1.182967281341552734e+01 3.776653707027435303e-01 1.923428893089294434e+00 6.903282403945922852e-01 2.672111690044403076e-01
4.388000000000000000e+03 5.374326705932617188e+01 1.323986625671386719e+01 1.442033648490905762e-01 3.634531497955322266e+00 1.133620500564575195e+00 8.483512997627258301e-01
4.389000000000000000e+03 5.292740249633789062e+01 1.443295860290527344e+01 2.383177727460861206e-01 3.306910037994384766e+00 1.063568353652954102e+00 8.912816643714904785e-01
4.390000000000000000e+03 4.946879196166992188e+01 1.182556533813476562e+01 3.332768678665161133e-01 2.479047298431396484e+00 8.436972498893737793e-01 4.761859774589538574e-01
4.391000000000000000e+03 5.390188598632812500e+01 8.561484336853027344e+00 7.164438813924789429e-02 3.876902580261230469e+00 1.184564113616943359e+00 5.669098496437072754e-01
4.392000000000000000e+03 5.180133438110351562e+01 1.023246097564697266e+01 2.020462602376937866e-01 3.207004547119140625e+00 1.022715210914611816e+00 5.673575401306152344e-01
4.393000000000000000e+03 5.565919494628906250e+01 9.783475875854492188e+00 -3.362931311130523682e-02 4.364442348480224609e+00 1.299243927001953125e+00 6.620969176292419434e-01
4.394000000000000000e+03 5.451794433593750000e+01 1.154727458953857422e+01 6.618232280015945435e-02 3.964674234390258789e+00 1.209257006645202637e+00 7.631942629814147949e-01
4.395000000000000000e+03 4.826692199707031250e+01 -2.180120944976806641e+00 1.355568319559097290e-01 2.814002513885498047e+00 8.848678469657897949e-01 1.205771937966346741e-01
4.396000000000000000e+03 5.114128875732421875e+01 -1.365431547164916992e+00 9.757675975561141968e-02 3.420095682144165039e+00 1.055301785469055176e+00 1.857300251722335815e-01
4.397000000000000000e+03 4.697553253173828125e+01 4.440504074096679688e+00 2.289142161607742310e-01 2.364044666290283203e+00 7.778876423835754395e-01 1.675757169723510742e-01
4.398000000000000000e+03 5.357756805419921875e+01 6.342311859130859375e+00 7.124716788530349731e-02 3.826860427856445312e+00 1.169432282447814941e+00 4.553972184658050537e-01
4.399000000000000000e+03 5.382054519653320312e+01 5.302619934082031250e+00 5.709411203861236572e-02 3.920958042144775391e+00 1.193415641784667969e+00 4.101059734821319580e-01
4.400000000000000000e+03 4.800458526611328125e+01 4.266994476318359375e+00 2.132126390933990479e-01 2.582761287689208984e+00 8.387922048568725586e-01 2.010521143674850464e-01
4.401000000000000000e+03 5.526372909545898438e+01 8.231702804565429688e+00 -9.247551672160625458e-03 4.275116443634033203e+00 1.279760599136352539e+00 5.558226108551025391e-01
4.402000000000000000e+03 4.704745483398437500e+01 1.899242162704467773e+00 1.991864889860153198e-01 2.472791910171508789e+00 8.015935420989990234e-01 1.267831623554229736e-01
4.403000000000000000e+03 4.736836242675781250e+01 -1.066601052880287170e-01 1.694915890693664551e-01 2.601421833038330078e+00 8.312740325927734375e-01 1.168835908174514771e-01
4.404000000000000000e+03 5.292643737792968750e+01 2.422958374023437500e+00 7.848631590604782104e-02 3.746178865432739258e+00 1.147399544715881348e+00 2.975763082504272461e-01
4.405000000000000000e+03 4.872752761840820312e+01 2.700534820556640625e+00 1.795177757740020752e-01 2.788021087646484375e+00 8.902616500854492188e-01 1.978976130485534668e-01
4.406000000000000000e+03 5.264229583740234375e+01 -1.345634013414382935e-01 8.324858546257019043e-02 3.696076631546020508e+00 1.133797645568847656e+00 2.162497937679290771e-01
4.407000000000000000e+03 5.316876602172851562e+01 -3.145837068557739258e+00 6.077839806675910950e-02 3.800481081008911133e+00 1.158377885818481445e+00 1.754084080457687378e-01
4.408000000000000000e+03 5.636117172241210938e+01 -4.121367931365966797e+00 1.980414614081382751e-02 4.535505771636962891e+00 1.366593003273010254e+00 1.574441790580749512e-01
4.409000000000000000e+03 4.571747207641601562e+01 9.161526679992675781e+00 3.376564383506774902e-01 1.852261543273925781e+00 6.569753885269165039e-01 1.490307599306106567e-01
4.410000000000000000e+03 5.400483703613281250e+01 -6.263775825500488281e+00 4.752234742045402527e-02 4.018198966979980469e+00 1.219716429710388184e+00 1.434138715267181396e-01
4.411000000000000000e+03 4.474746704101562500e+01 -4.983763217926025391e+00 1.358019560575485229e-01 2.198579072952270508e+00 7.003143429756164551e-01 3.070156462490558624e-02
4.412000000000000000e+03 4.708035659790039062e+01 -2.572484970092773438e+00 1.473947614431381226e-01 2.593945503234863281e+00 8.224020600318908691e-01 9.149897098541259766e-02
4.413000000000000000e+03 4.596673202514648438e+01 -3.733191490173339844e+00 1.415407657623291016e-01 2.388952255249023438e+00 7.591478824615478516e-01 6.735301762819290161e-02
4.414000000000000000e+03 4.969193267822265625e+01 8.027236938476562500e+00 2.377454787492752075e-01 2.806343555450439453e+00 9.132266640663146973e-01 3.699241280555725098e-01
4.415000000000000000e+03 4.702833938598632812e+01 9.264920234680175781e+00 3.227658271789550781e-01 2.109693527221679688e+00 7.297378182411193848e-01 2.331943511962890625e-01
4.416000000000000000e+03 5.720188522338867188e+01 -7.271718978881835938e+00 1.723848469555377960e-02 4.696919918060302734e+00 1.414247512817382812e+00 1.228940933942794800e-01
4.417000000000000000e+03 4.980973815917968750e+01 -1.563450527191162109e+01 6.552699208259582520e-02 3.267930984497070312e+00 1.000037431716918945e+00 4.557676240801811218e-02
4.418000000000000000e+03 5.723812103271484375e+01 -1.779311180114746094e+01 3.723963350057601929e-02 4.713866233825683594e+00 1.425331711769104004e+00 6.809940934181213379e-02
4.419000000000000000e+03 6.180080413818359375e+01 -2.189916419982910156e+01 2.312626130878925323e-02 5.584805488586425781e+00 1.682379603385925293e+00 4.548117145895957947e-02
4.420000000000000000e+03 5.500523376464843750e+01 1.297946834564208984e+01 4.800042137503623962e-02 4.092727184295654297e+00 1.242218255996704102e+00 8.920326232910156250e-01
4.421000000000000000e+03 5.162373733520507812e+01 1.341615962982177734e+01 2.837819159030914307e-01 2.958319664001464844e+00 9.726305007934570312e-01 7.073629498481750488e-01
4.422000000000000000e+03 5.429855346679687500e+01 7.778282642364501953e+00 4.338035732507705688e-02 3.994434595108032227e+00 1.211344480514526367e+00 5.213344693183898926e-01
4.423000000000000000e+03 5.296413040161132812e+01 1.331289100646972656e+01 2.118814140558242798e-01 3.373132944107055664e+00 1.075504302978515625e+00 8.107298612594604492e-01
4.424000000000000000e+03 5.063327026367187500e+01 1.194579792022705078e+01 2.942986786365509033e-01 2.801416873931884766e+00 9.287146329879760742e-01 5.688424706459045410e-01
4.425000000000000000e+03 5.319701004028320312e+01 9.203281402587890625e+00 1.111062988638877869e-01 3.655538082122802734e+00 1.129993319511413574e+00 5.714312791824340820e-01
4.426000000000000000e+03 5.472457885742187500e+01 9.163168907165527344e+00 2.900878898799419403e-02 4.081320285797119141e+00 1.233098745346069336e+00 6.080184578895568848e-01
4.427000000000000000e+03 4.834389877319335938e+01 9.316832542419433594e+00 3.004847764968872070e-01 2.398734807968139648e+00 8.097658157348632812e-01 3.205884099006652832e-01
4.428000000000000000e+03 5.242616653442382812e+01 -1.515187501907348633e+00 8.014994114637374878e-02 3.677434444427490234e+00 1.127275347709655762e+00 1.946119219064712524e-01
4.429000000000000000e+03 4.699998855590820312e+01 5.523049831390380859e+00 2.551356554031372070e-01 2.330174446105957031e+00 7.755929827690124512e-01 1.834572851657867432e-01
4.430000000000000000e+03 5.147776412963867188e+01 3.751295089721679688e+00 1.310949772596359253e-01 3.365354299545288086e+00 1.048934817314147949e+00 3.048290610313415527e-01
4.431000000000000000e+03 5.156731033325195312e+01 5.074855804443359375e+00 1.378788650035858154e-01 3.359091758728027344e+00 1.049091219902038574e+00 3.467800319194793701e-01
4.432000000000000000e+03 4.703679656982421875e+01 6.739049434661865234e+00 2.693152725696563721e-01 2.264937162399291992e+00 7.602757215499877930e-01 1.940062493085861206e-01
4.433000000000000000e+03 5.088854217529296875e+01 9.715535163879394531e+00 2.315966784954071045e-01 2.997765779495239258e+00 9.688087105751037598e-01 4.852294623851776123e-01
4.434000000000000000e+03 4.787047576904296875e+01 -3.472721576690673828e+00 1.297922879457473755e-01 2.773365736007690430e+00 8.709474205970764160e-01 9.432475268840789795e-02
4.435000000000000000e+03 5.330593109130859375e+01 -4.719411373138427734e+00 6.286647915840148926e-02 3.879386186599731445e+00 1.182675719261169434e+00 1.535936594009399414e-01
4.436000000000000000e+03 4.951008987426757812e+01 -2.527895689010620117e+00 1.203456744551658630e-01 3.082546949386596680e+00 9.608678221702575684e-01 1.417917907238006592e-01
4.437000000000000000e+03 4.698672485351562500e+01 -4.763541698455810547e+00 1.289502382278442383e-01 2.622841596603393555e+00 8.255375027656555176e-01 7.728442549705505371e-02
4.438000000000000000e+03 5.046435928344726562e+01 3.101615011692047119e-01 1.291312575340270996e-01 3.221731424331665039e+00 1.005258798599243164e+00 2.069516628980636597e-01
4.439000000000000000e+03 5.305082702636718750e+01 1.185242366790771484e+01 1.658236682415008545e-01 3.502475976943969727e+00 1.100489854812622070e+00 7.258814573287963867e-01
4.440000000000000000e+03 5.226954650878906250e+01 1.130781936645507812e+01 2.002006024122238159e-01 3.330940961837768555e+00 1.059342503547668457e+00 6.548315882682800293e-01
4.441000000000000000e+03 5.238835144042968750e+01 9.693365097045898438e+00 1.672226190567016602e-01 3.411978006362915039e+00 1.073760151863098145e+00 5.828182697296142578e-01
4.442000000000000000e+03 5.339461517333984375e+01 7.823207378387451172e+00 9.416518360376358032e-02 3.742636442184448242e+00 1.151040554046630859e+00 5.119716525077819824e-01
4.443000000000000000e+03 5.353516006469726562e+01 1.090774345397949219e+01 1.203267797827720642e-01 3.705206871032714844e+00 1.147660136222839355e+00 6.890845298767089844e-01
4.444000000000000000e+03 5.158494949340820312e+01 8.851581573486328125e+00 1.892590373754501343e-01 3.220545291900634766e+00 1.022941350936889648e+00 4.900192916393280029e-01
4.445000000000000000e+03 5.171157455444335938e+01 6.284647464752197266e+00 1.441511213779449463e-01 3.363362312316894531e+00 1.052254080772399902e+00 4.013340175151824951e-01
4.446000000000000000e+03 4.908933258056640625e+01 4.038654327392578125e+00 1.895677894353866577e-01 2.833744764328002930e+00 9.069938063621520996e-01 2.359329760074615479e-01
4.447000000000000000e+03 5.279846954345703125e+01 1.087445020675659180e+00 7.700081914663314819e-02 3.736442089080810547e+00 1.144032835960388184e+00 2.695947289466857910e-01
4.448000000000000000e+03 4.951714324951171875e+01 1.065896129608154297e+01 3.006635308265686035e-01 2.599805593490600586e+00 8.701407313346862793e-01 4.458744525909423828e-01
4.449000000000000000e+03 5.063945388793945312e+01 6.493651390075683594e+00 1.853126585483551025e-01 3.086960792541503906e+00 9.816820025444030762e-01 3.605225086212158203e-01
4.450000000000000000e+03 4.818347930908203125e+01 5.487944126129150391e+00 2.317099869251251221e-01 2.581721544265747070e+00 8.440294861793518066e-01 2.325273305177688599e-01
4.451000000000000000e+03 5.144886779785156250e+01 1.043650865554809570e+00 1.097387224435806274e-01 3.422297000885009766e+00 1.059610724449157715e+00 2.326851189136505127e-01
4.452000000000000000e+03 4.863047790527343750e+01 -6.832655668258666992e-01 1.495114415884017944e-01 2.857843637466430664e+00 9.022065401077270508e-01 1.399369537830352783e-01
4.453000000000000000e+03 5.269142532348632812e+01 6.142446994781494141e+00 1.084468364715576172e-01 3.604221343994140625e+00 1.113800525665283203e+00 4.116717875003814697e-01
4.454000000000000000e+03 5.252217864990234375e+01 8.304164886474609375e+00 1.355595141649246216e-01 3.486397266387939453e+00 1.086587071418762207e+00 4.989581704139709473e-01
4.455000000000000000e+03 4.584935760498046875e+01 -6.221668720245361328e+00 1.234309151768684387e-01 2.418282747268676758e+00 7.625141143798828125e-01 5.392511934041976929e-02
4.456000000000000000e+03 4.775049972534179688e+01 -9.979956626892089844e+00 9.360468387603759766e-02 2.831372022628784180e+00 8.774930238723754883e-01 5.496850609779357910e-02
4.457000000000000000e+03 4.828828430175781250e+01 6.747917652130126953e+00 2.525489926338195801e-01 2.547587633132934570e+00 8.400409817695617676e-01 2.675127685070037842e-01
4.458000000000000000e+03 5.164366149902343750e+01 1.183953571319580078e+01 2.401045858860015869e-01 3.079399585723876953e+00 9.958512783050537109e-01 6.198159456253051758e-01
4.459000000000000000e+03 4.835721206665039062e+01 8.036977767944335938e+00 2.721339762210845947e-01 2.479662895202636719e+00 8.255390524864196777e-01 2.933762669563293457e-01
4.460000000000000000e+03 5.043646621704101562e+01 5.193891048431396484e+00 1.740048676729202271e-01 3.093181133270263672e+00 9.801558256149291992e-01 3.141162991523742676e-01
4.461000000000000000e+03 4.931623840332031250e+01 5.354553699493408203e+00 2.033559978008270264e-01 2.834082841873168945e+00 9.112316370010375977e-01 2.753359675407409668e-01
4.462000000000000000e+03 4.968010330200195312e+01 9.384325981140136719e+00 2.617822289466857910e-01 2.732736349105834961e+00 8.983556032180786133e-01 4.084824025630950928e-01
4.463000000000000000e+03 4.900045394897460938e+01 -4.043943881988525391e+00 1.178964301943778992e-01 2.987160444259643555e+00 9.315170645713806152e-01 1.149611026048660278e-01
4.464000000000000000e+03 5.076327514648437500e+01 -2.876746892929077148e+00 1.055495068430900574e-01 3.357635736465454102e+00 1.038955569267272949e+00 1.517386287450790405e-01
4.465000000000000000e+03 5.094641876220703125e+01 7.775340080261230469e+00 1.945207715034484863e-01 3.112419605255126953e+00 9.920821189880371094e-01 4.221253693103790283e-01
4.466000000000000000e+03 4.949671936035156250e+01 6.669411659240722656e+00 2.201304733753204346e-01 2.826111793518066406e+00 9.138726592063903809e-01 3.170756697654724121e-01
4.467000000000000000e+03 4.991807937622070312e+01 -1.058090329170227051e+00 1.308435201644897461e-01 3.144580364227294922e+00 9.826271533966064453e-01 1.693338006734848022e-01
4.468000000000000000e+03 5.145766448974609375e+01 -7.531128823757171631e-02 1.102278605103492737e-01 3.474683761596679688e+00 1.075473427772521973e+00 2.092985212802886963e-01
4.469000000000000000e+03 5.023579025268554688e+01 3.838207006454467773e+00 1.608434170484542847e-01 3.091554403305053711e+00 9.757193922996520996e-01 2.723951637744903564e-01
4.470000000000000000e+03 5.260614776611328125e+01 1.052319908142089844e+01 1.691221892833709717e-01 3.444886445999145508e+00 1.084202647209167480e+00 6.245962977409362793e-01
4.471000000000000000e+03 5.154388427734375000e+01 1.101052379608154297e+01 2.310586720705032349e-01 3.091398477554321289e+00 9.967371225357055664e-01 5.690806508064270020e-01
4.472000000000000000e+03 4.821993255615234375e+01 -5.604370117187500000e+00 1.105840131640434265e-01 2.871591329574584961e+00 8.946526050567626953e-01 8.342268317937850952e-02
4.473000000000000000e+03 5.121101379394531250e+01 -6.930253505706787109e+00 7.266481965780258179e-02 3.487849950790405273e+00 1.068154454231262207e+00 1.134515702724456787e-01
4.474000000000000000e+03 4.941710281372070312e+01 -1.082810688018798828e+01 7.711704075336456299e-02 3.162304878234863281e+00 9.718265533447265625e-01 6.336277723312377930e-02
4.475000000000000000e+03 4.721102142333984375e+01 -7.247189044952392578e+00 1.029608994722366333e-01 2.687688589096069336e+00 8.371948003768920898e-01 5.930505692958831787e-02
4.476000000000000000e+03 4.682451629638671875e+01 -1.194005393981933594e+01 8.545370399951934814e-02 2.672297477722167969e+00 8.273254036903381348e-01 3.721887990832328796e-02
4.477000000000000000e+03 5.028385162353515625e+01 -8.896847724914550781e+00 8.292731642723083496e-02 3.315621852874755859e+00 1.019564747810363770e+00 8.270004391670227051e-02
4.478000000000000000e+03 5.030800247192382812e+01 -4.550172805786132812e+00 9.446222335100173950e-02 3.268697738647460938e+00 1.008947968482971191e+00 1.250661760568618774e-01
4.479000000000000000e+03 4.406020355224609375e+01 -1.313859653472900391e+01 8.346103876829147339e-02 2.155685424804687500e+00 6.717439889907836914e-01 1.806893013417720795e-02
4.480000000000000000e+03 4.596865463256835938e+01 -1.402366542816162109e+01 8.131306618452072144e-02 2.528369665145874023e+00 7.829048037528991699e-01 2.541731856763362885e-02
4.481000000000000000e+03 4.862486267089843750e+01 -1.279586696624755859e+01 7.988154888153076172e-02 3.024132728576660156e+00 9.312042593955993652e-01 4.927716404199600220e-02
4.482000000000000000e+03 5.275434494018554688e+01 -7.791402816772460938e+00 6.047302857041358948e-02 3.796621561050415039e+00 1.157128334045410156e+00 1.147026121616363525e-01
4.483000000000000000e+03 5.106130981445312500e+01 -1.160265827178955078e+01 7.154862582683563232e-02 3.486185789108276367e+00 1.067320346832275391e+00 7.280136644840240479e-02
4.484000000000000000e+03 4.788310623168945312e+01 -1.485392284393310547e+01 6.916929036378860474e-02 2.897024393081665039e+00 8.898581266403198242e-01 3.762587904930114746e-02
4.485000000000000000e+03 5.181325531005859375e+01 -9.688992500305175781e+00 6.573408097028732300e-02 3.613513469696044922e+00 1.103774309158325195e+00 9.150177985429763794e-02
4.486000000000000000e+03 5.222956085205078125e+01 -1.422729778289794922e+01 5.319999530911445618e-02 3.724476099014282227e+00 1.133302807807922363e+00 6.735837459564208984e-02
4.487000000000000000e+03 6.555480957031250000e+01 -2.511164855957031250e+01 7.193816360086202621e-03 6.330275058746337891e+00 1.901240706443786621e+00 2.906000800430774689e-02
4.488000000000000000e+03 3.197989654541015625e+01 -2.373739814758300781e+01 2.338794246315956116e-02 -3.745919093489646912e-02 -4.221374634653329849e-03 -4.612879082560539246e-02
4.489000000000000000e+03 3.314522552490234375e+01 -2.166993713378906250e+01 4.477045685052871704e-02 1.874043643474578857e-01 6.965244561433792114e-02 -6.560079753398895264e-02
4.490000000000000000e+03 5.327700042724609375e+01 -1.048717594146728516e+01 5.029845610260963440e-02 3.929573535919189453e+00 1.193961620330810547e+00 1.003702804446220398e-01
4.491000000000000000e+03 6.761228179931640625e+01 -3.448346710205078125e+01 1.802447251975536346e-02 6.706503868103027344e+00 2.017358541488647461e+00 4.351446032524108887e-02
4.492000000000000000e+03 6.345359802246093750e+01 -2.139797782897949219e+01 1.849574968218803406e-02 5.916299343109130859e+00 1.780438542366027832e+00 4.409531503915786743e-02
4.493000000000000000e+03 2.664428329467773438e+01 -3.348496627807617188e+01 -6.623074412345886230e-02 -8.766329884529113770e-01 -2.828591167926788330e-01 1.020233612507581711e-03
4.494000000000000000e+03 3.227343750000000000e+01 -2.754155349731445312e+01 1.130875479429960251e-02 -3.536763251759111881e-04 3.286523511633276939e-03 -2.305905520915985107e-02
4.495000000000000000e+03 7.232876586914062500e+01 4.120994186401367188e+01 -6.073861718177795410e-01 8.290795326232910156e+00 2.305022716522216797e+00 1.399111449718475342e-01
4.496000000000000000e+03 4.237633132934570312e+01 -1.783781242370605469e+01 6.058079376816749573e-02 1.888686180114746094e+00 5.847800970077514648e-01 -2.652539988048374653e-04
4.497000000000000000e+03 4.319669723510742188e+01 -1.543455219268798828e+01 7.352623343467712402e-02 2.019125938415527344e+00 6.277956366539001465e-01 1.999563304707407951e-03
4.498000000000000000e+03 4.717086029052734375e+01 -1.703068733215332031e+01 7.324712723493576050e-02 2.766267538070678711e+00 8.518543839454650879e-01 2.908255346119403839e-02
4.499000000000000000e+03 5.123337936401367188e+01 -1.853475570678710938e+01 5.404846370220184326e-02 3.565809488296508789e+00 1.085957407951354980e+00 4.644075408577919006e-02
4.500000000000000000e+03 2.073043441772460938e+01 -3.757805633544921875e+01 -8.442550152540206909e-02 -1.841328144073486328e+00 -5.777261257171630859e-01 -2.881093695759773254e-02
4.501000000000000000e+03 6.910178661346435547e+00 -3.623726654052734375e+01 8.626509807072579861e-04 -4.468121100217103958e-03 -1.081640948541462421e-03 1.714209839701652527e-02
4.502000000000000000e+03 6.133463668823242188e+01 -1.665461349487304688e+01 2.084854990243911743e-02 5.493823528289794922e+00 1.654401659965515137e+00 5.617222189903259277e-02
4.503000000000000000e+03 5.201401519775390625e+01 -3.101603507995605469e+00 7.994168996810913086e-02 3.622390747070312500e+00 1.110699772834777832e+00 1.643953472375869751e-01
4.504000000000000000e+03 3.198576545715332031e+01 -2.846211433410644531e+00 8.106555789709091187e-02 -1.018802523612976074e-01 -6.244407966732978821e-03 -1.650092601776123047e-01
4.505000000000000000e+03 2.092333412170410156e+01 -4.054604721069335938e+01 3.028488457202911377e-01 -1.655629396438598633e+00 -4.058341681957244873e-01 7.138273864984512329e-02
4.506000000000000000e+03 1.842281913757324219e+01 -3.920918273925781250e+01 -2.556291595101356506e-02 -1.251896500587463379e+00 -3.832378387451171875e-01 -4.936756491661071777e-01
4.507000000000000000e+03 4.039547729492187500e+01 -1.706132316589355469e+01 6.175073236227035522e-02 1.511101126670837402e+00 4.718555808067321777e-01 -2.170560322701931000e-02
4.508000000000000000e+03 6.327241516113281250e+01 4.131323623657226562e+01 -1.710181951522827148e+00 1.017322731018066406e+01 2.538913726806640625e+00 -9.261200577020645142e-02
4.509000000000000000e+03 3.749453735351562500e+01 -1.859380340576171875e+01 5.043012648820877075e-02 9.878776669502258301e-01 3.114923238754272461e-01 -4.061821475625038147e-02
4.510000000000000000e+03 6.696620178222656250e+01 -3.732278060913085938e+01 1.328729558736085892e-02 6.531101226806640625e+00 1.963316559791564941e+00 2.531061135232448578e-02
4.511000000000000000e+03 6.233819961547851562e+00 -3.838642501831054688e+01 -6.611682008951902390e-03 -6.755017675459384918e-04 -2.186155179515480995e-03 1.097594015300273895e-02
4.512000000000000000e+03 5.651152420043945312e+01 -3.748176193237304688e+01 4.344471171498298645e-02 4.596787452697753906e+00 1.392069578170776367e+00 8.252592757344245911e-03
4.513000000000000000e+03 3.860115432739257812e+01 -3.662837982177734375e+01 7.423819601535797119e-02 1.211827278137207031e+00 3.858196437358856201e-01 2.270435914397239685e-02
4.514000000000000000e+03 2.780935287475585938e+01 -4.115087890625000000e+01 1.528157144784927368e-01 -7.501915693283081055e-01 -1.792127490043640137e-01 1.388239767402410507e-02
4.515000000000000000e+03 6.375611877441406250e+01 -3.555465316772460938e+01 2.402967214584350586e-02 5.956013202667236328e+00 1.794012784957885742e+00 3.548033069819211960e-03
4.516000000000000000e+03 7.171399688720703125e+01 -4.089840698242187500e+01 1.174576580524444580e-02 7.494922161102294922e+00 2.252000331878662109e+00 -4.858769010752439499e-03
4.517000000000000000e+03 3.207516098022460938e+01 -3.755867004394531250e+01 8.004970848560333252e-02 7.242047041654586792e-02 4.574105143547058105e-02 2.450689487159252167e-02
4.518000000000000000e+03 7.868009090423583984e+00 4.134327697753906250e+01 1.795685057004448026e-05 -8.928693569032475352e-05 -2.139902426279149950e-05 -4.277876287233084440e-04
4.519000000000000000e+03 5.042168807983398438e+01 -1.356919097900390625e+01 6.389979273080825806e-02 3.375833034515380859e+00 1.031919836997985840e+00 5.687542632222175598e-02
4.520000000000000000e+03 3.520125579833984375e+01 -2.304470825195312500e+01 3.991002589464187622e-02 6.041092276573181152e-01 1.932057738304138184e-01 -4.019004479050636292e-02
4.521000000000000000e+03 4.516973495483398438e+01 -1.624093627929687500e+01 6.655491143465042114e-02 2.390538454055786133e+00 7.371280193328857422e-01 2.752719447016716003e-02
4.522000000000000000e+03 4.859020996093750000e+01 -2.002535820007324219e+01 6.320832669734954834e-02 3.032832145690917969e+00 9.288122057914733887e-01 3.032667189836502075e-02
4.523000000000000000e+03 2.811877632141113281e+01 -3.135987472534179688e+01 -3.099676407873630524e-02 -6.537469029426574707e-01 -2.054231017827987671e-01 -3.127681836485862732e-02
4.524000000000000000e+03 5.525486755371093750e+01 -1.966127967834472656e+01 4.793481156229972839e-02 4.325991153717041016e+00 1.312177777290344238e+00 5.897768214344978333e-02
4.525000000000000000e+03 3.050094985961914062e+01 -2.883213233947753906e+01 7.416891399770975113e-03 -2.492278218269348145e-01 -7.254327833652496338e-02 -1.404420472681522369e-02
4.526000000000000000e+03 6.162336730957031250e+01 -2.980372619628906250e+01 2.804793417453765869e-02 5.557827949523925781e+00 1.675762653350830078e+00 2.262014150619506836e-02
4.527000000000000000e+03 4.441781997680664062e+01 -1.859473991394042969e+01 6.316469609737396240e-02 2.276546955108642578e+00 7.019134759902954102e-01 1.505885180085897446e-02
4.528000000000000000e+03 6.020353317260742188e+01 -1.745219039916992188e+01 1.830201409757137299e-02 5.268351078033447266e+00 1.585995912551879883e+00 5.357743427157402039e-02
4.529000000000000000e+03 5.970423507690429688e+01 -1.615236091613769531e+01 3.002007678151130676e-02 5.201033115386962891e+00 1.569315910339355469e+00 6.430414319038391113e-02
4.530000000000000000e+03 5.174315261840820312e+01 -1.633060455322265625e+01 6.022571027278900146e-02 3.650986194610595703e+00 1.113363504409790039e+00 5.310864746570587158e-02
4.531000000000000000e+03 2.512730026245117188e+01 -3.213156509399414062e+01 -9.307029098272323608e-02 -1.180342793464660645e+00 -3.820239305496215820e-01 -5.599142611026763916e-02
4.532000000000000000e+03 6.777314758300781250e+01 4.136191177368164062e+01 -1.508466243743896484e+00 1.058859348297119141e+01 2.724038124084472656e+00 2.518033683300018311e-01
4.533000000000000000e+03 6.238226318359375000e+01 -2.396205520629882812e+01 1.783623360097408295e-02 5.685992717742919922e+00 1.711148738861083984e+00 4.108667001128196716e-02
4.534000000000000000e+03 6.323411178588867188e+01 -2.621616935729980469e+01 1.436308585107326508e-02 5.837309360504150391e+00 1.755501747131347656e+00 3.143784403800964355e-02
4.535000000000000000e+03 3.658462905883789062e+01 -3.161999320983886719e+01 5.648456886410713196e-02 8.754699230194091797e-01 2.795863449573516846e-01 -5.804394837468862534e-03
4.536000000000000000e+03 3.376897048950195312e+01 -2.535038375854492188e+01 3.602578118443489075e-02 2.950236499309539795e-01 9.931483119726181030e-02 -4.643715545535087585e-02
4.537000000000000000e+03 5.727822113037109375e+01 -1.988988304138183594e+01 3.635536506772041321e-02 4.704465866088867188e+00 1.422246456146240234e+00 5.382385104894638062e-02
4.538000000000000000e+03 5.928387069702148438e+01 -1.977194404602050781e+01 2.437205426394939423e-02 5.117627620697021484e+00 1.542599916458129883e+00 5.409071594476699829e-02
4.539000000000000000e+03 2.780974769592285156e+01 -3.564207458496093750e+01 7.412312086671590805e-03 -6.751672625541687012e-01 -2.003264874219894409e-01 3.911272808909416199e-02
4.540000000000000000e+03 4.649216079711914062e+01 -1.931365966796875000e+01 5.477265641093254089e-02 2.649816036224365234e+00 8.113766312599182129e-01 3.886792436242103577e-02
4.541000000000000000e+03 5.067124176025390625e+01 -2.083646774291992188e+01 5.478216335177421570e-02 3.482231378555297852e+00 1.061104059219360352e+00 2.841264382004737854e-02
4.542000000000000000e+03 5.279828643798828125e+01 -2.160204696655273438e+01 5.037126690149307251e-02 3.871252298355102539e+00 1.176487088203430176e+00 5.027320608496665955e-02
4.543000000000000000e+03 3.403341293334960938e+01 -2.962639999389648438e+01 2.593721449375152588e-02 3.843306005001068115e-01 1.230803430080413818e-01 -2.212730981409549713e-02
4.544000000000000000e+03 5.738820266723632812e+01 -2.221821212768554688e+01 2.840256132185459137e-02 4.732143402099609375e+00 1.428163766860961914e+00 4.815646633505821228e-02
4.545000000000000000e+03 5.506127929687500000e+01 -2.207235336303710938e+01 3.630515187978744507e-02 4.282414436340332031e+00 1.295615911483764648e+00 4.530370235443115234e-02
4.546000000000000000e+03 6.236080169677734375e+01 -3.275959396362304688e+01 2.196075022220611572e-02 5.668148517608642578e+00 1.707032799720764160e+00 -7.730643847025930882e-04
4.547000000000000000e+03 6.218928146362304688e+01 -1.562630558013916016e+01 1.040626596659421921e-02 5.664049625396728516e+00 1.702336788177490234e+00 6.572423130273818970e-02
4.548000000000000000e+03 4.799127960205078125e+01 -2.221022415161132812e+01 4.520617425441741943e-02 2.926030158996582031e+00 8.913708925247192383e-01 4.331617429852485657e-02
4.549000000000000000e+03 6.070241928100585938e+01 -2.701988220214843750e+01 2.485084347426891327e-02 5.380234718322753906e+00 1.621525645256042480e+00 3.076026402413845062e-02
4.550000000000000000e+03 4.066862487792968750e+01 -2.287326049804687500e+01 4.948525503277778625e-02 1.602733969688415527e+00 4.956657886505126953e-01 -6.385443732142448425e-03
4.551000000000000000e+03 4.369866943359375000e+01 -2.108305740356445312e+01 5.743137001991271973e-02 2.157378196716308594e+00 6.644428372383117676e-01 7.154105231165885925e-03
4.552000000000000000e+03 5.970470046997070312e+01 -2.204088592529296875e+01 2.579502575099468231e-02 5.187650203704833984e+00 1.564033627510070801e+00 4.567087441682815552e-02
4.553000000000000000e+03 4.510747909545898438e+01 -2.717571830749511719e+01 5.006454885005950928e-02 2.414123773574829102e+00 7.392565011978149414e-01 1.667727157473564148e-02
4.554000000000000000e+03 4.804170608520507812e+01 -2.447940444946289062e+01 5.966427177190780640e-02 2.991134881973266602e+00 9.152396917343139648e-01 3.102912567555904388e-02
4.555000000000000000e+03 5.487610244750976562e+01 -2.473826599121093750e+01 4.038581252098083496e-02 4.260567665100097656e+00 1.290286064147949219e+00 3.371151164174079895e-02
4.556000000000000000e+03 5.790339279174804688e+01 -2.748584747314453125e+01 3.815621510148048401e-02 4.845382213592529297e+00 1.465061545372009277e+00 3.050335682928562164e-02
4.557000000000000000e+03 3.593185806274414062e+01 -2.697574234008789062e+01 3.710142895579338074e-02 7.733876109123229980e-01 2.431467175483703613e-01 -3.235059604048728943e-02
4.558000000000000000e+03 3.965143585205078125e+01 -2.556298065185546875e+01 5.729383230209350586e-02 1.424038052558898926e+00 4.443995654582977295e-01 -7.027741521596908569e-03
4.559000000000000000e+03 4.383504867553710938e+01 -3.374427413940429688e+01 5.846521630883216858e-02 2.183288574218750000e+00 6.725261211395263672e-01 1.270979177206754684e-02
4.560000000000000000e+03 4.588687896728515625e+01 -2.172283363342285156e+01 5.711553245782852173e-02 2.578487634658813477e+00 7.906810045242309570e-01 2.487463131546974182e-02
4.561000000000000000e+03 5.210923004150390625e+01 -2.432654190063476562e+01 4.777144640684127808e-02 3.726392269134521484e+00 1.132249116897583008e+00 4.009692370891571045e-02
4.562000000000000000e+03 5.487764358520507812e+01 -2.764167022705078125e+01 4.004299640655517578e-02 4.276767730712890625e+00 1.295043230056762695e+00 3.616268187761306763e-02
4.563000000000000000e+03 5.518679809570312500e+01 -3.076644515991210938e+01 2.685956098139286041e-02 4.338415145874023438e+00 1.309582471847534180e+00 3.310273215174674988e-02
4.564000000000000000e+03 4.547100448608398438e+01 -2.431589126586914062e+01 6.368158757686614990e-02 2.496687173843383789e+00 7.681106328964233398e-01 1.156883966177701950e-02
4.565000000000000000e+03 4.124128723144531250e+01 -2.958702468872070312e+01 5.276352539658546448e-02 1.704347610473632812e+00 5.271333456039428711e-01 7.467369083315134048e-03
4.566000000000000000e+03 4.454776000976562500e+01 -3.034798812866210938e+01 5.313830822706222534e-02 2.327130317687988281e+00 7.140805721282958984e-01 1.356013864278793335e-02
4.567000000000000000e+03 4.784341812133789062e+01 -3.415368652343750000e+01 4.928195104002952576e-02 2.958411931991577148e+00 9.023081660270690918e-01 8.559597656130790710e-03
4.568000000000000000e+03 4.752710342407226562e+01 -4.088427352905273438e+01 5.762837827205657959e-02 2.898885965347290039e+00 8.869543075561523438e-01 3.776090452447533607e-03
4.569000000000000000e+03 4.830490875244140625e+01 -2.734714317321777344e+01 4.555306956171989441e-02 3.035466909408569336e+00 9.243059754371643066e-01 1.918118819594383240e-02
4.570000000000000000e+03 4.299715805053710938e+01 -2.371822357177734375e+01 6.428611278533935547e-02 2.032734155654907227e+00 6.291061043739318848e-01 1.084869075566530228e-02
4.571000000000000000e+03 4.809467315673828125e+01 -3.072570800781250000e+01 5.297394841909408569e-02 2.996052742004394531e+00 9.147080183029174805e-01 1.655821315944194794e-02
4.572000000000000000e+03 5.168705749511718750e+01 -3.085393905639648438e+01 4.158302769064903259e-02 3.673973321914672852e+00 1.114666938781738281e+00 1.778952591121196747e-02
4.573000000000000000e+03 5.575088119506835938e+01 -3.407582092285156250e+01 4.014521837234497070e-02 4.465567111968994141e+00 1.351713657379150391e+00 1.362016517668962479e-02
4.574000000000000000e+03 5.847035217285156250e+01 3.280624389648437500e+01 1.164598703384399414e+00 1.793680906295776367e+00 8.874838948249816895e-01 -2.223688840866088867e+00
4.575000000000000000e+03 5.842451858520507812e+01 3.310552978515625000e+01 1.219302177429199219e+00 2.312709569931030273e+00 1.059603571891784668e+00 -2.416725635528564453e+00
4.576000000000000000e+03 5.884007644653320312e+01 3.312332534790039062e+01 1.681953310966491699e+00 3.141066551208496094e+00 1.446905970573425293e+00 -3.338330507278442383e+00
4.577000000000000000e+03 5.994789123535156250e+01 3.293336868286132812e+01 1.932521581649780273e+00 8.659863471984863281e+00 3.177715539932250977e+00 -5.634238243103027344e+00
4.578000000000000000e+03 6.028554916381835938e+01 3.303104782104492188e+01 1.271642804145812988e+00 1.135370826721191406e+01 3.787605285644531250e+00 -5.661337852478027344e+00
4.579000000000000000e+03 6.067495727539062500e+01 3.272518539428710938e+01 8.583868741989135742e-01 1.524456214904785156e+01 4.830884456634521484e+00 -5.712915897369384766e+00
4.580000000000000000e+03 6.101792907714843750e+01 3.314448928833007812e+01 -9.655263274908065796e-02 1.610815811157226562e+01 4.803481578826904297e+00 -3.791934013366699219e+00
4.581000000000000000e+03 6.249942016601562500e+01 3.226689910888671875e+01 4.714564323425292969e+00 1.782661819458007812e+01 6.762354850769042969e+00 2.633860826492309570e+00
4.582000000000000000e+03 6.298609924316406250e+01 3.162573242187500000e+01 7.556221961975097656e+00 1.549914741516113281e+01 6.916610717773437500e+00 2.023065090179443359e+00
4.583000000000000000e+03 6.272747039794921875e+01 3.015574264526367188e+01 7.264140129089355469e+00 1.645434761047363281e+01 7.115546226501464844e+00 -1.910909652709960938e+00
4.584000000000000000e+03 6.213682556152343750e+01 2.941899108886718750e+01 2.961456060409545898e+00 1.880311203002929688e+01 6.529370307922363281e+00 -9.665986299514770508e-01
4.585000000000000000e+03 6.231037521362304688e+01 2.959037971496582031e+01 4.080010890960693359e+00 1.841516494750976562e+01 6.748552799224853516e+00 -1.627765178680419922e+00
4.586000000000000000e+03 6.154733657836914062e+01 2.943339347839355469e+01 1.529705047607421875e+00 2.049187278747558594e+01 6.606472969055175781e+00 1.306046009063720703e+00
4.587000000000000000e+03 6.082204818725585938e+01 2.898426818847656250e+01 7.907612919807434082e-01 1.546714305877685547e+01 4.877371311187744141e+00 5.305734634399414062e+00
4.588000000000000000e+03 6.044286727905273438e+01 2.911883163452148438e+01 1.589614033699035645e+00 1.308272933959960938e+01 4.401702880859375000e+00 6.553640842437744141e+00
4.589000000000000000e+03 6.027303314208984375e+01 2.911526298522949219e+01 1.957960605621337891e+00 1.126306915283203125e+01 3.966308832168579102e+00 6.695065975189208984e+00
4.590000000000000000e+03 5.945118331909179688e+01 2.944212341308593750e+01 3.085441827774047852e+00 4.375248432159423828e+00 2.238207101821899414e+00 5.233179569244384766e+00
4.591000000000000000e+03 5.959989929199218750e+01 2.916169929504394531e+01 2.797569274902343750e+00 6.204373836517333984e+00 2.700582981109619141e+00 5.868339061737060547e+00
4.592000000000000000e+03 7.621932983398437500e+01 3.851885604858398438e+01 1.037188898772001266e-02 6.284555435180664062e+00 1.888478159904479980e+00 2.703750133514404297e-01
4.593000000000000000e+03 1.265882372856140137e+00 2.701772689819335938e+00 -2.824062721629161388e-05 4.274375169188715518e-05 4.350937160779722035e-06 3.986793672083877027e-06
4.594000000000000000e+03 4.159409332275390625e+01 3.705959320068359375e+01 -4.266041517257690430e-02 -1.817149221897125244e-01 -6.731260567903518677e-02 2.213995456695556641e-01
4.595000000000000000e+03 3.493212127685546875e+01 3.912699890136718750e+01 -1.128169387811794877e-04 -4.762611538171768188e-02 -1.432168018072843552e-02 3.125015646219253540e-02
4.596000000000000000e+03 2.695290946960449219e+01 3.932743453979492188e+01 2.747202524915337563e-03 9.792984928935766220e-04 1.117950305342674255e-03 -4.684866406023502350e-03
4.597000000000000000e+03 1.883318138122558594e+01 3.817694091796875000e+01 1.840717508457601070e-03 1.506094122305512428e-03 1.004043500870466232e-03 -2.112110669258981943e-04
4.598000000000000000e+03 4.530528545379638672e+00 -3.770845031738281250e+01 -1.074909698218107224e-03 7.101288996636867523e-03 1.807913882657885551e-03 1.342654041945934296e-02
4.599000000000000000e+03 2.234049797058105469e+01 -3.884891891479492188e+01 1.392093896865844727e-01 -1.606756448745727539e+00 -4.402641057968139648e-01 7.045903801918029785e-02
4.600000000000000000e+03 1.294769382476806641e+01 2.347737550735473633e+00 3.131594439764739946e-06 -6.090843817219138145e-05 -1.733305361995007843e-05 -1.397930918756173924e-05
4.601000000000000000e+03 3.975852584838867188e+01 3.798823165893554688e+01 -9.728972800076007843e-03 -1.396620720624923706e-01 -4.481731355190277100e-02 1.435335725545883179e-01
4.602000000000000000e+03 4.064885711669921875e+01 3.948651123046875000e+01 1.187230199575424194e-01 -2.098404169082641602e-01 -2.733522094786167145e-02 1.528550684452056885e-01
4.603000000000000000e+03 3.364517211914062500e+01 3.866664505004882812e+01 -2.411712193861603737e-03 -2.703467756509780884e-02 -8.833916857838630676e-03 1.886160112917423248e-02
4.604000000000000000e+03 1.822132110595703125e+01 3.920914077758789062e+01 4.361819010227918625e-03 4.684647137764841318e-04 1.449085189960896969e-03 2.698703319765627384e-04
4.605000000000000000e+03 4.285788345336914062e+01 3.630006408691406250e+01 -1.578995138406753540e-01 -1.755888760089874268e-01 -1.000465154647827148e-01 2.741187810897827148e-01
4.606000000000000000e+03 4.419633865356445312e+01 3.598361968994140625e+01 -1.699444055557250977e-01 -2.112672924995422363e-01 -1.143635064363479614e-01 3.287576138973236084e-01
4.607000000000000000e+03 4.838453292846679688e+01 3.699425888061523438e+01 1.619524061679840088e-01 -8.633857965469360352e-02 2.268414758145809174e-02 4.957965314388275146e-01
4.608000000000000000e+03 1.377448463439941406e+01 2.961222839355468750e+01 8.608263451606035233e-04 -2.264352951897308230e-05 2.514548541512340307e-04 2.455953799653798342e-04
4.609000000000000000e+03 3.658261108398437500e+01 3.798643875122070312e+01 1.024748012423515320e-02 -8.391379565000534058e-02 -2.209989540278911591e-02 6.379081308841705322e-02
4.610000000000000000e+03 1.100221920013427734e+01 -2.092618751525878906e+01 -4.934675991535186768e-03 5.579657154157757759e-04 -1.313013024628162384e-03 7.228174363262951374e-04
4.611000000000000000e+03 4.571181488037109375e+01 3.669075775146484375e+01 -2.759368391707539558e-03 -2.318861037492752075e-01 -7.039363682270050049e-02 3.686747252941131592e-01
4.612000000000000000e+03 5.903610610961914062e+01 3.316081237792968750e+01 1.747716307640075684e+00 3.980723142623901367e+00 1.718531847000122070e+00 -3.715582609176635742e+00
4.613000000000000000e+03 1.915398979187011719e+01 3.858375930786132812e+01 -2.303219167515635490e-03 -1.401746558258309960e-04 -7.330180960707366467e-04 2.206569770351052284e-04
4.614000000000000000e+03 2.295844459533691406e+01 -2.522717475891113281e+01 2.832188457250595093e-02 -1.693747758865356445e+00 -4.996277391910552979e-01 -7.378348708152770996e-02
4.615000000000000000e+03 1.999160170555114746e+00 3.593206787109375000e+01 -3.792358620557934046e-04 -1.277647825190797448e-04 -1.521001831861212850e-04 1.668729382799938321e-04
4.616000000000000000e+03 1.249713516235351562e+01 -3.384605884552001953e+00 -1.309985760599374771e-03 4.568299336824566126e-04 -2.559467393439263105e-04 -2.105327293975278735e-04
4.617000000000000000e+03 5.843975067138671875e+01 2.856215286254882812e+01 1.724640607833862305e+00 2.954624414443969727e+00 1.403779506683349609e+00 3.687249898910522461e+00
4.618000000000000000e+03 1.121055889129638672e+01 3.341201400756835938e+01 -9.822509018704295158e-04 7.827328954590484500e-05 -2.711932756938040257e-04 -4.276744948583655059e-05
4.619000000000000000e+03 6.094866943359375000e+01 3.370326614379882812e+01 -3.531982898712158203e-01 1.422250652313232422e+01 4.160792350769042969e+00 -3.463236570358276367e+00
4.620000000000000000e+03 6.180130767822265625e+01 3.330817031860351562e+01 4.079932719469070435e-02 1.746661186218261719e+01 5.252223491668701172e+00 -6.535932421684265137e-01
4.621000000000000000e+03 6.226626586914062500e+01 3.310194778442382812e+01 1.092372894287109375e+00 1.769856834411621094e+01 5.637282371520996094e+00 8.443055152893066406e-01
4.622000000000000000e+03 6.278954315185546875e+01 3.233328247070312500e+01 4.738299369812011719e+00 1.685268974304199219e+01 6.477296829223632812e+00 2.602113246917724609e+00
4.623000000000000000e+03 6.308943176269531250e+01 3.221886825561523438e+01 5.255608558654785156e+00 1.566119956970214844e+01 6.275042533874511719e+00 2.409989356994628906e+00
4.624000000000000000e+03 6.321397399902343750e+01 3.075512886047363281e+01 8.156186103820800781e+00 1.449148178100585938e+01 6.794300556182861328e+00 -3.570231795310974121e-01
4.625000000000000000e+03 6.345483398437500000e+01 3.053041267395019531e+01 7.186428070068359375e+00 1.398916149139404297e+01 6.352676868438720703e+00 -7.840707898139953613e-01
4.626000000000000000e+03 6.327583312988281250e+01 3.035532951354980469e+01 7.095610141754150391e+00 1.450389289855957031e+01 6.479850769042968750e+00 -1.141881942749023438e+00
4.627000000000000000e+03 6.301658248901367188e+01 2.996308517456054688e+01 6.172895431518554688e+00 1.554486179351806641e+01 6.515327453613281250e+00 -1.860963344573974609e+00
4.628000000000000000e+03 6.275448989868164062e+01 2.951113319396972656e+01 4.310017585754394531e+00 1.662250137329101562e+01 6.279756069183349609e+00 -1.858100056648254395e+00
4.629000000000000000e+03 6.236952590942382812e+01 2.916800689697265625e+01 2.476820945739746094e+00 1.751952171325683594e+01 5.998902797698974609e+00 -9.777804017066955566e-01
4.630000000000000000e+03 6.131780624389648438e+01 2.859260177612304688e+01 1.662422567605972290e-01 1.614777374267578125e+01 4.894205093383789062e+00 3.160016536712646484e+00
4.631000000000000000e+03 6.062081909179687500e+01 2.906319618225097656e+01 1.133263826370239258e+00 1.423645114898681641e+01 4.610914230346679688e+00 6.099686145782470703e+00
4.632000000000000000e+03 6.035187149047851562e+01 2.890457344055175781e+01 1.369796991348266602e+00 1.192266082763671875e+01 3.987737417221069336e+00 6.213441371917724609e+00
4.633000000000000000e+03 5.988835906982421875e+01 2.894495201110839844e+01 2.267564773559570312e+00 8.467086791992187500e+00 3.220395565032958984e+00 6.259286403656005859e+00
4.634000000000000000e+03 5.919392013549804688e+01 2.884456253051757812e+01 2.296693563461303711e+00 4.831088542938232422e+00 2.138334512710571289e+00 5.003797054290771484e+00
4.635000000000000000e+03 5.917447280883789062e+01 2.914175605773925781e+01 2.539017915725708008e+00 3.951970100402832031e+00 1.947296500205993652e+00 4.728435993194580078e+00
4.636000000000000000e+03 2.481766891479492188e+01 -3.665330123901367188e+01 -1.083603419829159975e-04 -1.221105575561523438e+00 -3.663642108440399170e-01 4.970791563391685486e-02
4.637000000000000000e+03 1.050075721740722656e+01 -2.854086303710937500e+01 -4.046345129609107971e-03 -2.054549288004636765e-03 -1.830268302001059055e-03 1.984648872166872025e-03
4.638000000000000000e+03 7.234572601318359375e+01 3.431224822998046875e+01 6.232091784477233887e-01 7.830975532531738281e+00 2.536255359649658203e+00 4.937097728252410889e-01
4.639000000000000000e+03 9.853154182434082031e+00 3.347162246704101562e+01 9.204106754623353481e-04 -1.250968925887718797e-04 2.385941334068775177e-04 3.138647007290273905e-04
4.640000000000000000e+03 1.091082572937011719e+01 -4.430311203002929688e+00 8.567128097638487816e-04 3.684976836666464806e-04 3.675631596706807613e-04 -4.413062706589698792e-04
4.641000000000000000e+03 6.370028305053710938e+01 3.069224929809570312e+01 7.030035495758056641e+00 1.337555122375488281e+01 6.121675968170166016e+00 -3.641544580459594727e-01
4.642000000000000000e+03 6.343009948730468750e+01 2.998303604125976562e+01 5.898464202880859375e+00 1.429635906219482422e+01 6.058446884155273438e+00 -1.563581109046936035e+00
4.643000000000000000e+03 5.672135925292968750e+01 2.746142005920410156e+01 9.431114196777343750e-01 1.797417640686035156e+00 8.221586942672729492e-01 2.328688621520996094e+00
4.644000000000000000e+03 6.384931564331054688e+01 3.046876335144042969e+01 6.381094932556152344e+00 1.323859786987304688e+01 5.885908126831054688e+00 -7.179762721061706543e-01
4.645000000000000000e+03 6.026411819458007812e+01 2.845235824584960938e+01 9.998207092285156250e-01 1.104801273345947266e+01 3.614349842071533203e+00 5.548938274383544922e+00
4.646000000000000000e+03 1.102027797698974609e+01 2.338521575927734375e+01 -3.224795218557119370e-04 -1.620626426301896572e-04 -1.453626464353874326e-04 1.728595671011134982e-04
4.647000000000000000e+03 9.295139312744140625e+00 -2.150880622863769531e+01 1.753297634422779083e-03 -1.163433538749814034e-03 1.769592345226556063e-04 2.941406797617673874e-03
4.648000000000000000e+03 6.078755569458007812e+01 3.428959274291992188e+01 -4.871198832988739014e-01 1.238839054107666016e+01 3.570381164550781250e+00 -3.369406223297119141e+00
4.649000000000000000e+03 5.949386215209960938e+01 2.876717376708984375e+01 2.123131752014160156e+00 6.132443428039550781e+00 2.476672649383544922e+00 5.428059101104736328e+00
4.650000000000000000e+03 5.934133529663085938e+01 2.861974906921386719e+01 2.066376686096191406e+00 5.751111030578613281e+00 2.345246315002441406e+00 5.284897804260253906e+00
4.651000000000000000e+03 2.621696472167968750e+01 -2.880401611328125000e+01 -8.393825031816959381e-03 -1.063373565673828125e+00 -3.215302228927612305e-01 -8.128760755062103271e-02
4.652000000000000000e+03 2.832446289062500000e+01 -2.901166343688964844e+01 3.630941500887274742e-03 -5.807486772537231445e-01 -1.731353253126144409e-01 -5.096087604761123657e-02
4.653000000000000000e+03 5.956330490112304688e+01 2.894326782226562500e+01 2.442046165466308594e+00 6.520354747772216797e+00 2.688720226287841797e+00 5.658437252044677734e+00
4.654000000000000000e+03 6.199100875854492188e+01 3.304360198974609375e+01 8.331071138381958008e-01 1.855663681030273438e+01 5.816923141479492188e+00 3.642933666706085205e-01
4.655000000000000000e+03 6.050940322875976562e+01 2.855544853210449219e+01 7.493395805358886719e-01 1.250913143157958984e+01 3.977541446685791016e+00 5.510204792022705078e+00
4.656000000000000000e+03 6.159860610961914062e+01 3.316718292236328125e+01 7.388315349817276001e-02 1.772814178466796875e+01 5.340607643127441406e+00 -1.316718935966491699e+00
4.657000000000000000e+03 5.983085632324218750e+01 3.335218429565429688e+01 1.334411144256591797e+00 8.282262802124023438e+00 2.885002374649047852e+00 -4.933596611022949219e+00
4.658000000000000000e+03 6.327175903320312500e+01 2.931319046020507812e+01 3.948155879974365234e+00 1.497607040405273438e+01 5.677268028259277344e+00 -1.762246847152709961e+00
4.659000000000000000e+03 6.219300842285156250e+01 2.896876716613769531e+01 1.641531586647033691e+00 1.753699874877929688e+01 5.753559112548828125e+00 -2.384750396013259888e-01
4.660000000000000000e+03 8.344231605529785156e+00 3.159989547729492188e+01 6.125072250142693520e-04 -2.221935756097082049e-05 1.770863600540906191e-04 3.604850207921117544e-04
4.661000000000000000e+03 6.276870727539062500e+01 2.907329177856445312e+01 2.805343866348266602e+00 1.634123802185058594e+01 5.743974685668945312e+00 -1.404357075691223145e+00
4.662000000000000000e+03 5.942121505737304688e+01 3.402008438110351562e+01 9.837406873703002930e-01 6.588027954101562500e+00 2.271530628204345703e+00 -4.168276309967041016e+00
4.663000000000000000e+03 6.400858306884765625e+01 3.029085922241210938e+01 5.847633838653564453e+00 1.287423515319824219e+01 5.616560459136962891e+00 -9.455612301826477051e-01
4.664000000000000000e+03 6.374664688110351562e+01 3.196418571472167969e+01 5.556672096252441406e+00 1.365267848968505859e+01 5.762805461883544922e+00 1.737442135810852051e+00
4.665000000000000000e+03 6.401664733886718750e+01 3.141905021667480469e+01 6.122103691101074219e+00 1.286173820495605469e+01 5.695152759552001953e+00 9.730358123779296875e-01
4.666000000000000000e+03 3.636397361755371094e+00 6.220246315002441406e+00 2.644836604304146022e-05 1.044165546773001552e-04 3.925947385141626000e-05 -9.592079004505649209e-05
4.667000000000000000e+03 6.113925552368164062e+01 3.407997512817382812e+01 -6.204130649566650391e-01 1.392160511016845703e+01 3.990357398986816406e+00 -2.754956483840942383e+00
4.668000000000000000e+03 6.099890518188476562e+01 3.463175582885742188e+01 -7.261391282081604004e-01 1.244229698181152344e+01 3.514847278594970703e+00 -2.800628185272216797e+00
4.669000000000000000e+03 5.788664627075195312e+01 3.586127090454101562e+01 6.549960970878601074e-01 4.132766246795654297e+00 1.436328649520874023e+00 -2.388433933258056641e+00
4.670000000000000000e+03 5.840127563476562500e+01 3.502192306518554688e+01 8.037155270576477051e-01 4.641793727874755859e+00 1.633652806282043457e+00 -2.937476396560668945e+00
4.671000000000000000e+03 5.695944213867187500e+01 2.706574058532714844e+01 9.914154410362243652e-01 2.364903211593627930e+00 1.006895542144775391e+00 2.645037651062011719e+00
4.672000000000000000e+03 5.965264129638671875e+01 3.441728591918945312e+01 4.638610780239105225e-01 7.955983161926269531e+00 2.525953292846679688e+00 -3.919734239578247070e+00
4.673000000000000000e+03 6.379375457763671875e+01 3.014946365356445312e+01 5.845226287841796875e+00 1.338299560546875000e+01 5.768466472625732422e+00 -1.203652739524841309e+00
4.674000000000000000e+03 6.425811767578125000e+01 3.008771514892578125e+01 5.255575180053710938e+00 1.255635547637939453e+01 5.343579292297363281e+00 -1.073902368545532227e+00
4.675000000000000000e+03 6.393072891235351562e+01 3.229117584228515625e+01 4.601748466491699219e+00 1.346837043762207031e+01 5.421035766601562500e+00 1.929532527923583984e+00
4.676000000000000000e+03 6.131085205078125000e+01 3.482975769042968750e+01 -9.425911903381347656e-01 1.297477054595947266e+01 3.609653949737548828e+00 -2.241027116775512695e+00
4.677000000000000000e+03 9.196506500244140625e+00 1.878002357482910156e+01 1.262672303710132837e-04 2.528403128962963820e-04 1.137322615250013769e-04 -1.775626697053667158e-05
4.678000000000000000e+03 6.275059509277343750e+01 2.856731796264648438e+01 1.479505538940429688e+00 1.560589027404785156e+01 5.125618934631347656e+00 -7.150366902351379395e-01
4.679000000000000000e+03 6.258381271362304688e+01 2.894680213928222656e+01 2.271277904510498047e+00 1.660487365722656250e+01 5.662845134735107422e+00 -1.026227116584777832e+00
4.680000000000000000e+03 4.435478687286376953e+00 6.063459396362304688e+00 2.361790757277049124e-05 -1.201023551402613521e-04 -2.894533463404513896e-05 6.674576434306800365e-05
4.681000000000000000e+03 6.028527450561523438e+01 2.679014205932617188e+01 -4.237830638885498047e-03 9.649247169494628906e+00 2.893502712249755859e+00 3.981758356094360352e+00
4.682000000000000000e+03 6.466875457763671875e+01 3.256519317626953125e+01 3.707267284393310547e+00 1.252503299713134766e+01 4.869689941406250000e+00 1.717604756355285645e+00
4.683000000000000000e+03 1.025752162933349609e+01 -1.168397426605224609e+01 1.948527991771697998e-03 3.028671198990195990e-04 6.754185305908322334e-04 -4.021069034934043884e-04
4.684000000000000000e+03 5.620206356048583984e+00 1.617133903503417969e+01 2.800590882543474436e-04 -6.104548083385452628e-05 6.570408004336059093e-05 -1.932075792865362018e-05
4.685000000000000000e+03 8.098960876464843750e+00 1.890152549743652344e+01 -1.444481022190302610e-04 -2.540827263146638870e-04 -1.195592485601082444e-04 2.540004243201110512e-05
4.686000000000000000e+03 6.007294082641601562e+01 2.708437156677246094e+01 2.205111235380172729e-01 9.331101417541503906e+00 2.865483760833740234e+00 4.240525245666503906e+00
4.687000000000000000e+03 6.390356063842773438e+01 3.370380401611328125e+01 1.589475274085998535e+00 1.397546958923339844e+01 4.669483184814453125e+00 1.809378743171691895e+00
4.688000000000000000e+03 6.366969680786132812e+01 2.976233291625976562e+01 5.120842933654785156e+00 1.383855628967285156e+01 5.687819957733154297e+00 -1.637732267379760742e+00
4.689000000000000000e+03 6.280326080322265625e+01 2.882428359985351562e+01 2.225005388259887695e+00 1.598926925659179688e+01 5.464282035827636719e+00 -1.161628842353820801e+00
4.690000000000000000e+03 7.421272277832031250e+01 -2.885629081726074219e+01 1.771043613553047180e-02 7.924003601074218750e+00 2.382514238357543945e+00 -9.945297613739967346e-03
4.691000000000000000e+03 7.868640422821044922e+00 6.905314922332763672e+00 1.203081137646222487e-05 7.521731276938226074e-06 5.865762886969605461e-06 -3.111265323241241276e-05
4.692000000000000000e+03 7.112475585937500000e+01 3.036820602416992188e+01 1.409214019775390625e+00 8.027108192443847656e+00 2.830896615982055664e+00 -3.629687428474426270e-01
4.693000000000000000e+03 2.968718147277832031e+01 -2.065569305419921875e+01 5.939513910561800003e-03 -5.200352072715759277e-01 -1.542287021875381470e-01 -4.876973852515220642e-02
4.694000000000000000e+03 2.726412963867187500e+01 -1.099585914611816406e+01 9.017773903906345367e-03 -9.177027344703674316e-01 -2.726054787635803223e-01 -1.119433492422103882e-01
4.695000000000000000e+03 6.328146743774414062e+01 2.834068489074707031e+01 1.610895514488220215e+00 1.448140430450439453e+01 4.827690124511718750e+00 -1.073372840881347656e+00
4.696000000000000000e+03 5.824881744384765625e+01 2.649880218505859375e+01 9.382953047752380371e-01 4.761147975921630859e+00 1.709833025932312012e+00 3.698135375976562500e+00
4.697000000000000000e+03 8.376771926879882812e+00 7.565376758575439453e+00 9.242722444469109178e-05 -5.647819853038527071e-05 1.078470722859492525e-05 2.006659997277893126e-05
4.698000000000000000e+03 7.240465641021728516e+00 7.902368545532226562e+00 -5.616646376438438892e-05 -1.140400345320813358e-04 -5.106194657855667174e-05 -1.276325929211452603e-05
4.699000000000000000e+03 6.383223342895507812e+01 2.948753738403320312e+01 4.386391162872314453e+00 1.357432270050048828e+01 5.388214111328125000e+00 -1.651427984237670898e+00
4.700000000000000000e+03 6.503374481201171875e+01 3.228252792358398438e+01 3.931130409240722656e+00 1.186275005340576172e+01 4.738163948059082031e+00 1.368692517280578613e+00
4.701000000000000000e+03 6.343644332885742188e+01 2.902880477905273438e+01 3.234686613082885742e+00 1.461329936981201172e+01 5.354395866394042969e+00 -1.701543569564819336e+00
4.702000000000000000e+03 6.367842864990234375e+01 2.911226272583007812e+01 3.601128339767456055e+00 1.397466182708740234e+01 5.272737026214599609e+00 -1.727021932601928711e+00
4.703000000000000000e+03 6.393619537353515625e+01 2.870725250244140625e+01 2.712738990783691406e+00 1.353025913238525391e+01 4.872899532318115234e+00 -1.583009719848632812e+00
4.704000000000000000e+03 7.234900474548339844e+00 7.140074729919433594e+00 1.124782429542392492e-04 5.373330714064650238e-05 4.986346539226360619e-05 3.129972901660948992e-05
4.705000000000000000e+03 7.377983570098876953e+00 8.596824645996093750e+00 7.462444045813754201e-05 -3.879038195009343326e-05 1.075021737051429227e-05 1.489352234784746543e-05
4.706000000000000000e+03 6.537478637695312500e+01 2.943956184387207031e+01 3.676397800445556641e+00 1.135951614379882812e+01 4.510774135589599609e+00 -1.226693749427795410e+00
4.707000000000000000e+03 6.394884109497070312e+01 2.803294372558593750e+01 1.531600713729858398e+00 1.329271793365478516e+01 4.447295665740966797e+00 -1.217686057090759277e+00
4.708000000000000000e+03 2.950246429443359375e+01 2.693617820739746094e+00 5.952243506908416748e-02 -5.105652213096618652e-01 -1.353128403425216675e-01 -2.483429312705993652e-01
4.709000000000000000e+03 8.514674186706542969e+00 -6.889874935150146484e+00 7.140049547160742804e-06 -1.438194885849952698e-03 -4.293164529372006655e-04 8.945488370954990387e-04
4.710000000000000000e+03 7.106848907470703125e+01 2.895154571533203125e+01 1.280986905097961426e+00 8.100434303283691406e+00 2.814426422119140625e+00 -7.759265303611755371e-01
4.711000000000000000e+03 5.548504257202148438e+01 -1.743152046203613281e+01 4.144121333956718445e-02 4.362885475158691406e+00 1.321298003196716309e+00 6.497602164745330811e-02
4.712000000000000000e+03 3.003655815124511719e+01 6.355557441711425781e-01 6.982772052288055420e-02 -4.377402067184448242e-01 -1.103737503290176392e-01 -2.144261598587036133e-01
4.713000000000000000e+03 6.355926132202148438e+01 2.938872909545898438e+01 4.273326873779296875e+00 1.421446990966796875e+01 5.546339035034179688e+00 -1.760124683380126953e+00
4.714000000000000000e+03 6.615517139434814453e+00 -5.903669834136962891e+00 4.869033582508563995e-04 2.167777565773576498e-04 2.111043286276981235e-04 3.230822621844708920e-04
4.715000000000000000e+03 7.218244171142578125e+01 2.794427680969238281e+01 8.524782657623291016e-01 7.721659183502197266e+00 2.572241306304931641e+00 -9.449807405471801758e-01
4.716000000000000000e+03 7.253356933593750000e+01 -1.505425453186035156e+01 -4.847112577408552170e-03 7.667117595672607422e+00 2.298681020736694336e+00 2.322432771325111389e-02
4.717000000000000000e+03 3.418607711791992188e+01 2.734472656250000000e+01 -3.980968296527862549e-01 3.366705402731895447e-02 -1.093289330601692200e-01 -4.581027328968048096e-01
4.718000000000000000e+03 6.582667541503906250e+01 2.905441284179687500e+01 3.071750402450561523e+00 1.095055866241455078e+01 4.206692695617675781e+00 -1.306999802589416504e+00
4.719000000000000000e+03 5.750446701049804688e+01 2.513186264038085938e+01 6.527898311614990234e-01 4.266920566558837891e+00 1.475913047790527344e+00 2.997366189956665039e+00
4.720000000000000000e+03 6.422238922119140625e+01 2.806159400939941406e+01 1.768981456756591797e+00 1.285205173492431641e+01 4.386310100555419922e+00 -1.391093969345092773e+00
4.721000000000000000e+03 5.910025787353515625e+01 2.415362548828125000e+01 -6.243826448917388916e-02 6.706161022186279297e+00 1.993116736412048340e+00 2.982556104660034180e+00
4.722000000000000000e+03 6.830140686035156250e+01 3.034245491027832031e+01 2.497377872467041016e+00 9.189406394958496094e+00 3.506035089492797852e+00 -3.954432904720306396e-01
4.723000000000000000e+03 3.328635025024414062e+01 2.684713172912597656e+01 -3.355698585510253906e-01 6.829910911619663239e-03 -9.862198680639266968e-02 -4.679276645183563232e-01
4.724000000000000000e+03 6.460862731933593750e+01 2.782657623291015625e+01 1.553155899047851562e+00 1.237114620208740234e+01 4.177290439605712891e+00 -1.370098233222961426e+00
4.725000000000000000e+03 6.732528686523437500e+01 2.946192741394042969e+01 2.685209512710571289e+00 9.745491027832031250e+00 3.729210138320922852e+00 -8.751854896545410156e-01
4.726000000000000000e+03 7.190792083740234375e+01 2.702768898010253906e+01 7.298824787139892578e-01 7.908752441406250000e+00 2.591590404510498047e+00 -1.112948060035705566e+00
4.727000000000000000e+03 6.062373352050781250e+01 -1.185126876831054688e+01 1.242741383612155914e-02 5.353371620178222656e+00 1.609739780426025391e+00 7.936205714941024780e-02
4.728000000000000000e+03 6.478849029541015625e+01 2.823341369628906250e+01 2.157234430313110352e+00 1.217398452758789062e+01 4.299365520477294922e+00 -1.474018096923828125e+00
4.729000000000000000e+03 3.862746047973632812e+01 -1.057623195648193359e+01 8.850698918104171753e-02 1.137159705162048340e+00 3.677000105381011963e-01 -5.556483939290046692e-02
4.730000000000000000e+03 6.860175323486328125e+01 2.842357254028320312e+01 1.808001279830932617e+00 9.182631492614746094e+00 3.297189950942993164e+00 -1.099883079528808594e+00
4.731000000000000000e+03 6.483756256103515625e+01 2.755874633789062500e+01 1.350617527961730957e+00 1.208971595764160156e+01 4.032100200653076172e+00 -1.336363315582275391e+00
4.732000000000000000e+03 6.528618621826171875e+01 2.773020172119140625e+01 1.650748848915100098e+00 1.164077758789062500e+01 3.987457990646362305e+00 -1.450647592544555664e+00
4.733000000000000000e+03 6.983255004882812500e+01 1.408794593811035156e+01 -5.587662458419799805e-01 7.889796733856201172e+00 2.199309110641479492e+00 -4.623064100742340088e-01
4.734000000000000000e+03 7.097289276123046875e+01 2.285849189758300781e+01 -1.134292557835578918e-01 8.416978836059570312e+00 2.491064786911010742e+00 -1.267481446266174316e+00
4.735000000000000000e+03 7.123543548583984375e+01 -7.683716297149658203e+00 -2.983497828245162964e-02 7.471127986907958984e+00 2.232387781143188477e+00 2.238372340798377991e-02
4.736000000000000000e+03 3.188915824890136719e+01 2.615555381774902344e+01 -2.552541792392730713e-01 -4.522582888603210449e-02 -9.014400094747543335e-02 -4.673339724540710449e-01
4.737000000000000000e+03 3.151970863342285156e+01 2.657500457763671875e+01 -2.619909048080444336e-01 -4.559228196740150452e-02 -9.227495640516281128e-02 -4.415884315967559814e-01
4.738000000000000000e+03 5.659354019165039062e+01 -1.097371864318847656e+01 2.680560946464538574e-02 4.577167034149169922e+00 1.381191730499267578e+00 9.424635022878646851e-02
4.739000000000000000e+03 6.525059509277343750e+01 2.802132987976074219e+01 1.980602264404296875e+00 1.167899894714355469e+01 4.097880363464355469e+00 -1.483434081077575684e+00
4.740000000000000000e+03 6.535088348388671875e+01 2.658967781066894531e+01 6.259965896606445312e-01 1.134547805786132812e+01 3.591442346572875977e+00 -1.167626261711120605e+00
4.741000000000000000e+03 6.518756866455078125e+01 2.741544532775878906e+01 1.273608922958374023e+00 1.169788455963134766e+01 3.891448020935058594e+00 -1.368021368980407715e+00
4.742000000000000000e+03 5.509116744995117188e+01 2.299963569641113281e+01 5.791987180709838867e-01 2.821816921234130859e+00 1.020304679870605469e+00 1.893648505210876465e+00
4.743000000000000000e+03 6.803383636474609375e+01 2.711073493957519531e+01 1.243956804275512695e+00 9.599576950073242188e+00 3.253060102462768555e+00 -1.382564425468444824e+00
4.744000000000000000e+03 6.851368713378906250e+01 2.747729110717773438e+01 1.381850600242614746e+00 9.319459915161132812e+00 3.210392951965332031e+00 -1.294842004776000977e+00
4.745000000000000000e+03 3.142770004272460938e+01 2.391190719604492188e+01 -1.561243683099746704e-01 -1.037093847990036011e-01 -7.795012742280960083e-02 -5.152526497840881348e-01
4.746000000000000000e+03 6.771031188964843750e+01 -5.618697166442871094e+00 -5.576122924685478210e-02 6.792004585266113281e+00 2.020873069763183594e+00 5.833683907985687256e-02
4.747000000000000000e+03 6.504437255859375000e+01 2.781979942321777344e+01 1.712193012237548828e+00 1.192515659332275391e+01 4.091205120086669922e+00 -1.446951866149902344e+00
4.748000000000000000e+03 5.568903350830078125e+01 2.243505668640136719e+01 4.605045020580291748e-01 3.461375951766967773e+00 1.176564216613769531e+00 2.034292221069335938e+00
4.749000000000000000e+03 6.791532135009765625e+01 -2.967672824859619141e+00 -8.163592219352722168e-02 6.862701892852783203e+00 2.034319877624511719e+00 4.218892380595207214e-02
4.750000000000000000e+03 3.287825393676757812e+01 2.349321365356445312e+01 -1.554317027330398560e-01 -6.038410589098930359e-02 -6.474474072456359863e-02 -5.475639104843139648e-01
4.751000000000000000e+03 3.688745117187500000e+01 2.430302429199218750e+01 -2.628212571144104004e-01 8.797008544206619263e-02 -5.245535075664520264e-02 -5.605576634407043457e-01
4.752000000000000000e+03 3.602718734741210938e+01 2.372087669372558594e+01 -2.108794748783111572e-01 6.014106050133705139e-02 -4.522152617573738098e-02 -5.684334635734558105e-01
4.753000000000000000e+03 6.572029113769531250e+01 2.653773689270019531e+01 6.733785271644592285e-01 1.107159042358398438e+01 3.523490667343139648e+00 -1.218860745429992676e+00
4.754000000000000000e+03 7.009275054931640625e+01 5.585008144378662109e+00 -2.346735447645187378e-01 7.432211399078369141e+00 2.159261465072631836e+00 -1.176675930619239807e-01
4.755000000000000000e+03 3.314028167724609375e+01 2.416519927978515625e+01 -1.980516910552978516e-01 -3.650815412402153015e-02 -7.036795467138290405e-02 -5.422117114067077637e-01
4.756000000000000000e+03 6.395628738403320312e+01 2.114433288574218750e+01 -1.012466311454772949e+00 9.043409347534179688e+00 2.409282922744750977e+00 4.775592088699340820e-01
4.757000000000000000e+03 3.859062194824218750e+01 -2.999485015869140625e+00 1.428436636924743652e-01 1.044207930564880371e+00 3.561154603958129883e-01 -8.525957912206649780e-02
4.758000000000000000e+03 6.655705261230468750e+01 2.689153480529785156e+01 1.096352934837341309e+00 1.046831417083740234e+01 3.469399929046630859e+00 -1.387349128723144531e+00
4.759000000000000000e+03 6.596850585937500000e+01 -4.238804340362548828e+00 -6.867909431457519531e-02 6.469198703765869141e+00 1.920155763626098633e+00 6.389074772596359253e-02
4.760000000000000000e+03 6.695547485351562500e+01 -4.327716827392578125e+00 -6.866539269685745239e-02 6.675090312957763672e+00 1.981927514076232910e+00 6.853960454463958740e-02
4.761000000000000000e+03 6.607676696777343750e+01 -3.041687965393066406e+00 -8.737623691558837891e-02 6.514046669006347656e+00 1.928001046180725098e+00 5.926984921097755432e-02
4.762000000000000000e+03 3.492433547973632812e+01 1.901568984985351562e+01 4.579364135861396790e-02 2.818844094872474670e-02 2.219462580978870392e-02 -5.538135170936584473e-01
4.763000000000000000e+03 5.481933975219726562e+01 2.165973663330078125e+01 4.788249433040618896e-01 3.089450120925903320e+00 1.070482492446899414e+00 1.746876835823059082e+00
4.764000000000000000e+03 6.993972778320312500e+01 2.129489135742187500e+01 -4.141474664211273193e-01 8.605869293212890625e+00 2.457516431808471680e+00 -1.087734222412109375e+00
4.765000000000000000e+03 3.619305419921875000e+01 2.230216026306152344e+01 -1.138635277748107910e-01 6.980730593204498291e-02 -1.321686711162328720e-02 -5.722246766090393066e-01
4.766000000000000000e+03 5.464618682861328125e+01 -3.937196731567382812e+00 4.375968873500823975e-02 4.174474716186523438e+00 1.265470266342163086e+00 1.773571968078613281e-01
4.767000000000000000e+03 5.576263427734375000e+01 -3.134005308151245117e+00 2.086172811686992645e-02 4.419729709625244141e+00 1.332177400588989258e+00 1.802436113357543945e-01
4.768000000000000000e+03 6.377489089965820312e+01 1.471233844757080078e+01 -7.310538291931152344e-01 7.249635219573974609e+00 1.955574393272399902e+00 3.657820820808410645e-01
4.769000000000000000e+03 6.379350280761718750e+01 1.596309661865234375e+01 -8.104712963104248047e-01 7.480701446533203125e+00 2.001069068908691406e+00 4.217596054077148438e-01
4.770000000000000000e+03 3.466490554809570312e+01 2.222862243652343750e+01 -1.078441515564918518e-01 8.043422363698482513e-03 -2.994021773338317871e-02 -5.765432715415954590e-01
4.771000000000000000e+03 5.714715576171875000e+01 1.999905395507812500e+01 1.247859653085470200e-02 4.892508983612060547e+00 1.471496224403381348e+00 1.873635053634643555e+00
4.772000000000000000e+03 5.643190383911132812e+01 1.965541076660156250e+01 1.231336966156959534e-01 4.390214443206787109e+00 1.354004502296447754e+00 1.755607962608337402e+00
4.773000000000000000e+03 3.601203155517578125e+01 1.679862976074218750e+01 1.413218379020690918e-01 1.325060576200485229e-01 8.214836567640304565e-02 -4.948775172233581543e-01
4.774000000000000000e+03 6.239613342285156250e+01 1.599299430847167969e+01 -7.351894378662109375e-01 7.094305992126464844e+00 1.907734990119934082e+00 6.888033747673034668e-01
4.775000000000000000e+03 6.671324920654296875e+01 2.086230278015136719e+01 -8.140964508056640625e-01 9.104272842407226562e+00 2.487052679061889648e+00 -5.014509558677673340e-01
4.776000000000000000e+03 5.780508804321289062e+01 -8.462986946105957031e-01 -3.331285342574119568e-02 4.852070331573486328e+00 1.445627212524414062e+00 2.274227440357208252e-01
4.777000000000000000e+03 6.176158905029296875e+01 1.402437686920166016e+01 -5.909867882728576660e-01 6.579757690429687500e+00 1.796631217002868652e+00 6.532319784164428711e-01
4.778000000000000000e+03 5.941725540161132812e+01 1.664607238769531250e+01 -4.371151626110076904e-01 6.032342910766601562e+00 1.678568243980407715e+00 1.195836663246154785e+00
4.779000000000000000e+03 6.453755950927734375e+01 7.875514984130859375e+00 -3.876354396343231201e-01 6.617308616638183594e+00 1.868901968002319336e+00 1.539360284805297852e-01
4.780000000000000000e+03 6.472256469726562500e+01 8.619163513183593750e+00 -4.294771254062652588e-01 6.728621006011962891e+00 1.889743208885192871e+00 1.507088243961334229e-01
4.781000000000000000e+03 5.370148468017578125e+01 1.999762725830078125e+01 4.456965029239654541e-01 2.856682777404785156e+00 9.907137751579284668e-01 1.377601981163024902e+00
4.782000000000000000e+03 6.374282073974609375e+01 1.730471801757812500e+01 -8.725510835647583008e-01 7.748638629913330078e+00 2.062826156616210938e+00 4.883454144001007080e-01
4.783000000000000000e+03 5.469042587280273438e+01 1.753715133666992188e+01 2.082471102476119995e-01 3.703997850418090820e+00 1.173673510551452637e+00 1.312137007713317871e+00
4.784000000000000000e+03 6.365446090698242188e+01 1.790275955200195312e+01 -8.965010046958923340e-01 7.858071804046630859e+00 2.088471174240112305e+00 5.277382731437683105e-01
4.785000000000000000e+03 4.127025985717773438e+01 1.722819709777832031e+01 2.726546823978424072e-01 5.846334099769592285e-01 2.571864426136016846e-01 -2.898943722248077393e-01
4.786000000000000000e+03 5.380508041381835938e+01 1.673365592956542969e+01 2.611224651336669922e-01 3.394749402999877930e+00 1.096761584281921387e+00 1.137122869491577148e+00
4.787000000000000000e+03 5.859899139404296875e+01 1.596915912628173828e+01 -3.106682002544403076e-01 5.490635395050048828e+00 1.553990125656127930e+00 1.200633168220520020e+00
4.788000000000000000e+03 5.924068832397460938e+01 1.582759857177734375e+01 -4.089278280735015869e-01 5.824772357940673828e+00 1.624753355979919434e+00 1.125884771347045898e+00
4.789000000000000000e+03 5.920326614379882812e+01 1.535099697113037109e+01 -3.992751240730285645e-01 5.781036376953125000e+00 1.614528298377990723e+00 1.067457199096679688e+00
4.790000000000000000e+03 4.453969573974609375e+01 1.912678337097167969e+01 3.095676600933074951e-01 7.643158435821533203e-01 3.221650421619415283e-01 -9.998346120119094849e-02
4.791000000000000000e+03 4.502666091918945312e+01 1.951824569702148438e+01 3.059340119361877441e-01 7.829096913337707520e-01 3.266531229019165039e-01 -6.625866144895553589e-02
4.792000000000000000e+03 6.366008758544921875e+01 9.251585006713867188e+00 -4.421074390411376953e-01 6.542913913726806641e+00 1.830241918563842773e+00 2.423702031373977661e-01
4.793000000000000000e+03 4.456019210815429688e+01 6.622099399566650391e+00 2.927221953868865967e-01 1.770175933837890625e+00 6.188694238662719727e-01 7.380740344524383545e-02
4.794000000000000000e+03 5.848877334594726562e+01 1.521382141113281250e+01 -2.925210893154144287e-01 5.407091140747070312e+00 1.534371018409729004e+00 1.111338615417480469e+00
4.795000000000000000e+03 5.757092666625976562e+01 1.497670745849609375e+01 -1.974171102046966553e-01 5.087913036346435547e+00 1.467148780822753906e+00 1.107264637947082520e+00
4.796000000000000000e+03 5.308969497680664062e+01 1.575950145721435547e+01 2.736420929431915283e-01 3.230575323104858398e+00 1.051265239715576172e+00 9.945296049118041992e-01
4.797000000000000000e+03 4.964144897460937500e+01 1.840954399108886719e+01 4.798776805400848389e-01 1.745895504951477051e+00 6.677319407463073730e-01 5.997727513313293457e-01
4.798000000000000000e+03 5.478809738159179688e+01 1.502117824554443359e+01 1.054032742977142334e-01 3.921455621719360352e+00 1.208057641983032227e+00 1.056672811508178711e+00
4.799000000000000000e+03 5.410235977172851562e+01 1.438167953491210938e+01 1.568001806735992432e-01 3.708111047744750977e+00 1.159473419189453125e+00 9.517676830291748047e-01
4.800000000000000000e+03 6.122155761718750000e+01 9.672905921936035156e+00 -3.756241202354431152e-01 5.997955322265625000e+00 1.686699390411376953e+00 4.589178562164306641e-01
4.801000000000000000e+03 5.735927581787109375e+01 1.025871086120605469e+01 -1.547299623489379883e-01 4.932440280914306641e+00 1.433313131332397461e+00 6.723350882530212402e-01
4.802000000000000000e+03 5.201826095581054688e+01 7.360639095306396484e+00 1.487776041030883789e-01 3.412032127380371094e+00 1.068242907524108887e+00 4.514917433261871338e-01
4.803000000000000000e+03 5.062652969360351562e+01 1.083303070068359375e+01 2.574729323387145996e-01 2.860129594802856445e+00 9.352807402610778809e-01 5.102645158767700195e-01
4.804000000000000000e+03 5.345486068725585938e+01 1.388318347930908203e+01 1.943811178207397461e-01 3.514654159545898438e+00 1.112710595130920410e+00 9.103036522865295410e-01
4.805000000000000000e+03 5.240740966796875000e+01 1.389544773101806641e+01 2.515699267387390137e-01 3.171332120895385742e+00 1.026870608329772949e+00 7.817735671997070312e-01
4.806000000000000000e+03 4.954124069213867188e+01 1.630140686035156250e+01 4.476022720336914062e-01 2.018538475036621094e+00 7.398422360420227051e-01 5.726367235183715820e-01
4.807000000000000000e+03 4.973189926147460938e+01 1.557651901245117188e+01 4.196542203426361084e-01 2.167697668075561523e+00 7.762055993080139160e-01 5.902172327041625977e-01
4.808000000000000000e+03 4.997724914550781250e+01 1.644112396240234375e+01 4.432592093944549561e-01 2.131316184997558594e+00 7.723726630210876465e-01 6.369544863700866699e-01
4.809000000000000000e+03 5.097030639648437500e+01 1.608071708679199219e+01 4.021427929401397705e-01 2.470080375671386719e+00 8.616669178009033203e-01 7.653500437736511230e-01
4.810000000000000000e+03 5.297779083251953125e+01 7.000940799713134766e+00 9.958137571811676025e-02 3.661534786224365234e+00 1.128334879875183105e+00 4.627171754837036133e-01
4.811000000000000000e+03 5.230367660522460938e+01 1.261540699005126953e+01 2.241235375404357910e-01 3.222005128860473633e+00 1.033838629722595215e+00 7.134566903114318848e-01
4.812000000000000000e+03 5.044065093994140625e+01 1.590811920166015625e+01 4.138142764568328857e-01 2.356516122817993164e+00 8.310991525650024414e-01 6.818488240242004395e-01
4.813000000000000000e+03 5.039071273803710938e+01 1.531129646301269531e+01 3.878156840801239014e-01 2.392018318176269531e+00 8.339502215385437012e-01 6.508230566978454590e-01
4.814000000000000000e+03 1.426702117919921875e+01 1.252673983573913574e+00 -5.344758028513751924e-05 8.648645888342798571e-08 -1.600832729309331626e-05 -3.504814958432689309e-05
4.815000000000000000e+03 1.462149238586425781e+01 1.164639949798583984e+00 9.657704504206776619e-05 -7.525283308496000245e-06 2.671552829269785434e-05 -1.735575096972752362e-05
4.816000000000000000e+03 1.332876110076904297e+01 1.093653082847595215e+00 -1.792246985132806003e-05 -3.132135316263884306e-05 -1.477314708608901128e-05 -1.766065361152868718e-05
4.817000000000000000e+03 1.406522464752197266e+01 3.572364747524261475e-01 -1.289928241021698341e-05 -1.920775321195833385e-05 -9.632110959501005709e-06 -3.382469003554433584e-06
4.818000000000000000e+03 1.336003494262695312e+01 3.511472940444946289e-01 6.404279702110216022e-06 3.068947262363508344e-05 1.112812606152147055e-05 7.536385055573191494e-06
4.819000000000000000e+03 1.476313018798828125e+01 5.016638040542602539e-01 6.117369139246875420e-06 1.016868736769538373e-05 4.885816906607942656e-06 4.837375399802112952e-06
4.820000000000000000e+03 1.414069938659667969e+01 9.322270154953002930e-01 6.160534394439309835e-05 -1.581576361786574125e-05 1.373687337036244571e-05 2.150525506294798106e-05
4.821000000000000000e+03 1.384797477722167969e+01 1.187353014945983887e+00 1.636335218790918589e-05 2.439539457554928958e-05 1.222762421093648300e-05 1.846609848143998533e-05
4.822000000000000000e+03 1.112969017028808594e+01 3.708996772766113281e-01 -8.726889973331708461e-06 -3.012839806615374982e-05 -1.165658613899722695e-05 3.873962214129278436e-06
4.823000000000000000e+03 1.113907623291015625e+01 1.110847473144531250e+00 2.743164804996922612e-05 2.150794171029701829e-05 1.468187656428199261e-05 -1.119299395213602111e-05
4.824000000000000000e+03 1.263169097900390625e+01 3.451149165630340576e-01 -6.913967808941379189e-06 -3.711275348905473948e-05 -1.320801584370201454e-05 -1.887903863462270238e-06
4.825000000000000000e+03 1.037880802154541016e+01 3.837110698223114014e-01 9.740181667439173907e-06 2.284899346705060452e-05 9.776752449397463351e-06 -3.380745965841924772e-06
4.826000000000000000e+03 1.188065242767333984e+01 3.580341637134552002e-01 7.084220669639762491e-06 3.626407124102115631e-05 1.300448730034986511e-05 -1.866320076260308269e-06
4.827000000000000000e+03 1.264514160156250000e+01 1.084993243217468262e+00 1.423238154529826716e-05 3.087815639446489513e-05 1.353316110908053815e-05 3.621966243372298777e-06
4.828000000000000000e+03 1.038616180419921875e+01 1.123693704605102539e+00 -3.057771027670241892e-05 -1.771081224433146417e-05 -1.448655712010804564e-05 8.237137990363407880e-06
4.829000000000000000e+03 1.189207077026367188e+01 1.097947120666503906e+00 -1.929874633788131177e-05 -2.799616413540206850e-05 -1.418847296008607373e-05 8.417540811933577061e-06
4.830000000000000000e+03 9.625078201293945312e+00 3.871397972106933594e-01 -1.034954766510054469e-05 -1.808940214687027037e-05 -8.531685125490184873e-06 1.110783955482474994e-06
4.831000000000000000e+03 8.868724822998046875e+00 3.828192353248596191e-01 9.902342753775883466e-06 1.673054612183477730e-05 7.989866389834787697e-06 5.813926122755219694e-07
4.832000000000000000e+03 9.644926071166992188e+00 1.127139806747436523e+00 3.203358573955483735e-05 1.666466050664894283e-05 1.460947351006325334e-05 -3.261833853684947826e-06
4.833000000000000000e+03 8.112174034118652344e+00 3.804100155830383301e-01 -9.647082151786889881e-06 -1.642097231524530798e-05 -7.820416612958069891e-06 -1.066729510057484731e-06
4.834000000000000000e+03 7.356014251708984375e+00 3.793691694736480713e-01 9.429246347281150520e-06 1.532396163383964449e-05 7.425962394336238503e-06 6.520897954942483921e-07
4.835000000000000000e+03 5.843623161315917969e+00 3.767499327659606934e-01 9.604737897461745888e-06 7.800616913300473243e-06 5.221606443228665739e-06 -1.527056156191974878e-06
4.836000000000000000e+03 5.088051319122314453e+00 3.757717311382293701e-01 -7.765131158521398902e-06 -1.925078549902536906e-06 -2.907062935264548287e-06 3.632995003499672748e-06
4.837000000000000000e+03 3.576755046844482422e+00 3.680583238601684570e-01 -1.077243450708920136e-05 6.933461918379180133e-06 -1.151691776613006368e-06 3.269927901783376001e-06
4.838000000000000000e+03 2.822042465209960938e+00 3.613462746143341064e-01 1.542686732136644423e-05 -4.709125278168357909e-06 3.215322522009955719e-06 3.144278650779597228e-07
4.839000000000000000e+03 2.068703651428222656e+00 3.577998280525207520e-01 -1.109284585254499689e-05 2.100196923038311070e-07 -3.264847691752947867e-06 -1.334356966253835708e-06
4.840000000000000000e+03 2.358754634857177734e+00 1.097799897193908691e+00 3.421161454753018916e-05 4.769437964569078758e-06 1.169431652670027688e-05 7.671374078199733049e-06
4.841000000000000000e+03 1.327708005905151367e+00 3.658417165279388428e-01 1.135543357122514863e-06 -3.017199560417793691e-06 -5.644968155138485599e-07 -7.631720109202433378e-06
4.842000000000000000e+03 1.644779324531555176e+00 1.105841755867004395e+00 -1.725489346426911652e-05 -1.985686321859247983e-05 -1.113352664106059819e-05 -5.118017725180834532e-06
4.843000000000000000e+03 6.509408354759216309e-01 3.937322795391082764e-01 3.401871072128415108e-05 2.768079139059409499e-05 1.850985063356347382e-05 3.773509524762630463e-05
4.844000000000000000e+03 3.482567369937896729e-01 9.569563269615173340e-01 -5.382985909818671644e-05 -3.474344703136011958e-05 -2.657199183886405081e-05 -1.112296376959420741e-05
4.845000000000000000e+03 3.085073232650756836e+00 1.101346254348754883e+00 -3.941034447052516043e-05 1.212124942640002701e-07 -1.178674028778914362e-05 -3.502269692035042681e-06
4.846000000000000000e+03 3.812765598297119141e+00 1.108058333396911621e+00 3.585980812204070389e-05 1.336703462584409863e-06 1.115895338443806395e-05 -3.567214207578217611e-06
4.847000000000000000e+03 4.332499980926513672e+00 3.732680678367614746e-01 1.043853171722730622e-05 -4.041689862788189203e-06 1.919052465382264927e-06 -4.487865226110443473e-06
4.848000000000000000e+03 5.998572826385498047e+00 1.116749882698059082e+00 -2.541247704357374460e-05 -1.203906595037551597e-05 -1.123546280723530799e-05 5.715585757570806891e-06
4.849000000000000000e+03 6.600036144256591797e+00 3.784387111663818359e-01 -9.082394171855412424e-06 -1.232743488799314946e-05 -6.422948445106158033e-06 4.490873095619463129e-07
4.850000000000000000e+03 8.186062812805175781e+00 1.120409965515136719e+00 2.703283644223120064e-05 1.683827576925978065e-05 1.316133420914411545e-05 6.670102834505087230e-07
4.851000000000000000e+03 8.915593147277832031e+00 1.122819185256958008e+00 -2.932179813797120005e-05 -1.646910641284193844e-05 -1.373727172904182225e-05 -1.796884134819265455e-07
4.852000000000000000e+03 7.456923484802246094e+00 1.119369149208068848e+00 -2.573893107182811946e-05 -1.640153459447901696e-05 -1.264213915419531986e-05 1.260986095985572319e-06
4.853000000000000000e+03 6.727965354919433594e+00 1.118438720703125000e+00 2.574718200776260346e-05 1.496016557211987674e-05 1.221220463776262477e-05 -3.208179805369582027e-06
4.854000000000000000e+03 5.270021438598632812e+00 1.115771770477294922e+00 2.576559927547350526e-05 9.131990736932493746e-06 1.046927718562074006e-05 -6.455310995079344139e-06
4.855000000000000000e+03 4.541490077972412109e+00 1.113268017768859863e+00 -2.789346399367786944e-05 -5.790428076579701155e-06 -1.010516734822886065e-05 7.232451935124117881e-06
4.856000000000000000e+03 9.950323700904846191e-01 1.133732318878173828e+00 -1.177926969830878079e-05 5.158447675057686865e-05 1.194156266137724742e-05 -1.487802910560276359e-05
4.857000000000000000e+03 7.951600551605224609e+00 -3.791473805904388428e-01 -1.149219388025812805e-04 -6.232546875253319740e-04 -2.214529813500121236e-04 1.406342926202341914e-04
4.858000000000000000e+03 8.812386512756347656e+00 -1.121279358863830566e+00 -2.907267480622977018e-04 -3.559068427421152592e-04 -1.939900830620899796e-04 2.399304357822984457e-04
4.859000000000000000e+03 9.587816238403320312e+00 -3.863115906715393066e-01 -1.061726215993985534e-04 -3.399414999876171350e-04 -1.338342408416792750e-04 1.001062701107002795e-04
4.860000000000000000e+03 7.132064342498779297e+00 -3.779651820659637451e-01 1.348664955003187060e-04 7.291040965355932713e-04 2.591911761555820704e-04 -1.628856261959299445e-04
4.861000000000000000e+03 6.306247234344482422e+00 -3.772793114185333252e-01 -1.101167872548103333e-04 -7.930620340630412102e-04 -2.709536638576537371e-04 1.643814030103385448e-04
4.862000000000000000e+03 5.442752361297607422e+00 -3.835102021694183350e-01 -2.551929537730757147e-05 7.371992105618119240e-04 2.135039685526862741e-04 -3.176201062160544097e-05
4.863000000000000000e+03 4.552286148071289062e+00 -3.399353623390197754e-01 -9.251345181837677956e-05 -6.976537988521158695e-04 -2.370501752011477947e-04 -8.505446749040856957e-05
4.864000000000000000e+03 4.371328830718994141e+00 -8.708365559577941895e-01 8.205427438952028751e-04 4.515994805842638016e-04 3.816426906269043684e-04 4.804270865861326456e-04
4.865000000000000000e+03 2.785328388214111328e+00 -7.796061038970947266e-01 2.823768300004303455e-04 -2.705403021536767483e-04 3.550958126652403735e-06 8.555423701182007790e-04
4.866000000000000000e+03 1.180722951889038086e+00 -3.608860373497009277e-01 -7.204082794487476349e-04 2.667706285137683153e-04 -1.360913011012598872e-04 -1.172799748019315302e-04
4.867000000000000000e+03 4.099212884902954102e-01 -5.526853203773498535e-01 -4.842379712499678135e-05 -2.699138713069260120e-04 -9.550130198476836085e-05 -1.542661775602027774e-04
4.868000000000000000e+03 7.477942705154418945e-01 -1.100885987281799316e+00 2.125818980857729912e-03 3.085994976572692394e-04 7.303255260922014713e-04 4.418735916260629892e-04
4.869000000000000000e+03 9.597747802734375000e+00 -1.126311540603637695e+00 3.064077754970639944e-04 2.921756531577557325e-04 1.795750285964459181e-04 -2.488109457772225142e-04
4.870000000000000000e+03 8.026608467102050781e+00 -1.119147419929504395e+00 2.889665192924439907e-04 3.886536578647792339e-04 2.032860647886991501e-04 -2.130855573341250420e-04
4.871000000000000000e+03 7.239610195159912109e+00 -1.117965221405029297e+00 -2.858822990674525499e-04 -3.713405749294906855e-04 -1.971668534679338336e-04 1.598166418261826038e-04
4.872000000000000000e+03 6.446331024169921875e+00 -1.117279291152954102e+00 2.196131827076897025e-04 2.773262967821210623e-04 1.490818540332838893e-04 -7.781411841278895736e-05
4.873000000000000000e+03 5.615375041961669922e+00 -1.123510241508483887e+00 1.722121851344127208e-05 -1.704254391370341182e-04 -4.596126382239162922e-05 1.381685024171019904e-06
4.874000000000000000e+03 4.879715442657470703e+00 -1.221276640892028809e+00 -4.208524769637733698e-04 -2.724871155805885792e-04 -2.080018748529255390e-04 -3.412034129723906517e-04
4.875000000000000000e+03 4.223337173461914062e+00 -1.290901184082031250e+00 -4.179464303888380527e-04 3.414327802602201700e-04 -2.295409467478748411e-05 -1.943344250321388245e-05
4.876000000000000000e+03 3.489140987396240234e+00 -1.263193726539611816e+00 3.691992023959755898e-04 -4.230039485264569521e-05 9.806964226299896836e-05 5.820951191708445549e-04
4.877000000000000000e+03 2.723763942718505859e+00 -1.258556365966796875e+00 3.470655428827740252e-05 -4.495317698456346989e-04 -1.244475715793669224e-04 -9.534175624139606953e-04
4.878000000000000000e+03 1.357383847236633301e+00 -1.202877521514892578e+00 -2.309913281351327896e-03 -8.001023670658469200e-04 -9.330047178082168102e-04 -2.981778816320002079e-04
4.879000000000000000e+03 8.769917488098144531e+00 -3.812793791294097900e-01 1.112937898142263293e-04 4.886570386588573456e-04 1.799852616386488080e-04 -1.228195324074476957e-04
4.880000000000000000e+03 3.581377506256103516e+00 -7.854385375976562500e-01 -4.103218670934438705e-04 -2.434459020150825381e-04 -1.961303205462172627e-04 -5.611542146652936935e-04
4.881000000000000000e+03 3.695749998092651367e+00 -2.822447717189788818e-01 9.032442903844639659e-05 6.819319678470492363e-04 2.316769096069037914e-04 2.149672654923051596e-04
4.882000000000000000e+03 2.864297151565551758e+00 -2.810497581958770752e-01 -2.749581472016870975e-04 -5.350618157535791397e-04 -2.430059976177290082e-04 -2.576724218670278788e-04
4.883000000000000000e+03 1.994235515594482422e+00 -3.319245874881744385e-01 -3.677088670883676969e-06 2.003090194193646312e-04 5.898957897443324327e-05 3.956588625442236662e-04
4.884000000000000000e+03 1.981270551681518555e+00 -1.274680376052856445e+00 2.711066917981952429e-04 1.021560630761086941e-03 3.878001880366355181e-04 8.874977356754243374e-04
4.885000000000000000e+03 1.973554253578186035e+00 -8.466050028800964355e-01 1.004065619781613350e-03 4.336538841016590595e-04 4.313158569857478142e-04 -1.163147739134728909e-03
4.886000000000000000e+03 1.332448291778564453e+01 -3.621845245361328125e-01 9.960040915757417679e-05 -6.736874638590961695e-06 2.785905962809920311e-05 5.262792183202691376e-05
4.887000000000000000e+03 1.426397991180419922e+01 -1.317608714103698730e+00 -3.126650117337703705e-04 -2.199620939791202545e-04 -1.597881346242502332e-04 -9.342252451460808516e-05
4.888000000000000000e+03 1.327361392974853516e+01 -1.248556852340698242e+00 -5.873925401829183102e-04 -5.167677954887039959e-05 -1.917207846418023109e-04 2.886178554035723209e-04
4.889000000000000000e+03 1.480296707153320312e+01 -1.047354817390441895e+00 1.739784056553617120e-04 1.162982080131769180e-04 8.708298992132768035e-05 3.628170452429912984e-05
4.890000000000000000e+03 1.356446647644042969e+01 -7.579438090324401855e-01 2.449753519613295794e-04 7.694166015426162630e-07 7.372342952294275165e-05 -2.860032545868307352e-04
4.891000000000000000e+03 1.393659019470214844e+01 -3.302382230758666992e-01 -5.592361412709578872e-05 -8.319580956595018506e-06 -1.927295852510724217e-05 8.324925875058397651e-05
4.892000000000000000e+03 1.449034786224365234e+01 -4.399540424346923828e-01 -4.983114195056259632e-05 -1.012871216516941786e-04 -4.533547689788974822e-05 -1.434804289601743221e-04
4.893000000000000000e+03 1.380024147033691406e+01 -1.352263331413269043e+00 7.751289522275328636e-04 1.782694562280084938e-05 2.378867793595418334e-04 -1.164793720818124712e-04
4.894000000000000000e+03 1.402595424652099609e+01 -9.610455632209777832e-01 -2.802862945827655494e-05 1.571054235682822764e-05 -3.695426357808173634e-06 3.000529832206666470e-04
4.895000000000000000e+03 1.185737037658691406e+01 -1.162281751632690430e+00 -2.636254066601395607e-04 -1.366341894026845694e-04 -1.200778788188472390e-04 1.032806831062771380e-04
4.896000000000000000e+03 1.112013435363769531e+01 -4.102526009082794189e-01 -9.820730338105931878e-05 -1.078827044693753123e-04 -6.182700599310919642e-05 5.535869422601535916e-05
4.897000000000000000e+03 1.261753940582275391e+01 -4.348734915256500244e-01 -1.321804156759753823e-04 4.711652582045644522e-05 -2.551916622905991971e-05 3.166152600897476077e-05
4.898000000000000000e+03 1.037124824523925781e+01 -3.971002995967864990e-01 1.060268914443440735e-04 2.207901270594447851e-04 9.804510773392394185e-05 -7.963287498569115996e-05
4.899000000000000000e+03 1.036389350891113281e+01 -1.137082934379577637e+00 -3.401900466997176409e-04 -2.161095471819862723e-04 -1.668898767093196511e-04 2.238303568447008729e-04
4.900000000000000000e+03 1.260408973693847656e+01 -1.174751639366149902e+00 3.255469200666993856e-04 1.168839226011186838e-04 1.327292557107284665e-04 -1.194279466290026903e-04
4.901000000000000000e+03 1.111074829101562500e+01 -1.150200366973876953e+00 3.231691953260451555e-04 1.383959752274677157e-04 1.384695497108623385e-04 -1.527996209915727377e-04
4.902000000000000000e+03 1.186878871917724609e+01 -4.223687946796417236e-01 7.818996527930721641e-05 1.778582372935488820e-05 2.879273597500286996e-05 -5.927357779000885785e-05
4.903000000000000000e+03 6.077532577514648438e+01 3.100415992736816406e+01 3.221049499511718750e+01 5.011239051818847656e+00 1.116652107238769531e+01 1.055168819427490234e+01
4.904000000000000000e+03 6.077812576293945312e+01 3.098489570617675781e+01 3.079457855224609375e+01 1.602879714965820312e+01 1.404701232910156250e+01 2.237616157531738281e+01
4.905000000000000000e+03 6.078462219238281250e+01 3.096654319763183594e+01 2.896473884582519531e+01 2.749085998535156250e+01 1.693667984008789062e+01 2.692850875854492188e+01
4.906000000000000000e+03 6.079456710815429688e+01 3.094980812072753906e+01 2.541208267211914062e+01 3.971720504760742188e+01 1.953878593444824219e+01 2.884667205810546875e+01
4.907000000000000000e+03 6.080758285522460938e+01 3.093532752990722656e+01 2.198818969726562500e+01 5.118334197998046875e+01 2.195145988464355469e+01 2.772892189025878906e+01
4.908000000000000000e+03 6.082316589355468750e+01 3.092366027832031250e+01 1.846493911743164062e+01 6.128733062744140625e+01 2.392568016052246094e+01 2.407896232604980469e+01
4.909000000000000000e+03 6.084072494506835938e+01 3.091524887084960938e+01 1.640117835998535156e+01 6.904315948486328125e+01 2.563330078125000000e+01 1.838437461853027344e+01
4.910000000000000000e+03 6.085958099365234375e+01 3.091041564941406250e+01 1.575751113891601562e+01 7.381046295166015625e+01 2.687039375305175781e+01 1.135382366180419922e+01
4.911000000000000000e+03 6.087902069091796875e+01 3.090934753417968750e+01 1.720525550842285156e+01 7.535423278808593750e+01 2.776784706115722656e+01 4.196300506591796875e+00
4.912000000000000000e+03 6.089829635620117188e+01 3.091208457946777344e+01 2.058015251159667969e+01 7.394877624511718750e+01 2.835867881774902344e+01 -2.275843381881713867e+00
4.913000000000000000e+03 6.091666793823242188e+01 3.091851997375488281e+01 2.527364158630371094e+01 7.021636962890625000e+01 2.864700317382812500e+01 -7.135318279266357422e+00
4.914000000000000000e+03 6.093343734741210938e+01 3.092841148376464844e+01 3.064032745361328125e+01 6.509096527099609375e+01 2.871938705444335938e+01 -9.932227134704589844e+00
4.915000000000000000e+03 6.094795989990234375e+01 3.094137573242187500e+01 3.605816268920898438e+01 5.966028213500976562e+01 2.871553421020507812e+01 -1.052586078643798828e+01
4.916000000000000000e+03 6.095968246459960938e+01 3.095692062377929688e+01 4.068566894531250000e+01 5.457135009765625000e+01 2.857710456848144531e+01 -9.215830802917480469e+00
4.917000000000000000e+03 6.096815109252929688e+01 3.097445106506347656e+01 4.417619323730468750e+01 5.074657821655273438e+01 2.847683143615722656e+01 -6.387083530426025391e+00
4.918000000000000000e+03 6.097304534912109375e+01 3.099329376220703125e+01 4.625096511840820312e+01 4.847915649414062500e+01 2.841903686523437500e+01 -2.552698612213134766e+00
4.919000000000000000e+03 6.097417831420898438e+01 3.101272964477539062e+01 4.674290466308593750e+01 4.798200225830078125e+01 2.841747283935546875e+01 1.737040758132934570e+00
4.920000000000000000e+03 6.097150802612304688e+01 3.103201293945312500e+01 4.560431289672851562e+01 4.929753494262695312e+01 2.847055435180664062e+01 5.917119503021240234e+00
4.921000000000000000e+03 6.096513366699218750e+01 3.105040740966796875e+01 4.293877410888671875e+01 5.245415878295898438e+01 2.861787986755371094e+01 9.440084457397460938e+00
4.922000000000000000e+03 6.095529937744140625e+01 3.106720924377441406e+01 3.878195190429687500e+01 5.699255371093750000e+01 2.873235130310058594e+01 1.178758716583251953e+01
4.923000000000000000e+03 6.094237899780273438e+01 3.108177375793457031e+01 3.363555908203125000e+01 6.245693969726562500e+01 2.882774925231933594e+01 1.236375999450683594e+01
4.924000000000000000e+03 6.092687225341796875e+01 3.109354591369628906e+01 2.791088485717773438e+01 6.804687500000000000e+01 2.878732681274414062e+01 1.082900047302246094e+01
4.925000000000000000e+03 6.090937423706054688e+01 3.110207366943359375e+01 2.251993179321289062e+01 7.279953765869140625e+01 2.859584045410156250e+01 7.068557262420654297e+00
4.926000000000000000e+03 6.089054870605468750e+01 3.110703277587890625e+01 1.800470924377441406e+01 7.569719696044921875e+01 2.811057090759277344e+01 1.310722589492797852e+00
4.927000000000000000e+03 6.087111663818359375e+01 3.110823059082031250e+01 1.521622753143310547e+01 7.588714599609375000e+01 2.733101081848144531e+01 -5.660551548004150391e+00
4.928000000000000000e+03 6.085182189941406250e+01 3.110562324523925781e+01 1.448055648803710938e+01 7.289367675781250000e+01 2.621227073669433594e+01 -1.312031936645507812e+01
4.929000000000000000e+03 6.083340835571289062e+01 3.109930801391601562e+01 1.554350376129150391e+01 6.666686248779296875e+01 2.466311073303222656e+01 -1.979932403564453125e+01
4.930000000000000000e+03 6.081657409667968750e+01 3.108953094482421875e+01 1.838875198364257812e+01 5.757558822631835938e+01 2.278930091857910156e+01 -2.491109848022460938e+01
4.931000000000000000e+03 6.080196380615234375e+01 3.107666206359863281e+01 2.185421752929687500e+01 4.654283905029296875e+01 2.051911735534667969e+01 -2.762745475769042969e+01
4.932000000000000000e+03 6.079013824462890625e+01 3.106119537353515625e+01 2.599425888061523438e+01 3.395825958251953125e+01 1.798575592041015625e+01 -2.744128036499023438e+01
4.933000000000000000e+03 6.078155517578125000e+01 3.104372215270996094e+01 2.903131103515625000e+01 2.153564262390136719e+01 1.517008590698242188e+01 -2.429374504089355469e+01
4.934000000000000000e+03 6.077653503417968750e+01 3.102491378784179688e+01 3.316084289550781250e+01 7.872639179229736328e+00 1.231004524230957031e+01 -1.391298484802246094e+01
