# el_label, x, y, sXX, sYY, sZZ, sXY
1.000000000000000000e+00 4.863938522338867188e+01 3.220009231567382812e+01 -7.456566333770751953e+00 -1.845209836959838867e+00 -2.790532827377319336e+00 -2.188793659210205078e+00
2.000000000000000000e+00 4.844071197509765625e+01 3.221223831176757812e+01 -1.472897052764892578e+00 7.346854209899902344e-01 -2.214634716510772705e-01 1.062960028648376465e+00
3.000000000000000000e+00 4.824204254150390625e+01 3.222438430786132812e+01 -2.763439893722534180e+00 -4.946431219577789307e-01 -9.774249196052551270e-01 2.899351418018341064e-01
4.000000000000000000e+00 4.804337310791015625e+01 3.223653030395507812e+01 -2.856060266494750977e+00 1.376489102840423584e-01 -8.155234456062316895e-01 6.029771566390991211e-01
5.000000000000000000e+00 4.864154052734375000e+01 3.214172744750976562e+01 9.721647262573242188e+00 -2.848282098770141602e+00 2.062009572982788086e+00 -2.593466043472290039e-01
6.000000000000000000e+00 4.844430541992187500e+01 3.211496353149414062e+01 2.823123693466186523e+00 3.574363142251968384e-02 8.576601743698120117e-01 7.858576178550720215e-01
7.000000000000000000e+00 4.824707031250000000e+01 3.208819961547851562e+01 3.093903779983520508e+00 1.778308451175689697e-01 9.815203547477722168e-01 1.624413967132568359e+00
8.000000000000000000e+00 4.804983520507812500e+01 3.206143569946289062e+01 1.847483515739440918e+00 -1.139831021428108215e-01 5.200501680374145508e-01 9.619833230972290039e-01
9.000000000000000000e+00 4.865501403808593750e+01 3.208489990234375000e+01 1.750619888305664062e+01 1.969435364007949829e-01 5.310942649841308594e+00 6.551951408386230469e+00
1.000000000000000000e+01 4.846676635742187500e+01 3.202024841308593750e+01 1.014913463592529297e+01 3.725136816501617432e-02 3.055915832519531250e+00 3.760763645172119141e+00
1.100000000000000000e+01 4.827851486206054688e+01 3.195560073852539062e+01 6.838870048522949219e+00 9.501511454582214355e-01 2.336706399917602539e+00 3.245139122009277344e+00
1.200000000000000000e+01 4.809026336669921875e+01 3.189095306396484375e+01 5.898749828338623047e+00 7.695060372352600098e-01 2.000476837158203125e+00 3.132352828979492188e+00
1.300000000000000000e+01 4.867929840087890625e+01 3.203178024291992188e+01 2.114010620117187500e+01 5.409990310668945312e+00 7.965029239654541016e+00 1.270792770385742188e+01
1.400000000000000000e+01 4.850723648071289062e+01 3.193172073364257812e+01 1.342773056030273438e+01 3.250844717025756836e+00 5.003572463989257812e+00 8.191001892089843750e+00
1.500000000000000000e+01 4.833517074584960938e+01 3.183165931701660156e+01 1.045358180999755859e+01 2.662462949752807617e+00 3.934813261032104492e+00 6.462094783782958984e+00
1.600000000000000000e+01 4.816310882568359375e+01 3.173159980773925781e+01 8.250013351440429688e+00 2.586621046066284180e+00 3.250990152359008789e+00 5.576136112213134766e+00
1.700000000000000000e+01 4.871345520019531250e+01 3.198440742492675781e+01 2.068837928771972656e+01 1.309303665161132812e+01 1.013442516326904297e+01 1.762109375000000000e+01
1.800000000000000000e+01 4.856416320800781250e+01 3.185276222229003906e+01 1.462475776672363281e+01 8.197183609008789062e+00 6.846582412719726562e+00 1.211822700500488281e+01
1.900000000000000000e+01 4.841487503051757812e+01 3.172111892700195312e+01 1.138260746002197266e+01 6.479181766510009766e+00 5.358536720275878906e+00 9.595495223999023438e+00
2.000000000000000000e+01 4.826558685302734375e+01 3.158947753906250000e+01 9.713946342468261719e+00 5.477645397186279297e+00 4.557477474212646484e+00 8.438032150268554688e+00
2.100000000000000000e+01 4.875617980957031250e+01 3.194458961486816406e+01 1.830145645141601562e+01 2.189313316345214844e+01 1.205837631225585938e+01 2.018972015380859375e+01
2.200000000000000000e+01 4.863537597656250000e+01 3.178639984130859375e+01 1.344582271575927734e+01 1.457492542266845703e+01 8.406224250793457031e+00 1.457584762573242188e+01
2.300000000000000000e+01 4.851457214355468750e+01 3.162821197509765625e+01 1.104689025878906250e+01 1.154401779174804688e+01 6.777272224426269531e+00 1.202050209045410156e+01
2.400000000000000000e+01 4.839376831054687500e+01 3.147002410888671875e+01 9.246672630310058594e+00 9.748827934265136719e+00 5.698650360107421875e+00 1.029286861419677734e+01
2.500000000000000000e+01 4.880584335327148438e+01 3.191385078430175781e+01 1.470343208312988281e+01 3.068232536315917969e+01 1.361572742462158203e+01 2.008412933349609375e+01
2.600000000000000000e+01 4.871814727783203125e+01 3.173517036437988281e+01 1.151408386230468750e+01 2.149441337585449219e+01 9.902548789978027344e+00 1.526736831665039062e+01
2.700000000000000000e+01 4.863045120239257812e+01 3.155649185180664062e+01 9.352088928222656250e+00 1.713645362854003906e+01 7.946562767028808594e+00 1.278254222869873047e+01
2.800000000000000000e+01 4.854275131225585938e+01 3.137781143188476562e+01 8.099674224853515625e+00 1.485365104675292969e+01 6.885997295379638672e+00 1.130915355682373047e+01
2.900000000000000000e+01 4.886053848266601562e+01 3.189336967468261719e+01 1.176542282104492188e+01 3.851827239990234375e+01 1.508510875701904297e+01 1.744219970703125000e+01
3.000000000000000000e+01 4.880930328369140625e+01 3.170103454589843750e+01 9.196054458618164062e+00 2.776829147338867188e+01 1.108930397033691406e+01 1.413630676269531250e+01
3.100000000000000000e+01 4.875807189941406250e+01 3.150870132446289062e+01 7.534495353698730469e+00 2.298296928405761719e+01 9.155239105224609375e+00 1.203630638122558594e+01
3.200000000000000000e+01 4.870683670043945312e+01 3.131636619567871094e+01 6.444608211517333984e+00 1.949892234802246094e+01 7.783059120178222656e+00 1.056664562225341797e+01
3.300000000000000000e+01 4.891817474365234375e+01 3.188392829895019531e+01 1.001948261260986328e+01 4.419466400146484375e+01 1.626424407958984375e+01 1.309099006652832031e+01
3.400000000000000000e+01 4.890536499023437500e+01 3.168530082702636719e+01 7.678900718688964844e+00 3.305831527709960938e+01 1.222116470336914062e+01 1.141140651702880859e+01
3.500000000000000000e+01 4.889255905151367188e+01 3.148667144775390625e+01 6.041322708129882812e+00 2.761428833007812500e+01 1.009668350219726562e+01 1.003931999206542969e+01
3.600000000000000000e+01 4.887974548339843750e+01 3.128804397583007812e+01 4.885943889617919922e+00 2.453180122375488281e+01 8.825323104858398438e+00 8.666367530822753906e+00
3.700000000000000000e+01 4.897654724121093750e+01 3.188588905334472656e+01 1.017146778106689453e+01 4.748613357543945312e+01 1.729728126525878906e+01 7.823754787445068359e+00
3.800000000000000000e+01 4.900265121459960938e+01 3.168856620788574219e+01 7.386342048645019531e+00 3.648019790649414062e+01 1.315996170043945312e+01 7.858282566070556641e+00
3.900000000000000000e+01 4.902875900268554688e+01 3.149124526977539062e+01 5.454273223876953125e+00 3.101622200012207031e+01 1.094114875793457031e+01 7.041853427886962891e+00
4.000000000000000000e+01 4.905486297607421875e+01 3.129392242431640625e+01 4.366405963897705078e+00 2.791547393798828125e+01 9.684563636779785156e+00 6.620754718780517578e+00
4.100000000000000000e+01 4.903342056274414062e+01 3.189917564392089844e+01 1.202643489837646484e+01 4.833272171020507812e+01 1.810774803161621094e+01 3.096458196640014648e+00
4.200000000000000000e+01 4.909743881225585938e+01 3.171071052551269531e+01 8.548358917236328125e+00 3.814249038696289062e+01 1.400725460052490234e+01 3.741847276687622070e+00
4.300000000000000000e+01 4.916146087646484375e+01 3.152224731445312500e+01 6.299916744232177734e+00 3.258238220214843750e+01 1.166469001770019531e+01 4.033157825469970703e+00
4.400000000000000000e+01 4.922548294067382812e+01 3.133378219604492188e+01 4.944699287414550781e+00 2.894111633300781250e+01 1.016574478149414062e+01 3.903489589691162109e+00
4.500000000000000000e+01 4.908661651611328125e+01 3.192327880859375000e+01 1.592541408538818359e+01 4.721692276000976562e+01 1.894270133972167969e+01 -7.823801636695861816e-01
4.600000000000000000e+01 4.918610382080078125e+01 3.175088500976562500e+01 1.037519073486328125e+01 3.809650802612304688e+01 1.454150962829589844e+01 3.702997267246246338e-01
4.700000000000000000e+01 4.928559112548828125e+01 3.157849121093750000e+01 8.885589599609375000e+00 3.251332473754882812e+01 1.241967487335205078e+01 8.116315007209777832e-01
4.800000000000000000e+01 4.938507843017578125e+01 3.140609741210937500e+01 6.644771099090576172e+00 2.858285713195800781e+01 1.056828880310058594e+01 1.309255599975585938e+00
4.900000000000000000e+01 4.913410568237304688e+01 3.195727920532226562e+01 1.971701049804687500e+01 4.485163879394531250e+01 1.937059402465820312e+01 -3.172902345657348633e+00
5.000000000000000000e+01 4.926525115966796875e+01 3.180755233764648438e+01 1.404755687713623047e+01 3.659861373901367188e+01 1.519385147094726562e+01 -1.861127018928527832e+00
5.100000000000000000e+01 4.939639663696289062e+01 3.165782356262207031e+01 1.098895645141601562e+01 3.139398002624511719e+01 1.271488094329833984e+01 -1.605192661285400391e+00
5.200000000000000000e+01 4.952753829956054688e+01 3.150809669494628906e+01 1.032054042816162109e+01 2.817856788635253906e+01 1.154973220825195312e+01 -1.220940589904785156e+00
5.300000000000000000e+01 4.917406463623046875e+01 3.199987411499023438e+01 2.376993942260742188e+01 4.197769546508789062e+01 1.972429084777832031e+01 -3.828344583511352539e+00
5.400000000000000000e+01 4.933185195922851562e+01 3.187854194641113281e+01 1.764238739013671875e+01 3.448247528076171875e+01 1.563745880126953125e+01 -2.881550550460815430e+00
5.500000000000000000e+01 4.948963546752929688e+01 3.175721168518066406e+01 1.405822849273681641e+01 2.954303169250488281e+01 1.308037853240966797e+01 -2.576766490936279297e+00
5.600000000000000000e+01 4.964741897583007812e+01 3.163587951660156250e+01 1.215166664123535156e+01 2.691190910339355469e+01 1.171907329559326172e+01 -2.148409128189086914e+00
5.700000000000000000e+01 4.920496749877929688e+01 3.204943466186523438e+01 2.751410102844238281e+01 4.005104446411132812e+01 2.026954269409179688e+01 -2.786458492279052734e+00
5.800000000000000000e+01 4.938335418701171875e+01 3.196114158630371094e+01 2.065022087097167969e+01 3.151798439025878906e+01 1.565046119689941406e+01 -2.746400594711303711e+00
5.900000000000000000e+01 4.956174087524414062e+01 3.187284851074218750e+01 1.711684417724609375e+01 2.834123039245605469e+01 1.363742256164550781e+01 -1.935945868492126465e+00
6.000000000000000000e+01 4.974013137817382812e+01 3.178455543518066406e+01 1.417304897308349609e+01 2.377228164672851562e+01 1.138359928131103516e+01 -1.812074542045593262e+00
6.100000000000000000e+01 4.922563171386718750e+01 3.210406112670898438e+01 2.980068206787109375e+01 3.727206802368164062e+01 2.012182426452636719e+01 -8.217055797576904297e-01
6.200000000000000000e+01 4.941779327392578125e+01 3.205218505859375000e+01 2.287577438354492188e+01 3.072397232055664062e+01 1.607992362976074219e+01 -1.038089513778686523e+00
6.300000000000000000e+01 4.960995864868164062e+01 3.200031280517578125e+01 1.907988357543945312e+01 2.559020233154296875e+01 1.340102577209472656e+01 -6.311327219009399414e-01
6.400000000000000000e+01 4.980212020874023438e+01 3.194843673706054688e+01 1.694461250305175781e+01 2.387662315368652344e+01 1.224637126922607422e+01 -9.867904782295227051e-01
6.500000000000000000e+01 4.923526763916015625e+01 3.216166305541992188e+01 3.071660804748535156e+01 3.670756149291992188e+01 2.022725105285644531e+01 1.473967075347900391e+00
6.600000000000000000e+01 4.943384933471679688e+01 3.214819335937500000e+01 2.383873558044433594e+01 2.957215499877929688e+01 1.602326583862304688e+01 1.730495452880859375e+00
6.700000000000000000e+01 4.963243484497070312e+01 3.213471984863281250e+01 1.973046112060546875e+01 2.525836753845214844e+01 1.349664878845214844e+01 9.966871738433837891e-01
6.800000000000000000e+01 4.983102035522460938e+01 3.212125015258789062e+01 1.701363182067871094e+01 2.344448280334472656e+01 1.213743400573730469e+01 9.880260825157165527e-01
6.900000000000000000e+01 4.923349761962890625e+01 3.222003936767578125e+01 3.025480079650878906e+01 3.751567459106445312e+01 2.033114242553710938e+01 4.647112369537353516e+00
7.000000000000000000e+01 4.943090820312500000e+01 3.224549102783203125e+01 2.313482475280761719e+01 2.929632568359375000e+01 1.572934436798095703e+01 4.019597530364990234e+00
7.100000000000000000e+01 4.962831497192382812e+01 3.227093887329101562e+01 1.898464965820312500e+01 2.645935630798339844e+01 1.363320159912109375e+01 3.507454156875610352e+00
7.200000000000000000e+01 4.982572174072265625e+01 3.229638671875000000e+01 1.542817497253417969e+01 2.281463050842285156e+01 1.147284126281738281e+01 3.317917108535766602e+00
7.300000000000000000e+01 4.922040176391601562e+01 3.227695846557617188e+01 2.790722846984863281e+01 3.798996734619140625e+01 1.976915931701660156e+01 7.164872169494628906e+00
7.400000000000000000e+01 4.940908050537109375e+01 3.234035110473632812e+01 2.099233245849609375e+01 3.174406051635742188e+01 1.582091712951660156e+01 6.106621265411376953e+00
7.500000000000000000e+01 4.959775543212890625e+01 3.240374374389648438e+01 1.680532836914062500e+01 2.677676391601562500e+01 1.307462787628173828e+01 5.460024833679199219e+00
7.600000000000000000e+01 4.978643417358398438e+01 3.246713638305664062e+01 1.455011749267578125e+01 2.461477661132812500e+01 1.174946784973144531e+01 5.283490657806396484e+00
7.700000000000000000e+01 4.919647598266601562e+01 3.233023834228515625e+01 2.460037040710449219e+01 4.100313186645507812e+01 1.968105125427246094e+01 8.661597251892089844e+00
7.800000000000000000e+01 4.936920166015625000e+01 3.242914962768554688e+01 1.741151809692382812e+01 3.333379364013671875e+01 1.522359371185302734e+01 7.412546157836914062e+00
7.900000000000000000e+01 4.954192733764648438e+01 3.252806091308593750e+01 1.390624809265136719e+01 2.941993713378906250e+01 1.299785614013671875e+01 6.253150939941406250e+00
8.000000000000000000e+01 4.971465301513671875e+01 3.262696838378906250e+01 1.229331493377685547e+01 2.539345741271972656e+01 1.130603218078613281e+01 5.548778057098388672e+00
8.100000000000000000e+01 4.916263198852539062e+01 3.237783813476562500e+01 1.977175712585449219e+01 4.381150054931640625e+01 1.907497787475585938e+01 9.005084991455078125e+00
8.200000000000000000e+01 4.931279754638671875e+01 3.250848388671875000e+01 1.347455501556396484e+01 3.596440887451171875e+01 1.483168888092041016e+01 7.029428482055664062e+00
8.300000000000000000e+01 4.946296310424804688e+01 3.263912963867187500e+01 1.051472377777099609e+01 3.122458839416503906e+01 1.252179336547851562e+01 6.078721046447753906e+00
8.400000000000000000e+01 4.961312866210937500e+01 3.276977157592773438e+01 8.397572517395019531e+00 2.822435760498046875e+01 1.098657894134521484e+01 4.645822048187255859e+00
8.500000000000000000e+01 4.912017059326171875e+01 3.241793823242187500e+01 1.467168426513671875e+01 4.674090194702148438e+01 1.842377471923828125e+01 7.514006137847900391e+00
8.600000000000000000e+01 4.924203109741210938e+01 3.257531738281250000e+01 9.477097511291503906e+00 3.794832611083984375e+01 1.422762680053710938e+01 5.193932533264160156e+00
8.700000000000000000e+01 4.936388778686523438e+01 3.273270034790039062e+01 6.995269775390625000e+00 3.264692687988281250e+01 1.189265823364257812e+01 4.299590110778808594e+00
8.800000000000000000e+01 4.948574447631835938e+01 3.289007949829101562e+01 5.572984218597412109e+00 3.011615180969238281e+01 1.070674133300781250e+01 3.921552181243896484e+00
8.900000000000000000e+01 4.907071685791015625e+01 3.244900894165039062e+01 9.969043731689453125e+00 4.886172866821289062e+01 1.764923095703125000e+01 4.139012813568115234e+00
9.000000000000000000e+01 4.915960311889648438e+01 3.262709808349609375e+01 6.035183906555175781e+00 3.872702407836914062e+01 1.342866230010986328e+01 2.017280340194702148e+00
9.100000000000000000e+01 4.924848937988281250e+01 3.280519104003906250e+01 4.264938354492187500e+00 3.318169021606445312e+01 1.123398780822753906e+01 1.508646726608276367e+00
9.200000000000000000e+01 4.933737564086914062e+01 3.298328399658203125e+01 3.478437662124633789e+00 2.938488960266113281e+01 9.858998298645019531e+00 1.411593675613403320e+00
9.300000000000000000e+01 4.901615905761718750e+01 3.246985244750976562e+01 6.437932491302490234e+00 4.914525222778320312e+01 1.667495536804199219e+01 -7.246857881546020508e-01
9.400000000000000000e+01 4.906867599487304688e+01 3.266184234619140625e+01 3.755450725555419922e+00 3.797529220581054688e+01 1.251922225952148438e+01 -2.028435468673706055e+00
9.500000000000000000e+01 4.912118911743164062e+01 3.285382843017578125e+01 2.642613410949707031e+00 3.195279121398925781e+01 1.037862110137939453e+01 -2.028456211090087891e+00
9.600000000000000000e+01 4.917370223999023438e+01 3.304581832885742188e+01 1.683825254440307617e+00 2.795034027099609375e+01 8.890249252319335938e+00 -2.149487733840942383e+00
9.700000000000000000e+01 4.895858764648437500e+01 3.247967910766601562e+01 4.638926506042480469e+00 4.705155563354492188e+01 1.550714492797851562e+01 -6.444959163665771484e+00
9.800000000000000000e+01 4.897272109985351562e+01 3.267821884155273438e+01 3.072277307510375977e+00 3.514035034179687500e+01 1.146378898620605469e+01 -6.165279865264892578e+00
9.900000000000000000e+01 4.898685455322265625e+01 3.287675476074218750e+01 1.969367861747741699e+00 2.923369407653808594e+01 9.360918998718261719e+00 -5.725089073181152344e+00
1.000000000000000000e+02 4.900098800659179688e+01 3.307529449462890625e+01 1.187563061714172363e+00 2.555261421203613281e+01 8.022053718566894531e+00 -5.255074501037597656e+00
1.010000000000000000e+02 4.890020370483398438e+01 3.247810745239257812e+01 4.986078739166259766e+00 4.218002700805664062e+01 1.414983081817626953e+01 -1.171850872039794922e+01
1.020000000000000000e+02 4.887541580200195312e+01 3.267559814453125000e+01 3.697916984558105469e+00 3.043443870544433594e+01 1.023970699310302734e+01 -9.864309310913085938e+00
1.030000000000000000e+02 4.885062789916992188e+01 3.287308883666992188e+01 2.535021781921386719e+00 2.494009017944335938e+01 8.242533683776855469e+00 -8.494577407836914062e+00
1.040000000000000000e+02 4.882583618164062500e+01 3.307057952880859375e+01 1.771799802780151367e+00 2.178094863891601562e+01 7.065824985504150391e+00 -7.634659290313720703e+00
1.050000000000000000e+02 4.884324264526367188e+01 3.246520233154296875e+01 7.231646060943603516e+00 3.476604080200195312e+01 1.259930610656738281e+01 -1.575602531433105469e+01
1.060000000000000000e+02 4.878048324584960938e+01 3.265408706665039062e+01 5.200747489929199219e+00 2.417334365844726562e+01 8.812227249145507812e+00 -1.200315761566162109e+01
1.070000000000000000e+02 4.871772003173828125e+01 3.284297180175781250e+01 4.009670257568359375e+00 1.951280021667480469e+01 7.056741237640380859e+00 -1.012553691864013672e+01
1.080000000000000000e+02 4.865495300292968750e+01 3.303186035156250000e+01 2.957968711853027344e+00 1.675856399536132812e+01 5.914959907531738281e+00 -8.706665039062500000e+00
1.090000000000000000e+02 4.878988647460937500e+01 3.244145202636718750e+01 1.017486190795898438e+01 2.563416862487792969e+01 1.074270915985107422e+01 -1.725466537475585938e+01
1.100000000000000000e+02 4.869155120849609375e+01 3.261450576782226562e+01 7.205817222595214844e+00 1.697943305969238281e+01 7.255575180053710938e+00 -1.239437198638916016e+01
1.110000000000000000e+02 4.859321594238281250e+01 3.278755950927734375e+01 5.374962806701660156e+00 1.354996109008789062e+01 5.677477359771728516e+00 -9.885251045227050781e+00
1.120000000000000000e+02 4.849488067626953125e+01 3.296061325073242188e+01 4.255335807800292969e+00 1.170767021179199219e+01 4.788901805877685547e+00 -8.629109382629394531e+00
1.130000000000000000e+02 4.874217224121093750e+01 3.240776824951171875e+01 1.300671958923339844e+01 1.563251876831054688e+01 8.591772079467773438e+00 -1.597839736938476562e+01
1.140000000000000000e+02 4.861203002929687500e+01 3.255836486816406250e+01 8.235866546630859375e+00 9.978111267089843750e+00 5.464193344116210938e+00 -1.042054843902587891e+01
1.150000000000000000e+02 4.848188400268554688e+01 3.270896530151367188e+01 6.157606124877929688e+00 7.994935512542724609e+00 4.245762348175048828e+00 -8.262020111083984375e+00
1.160000000000000000e+02 4.835174179077148438e+01 3.285956192016601562e+01 4.623821735382080078e+00 7.093399047851562500e+00 3.515166282653808594e+00 -6.842327117919921875e+00
1.170000000000000000e+02 4.870192718505859375e+01 3.236544036865234375e+01 1.339372444152832031e+01 6.648900508880615234e+00 6.012787342071533203e+00 -1.157777500152587891e+01
1.180000000000000000e+02 4.854495620727539062e+01 3.248782348632812500e+01 7.840576171875000000e+00 3.866955757141113281e+00 3.512259483337402344e+00 -6.867997646331787109e+00
1.190000000000000000e+02 4.838798522949218750e+01 3.261020278930664062e+01 4.947681903839111328e+00 4.019384860992431641e+00 2.690119981765747070e+00 -5.035038948059082031e+00
1.200000000000000000e+02 4.823101425170898438e+01 3.273258209228515625e+01 3.843724727630615234e+00 3.571246147155761719e+00 2.224491357803344727e+00 -4.736635208129882812e+00
1.210000000000000000e+02 4.867069625854492188e+01 3.231608963012695312e+01 1.063325881958007812e+01 -1.407070279121398926e+00 2.767856597900390625e+00 -4.632737636566162109e+00
1.220000000000000000e+02 4.849290466308593750e+01 3.240557098388671875e+01 3.379214286804199219e+00 1.215234041213989258e+00 1.378334522247314453e+00 -2.126999378204345703e+00
1.230000000000000000e+02 4.831510925292968750e+01 3.249504852294921875e+01 2.679599285125732422e+00 1.694106698036193848e+00 1.312111735343933105e+00 -2.762692928314208984e+00
1.240000000000000000e+02 4.813731384277343750e+01 3.258452987670898438e+01 1.605769038200378418e+00 9.253516793251037598e-01 7.593362331390380859e-01 -1.808296203613281250e+00
1.250000000000000000e+02 4.864966964721679688e+01 3.226160049438476562e+01 -3.013602733612060547e+00 -3.561459302902221680e+00 -1.972518682479858398e+00 2.755691528320312500e+00
1.260000000000000000e+02 4.845785903930664062e+01 3.231475830078125000e+01 -3.364934921264648438e-01 1.269345879554748535e+00 2.798557281494140625e-01 -6.679162383079528809e-01
1.270000000000000000e+02 4.826604461669921875e+01 3.236791229248046875e+01 -1.637577533721923828e+00 -4.112274050712585449e-01 -6.146414875984191895e-01 1.515047848224639893e-01
1.280000000000000000e+02 4.807423400878906250e+01 3.242106246948242188e+01 -2.185753583908081055e+00 2.091948837041854858e-01 -5.929676294326782227e-01 1.459471881389617920e-01
1.290000000000000000e+02 2.333872413635253906e+01 3.602074050903320312e+01 -2.363698370754718781e-02 1.323519682046025991e-04 -7.051389198750257492e-03 -8.181418292224407196e-03
1.300000000000000000e+02 2.389290046691894531e+01 3.609888076782226562e+01 -3.823726251721382141e-02 -4.816673696041107178e-03 -1.291618123650550842e-02 -1.020843349397182465e-02
1.310000000000000000e+02 2.284308815002441406e+01 3.526721954345703125e+01 -3.657917678356170654e-02 -8.168459869921207428e-03 -1.342429034411907196e-02 -2.655373141169548035e-02
1.320000000000000000e+02 2.421754455566406250e+01 3.556056594848632812e+01 -7.519693672657012939e-02 -3.699234919622540474e-03 -2.366885170340538025e-02 -3.557392954826354980e-02
1.330000000000000000e+02 2.498613166809082031e+01 3.604191207885742188e+01 -8.697579801082611084e-02 -1.182120540761388838e-04 -2.612820267677307129e-02 -1.120527461171150208e-02
1.340000000000000000e+02 2.485820960998535156e+01 3.530118560791015625e+01 -1.083422154188156128e-01 4.853599530179053545e-04 -3.235705941915512085e-02 -4.759916663169860840e-02
1.350000000000000000e+02 2.364893722534179688e+01 3.528245925903320312e+01 -6.220829859375953674e-02 -8.406813256442546844e-03 -2.118453383445739746e-02 -4.009315371513366699e-02
1.360000000000000000e+02 2.269410705566406250e+01 3.600639724731445312e+01 -1.082478743046522141e-02 1.603479468030855060e-04 -3.199331928044557571e-03 -8.474498055875301361e-03
1.370000000000000000e+02 2.440931320190429688e+01 3.610589981079101562e+01 -6.683898717164993286e-02 2.717633731663227081e-03 -1.923640631139278412e-02 -1.344754640012979507e-02
1.380000000000000000e+02 2.713174057006835938e+01 3.578996658325195312e+01 -2.386658191680908203e-01 3.262437414377927780e-03 -7.062101364135742188e-02 -4.142766410950571299e-04
1.390000000000000000e+02 2.639669990539550781e+01 3.588855361938476562e+01 -1.765213012695312500e-01 3.101347712799906731e-03 -5.202598497271537781e-02 -6.058059632778167725e-03
1.400000000000000000e+02 2.560692596435546875e+01 3.524289321899414062e+01 -1.541685909032821655e-01 4.294717684388160706e-03 -4.496216028928756714e-02 -5.376739054918289185e-02
1.410000000000000000e+02 2.704477500915527344e+01 3.505500793457031250e+01 -2.537468969821929932e-01 1.308397483080625534e-02 -7.219887524843215942e-02 -6.038034707307815552e-02
1.420000000000000000e+02 2.786719703674316406e+01 3.568653869628906250e+01 -3.034389019012451172e-01 3.003260120749473572e-03 -9.013068675994873047e-02 6.953744683414697647e-03
1.430000000000000000e+02 2.776436805725097656e+01 3.495370483398437500e+01 -3.158989548683166504e-01 2.000574208796024323e-02 -8.876796811819076538e-02 -5.826444551348686218e-02
1.440000000000000000e+02 2.632559776306152344e+01 3.515146636962890625e+01 -2.001559883356094360e-01 1.118282135576009750e-02 -5.669194832444190979e-02 -5.845455825328826904e-02
1.450000000000000000e+02 2.566216468811035156e+01 3.598210525512695312e+01 -1.210468336939811707e-01 2.565329195931553841e-03 -3.554445132613182068e-02 -9.866672568023204803e-03
1.460000000000000000e+02 2.933965110778808594e+01 3.544803619384765625e+01 -4.659985005855560303e-01 -6.146894156700000167e-05 -1.398179978132247925e-01 3.160632774233818054e-02
1.470000000000000000e+02 2.922042655944824219e+01 3.471769332885742188e+01 -4.544471502304077148e-01 2.617903612554073334e-02 -1.284804344177246094e-01 -5.352400243282318115e-02
1.480000000000000000e+02 2.848941230773925781e+01 3.484096145629882812e+01 -3.831948935985565186e-01 2.200035564601421356e-02 -1.083583608269691467e-01 -5.759734287858009338e-02
1.490000000000000000e+02 3.068212890625000000e+01 3.447154998779296875e+01 -6.158750057220458984e-01 3.228158503770828247e-02 -1.750780344009399414e-01 -3.349799290299415588e-02
1.500000000000000000e+02 2.995129966735839844e+01 3.459505081176757812e+01 -5.309625864028930664e-01 2.547002211213111877e-02 -1.516477763652801514e-01 -4.505287855863571167e-02
1.510000000000000000e+02 3.081263542175292969e+01 3.519998931884765625e+01 -6.451550126075744629e-01 -1.899281865917146206e-03 -1.941162943840026855e-01 6.239410489797592163e-02
1.520000000000000000e+02 2.860299301147460938e+01 3.557225799560546875e+01 -3.784866631031036377e-01 4.762411583214998245e-03 -1.121172755956649780e-01 1.906463690102100372e-02
1.530000000000000000e+02 3.007616424560546875e+01 3.532444381713867188e+01 -5.563880801200866699e-01 1.040745875798165798e-03 -1.666042059659957886e-01 4.556295275688171387e-02
1.540000000000000000e+02 3.228277587890625000e+01 3.491655731201171875e+01 -8.633242249488830566e-01 -1.219933386892080307e-02 -2.626570761203765869e-01 1.059690415859222412e-01
1.550000000000000000e+02 3.141323661804199219e+01 3.433660507202148438e+01 -7.051985263824462891e-01 3.134312480688095093e-02 -2.021566182374954224e-01 -2.594463899731636047e-02
1.560000000000000000e+02 3.301699829101562500e+01 3.477141952514648438e+01 -9.825444817543029785e-01 -1.121984142810106277e-02 -2.981292903423309326e-01 1.277737468481063843e-01
1.570000000000000000e+02 3.287635040283203125e+01 3.404490280151367188e+01 -8.900690078735351562e-01 2.757625095546245575e-02 -2.587478160858154297e-01 -2.135136630386114120e-03
1.580000000000000000e+02 3.360715103149414062e+01 3.390307235717773438e+01 -9.894547462463378906e-01 3.123913332819938660e-02 -2.874646782875061035e-01 1.360244583338499069e-02
1.590000000000000000e+02 3.375072097778320312e+01 3.462901306152343750e+01 -1.105142474174499512e+00 -1.887921802699565887e-02 -3.372064828872680664e-01 1.503903120756149292e-01
1.600000000000000000e+02 3.214505767822265625e+01 3.418946456909179688e+01 -7.940845489501953125e-01 3.349100425839424133e-02 -2.281780689954757690e-01 -1.566137187182903290e-02
1.610000000000000000e+02 3.154802894592285156e+01 3.506427764892578125e+01 -7.457358241081237793e-01 -2.306255511939525604e-03 -2.244126200675964355e-01 8.501224964857101440e-02
1.620000000000000000e+02 3.448552703857421875e+01 3.448280334472656250e+01 -1.233515381813049316e+00 -1.950496248900890350e-02 -3.759061098098754883e-01 1.760080903768539429e-01
1.630000000000000000e+02 3.581328582763671875e+01 3.345945358276367188e+01 -1.298597097396850586e+00 1.899946480989456177e-02 -3.838792741298675537e-01 5.680119618773460388e-02
1.640000000000000000e+02 3.434083938598632812e+01 3.375708389282226562e+01 -1.091725111007690430e+00 2.548485994338989258e-02 -3.198720812797546387e-01 2.710329741239547729e-02
1.650000000000000000e+02 3.654941177368164062e+01 3.331057739257812500e+01 -1.394962668418884277e+00 1.854034513235092163e-02 -4.129267036914825439e-01 7.186032086610794067e-02
1.660000000000000000e+02 3.595657730102539062e+01 3.418545532226562500e+01 -1.510300159454345703e+00 -2.910424210131168365e-02 -4.618212878704071045e-01 2.261675894260406494e-01
1.670000000000000000e+02 3.669200897216796875e+01 3.403672027587890625e+01 -1.660994410514831543e+00 -4.097730666399002075e-02 -5.105915069580078125e-01 2.480752915143966675e-01
1.680000000000000000e+02 3.522108078002929688e+01 3.433415222167968750e+01 -1.369829416275024414e+00 -2.940470911562442780e-02 -4.197702407836914062e-01 2.001074105501174927e-01
1.690000000000000000e+02 3.507709503173828125e+01 3.360829162597656250e+01 -1.193896651268005371e+00 2.754228189587593079e-02 -3.499063253402709961e-01 4.313699528574943542e-02
1.700000000000000000e+02 3.742828750610351562e+01 3.389342117309570312e+01 -1.805515527725219727e+00 -3.824380785226821899e-02 -5.531277656555175781e-01 2.681374251842498779e-01
1.710000000000000000e+02 3.802332687377929688e+01 3.303014373779296875e+01 -1.584712386131286621e+00 1.451971661299467087e-02 -4.710578024387359619e-01 1.127661615610122681e-01
1.720000000000000000e+02 3.728625106811523438e+01 3.316717147827148438e+01 -1.489208579063415527e+00 9.115507826209068298e-03 -4.440279006958007812e-01 9.165395051240921021e-02
1.730000000000000000e+02 3.890202331542968750e+01 3.361664962768554688e+01 -2.074692487716674805e+00 -4.287768155336380005e-02 -6.352710127830505371e-01 3.160706460475921631e-01
1.740000000000000000e+02 3.963956451416015625e+01 3.347409820556640625e+01 -2.205088853836059570e+00 -5.191608145833015442e-02 -6.771014332771301270e-01 3.418197929859161377e-01
1.750000000000000000e+02 3.949879837036132812e+01 3.274760437011718750e+01 -1.738499760627746582e+00 1.555400341749191284e-02 -5.168837308883666992e-01 1.517346501350402832e-01
1.760000000000000000e+02 3.876083374023437500e+01 3.289023590087890625e+01 -1.666167736053466797e+00 9.938878007233142853e-03 -4.968686699867248535e-01 1.298524737358093262e-01
1.770000000000000000e+02 3.816493988037109375e+01 3.375647735595703125e+01 -1.939264535903930664e+00 -4.320330545306205750e-02 -5.947403907775878906e-01 2.895550727844238281e-01
1.780000000000000000e+02 4.037628555297851562e+01 3.333070373535156250e+01 -2.341446638107299805e+00 -5.073361471295356750e-02 -7.176540493965148926e-01 3.747178912162780762e-01
1.790000000000000000e+02 4.171068954467773438e+01 3.231314468383789062e+01 -1.847722768783569336e+00 -5.345148500055074692e-03 -5.559203624725341797e-01 2.082667499780654907e-01
1.800000000000000000e+02 4.023619079589843750e+01 3.260407638549804688e+01 -1.798839092254638672e+00 7.471078075468540192e-03 -5.374103784561157227e-01 1.687636226415634155e-01
1.810000000000000000e+02 4.244785308837890625e+01 3.216765213012695312e+01 -1.800661802291870117e+00 -1.198210101574659348e-02 -5.437932014465332031e-01 2.328637242317199707e-01
1.820000000000000000e+02 4.184893417358398438e+01 3.304013442993164062e+01 -2.628013134002685547e+00 -6.232039630413055420e-02 -8.071000576019287109e-01 4.345608949661254883e-01
1.830000000000000000e+02 4.258517456054687500e+01 3.289482498168945312e+01 -2.776592969894409180e+00 -8.692982792854309082e-02 -8.590568900108337402e-01 4.509765803813934326e-01
1.840000000000000000e+02 4.111263656616210938e+01 3.318542480468750000e+01 -2.488069057464599609e+00 -6.784911453723907471e-02 -7.667754292488098145e-01 4.029342234134674072e-01
1.850000000000000000e+02 4.097346878051757812e+01 3.245861816406250000e+01 -1.832423329353332520e+00 7.929422892630100250e-03 -5.473482012748718262e-01 1.914550960063934326e-01
1.860000000000000000e+02 4.331096267700195312e+01 3.276223754882812500e+01 -2.895442962646484375e+00 -7.115178555250167847e-02 -8.899784088134765625e-01 4.617400765419006348e-01
1.870000000000000000e+02 4.403802108764648438e+01 3.262864685058593750e+01 -2.981994152069091797e+00 -8.084172755479812622e-02 -9.188507795333862305e-01 4.685491621494293213e-01
1.880000000000000000e+02 4.313824844360351562e+01 3.204139709472656250e+01 -1.732168793678283691e+00 -3.482849523425102234e-02 -5.300992131233215332e-01 2.610778510570526123e-01
1.890000000000000000e+02 4.435255432128906250e+01 3.172404670715332031e+01 -1.074180603027343750e+00 -4.916656017303466797e-02 -3.370041251182556152e-01 3.555391430854797363e-01
1.900000000000000000e+02 4.475504302978515625e+01 3.199515533447265625e+01 -1.617741584777832031e+00 -3.037487715482711792e-02 -4.944349229335784912e-01 4.014039337635040283e-01
1.910000000000000000e+02 4.551108551025390625e+01 3.136244964599609375e+01 5.118388533592224121e-01 4.229732975363731384e-02 1.662408560514450073e-01 8.499330878257751465e-01
1.920000000000000000e+02 4.570414352416992188e+01 3.193797492980957031e+01 -1.200704336166381836e+00 -6.171648949384689331e-02 -3.787262439727783203e-01 5.222701430320739746e-01
1.930000000000000000e+02 4.570849609375000000e+01 3.215018463134765625e+01 -2.205164194107055664e+00 4.812398180365562439e-02 -6.471120715141296387e-01 4.940811097621917725e-01
1.940000000000000000e+02 4.547511291503906250e+01 3.171114540100097656e+01 -6.065493822097778320e-01 -5.484040826559066772e-02 -1.984169334173202515e-01 6.247181296348571777e-01
1.950000000000000000e+02 4.564487075805664062e+01 3.155751800537109375e+01 -6.279230117797851562e-02 -4.133373126387596130e-02 -3.123781085014343262e-02 7.577010393142700195e-01
1.960000000000000000e+02 4.572388458251953125e+01 3.236249160766601562e+01 -2.804636240005493164e+00 1.278430819511413574e-01 -8.030379414558410645e-01 3.632062971591949463e-01
1.970000000000000000e+02 4.567333984375000000e+01 3.259569931030273438e+01 -3.627240657806396484e+00 -7.005844381637871265e-04 -1.088382363319396973e+00 5.490582585334777832e-01
1.980000000000000000e+02 4.522184371948242188e+01 3.160408592224121094e+01 -3.133904933929443359e-01 -7.719718385487794876e-03 -9.633306413888931274e-02 6.402826905250549316e-01
1.990000000000000000e+02 4.533879852294921875e+01 3.244709777832031250e+01 -3.122827529907226562e+00 -1.034860908985137939e-01 -9.678940773010253906e-01 4.340197741985321045e-01
2.000000000000000000e+02 4.379359436035156250e+01 3.192064476013183594e+01 -1.528999805450439453e+00 -1.593904197216033936e-02 -4.634816646575927734e-01 2.910648286342620850e-01
2.010000000000000000e+02 4.482481765747070312e+01 3.156767463684082031e+01 -3.784567117691040039e-01 1.246246919035911560e-01 -7.614960521459579468e-02 4.951576590538024902e-01
2.020000000000000000e+02 4.535916519165039062e+01 3.214680862426757812e+01 -2.206058025360107422e+00 -8.231422305107116699e-02 -6.865116357803344727e-01 5.142199397087097168e-01
2.030000000000000000e+02 4.477910995483398438e+01 3.253437042236328125e+01 -3.117106914520263672e+00 -9.201341122388839722e-02 -9.627361297607421875e-01 4.509281814098358154e-01
2.040000000000000000e+02 4.569548034667968750e+01 3.173716545104980469e+01 -5.076760649681091309e-01 -8.102796040475368500e-03 -1.547336578369140625e-01 5.489019751548767090e-01
2.050000000000000000e+02 4.517416381835937500e+01 3.195775222778320312e+01 -1.596836328506469727e+00 -1.353531777858734131e-01 -5.196568369865417480e-01 4.820325970649719238e-01
2.060000000000000000e+02 4.543376922607421875e+01 3.192820739746093750e+01 -1.192777991294860840e+00 4.944531619548797607e-02 -3.429997861385345459e-01 5.340306162834167480e-01
2.070000000000000000e+02 4.887231445312500000e+01 3.112572860717773438e+01 4.618504047393798828e+00 2.308738899230957031e+01 8.311767578125000000e+00 8.211168289184570312e+00
2.080000000000000000e+02 4.945271682739257812e+01 3.124251174926757812e+01 5.609440803527832031e+00 2.590727996826171875e+01 9.455016136169433594e+00 1.501150965690612793e+00
2.090000000000000000e+02 5.010126876831054688e+01 3.212608337402343750e+01 1.405528259277343750e+01 1.977288627624511719e+01 1.014845085144042969e+01 1.348354697227478027e+00
2.100000000000000000e+02 4.993375778198242188e+01 3.280047988891601562e+01 9.470047950744628906e+00 2.359459495544433594e+01 9.919393539428710938e+00 4.815627098083496094e+00
2.110000000000000000e+02 4.867711639404296875e+01 3.364186859130859375e+01 8.947070837020874023e-01 1.595785427093505859e+01 5.055768489837646484e+00 -6.251278877258300781e+00
2.120000000000000000e+02 4.613931274414062500e+01 3.294992065429687500e+01 -3.357993841171264648e+00 -1.963459700345993042e-01 -1.066301941871643066e+00 5.384618043899536133e-01
2.130000000000000000e+02 4.932913589477539062e+01 3.319260787963867188e+01 2.036544561386108398e+00 2.631141853332519531e+01 8.504388809204101562e+00 1.400338411331176758e-01
2.140000000000000000e+02 4.971068954467773438e+01 3.131179237365722656e+01 7.332967281341552734e+00 2.462735748291015625e+01 9.588097572326660156e+00 -8.847336173057556152e-01
2.150000000000000000e+02 4.585424804687500000e+01 3.128970527648925781e+01 1.015095233917236328e+00 3.412463963031768799e-01 4.069024920463562012e-01 1.203580260276794434e+00
2.160000000000000000e+02 4.661843109130859375e+01 3.117155075073242188e+01 2.802064657211303711e+00 7.806520462036132812e-01 1.074815034866333008e+00 2.295178174972534180e+00
2.170000000000000000e+02 4.881938552856445312e+01 3.099965858459472656e+01 4.392236232757568359e+00 2.013122940063476562e+01 7.357039928436279297e+00 7.898114681243896484e+00
2.180000000000000000e+02 4.850221633911132812e+01 3.108220672607421875e+01 6.232759952545166016e+00 1.437750625610351562e+01 6.183080196380615234e+00 9.992908477783203125e+00
2.190000000000000000e+02 4.810102462768554688e+01 3.145335769653320312e+01 8.256729125976562500e+00 4.929759025573730469e+00 3.955946445465087891e+00 7.177584648132324219e+00
2.200000000000000000e+02 4.713545227050781250e+01 3.195012283325195312e+01 1.925410926342010498e-01 1.321144867688417435e-02 6.172576174139976501e-02 7.787061333656311035e-01
2.210000000000000000e+02 4.605010223388671875e+01 3.123764801025390625e+01 1.376599073410034180e+00 3.180980980396270752e-01 5.084091424942016602e-01 1.396924257278442383e+00
2.220000000000000000e+02 4.622357940673828125e+01 3.119644355773925781e+01 1.899649739265441895e+00 5.121288895606994629e-01 7.235335707664489746e-01 1.683506131172180176e+00
2.230000000000000000e+02 4.633301925659179688e+01 3.401194000244140625e+01 8.039163053035736084e-02 1.364416122436523438e+00 4.334423243999481201e-01 -1.263103365898132324e+00
2.240000000000000000e+02 4.881953048706054688e+01 3.343954849243164062e+01 7.499299049377441406e-01 1.891604995727539062e+01 5.899794101715087891e+00 -6.232796192169189453e+00
2.250000000000000000e+02 4.883034896850585938e+01 3.321657562255859375e+01 1.478910684585571289e+00 2.014986610412597656e+01 6.488633155822753906e+00 -6.984487056732177734e+00
2.260000000000000000e+02 4.608809280395507812e+01 3.277621459960937500e+01 -4.328474998474121094e+00 -3.915004432201385498e-01 -1.415992617607116699e+00 6.306847929954528809e-01
2.270000000000000000e+02 4.651982498168945312e+01 3.363872146606445312e+01 -3.490048944950103760e-01 8.807843327522277832e-01 1.595338433980941772e-01 -9.424986839294433594e-01
2.280000000000000000e+02 4.619644165039062500e+01 3.314521408081054688e+01 -2.454957008361816406e+00 3.107515536248683929e-02 -7.271645665168762207e-01 2.873249650001525879e-01
2.290000000000000000e+02 4.630465698242187500e+01 3.378358840942382812e+01 -3.036376535892486572e-01 9.844208359718322754e-01 2.042349427938461304e-01 -8.196588158607482910e-01
2.300000000000000000e+02 4.686150360107421875e+01 3.290337753295898438e+01 -2.355300426483154297e+00 2.004528790712356567e-01 -6.464542746543884277e-01 1.158366724848747253e-01
2.310000000000000000e+02 4.746966171264648438e+01 3.256694412231445312e+01 -3.225649356842041016e+00 3.290926292538642883e-02 -9.578219652175903320e-01 3.972488641738891602e-01
2.320000000000000000e+02 4.794009780883789062e+01 3.268967437744140625e+01 8.297703266143798828e-01 1.049767494201660156e+00 5.638613104820251465e-01 -1.792061567306518555e+00
2.330000000000000000e+02 4.787739562988281250e+01 3.247719955444335938e+01 -2.585458993911743164e+00 -5.981419607996940613e-02 -7.935819625854492188e-01 3.087470829486846924e-01
2.340000000000000000e+02 4.999415969848632812e+01 3.235152435302734375e+01 1.413829040527343750e+01 2.142677688598632812e+01 1.066952037811279297e+01 3.286465167999267578e+00
2.350000000000000000e+02 4.976085281372070312e+01 3.288504409790039062e+01 7.831056594848632812e+00 2.449102592468261719e+01 9.696624755859375000e+00 3.773204088211059570e+00
2.360000000000000000e+02 4.908434677124023438e+01 3.333022689819335938e+01 6.995401382446289062e-01 2.377992630004882812e+01 7.343839645385742188e+00 -3.892062902450561523e+00
2.370000000000000000e+02 4.784011840820312500e+01 3.225285720825195312e+01 -3.085154771804809570e+00 -1.957919150590896606e-01 -9.842839837074279785e-01 4.871893823146820068e-01
2.380000000000000000e+02 4.759197616577148438e+01 3.206979370117187500e+01 -1.348355263471603394e-01 -6.336528807878494263e-02 -5.946024507284164429e-02 7.545658349990844727e-01
2.390000000000000000e+02 4.796888351440429688e+01 3.162619590759277344e+01 7.243011951446533203e+00 2.211787223815917969e+00 2.836439609527587891e+00 4.994560718536376953e+00
2.400000000000000000e+02 4.830976104736328125e+01 3.108248138427734375e+01 6.596139907836914062e+00 1.082822227478027344e+01 5.227308750152587891e+00 9.207803726196289062e+00
2.410000000000000000e+02 4.869368362426757812e+01 3.112365913391113281e+01 5.665097236633300781e+00 1.804484176635742188e+01 7.112981796264648438e+00 9.240602493286132812e+00
2.420000000000000000e+02 4.907646942138671875e+01 3.112889862060546875e+01 3.962481260299682617e+00 2.566949462890625000e+01 8.889593124389648438e+00 6.041409015655517578e+00
2.430000000000000000e+02 4.960386276245117188e+01 3.102505683898925781e+01 5.358551025390625000e+00 2.368244743347167969e+01 8.712299346923828125e+00 4.028627276420593262e-01
2.440000000000000000e+02 4.665787506103515625e+01 3.239220046997070312e+01 -3.611505746841430664e+00 -9.355627745389938354e-02 -1.111518621444702148e+00 5.080315470695495605e-01
2.450000000000000000e+02 4.619224166870117188e+01 3.228789901733398438e+01 -2.834210395812988281e+00 -1.269864886999130249e-01 -8.883590698242187500e-01 4.523858428001403809e-01
2.460000000000000000e+02 4.605350875854492188e+01 3.253559494018554688e+01 -3.806236028671264648e+00 -2.959031462669372559e-01 -1.230641722679138184e+00 6.401548385620117188e-01
2.470000000000000000e+02 4.988628387451171875e+01 3.148207473754882812e+01 1.036941528320312500e+01 2.259149742126464844e+01 9.888273239135742188e+00 -1.088782668113708496e+00
2.480000000000000000e+02 5.024783706665039062e+01 3.241798400878906250e+01 1.264029693603515625e+01 1.919648551940917969e+01 9.551034927368164062e+00 2.622450590133666992e+00
2.490000000000000000e+02 5.004895401000976562e+01 3.252995300292968750e+01 1.283127117156982422e+01 2.155591011047363281e+01 1.031615447998046875e+01 3.907867670059204102e+00
2.500000000000000000e+02 5.004129791259765625e+01 3.294722366333007812e+01 7.453543186187744141e+00 2.222832870483398438e+01 8.904561042785644531e+00 4.690896034240722656e+00
2.510000000000000000e+02 4.871487045288085938e+01 3.328702926635742188e+01 1.730257511138916016e+00 1.774870300292968750e+01 5.843688011169433594e+00 -7.294186592102050781e+00
2.520000000000000000e+02 4.914590072631835938e+01 3.354938125610351562e+01 2.993711233139038086e-01 2.130243301391601562e+01 6.480541229248046875e+00 -3.484604597091674805e+00
2.530000000000000000e+02 4.748971557617187500e+01 3.281034851074218750e+01 -8.880188465118408203e-01 4.639666378498077393e-01 -1.272156685590744019e-01 -6.712241768836975098e-01
2.540000000000000000e+02 4.956555938720703125e+01 3.308120346069335938e+01 3.489137172698974609e+00 2.754931831359863281e+01 9.311536788940429688e+00 2.457720994949340820e+00
2.550000000000000000e+02 4.956127166748046875e+01 3.334700393676757812e+01 1.824878931045532227e+00 2.458637046813964844e+01 7.923374652862548828e+00 6.463192701339721680e-01
2.560000000000000000e+02 4.894353866577148438e+01 3.362150192260742188e+01 1.823539137840270996e-01 1.933182716369628906e+01 5.854254245758056641e+00 -5.162168979644775391e+00
2.570000000000000000e+02 4.849084472656250000e+01 3.366113281250000000e+01 1.134088277816772461e+00 1.318900394439697266e+01 4.296927452087402344e+00 -6.313480377197265625e+00
2.580000000000000000e+02 4.908817291259765625e+01 3.083003044128417969e+01 3.123918294906616211e+00 2.185220909118652344e+01 7.492838382720947266e+00 6.155026912689208984e+00
2.590000000000000000e+02 4.867927169799804688e+01 3.082777214050292969e+01 4.465257644653320312e+00 1.619596290588378906e+01 6.198365688323974609e+00 7.910783290863037109e+00
2.600000000000000000e+02 4.936147689819335938e+01 3.108792495727539062e+01 4.712360382080078125e+00 2.553935623168945312e+01 9.075514793395996094e+00 2.968592405319213867e+00
2.610000000000000000e+02 4.845025253295898438e+01 3.086387825012207031e+01 5.390892982482910156e+00 1.424313735961914062e+01 5.890209197998046875e+00 9.334739685058593750e+00
2.620000000000000000e+02 5.015010452270507812e+01 3.161828231811523438e+01 1.201396179199218750e+01 2.069361305236816406e+01 9.812272071838378906e+00 -1.467349410057067871e+00
2.630000000000000000e+02 5.007608032226562500e+01 3.188506317138671875e+01 1.287930297851562500e+01 2.078839302062988281e+01 1.010030841827392578e+01 -4.649262130260467529e-01
2.640000000000000000e+02 4.725241470336914062e+01 3.235517501831054688e+01 -3.562407016754150391e+00 -1.180545426905155182e-02 -1.072263717651367188e+00 5.746823549270629883e-01
2.650000000000000000e+02 4.780759811401367188e+01 3.118023300170898438e+01 6.565151691436767578e+00 4.468842029571533203e+00 3.310198068618774414e+00 6.378146171569824219e+00
2.660000000000000000e+02 4.782487106323242188e+01 3.203911972045898438e+01 1.146956443786621094e+00 1.274556666612625122e-02 3.479106128215789795e-01 1.064303278923034668e+00
2.670000000000000000e+02 4.763711547851562500e+01 3.228396987915039062e+01 -3.209597826004028320e+00 -5.809589102864265442e-02 -9.803081154823303223e-01 5.905842781066894531e-01
2.680000000000000000e+02 4.842018127441406250e+01 3.122719001770019531e+01 7.362964630126953125e+00 1.259185791015625000e+01 5.986446857452392578e+00 1.015973949432373047e+01
2.690000000000000000e+02 4.993682479858398438e+01 3.169790267944335938e+01 1.415109634399414062e+01 2.274082374572753906e+01 1.106757545471191406e+01 -2.603604316711425781e+00
2.700000000000000000e+02 4.767432022094726562e+01 3.381829452514648438e+01 1.874074935913085938e+00 5.254788875579833984e+00 2.138659000396728516e+00 -4.449617385864257812e+00
2.710000000000000000e+02 4.749278640747070312e+01 3.384434890747070312e+01 1.614115238189697266e+00 4.240430355072021484e+00 1.756363630294799805e+00 -3.872749328613281250e+00
2.720000000000000000e+02 4.807625961303710938e+01 3.369532012939453125e+01 2.062687635421752930e+00 8.325705528259277344e+00 3.116518020629882812e+00 -5.656792163848876953e+00
2.730000000000000000e+02 4.728907012939453125e+01 3.387013244628906250e+01 1.281894087791442871e+00 3.599848270416259766e+00 1.464522719383239746e+00 -3.291943788528442383e+00
2.740000000000000000e+02 4.655358123779296875e+01 3.396959304809570312e+01 3.816937208175659180e-01 1.625000119209289551e+00 6.020081639289855957e-01 -1.598965883255004883e+00
2.750000000000000000e+02 4.706476593017578125e+01 3.263694381713867188e+01 -3.656810045242309570e+00 -3.669440746307373047e-02 -1.108051300048828125e+00 5.536608695983886719e-01
2.760000000000000000e+02 4.726570129394531250e+01 3.260380172729492188e+01 -3.471946954727172852e+00 -6.679363548755645752e-02 -1.061622262001037598e+00 4.918018281459808350e-01
2.770000000000000000e+02 4.686663818359375000e+01 3.266677856445312500e+01 -3.829557418823242188e+00 -1.422083228826522827e-01 -1.191529750823974609e+00 5.772572755813598633e-01
2.780000000000000000e+02 4.667620468139648438e+01 3.295443725585937500e+01 -2.520405292510986328e+00 5.172439292073249817e-02 -7.406042814254760742e-01 1.377293020486831665e-01
2.790000000000000000e+02 4.805364227294921875e+01 3.287803649902343750e+01 2.914176940917968750e+00 2.893818855285644531e+00 1.742398738861083984e+00 -3.875058650970458984e+00
2.800000000000000000e+02 4.645040512084960938e+01 3.304084396362304688e+01 -2.520966291427612305e+00 9.119746834039688110e-02 -7.289306521415710449e-01 2.061943858861923218e-01
2.810000000000000000e+02 4.771543121337890625e+01 3.276853942871093750e+01 2.786594629287719727e-02 8.220473527908325195e-01 2.549739778041839600e-01 -1.230005979537963867e+00
2.820000000000000000e+02 4.688716506958007812e+01 3.212652587890625000e+01 -1.589672923088073730e+00 -6.206343322992324829e-02 -4.955209195613861084e-01 5.059410929679870605e-01
2.830000000000000000e+02 4.705994796752929688e+01 3.237160110473632812e+01 -3.620701789855957031e+00 -1.451679319143295288e-01 -1.129760861396789551e+00 5.607652664184570312e-01
2.840000000000000000e+02 4.682131958007812500e+01 3.114253044128417969e+01 3.387926340103149414e+00 9.224252700805664062e-01 1.293105483055114746e+00 2.672613382339477539e+00
2.850000000000000000e+02 4.702356338500976562e+01 3.110984420776367188e+01 4.161072254180908203e+00 1.415235757827758789e+00 1.672892451286315918e+00 3.308483600616455078e+00
2.860000000000000000e+02 4.781917190551757812e+01 3.097152709960937500e+01 6.172266483306884766e+00 5.522637367248535156e+00 3.508471250534057617e+00 6.782426357269287109e+00
2.870000000000000000e+02 4.803120040893554688e+01 3.094097709655761719e+01 6.289500236511230469e+00 7.406943321228027344e+00 4.108932971954345703e+00 7.885062217712402344e+00
2.880000000000000000e+02 4.741777038574218750e+01 3.102187919616699219e+01 5.271413326263427734e+00 2.719982624053955078e+00 2.397418737411499023e+00 4.777224063873291016e+00
2.890000000000000000e+02 4.812794876098632812e+01 3.115821075439453125e+01 7.312633037567138672e+00 7.629886150360107422e+00 4.482755661010742188e+00 8.289440155029296875e+00
2.900000000000000000e+02 4.761151504516601562e+01 3.098529052734375000e+01 5.743179321289062500e+00 3.924548387527465820e+00 2.900318384170532227e+00 5.793159484863281250e+00
2.910000000000000000e+02 4.589341354370117188e+01 3.150409698486328125e+01 4.185245037078857422e-01 1.610297113656997681e-01 1.738662570714950562e-01 9.185224771499633789e-01
2.920000000000000000e+02 4.823673629760742188e+01 3.089208984375000000e+01 6.164996623992919922e+00 1.033520221710205078e+01 4.950059890747070312e+00 8.648718833923339844e+00
2.930000000000000000e+02 4.722365570068359375e+01 3.107090377807617188e+01 4.605100154876708984e+00 1.972080469131469727e+00 1.973154187202453613e+00 3.899441719055175781e+00
2.940000000000000000e+02 4.645947265625000000e+01 3.347329330444335938e+01 -7.855981588363647461e-01 7.631822824478149414e-01 -6.724762730300426483e-03 -6.215026974678039551e-01
2.950000000000000000e+02 4.626003265380859375e+01 3.276794433593750000e+01 -4.095027923583984375e+00 1.105177253484725952e-01 -1.195353031158447266e+00 6.644192337989807129e-01
2.960000000000000000e+02 4.666655349731445312e+01 3.270645523071289062e+01 -3.965157508850097656e+00 3.009373508393764496e-02 -1.180519104003906250e+00 6.608824133872985840e-01
2.970000000000000000e+02 4.625479507446289062e+01 3.357951736450195312e+01 -8.406796455383300781e-01 4.204727113246917725e-01 -1.260620802640914917e-01 -4.705525040626525879e-01
2.980000000000000000e+02 4.591030502319335938e+01 3.171376419067382812e+01 -3.292083740234375000e-01 -3.285035490989685059e-02 -1.086176186800003052e-01 6.439136862754821777e-01
2.990000000000000000e+02 4.614160156250000000e+01 3.209599304199218750e+01 -1.689633488655090332e+00 -1.429534554481506348e-01 -5.497760772705078125e-01 4.266909956932067871e-01
3.000000000000000000e+02 4.744296646118164062e+01 3.232503890991210938e+01 -3.413658380508422852e+00 -1.336527764797210693e-01 -1.064193367958068848e+00 5.962032675743103027e-01
3.010000000000000000e+02 4.709989166259765625e+01 3.393254852294921875e+01 1.072144150733947754e+00 2.813103437423706055e+00 1.165574312210083008e+00 -2.771545410156250000e+00
3.020000000000000000e+02 4.700751113891601562e+01 3.380918502807617188e+01 8.605102300643920898e-01 2.270995140075683594e+00 9.394515752792358398e-01 -2.338820934295654297e+00
3.030000000000000000e+02 4.820524215698242188e+01 3.304328918457031250e+01 3.695240497589111328e+00 6.469396114349365234e+00 3.049391031265258789e+00 -6.254902362823486328e+00
3.040000000000000000e+02 4.829299926757812500e+01 3.367683792114257812e+01 1.683865189552307129e+00 1.030877113342285156e+01 3.597790956497192383e+00 -6.195935726165771484e+00
3.050000000000000000e+02 4.664307785034179688e+01 3.372995376586914062e+01 2.198270857334136963e-01 1.235584616661071777e+00 4.366235136985778809e-01 -1.383986115455627441e+00
3.060000000000000000e+02 4.645452117919921875e+01 3.275772476196289062e+01 -4.031023025512695312e+00 -2.634138166904449463e-01 -1.288331031799316406e+00 6.860430240631103516e-01
3.070000000000000000e+02 4.679167556762695312e+01 3.312600708007812500e+01 -1.336571216583251953e+00 3.356186449527740479e-01 -3.002857565879821777e-01 -3.973455131053924561e-01
3.080000000000000000e+02 4.644850158691406250e+01 3.243596267700195312e+01 -3.605077743530273438e+00 -2.068691849708557129e-01 -1.143584012985229492e+00 5.799663662910461426e-01
3.090000000000000000e+02 4.656477355957031250e+01 3.167803955078125000e+01 7.458141446113586426e-01 1.127609387040138245e-01 2.575725317001342773e-01 1.054270267486572266e+00
3.100000000000000000e+02 4.639859390258789062e+01 3.139335632324218750e+01 1.489211201667785645e+00 2.993263900279998779e-01 5.365613102912902832e-01 1.450380206108093262e+00
3.110000000000000000e+02 4.618503952026367188e+01 3.135176467895507812e+01 1.259429574012756348e+00 3.084698617458343506e-01 4.703698158264160156e-01 1.344525575637817383e+00
3.120000000000000000e+02 4.624711990356445312e+01 3.249646377563476562e+01 -3.683891296386718750e+00 2.139906771481037140e-02 -1.098747730255126953e+00 6.302779912948608398e-01
3.130000000000000000e+02 4.838147735595703125e+01 3.316335678100585938e+01 3.346309900283813477e+00 1.022586059570312500e+01 4.071650981903076172e+00 -7.302237033843994141e+00
3.140000000000000000e+02 4.830177688598632812e+01 3.341194915771484375e+01 2.441587209701538086e+00 1.020992565155029297e+01 3.795453786849975586e+00 -6.708055496215820312e+00
3.150000000000000000e+02 4.786906051635742188e+01 3.336039352416992188e+01 2.243209123611450195e+00 4.601844310760498047e+00 2.053516149520874023e+00 -4.570075988769531250e+00
3.160000000000000000e+02 4.786886215209960938e+01 3.182609939575195312e+01 4.373682975769042969e+00 4.578025937080383301e-01 1.449445724487304688e+00 2.441351890563964844e+00
3.170000000000000000e+02 4.601166152954101562e+01 3.232791137695312500e+01 -2.780002593994140625e+00 -1.742144227027893066e-01 -8.862651586532592773e-01 4.699688553810119629e-01
3.180000000000000000e+02 4.612479019165039062e+01 3.152488136291503906e+01 7.195927500724792480e-01 1.449220925569534302e-01 2.593544423580169678e-01 1.067618012428283691e+00
3.190000000000000000e+02 4.789449310302734375e+01 3.305052185058593750e+01 2.378445386886596680e+00 3.281186580657958984e+00 1.697889566421508789e+00 -3.894426822662353516e+00
3.200000000000000000e+02 4.751139068603515625e+01 3.302764129638671875e+01 6.161000132560729980e-01 1.254794239997863770e+00 5.612682700157165527e-01 -1.717730283737182617e+00
3.210000000000000000e+02 4.722375106811523438e+01 3.341055679321289062e+01 6.155230998992919922e-01 1.605952978134155273e+00 6.664428114891052246e-01 -2.116625308990478516e+00
3.220000000000000000e+02 4.690497589111328125e+01 3.351966476440429688e+01 3.053994178771972656e-01 1.144767165184020996e+00 4.350499808788299561e-01 -1.526281118392944336e+00
3.230000000000000000e+02 4.727154922485351562e+01 3.285705947875976562e+01 -1.502522945404052734e+00 4.104671478271484375e-01 -3.276167213916778564e-01 -3.089797496795654297e-01
3.240000000000000000e+02 4.683598709106445312e+01 3.374765777587890625e+01 4.761073887348175049e-01 1.808506131172180176e+00 6.853840351104736328e-01 -1.923485040664672852e+00
3.250000000000000000e+02 4.727452087402343750e+01 3.132427215576171875e+01 4.255518436431884766e+00 1.326074838638305664e+00 1.674477934837341309e+00 3.191591262817382812e+00
3.260000000000000000e+02 4.696138763427734375e+01 3.158110809326171875e+01 2.301260471343994141e+00 3.502757251262664795e-01 7.954608798027038574e-01 1.741082429885864258e+00
3.270000000000000000e+02 4.644723892211914062e+01 3.328529739379882812e+01 -1.433954477310180664e+00 2.145058810710906982e-01 -3.658345937728881836e-01 -1.286071836948394775e-01
3.280000000000000000e+02 4.712087631225585938e+01 3.174712753295898438e+01 1.733137965202331543e+00 1.189051270484924316e-01 5.556129217147827148e-01 1.397456645965576172e+00
3.290000000000000000e+02 4.803057479858398438e+01 3.321055984497070312e+01 3.092378377914428711e+00 5.402840137481689453e+00 2.548565626144409180e+00 -5.271428108215332031e+00
3.300000000000000000e+02 4.737357711791992188e+01 3.355646514892578125e+01 1.541178703308105469e+00 2.832605838775634766e+00 1.312135457992553711e+00 -3.065111398696899414e+00
3.310000000000000000e+02 4.630534362792968750e+01 3.206048583984375000e+01 -1.463773131370544434e+00 -5.039351806044578552e-02 -4.542500078678131104e-01 6.114966273307800293e-01
3.320000000000000000e+02 4.732764434814453125e+01 3.168214035034179688e+01 2.893495321273803711e+00 5.555843710899353027e-01 1.034723877906799316e+00 2.048610210418701172e+00
3.330000000000000000e+02 4.610406112670898438e+01 3.171713447570800781e+01 -1.527657657861709595e-01 5.443494021892547607e-02 -2.949924767017364502e-02 7.288876771926879883e-01
3.340000000000000000e+02 4.641598510742187500e+01 3.118802070617675781e+01 2.327941656112670898e+00 4.996461272239685059e-01 8.482763767242431641e-01 1.916639089584350586e+00
3.350000000000000000e+02 4.593643188476562500e+01 3.191884803771972656e+01 -1.122277498245239258e+00 -5.111916363239288330e-02 -3.520189821720123291e-01 5.162491798400878906e-01
3.360000000000000000e+02 4.597108078002929688e+01 3.212342834472656250e+01 -1.928210616111755371e+00 -6.511356681585311890e-03 -5.804166197776794434e-01 3.157056272029876709e-01
3.370000000000000000e+02 4.705475997924804688e+01 3.136848449707031250e+01 3.414242029190063477e+00 7.696048617362976074e-01 1.255154013633728027e+00 2.531883239746093750e+00
3.380000000000000000e+02 4.662392807006835938e+01 3.142322921752929688e+01 1.990400910377502441e+00 3.329427540302276611e-01 6.970031261444091797e-01 1.656032204627990723e+00
3.390000000000000000e+02 4.758810043334960938e+01 3.132340812683105469e+01 5.753903388977050781e+00 2.024135112762451172e+00 2.333411455154418945e+00 4.377903938293457031e+00
3.400000000000000000e+02 4.795829391479492188e+01 3.128739166259765625e+01 7.154253482818603516e+00 4.709054946899414062e+00 3.558992624282836914e+00 6.848154067993164062e+00
3.410000000000000000e+02 4.826221847534179688e+01 3.132180404663085938e+01 8.235724449157714844e+00 8.660152435302734375e+00 5.068763256072998047e+00 9.337921142578125000e+00
3.420000000000000000e+02 4.675363540649414062e+01 3.396192932128906250e+01 7.639873623847961426e-01 2.062256097793579102e+00 8.478730320930480957e-01 -2.014584302902221680e+00
3.430000000000000000e+02 4.693291473388671875e+01 3.396045684814453125e+01 7.968325018882751465e-01 2.434681892395019531e+00 9.694542884826660156e-01 -2.335164308547973633e+00
3.440000000000000000e+02 4.622180175781250000e+01 3.337061309814453125e+01 -1.567995905876159668e+00 2.916585505008697510e-01 -3.829012215137481689e-01 -9.311083704233169556e-02
3.450000000000000000e+02 4.627637481689453125e+01 3.189666748046875000e+01 -1.015078186988830566e+00 1.574038062244653702e-03 -3.040512502193450928e-01 5.186620950698852539e-01
3.460000000000000000e+02 4.637244415283203125e+01 3.222080612182617188e+01 -2.398714542388916016e+00 -2.866676263511180878e-02 -7.282143831253051758e-01 3.548681735992431641e-01
3.470000000000000000e+02 4.667818832397460938e+01 3.208473205566406250e+01 -1.443573117256164551e+00 -8.508491516113281250e-02 -4.585974216461181641e-01 5.854834914207458496e-01
3.480000000000000000e+02 4.686298370361328125e+01 3.238256454467773438e+01 -3.636823177337646484e+00 -8.096883073449134827e-03 -1.093476057052612305e+00 5.474447011947631836e-01
3.490000000000000000e+02 4.696252059936523438e+01 3.190160369873046875e+01 1.033876314759254456e-01 3.288567438721656799e-02 4.088199138641357422e-02 8.949827551841735840e-01
3.500000000000000000e+02 4.718559646606445312e+01 3.368571853637695312e+01 1.063228368759155273e+00 2.477261543273925781e+00 1.062147021293640137e+00 -2.679360628128051758e+00
3.510000000000000000e+02 4.771099090576171875e+01 3.353069305419921875e+01 2.032086133956909180e+00 4.459692478179931641e+00 1.947533607482910156e+00 -4.149147033691406250e+00
3.520000000000000000e+02 4.785924530029296875e+01 3.374592208862304688e+01 2.133793354034423828e+00 6.102008819580078125e+00 2.470740795135498047e+00 -5.068470954895019531e+00
3.530000000000000000e+02 4.850258636474609375e+01 3.343607711791992188e+01 2.053892374038696289e+00 1.323740768432617188e+01 4.587389945983886719e+00 -7.026732444763183594e+00
3.540000000000000000e+02 4.899757003784179688e+01 3.321784973144531250e+01 7.663177251815795898e-01 2.386512756347656250e+01 7.389433383941650391e+00 -5.067054271697998047e+00
3.550000000000000000e+02 4.916807174682617188e+01 3.338743591308593750e+01 6.869229078292846680e-01 2.286030960083007812e+01 7.064169883728027344e+00 -3.127485990524291992e+00
3.560000000000000000e+02 4.767425918579101562e+01 3.252743530273437500e+01 -2.911281824111938477e+00 -5.813381448388099670e-02 -8.908246755599975586e-01 3.081426620483398438e-01
3.570000000000000000e+02 4.740781021118164062e+01 3.214551925659179688e+01 -1.415583968162536621e+00 2.167313825339078903e-03 -4.240249991416931152e-01 5.932028293609619141e-01
3.580000000000000000e+02 4.748283767700195312e+01 3.161152458190917969e+01 3.943923234939575195e+00 5.258849859237670898e-01 1.340942502021789551e+00 2.529474735260009766e+00
3.590000000000000000e+02 4.778393936157226562e+01 3.135586547851562500e+01 6.712541580200195312e+00 2.763646841049194336e+00 2.842856407165527344e+00 5.450591564178466797e+00
3.600000000000000000e+02 4.927580261230468750e+01 3.118384361267089844e+01 4.228330135345458984e+00 2.732022094726562500e+01 9.464565277099609375e+00 3.759666204452514648e+00
3.610000000000000000e+02 4.857171249389648438e+01 3.322632598876953125e+01 2.463590383529663086e+00 1.505310153961181641e+01 5.255007743835449219e+00 -7.897243022918701172e+00
3.620000000000000000e+02 4.909247970581054688e+01 3.099146270751953125e+01 3.670878887176513672e+00 2.440691375732421875e+01 8.423337936401367188e+00 5.972696781158447266e+00
3.630000000000000000e+02 4.993129730224609375e+01 3.252183532714843750e+01 1.314624309539794922e+01 2.262580490112304688e+01 1.073161411285400391e+01 4.426521778106689453e+00
3.640000000000000000e+02 4.985139465332031250e+01 3.270315551757812500e+01 1.137847709655761719e+01 2.489482688903808594e+01 1.088199138641357422e+01 5.634261131286621094e+00
3.650000000000000000e+02 4.916905212402343750e+01 3.320884323120117188e+01 1.050874114036560059e+00 2.548805427551269531e+01 7.961678504943847656e+00 -2.719380617141723633e+00
3.660000000000000000e+02 4.896865081787109375e+01 3.331123733520507812e+01 8.710316419601440430e-01 2.205241775512695312e+01 6.877034664154052734e+00 -5.150271415710449219e+00
3.670000000000000000e+02 4.866993331909179688e+01 3.345138931274414062e+01 1.159791350364685059e+00 1.658203697204589844e+01 5.322548389434814453e+00 -6.845683097839355469e+00
3.680000000000000000e+02 4.898563385009765625e+01 3.348930740356445312e+01 3.041451573371887207e-01 2.038880538940429688e+01 6.207885265350341797e+00 -5.308373451232910156e+00
3.690000000000000000e+02 4.896208190917968750e+01 3.340380859375000000e+01 7.929688692092895508e-01 2.068045997619628906e+01 6.442028999328613281e+00 -5.111834049224853516e+00
3.700000000000000000e+02 4.611011505126953125e+01 3.190537452697753906e+01 -9.560068845748901367e-01 8.350661024451255798e-03 -2.842968702316284180e-01 5.012007951736450195e-01
3.710000000000000000e+02 4.647596359252929688e+01 3.205082702636718750e+01 -1.445843815803527832e+00 -5.094479396939277649e-02 -4.490365684032440186e-01 5.324035286903381348e-01
3.720000000000000000e+02 4.772304153442382812e+01 3.298909378051757812e+01 1.476421952247619629e+00 1.613390207290649414e+00 9.269436597824096680e-01 -2.413441658020019531e+00
3.730000000000000000e+02 4.703155517578125000e+01 3.315481948852539062e+01 -6.353795528411865234e-01 6.837460398674011230e-01 1.450995262712240219e-02 -8.575696945190429688e-01
3.740000000000000000e+02 4.705667114257812500e+01 3.289339447021484375e+01 -1.982323646545410156e+00 7.266607135534286499e-02 -5.728972554206848145e-01 -7.970992475748062134e-02
3.750000000000000000e+02 4.774971771240234375e+01 3.153856086730957031e+01 5.928251266479492188e+00 1.710513114929199219e+00 2.291629314422607422e+00 4.136192798614501953e+00
3.760000000000000000e+02 4.762349319458007812e+01 3.116762542724609375e+01 6.133456707000732422e+00 3.240067481994628906e+00 2.812057256698608398e+00 5.441580772399902344e+00
3.770000000000000000e+02 4.883930969238281250e+01 3.357349777221679688e+01 4.650078117847442627e-01 1.854300689697265625e+01 5.702404499053955078e+00 -5.572575092315673828e+00
3.780000000000000000e+02 4.677943038940429688e+01 3.179625129699707031e+01 4.414967000484466553e-01 -3.933371510356664658e-03 1.312690079212188721e-01 8.938945531845092773e-01
3.790000000000000000e+02 4.643116760253906250e+01 3.184769630432128906e+01 -3.475078046321868896e-01 -8.422030508518218994e-02 -1.295184344053268433e-01 6.169484257698059082e-01
3.800000000000000000e+02 4.707751083374023438e+01 3.215378952026367188e+01 -1.871256709098815918e+00 -1.118080783635377884e-02 -5.647312402725219727e-01 5.499017834663391113e-01
3.810000000000000000e+02 4.725005340576171875e+01 3.217182922363281250e+01 -1.949242949485778809e+00 -1.171907037496566772e-01 -6.199300885200500488e-01 5.895310640335083008e-01
3.820000000000000000e+02 4.730828094482421875e+01 3.200597000122070312e+01 -1.269055306911468506e-01 -9.429326653480529785e-02 -6.635963916778564453e-02 7.655221819877624512e-01
3.830000000000000000e+02 4.746903610229492188e+01 3.187527847290039062e+01 1.642315149307250977e+00 9.285364300012588501e-02 5.205506086349487305e-01 1.296441316604614258e+00
3.840000000000000000e+02 4.764186096191406250e+01 3.172855758666992188e+01 4.039722919464111328e+00 5.750364065170288086e-01 1.384427785873413086e+00 2.466947793960571289e+00
3.850000000000000000e+02 4.746224594116210938e+01 3.121524238586425781e+01 5.340203285217285156e+00 1.975823044776916504e+00 2.194807767868041992e+00 4.264276027679443359e+00
3.860000000000000000e+02 4.628670883178710938e+01 3.174855995178222656e+01 1.916268020868301392e-01 -2.370669826632365584e-04 5.741691961884498596e-02 7.366305589675903320e-01
3.870000000000000000e+02 4.703713989257812500e+01 3.336638641357421875e+01 5.739904195070266724e-02 1.115462422370910645e+00 3.518584370613098145e-01 -1.437268614768981934e+00
3.880000000000000000e+02 4.883317947387695312e+01 3.331901931762695312e+01 1.162548899650573730e+00 1.972812080383300781e+01 6.267200946807861328e+00 -6.336516380310058594e+00
3.890000000000000000e+02 4.807439422607421875e+01 3.342100906372070312e+01 2.542534351348876953e+00 6.957831382751464844e+00 2.850109577178955078e+00 -5.820515155792236328e+00
3.900000000000000000e+02 4.774460220336914062e+01 3.318418121337890625e+01 1.966252446174621582e+00 3.248492956161499023e+00 1.564423561096191406e+00 -3.498504161834716797e+00
3.910000000000000000e+02 4.754693222045898438e+01 3.367888641357421875e+01 1.581354975700378418e+00 4.104354858398437500e+00 1.705712914466857910e+00 -3.841066837310791016e+00
3.920000000000000000e+02 4.728718185424804688e+01 3.309028625488281250e+01 -3.569773212075233459e-02 9.180714488029479980e-01 2.647120952606201172e-01 -1.302996516227722168e+00
3.930000000000000000e+02 4.736576843261718750e+01 3.150838851928710938e+01 3.817641019821166992e+00 8.677462935447692871e-01 1.405616283416748047e+00 2.782683849334716797e+00
3.940000000000000000e+02 4.755273056030273438e+01 3.322801208496093750e+01 1.425722241401672363e+00 2.180741310119628906e+00 1.081938982009887695e+00 -2.859915494918823242e+00
3.950000000000000000e+02 4.736034011840820312e+01 3.328059005737304688e+01 7.796306014060974121e-01 1.691252470016479492e+00 7.412648797035217285e-01 -2.040184020996093750e+00
3.960000000000000000e+02 4.754478454589843750e+01 3.147498130798339844e+01 4.707077980041503906e+00 1.383166551589965820e+00 1.827073454856872559e+00 3.567834377288818359e+00
3.970000000000000000e+02 4.684376907348632812e+01 3.139470863342285156e+01 2.564275264739990234e+00 5.660777091979980469e-01 9.391059279441833496e-01 2.021248817443847656e+00
3.980000000000000000e+02 4.634741973876953125e+01 3.158540916442871094e+01 7.792996168136596680e-01 1.681180745363235474e-01 2.842253148555755615e-01 1.126572966575622559e+00
3.990000000000000000e+02 4.708490753173828125e+01 3.352437591552734375e+01 7.880456447601318359e-01 1.874976158142089844e+00 7.989065647125244141e-01 -2.017792224884033203e+00
4.000000000000000000e+02 4.671403884887695312e+01 3.351470565795898438e+01 -2.689021825790405273e-01 9.385826587677001953e-01 2.009041309356689453e-01 -1.023302435874938965e+00
4.010000000000000000e+02 4.751519393920898438e+01 3.340261459350585938e+01 1.603619575500488281e+00 2.863250017166137695e+00 1.340060830116271973e+00 -3.288084030151367188e+00
4.020000000000000000e+02 4.663933181762695312e+01 3.332911300659179688e+01 -9.418705105781555176e-01 6.042090058326721191e-01 -1.012984365224838257e-01 -6.272121667861938477e-01
4.030000000000000000e+02 4.419189834594726562e+01 3.411755752563476562e+01 -1.845661759376525879e+00 -4.785352945327758789e-02 -5.680546164512634277e-01 4.024346768856048584e-01
4.040000000000000000e+02 4.601238632202148438e+01 3.366947174072265625e+01 -8.733122944831848145e-01 6.311371326446533203e-01 -7.265254110097885132e-02 -4.234532713890075684e-01
4.050000000000000000e+02 4.576249313354492188e+01 3.368287277221679688e+01 -1.400924205780029297e+00 3.421535193920135498e-01 -3.176312148571014404e-01 -1.127081289887428284e-01
4.060000000000000000e+02 4.544226455688476562e+01 3.363785552978515625e+01 -1.880865335464477539e+00 1.269218772649765015e-01 -5.261830687522888184e-01 9.284746646881103516e-02
4.070000000000000000e+02 4.603422164916992188e+01 3.386930084228515625e+01 -5.375252366065979004e-01 5.532013177871704102e-01 4.702824167907238007e-03 -6.567478775978088379e-01
4.080000000000000000e+02 4.574815368652343750e+01 3.397501373291015625e+01 -7.555912733078002930e-01 7.758181691169738770e-01 6.068076472729444504e-03 -5.337680578231811523e-01
4.090000000000000000e+02 4.354967117309570312e+01 3.424971008300781250e+01 -1.903855085372924805e+00 -3.649577498435974121e-02 -5.821052789688110352e-01 4.256780147552490234e-01
4.100000000000000000e+02 4.416894531250000000e+01 3.336989593505859375e+01 -3.370596170425415039e+00 -1.260343044996261597e-01 -1.048989057540893555e+00 6.776493191719055176e-01
4.110000000000000000e+02 4.503224182128906250e+01 3.353287506103515625e+01 -2.515593767166137695e+00 -5.346508324146270752e-02 -7.707176804542541504e-01 4.291125535964965820e-01
4.120000000000000000e+02 4.345077896118164062e+01 3.351564788818359375e+01 -3.189575433731079102e+00 -1.175209134817123413e-01 -9.921289682388305664e-01 6.847061514854431152e-01
4.130000000000000000e+02 4.590698242187500000e+01 3.328283309936523438e+01 -2.303654432296752930e+00 2.286205738782882690e-01 -6.225101947784423828e-01 2.975903451442718506e-01
4.140000000000000000e+02 4.570814514160156250e+01 3.287647628784179688e+01 -3.965771198272705078e+00 -3.466667979955673218e-02 -1.200131297111511230e+00 8.564816117286682129e-01
4.150000000000000000e+02 4.595677566528320312e+01 3.348269653320312500e+01 -1.709199190139770508e+00 3.339782059192657471e-01 -4.125663042068481445e-01 1.014400459825992584e-02
4.160000000000000000e+02 4.599654769897460938e+01 3.408733367919921875e+01 -2.828731238842010498e-01 9.007378220558166504e-01 1.853594034910202026e-01 -9.344120025634765625e-01
4.170000000000000000e+02 4.560753631591796875e+01 3.329395675659179688e+01 -2.761794090270996094e+00 2.805946208536624908e-02 -8.201203942298889160e-01 4.269103109836578369e-01
4.180000000000000000e+02 4.585604095458984375e+01 3.307925796508789062e+01 -3.117810964584350586e+00 9.359750151634216309e-02 -9.072640538215637207e-01 6.650132536888122559e-01
4.190000000000000000e+02 4.484950256347656250e+01 3.317271804809570312e+01 -3.549686431884765625e+00 -2.069268822669982910e-01 -1.126984000205993652e+00 7.518650889396667480e-01
4.200000000000000000e+02 4.535023880004882812e+01 3.407481765747070312e+01 -9.406932592391967773e-01 3.368026018142700195e-01 -1.811672002077102661e-01 -2.101025879383087158e-01
4.210000000000000000e+02 4.480561065673828125e+01 3.407387542724609375e+01 -1.557621359825134277e+00 1.610088199377059937e-01 -4.189837574958801270e-01 1.312758773565292358e-01
4.220000000000000000e+02 4.531913375854492188e+01 3.314380264282226562e+01 -3.536713838577270508e+00 -1.922213882207870483e-01 -1.118680596351623535e+00 6.787254214286804199e-01
4.230000000000000000e+02 4.139850234985351562e+01 3.467833328247070312e+01 -1.792919039726257324e+00 -7.942236214876174927e-02 -5.617024302482604980e-01 6.348727345466613770e-01
4.240000000000000000e+02 4.199465942382812500e+01 3.380642318725585938e+01 -2.896805286407470703e+00 -9.702374041080474854e-02 -8.981487154960632324e-01 6.713508367538452148e-01
4.250000000000000000e+02 4.052394866943359375e+01 3.409660720825195312e+01 -2.460805177688598633e+00 -1.070904806256294250e-01 -7.703687548637390137e-01 6.224070787429809570e-01
4.260000000000000000e+02 4.213290405273437500e+01 3.453341293334960938e+01 -1.857508063316345215e+00 -9.316845983266830444e-02 -5.852029919624328613e-01 5.387209653854370117e-01
4.270000000000000000e+02 4.272992324829101562e+01 3.366130447387695312e+01 -3.042354583740234375e+00 -1.597172170877456665e-01 -9.606215953826904297e-01 6.508936285972595215e-01
4.280000000000000000e+02 4.286724853515625000e+01 3.438847732543945312e+01 -1.894679069519042969e+00 -7.853706181049346924e-02 -5.919648408889770508e-01 5.210892558097839355e-01
4.290000000000000000e+02 4.066404342651367188e+01 3.482323455810546875e+01 -1.699142694473266602e+00 -2.118990272283554077e-01 -5.733125209808349609e-01 6.302930116653442383e-01
4.300000000000000000e+02 4.125933456420898438e+01 3.395152664184570312e+01 -2.699488162994384766e+00 -1.767245680093765259e-01 -8.628638386726379395e-01 6.408513188362121582e-01
4.310000000000000000e+02 3.905131912231445312e+01 3.438002777099609375e+01 -1.937166929244995117e+00 -9.383636713027954102e-02 -6.093009710311889648e-01 5.032575726509094238e-01
4.320000000000000000e+02 3.845631790161132812e+01 3.524533081054687500e+01 -1.187016248703002930e+00 -1.547753214836120605e-01 -4.025374650955200195e-01 6.009299755096435547e-01
4.330000000000000000e+02 3.757802581787109375e+01 3.465816116333007812e+01 -1.439854025840759277e+00 -6.883630156517028809e-02 -4.526070952415466309e-01 4.094342887401580811e-01
4.340000000000000000e+02 3.992870712280273438e+01 3.496635818481445312e+01 -1.588768959045410156e+00 -1.403088718652725220e-01 -5.187233686447143555e-01 6.525099873542785645e-01
4.350000000000000000e+02 3.978794097900390625e+01 3.423986434936523438e+01 -2.200099468231201172e+00 -1.745331138372421265e-01 -7.123897671699523926e-01 5.540840625762939453e-01
4.360000000000000000e+02 3.772006225585937500e+01 3.538441467285156250e+01 -1.015997648239135742e+00 -2.170492112636566162e-01 -3.699140548706054688e-01 5.137574076652526855e-01
4.370000000000000000e+02 3.919250869750976562e+01 3.510644531250000000e+01 -1.413068056106567383e+00 -2.352442145347595215e-01 -4.944936633110046387e-01 6.333510875701904297e-01
4.380000000000000000e+02 3.831470489501953125e+01 3.451899719238281250e+01 -1.692095279693603516e+00 -1.377369463443756104e-01 -5.489496588706970215e-01 4.404990077018737793e-01
4.390000000000000000e+02 3.551680755615234375e+01 3.582569122314453125e+01 -6.489630341529846191e-01 -1.199508085846900940e-01 -2.306741625070571899e-01 3.463508188724517822e-01
4.400000000000000000e+02 3.610754394531250000e+01 3.495201110839843750e+01 -1.024338006973266602e+00 -5.418590456247329712e-02 -3.235571980476379395e-01 3.063427507877349854e-01
4.410000000000000000e+02 3.463803482055664062e+01 3.524788665771484375e+01 -7.010573148727416992e-01 -4.748626053333282471e-02 -2.245630770921707153e-01 2.132768183946609497e-01
4.420000000000000000e+02 3.684228134155273438e+01 3.480297470092773438e+01 -1.215167164802551270e+00 -1.302784085273742676e-01 -4.036336839199066162e-01 3.437770009040832520e-01
4.430000000000000000e+02 3.698487472534179688e+01 3.552911758422851562e+01 -8.833638429641723633e-01 -1.431791186332702637e-01 -3.079628944396972656e-01 4.665401875972747803e-01
4.440000000000000000e+02 3.478272247314453125e+01 3.597360992431640625e+01 -5.410280227661132812e-01 -1.419814825057983398e-01 -2.049028575420379639e-01 3.165738284587860107e-01
4.450000000000000000e+02 3.625083541870117188e+01 3.567801284790039062e+01 -7.413635849952697754e-01 -1.876823008060455322e-01 -2.787137627601623535e-01 4.058451056480407715e-01
4.460000000000000000e+02 3.537281799316406250e+01 3.509983062744140625e+01 -8.493555188179016113e-01 -9.999635815620422363e-02 -2.848055660724639893e-01 2.553901970386505127e-01
4.470000000000000000e+02 3.242737579345703125e+01 3.568672943115234375e+01 -3.462608456611633301e-01 -3.780357539653778076e-02 -1.152193322777748108e-01 1.149318888783454895e-01
4.480000000000000000e+02 3.169006347656250000e+01 3.583216094970703125e+01 -2.527447938919067383e-01 -2.341080456972122192e-02 -8.284667879343032837e-02 9.922254830598831177e-02
4.490000000000000000e+02 3.330534362792968750e+01 3.626757049560546875e+01 -3.586099147796630859e-01 -1.048398986458778381e-01 -1.390349417924880981e-01 2.377844005823135376e-01
4.500000000000000000e+02 3.316469573974609375e+01 3.554105377197265625e+01 -4.452931582927703857e-01 -4.320623725652694702e-02 -1.465498208999633789e-01 1.446778625249862671e-01
4.510000000000000000e+02 3.390202713012695312e+01 3.539514541625976562e+01 -5.650098919868469238e-01 -6.037829443812370300e-02 -1.876164525747299194e-01 1.804327666759490967e-01
4.520000000000000000e+02 3.404560089111328125e+01 3.612108612060546875e+01 -4.484545588493347168e-01 -9.538020938634872437e-02 -1.631504297256469727e-01 2.645291984081268311e-01
4.530000000000000000e+02 3.182485580444335938e+01 3.655983352661132812e+01 -2.029461860656738281e-01 -8.238847553730010986e-02 -8.560039848089218140e-02 1.380708813667297363e-01
4.540000000000000000e+02 3.256509399414062500e+01 3.641382217407226562e+01 -2.516758441925048828e-01 -8.299457281827926636e-02 -1.004011258482933044e-01 2.016725689172744751e-01
4.550000000000000000e+02 2.946516418457031250e+01 3.621912765502929688e+01 -7.560054212808609009e-02 -3.466973826289176941e-02 -3.308108448982238770e-02 2.816725149750709534e-02
4.560000000000000000e+02 2.958438682556152344e+01 3.694947052001953125e+01 -7.007954269647598267e-02 -1.656406745314598083e-02 -2.599308267235755920e-02 6.863331794738769531e-02
4.570000000000000000e+02 2.872264671325683594e+01 3.634394836425781250e+01 -4.405703768134117126e-02 1.401331741362810135e-02 -9.013116359710693359e-03 2.453568577766418457e-02
4.580000000000000000e+02 3.020768547058105469e+01 3.609378433227539062e+01 -1.196155473589897156e-01 5.227180663496255875e-03 -3.431650996208190918e-02 5.155376344919204712e-02
4.590000000000000000e+02 3.095018768310546875e+01 3.596792221069335938e+01 -1.794031113386154175e-01 -4.105421155691146851e-02 -6.613719463348388672e-02 6.001675501465797424e-02
4.600000000000000000e+02 3.108069419860839844e+01 3.669636154174804688e+01 -1.519565582275390625e-01 -4.730054363608360291e-02 -5.977713316679000854e-02 1.367856711149215698e-01
4.610000000000000000e+02 2.883622932434082031e+01 3.707524490356445312e+01 -4.300113022327423096e-02 -4.447051510214805603e-02 -2.624149248003959656e-02 4.354717582464218140e-02
4.620000000000000000e+02 3.033255004882812500e+01 3.682317352294921875e+01 -9.887219965457916260e-02 -6.843556463718414307e-02 -5.019233003258705139e-02 8.597639948129653931e-02
4.630000000000000000e+02 2.647223281860351562e+01 3.666142654418945312e+01 9.691470302641391754e-03 -2.228797599673271179e-02 -3.778951708227396011e-03 1.908991136588156223e-03
4.640000000000000000e+02 2.572040748596191406e+01 3.676027679443359375e+01 1.445903163403272629e-02 1.698209159076213837e-02 9.432337246835231781e-03 4.641846462618559599e-04
4.650000000000000000e+02 2.731099891662597656e+01 3.729562377929687500e+01 -1.286418270319700241e-02 -2.940092608332633972e-02 -1.267953217029571533e-02 2.157804742455482483e-02
4.660000000000000000e+02 2.722403526306152344e+01 3.656066131591796875e+01 -2.977867610752582550e-03 1.709244213998317719e-02 4.234372638165950775e-03 9.985589422285556793e-03
4.670000000000000000e+02 2.797564125061035156e+01 3.645804595947265625e+01 -1.990566588938236237e-02 -2.658967114984989166e-02 -1.394860167056322098e-02 1.075808238238096237e-02
4.680000000000000000e+02 2.807846832275390625e+01 3.719087982177734375e+01 -2.939281053841114044e-02 8.436623029410839081e-04 -8.564744144678115845e-03 3.443692997097969055e-02
4.690000000000000000e+02 2.577564430236816406e+01 3.749948883056640625e+01 9.889620356261730194e-03 -2.217726409435272217e-02 -3.686293028295040131e-03 9.632630273699760437e-03
4.700000000000000000e+02 2.654333496093750000e+01 3.739851379394531250e+01 -6.598158739507198334e-03 6.709075067192316055e-03 3.327496960991993546e-05 1.518320478498935699e-02
4.710000000000000000e+02 2.340743637084960938e+01 3.754123687744140625e+01 9.690058417618274689e-03 3.441039938479661942e-03 3.939329180866479874e-03 -7.510998286306858063e-03
4.720000000000000000e+02 2.266618919372558594e+01 3.679620742797851562e+01 1.423649489879608154e-02 3.118085674941539764e-03 5.206373985856771469e-03 -2.594149904325604439e-03
4.730000000000000000e+02 2.419788742065429688e+01 3.680555725097656250e+01 1.818472519516944885e-02 8.560908958315849304e-03 8.023690432310104370e-03 -2.287527546286582947e-03
4.740000000000000000e+02 2.496211051940917969e+01 3.680892944335937500e+01 1.948289386928081512e-02 -1.339935790747404099e-02 1.825060578994452953e-03 1.921087503433227539e-03
4.750000000000000000e+02 2.499495697021484375e+01 3.754912567138671875e+01 4.755752161145210266e-03 1.129231415688991547e-02 4.814419895410537720e-03 -4.437800962477922440e-03
4.760000000000000000e+02 2.261228370666503906e+01 3.753591537475585938e+01 6.754607893526554108e-03 -2.459644107148051262e-03 1.288489089347422123e-03 -5.680362810380756855e-04
4.770000000000000000e+02 2.343242454528808594e+01 3.680136489868164062e+01 1.678789965808391571e-02 -5.829458590596914291e-03 3.287532366812229156e-03 5.638783914037048817e-04
4.780000000000000000e+02 2.420181655883789062e+01 3.754558944702148438e+01 9.224358014762401581e-03 -1.046075858175754547e-02 -3.709199663717299700e-04 5.711272824555635452e-03
4.790000000000000000e+02 1.998039245605468750e+01 3.692026138305664062e+01 5.260639358311891556e-03 4.190495703369379044e-03 2.835340565070509911e-03 -3.913335502147674561e-03
4.800000000000000000e+02 2.062745285034179688e+01 3.732268142700195312e+01 7.530472707003355026e-03 1.686430652625858784e-03 2.765071112662553787e-03 -2.119687385857105255e-03
4.810000000000000000e+02 2.113145446777343750e+01 3.686664581298828125e+01 1.219577388837933540e-03 -3.950349055230617523e-03 -8.192314417101442814e-04 -1.716116326861083508e-03
4.820000000000000000e+02 2.021580696105957031e+01 3.715901565551757812e+01 3.052305197343230247e-03 6.669944850727915764e-04 1.115789869800209999e-03 -1.741550979204475880e-03
4.830000000000000000e+02 2.186282539367675781e+01 3.673282623291015625e+01 1.020128931850194931e-02 3.325741272419691086e-05 3.070364007726311684e-03 7.283963495865464211e-04
4.840000000000000000e+02 2.186202239990234375e+01 3.748466491699218750e+01 5.567844957113265991e-03 2.746878191828727722e-03 2.494416898116469383e-03 -6.710635498166084290e-03
4.850000000000000000e+02 2.119230079650878906e+01 3.743341445922851562e+01 1.093232911080121994e-02 -5.241187755018472672e-03 1.707342336885631084e-03 -1.665912917815148830e-03
4.860000000000000000e+02 2.068652153015136719e+01 3.649208450317382812e+01 5.549727007746696472e-03 2.731505956035107374e-04 1.746863359585404396e-03 -2.945084823295474052e-03
4.870000000000000000e+02 2.102560424804687500e+01 3.579481887817382812e+01 1.154367695562541485e-03 1.061143819242715836e-03 6.646534311585128307e-04 4.717945412266999483e-04
4.880000000000000000e+02 2.197462081909179688e+01 3.519912338256835938e+01 -1.649933867156505585e-02 -1.245901361107826233e-02 -8.687505498528480530e-03 -1.517773140221834183e-02
4.890000000000000000e+02 2.189435958862304688e+01 3.593660354614257812e+01 -1.261849654838442802e-03 -4.714650101959705353e-03 -1.792949973605573177e-03 -2.763127675279974937e-03
4.900000000000000000e+02 2.057264900207519531e+01 3.514139175415039062e+01 4.546028794720768929e-04 5.176211707293987274e-03 1.689244410954415798e-03 2.621814375743269920e-03
4.910000000000000000e+02 2.112965202331542969e+01 3.506163787841796875e+01 -4.381682723760604858e-03 -9.110586717724800110e-03 -4.047680646181106567e-03 -4.849358927458524704e-03
4.920000000000000000e+02 2.112237739562988281e+01 3.338571166992187500e+01 -7.941215299069881439e-03 -4.162501543760299683e-02 -1.486986968666315079e-02 -2.449317090213298798e-02
4.930000000000000000e+02 2.202195549011230469e+01 3.431912994384765625e+01 -2.450262755155563354e-02 -2.699307538568973541e-02 -1.544871088117361069e-02 -3.250056132674217224e-02
4.940000000000000000e+02 2.539987754821777344e+01 3.348639297485351562e+01 -1.595222204923629761e-01 -1.681496202945709229e-02 -5.290115252137184143e-02 -1.519780904054641724e-01
4.950000000000000000e+02 2.695969200134277344e+01 3.427023315429687500e+01 -2.590646147727966309e-01 1.924641430377960205e-02 -7.194545865058898926e-02 -1.189736127853393555e-01
4.960000000000000000e+02 2.200405120849609375e+01 3.332658767700195312e+01 -2.156070433557033539e-02 -6.400303542613983154e-02 -2.566912211477756500e-02 -5.598890036344528198e-02
4.970000000000000000e+02 2.101063728332519531e+01 2.544114112854003906e+01 2.260937821120023727e-03 -6.981437802314758301e-01 -2.087648659944534302e-01 -5.142289027571678162e-02
4.980000000000000000e+02 2.606242179870605469e+01 1.680441856384277344e+01 1.281802058219909668e-01 -1.184801310300827026e-01 2.910023089498281479e-03 3.856279328465461731e-02
4.990000000000000000e+02 3.308453750610351562e+01 1.230996990203857422e+01 2.087116241455078125e-01 1.548079133033752441e+00 5.270372033119201660e-01 5.438664555549621582e-01
5.000000000000000000e+02 4.157906341552734375e+01 3.797226905822753906e+00 -2.962167561054229736e-01 3.963559627532958984e+00 1.100202798843383789e+00 5.752400755882263184e-01
5.010000000000000000e+02 4.741664123535156250e+01 -8.330788016319274902e-01 -4.788301885128021240e-01 5.119832515716552734e+00 1.392300605773925781e+00 2.660657465457916260e-01
5.020000000000000000e+02 5.627809524536132812e+01 -9.873932838439941406e+00 -3.585766255855560303e-01 6.312157154083251953e+00 1.786074161529541016e+00 -1.258134096860885620e-01
5.030000000000000000e+02 7.172117614746093750e+01 -2.424088287353515625e+01 -2.630655467510223389e-02 8.529083251953125000e+00 2.550833225250244141e+00 -6.466608494520187378e-02
5.040000000000000000e+02 7.798898315429687500e+01 -3.061968803405761719e+01 1.481909304857254028e-03 9.597402572631835938e+00 2.879665374755859375e+00 -8.954430930316448212e-03
5.050000000000000000e+02 7.928942108154296875e+01 -2.647567749023437500e+01 5.333860870450735092e-03 9.799372673034667969e+00 2.941411972045898438e+00 -1.541564799845218658e-02
5.060000000000000000e+02 7.785746765136718750e+01 -2.364857864379882812e+01 -4.472968634217977524e-03 9.522681236267089844e+00 2.855462312698364258e+00 -3.235967084765434265e-02
5.070000000000000000e+02 7.929895782470703125e+01 -2.227474975585937500e+01 -2.875844249501824379e-03 9.753204345703125000e+00 2.925098657608032227e+00 -1.803635992109775543e-02
5.080000000000000000e+02 7.278525543212890625e+01 -1.255701446533203125e+01 -6.330060958862304688e-02 8.556599617004394531e+00 2.547989845275878906e+00 -1.879584193229675293e-01
5.090000000000000000e+02 6.643846893310546875e+01 -3.621697425842285156e+00 -2.877056300640106201e-01 7.690073966979980469e+00 2.220710515975952148e+00 -4.457697868347167969e-01
5.100000000000000000e+02 5.874941635131835938e+01 5.752163887023925781e+00 -6.796587705612182617e-01 7.352591991424560547e+00 2.001879930496215820e+00 -4.418805241584777832e-01
5.110000000000000000e+02 5.413587570190429688e+01 8.302364349365234375e+00 -7.751560211181640625e-01 7.031671524047851562e+00 1.876954555511474609e+00 -2.187608182430267334e-02
5.120000000000000000e+02 4.090097808837890625e+01 1.971034622192382812e+01 7.191446423530578613e-01 3.093861341476440430e+00 1.143901824951171875e+00 1.456261634826660156e+00
5.130000000000000000e+02 3.656022262573242188e+01 2.921610069274902344e+01 2.101693488657474518e-02 2.287186086177825928e-01 7.492066174745559692e-02 -1.570555120706558228e-01
5.140000000000000000e+02 3.194463729858398438e+01 3.277336120605468750e+01 -6.253002882003784180e-01 7.944249361753463745e-02 -1.637573391199111938e-01 -1.941615492105484009e-01
5.150000000000000000e+02 2.984944343566894531e+01 3.386405563354492188e+01 -4.991211593151092529e-01 4.790424928069114685e-02 -1.353650689125061035e-01 -1.255934685468673706e-01
5.160000000000000000e+02 2.073496055603027344e+01 -3.873686599731445312e+01 -1.173760835081338882e-02 1.753626614809036255e-01 4.908751696348190308e-02 3.755066543817520142e-02
5.170000000000000000e+02 1.654208946228027344e+01 -3.858930206298828125e+01 -7.543867081403732300e-02 -1.712724380195140839e-02 -2.776977419853210449e-02 -4.768183082342147827e-02
5.180000000000000000e+02 1.893544960021972656e+01 -3.758874511718750000e+01 -7.396775484085083008e-02 -1.132007017731666565e-01 -5.615053698420524597e-02 -5.702149868011474609e-02
5.190000000000000000e+02 1.502720260620117188e+01 -4.030429077148437500e+01 -7.568726316094398499e-03 -3.081655874848365784e-02 -1.151558570563793182e-02 -3.273044154047966003e-02
5.200000000000000000e+02 1.455633068084716797e+01 -3.640582275390625000e+01 -1.293709408491849899e-02 -1.518274424597620964e-03 -4.336610436439514160e-03 -1.458328682929277420e-02
5.210000000000000000e+02 1.533552265167236328e+01 -3.754266738891601562e+01 3.336068615317344666e-02 1.286842394620180130e-02 1.386873330920934677e-02 8.039529435336589813e-03
5.220000000000000000e+02 1.278031158447265625e+01 -3.124086189270019531e+01 -4.097871482372283936e-03 -8.561629219911992550e-04 -1.486210268922150135e-03 2.304413821548223495e-03
5.230000000000000000e+02 6.479191184043884277e-01 -2.479232406616210938e+01 -1.084090443328022957e-03 -4.050558345625177026e-05 -3.373787913005799055e-04 7.054334128042683005e-05
5.240000000000000000e+02 6.912927627563476562e-01 -3.043465232849121094e+01 -3.151783312205225229e-04 3.607384569477289915e-04 1.366804099234286696e-05 2.448065788485109806e-04
5.250000000000000000e+02 7.014173865318298340e-01 -3.184816741943359375e+01 2.691112458705902100e-04 7.867042440921068192e-04 3.167446411680430174e-04 1.278848649235442281e-04
5.260000000000000000e+02 7.322168946266174316e-01 -3.741160964965820312e+01 2.164884237572550774e-03 2.084936946630477905e-03 1.274946378543972969e-03 6.317671504803001881e-04
5.270000000000000000e+02 8.545493125915527344e+00 -3.905895996093750000e+01 1.174648175947368145e-03 -3.991071134805679321e-03 -8.449269225820899010e-04 2.564520342275500298e-03
5.280000000000000000e+02 1.202388000488281250e+01 -4.134526062011718750e+01 6.173151545226573944e-03 -1.557212322950363159e-02 -2.819691551849246025e-03 -4.781248047947883606e-03
5.290000000000000000e+02 2.059471511840820312e+01 -3.495565795898437500e+01 -1.423218566924333572e-02 1.394992321729660034e-01 3.758011758327484131e-02 -1.564435288310050964e-02
5.300000000000000000e+02 1.961264801025390625e+01 -2.797220039367675781e+01 2.282977569848299026e-03 -3.508322313427925110e-02 -9.840073995292186737e-03 -7.513317395932972431e-04
5.310000000000000000e+02 2.105579376220703125e+01 -3.220973968505859375e+01 -4.397114738821983337e-03 1.902414262294769287e-01 5.575329065322875977e-02 -6.339449901133775711e-03
5.320000000000000000e+02 1.941995620727539062e+01 -3.497002792358398438e+01 -2.324379421770572662e-02 -8.865441381931304932e-02 -3.356946259737014771e-02 -3.156240656971931458e-02
5.330000000000000000e+02 1.922094154357910156e+01 -3.631903076171875000e+01 5.291252397000789642e-03 -1.185407564043998718e-01 -3.397485241293907166e-02 -3.546493127942085266e-02
5.340000000000000000e+02 1.969299125671386719e+01 -2.380027961730957031e+01 -1.237033284269273281e-03 -3.917391598224639893e-02 -1.212328486144542694e-02 8.011285681277513504e-04
5.350000000000000000e+02 1.978099250793457031e+01 -2.098584747314453125e+01 -1.628985337447375059e-04 -5.505677312612533569e-02 -1.656590215861797333e-02 4.072682466357946396e-03
5.360000000000000000e+02 2.119625282287597656e+01 -2.525660705566406250e+01 -5.824382416903972626e-03 2.047371715307235718e-01 5.967383831739425659e-02 8.728187531232833862e-03
5.370000000000000000e+02 2.066870880126953125e+01 -1.331012845039367676e+00 -2.834789920598268509e-03 -4.580696225166320801e-01 -1.382713168859481812e-01 7.117155473679304123e-03
5.380000000000000000e+02 2.035830116271972656e+01 -6.933898448944091797e+00 1.166669535450637341e-03 -2.658205926418304443e-01 -7.939617335796356201e-02 1.311416272073984146e-02
5.390000000000000000e+02 2.160345077514648438e+01 -1.115756988525390625e+01 -2.473098458722233772e-03 4.820739105343818665e-02 1.372028794139623642e-02 4.287770017981529236e-02
5.400000000000000000e+02 2.477441787719726562e+01 -2.406162452697753906e+01 -1.720798946917057037e-02 7.845900654792785645e-01 2.302146255970001221e-01 4.473705217242240906e-02
5.410000000000000000e+02 3.830860900878906250e+01 -2.889368820190429688e+01 -7.589180022478103638e-02 3.090520620346069336e+00 9.043886661529541016e-01 5.691461265087127686e-02
5.420000000000000000e+02 4.317335128784179688e+01 -3.743819046020507812e+01 -6.141974776983261108e-02 3.864439487457275391e+00 1.140905857086181641e+00 2.749579027295112610e-03
5.430000000000000000e+02 5.239089202880859375e+01 -4.092286300659179688e+01 -7.201447337865829468e-02 5.391900062561035156e+00 1.595965623855590820e+00 -1.103907852666452527e-04
5.440000000000000000e+02 4.766498947143554688e+01 -3.768873214721679688e+01 -6.763773411512374878e-02 4.609929561614990234e+00 1.362687587738037109e+00 8.350429125130176544e-03
5.450000000000000000e+02 6.205733489990234375e+01 -4.051692962646484375e+01 -3.933387622237205505e-02 6.996934413909912109e+00 2.087280273437500000e+00 -4.349335096776485443e-03
5.460000000000000000e+02 5.721684265136718750e+01 -4.081680297851562500e+01 -5.695138126611709595e-02 6.161101341247558594e+00 1.831244945526123047e+00 -8.855737745761871338e-03
5.470000000000000000e+02 5.846836853027343750e+01 -3.026334190368652344e+01 -9.087553620338439941e-02 6.397914409637451172e+00 1.892111659049987793e+00 -4.033198580145835876e-02
5.480000000000000000e+02 5.962475585937500000e+01 -2.400281524658203125e+01 -1.275746524333953857e-01 6.612965583801269531e+00 1.945617198944091797e+00 -6.138476356863975525e-02
5.490000000000000000e+02 5.649618911743164062e+01 -1.658275222778320312e+01 -2.323962897062301636e-01 6.191013813018798828e+00 1.787585258483886719e+00 -9.262999147176742554e-02
5.500000000000000000e+02 5.808158111572265625e+01 -1.046126174926757812e+01 -3.299224674701690674e-01 6.548981189727783203e+00 1.865717649459838867e+00 -1.628170609474182129e-01
5.510000000000000000e+02 5.293127441406250000e+01 -9.233699798583984375e+00 -3.818333446979522705e-01 5.794805049896240234e+00 1.623891592025756836e+00 -3.106395155191421509e-02
5.520000000000000000e+02 5.014659881591796875e+01 -7.398475170135498047e+00 -4.060724973678588867e-01 5.372102260589599609e+00 1.489808917045593262e+00 5.464198812842369080e-02
5.530000000000000000e+02 3.920312118530273438e+01 -3.874653577804565430e+00 -2.537333667278289795e-01 3.360774278640747070e+00 9.321122765541076660e-01 3.706113994121551514e-01
5.540000000000000000e+02 3.365961456298828125e+01 -9.050781726837158203e-01 -1.211669668555259705e-01 2.171339750289916992e+00 6.150518059730529785e-01 4.180781245231628418e-01
5.550000000000000000e+02 2.791114044189453125e+01 -2.092373847961425781e+00 -3.138577565550804138e-02 9.727663993835449219e-01 2.824141979217529297e-01 2.770806550979614258e-01
5.560000000000000000e+02 2.059458923339843750e+01 -2.736611604690551758e+00 -4.487081896513700485e-03 -4.090952873229980469e-01 -1.240747123956680298e-01 -5.529231857508420944e-04
5.570000000000000000e+02 2.031953430175781250e+01 -9.739474296569824219e+00 -2.692963229492306709e-03 -2.090101093053817749e-01 -6.351092457771301270e-02 1.095589715987443924e-02
5.580000000000000000e+02 1.995406723022460938e+01 -1.676020812988281250e+01 5.691862897947430611e-04 -8.529902994632720947e-02 -2.541895210742950439e-02 -1.069735968485474586e-03
5.590000000000000000e+02 2.138949012756347656e+01 -1.678121948242187500e+01 2.105245832353830338e-03 1.339618116617202759e-01 4.082011803984642029e-02 2.781086042523384094e-02
5.600000000000000000e+02 3.035424232482910156e+01 -3.010289192199707031e+01 -3.301158547401428223e-02 1.721738219261169434e+00 5.066179633140563965e-01 6.132068112492561340e-02
5.610000000000000000e+02 3.772858810424804688e+01 -4.063314819335937500e+01 -4.237393289804458618e-02 2.923855543136596680e+00 8.644444942474365234e-01 1.285217236727476120e-02
5.620000000000000000e+02 4.267173767089843750e+01 -4.083245468139648438e+01 -6.071542203426361084e-02 3.790648221969604492e+00 1.118979811668395996e+00 -1.440647756680846214e-03
5.630000000000000000e+02 1.339397811889648438e+01 -3.569174957275390625e+01 -9.271386079490184784e-04 6.533124949783086777e-03 1.681795925833284855e-03 7.501372136175632477e-03
5.640000000000000000e+02 1.386070728302001953e+01 -3.438497924804687500e+01 1.082914695143699646e-02 4.564993083477020264e-03 4.618241917341947556e-03 -5.246692337095737457e-03
5.650000000000000000e+02 1.408077526092529297e+01 -3.302288818359375000e+01 -7.153654936701059341e-03 3.171332355123013258e-05 -2.136582508683204651e-03 1.870875246822834015e-03
5.660000000000000000e+02 1.339415931701660156e+01 -2.605862426757812500e+01 -3.182729007676243782e-03 -4.249009652994573116e-04 -1.082289032638072968e-03 4.969921428710222244e-04
5.670000000000000000e+02 1.873498558998107910e+00 -1.778011131286621094e+01 -1.156044774688780308e-03 -6.079405284253880382e-05 -3.650516446214169264e-04 3.201055005774833262e-05
5.680000000000000000e+02 6.424349546432495117e-01 -2.338739967346191406e+01 1.191527233459055424e-03 -2.243104427179787308e-05 3.507288638502359390e-04 -4.508580605033785105e-05
5.690000000000000000e+02 1.441853141784667969e+01 -3.028714561462402344e+01 -5.353159271180629730e-03 -3.161298518534749746e-04 -1.700786640867590904e-03 1.378656248562037945e-03
5.700000000000000000e+02 1.328681373596191406e+01 -2.864918327331542969e+01 -3.596891416236758232e-03 -8.887626463547348976e-04 -1.345696160569787025e-03 1.423023641109466553e-03
5.710000000000000000e+02 1.428535842895507812e+01 -2.196119117736816406e+01 -2.443894976750016212e-03 9.260176739189773798e-05 -7.053879671730101109e-04 3.672055609058588743e-04
5.720000000000000000e+02 1.452427005767822266e+01 -1.350058364868164062e+01 -1.019828137941658497e-03 -2.677718657650984824e-05 -3.139816108159720898e-04 1.176507066702470183e-04
5.730000000000000000e+02 1.459379005432128906e+01 -6.554735183715820312e+00 6.493704277090728283e-04 -6.226311597856692970e-06 1.929432328324764967e-04 -2.781406874419189990e-05
5.740000000000000000e+02 1.458245182037353516e+01 -3.871058940887451172e+00 3.225402906537055969e-04 1.990443161048460752e-05 1.027334219543263316e-04 1.208805770147591829e-05
5.750000000000000000e+02 1.441439056396484375e+01 -2.846738338470458984e+00 -1.855421724030748010e-04 7.082874071784317493e-05 -3.441402805037796497e-05 -1.448654511477798223e-04
5.760000000000000000e+02 1.032497119903564453e+01 -2.586335182189941406e+00 -1.975875638891011477e-04 -1.609390310477465391e-04 -1.075579784810543060e-04 1.108951037167571485e-04
5.770000000000000000e+02 1.342842864990234375e+01 -1.063765239715576172e+01 8.357904152944684029e-04 5.995782339596189559e-05 2.687244850676506758e-04 -5.862854959559626877e-05
5.780000000000000000e+02 1.306048679351806641e+01 -1.876446533203125000e+01 1.448041526600718498e-03 2.655973075889050961e-04 5.140916327945888042e-04 -6.313930498436093330e-04
5.790000000000000000e+02 1.329605770111083984e+01 -2.476997756958007812e+01 2.967018634080886841e-03 1.510589499957859516e-04 9.354233043268322945e-04 -3.022418823093175888e-04
5.800000000000000000e+02 1.453159713745117188e+01 -2.615286064147949219e+01 3.961087670177221298e-03 1.226297026732936502e-04 1.225115265697240829e-03 -5.217039724811911583e-04
5.810000000000000000e+02 1.109053897857666016e+01 -1.872471570968627930e+00 -2.016818471020087600e-04 -1.074720130418427289e-04 -9.274615877075120807e-05 8.911062468541786075e-05
5.820000000000000000e+02 4.265605449676513672e+00 -1.879406929016113281e+00 7.887795800343155861e-05 -6.466703052865341306e-05 4.263277332938741893e-06 -4.073568561580032110e-05
5.830000000000000000e+02 1.746233940124511719e+00 -1.070707893371582031e+01 8.759982301853597164e-04 1.198042718897340819e-05 2.663935883902013302e-04 -2.496697379683610052e-05
5.840000000000000000e+02 6.289483904838562012e-01 -1.776386833190917969e+01 1.139227882958948612e-03 2.276951590829412453e-06 3.424514434300363064e-04 -1.985002018045634031e-05
5.850000000000000000e+02 2.404853820800781250e+00 -3.817065811157226562e+01 1.862189848907291889e-03 1.954323844984173775e-03 1.144954119808971882e-03 1.082812668755650520e-03
5.860000000000000000e+02 2.051916503906250000e+01 -3.609258651733398438e+01 -1.849539019167423248e-02 1.378396749496459961e-01 3.580328822135925293e-02 -3.126036003232002258e-02
5.870000000000000000e+02 2.518944168090820312e+01 -3.830643081665039062e+01 6.514846812933683395e-03 9.035730957984924316e-01 2.730263769626617432e-01 2.637856826186180115e-02
5.880000000000000000e+02 2.863002777099609375e+01 -3.834252166748046875e+01 1.198831666260957718e-02 1.464300990104675293e+00 4.428867995738983154e-01 1.639318838715553284e-02
5.890000000000000000e+02 2.679648780822753906e+01 -3.358209991455078125e+01 -3.013633750379085541e-02 1.185420751571655273e+00 3.465853333473205566e-01 2.514872699975967407e-02
5.900000000000000000e+02 1.960996627807617188e+01 -3.078478813171386719e+01 4.817320033907890320e-03 -3.819585219025611877e-02 -1.001355983316898346e-02 5.163960740901529789e-04
5.910000000000000000e+02 6.058264923095703125e+01 -3.669178009033203125e+01 -5.700057372450828552e-02 6.755423545837402344e+00 2.009526968002319336e+00 -1.518046110868453979e-02
5.920000000000000000e+02 6.687461090087890625e+01 -3.045414924621582031e+01 -4.904574155807495117e-02 7.761664390563964844e+00 2.313785552978515625e+00 -3.531165793538093567e-02
5.930000000000000000e+02 6.598892974853515625e+01 -2.312391090393066406e+01 -9.466048330068588257e-02 7.629748344421386719e+00 2.260526418685913086e+00 -1.044524163007736206e-01
5.940000000000000000e+02 6.481062316894531250e+01 -1.929887390136718750e+01 -1.303837895393371582e-01 7.425146579742431641e+00 2.188428878784179688e+00 -1.369289159774780273e-01
5.950000000000000000e+02 6.698242950439453125e+01 -4.053030776977539062e+01 -2.851960249245166779e-02 7.762708187103271484e+00 2.320256471633911133e+00 -4.987539257854223251e-03
5.960000000000000000e+02 7.066561889648437500e+01 -3.751833343505859375e+01 -2.371866628527641296e-02 8.402603149414062500e+00 2.513665437698364258e+00 -2.595558017492294312e-02
5.970000000000000000e+02 7.196926116943359375e+01 -3.200970077514648438e+01 -3.278996795415878296e-02 8.525271415710449219e+00 2.547744512557983398e+00 -4.455139115452766418e-02
5.980000000000000000e+02 7.792874908447265625e+01 -4.160844039916992188e+01 5.707223713397979736e-02 9.625511169433593750e+00 2.904775142669677734e+00 1.602314226329326630e-02
5.990000000000000000e+02 7.788034057617187500e+01 -3.675659179687500000e+01 -6.996470503509044647e-03 9.593282699584960938e+00 2.875885963439941406e+00 2.622040733695030212e-02
6.000000000000000000e+02 7.936391448974609375e+01 -3.336736297607421875e+01 4.282347392290830612e-03 9.842665672302246094e+00 2.954084396362304688e+00 -3.908935934305191040e-03
6.010000000000000000e+02 7.803991699218750000e+01 -1.661055183410644531e+01 -4.324233625084161758e-03 9.452120780944824219e+00 2.834338903427124023e+00 -5.044471845030784607e-02
6.020000000000000000e+02 7.935453796386718750e+01 -1.251101016998291016e+01 -3.562955535016953945e-04 9.577570915222167969e+00 2.873164415359497070e+00 -3.355726972222328186e-02
6.030000000000000000e+02 7.288584899902343750e+01 -5.623136997222900391e+00 -9.125214815139770508e-02 8.417378425598144531e+00 2.497837781906127930e+00 -3.138650953769683838e-01
6.040000000000000000e+02 6.611501312255859375e+01 4.195736885070800781e+00 -4.089803397655487061e-01 7.741766929626464844e+00 2.199836015701293945e+00 -7.141960859298706055e-01
6.050000000000000000e+02 6.145131301879882812e+01 1.136391830444335938e+01 -6.528930068016052246e-01 7.923743247985839844e+00 2.181255102157592773e+00 -8.175297975540161133e-01
6.060000000000000000e+02 5.207806015014648438e+01 2.086193656921386719e+01 -6.130983829498291016e-01 9.147793769836425781e+00 2.560408830642700195e+00 6.497138142585754395e-01
6.070000000000000000e+02 4.369158172607421875e+01 2.867764282226562500e+01 1.916564822196960449e+00 1.236619353294372559e+00 9.459552764892578125e-01 1.772796034812927246e+00
6.080000000000000000e+02 3.717533111572265625e+01 3.247362518310546875e+01 -1.198191404342651367e+00 5.787237361073493958e-02 -3.420957028865814209e-01 -3.579824045300483704e-02
6.090000000000000000e+02 3.570013046264648438e+01 3.276216888427734375e+01 -1.081405162811279297e+00 6.175956875085830688e-02 -3.058936595916748047e-01 -6.714592128992080688e-02
6.100000000000000000e+02 3.349495315551757812e+01 3.319614410400390625e+01 -8.664538860321044922e-01 6.017512828111648560e-02 -2.418836206197738647e-01 -9.911431372165679932e-02
6.110000000000000000e+02 7.805813598632812500e+01 -9.689005851745605469e+00 -7.973164319992065430e-03 9.275323867797851562e+00 2.780205011367797852e+00 -8.546593785285949707e-02
6.120000000000000000e+02 7.936034393310546875e+01 -5.562819004058837891e+00 -2.168626990169286728e-03 9.304057121276855469e+00 2.790566444396972656e+00 -5.166406929492950439e-02
6.130000000000000000e+02 7.287178039550781250e+01 2.215255737304687500e+00 -1.307338178157806396e-01 8.137259483337402344e+00 2.401957750320434570e+00 -5.301533341407775879e-01
6.140000000000000000e+02 6.764516448974609375e+01 1.122574615478515625e+01 -3.540323078632354736e-01 7.804589271545410156e+00 2.235167026519775391e+00 -1.044392347335815430e+00
6.150000000000000000e+02 5.832912063598632812e+01 1.819087028503417969e+01 -5.624561905860900879e-01 8.723161697387695312e+00 2.448211669921875000e+00 -8.270967602729797363e-01
6.160000000000000000e+02 4.885409164428710938e+01 2.789679908752441406e+01 8.890553116798400879e-01 1.149790477752685547e+01 3.716088056564331055e+00 3.894529342651367188e+00
6.170000000000000000e+02 4.407855987548828125e+01 3.072814559936523438e+01 6.153962016105651855e-01 2.151671946048736572e-01 2.491690218448638916e-01 7.612097263336181641e-01
6.180000000000000000e+02 4.159587478637695312e+01 3.166874122619628906e+01 -1.157046198844909668e+00 4.385121911764144897e-02 -3.339585065841674805e-01 1.228296533226966858e-01
6.190000000000000000e+02 3.939162063598632812e+01 3.206686019897460938e+01 -1.295320391654968262e+00 5.159196257591247559e-02 -3.731185197830200195e-01 2.726091630756855011e-02
6.200000000000000000e+02 7.808924865722656250e+01 -2.789746761322021484e+00 -9.700003080070018768e-03 8.956124305725097656e+00 2.683927297592163086e+00 -1.401100754737854004e-01
6.210000000000000000e+02 7.934145355224609375e+01 2.782798290252685547e+00 -3.740997985005378723e-03 8.684175491333007812e+00 2.604130268096923828e+00 -8.520082384347915649e-02
6.220000000000000000e+02 7.275700378417968750e+01 1.052090835571289062e+01 -1.480977535247802734e-01 7.686586856842041016e+00 2.261546850204467773e+00 -8.341396450996398926e-01
6.230000000000000000e+02 6.641436767578125000e+01 1.481434726715087891e+01 -3.294949233531951904e-01 7.874104976654052734e+00 2.263382911682128906e+00 -1.208599328994750977e+00
6.240000000000000000e+02 5.449220275878906250e+01 2.924712944030761719e+01 2.959177255630493164e+00 1.144476699829101562e+01 4.321183204650878906e+00 -1.058318495750427246e+00
6.250000000000000000e+02 4.904209136962890625e+01 2.974801826477050781e+01 1.857756257057189941e+00 1.539759254455566406e+01 5.176604747772216797e+00 4.540054321289062500e+00
6.260000000000000000e+02 4.859691238403320312e+01 3.040789985656738281e+01 3.393764495849609375e+00 1.458916473388671875e+01 5.394878864288330078e+00 7.746606349945068359e+00
6.270000000000000000e+02 4.534125137329101562e+01 3.100343894958496094e+01 1.145129323005676270e+00 3.349418044090270996e-01 4.440213441848754883e-01 1.187786221504211426e+00
6.280000000000000000e+02 7.798105621337890625e+01 4.173316955566406250e+00 -1.590496115386486053e-02 8.403542518615722656e+00 2.516291141510009766e+00 -2.285128384828567505e-01
6.290000000000000000e+02 7.932194519042968750e+01 8.389312744140625000e+00 -3.057254012674093246e-03 8.026702880859375000e+00 2.407093763351440430e+00 -1.138672828674316406e-01
6.300000000000000000e+02 7.297560119628906250e+01 1.704217720031738281e+01 -6.822736561298370361e-02 7.173016071319580078e+00 2.131436586380004883e+00 -1.002713799476623535e+00
6.310000000000000000e+02 6.702037811279296875e+01 2.528939628601074219e+01 4.261160194873809814e-01 7.604545593261718750e+00 2.409198522567749023e+00 -1.266361474990844727e+00
6.320000000000000000e+02 5.113991928100585938e+01 3.215694427490234375e+01 9.959714889526367188e+00 1.572090435028076172e+01 7.704185962677001953e+00 1.075013995170593262e+00
6.330000000000000000e+02 5.072164535522460938e+01 3.140200805664062500e+01 8.968245506286621094e+00 1.747289657592773438e+01 7.932342529296875000e+00 -1.120357990264892578e+00
6.340000000000000000e+02 7.803377532958984375e+01 1.128535366058349609e+01 -1.091299578547477722e-02 7.569110393524169922e+00 2.267459154129028320e+00 -3.200793862342834473e-01
6.350000000000000000e+02 7.934918212890625000e+01 1.676403617858886719e+01 -4.785934463143348694e-03 6.621246337890625000e+00 1.984938144683837891e+00 -1.416476964950561523e-01
6.360000000000000000e+02 7.257672882080078125e+01 2.272294235229492188e+01 7.906294614076614380e-02 6.751791477203369141e+00 2.049256324768066406e+00 -1.046974658966064453e+00
6.370000000000000000e+02 6.275053787231445312e+01 2.897840118408203125e+01 1.232391953468322754e+00 8.540132522583007812e+00 2.931757450103759766e+00 -9.854462146759033203e-01
6.380000000000000000e+02 5.133403015136718750e+01 3.800591278076171875e+01 -1.222926497459411621e+00 1.333953285217285156e+01 3.634982109069824219e+00 2.454563975334167480e-03
6.390000000000000000e+02 4.920086288452148438e+01 3.513967132568359375e+01 -7.189164757728576660e-01 1.447442817687988281e+01 4.126653671264648438e+00 -2.555107116699218750e+00
6.400000000000000000e+02 4.425385284423828125e+01 3.598983383178710938e+01 2.643730938434600830e-01 9.935103654861450195e-01 3.773650228977203369e-01 -6.917183995246887207e-01
6.410000000000000000e+02 4.225278854370117188e+01 3.521830368041992188e+01 -1.125005483627319336e+00 2.953426912426948547e-02 -3.286413550376892090e-01 4.567870795726776123e-01
6.420000000000000000e+02 4.094128417968750000e+01 3.571441268920898438e+01 -8.515506386756896973e-01 -6.500588357448577881e-02 -2.749669551849365234e-01 6.421216726303100586e-01
6.430000000000000000e+02 3.832543182373046875e+01 3.703472137451171875e+01 -2.802581489086151123e-01 -2.540988028049468994e-01 -1.603070795536041260e-01 5.542827844619750977e-01
6.440000000000000000e+02 3.654344558715820312e+01 3.648363494873046875e+01 -4.901129007339477539e-01 -2.235061079263687134e-01 -2.140857130289077759e-01 5.039295554161071777e-01
6.450000000000000000e+02 3.583679962158203125e+01 3.675743865966796875e+01 -3.574962019920349121e-01 -2.463749498128890991e-01 -1.811613440513610840e-01 4.571086764335632324e-01
6.460000000000000000e+02 3.191500282287597656e+01 3.746500778198242188e+01 -1.225148215889930725e-01 -1.194243282079696655e-01 -7.258174568414688110e-02 2.064911127090454102e-01
6.470000000000000000e+02 7.803369903564453125e+01 1.962776374816894531e+01 3.111823229119181633e-03 6.238229751586914062e+00 1.872402429580688477e+00 -3.892817199230194092e-01
6.480000000000000000e+02 7.933922576904296875e+01 2.373031234741210938e+01 8.245877921581268311e-03 5.240004539489746094e+00 1.574475049972534180e+00 -1.401874572038650513e-01
6.490000000000000000e+02 6.238668441772460938e+01 4.081981277465820312e+01 3.605250120162963867e-01 9.493719100952148438e+00 2.956273317337036133e+00 9.001847356557846069e-02
6.500000000000000000e+02 5.763993835449218750e+01 4.118289947509765625e+01 -3.512946665287017822e-01 1.169143390655517578e+01 3.402041912078857422e+00 3.141053915023803711e-01
6.510000000000000000e+02 7.671303558349609375e+01 2.247842216491699219e+01 1.350538525730371475e-02 6.010057449340820312e+00 1.807068824768066406e+00 -5.914525389671325684e-01
6.520000000000000000e+02 7.932495880126953125e+01 2.932765388488769531e+01 5.828752182424068451e-03 4.299476146697998047e+00 1.291591525077819824e+00 -9.889868646860122681e-02
6.530000000000000000e+02 7.140107727050781250e+01 3.734888839721679688e+01 2.880194485187530518e-01 6.331825256347656250e+00 1.985953450202941895e+00 -2.813126146793365479e-01
6.540000000000000000e+02 7.922848510742187500e+01 3.215912628173828125e+01 6.503940559923648834e-03 3.966273307800292969e+00 1.191833138465881348e+00 -8.302938938140869141e-02
6.550000000000000000e+02 7.917652130126953125e+01 3.745034027099609375e+01 -8.689813315868377686e-03 3.649010658264160156e+00 1.092096209526062012e+00 -3.207820118404924870e-04
6.560000000000000000e+02 7.634200286865234375e+01 3.797882080078125000e+01 1.743094623088836670e-01 4.694177627563476562e+00 1.460546135902404785e+00 -1.017146930098533630e-01
6.570000000000000000e+02 2.974771118164062500e+01 3.764427947998046875e+01 -4.263797402381896973e-02 -8.312296867370605469e-02 -3.772828355431556702e-02 7.677228748798370361e-02
6.580000000000000000e+02 2.677207565307617188e+01 3.814698410034179688e+01 -6.389439105987548828e-03 -2.750042267143726349e-02 -1.016695890575647354e-02 2.095608785748481750e-02
6.590000000000000000e+02 2.246313095092773438e+01 3.841506195068359375e+01 2.815969754010438919e-03 2.529972931370139122e-03 1.603782875463366508e-03 -5.868435837328433990e-03
6.600000000000000000e+02 2.214665603637695312e+01 3.937266921997070312e+01 -1.537262694910168648e-03 -6.139146280474960804e-04 -6.453531677834689617e-04 9.677468333393335342e-04
6.610000000000000000e+02 1.939245796203613281e+01 3.771989822387695312e+01 8.422506041824817657e-03 4.218181857140734792e-05 2.539406297728419304e-03 -2.771888626739382744e-03
6.620000000000000000e+02 1.935070395469665527e+00 2.617941093444824219e+01 9.255402837879955769e-04 -2.502773168089333922e-05 2.701537741813808680e-04 7.054030720610171556e-05
6.630000000000000000e+02 1.997368454933166504e+00 3.037726402282714844e+01 -8.906197035685181618e-04 -4.590570461004972458e-05 -2.809576108120381832e-04 -1.514228933956474066e-04
6.640000000000000000e+02 4.304509639739990234e+00 3.774655914306640625e+01 -2.263945352751761675e-04 6.951216346351429820e-05 -4.706471372628584504e-05 3.022758464794605970e-04
6.650000000000000000e+02 1.998645305633544922e+00 4.163084793090820312e+01 6.417268887162208557e-04 -2.020685788011178374e-04 1.318974973401054740e-04 2.015745994867756963e-04
6.660000000000000000e+02 1.382884597778320312e+01 3.800872802734375000e+01 3.221825929358601570e-03 3.649894206319004297e-04 1.076044631190598011e-03 -1.120463479310274124e-03
6.670000000000000000e+02 1.300972461700439453e+01 3.397646713256835938e+01 -1.051724189892411232e-03 -8.748988038860261440e-04 -5.779868806712329388e-04 3.586011880543082952e-04
6.680000000000000000e+02 1.464122295379638672e+01 2.295296096801757812e+01 1.272549852728843689e-03 2.859245978470426053e-05 3.903426695615053177e-04 -4.885722955805249512e-05
6.690000000000000000e+02 1.442411136627197266e+01 1.742347526550292969e+01 8.946392335928976536e-04 -2.937385761470068246e-05 2.595796249806880951e-04 -4.384725980344228446e-05
6.700000000000000000e+02 1.454618930816650391e+01 1.043474960327148438e+01 -5.577304400503635406e-04 -8.758313924772664905e-06 -1.699466229183599353e-04 -9.763371053850278258e-06
6.710000000000000000e+02 1.368165016174316406e+01 1.818682909011840820e+00 -6.928042421350255609e-05 -2.822646820277441293e-05 -2.925206899817567319e-05 -6.851061334600672126e-05
6.720000000000000000e+02 1.317471885681152344e+01 1.765848636627197266e+00 2.826988202286884189e-05 8.258024172391742468e-05 3.325503712403587997e-05 4.285208706278353930e-05
6.730000000000000000e+02 6.620261669158935547e-01 3.465347290039062500e+01 -8.284474024549126625e-04 -1.697708503343164921e-04 -2.994654641952365637e-04 1.842527271946892142e-04
6.740000000000000000e+02 6.439254879951477051e-01 2.762945175170898438e+01 8.249027305282652378e-04 -2.149490501324180514e-05 2.410223532933741808e-04 2.372768540226388723e-05
6.750000000000000000e+02 6.662616133689880371e-01 2.054829788208007812e+01 -7.613723282702267170e-04 1.183212816613377072e-06 -2.280567277921363711e-04 1.779283411451615393e-05
6.760000000000000000e+02 1.787080764770507812e+00 1.621603965759277344e+01 -7.474020821973681450e-04 4.692270522355102003e-05 -2.101438149111345410e-04 1.488456910010427237e-04
6.770000000000000000e+02 1.218408870697021484e+01 1.166525077819824219e+01 4.463577934075146914e-04 1.214148287544958293e-04 1.703317830106243491e-04 2.026655565714463592e-04
6.780000000000000000e+02 1.288839435577392578e+01 1.612657165527343750e+01 8.710228139534592628e-04 -5.670840255334042013e-05 2.442943223286420107e-04 -1.089250326913315803e-05
6.790000000000000000e+02 1.195514774322509766e+01 1.914147567749023438e+01 -9.294247138313949108e-04 4.129797525820322335e-05 -2.664380299393087626e-04 7.413685671053826809e-05
6.800000000000000000e+02 1.354392147064208984e+01 2.439393806457519531e+01 1.240341807715594769e-03 1.287160703213885427e-04 4.107173590455204248e-04 4.166394501226022840e-05
6.810000000000000000e+02 1.364453697204589844e+01 2.570779037475585938e+01 -1.343789976090192795e-03 -1.998433144763112068e-04 -4.630899929907172918e-04 -2.155723195755854249e-04
6.820000000000000000e+02 1.239844989776611328e+01 2.927041625976562500e+01 -1.425758353434503078e-03 -2.207863872172310948e-05 -4.343510954640805721e-04 -6.070966483093798161e-04
6.830000000000000000e+02 6.072499155998229980e-01 1.489248847961425781e+01 -6.715826457366347313e-04 -2.702406391108524986e-06 -2.022855042014271021e-04 8.281458576675504446e-05
6.840000000000000000e+02 1.730518817901611328e+00 9.166742324829101562e+00 4.243494768161326647e-04 1.099068595067365095e-05 1.306020421907305717e-04 -3.513529736665077507e-05
6.850000000000000000e+02 8.918735504150390625e+00 2.615195274353027344e+00 -1.414324069628491998e-04 -5.235361822997219861e-05 -5.813580719404853880e-05 -3.423011730774305761e-05
6.860000000000000000e+02 9.653246879577636719e+00 1.864268541336059570e+00 -1.225584273925051093e-04 -2.773568667180370539e-05 -4.508823258220218122e-05 -5.866407263965811580e-06
6.870000000000000000e+02 1.118044614791870117e+00 3.778331041336059570e+00 -1.047008117893710732e-04 9.380851406604051590e-05 -3.267690090069663711e-06 -2.235441061202436686e-04
6.880000000000000000e+02 5.371382832527160645e-01 6.404387950897216797e+00 -3.278355870861560106e-04 -3.039512375835329294e-05 -1.074692190741188824e-04 1.314877651203971709e-09
6.890000000000000000e+02 3.673427581787109375e+00 3.678768634796142578e+00 -2.897710073739290237e-04 -3.341662522871047258e-05 -9.695629705674946308e-05 4.957685814588330686e-05
6.900000000000000000e+02 1.342264080047607422e+01 1.043022632598876953e+01 5.010729655623435974e-04 4.259805427864193916e-05 1.631013001315295696e-04 8.080258703557774425e-05
6.910000000000000000e+02 1.449237537384033203e+01 2.020359802246093750e+01 1.080524525605142117e-03 1.609147329872939736e-05 3.289848100394010544e-04 -9.336567018181085587e-05
6.920000000000000000e+02 1.534060955047607422e+01 3.118633651733398438e+01 2.518595196306705475e-03 -2.166585618397220969e-04 6.905809859745204449e-04 -1.436446327716112137e-04
6.930000000000000000e+02 1.522288513183593750e+01 2.977799034118652344e+01 -2.576722763478755951e-03 2.749182749539613724e-05 -7.647692691534757614e-04 -1.848349493229761720e-04
6.940000000000000000e+02 1.804631042480468750e+01 3.773160171508789062e+01 3.895694389939308167e-03 -2.840521279722452164e-03 3.165519447065889835e-04 1.049754675477743149e-03
6.950000000000000000e+02 1.821414756774902344e+01 3.920776367187500000e+01 7.977098226547241211e-03 4.744666512124240398e-04 2.535469364374876022e-03 -2.323398133739829063e-03
6.960000000000000000e+02 1.202263641357421875e+01 4.125294876098632812e+01 1.610631472431123257e-03 5.508029717020690441e-04 6.484303157776594162e-04 1.566169899888336658e-03
6.970000000000000000e+02 1.971028137207031250e+01 3.787215042114257812e+01 8.651259355247020721e-03 3.079465590417385101e-03 3.519217483699321747e-03 -3.223141655325889587e-03
6.980000000000000000e+02 2.096619796752929688e+01 3.815133285522460938e+01 4.004759248346090317e-03 1.867751590907573700e-03 1.761753228493034840e-03 -4.556580912321805954e-03
6.990000000000000000e+02 4.425708007812500000e+01 3.504427337646484375e+01 -4.711411595344543457e-01 4.943555593490600586e-01 6.964324507862329483e-03 -3.236183822154998779e-01
7.000000000000000000e+02 4.655113983154296875e+01 3.424784088134765625e+01 6.612695455551147461e-01 2.179086446762084961e+00 8.521067500114440918e-01 -1.976703524589538574e+00
7.010000000000000000e+02 4.977090835571289062e+01 3.446214675903320312e+01 -2.716447710990905762e-01 1.769174003601074219e+01 5.226028442382812500e+00 -5.446000099182128906e-01
7.020000000000000000e+02 5.049697875976562500e+01 3.325503158569335938e+01 5.820973873138427734e+00 1.952369499206542969e+01 7.603400707244873047e+00 3.889019012451171875e+00
7.030000000000000000e+02 3.222091674804687500e+01 2.934117126464843750e+01 -1.296498179435729980e-01 1.364949792623519897e-01 2.053546952083706856e-03 -3.516148030757904053e-01
7.040000000000000000e+02 2.663304138183593750e+01 2.462244606018066406e+01 1.153328567743301392e-01 -1.487772166728973389e-01 -1.003330945968627930e-02 -2.865168750286102295e-01
7.050000000000000000e+02 3.731627655029296875e+01 2.909165000915527344e+01 1.174658536911010742e-01 2.635347545146942139e-01 1.143001765012741089e-01 -8.287811279296875000e-02
7.060000000000000000e+02 4.489753341674804688e+01 2.957348060607910156e+01 2.306556463241577148e+00 1.319749236106872559e+00 1.087891697883605957e+00 2.183371543884277344e+00
7.070000000000000000e+02 4.848402023315429688e+01 2.864565086364746094e+01 1.469283819198608398e+00 1.143523025512695312e+01 3.871354103088378906e+00 4.843545436859130859e+00
7.080000000000000000e+02 6.603285217285156250e+01 2.407306861877441406e+01 3.620137572288513184e-01 7.838891983032226562e+00 2.460271835327148438e+00 -1.355519771575927734e+00
7.090000000000000000e+02 7.265130615234375000e+01 2.424949264526367188e+01 1.229495927691459656e-01 6.617456912994384766e+00 2.022121906280517578e+00 -1.008891344070434570e+00
7.100000000000000000e+02 7.103572082519531250e+01 3.215904235839843750e+01 4.163444638252258301e-01 6.572722434997558594e+00 2.096719980239868164e+00 -6.018961071968078613e-01
7.110000000000000000e+02 6.205238342285156250e+01 3.315306472778320312e+01 1.424852490425109863e+00 8.959214210510253906e+00 3.115220069885253906e+00 -2.105116397142410278e-01
7.120000000000000000e+02 5.300196075439453125e+01 3.296583557128906250e+01 5.213951587677001953e+00 1.288769435882568359e+01 5.430493831634521484e+00 1.758854508399963379e+00
7.130000000000000000e+02 5.053921890258789062e+01 3.505115890502929688e+01 -3.634007573127746582e-01 1.685659217834472656e+01 4.947957515716552734e+00 7.778841257095336914e-01
7.140000000000000000e+02 3.343580627441406250e+01 1.571994400024414062e+01 3.796755969524383545e-01 1.359854578971862793e+00 5.218590497970581055e-01 5.140208601951599121e-01
7.150000000000000000e+02 3.371211242675781250e+01 1.669304847717285156e+01 4.372569918632507324e-01 1.333453536033630371e+00 5.312131643295288086e-01 5.144364237785339355e-01
7.160000000000000000e+02 4.202210617065429688e+01 2.191603660583496094e+01 9.768436551094055176e-01 3.182119131088256836e+00 1.247688770294189453e+00 1.772777915000915527e+00
7.170000000000000000e+02 5.055749130249023438e+01 2.164017677307128906e+01 -4.856028854846954346e-01 8.925581932067871094e+00 2.531993865966796875e+00 1.256332397460937500e+00
7.180000000000000000e+02 5.948653793334960938e+01 1.944840049743652344e+01 -3.702047169208526611e-01 8.802110671997070312e+00 2.529571771621704102e+00 -1.058992743492126465e+00
7.190000000000000000e+02 6.459958648681640625e+01 1.858851242065429688e+01 -1.983814090490341187e-01 8.113029479980468750e+00 2.374394655227661133e+00 -1.336139440536499023e+00
7.200000000000000000e+02 7.288523101806640625e+01 1.837998771667480469e+01 -3.810626640915870667e-02 7.067889690399169922e+00 2.108934879302978516e+00 -1.033504486083984375e+00
7.210000000000000000e+02 2.730069732666015625e+01 1.655536079406738281e+01 1.750574558973312378e-01 1.114147379994392395e-01 8.594165742397308350e-02 8.835832774639129639e-02
7.220000000000000000e+02 2.715248489379882812e+01 1.233509635925292969e+01 9.903867542743682861e-02 2.605948150157928467e-01 1.078900471329689026e-01 2.182887345552444458e-01
7.230000000000000000e+02 2.588836288452148438e+01 4.222876548767089844e+00 -8.383113890886306763e-03 3.232665657997131348e-01 9.446503967046737671e-02 2.509876489639282227e-01
7.240000000000000000e+02 2.592840576171875000e+01 2.893624067306518555e+00 -1.071676891297101974e-02 3.891525864601135254e-01 1.135307401418685913e-01 2.484738677740097046e-01
7.250000000000000000e+02 3.397284317016601562e+01 5.242232799530029297e+00 -4.624926298856735229e-02 2.097362518310546875e+00 6.153339147567749023e-01 5.345324873924255371e-01
7.260000000000000000e+02 3.305097579956054688e+01 6.610267639160156250e+00 6.233726628124713898e-03 1.807193994522094727e+00 5.440283417701721191e-01 5.270962119102478027e-01
7.270000000000000000e+02 3.427534866333007812e+01 1.087637996673583984e+01 1.367087215185165405e-01 1.908170223236083984e+00 6.134636998176574707e-01 6.116701960563659668e-01
7.280000000000000000e+02 2.835751533508300781e+01 9.384411811828613281e+00 6.376656889915466309e-02 6.490604877471923828e-01 2.138481140136718750e-01 3.244628906250000000e-01
7.290000000000000000e+02 3.866540527343750000e+01 1.246794891357421875e+01 1.267931908369064331e-01 3.046322107315063477e+00 9.519346356391906738e-01 8.977537155151367188e-01
7.300000000000000000e+02 5.055807495117187500e+01 1.413168048858642578e+01 -6.950497031211853027e-01 7.095304489135742188e+00 1.920076489448547363e+00 6.199265122413635254e-01
7.310000000000000000e+02 5.866527557373046875e+01 7.733731746673583984e+00 -7.150350213050842285e-01 7.500123977661132812e+00 2.035526752471923828e+00 -4.788169562816619873e-01
7.320000000000000000e+02 6.659642791748046875e+01 1.051748275756835938e+01 -4.117462635040283203e-01 7.835553169250488281e+00 2.227142095565795898e+00 -1.011181116104125977e+00
7.330000000000000000e+02 7.254952239990234375e+01 9.263820648193359375e+00 -1.598803550004959106e-01 7.768543720245361328e+00 2.282598972320556641e+00 -7.996625304222106934e-01
7.340000000000000000e+02 2.106006431579589844e+01 1.839327239990234375e+01 4.167390055954456329e-03 -1.131033897399902344e+00 -3.380599617958068848e-01 -1.188343390822410583e-02
7.350000000000000000e+02 2.106114006042480469e+01 1.698178672790527344e+01 4.521580878645181656e-03 -1.154872655868530273e+00 -3.451052904129028320e-01 -2.168830716982483864e-03
7.360000000000000000e+02 2.106269073486328125e+01 9.934536933898925781e+00 3.423059824854135513e-04 -1.013724207878112793e+00 -3.040145933628082275e-01 2.859339490532875061e-02
7.370000000000000000e+02 2.101640892028808594e+01 4.286219120025634766e+00 -1.238281652331352234e-02 -7.734108567237854004e-01 -2.357380986213684082e-01 7.575508207082748413e-04
7.380000000000000000e+02 2.105289840698242188e+01 5.703430652618408203e+00 -6.865664850920438766e-03 -8.414629101753234863e-01 -2.544985711574554443e-01 2.274296246469020844e-02
7.390000000000000000e+02 4.697724151611328125e+01 9.060950875282287598e-01 -4.877027571201324463e-01 5.093944072723388672e+00 1.381872415542602539e+00 3.257499933242797852e-01
7.400000000000000000e+02 4.738279724121093750e+01 4.510395526885986328e+00 -5.388616323471069336e-01 5.373582839965820312e+00 1.450416445732116699e+00 4.375485777854919434e-01
7.410000000000000000e+02 5.895652770996093750e+01 3.078213930130004883e-01 -5.606868863105773926e-01 7.029786109924316406e+00 1.940729737281799316e+00 -3.383467197418212891e-01
7.420000000000000000e+02 6.629483032226562500e+01 2.288655281066894531e+00 -3.777543902397155762e-01 7.728891372680664062e+00 2.205341100692749023e+00 -6.421373486518859863e-01
7.430000000000000000e+02 7.087311553955078125e+01 4.301628112792968750e+00 -2.198796719312667847e-01 7.950255393981933594e+00 2.319112777709960938e+00 -6.814480423927307129e-01
7.440000000000000000e+02 2.106118392944335938e+01 1.275180149078369141e+01 1.171509618870913982e-03 -1.111034870147705078e+00 -3.329590260982513428e-01 2.035699784755706787e-02
7.450000000000000000e+02 4.050644302368164062e+01 1.485168933868408203e+00 -2.896586060523986816e-01 3.693261146545410156e+00 1.021080732345581055e+00 5.087555050849914551e-01
7.460000000000000000e+02 5.926178359985351562e+01 -4.372899055480957031e+00 -4.377935528755187988e-01 6.887189865112304688e+00 1.934818863868713379e+00 -2.807195186614990234e-01
7.470000000000000000e+02 5.716273498535156250e+01 -5.740330219268798828e+00 -4.411300718784332275e-01 6.540587425231933594e+00 1.829837203025817871e+00 -1.820594221353530884e-01
7.480000000000000000e+02 7.031404113769531250e+01 -2.991448163986206055e+00 -1.786839962005615234e-01 8.076295852661132812e+00 2.369283437728881836e+00 -4.434299170970916748e-01
7.490000000000000000e+02 2.925285148620605469e+01 -3.346353530883789062e+00 -5.976659804582595825e-02 1.268772721290588379e+00 3.627018332481384277e-01 2.918699979782104492e-01
7.500000000000000000e+02 2.707607078552246094e+01 -8.404953956604003906e+00 -3.220222145318984985e-02 9.587545394897460938e-01 2.779656946659088135e-01 1.849784404039382935e-01
7.510000000000000000e+02 4.565076065063476562e+01 -2.485043334960937500e+01 -1.387507021427154541e-01 4.329579353332519531e+00 1.257248520851135254e+00 4.728431254625320435e-02
7.520000000000000000e+02 5.183196640014648438e+01 -3.433938598632812500e+01 -7.191871106624603271e-02 5.310050010681152344e+00 1.571439385414123535e+00 1.998956315219402313e-03
7.530000000000000000e+02 5.888425064086914062e+01 -3.334054946899414062e+01 -8.051566779613494873e-02 6.429434299468994141e+00 1.904675602912902832e+00 -2.587046660482883453e-02
7.540000000000000000e+02 3.583561706542968750e+01 -2.248076677322387695e+00 -1.618717014789581299e-01 2.642885208129882812e+00 7.443040013313293457e-01 4.115596115589141846e-01
7.550000000000000000e+02 3.536204910278320312e+01 -1.131838035583496094e+01 -1.500087827444076538e-01 2.593149662017822266e+00 7.329422831535339355e-01 2.371496707201004028e-01
7.560000000000000000e+02 4.325337982177734375e+01 -1.559873867034912109e+01 -2.159552127122879028e-01 4.017523288726806641e+00 1.140470504760742188e+00 1.240832507610321045e-01
7.570000000000000000e+02 5.072878265380859375e+01 -2.156103324890136719e+01 -1.921240836381912231e-01 5.205264568328857422e+00 1.503942131996154785e+00 8.143740706145763397e-03
7.580000000000000000e+02 5.418641662597656250e+01 -2.743559837341308594e+01 -1.293906569480895996e-01 5.743934631347656250e+00 1.684363126754760742e+00 -2.471771836280822754e-02
7.590000000000000000e+02 4.222179031372070312e+01 -1.838961958885192871e+00 -3.352175056934356689e-01 4.024554729461669922e+00 1.106801271438598633e+00 3.822583556175231934e-01
7.600000000000000000e+02 4.347762298583984375e+01 -7.428267002105712891e+00 -3.222144246101379395e-01 4.168397426605224609e+00 1.153854846954345703e+00 2.411013543605804443e-01
7.610000000000000000e+02 4.977420806884765625e+01 -1.580003166198730469e+01 -2.596352100372314453e-01 5.151272296905517578e+00 1.467491149902343750e+00 3.133605048060417175e-02
7.620000000000000000e+02 6.038358688354492188e+01 -1.738031387329101562e+01 -1.919828951358795166e-01 6.786420345306396484e+00 1.978331208229064941e+00 -1.294684261083602905e-01
7.630000000000000000e+02 6.739022827148437500e+01 -1.192831325531005859e+01 -1.594423800706863403e-01 7.799870967864990234e+00 2.292128562927246094e+00 -2.512491643428802490e-01
7.640000000000000000e+02 6.605949401855468750e+01 -1.118811893463134766e+01 -1.944042295217514038e-01 7.616001605987548828e+00 2.226479291915893555e+00 -2.633877694606781006e-01
7.650000000000000000e+02 7.155414581298828125e+01 -1.119165802001953125e+01 -9.059070795774459839e-02 8.359500885009765625e+00 2.480673074722290039e+00 -2.300038039684295654e-01
7.660000000000000000e+02 2.860441589355468750e+01 -1.208645725250244141e+01 -4.623886942863464355e-02 1.314958691596984863e+00 3.806159198284149170e-01 1.686803549528121948e-01
7.670000000000000000e+02 2.730126953125000000e+01 -1.651010704040527344e+01 -2.786726877093315125e-02 1.128239393234252930e+00 3.301116228103637695e-01 1.093975827097892761e-01
7.680000000000000000e+02 3.945538711547851562e+01 -2.086234474182128906e+01 -1.316047012805938721e-01 3.313729763031005859e+00 9.546375274658203125e-01 1.079144626855850220e-01
7.690000000000000000e+02 4.009647369384765625e+01 -3.326548767089843750e+01 -6.483817100524902344e-02 3.366030931472778320e+00 9.903578162193298340e-01 3.444340080022811890e-02
7.700000000000000000e+02 5.154155349731445312e+01 -3.106843757629394531e+01 -1.003394052386283875e-01 5.270946979522705078e+00 1.551182270050048828e+00 -8.200450800359249115e-03
7.710000000000000000e+02 3.568535232543945312e+01 -9.328123092651367188e+00 -1.461802124977111816e-01 2.660170793533325195e+00 7.541971802711486816e-01 2.756233811378479004e-01
7.720000000000000000e+02 4.567717742919921875e+01 -6.974722862243652344e+00 -3.622378110885620117e-01 4.623417854309082031e+00 1.278354048728942871e+00 1.970792710781097412e-01
7.730000000000000000e+02 5.418188095092773438e+01 -1.138795948028564453e+01 -3.303074836730957031e-01 5.950249671936035156e+00 1.685982584953308105e+00 -7.177353650331497192e-02
7.740000000000000000e+02 7.241239929199218750e+01 -1.867325019836425781e+01 -4.314894974231719971e-02 8.597645759582519531e+00 2.566349029541015625e+00 -1.192941889166831970e-01
7.750000000000000000e+02 7.100997924804687500e+01 -1.803667640686035156e+01 -6.051120907068252563e-02 8.363469123840332031e+00 2.490887403488159180e+00 -1.385911554098129272e-01
7.760000000000000000e+02 2.007719802856445312e+01 -1.535940837860107422e+01 -4.101778322365134954e-04 -1.044207885861396790e-01 -3.144928812980651855e-02 -1.454855548217892647e-03
7.770000000000000000e+02 2.877549552917480469e+01 -1.641888046264648438e+01 -3.857890889048576355e-02 1.404110431671142578e+00 4.096594452857971191e-01 1.322964727878570557e-01
7.780000000000000000e+02 3.693624496459960938e+01 -1.682033157348632812e+01 -1.330807656049728394e-01 2.835669279098510742e+00 8.107765316963195801e-01 1.385144889354705811e-01
7.790000000000000000e+02 4.662569046020507812e+01 -1.770556259155273438e+01 -2.197474092245101929e-01 4.560534954071044922e+00 1.302236318588256836e+00 7.228437811136245728e-02
7.800000000000000000e+02 5.443039321899414062e+01 -1.927323341369628906e+01 -1.997298151254653931e-01 5.829827785491943359e+00 1.689029335975646973e+00 -4.714124277234077454e-02
7.810000000000000000e+02 2.662403488159179688e+01 -2.644095993041992188e+01 -2.444732747972011566e-02 1.117250084877014160e+00 3.278408050537109375e-01 3.925865516066551208e-02
7.820000000000000000e+02 3.727079772949218750e+01 -2.474414443969726562e+01 -8.776577562093734741e-02 2.896534442901611328e+00 8.426306247711181641e-01 8.570227771997451782e-02
7.830000000000000000e+02 4.126033782958984375e+01 -3.004128456115722656e+01 -7.773884385824203491e-02 3.558639764785766602e+00 1.044270277023315430e+00 4.030377790331840515e-02
7.840000000000000000e+02 5.118875885009765625e+01 -2.804895591735839844e+01 -1.266547739505767822e-01 5.219610691070556641e+00 1.527886748313903809e+00 -5.551189533434808254e-04
7.850000000000000000e+02 6.538975524902343750e+01 -2.846295738220214844e+01 -5.847134068608283997e-02 7.550307273864746094e+00 2.247550725936889648e+00 -5.330664664506912231e-02
7.860000000000000000e+02 3.213833236694335938e+01 -3.501008987426757812e+01 -3.626603633165359497e-02 2.023277997970581055e+00 5.961035490036010742e-01 5.127009749412536621e-02
7.870000000000000000e+02 6.523976135253906250e+01 -3.238168716430664062e+01 -4.300085455179214478e-02 7.530562877655029297e+00 2.246268510818481445e+00 -4.335429146885871887e-02
7.880000000000000000e+02 7.427832031250000000e+01 -3.322274780273437500e+01 -1.725271157920360565e-02 8.977592468261718750e+00 2.688101768493652344e+00 -1.529158372431993484e-02
7.890000000000000000e+02 1.146767139434814453e+01 -3.066934585571289062e+01 1.613209722563624382e-03 2.846002578735351562e-03 1.337763620540499687e-03 -2.694056136533617973e-03
7.900000000000000000e+02 1.446710109710693359e+01 -1.767699050903320312e+01 1.443575252778828144e-03 7.256711251102387905e-05 4.548426950350403786e-04 -2.827277057804167271e-04
7.910000000000000000e+02 1.196944522857666016e+01 -1.716940689086914062e+01 1.124892616644501686e-03 3.405038733035326004e-04 4.396189469844102859e-04 -4.684947198256850243e-04
7.920000000000000000e+02 1.455087089538574219e+01 -1.071171188354492188e+01 -8.793132728897035122e-04 -1.526620326330885291e-05 -2.683738421183079481e-04 4.739659198094159365e-05
7.930000000000000000e+02 1.228408145904541016e+01 -1.050725173950195312e+01 -8.349464624188840389e-04 -1.002764984150417149e-04 -2.805668918881565332e-04 1.065310862031765282e-04
7.940000000000000000e+02 5.846634507179260254e-01 -1.069788265228271484e+01 -8.792745065875351429e-04 -9.851723007159307599e-06 -2.667378867045044899e-04 1.889218219730537385e-05
7.950000000000000000e+02 1.349510478973388672e+01 9.099407196044921875e+00 -4.425243532750755548e-04 -4.184382487437687814e-05 -1.453104487154632807e-04 -4.457761315279640257e-05
7.960000000000000000e+02 2.623818969726562500e+01 3.434237289428710938e+01 -2.096361219882965088e-01 8.014066144824028015e-03 -6.048661470413208008e-02 -1.120317950844764709e-01
7.970000000000000000e+02 2.469879913330078125e+01 3.443389511108398438e+01 -1.206414327025413513e-01 -1.202464569360017776e-02 -3.979982435703277588e-02 -8.941986411809921265e-02
7.980000000000000000e+02 2.094930076599121094e+01 2.964257621765136719e+01 -2.728842198848724365e-03 -2.934927046298980713e-01 -8.886646479368209839e-02 -4.510652646422386169e-02
7.990000000000000000e+02 2.097323799133300781e+01 2.824925613403320312e+01 -1.042310730554163456e-03 -4.250770509243011475e-01 -1.278358101844787598e-01 -5.050394684076309204e-02
8.000000000000000000e+02 2.220080757141113281e+01 2.412041091918945312e+01 1.516830641776323318e-02 -6.493251323699951172e-01 -1.902470439672470093e-01 -1.350042074918746948e-01
8.010000000000000000e+02 2.102517700195312500e+01 2.403177452087402344e+01 2.166846767067909241e-03 -8.227609395980834961e-01 -2.461782246828079224e-01 -4.654731228947639465e-02
8.020000000000000000e+02 2.104831314086914062e+01 2.121259307861328125e+01 3.688239725306630135e-03 -1.018710851669311523e+00 -3.045068085193634033e-01 -3.035452589392662048e-02
8.030000000000000000e+02 2.231017303466796875e+01 1.559377765655517578e+01 1.887079328298568726e-02 -8.606582880020141602e-01 -2.525362372398376465e-01 1.460623089224100113e-02
8.040000000000000000e+02 2.106065750122070312e+01 1.557036113739013672e+01 3.113410435616970062e-03 -1.158275127410888672e+00 -3.465484976768493652e-01 6.371381226927042007e-03
8.050000000000000000e+02 2.106051635742187500e+01 1.416042041778564453e+01 4.014894831925630569e-03 -1.142639875411987305e+00 -3.415874838829040527e-01 1.448047440499067307e-02
8.060000000000000000e+02 2.231018447875976562e+01 1.135094356536865234e+01 8.271981962025165558e-03 -7.670877575874328613e-01 -2.276447415351867676e-01 6.686800718307495117e-02
8.070000000000000000e+02 2.106181526184082031e+01 8.525381088256835938e+00 4.792251565959304571e-04 -9.543454647064208984e-01 -2.861598730087280273e-01 2.967096306383609772e-02
8.080000000000000000e+02 2.105836105346679688e+01 7.115971088409423828e+00 -3.813160219579003751e-05 -8.918750286102294922e-01 -2.675739526748657227e-01 3.033973276615142822e-02
8.090000000000000000e+02 2.225160026550292969e+01 4.258855342864990234e+00 -1.751372404396533966e-02 -4.624016880989074707e-01 -1.439746171236038208e-01 8.209129422903060913e-02
8.100000000000000000e+02 2.092746925354003906e+01 2.872668504714965820e+00 -4.171643871814012527e-03 -6.667490005493164062e-01 -2.012761980295181274e-01 -1.639042608439922333e-02
8.110000000000000000e+02 2.081032752990722656e+01 1.469332098960876465e+00 3.873077919706702232e-03 -5.586011409759521484e-01 -1.664184182882308960e-01 -1.362437475472688675e-02
8.120000000000000000e+02 2.071815109252929688e+01 7.111564278602600098e-02 8.909915573894977570e-03 -4.884133636951446533e-01 -1.438510417938232422e-01 5.628966027870774269e-04
8.130000000000000000e+02 2.048281478881835938e+01 -4.138664722442626953e+00 3.567221341654658318e-03 -3.418850898742675781e-01 -1.014953628182411194e-01 -1.620775787159800529e-03
8.140000000000000000e+02 2.196288299560546875e+01 -2.795132398605346680e+00 -2.340456470847129822e-03 -1.505646705627441406e-01 -4.587153717875480652e-02 6.593951582908630371e-02
8.150000000000000000e+02 2.034079170227050781e+01 -8.334558486938476562e+00 -2.289798430865630507e-04 -2.382550686597824097e-01 -7.154521346092224121e-02 1.412821374833583832e-02
8.160000000000000000e+02 2.022779083251953125e+01 -1.254629325866699219e+01 -2.057779929600656033e-04 -1.472963541746139526e-01 -4.425064101815223694e-02 7.654621265828609467e-03
8.170000000000000000e+02 2.026941871643066406e+01 -1.114319896697998047e+01 4.778533184435218573e-04 -1.732071340084075928e-01 -5.181878060102462769e-02 7.759486325085163116e-03
8.180000000000000000e+02 2.156260299682617188e+01 -1.255751132965087891e+01 -2.583234570920467377e-03 7.413508743047714233e-02 2.146555669605731964e-02 3.538991883397102356e-02
8.190000000000000000e+02 1.979758453369140625e+01 -1.957203865051269531e+01 1.253801630809903145e-03 -6.253638118505477905e-02 -1.838477328419685364e-02 3.010149113833904266e-03
8.200000000000000000e+02 2.133413887023925781e+01 -1.819330787658691406e+01 2.364468993619084358e-03 1.516840606927871704e-01 4.621455818414688110e-02 2.572210691869258881e-02
8.210000000000000000e+02 1.974584388732910156e+01 -2.239901542663574219e+01 -9.353315108455717564e-04 -4.590887576341629028e-02 -1.405326183885335922e-02 2.905434463173151016e-03
8.220000000000000000e+02 1.963552474975585938e+01 -2.657625007629394531e+01 -3.460328793153166771e-03 -3.473235294222831726e-02 -1.145780459046363831e-02 4.678139812313020229e-04
8.230000000000000000e+02 1.966242599487304688e+01 -2.518871307373046875e+01 2.218901179730892181e-03 -3.659608215093612671e-02 -1.031315419822931290e-02 1.493083429522812366e-03
8.240000000000000000e+02 1.960477447509765625e+01 -2.937738227844238281e+01 -2.916056197136640549e-03 -3.729087486863136292e-02 -1.206207927316427231e-02 -1.369627541862428188e-03
8.250000000000000000e+02 1.960320472717285156e+01 -3.218848037719726562e+01 -7.494824938476085663e-03 -3.987594321370124817e-02 -1.421123091131448746e-02 -2.140599535778164864e-03
8.260000000000000000e+02 2.247286987304687500e+01 -3.394929885864257812e+01 -2.445376664400100708e-02 4.566541612148284912e-01 1.296601146459579468e-01 -4.442462697625160217e-03
8.270000000000000000e+02 1.429566287994384766e+01 -3.165993118286132812e+01 6.293070968240499496e-03 7.877361495047807693e-04 2.124242251738905907e-03 -1.866396400146186352e-03
8.280000000000000000e+02 1.453033828735351562e+01 -2.753294944763183594e+01 -4.302164074033498764e-03 -2.826522686518728733e-04 -1.375444815494120121e-03 7.776854909025132656e-04
8.290000000000000000e+02 1.338568973541259766e+01 -2.735659027099609375e+01 3.436949802562594414e-03 8.032353944145143032e-04 1.272055553272366524e-03 -9.970699902623891830e-04
8.300000000000000000e+02 1.308056163787841797e+01 -2.349384307861328125e+01 -2.532829996198415756e-03 1.429250551154837012e-04 -7.169715245254337788e-04 1.977748761419206858e-04
8.310000000000000000e+02 1.442048454284667969e+01 -2.339346885681152344e+01 3.203218569979071617e-03 -8.356112084584310651e-05 9.358972311019897461e-04 -2.285174850840121508e-04
8.320000000000000000e+02 1.428654479980468750e+01 -2.049206924438476562e+01 1.813236274756491184e-03 1.188794922200031579e-04 5.796347395516932011e-04 -3.724594425875693560e-04
8.330000000000000000e+02 1.320022106170654297e+01 -1.745102691650390625e+01 -1.281619537621736526e-03 -2.104601881001144648e-04 -4.476239264477044344e-04 4.263782175257802010e-04
8.340000000000000000e+02 1.449683380126953125e+01 -1.628931427001953125e+01 -1.273046596907079220e-03 -5.296196468407288194e-05 -3.978025924880057573e-04 2.107718319166451693e-04
8.350000000000000000e+02 1.457715702056884766e+01 -9.320258140563964844e+00 8.248586091212928295e-04 4.104146853478596313e-07 2.475806977599859238e-04 -2.499725997040513903e-05
8.360000000000000000e+02 1.253943729400634766e+01 -1.913020372390747070e+00 -1.526036066934466362e-04 -1.316245034104213119e-04 -8.526843157596886158e-05 6.204374949447810650e-05
8.370000000000000000e+02 1.297484302520751953e+01 -2.810876369476318359e+00 -1.239668781636282802e-04 -3.032503009308129549e-04 -1.281651493627578020e-04 2.288253599544987082e-04
8.380000000000000000e+02 1.428085041046142578e+01 -2.025106668472290039e+00 7.252136856550350785e-05 6.158601172501221299e-05 4.023221481475047767e-05 8.162999438354745507e-05
8.390000000000000000e+02 1.372747611999511719e+01 -2.032169580459594727e+00 -3.222569357603788376e-04 3.229255889891646802e-05 -8.698931924300268292e-05 4.187635931884869933e-05
8.400000000000000000e+02 1.316871166229248047e+01 -1.974614620208740234e+00 2.363947714911773801e-04 1.297384878853335977e-04 1.098399807233363390e-04 -1.892007712740451097e-04
8.410000000000000000e+02 1.182247447967529297e+01 -1.885526895523071289e+00 1.964871335076168180e-04 1.006382008199580014e-04 8.913759666029363871e-05 -4.521682421909645200e-05
8.420000000000000000e+02 9.593750000000000000e+00 -1.864816069602966309e+00 -1.576857321197167039e-04 -1.423956127837300301e-04 -9.002440492622554302e-05 5.728136966354213655e-05
8.430000000000000000e+02 1.034787464141845703e+01 -1.865274667739868164e+00 1.704796595731750131e-04 1.357228175038471818e-04 9.186074021272361279e-05 -8.999481360660865903e-05
8.440000000000000000e+02 8.829991340637207031e+00 -1.869155168533325195e+00 1.589177845744416118e-04 1.405043876729905605e-04 8.982664439827203751e-05 -3.503590050968341529e-05
8.450000000000000000e+02 7.296160697937011719e+00 -1.874824643135070801e+00 1.509301364421844482e-04 1.278775016544386744e-04 8.364229142898693681e-05 3.139764157822355628e-05
8.460000000000000000e+02 5.770583152770996094e+00 -1.872347474098205566e+00 1.199175603687763214e-04 9.179370681522414088e-05 6.351337651722133160e-05 7.136913336580619216e-05
8.470000000000000000e+02 3.514044046401977539e+00 -1.917638301849365234e+00 -5.424820483312942088e-05 7.297349657164886594e-05 5.617586793960072100e-06 3.597132831600902136e-07
8.480000000000000000e+02 5.016932487487792969e+00 -1.870484709739685059e+00 -8.227476791944354773e-05 -2.916451740020420402e-05 -3.343178832437843084e-05 6.771829703211551532e-06
8.490000000000000000e+02 4.357796669006347656e+00 -2.627217531204223633e+00 -1.698811392998322845e-04 -1.365165462630102411e-05 -5.505983790499158204e-05 4.203359640087001026e-05
8.500000000000000000e+02 2.759440898895263672e+00 -1.994653701782226562e+00 -1.980606975848786533e-05 2.355715514568146318e-05 1.125325525208609179e-06 -2.915433105954434723e-05
8.510000000000000000e+02 1.999480009078979492e+00 -2.097366809844970703e+00 -6.857035623397678137e-05 -7.570041634608060122e-05 -4.328123031882569194e-05 -1.086258816940244287e-05
8.520000000000000000e+02 1.219698429107666016e+00 -2.177592754364013672e+00 4.238131514284759760e-04 3.329361061332747340e-05 1.371320249745622277e-04 5.464863716042600572e-05
8.530000000000000000e+02 2.005826473236083984e+00 -4.164480972290039062e+01 -5.695934523828327656e-04 2.249765442684292793e-03 5.040515679866075516e-04 1.904184027807787061e-04
8.540000000000000000e+02 3.304632902145385742e+00 -3.919104385375976562e+01 -2.101380145177245140e-03 1.172259100712835789e-03 -2.787362900562584400e-04 -3.267422725912183523e-04
8.550000000000000000e+02 8.965626955032348633e-01 -3.874686813354492188e+01 -2.246662043035030365e-03 2.173075219616293907e-03 -2.207604484283365309e-05 -2.947642642538994551e-04
8.560000000000000000e+02 7.035611867904663086e-01 -3.465625000000000000e+01 9.093327098526060581e-04 1.590677537024021149e-03 7.500030333176255226e-04 5.503589054569602013e-04
8.570000000000000000e+02 7.059179544448852539e-01 -3.325562667846679688e+01 -4.092694725841283798e-04 9.056022972799837589e-04 1.488998386776074767e-04 4.785849887412041426e-05
8.580000000000000000e+02 6.790818572044372559e-01 -2.901884651184082031e+01 5.563363665714859962e-04 1.988664298551157117e-04 2.265608345624059439e-04 -5.209075243328697979e-05
8.590000000000000000e+02 6.674234271049499512e-01 -2.760588836669921875e+01 -7.332725799642503262e-04 5.598715142696164548e-05 -2.031856274697929621e-04 1.470604038331657648e-04
8.600000000000000000e+02 6.568989753723144531e-01 -2.619750976562500000e+01 9.428943740203976631e-04 1.057995723385829479e-05 2.860422828234732151e-04 -6.580802437383681536e-05
8.610000000000000000e+02 6.387686133384704590e-01 -2.198371124267578125e+01 -1.247004722245037556e-03 -5.355082248570397496e-05 -3.901666786987334490e-04 3.244639447075314820e-05
8.620000000000000000e+02 6.345302462577819824e-01 -2.058139038085937500e+01 1.250974019058048725e-03 -1.383177095704013482e-05 3.711426688823848963e-04 -2.923274041677359492e-05
8.630000000000000000e+02 1.894739389419555664e+00 -2.057891464233398438e+01 -1.313328160904347897e-03 -4.425238148542121053e-05 -4.072741721756756306e-04 8.819599315756931901e-05
8.640000000000000000e+02 6.252243518829345703e-01 -1.635128021240234375e+01 -1.077816355973482132e-03 -2.967750333482399583e-05 -3.322481643408536911e-04 1.721847729641012847e-05
8.650000000000000000e+02 6.190129518508911133e-01 -1.493908309936523438e+01 1.020355033688247204e-03 1.381227502861293033e-05 3.102501796092838049e-04 -2.708155443542636931e-05
8.660000000000000000e+02 6.108734607696533203e-01 -1.352592754364013672e+01 -9.734621853567659855e-04 -1.771638562786392868e-05 -2.973535738419741392e-04 2.871729702746961266e-05
8.670000000000000000e+02 1.824842572212219238e+00 -1.354227924346923828e+01 9.702955721877515316e-04 3.349584949319250882e-05 3.011374210473150015e-04 -5.285850056679919362e-05
8.680000000000000000e+02 5.690185427665710449e-01 -9.285881996154785156e+00 8.217059657908976078e-04 5.515121301868930459e-06 2.481663250364363194e-04 -1.347243869531666860e-05
8.690000000000000000e+02 5.533228516578674316e-01 -7.876043319702148438e+00 -7.510026334784924984e-04 -7.134828138077864423e-06 -2.274412399856373668e-04 7.825366083125118166e-06
8.700000000000000000e+02 5.402641892433166504e-01 -6.463864326477050781e+00 6.732603069394826889e-04 1.611513107491191477e-05 2.068126341328024864e-04 -1.217437602463178337e-05
8.710000000000000000e+02 7.480567932128906250e+01 -4.010295867919921875e+01 1.763450913131237030e-02 9.116096496582031250e+00 2.740119457244873047e+00 -4.350249841809272766e-02
8.720000000000000000e+02 5.213338088989257812e+01 -3.767901992797851562e+01 -7.008702307939529419e-02 5.364102363586425781e+00 1.588204622268676758e+00 2.685757819563150406e-03
8.730000000000000000e+02 3.274244689941406250e+01 -4.078790664672851562e+01 -1.990653946995735168e-02 2.156460046768188477e+00 6.409660577774047852e-01 5.821336060762405396e-03
8.740000000000000000e+02 1.135234355926513672e+01 -3.911424255371093750e+01 -9.527754969894886017e-03 -2.487543039023876190e-03 -3.604589262977242470e-03 -7.579800207167863846e-03
8.750000000000000000e+02 7.584357452392578125e+01 4.032048797607421875e+01 4.883527755737304688e-02 4.547959327697753906e+00 1.379038453102111816e+00 -2.031152099370956421e-01
8.760000000000000000e+02 7.805692291259765625e+01 4.173663330078125000e+01 -2.090410739183425903e-01 3.954046249389648438e+00 1.123501539230346680e+00 5.826358497142791748e-02
8.770000000000000000e+02 7.879586791992187500e+01 3.877353668212890625e+01 8.231843262910842896e-02 3.723244190216064453e+00 1.141668796539306641e+00 7.528265565633773804e-02
8.780000000000000000e+02 7.783583068847656250e+01 3.661889266967773438e+01 4.645587131381034851e-02 4.259641647338867188e+00 1.291829228401184082e+00 -1.334818005561828613e-01
8.790000000000000000e+02 7.920471954345703125e+01 3.493269348144531250e+01 3.026338480412960052e-02 3.715981006622314453e+00 1.123873233795166016e+00 -5.941845476627349854e-02
8.800000000000000000e+02 7.759185791015625000e+01 3.375973510742187500e+01 3.730129450559616089e-02 4.484407424926757812e+00 1.356512665748596191e+00 -1.871626675128936768e-01
8.810000000000000000e+02 7.920599365234375000e+01 3.355466842651367188e+01 -3.178724087774753571e-03 3.833791732788085938e+00 1.149183869361877441e+00 -7.873732596635818481e-02
8.820000000000000000e+02 7.928770446777343750e+01 3.074149513244628906e+01 2.301591914147138596e-03 4.119670867919921875e+00 1.236591696739196777e+00 -9.037008881568908691e-02
8.830000000000000000e+02 7.674168395996093750e+01 2.814857482910156250e+01 6.495433300733566284e-02 5.238922119140625000e+00 1.591162919998168945e+00 -4.729031324386596680e-01
8.840000000000000000e+02 7.933755493164062500e+01 2.652751159667968750e+01 1.273249182850122452e-02 4.724723815917968750e+00 1.421236872673034668e+00 -1.232522875070571899e-01
8.850000000000000000e+02 7.671951293945312500e+01 2.529889297485351562e+01 3.990129753947257996e-02 5.617935180664062500e+00 1.697350978851318359e+00 -5.515816807746887207e-01
8.860000000000000000e+02 7.933766937255859375e+01 2.512834358215332031e+01 -1.692618126980960369e-03 4.974571704864501953e+00 1.491863727569580078e+00 -1.331244707107543945e-01
8.870000000000000000e+02 7.934178161621093750e+01 2.094251060485839844e+01 5.317137110978364944e-03 5.794078826904296875e+00 1.739818811416625977e+00 -1.458723843097686768e-01
8.880000000000000000e+02 7.934362792968750000e+01 1.954978179931640625e+01 -4.122039303183555603e-03 6.073351860046386719e+00 1.820768952369689941e+00 -1.457336843013763428e-01
8.890000000000000000e+02 7.934617614746093750e+01 1.815702056884765625e+01 3.280944656580686569e-03 6.349854469299316406e+00 1.905940532684326172e+00 -1.446010172367095947e-01
8.900000000000000000e+02 7.935274505615234375e+01 1.397935962677001953e+01 -4.842964466661214828e-03 7.138973712921142578e+00 2.140239238739013672e+00 -1.335479319095611572e-01
8.910000000000000000e+02 7.935103607177734375e+01 1.258662509918212891e+01 7.353167748078703880e-04 7.381560325622558594e+00 2.214688777923583984e+00 -1.287873089313507080e-01
8.920000000000000000e+02 7.934453582763671875e+01 1.119172763824462891e+01 -3.958067391067743301e-03 7.611791610717773438e+00 2.282350063323974609e+00 -1.242945045232772827e-01
8.930000000000000000e+02 7.931538391113281250e+01 6.986372470855712891e+00 -2.993209986016154289e-03 8.211406707763671875e+00 2.462524175643920898e+00 -1.071054786443710327e-01
8.940000000000000000e+02 7.931695556640625000e+01 5.584867000579833984e+00 -2.912512514740228653e-03 8.381371498107910156e+00 2.513537645339965820e+00 -1.005717292428016663e-01
8.950000000000000000e+02 7.932765960693359375e+01 4.183467388153076172e+00 -3.606388345360755920e-03 8.539028167724609375e+00 2.560626506805419922e+00 -9.337244927883148193e-02
8.960000000000000000e+02 7.935997009277343750e+01 -5.551666021347045898e-03 -2.934064948931336403e-03 8.935561180114746094e+00 2.679788112640380859e+00 -7.144027203321456909e-02
8.970000000000000000e+02 7.936270141601562500e+01 -1.396422028541564941e+00 -1.914496999233961105e-03 9.043043136596679688e+00 2.712338447570800781e+00 -6.578335911035537720e-02
8.980000000000000000e+02 7.808348846435546875e+01 -4.167044162750244141e+00 -9.716324508190155029e-03 9.034761428833007812e+00 2.707513332366943359e+00 -1.279805302619934082e-01
8.990000000000000000e+02 7.936212158203125000e+01 -4.174312591552734375e+00 -1.525165396742522717e-03 9.226389884948730469e+00 2.767459392547607422e+00 -5.594633892178535461e-02
9.000000000000000000e+02 7.935530090332031250e+01 -8.338766098022460938e+00 -1.992612844333052635e-03 9.434375762939453125e+00 2.829715013504028320e+00 -4.346735030412673950e-02
9.010000000000000000e+02 7.805863952636718750e+01 -1.107536315917968750e+01 -6.437447387725114822e-03 9.320922851562500000e+00 2.794345617294311523e+00 -7.696474343538284302e-02
9.020000000000000000e+02 7.935327148437500000e+01 -1.112003707885742188e+01 -2.075671451166272163e-03 9.535709381103515625e+00 2.860090017318725586e+00 -3.625200688838958740e-02
9.030000000000000000e+02 7.935241699218750000e+01 -1.529105186462402344e+01 9.264353138860315084e-05 9.647379875183105469e+00 2.894241809844970703e+00 -2.812819369137287140e-02
9.040000000000000000e+02 7.800320434570312500e+01 -1.800958824157714844e+01 -6.532913073897361755e-03 9.471767425537109375e+00 2.839570522308349609e+00 -4.501254484057426453e-02
9.050000000000000000e+02 7.933424377441406250e+01 -1.808133506774902344e+01 -2.803094139380846173e-05 9.699228286743164062e+00 2.909760236740112305e+00 -2.265556342899799347e-02
9.060000000000000000e+02 7.929254150390625000e+01 -2.367373847961425781e+01 3.425547154620289803e-03 9.769657135009765625e+00 2.931924819946289062e+00 -1.865193806588649750e-02
9.070000000000000000e+02 7.784859466552734375e+01 -2.507036781311035156e+01 -8.455353963654488325e-05 9.534142494201660156e+00 2.860217571258544922e+00 -3.281994163990020752e-02
9.080000000000000000e+02 7.928804016113281250e+01 -2.507497406005859375e+01 -5.928894970566034317e-03 9.785461425781250000e+00 2.933859825134277344e+00 -1.607752405107021332e-02
9.090000000000000000e+02 7.931745910644531250e+01 -2.925220870971679688e+01 3.218247322365641594e-03 9.821030616760253906e+00 2.947274684906005859e+00 -9.290129877626895905e-03
9.100000000000000000e+02 7.805526733398437500e+01 -3.194346809387207031e+01 -5.805500317364931107e-03 9.606061935424804688e+00 2.880076885223388672e+00 -1.819902844727039337e-02
9.110000000000000000e+02 7.935726928710937500e+01 -3.200261306762695312e+01 -7.989883422851562500e-03 9.842398643493652344e+00 2.950322389602661133e+00 -6.751640699803829193e-03
9.120000000000000000e+02 7.935071563720703125e+01 -3.605854797363281250e+01 5.603231023997068405e-03 9.806215286254882812e+00 2.943545579910278320e+00 8.024339564144611359e-03
9.130000000000000000e+02 7.923276519775390625e+01 -3.736634445190429688e+01 -1.873250491917133331e-02 9.755284309387207031e+00 2.920965671539306641e+00 2.921102568507194519e-02
9.140000000000000000e+02 7.897882080078125000e+01 -3.865341949462890625e+01 6.601558998227119446e-03 9.703387260437011719e+00 2.912996530532836914e+00 2.983205206692218781e-02
9.150000000000000000e+02 7.859150695800781250e+01 -4.000801467895507812e+01 -2.253871783614158630e-02 9.647442817687988281e+00 2.887471199035644531e+00 4.956787079572677612e-02
9.160000000000000000e+02 4.797092914581298828e+00 4.046557998657226562e+01 -1.043654046952724457e-03 -5.114282248541712761e-05 -3.284390550106763840e-04 4.488595586735755205e-04
9.170000000000000000e+02 2.744796180725097656e+01 3.802304458618164062e+01 -1.857223361730575562e-02 -1.393252797424793243e-02 -9.751428849995136261e-03 3.471454977989196777e-02
9.180000000000000000e+02 4.719272613525390625e+01 3.666073608398437500e+01 3.030839264392852783e-01 6.336851119995117188e+00 1.991980433464050293e+00 -2.591688871383666992e+00
9.190000000000000000e+02 6.730145263671875000e+01 4.066921234130859375e+01 4.314730763435363770e-01 7.823400497436523438e+00 2.476462125778198242e+00 -2.579030580818653107e-02
9.200000000000000000e+02 6.754795908927917480e-01 3.014461994171142578e+00 1.824242062866687775e-04 -4.269893543096259236e-05 4.191758125671185553e-05 2.608218346722424030e-04
9.210000000000000000e+02 3.094987392425537109e+00 2.724814414978027344e+00 -1.975636696442961693e-04 -9.397857502335682511e-05 -8.746267849346622825e-05 -1.193116077047307044e-05
9.220000000000000000e+02 5.259279251098632812e+00 2.676553010940551758e+00 1.031897845678031445e-04 1.038884220179170370e-04 6.212345761014148593e-05 -5.135747414897195995e-05
9.230000000000000000e+02 1.645164132118225098e+00 6.280455589294433594e+00 3.285798593424260616e-04 5.508962203748524189e-05 1.151008400483988225e-04 -2.620502709760330617e-05
9.240000000000000000e+02 5.787343978881835938e-01 9.238987922668457031e+00 -3.731864562723785639e-04 -3.791348490267409943e-06 -1.130933451349847019e-04 2.929418587882537395e-05
9.250000000000000000e+02 6.058185696601867676e-01 1.206914043426513672e+01 -4.757447750307619572e-04 -1.541427809570450336e-05 -1.473477168474346399e-04 4.803876799996942282e-05
9.260000000000000000e+02 1.815949440002441406e+00 1.200171279907226562e+01 4.749695654027163982e-04 4.988587534171529114e-05 1.574566267663612962e-04 -6.522394687635824084e-05
9.270000000000000000e+02 6.038916707038879395e-01 1.629958343505859375e+01 7.543017272837460041e-04 -2.600121433715685271e-06 2.255104918731376529e-04 -7.011658453848212957e-05
9.280000000000000000e+02 1.847930312156677246e+00 1.757339477539062500e+01 8.537769899703562260e-04 -7.703051960561424494e-05 2.330239512957632542e-04 -6.325986760202795267e-05
9.290000000000000000e+02 6.210142374038696289e-01 1.770430755615234375e+01 -7.932825246825814247e-04 4.655299107980681583e-06 -2.365881664445623755e-04 5.154922837391495705e-05
9.300000000000000000e+02 6.645830869674682617e-01 2.197961807250976562e+01 7.771069649606943130e-04 1.150422576756682247e-06 2.334772143512964249e-04 -9.993984349421225488e-06
9.310000000000000000e+02 6.573699116706848145e-01 2.339912223815917969e+01 -8.127829642035067081e-04 -5.388453246268909425e-06 -2.454514324199408293e-04 8.172416528395842761e-06
9.320000000000000000e+02 1.969733834266662598e+00 2.337850189208984375e+01 8.965636370703577995e-04 1.631768782317521982e-07 2.690180554054677486e-04 3.738324812729842961e-05
9.330000000000000000e+02 6.503396034240722656e-01 2.480950164794921875e+01 8.397558704018592834e-04 -1.666205889705452137e-06 2.514268853701651096e-04 -3.044438926735892892e-06
9.340000000000000000e+02 6.489741802215576172e-01 2.904004859924316406e+01 -7.720728171989321709e-04 -1.973288271983619779e-05 -2.375417097937315702e-04 -3.328575621708296239e-05
9.350000000000000000e+02 6.581512093544006348e-01 3.044821739196777344e+01 6.977199227549135685e-04 -2.659498568391427398e-05 2.013374760281294584e-04 4.660198101191781461e-05
9.360000000000000000e+02 2.034786939620971680e+00 3.177026176452636719e+01 8.213177206926047802e-04 5.654559936374425888e-05 2.633589901961386204e-04 1.428805699106305838e-04
9.370000000000000000e+02 6.665388941764831543e-01 3.185319900512695312e+01 -6.389621412381529808e-04 -7.587439176859334111e-05 -2.144509635400027037e-04 -7.588370408484479412e-06
9.380000000000000000e+02 6.570771336555480957e-01 3.603456878662109375e+01 1.152741839177906513e-03 7.116468623280525208e-05 3.671719459816813469e-04 -3.423824964556843042e-04
9.390000000000000000e+02 1.965966343879699707e+00 3.709929275512695312e+01 1.055912463925778866e-03 1.442121429136022925e-04 3.600373747758567333e-04 -5.824916879646480083e-04
9.400000000000000000e+02 8.648762702941894531e-01 3.872079467773437500e+01 1.588929793797433376e-03 5.251998663879930973e-05 4.924349486827850342e-04 -4.116675700061023235e-04
9.410000000000000000e+02 1.249116301536560059e+00 4.006863784790039062e+01 -1.359204645268619061e-03 -3.840202680294169113e-06 -4.089134454261511564e-04 2.280190528836101294e-04
9.420000000000000000e+02 1.038831615447998047e+01 1.848014950752258301e+00 1.265606115339323878e-04 1.725260335661005229e-05 4.314396210247650743e-05 -1.451136176910949871e-05
9.430000000000000000e+02 8.931362152099609375e+00 1.869876861572265625e+00 1.062899173120968044e-04 4.457106479094363749e-05 4.525829353951849043e-05 1.279760999750578776e-05
9.440000000000000000e+02 8.210406303405761719e+00 1.872809290885925293e+00 -9.439091081731021404e-05 -5.911055632168427110e-05 -4.605044159688986838e-05 -1.009965671983081847e-05
9.450000000000000000e+02 8.184390068054199219e+00 2.623924732208251953e+00 1.213275681948289275e-04 7.377215661108493805e-05 5.852991671417839825e-05 2.401550773356575519e-05
9.460000000000000000e+02 7.490825176239013672e+00 1.875414252281188965e+00 8.720657933736220002e-05 7.176761573646217585e-05 4.769225779455155134e-05 1.402782345394371077e-06
9.470000000000000000e+02 5.325958728790283203e+00 1.891232013702392578e+00 -8.308274846058338881e-05 -8.445727871730923653e-05 -5.026200960855931044e-05 4.400268153403885663e-05
9.480000000000000000e+02 4.603366851806640625e+00 1.901870846748352051e+00 1.041059731505811214e-04 7.610239845234900713e-05 5.406251148087903857e-05 -4.792345862369984388e-05
9.490000000000000000e+02 3.888090372085571289e+00 1.906048178672790527e+00 -1.364214695058763027e-04 -6.995728472247719765e-05 -6.191362626850605011e-05 3.605275560403242707e-05
9.500000000000000000e+02 3.184448480606079102e+00 1.897662401199340820e+00 1.591836771694943309e-04 6.544468487845733762e-05 6.738850788678973913e-05 -1.314329551860282663e-06
9.510000000000000000e+02 2.490898132324218750e+00 1.882936358451843262e+00 -1.336578425252810121e-04 -7.871577690821141005e-05 -6.371208291966468096e-05 -3.617563561419956386e-05
9.520000000000000000e+02 1.802635073661804199e+00 1.879063725471496582e+00 7.007271779002621770e-05 1.015230736811645329e-04 5.147873889654874802e-05 3.606154496083036065e-05
9.530000000000000000e+02 1.186600780487060547e+01 1.779354810714721680e+00 9.782143024494871497e-05 2.937363206001464278e-05 3.815851960098370910e-05 -4.441738201421685517e-05
9.540000000000000000e+02 1.435626888275146484e+01 2.978198289871215820e+00 -3.620564893935807049e-05 -6.354490324156358838e-05 -2.992516601807437837e-05 1.226302847499027848e-04
9.550000000000000000e+02 1.459696960449218750e+01 3.780389308929443359e+00 2.372383460169658065e-04 4.411184636410325766e-05 8.440505916951224208e-05 -6.475701229646801949e-05
9.560000000000000000e+02 1.479367828369140625e+01 2.011822223663330078e+00 -1.547124120406806469e-04 -3.387069591553881764e-05 -5.657493602484464645e-05 -1.173200053017353639e-05
9.570000000000000000e+02 1.461489486694335938e+01 6.344576835632324219e+00 3.961628826800733805e-04 1.607137892278842628e-05 1.236702810274437070e-04 -4.283423186279833317e-05
9.580000000000000000e+02 1.459828853607177734e+01 7.698753356933593750e+00 -4.496463807299733162e-04 -1.462101226934464648e-05 -1.392802078044041991e-04 2.644951382535509765e-05
9.590000000000000000e+02 1.457437992095947266e+01 9.063541412353515625e+00 5.015460774302482605e-04 1.186849112855270505e-05 1.540243829367682338e-04 -7.539490070485044271e-06
9.600000000000000000e+02 1.450869083404541016e+01 1.181333637237548828e+01 6.147497915662825108e-04 -2.653596993695828132e-06 1.836288574850186706e-04 1.611620245967060328e-05
9.610000000000000000e+02 1.445320224761962891e+01 1.320599269866943359e+01 -6.549216341227293015e-04 2.081302227452397346e-05 -1.902325748233124614e-04 3.722776227732538246e-06
9.620000000000000000e+02 1.439106941223144531e+01 1.461375617980957031e+01 6.939839222468435764e-04 7.435060069838073105e-06 2.104257000610232353e-04 -1.613186213944572955e-05
9.630000000000000000e+02 1.438086986541748047e+01 1.602170944213867188e+01 -7.825763314031064510e-04 1.652455694056698121e-06 -2.342771622352302074e-04 9.955904715752694756e-06
9.640000000000000000e+02 1.322722053527832031e+01 2.035235595703125000e+01 -1.009945990517735481e-03 -3.733043195097707212e-05 -3.141829511150717735e-04 1.084414470824413002e-04
9.650000000000000000e+02 1.455110359191894531e+01 2.157855796813964844e+01 -1.164869870990514755e-03 -1.213744872075039893e-05 -3.531022230163216591e-04 7.965890108607709408e-05
9.660000000000000000e+02 1.485244464874267578e+01 2.568573951721191406e+01 1.670965692028403282e-03 5.125633106217719615e-05 5.166666232980787754e-04 8.195840928237885237e-05
9.670000000000000000e+02 1.342850112915039062e+01 2.305660057067871094e+01 -1.156413694843649864e-03 -4.566486677504144609e-05 -3.606235841289162636e-04 3.098566958215087652e-05
9.680000000000000000e+02 1.495429801940917969e+01 2.704909324645996094e+01 -1.961556030437350273e-03 -3.822585858870297670e-05 -5.999345448799431324e-04 -1.657657121540978551e-04
9.690000000000000000e+02 1.508938694000244141e+01 2.841116905212402344e+01 2.288524294272065163e-03 1.773073199728969485e-05 6.918765138834714890e-04 2.118207921739667654e-04
9.700000000000000000e+02 1.571282196044921875e+01 3.262069320678710938e+01 -2.713602269068360329e-03 -1.532228343421593308e-04 -8.600475266575813293e-04 1.784938795026391745e-04
9.710000000000000000e+02 1.628602600097656250e+01 3.398855209350585938e+01 3.052324522286653519e-03 -3.120121546089649200e-04 8.220936870202422142e-04 -7.494201418012380600e-04
9.720000000000000000e+02 1.526355838775634766e+01 3.559143447875976562e+01 3.560223383828997612e-03 -2.125161408912390471e-04 1.004312187433242798e-03 -8.184466860257089138e-04
9.730000000000000000e+02 1.717277908325195312e+01 3.647053909301757812e+01 4.962216597050428391e-03 9.092633845284581184e-04 1.761444029398262501e-03 8.774634334258735180e-04
9.740000000000000000e+02 2.168467903137207031e+01 3.828416442871093750e+01 3.723830683156847954e-03 -2.635054523125290871e-03 3.266328421887010336e-04 -4.147896252106875181e-04
9.750000000000000000e+02 2.418631553649902344e+01 3.860345840454101562e+01 6.146575906313955784e-04 -3.984208684414625168e-03 -1.010865322314202785e-03 -6.015399936586618423e-03
9.760000000000000000e+02 2.330427169799804688e+01 3.852450180053710938e+01 -1.596418092958629131e-03 -3.288200125098228455e-03 -1.465385430492460728e-03 7.571977912448346615e-04
9.770000000000000000e+02 2.517811775207519531e+01 3.865886306762695312e+01 1.420786487869918346e-03 -2.072203904390335083e-02 -5.790375638753175735e-03 1.301568280905485153e-02
9.780000000000000000e+02 2.825173187255859375e+01 3.800812911987304688e+01 -2.351085469126701355e-02 -4.944092407822608948e-02 -2.188553474843502045e-02 4.807596653699874878e-02
9.790000000000000000e+02 2.905642700195312500e+01 3.787580108642578125e+01 -3.847961872816085815e-02 -3.405022993683815002e-02 -2.175895497202873230e-02 6.922252476215362549e-02
9.800000000000000000e+02 3.111787986755371094e+01 3.754344940185546875e+01 -8.208710700273513794e-02 -1.175974011421203613e-01 -5.990535020828247070e-02 1.465411782264709473e-01
9.810000000000000000e+02 3.339760589599609375e+01 3.727359390258789062e+01 -1.598087251186370850e-01 -1.738371551036834717e-01 -1.000937670469284058e-01 2.792419493198394775e-01
9.820000000000000000e+02 3.422064590454101562e+01 3.724739456176757812e+01 -2.092238962650299072e-01 -2.127427905797958374e-01 -1.265900135040283203e-01 3.413134813308715820e-01
9.830000000000000000e+02 3.644702529907226562e+01 3.785523605346679688e+01 -3.182873874902725220e-02 -3.178450167179107666e-01 -1.049021258950233459e-01 4.892320632934570312e-01
9.840000000000000000e+02 3.780522155761718750e+01 3.608856582641601562e+01 -7.035446166992187500e-01 -1.971068233251571655e-01 -2.701954245567321777e-01 5.414748787879943848e-01
9.850000000000000000e+02 3.932158279418945312e+01 3.611500930786132812e+01 -6.588145494461059570e-01 -2.047111988067626953e-01 -2.590577304363250732e-01 6.150404810905456543e-01
9.860000000000000000e+02 4.014950561523437500e+01 3.597615814208984375e+01 -7.051587700843811035e-01 -2.121649086475372314e-01 -2.751971185207366943e-01 6.360034346580505371e-01
9.870000000000000000e+02 4.294249343872070312e+01 3.514842605590820312e+01 -1.037685751914978027e+00 1.258004754781723022e-01 -2.735655903816223145e-01 2.236901223659515381e-01
9.880000000000000000e+02 4.360979461669921875e+01 3.508185958862304688e+01 -8.061543107032775879e-01 2.613510489463806152e-01 -1.634409874677658081e-01 3.551419451832771301e-02
9.890000000000000000e+02 4.489272308349609375e+01 3.490473556518554688e+01 -2.470339089632034302e-01 6.522362232208251953e-01 1.215606927871704102e-01 -5.096975564956665039e-01
9.900000000000000000e+02 4.546699142456054688e+01 3.466904830932617188e+01 -9.472972899675369263e-02 1.060023903846740723e+00 2.895882725715637207e-01 -8.693390488624572754e-01
9.910000000000000000e+02 4.599669647216796875e+01 3.447221755981445312e+01 2.893840968608856201e-01 1.295046210289001465e+00 4.753290712833404541e-01 -1.286695957183837891e+00
9.920000000000000000e+02 4.673576736450195312e+01 3.423149108886718750e+01 8.142523169517517090e-01 2.427827835083007812e+00 9.726240634918212891e-01 -2.285746097564697266e+00
9.930000000000000000e+02 4.816748046875000000e+01 3.407659530639648438e+01 1.190252900123596191e+00 9.640336036682128906e+00 3.249176502227783203e+00 -5.341275215148925781e+00
9.940000000000000000e+02 4.794379043579101562e+01 3.410070419311523438e+01 1.310588359832763672e+00 7.888766765594482422e+00 2.759806632995605469e+00 -5.099962711334228516e+00
9.950000000000000000e+02 4.855476760864257812e+01 3.395458602905273438e+01 6.430115103721618652e-01 1.410193920135498047e+01 4.423485279083251953e+00 -5.817950248718261719e+00
9.960000000000000000e+02 4.837168884277343750e+01 3.403094100952148438e+01 1.041229009628295898e+00 1.163997745513916016e+01 3.804362058639526367e+00 -5.365965366363525391e+00
9.970000000000000000e+02 4.893371582031250000e+01 3.388922882080078125e+01 7.862488925457000732e-02 1.750302124023437500e+01 5.274493694305419922e+00 -4.214277267456054688e+00
9.980000000000000000e+02 4.713787841796875000e+01 3.080442810058593750e+01 4.658420562744140625e+00 2.501671552658081055e+00 2.148027658462524414e+00 4.326150894165039062e+00
9.990000000000000000e+02 4.672843933105468750e+01 3.064187431335449219e+01 4.054932117462158203e+00 1.957141518592834473e+00 1.803622126579284668e+00 3.625231027603149414e+00
1.000000000000000000e+03 4.605902099609375000e+01 3.066032600402832031e+01 2.688137292861938477e+00 9.995877742767333984e-01 1.106317520141601562e+00 2.321152925491333008e+00
1.001000000000000000e+03 4.232005310058593750e+01 3.153679084777832031e+01 -1.003991127014160156e+00 3.470669314265251160e-02 -2.907853126525878906e-01 1.813571155071258545e-01
1.002000000000000000e+03 4.359075927734375000e+01 3.131935691833496094e+01 -4.478057324886322021e-01 5.315236374735832214e-02 -1.183960065245628357e-01 4.027478098869323730e-01
1.003000000000000000e+03 4.418371200561523438e+01 3.122171592712402344e+01 -1.833018809556961060e-01 5.853959918022155762e-02 -3.742868453264236450e-02 5.701357126235961914e-01
1.004000000000000000e+03 4.086313629150390625e+01 3.180085754394531250e+01 -1.250854015350341797e+00 4.617303237318992615e-02 -3.614042699337005615e-01 8.365472406148910522e-02
1.005000000000000000e+03 4.012804412841796875e+01 3.193400955200195312e+01 -1.286413788795471191e+00 5.806330963969230652e-02 -3.685051500797271729e-01 5.514853820204734802e-02
1.006000000000000000e+03 3.643695068359375000e+01 3.261621856689453125e+01 -1.143004775047302246e+00 5.380873009562492371e-02 -3.267588019371032715e-01 -5.221649259328842163e-02
1.007000000000000000e+03 3.791487121582031250e+01 3.233548736572265625e+01 -1.242117881774902344e+00 5.061523988842964172e-02 -3.574507832527160645e-01 -1.668151468038558960e-02
1.008000000000000000e+03 3.931480789184570312e+01 3.143223571777343750e+01 -8.882421255111694336e-01 9.439427405595779419e-02 -2.381543666124343872e-01 -2.602125145494937897e-02
1.009000000000000000e+03 3.496337127685546875e+01 3.290816879272460938e+01 -1.014977812767028809e+00 5.952466279268264771e-02 -2.866359651088714600e-01 -7.903657853603363037e-02
1.010000000000000000e+03 3.422763824462890625e+01 3.305339050292968750e+01 -9.411907196044921875e-01 6.523536890745162964e-02 -2.627865970134735107e-01 -8.869735151529312134e-02
1.011000000000000000e+03 3.130417251586914062e+01 3.361427307128906250e+01 -6.407316327095031738e-01 5.802753567695617676e-02 -1.748112291097640991e-01 -1.186396107077598572e-01
1.012000000000000000e+03 3.276434707641601562e+01 3.333648681640625000e+01 -7.902810573577880859e-01 6.354650855064392090e-02 -2.180203646421432495e-01 -1.072847321629524231e-01
1.013000000000000000e+03 2.912239265441894531e+01 3.398115539550781250e+01 -4.327452182769775391e-01 3.866491839289665222e-02 -1.182240843772888184e-01 -1.271740347146987915e-01
1.014000000000000000e+03 2.839616012573242188e+01 3.409299468994140625e+01 -3.703135251998901367e-01 3.447114303708076477e-02 -1.007527112960815430e-01 -1.259493976831436157e-01
1.015000000000000000e+03 2.767606163024902344e+01 3.418937301635742188e+01 -3.120543360710144043e-01 2.488986775279045105e-02 -8.614934235811233521e-02 -1.239956468343734741e-01
1.016000000000000000e+03 2.380796051025390625e+01 3.441949844360351562e+01 -7.971793413162231445e-02 -2.035043947398662567e-02 -3.002051077783107758e-02 -7.279215753078460693e-02
1.017000000000000000e+03 2.117735481262207031e+01 3.421850585937500000e+01 -9.352310560643672943e-03 -2.452234178781509399e-02 -1.016239542514085770e-02 -1.764210686087608337e-02
1.018000000000000000e+03 4.962237167358398438e+01 3.381111145019531250e+01 8.137938380241394043e-01 2.096397972106933594e+01 6.533332347869873047e+00 -2.344723641872406006e-01
1.019000000000000000e+03 4.773128890991210938e+01 3.412351226806640625e+01 1.415003776550292969e+00 6.282155036926269531e+00 2.309147596359252930e+00 -4.671234130859375000e+00
1.020000000000000000e+03 4.666040420532226562e+01 3.446186447143554688e+01 1.096035122871398926e+00 2.653261899948120117e+00 1.124789118766784668e+00 -2.323672294616699219e+00
1.021000000000000000e+03 4.635675048828125000e+01 3.433162689208984375e+01 5.365580916404724121e-01 1.947505116462707520e+00 7.452189922332763672e-01 -1.697624683380126953e+00
1.022000000000000000e+03 4.977993392944335938e+01 3.014882659912109375e+01 2.287084341049194336e+00 1.929226303100585938e+01 6.473804473876953125e+00 2.068768739700317383e+00
1.023000000000000000e+03 4.812205505371093750e+01 3.058965873718261719e+01 4.869073390960693359e+00 9.580002784729003906e+00 4.334722995758056641e+00 7.936456680297851562e+00
1.024000000000000000e+03 4.772248458862304688e+01 3.069235229492187500e+01 5.390735626220703125e+00 6.020768165588378906e+00 3.423451185226440430e+00 6.732578754425048828e+00
1.025000000000000000e+03 4.753002166748046875e+01 3.073582458496093750e+01 5.315129756927490234e+00 4.560890197753906250e+00 2.962805986404418945e+00 5.880190849304199219e+00
1.026000000000000000e+03 4.622703170776367188e+01 3.096647071838378906e+01 2.551395177841186523e+00 6.691806316375732422e-01 9.661727547645568848e-01 2.039311170578002930e+00
1.027000000000000000e+03 4.662602996826171875e+01 3.075612068176269531e+01 3.710291862487792969e+00 1.591206550598144531e+00 1.590449571609497070e+00 3.192195892333984375e+00
1.028000000000000000e+03 4.601533508300781250e+01 3.097197532653808594e+01 2.165540218353271484e+00 6.564599275588989258e-01 8.466000556945800781e-01 1.760262012481689453e+00
1.029000000000000000e+03 4.576533126831054688e+01 3.095458412170410156e+01 1.813939094543457031e+00 4.525650441646575928e-01 6.799512505531311035e-01 1.576978325843811035e+00
1.030000000000000000e+03 4.678605651855468750e+01 3.091219711303710938e+01 3.817284345626831055e+00 1.400976538658142090e+00 1.565478324890136719e+00 3.249514579772949219e+00
1.031000000000000000e+03 2.024708366394042969e+01 3.802505874633789062e+01 5.032277200371026993e-03 -6.927354261279106140e-04 1.301862532272934914e-03 -8.878158405423164368e-04
1.032000000000000000e+03 1.420568466186523438e+01 1.887214183807373047e+00 6.314735219348222017e-05 2.210549428127706051e-05 2.557585321483202279e-05 -1.398786207573721185e-05
1.033000000000000000e+03 1.257324695587158203e+01 1.750454187393188477e+00 -4.972854731022380292e-05 -5.272668204270303249e-05 -3.073656989727169275e-05 2.779650276352185756e-05
1.034000000000000000e+03 4.582035064697265625e+01 3.535934066772460938e+01 5.940170288085937500e-01 2.138679742813110352e+00 8.198090195655822754e-01 -1.833477735519409180e+00
1.035000000000000000e+03 4.531523132324218750e+01 3.578129577636718750e+01 4.826586544513702393e-01 2.081930160522460938e+00 7.693766355514526367e-01 -1.412634491920471191e+00
1.036000000000000000e+03 4.298588943481445312e+01 3.141912269592285156e+01 -7.398259639739990234e-01 2.812905423343181610e-02 -2.135090827941894531e-01 2.566786408424377441e-01
1.037000000000000000e+03 4.476817703247070312e+01 3.111974334716796875e+01 3.306393027305603027e-01 1.489664316177368164e-01 1.438817232847213745e-01 7.881050705909729004e-01
1.038000000000000000e+03 4.349193191528320312e+01 3.080971145629882812e+01 1.801647543907165527e-01 1.705003082752227783e-01 1.051995158195495605e-01 5.405461788177490234e-01
1.039000000000000000e+03 4.463655471801757812e+01 3.063575363159179688e+01 1.131484508514404297e+00 3.446530401706695557e-01 4.428412616252899170e-01 1.104050397872924805e+00
1.040000000000000000e+03 2.067253494262695312e+01 3.902043914794921875e+01 4.220408387482166290e-03 -2.864690963178873062e-03 4.067151458002626896e-04 -5.436188657768070698e-04
1.041000000000000000e+03 2.302939224243164062e+01 3.973860549926757812e+01 2.788744634017348289e-03 -1.097586937248706818e-03 5.073472857475280762e-04 -5.023851990699768066e-03
1.042000000000000000e+03 6.049961566925048828e+00 1.883145093917846680e+00 7.789910887368023396e-05 8.636900020064786077e-05 4.928043199470266700e-05 -2.584932917670812458e-05
1.043000000000000000e+03 9.655987739562988281e+00 2.601869583129882812e+00 1.691756770014762878e-04 2.388322718616109341e-05 5.791767034679651260e-05 2.931862582045141608e-05
1.044000000000000000e+03 6.771773815155029297e+00 1.878819704055786133e+00 -8.262337360065430403e-05 -8.003040420589968562e-05 -4.879613334196619689e-05 1.102743408409878612e-05
1.045000000000000000e+03 7.455838203430175781e+00 2.633531093597412109e+00 -1.146174327004700899e-04 -8.818326750770211220e-05 -6.084021151764318347e-05 -1.209047695738263428e-05
1.046000000000000000e+03 8.167555809020996094e+00 3.392163276672363281e+00 -1.356943976134061813e-04 -9.065260383067652583e-05 -6.790409679524600506e-05 -4.190416439087130129e-05
1.047000000000000000e+03 5.914493083953857422e+00 4.175673484802246094e+00 -8.289717516163364053e-05 -1.677684194874018431e-04 -7.519967766711488366e-05 4.436443487065844238e-05
1.048000000000000000e+03 1.680195927619934082e+00 7.743028640747070312e+00 -3.938511363230645657e-04 -1.824422361096367240e-05 -1.236286043422296643e-04 2.699037577258422971e-05
1.049000000000000000e+03 3.859112262725830078e-01 3.773020744323730469e+00 -4.253556835465133190e-04 -7.645697041880339384e-05 -1.505437976447865367e-04 -1.117842548410408199e-04
1.050000000000000000e+03 1.824687004089355469e+00 2.607645034790039062e+00 -1.389193639624863863e-04 -8.219390292651951313e-05 -6.633398152189329267e-05 -6.371022027451545000e-05
1.051000000000000000e+03 3.838050961494445801e-01 2.093140125274658203e+00 1.465766836190596223e-04 7.775358244543895125e-05 6.729907909175381064e-05 -4.764522600453346968e-05
1.052000000000000000e+03 1.113327264785766602e+00 1.930797696113586426e+00 1.117052488552872092e-05 -1.245757157448679209e-04 -3.402155562071129680e-05 -1.296245500270742923e-05
1.053000000000000000e+03 1.113320446014404297e+01 1.817585468292236328e+00 -1.204024811158888042e-04 -1.921906186908017844e-05 -4.188646198599599302e-05 3.359096808708272874e-05
1.054000000000000000e+03 9.674696922302246094e+00 3.354301452636718750e+00 -2.156590198865160346e-04 -2.466702608217019588e-05 -7.209781324490904808e-05 -6.671425217064097524e-05
1.055000000000000000e+03 2.550805282592773438e+01 3.440665435791015625e+01 -1.639075428247451782e-01 5.034252535551786423e-04 -4.902123659849166870e-02 -1.015130728483200073e-01
1.056000000000000000e+03 2.683843994140625000e+01 3.264028549194335938e+01 -2.270517945289611816e-01 4.418557509779930115e-03 -6.678996980190277100e-02 -2.230041772127151489e-01
1.057000000000000000e+03 2.688711738586425781e+01 3.345321655273437500e+01 -2.476738989353179932e-01 1.198615878820419312e-02 -7.070632278919219971e-02 -1.745659410953521729e-01
1.058000000000000000e+03 2.378537940979003906e+01 3.127302551269531250e+01 -6.451161950826644897e-02 -1.251511573791503906e-01 -5.689883232116699219e-02 -1.937732696533203125e-01
1.059000000000000000e+03 2.832501602172851562e+01 3.333094024658203125e+01 -3.456778228282928467e-01 3.536050394177436829e-02 -9.309519827365875244e-02 -1.881905347108840942e-01
1.060000000000000000e+03 2.904530143737792969e+01 3.323915100097656250e+01 -3.987442851066589355e-01 4.821218177676200867e-02 -1.051596328616142273e-01 -1.920517385005950928e-01
1.061000000000000000e+03 3.049306488037109375e+01 3.302082824707031250e+01 -5.106149315834045410e-01 6.614748388528823853e-02 -1.333402246236801147e-01 -1.962637901306152344e-01
1.062000000000000000e+03 3.057683563232421875e+01 3.374356460571289062e+01 -5.691383481025695801e-01 5.015579238533973694e-02 -1.556947678327560425e-01 -1.233373209834098816e-01
1.063000000000000000e+03 2.976861572265625000e+01 3.313461303710937500e+01 -4.541606903076171875e-01 5.477194488048553467e-02 -1.198166236281394958e-01 -1.955153942108154297e-01
1.064000000000000000e+03 3.203307723999023438e+01 3.347622680664062500e+01 -7.156379222869873047e-01 5.770027264952659607e-02 -1.973813027143478394e-01 -1.142792105674743652e-01
1.065000000000000000e+03 3.267700576782226562e+01 3.264258575439453125e+01 -6.831285953521728516e-01 8.033011853694915771e-02 -1.808395385742187500e-01 -1.906310766935348511e-01
1.066000000000000000e+03 3.121721458435058594e+01 3.290032958984375000e+01 -5.682967901229858398e-01 7.015074789524078369e-02 -1.494438201189041138e-01 -1.967536360025405884e-01
1.067000000000000000e+03 3.340798568725585938e+01 3.251019668579101562e+01 -7.376145124435424805e-01 8.789085596799850464e-02 -1.949170976877212524e-01 -1.838772594928741455e-01
1.068000000000000000e+03 1.176455783843994141e+01 -2.609907865524291992e+00 -3.678890352603048086e-04 -8.980294296634383500e-06 -1.130607997765764594e-04 1.109328222810290754e-04
1.069000000000000000e+03 1.030513572692871094e+01 -3.310505867004394531e+00 1.699273561825975776e-04 2.213497064076364040e-04 1.173831187770701945e-04 -1.007375904009677470e-04
1.070000000000000000e+03 1.105822658538818359e+01 -2.590477228164672852e+00 2.643959887791424990e-04 1.190734546980820596e-04 1.150408279499970376e-04 -1.670953788561746478e-04
1.071000000000000000e+03 4.162879180908203125e+01 3.542752075195312500e+01 -1.007815599441528320e+00 -3.158977022394537926e-03 -3.032923638820648193e-01 5.318533182144165039e-01
1.072000000000000000e+03 4.060840606689453125e+01 3.708702468872070312e+01 6.002456322312355042e-02 3.032696247100830078e-02 2.710545808076858521e-02 6.177571415901184082e-01
1.073000000000000000e+03 4.289501571655273438e+01 3.593277740478515625e+01 -3.139630258083343506e-01 5.067862868309020996e-01 5.784696713089942932e-02 1.409005839377641678e-02
1.074000000000000000e+03 4.206271362304687500e+01 3.662158966064453125e+01 -1.064729616045951843e-01 3.234780728816986084e-01 6.510154157876968384e-02 2.912540733814239502e-01
1.075000000000000000e+03 3.507182693481445312e+01 3.700994873046875000e+01 -2.744628190994262695e-01 -2.133028507232666016e-01 -1.463297009468078613e-01 3.922504782676696777e-01
1.076000000000000000e+03 3.718009948730468750e+01 3.621123123168945312e+01 -5.956063866615295410e-01 -2.379273474216461182e-01 -2.500601112842559814e-01 5.386081933975219727e-01
1.077000000000000000e+03 3.793146514892578125e+01 3.795126724243164062e+01 1.749959290027618408e-01 -2.343297004699707031e-01 -1.780012995004653931e-02 5.487862229347229004e-01
1.078000000000000000e+03 3.917284393310546875e+01 3.724468994140625000e+01 -7.229380309581756592e-02 -2.907601296901702881e-01 -1.089161783456802368e-01 5.690236687660217285e-01
1.079000000000000000e+03 3.761653900146484375e+01 3.671800613403320312e+01 -3.986607789993286133e-01 -2.214838415384292603e-01 -1.860433816909790039e-01 5.756534934043884277e-01
1.080000000000000000e+03 3.773285675048828125e+01 3.103022575378417969e+01 -6.255809664726257324e-01 1.201571822166442871e-01 -1.516271233558654785e-01 -1.303070336580276489e-01
1.081000000000000000e+03 3.857368087768554688e+01 3.155352783203125000e+01 -9.189409017562866211e-01 8.674573898315429688e-02 -2.496585547924041748e-01 -6.295975297689437866e-02
1.082000000000000000e+03 3.865314865112304688e+01 3.220010375976562500e+01 -1.276565074920654297e+00 5.863979831337928772e-02 -3.653775751590728760e-01 6.463739089667797089e-03
1.083000000000000000e+03 4.004953002929687500e+01 3.131699180603027344e+01 -8.348177075386047363e-01 8.918688446283340454e-02 -2.236892431974411011e-01 1.562820188701152802e-02
1.084000000000000000e+03 3.561101150512695312e+01 3.209547042846679688e+01 -8.743490576744079590e-01 8.585930615663528442e-02 -2.365469187498092651e-01 -1.528545320034027100e-01
1.085000000000000000e+03 3.413998794555664062e+01 3.237469482421875000e+01 -7.896891832351684570e-01 8.571995049715042114e-02 -2.111907750368118286e-01 -1.763857305049896240e-01
1.086000000000000000e+03 3.487477111816406250e+01 3.223600387573242188e+01 -8.351216316223144531e-01 9.080042690038681030e-02 -2.232963591814041138e-01 -1.657966375350952148e-01
1.087000000000000000e+03 3.783173751831054688e+01 3.168127632141113281e+01 -9.278818368911743164e-01 9.187662601470947266e-02 -2.508015632629394531e-01 -9.101840853691101074e-02
1.088000000000000000e+03 4.150419616699218750e+01 3.109726142883300781e+01 -5.982979536056518555e-01 8.722264319658279419e-02 -1.533225774765014648e-01 1.439500004053115845e-01
1.089000000000000000e+03 1.246034431457519531e+01 2.316275358200073242e+00 8.384117973037064075e-05 3.970789111917838454e-05 3.706472125486470759e-05 -5.692071135854348540e-05
1.090000000000000000e+03 1.039900588989257812e+01 2.570889711380004883e+00 -1.888069818960502744e-04 4.384963176562450826e-06 -5.532660361495800316e-05 -2.180159071940579452e-06
1.091000000000000000e+03 1.336523246765136719e+01 2.537198305130004883e+00 8.941364649217575788e-05 8.598096610512584448e-05 5.261838668957352638e-05 1.382229966111481190e-04
1.092000000000000000e+03 3.044962692260742188e+01 3.959407806396484375e+01 7.935233414173126221e-02 -1.921370029449462891e-01 -3.383539989590644836e-02 1.282358765602111816e-01
1.093000000000000000e+03 3.094162178039550781e+01 3.852206039428710938e+01 -2.708917297422885895e-02 -1.332362592220306396e-01 -4.809762910008430481e-02 1.702829152345657349e-01
1.094000000000000000e+03 2.740605354309082031e+01 3.868858337402343750e+01 -1.497574150562286377e-02 -3.124828264117240906e-02 -1.386720780283212662e-02 4.328291863203048706e-02
1.095000000000000000e+03 3.039291000366210938e+01 3.753736495971679688e+01 -7.498110830783843994e-02 -6.954587996006011963e-02 -4.335809499025344849e-02 1.274383217096328735e-01
1.096000000000000000e+03 3.197905731201171875e+01 3.855898666381835938e+01 -9.413307532668113708e-03 -1.975021213293075562e-01 -6.207463145256042480e-02 1.952595859766006470e-01
1.097000000000000000e+03 8.063856124877929688e+00 -1.872821331024169922e+00 -1.591999898664653301e-04 -1.384539064019918442e-04 -8.929616888053715229e-05 8.102418178168591112e-06
1.098000000000000000e+03 9.577879905700683594e+00 -2.597494363784790039e+00 1.961340894922614098e-04 1.482135703554376960e-04 1.033043008646927774e-04 -6.062450847821310163e-05
1.099000000000000000e+03 7.290697097778320312e+00 -2.626288175582885742e+00 -1.674803788773715496e-04 -1.361005561193451285e-04 -9.107428195420652628e-05 -2.000893073272891343e-05
1.100000000000000000e+03 8.058732032775878906e+00 -2.620032072067260742e+00 2.046920271823182702e-04 1.226092135766521096e-04 9.819037222769111395e-05 -2.165717887692153454e-05
1.101000000000000000e+03 8.821728706359863281e+00 -2.611234188079833984e+00 -2.133875823346897960e-04 -1.300877484027296305e-04 -1.030425992212258279e-04 3.559477772796526551e-05
1.102000000000000000e+03 6.530336380004882812e+00 -1.874621868133544922e+00 -1.394485880155116320e-04 -1.163285269285552204e-04 -7.673313666600733995e-05 -7.885729428380727768e-05
1.103000000000000000e+03 6.527508735656738281e+00 -2.631690979003906250e+00 1.543444232083857059e-04 1.323503238381817937e-04 8.600842556916177273e-05 8.730548870516940951e-05
1.104000000000000000e+03 5.060327529907226562e+00 -2.622262477874755859e+00 2.817611384671181440e-04 1.360348278467427008e-06 8.493644418194890022e-05 4.561160312732681632e-05
1.105000000000000000e+03 1.654237270355224609e+00 -7.898905754089355469e+00 7.921847864054143429e-04 2.392886381130665541e-05 2.448340819682925940e-04 -6.685344487777911127e-06
1.106000000000000000e+03 3.886953592300415039e+00 -3.418249607086181641e+00 2.110000787070021033e-04 -1.134138728957623243e-04 2.927586319856345654e-05 -2.538930129958316684e-05
1.107000000000000000e+03 4.753924906253814697e-01 -3.618819475173950195e+00 6.136861047707498074e-04 -3.000064498337451369e-05 1.751056406646966934e-04 -2.884518653445411474e-05
1.108000000000000000e+03 4.106014668941497803e-01 -2.205003023147583008e+00 -5.800122162327170372e-04 4.921188434536816203e-08 -1.739888975862413645e-04 3.623190650614560582e-06
1.109000000000000000e+03 5.241597294807434082e-01 -5.041926383972167969e+00 -6.236206390894949436e-04 -3.148247560602612793e-05 -1.965309347724542022e-04 3.626719990279525518e-05
1.110000000000000000e+03 5.024105072021484375e+01 3.073441505432128906e+01 5.003315448760986328e+00 1.991572761535644531e+01 7.475713253021240234e+00 -6.654364466667175293e-01
1.111000000000000000e+03 5.074308776855468750e+01 3.260994338989257812e+01 9.809691429138183594e+00 1.720596694946289062e+01 8.104697227478027344e+00 2.697788000106811523e+00
1.112000000000000000e+03 4.907445144653320312e+01 3.039410209655761719e+01 2.488088607788085938e+00 1.870966720581054688e+01 6.359326839447021484e+00 5.194519042968750000e+00
1.113000000000000000e+03 5.096310806274414062e+01 3.009521293640136719e+01 4.083959102630615234e+00 1.623834419250488281e+01 6.096691131591796875e+00 -8.844041228294372559e-01
1.114000000000000000e+03 5.029832458496093750e+01 3.440904998779296875e+01 2.927012443542480469e-01 1.823769187927246094e+01 5.559117794036865234e+00 6.115308403968811035e-01
1.115000000000000000e+03 4.991789627075195312e+01 3.519507980346679688e+01 -6.409530639648437500e-01 1.619818305969238281e+01 4.667169094085693359e+00 -5.723067522048950195e-01
1.116000000000000000e+03 4.917935562133789062e+01 3.390438842773437500e+01 -5.100522637367248535e-01 1.991740989685058594e+01 5.822207450866699219e+00 -3.340217113494873047e+00
1.117000000000000000e+03 2.608985900878906250e+01 3.848773956298828125e+01 -1.146847102791070938e-02 -8.887227624654769897e-03 -6.106709595769643784e-03 1.931321062147617340e-02
1.118000000000000000e+03 2.843796920776367188e+01 3.896814346313476562e+01 -1.373569387942552567e-02 -5.207749083638191223e-02 -1.974395476281642914e-02 4.601509869098663330e-02
1.119000000000000000e+03 2.947188758850097656e+01 3.879006576538085938e+01 3.436530008912086487e-03 -1.149662509560585022e-01 -3.345891833305358887e-02 6.617911159992218018e-02
1.120000000000000000e+03 2.465650558471679688e+01 4.116244888305664062e+01 -1.936068572103977203e-02 -1.542361453175544739e-02 -1.043528970330953598e-02 -1.290051499381661415e-03
1.121000000000000000e+03 2.403332901000976562e+01 3.993610763549804688e+01 -5.439066793769598007e-03 -9.814452379941940308e-03 -4.576055798679590225e-03 5.798358004540205002e-03
1.122000000000000000e+03 2.527595901489257812e+01 4.003988647460937500e+01 -8.613563113613054156e-05 -3.136525675654411316e-02 -9.435418061912059784e-03 -1.026342273689806461e-03
1.123000000000000000e+03 2.291109275817871094e+01 3.439330291748046875e+01 -4.615632072091102600e-02 -2.914626523852348328e-02 -2.259077690541744232e-02 -5.279261618852615356e-02
1.124000000000000000e+03 2.288246536254882812e+01 3.336563110351562500e+01 -4.923529922962188721e-02 -5.961272120475769043e-02 -3.265440836548805237e-02 -8.765611052513122559e-02
1.125000000000000000e+03 2.615408706665039062e+01 3.348105239868164062e+01 -2.022451460361480713e-01 1.132112956838682294e-04 -6.063957884907722473e-02 -1.643276512622833252e-01
1.126000000000000000e+03 2.537978935241699219e+01 3.166854858398437500e+01 -1.297605931758880615e-01 -6.051882356405258179e-02 -5.708382651209831238e-02 -2.410529702901840210e-01
1.127000000000000000e+03 2.094937324523925781e+01 3.234361648559570312e+01 -3.178282640874385834e-03 -8.452313393354415894e-02 -2.631042525172233582e-02 -2.736871875822544098e-02
1.128000000000000000e+03 1.981857681274414062e+01 3.891823196411132812e+01 2.864478854462504387e-03 2.402551705017685890e-03 1.580109121277928352e-03 -5.154759623110294342e-03
1.129000000000000000e+03 2.359226608276367188e+01 -4.111573028564453125e+01 4.097520187497138977e-02 5.963619351387023926e-01 1.912011504173278809e-01 1.549115125089883804e-02
1.130000000000000000e+03 1.313695716857910156e+01 -3.701930618286132812e+01 1.552222948521375656e-02 -5.297489929944276810e-03 3.067421959713101387e-03 -8.643036708235740662e-03
1.131000000000000000e+03 1.786663246154785156e+01 -4.125849914550781250e+01 7.660318911075592041e-02 -1.966327428817749023e-02 1.708197593688964844e-02 -1.429396495223045349e-02
1.132000000000000000e+03 1.240005397796630859e+01 2.575040245056152344e+01 9.888065978884696960e-04 3.873978857882320881e-04 4.128613509237766266e-04 2.116692776326090097e-04
1.133000000000000000e+03 1.305920696258544922e+01 3.203232192993164062e+01 2.555116952862590551e-04 -7.893245783634483814e-04 -1.601438707439228892e-04 1.100031309761106968e-03
1.134000000000000000e+03 1.361219310760498047e+01 3.089694595336914062e+01 -1.758126774802803993e-03 1.675649982644245028e-04 -4.771685344167053699e-04 -5.729640251956880093e-04
1.135000000000000000e+03 1.373408889770507812e+01 2.701383209228515625e+01 1.509053749032318592e-03 1.440568739781156182e-04 4.959331708960235119e-04 3.732823824975639582e-04
1.136000000000000000e+03 1.673358345031738281e+01 3.527202224731445312e+01 -3.193228505551815033e-03 -4.749358631670475006e-04 -1.100449357181787491e-03 6.851171492598950863e-04
1.137000000000000000e+03 1.700213623046875000e+01 3.764434814453125000e+01 -3.585315076634287834e-03 1.852628309279680252e-03 -5.198060534894466400e-04 -2.094428986310958862e-03
1.138000000000000000e+03 1.494481754302978516e+01 3.439699172973632812e+01 -2.315555699169635773e-03 3.469478906481526792e-05 -6.842582952231168747e-04 4.668966867029666901e-04
1.139000000000000000e+03 1.446448802947998047e+01 1.881960296630859375e+01 -9.916443377733230591e-04 5.839012828801060095e-06 -2.957415708806365728e-04 8.733728463994339108e-05
1.140000000000000000e+03 1.318382453918457031e+01 1.897740364074707031e+01 9.571600239723920822e-04 -3.003960227943025529e-05 2.781361399684101343e-04 -1.088525241357274354e-04
1.141000000000000000e+03 1.475049304962158203e+01 2.432241630554199219e+01 -1.446977374143898487e-03 -3.054310582228936255e-05 -4.432561399880796671e-04 -4.750756033899961039e-06
1.142000000000000000e+03 1.378821563720703125e+01 2.831314277648925781e+01 -1.676326035521924496e-03 -1.440870837541297078e-04 -5.461239488795399666e-04 -5.018800729885697365e-04
1.143000000000000000e+03 1.208177375793457031e+01 3.031519317626953125e+01 1.576829934492707253e-03 -5.426724092103540897e-04 3.102472401224076748e-04 4.680217243731021881e-04
1.144000000000000000e+03 1.307807350158691406e+01 1.758005714416503906e+01 -9.247692651115357876e-04 7.721995643805712461e-05 -2.542647998780012131e-04 8.552417421014979482e-05
1.145000000000000000e+03 1.332862567901611328e+01 1.177496623992919922e+01 -5.790638970211148262e-04 -2.199995833507273346e-05 -1.803191553335636854e-04 -1.177648809971287847e-04
1.146000000000000000e+03 1.292853355407714844e+01 1.461672306060791016e+01 -7.754609105177223682e-04 2.777674126264173537e-05 -2.243052585981786251e-04 -9.761677210917696357e-05
1.147000000000000000e+03 1.461940670013427734e+01 5.017873764038085938e+00 -3.294321359135210514e-04 -1.743893881211988628e-05 -1.040613278746604919e-04 5.250221875030547380e-05
1.148000000000000000e+03 1.184408664703369141e+01 2.416994333267211914e+00 -1.322468451689928770e-04 -1.100814461096888408e-05 -4.297649502404965460e-05 5.851561218150891364e-05
1.149000000000000000e+03 1.050920867919921875e+01 4.076703548431396484e+00 -3.131375997327268124e-04 8.416218406637199223e-06 -9.141641930909827352e-05 -8.168789645424112678e-05
1.150000000000000000e+03 1.355478668212890625e+01 7.787310600280761719e+00 3.976611478719860315e-04 3.075179847655817866e-05 1.285238831769675016e-04 2.056809535133652389e-05
1.151000000000000000e+03 1.317673015594482422e+01 1.315451908111572266e+01 6.780095864087343216e-04 -2.513879917387384921e-05 1.958612410817295313e-04 1.416975283063948154e-04
1.152000000000000000e+03 7.929971313476562500e+01 -2.786860466003417969e+01 -7.356598041951656342e-03 9.812447547912597656e+00 2.941527128219604492e+00 -1.356416754424571991e-02
1.153000000000000000e+03 7.722347259521484375e+01 -3.769384765625000000e+01 -1.955021359026432037e-02 9.501211166381835938e+00 2.844498395919799805e+00 4.013013467192649841e-02
1.154000000000000000e+03 7.936565399169921875e+01 -3.471940994262695312e+01 -1.102429907768964767e-02 9.830243110656738281e+00 2.945765495300292969e+00 5.831788294017314911e-03
1.155000000000000000e+03 7.764922332763671875e+01 3.232523345947265625e+01 2.859281376004219055e-02 4.533287048339843750e+00 1.368563890457153320e+00 -2.220111340284347534e-01
1.156000000000000000e+03 7.928047180175781250e+01 3.624031448364257812e+01 2.301620319485664368e-02 3.653991460800170898e+00 1.103102326393127441e+00 -1.242778077721595764e-02
1.157000000000000000e+03 7.930685424804687500e+01 -2.087744712829589844e+01 1.151234144344925880e-03 9.736745834350585938e+00 2.921369075775146484e+00 -1.989093609154224396e-02
1.158000000000000000e+03 7.787306213378906250e+01 -2.789513397216796875e+01 -1.849604421295225620e-03 9.562199592590332031e+00 2.868105173110961914e+00 -2.074744366109371185e-02
1.159000000000000000e+03 7.785115051269531250e+01 -2.649266624450683594e+01 -7.625424303114414215e-03 9.549378395080566406e+00 2.862525939941406250e+00 -2.680672332644462585e-02
1.160000000000000000e+03 7.933861541748046875e+01 -3.062989616394042969e+01 1.556062372401356697e-03 9.832174301147460938e+00 2.950119018554687500e+00 -1.434307079762220383e-02
1.161000000000000000e+03 7.805308532714843750e+01 -3.324085617065429688e+01 -1.661778613924980164e-02 9.620330810546875000e+00 2.881114006042480469e+00 -1.899957424029707909e-03
1.162000000000000000e+03 7.491459655761718750e+01 -3.717334747314453125e+01 -2.142204530537128448e-02 9.153689384460449219e+00 2.739680290222167969e+00 -6.443463265895843506e-02
1.163000000000000000e+03 7.628546142578125000e+01 -3.879566192626953125e+01 -8.855366148054599762e-03 9.456000328063964844e+00 2.834143638610839844e+00 -4.431274428497999907e-04
1.164000000000000000e+03 7.805963134765625000e+01 1.406715393066406250e+01 -7.672672625631093979e-03 7.157052040100097656e+00 2.144813776016235352e+00 -3.489136993885040283e-01
1.165000000000000000e+03 7.935163116455078125e+01 1.537146472930908203e+01 1.766276895068585873e-03 6.884885787963867188e+00 2.065995693206787109e+00 -1.380952149629592896e-01
1.166000000000000000e+03 7.802822875976562500e+01 2.101887512207031250e+01 -5.770335556007921696e-04 6.000738620758056641e+00 1.800048470497131348e+00 -3.905746042728424072e-01
1.167000000000000000e+03 7.934065246582031250e+01 2.233549499511718750e+01 -3.347697900608181953e-03 5.515138626098632812e+00 1.653537392616271973e+00 -1.438884437084197998e-01
1.168000000000000000e+03 7.792589569091796875e+01 3.084223175048828125e+01 3.066512569785118103e-02 4.585238933563232422e+00 1.384771227836608887e+00 -2.421138882637023926e-01
1.169000000000000000e+03 7.802738189697265625e+01 2.803478050231933594e+01 3.844628110527992249e-02 4.872418880462646484e+00 1.473259568214416504e+00 -3.034871220588684082e-01
1.170000000000000000e+03 7.933651733398437500e+01 2.792624092102050781e+01 2.434952184557914734e-03 4.499515056610107422e+00 1.350584983825683594e+00 -1.067056953907012939e-01
1.171000000000000000e+03 7.802105712890625000e+01 2.521619606018066406e+01 2.364810369908809662e-02 5.303659915924072266e+00 1.598192334175109863e+00 -3.599501252174377441e-01
1.172000000000000000e+03 7.802301025390625000e+01 2.380849075317382812e+01 8.121708407998085022e-03 5.531830310821533203e+00 1.661985516548156738e+00 -3.772617280483245850e-01
1.173000000000000000e+03 7.804164886474609375e+01 1.823630714416503906e+01 -6.423475686460733414e-03 6.475610733032226562e+00 1.940756201744079590e+00 -3.843922913074493408e-01
1.174000000000000000e+03 7.805728912353515625e+01 1.545456314086914062e+01 -1.098502706736326218e-02 6.937585830688476562e+00 2.077980279922485352e+00 -3.633502721786499023e-01
1.175000000000000000e+03 7.805037689208984375e+01 1.684470748901367188e+01 -3.188259433954954147e-03 6.709080219268798828e+00 2.011767625808715820e+00 -3.749511837959289551e-01
1.176000000000000000e+03 7.805320739746093750e+01 1.267942714691162109e+01 -1.325756218284368515e-02 7.368760585784912109e+00 2.206650972366333008e+00 -3.353475332260131836e-01
1.177000000000000000e+03 7.672288513183593750e+01 1.139340591430664062e+01 -3.430414199829101562e-02 7.550386428833007812e+00 2.254824638366699219e+00 -4.933721423149108887e-01
1.178000000000000000e+03 7.795933532714843750e+01 8.451684951782226562e+00 -1.446681469678878784e-02 7.940189361572265625e+00 2.377716779708862305e+00 -2.887048721313476562e-01
1.179000000000000000e+03 7.933316040039062500e+01 9.792317390441894531e+00 -9.006102336570620537e-04 7.827034950256347656e+00 2.347840309143066406e+00 -1.186915263533592224e-01
1.180000000000000000e+03 7.931972503662109375e+01 -1.947958564758300781e+01 -1.858357340097427368e-03 9.718914985656738281e+00 2.915117025375366211e+00 -2.058457396924495697e-02
1.181000000000000000e+03 7.935499572753906250e+01 -1.390084266662597656e+01 -2.294322941452264786e-03 9.614778518676757812e+00 2.883745193481445312e+00 -3.049802407622337341e-02
1.182000000000000000e+03 7.935799407958984375e+01 -6.950566291809082031e+00 -1.500955782830715179e-03 9.373195648193359375e+00 2.811508417129516602e+00 -4.745449125766754150e-02
1.183000000000000000e+03 7.808437347412109375e+01 -2.703233063220977783e-02 -1.161204930394887924e-02 8.770628929138183594e+00 2.627705097198486328e+00 -1.688715964555740356e-01
1.184000000000000000e+03 7.935311889648437500e+01 1.386564970016479492e+00 -2.665942767634987831e-03 8.816070556640625000e+00 2.644021511077880859e+00 -7.790503650903701782e-02
1.185000000000000000e+03 7.650664520263671875e+01 7.059516429901123047e+00 -4.080627113580703735e-02 8.024243354797363281e+00 2.395030975341796875e+00 -4.195300936698913574e-01
1.186000000000000000e+03 7.801412963867187500e+01 2.943014144897460938e+01 1.976799964904785156e-02 4.695547103881835938e+00 1.414594531059265137e+00 -2.619580924510955811e-01
1.187000000000000000e+03 7.860980224609375000e+01 4.023966598510742188e+01 7.510758936405181885e-02 3.850513219833374023e+00 1.177686214447021484e+00 1.535468101501464844e-01
1.188000000000000000e+03 7.436888122558593750e+01 3.627563858032226562e+01 2.007554322481155396e-01 5.379450798034667969e+00 1.674061894416809082e+00 -2.826557457447052002e-01
1.189000000000000000e+03 7.799968719482421875e+01 9.876334190368652344e+00 -1.636448875069618225e-02 7.761513233184814453e+00 2.323544502258300781e+00 -3.069935739040374756e-01
1.190000000000000000e+03 7.806458282470703125e+01 1.358870744705200195e+00 -1.294977404177188873e-02 8.661136627197265625e+00 2.594455957412719727e+00 -1.859469413757324219e-01
1.191000000000000000e+03 7.802854919433593750e+01 2.758074760437011719e+00 -1.441693399101495743e-02 8.538185119628906250e+00 2.557130575180053711e+00 -2.061786204576492310e-01
1.192000000000000000e+03 7.682223510742187500e+01 -1.436169266700744629e+00 -2.664140611886978149e-02 8.710064888000488281e+00 2.605026960372924805e+00 -2.327084839344024658e-01
1.193000000000000000e+03 7.936316680908203125e+01 -2.786001443862915039e+00 -2.505152253434062004e-03 9.139767646789550781e+00 2.741178750991821289e+00 -6.063654273748397827e-02
1.194000000000000000e+03 7.806961822509765625e+01 -6.923858165740966797e+00 -9.016043506562709808e-03 9.168325424194335938e+00 2.747792959213256836e+00 -1.059311553835868835e-01
1.195000000000000000e+03 7.807684326171875000e+01 -5.545846462249755859e+00 -8.585119619965553284e-03 9.105065345764160156e+00 2.728944063186645508e+00 -1.165198609232902527e-01
1.196000000000000000e+03 7.935346221923828125e+01 -9.729238510131835938e+00 -1.158518949523568153e-03 9.488293647766113281e+00 2.846140384674072266e+00 -3.991342335939407349e-02
1.197000000000000000e+03 7.806663513183593750e+01 -1.384187316894531250e+01 -4.426177125424146652e-03 9.397227287292480469e+00 2.817840337753295898e+00 -6.241702660918235779e-02
1.198000000000000000e+03 7.806340789794921875e+01 -1.246094703674316406e+01 -6.330951582640409470e-03 9.361782073974609375e+00 2.806635379791259766e+00 -6.834742426872253418e-02
1.199000000000000000e+03 7.934561920166015625e+01 -1.668475914001464844e+01 -2.512169769033789635e-03 9.675722122192382812e+00 2.901962757110595703e+00 -2.531860955059528351e-02
1.200000000000000000e+03 7.790855407714843750e+01 -2.082431030273437500e+01 -3.355960128828883171e-03 9.496801376342773438e+00 2.848033666610717773e+00 -3.623906150460243225e-02
1.201000000000000000e+03 7.795455169677734375e+01 -1.941580390930175781e+01 -2.766102785244584084e-03 9.486299514770507812e+00 2.845060110092163086e+00 -4.024209082126617432e-02
1.202000000000000000e+03 1.309084987640380859e+01 -2.994344520568847656e+01 3.896595211699604988e-03 1.559627242386341095e-03 1.636866712942719460e-03 -2.228836761787533760e-03
1.203000000000000000e+03 2.215509414672851562e+01 1.415222048759460449e+00 1.269305404275655746e-02 -3.254235982894897461e-01 -9.381917119026184082e-02 7.667038589715957642e-02
1.204000000000000000e+03 2.349417114257812500e+01 1.388274788856506348e+00 3.564663231372833252e-03 -5.246596410870552063e-02 -1.467038970440626144e-02 1.420588940382003784e-01
1.205000000000000000e+03 2.018256950378417969e+01 -1.395387268066406250e+01 -3.869666950777173042e-03 -1.285517513751983643e-01 -3.972642496228218079e-02 3.141629043966531754e-03
1.206000000000000000e+03 1.370466232299804688e+01 -3.855490493774414062e+01 -2.030555531382560730e-02 3.424186259508132935e-03 -5.064410623162984848e-03 8.729138411581516266e-03
1.207000000000000000e+03 1.985561943054199219e+01 -1.816313934326171875e+01 1.312708831392228603e-03 -7.226691395044326782e-02 -2.128626219928264618e-02 7.809141534380614758e-04
1.208000000000000000e+03 1.084626102447509766e+01 -3.183684349060058594e+01 1.000500633381307125e-03 -8.570172940380871296e-04 4.304498725105077028e-05 6.732477922923862934e-04
1.209000000000000000e+03 2.039729309082031250e+01 -5.536345481872558594e+00 5.090503953397274017e-03 -2.956727445125579834e-01 -8.717467635869979858e-02 6.852166727185249329e-03
1.210000000000000000e+03 2.210367012023925781e+01 1.290057599544525146e-02 1.119155157357454300e-02 -2.624807655811309814e-01 -7.538676261901855469e-02 6.534411758184432983e-02
1.211000000000000000e+03 2.168042182922363281e+01 -8.360391616821289062e+00 -2.062926068902015686e-03 -8.117124438285827637e-03 -3.054015105590224266e-03 4.658427461981773376e-02
1.212000000000000000e+03 2.130323410034179688e+01 -1.961521911621093750e+01 -4.274437960702925920e-04 1.692005395889282227e-01 5.063192546367645264e-02 2.153207547962665558e-02
1.213000000000000000e+03 2.178239250183105469e+01 -5.588594436645507812e+00 7.256508804857730865e-03 -7.606928795576095581e-02 -2.064383402466773987e-02 5.324525758624076843e-02
1.214000000000000000e+03 1.955504608154296875e+01 -3.359061050415039062e+01 7.586414576508104801e-04 -5.208186432719230652e-02 -1.539696753025054932e-02 -9.183325804769992828e-03
1.215000000000000000e+03 2.091824150085449219e+01 -3.364641189575195312e+01 -2.286389656364917755e-02 1.633817255496978760e-01 4.215534776449203491e-02 -1.619950868189334869e-02
1.216000000000000000e+03 2.145650672912597656e+01 -1.537374591827392578e+01 -1.785799162462353706e-03 1.177956610918045044e-01 3.480295836925506592e-02 3.166473656892776489e-02
1.217000000000000000e+03 2.151731491088867188e+01 -1.396421909332275391e+01 -5.235222633928060532e-03 1.002018675208091736e-01 2.848999202251434326e-02 3.372206166386604309e-02
1.218000000000000000e+03 2.186604881286621094e+01 -4.198143482208251953e+00 6.749838590621948242e-03 -1.157846376299858093e-01 -3.271044045686721802e-02 6.294864416122436523e-02
1.219000000000000000e+03 2.229884147644042969e+01 7.110545158386230469e+00 -1.964172115549445152e-03 -6.056573390960693359e-01 -1.822864562273025513e-01 8.215307444334030151e-02
1.220000000000000000e+03 2.435663986206054688e+01 -2.102508735656738281e+01 -1.267272140830755234e-02 6.663551330566406250e-01 1.961047202348709106e-01 6.137375906109809875e-02
1.221000000000000000e+03 1.227615165710449219e+01 -2.716954421997070312e+01 -2.252847421914339066e-03 -1.404267386533319950e-03 -1.097134430892765522e-03 7.185997092165052891e-04
1.222000000000000000e+03 2.220696830749511719e+01 2.830376625061035156e+00 -4.880246706306934357e-03 -3.912566006183624268e-01 -1.188410520553588867e-01 8.280021697282791138e-02
1.223000000000000000e+03 1.449737453460693359e+01 -2.477467155456542969e+01 -3.648617770522832870e-03 -1.320672454312443733e-04 -1.134205493144690990e-03 3.094469429925084114e-04
1.224000000000000000e+03 1.216099357604980469e+01 -2.487822341918945312e+01 -2.538622124120593071e-03 3.745732101378962398e-05 -7.503494271077215672e-04 2.513388171792030334e-04
1.225000000000000000e+03 2.109757995605468750e+01 -2.661197280883789062e+01 -2.268457028549164534e-04 1.974216699600219727e-01 5.915844440460205078e-02 4.816439934074878693e-03
1.226000000000000000e+03 2.099364280700683594e+01 2.684724998474121094e+01 -6.518823211081326008e-04 -5.628940463066101074e-01 -1.690637767314910889e-01 -5.316869542002677917e-02
1.227000000000000000e+03 2.106201744079589844e+01 1.134317684173583984e+01 2.777485875412821770e-03 -1.067176461219787598e+00 -3.193196952342987061e-01 2.496072277426719666e-02
1.228000000000000000e+03 2.093351936340332031e+01 3.101772880554199219e+01 -3.050810424610972404e-03 -1.760739237070083618e-01 -5.373742058873176575e-02 -3.654895722866058350e-02
1.229000000000000000e+03 1.482928752899169922e+01 -2.152200460433959961e+00 -1.143098561442457139e-04 -1.341780007351189852e-04 -7.454635488102212548e-05 7.346108759520575404e-05
1.230000000000000000e+03 2.164371871948242188e+01 -9.757477760314941406e+00 -3.352028084918856621e-03 2.323556318879127502e-02 5.965060554444789886e-03 4.557322710752487183e-02
1.231000000000000000e+03 2.172317504882812500e+01 -6.972525119781494141e+00 3.483136883005499840e-03 -3.952094539999961853e-02 -1.081134192645549774e-02 4.853429272770881653e-02
1.232000000000000000e+03 2.231171607971191406e+01 9.939788818359375000e+00 5.796098615974187851e-03 -7.171998620033264160e-01 -2.134211361408233643e-01 7.590672373771667480e-02
1.233000000000000000e+03 2.356913757324218750e+01 1.701284790039062500e+01 5.160544067621231079e-02 -5.998846292495727539e-01 -1.644837707281112671e-01 -7.247128523886203766e-03
1.234000000000000000e+03 2.103806114196777344e+01 2.262135696411132812e+01 4.261897876858711243e-03 -9.308128356933593750e-01 -2.779652774333953857e-01 -3.920083492994308472e-02
1.235000000000000000e+03 2.328585624694824219e+01 2.563890647888183594e+01 1.858146116137504578e-02 -4.369500875473022461e-01 -1.255105882883071899e-01 -2.179269939661026001e-01
1.236000000000000000e+03 2.105565261840820312e+01 1.980379486083984375e+01 4.362184554338455200e-03 -1.085453987121582031e+00 -3.243275582790374756e-01 -2.135864086449146271e-02
1.237000000000000000e+03 2.230346679687500000e+01 1.986708068847656250e+01 2.022244781255722046e-02 -8.269170522689819336e-01 -2.420083880424499512e-01 -6.563373655080795288e-02
1.238000000000000000e+03 2.357473754882812500e+01 1.991349983215332031e+01 5.232873558998107910e-02 -5.910853147506713867e-01 -1.616269648075103760e-01 -9.361921250820159912e-02
1.239000000000000000e+03 2.231466865539550781e+01 1.701687812805175781e+01 1.940989680588245392e-02 -8.652569055557250977e-01 -2.537541091442108154e-01 -1.143670268356800079e-02
1.240000000000000000e+03 2.231370735168457031e+01 1.844495201110839844e+01 2.180175855755805969e-02 -8.532722592353820801e-01 -2.494411468505859375e-01 -3.811030834913253784e-02
1.241000000000000000e+03 2.205338668823242188e+01 2.834651184082031250e+01 -4.347709007561206818e-03 -3.614731132984161377e-01 -1.097462400794029236e-01 -1.449549794197082520e-01
1.242000000000000000e+03 2.336317634582519531e+01 2.421483039855957031e+01 3.413914889097213745e-02 -4.963415563106536865e-01 -1.386607140302658081e-01 -2.002669125795364380e-01
1.243000000000000000e+03 2.230716514587402344e+01 1.417752933502197266e+01 1.351860351860523224e-02 -8.410829901695251465e-01 -2.482693195343017578e-01 3.527599200606346130e-02
1.244000000000000000e+03 1.332889842987060547e+01 -1.476461124420166016e+01 -1.068196492269635201e-03 -9.397847315995022655e-05 -3.486524801701307297e-04 2.261366607854142785e-04
1.245000000000000000e+03 1.355786609649658203e+01 -7.942143440246582031e+00 7.421287009492516518e-04 -7.802520121913403273e-05 1.992310426430776715e-04 -7.827233639545738697e-05
1.246000000000000000e+03 1.459288406372070312e+01 -7.930529594421386719e+00 -7.570979068987071514e-04 1.400438759446842596e-05 -2.229280507890507579e-04 2.405921077297534794e-05
1.247000000000000000e+03 1.173057079315185547e+01 -3.369838237762451172e+00 5.253841518424451351e-04 1.248067837877897546e-05 1.613594504306092858e-04 -3.100746253039687872e-04
1.248000000000000000e+03 1.336800575256347656e+01 -1.200783157348632812e+01 -8.770932327024638653e-04 -5.776804755441844463e-05 -2.804583637043833733e-04 1.217133685713633895e-04
1.249000000000000000e+03 1.453306674957275391e+01 -1.210429668426513672e+01 9.379705297760665417e-04 1.689985219854861498e-05 2.864611160475760698e-04 -8.026022260310128331e-05
1.250000000000000000e+03 1.352523231506347656e+01 -5.344228267669677734e+00 5.444284761324524879e-04 2.508892976038623601e-05 1.708552299533039331e-04 -1.260714634554460645e-04
1.251000000000000000e+03 1.459151840209960938e+01 -5.195363044738769531e+00 -4.878903855569660664e-04 -6.905034751980565488e-06 -1.484386302763596177e-04 1.539586810395121574e-05
1.252000000000000000e+03 1.451401710510253906e+01 -1.489700126647949219e+01 1.132246223278343678e-03 2.875083555409219116e-05 3.482991305645555258e-04 -1.583538833074271679e-04
1.253000000000000000e+03 1.441097164154052734e+01 -1.906595420837402344e+01 -1.608355902135372162e-03 -2.643930383783299476e-05 -4.904385423287749290e-04 3.097086155321449041e-04
1.254000000000000000e+03 2.198108673095703125e+01 2.971826934814453125e+01 -1.019123289734125137e-02 -2.635710835456848145e-01 -8.212869614362716675e-02 -1.282573640346527100e-01
1.255000000000000000e+03 2.313476562500000000e+01 2.847538185119628906e+01 -1.258317753672599792e-02 -2.928136587142944336e-01 -9.161905199289321899e-02 -2.151902765035629272e-01
1.256000000000000000e+03 1.270510315895080566e+00 -4.009662246704101562e+01 1.497610704973340034e-03 2.119697397574782372e-03 1.085192430764436722e-03 6.154692528070881963e-05
1.257000000000000000e+03 6.936602592468261719e-01 3.739404678344726562e+01 -1.482021878473460674e-03 -1.540879165986552835e-04 -4.908329574391245842e-04 4.209609760437160730e-04
1.258000000000000000e+03 6.691460013389587402e-01 3.325757598876953125e+01 6.583443027921020985e-04 -1.637868422221799847e-06 1.970119192264974117e-04 -5.082353891339153051e-05
1.259000000000000000e+03 2.310897111892700195e+00 3.810760879516601562e+01 -1.148218871094286442e-03 -3.741895488929003477e-04 -4.567225114442408085e-04 5.607007187791168690e-04
1.260000000000000000e+03 6.449893712997436523e-01 2.621888923645019531e+01 -8.468318847008049488e-04 -6.647215286648133770e-06 -2.560437424108386040e-04 -1.454393668609554879e-06
1.261000000000000000e+03 1.954638123512268066e+00 2.898077011108398438e+01 9.230893338099122047e-04 -4.475862806430086493e-05 2.634992124512791634e-04 1.619392569409683347e-04
1.262000000000000000e+03 7.006508708000183105e-01 -3.604393768310546875e+01 -1.657059299759566784e-03 1.635948428884148598e-03 -6.333264991553733125e-06 -3.711982863023877144e-04
1.263000000000000000e+03 2.146794080734252930e+00 -3.316041183471679688e+01 7.243328727781772614e-04 1.186915207654237747e-03 5.733744474127888680e-04 6.966158980503678322e-04
1.264000000000000000e+03 3.205970048904418945e+00 2.753431320190429688e+01 1.099412445910274982e-03 -1.030260391416959465e-04 2.989159256685525179e-04 1.643944851821288466e-04
1.265000000000000000e+03 3.268439769744873047e+00 2.476817512512207031e+01 9.757624939084053040e-04 2.175679583160672337e-05 2.992557710967957973e-04 9.164950461126863956e-05
1.266000000000000000e+03 2.050200939178466797e+00 3.317031097412109375e+01 -7.558864890597760677e-04 -2.208045189036056399e-04 -2.930072951130568981e-04 4.467564849619520828e-06
1.267000000000000000e+03 3.222411632537841797e+00 3.912306594848632812e+01 8.916727965697646141e-04 -2.657532058947253972e-05 2.595292462501674891e-04 -5.223547341302037239e-04
1.268000000000000000e+03 2.079840660095214844e+00 -3.033514022827148438e+01 1.028881408274173737e-03 3.876526898238807917e-04 4.249602206982672215e-04 -3.086134893237613142e-05
1.269000000000000000e+03 1.998482346534729004e+00 -2.750069808959960938e+01 1.211089314892888069e-03 8.246452489402145147e-05 3.880661388393491507e-04 -2.344346430618315935e-04
1.270000000000000000e+03 2.073740959167480469e+00 -3.713515853881835938e+01 -1.702190842479467392e-03 1.591112930327653885e-03 -3.332335109007544816e-05 -3.738242958206683397e-04
1.271000000000000000e+03 1.908291339874267578e+00 -2.195641899108886719e+01 1.362407580018043518e-03 1.559575321152806282e-05 4.134010232519358397e-04 -1.468033879064023495e-04
1.272000000000000000e+03 6.510896086692810059e-01 1.911763191223144531e+01 7.763770991005003452e-04 -3.980418568971799687e-06 2.317190082976594567e-04 -3.183112494298256934e-05
1.273000000000000000e+03 6.109066605567932129e-01 1.348288345336914062e+01 5.631103413179516792e-04 2.264805516460910439e-05 1.757275167619809508e-04 -7.189322786871343851e-05
1.274000000000000000e+03 5.622501969337463379e-01 7.821080207824707031e+00 3.362355637364089489e-04 6.724925697199068964e-06 1.028881524689495564e-04 -2.596418926259502769e-05
1.275000000000000000e+03 3.641786813735961914e+00 -3.454111862182617188e+01 4.653609066735953093e-04 1.314528053626418114e-03 5.339666968211531639e-04 1.241375808604061604e-03
1.276000000000000000e+03 2.140852212905883789e+00 -3.455113220214843750e+01 -7.660231203772127628e-04 5.267858505249023438e-04 -7.177118095569312572e-05 -3.022673809027764946e-05
1.277000000000000000e+03 2.122160911560058594e+00 -3.175448417663574219e+01 -6.805084994994103909e-04 1.092235615942627192e-04 -1.713854871923103929e-04 6.279775407165288925e-04
1.278000000000000000e+03 3.321799516677856445e+00 -2.738222694396972656e+01 -1.456787344068288803e-03 3.036488669749815017e-05 -4.279267450328916311e-04 5.584159516729414463e-04
1.279000000000000000e+03 1.921895503997802734e+00 -2.333704757690429688e+01 -1.350119942799210548e-03 -2.452215267112478614e-05 -4.123926046304404736e-04 2.050748007604852319e-04
1.280000000000000000e+03 1.968359231948852539e+00 -2.610588264465332031e+01 -1.226052176207304001e-03 1.381811034661950544e-05 -3.636702313087880611e-04 3.492041432764381170e-04
1.281000000000000000e+03 3.136758565902709961e+00 -2.059343147277832031e+01 1.466611167415976524e-03 1.694248749117832631e-05 4.450660781003534794e-04 -1.403133355779573321e-04
1.282000000000000000e+03 6.310803294181823730e-01 -1.917526626586914062e+01 -1.205025822855532169e-03 -4.017424726043827832e-05 -3.735600330401211977e-04 1.605647230462636799e-05
1.283000000000000000e+03 1.882621645927429199e+00 -1.918821907043457031e+01 1.231746748089790344e-03 2.667589433258399367e-05 3.775267978198826313e-04 -6.488613871624693274e-05
1.284000000000000000e+03 1.861300706863403320e+00 -1.636881446838378906e+01 1.089607249014079571e-03 5.740878623328171670e-05 3.441048029344528913e-04 -4.814866042579524219e-05
1.285000000000000000e+03 5.989385247230529785e-01 -1.211183929443359375e+01 9.282904211431741714e-04 6.149203272798331454e-06 2.803318784572184086e-04 -2.599364052002783865e-05
1.286000000000000000e+03 1.789910435676574707e+00 -1.212324237823486328e+01 -9.186536772176623344e-04 -2.406396015430800617e-05 -2.828152792062610388e-04 3.971289334003813565e-05
1.287000000000000000e+03 4.263295650482177734e+00 -3.995838642120361328e+00 -6.357367383316159248e-04 -1.456914615118876100e-04 -2.344284584978595376e-04 1.097725908039137721e-04
1.288000000000000000e+03 3.669963121414184570e+00 -2.716248035430908203e+00 5.554891686188057065e-05 -2.599580329842865467e-05 8.865934432833455503e-06 1.500057442171964794e-05
1.289000000000000000e+03 2.982539653778076172e+00 -2.929737091064453125e+00 -1.028094047796912491e-04 1.907093683257699013e-04 2.636998760863207281e-05 -6.360973929986357689e-05
1.290000000000000000e+03 1.431299209594726562e+00 -3.572100877761840820e+00 -5.199683364480733871e-04 1.026971949613653123e-04 -1.251813519047573209e-04 -5.326254904503002763e-05
1.291000000000000000e+03 4.703406989574432373e-01 5.024911880493164062e+00 3.820085839834064245e-04 3.528989691403694451e-05 1.251895446330308914e-04 5.089243859401904047e-05
1.292000000000000000e+03 2.416970729827880859e+00 4.408969402313232422e+00 -3.241600643377751112e-05 -3.652771920314989984e-05 -2.068311732728034258e-05 -1.669279008638113737e-04
1.293000000000000000e+03 1.777950167655944824e+00 1.058307361602783203e+01 -4.492155276238918304e-04 -2.543208574934396893e-05 -1.423942885594442487e-04 4.349546361481770873e-05
1.294000000000000000e+03 5.937424898147583008e-01 1.065445518493652344e+01 4.171562322881072760e-04 9.226984730048570782e-06 1.279149582842364907e-04 -3.418188862269744277e-05
1.295000000000000000e+03 1.835179328918457031e+00 1.342286586761474609e+01 -5.054527428001165390e-04 -6.512344407383352518e-05 -1.711728546069934964e-04 1.016368987620808184e-04
1.296000000000000000e+03 1.984908103942871094e+00 2.046871566772460938e+01 7.806071080267429352e-04 -3.034578867300297134e-06 2.332717558601871133e-04 3.385243871889542788e-06
1.297000000000000000e+03 1.950702548027038574e+00 1.898134231567382812e+01 -7.829621899873018265e-04 9.938203220372088253e-06 -2.319071936653926969e-04 -3.565501629054779187e-06
1.298000000000000000e+03 1.953669667243957520e+00 2.478092575073242188e+01 -9.181132190860807896e-04 -9.361496267956681550e-06 -2.782424271572381258e-04 -4.139339580433443189e-05
1.299000000000000000e+03 4.768874740600585938e+01 3.445661544799804688e+01 1.257478475570678711e+00 6.887956619262695312e+00 2.443630695343017578e+00 -4.639870166778564453e+00
1.300000000000000000e+03 4.625412750244140625e+01 3.499475097656250000e+01 7.277272939682006836e-01 2.528726100921630859e+00 9.769360423088073730e-01 -2.025965213775634766e+00
1.301000000000000000e+03 4.713452148437500000e+01 3.415432739257812500e+01 1.144209027290344238e+00 3.735729217529296875e+00 1.463981509208679199e+00 -3.084247350692749023e+00
1.302000000000000000e+03 4.791831970214843750e+01 3.064576339721679688e+01 5.263388633728027344e+00 7.687404155731201172e+00 3.885237932205200195e+00 7.351923465728759766e+00
1.303000000000000000e+03 4.733423995971679688e+01 3.077336692810058594e+01 5.012133598327636719e+00 3.357298135757446289e+00 2.510829448699951172e+00 5.017106056213378906e+00
1.304000000000000000e+03 4.796778488159179688e+01 3.026656532287597656e+01 4.336194992065429688e+00 9.129884719848632812e+00 4.039824008941650391e+00 7.100369453430175781e+00
1.305000000000000000e+03 4.833687591552734375e+01 3.049075126647949219e+01 4.032217025756835938e+00 1.212170410156250000e+01 4.846176147460937500e+00 7.697395801544189453e+00
1.306000000000000000e+03 4.695766448974609375e+01 3.085336875915527344e+01 4.145417213439941406e+00 1.901991724967956543e+00 1.814222693443298340e+00 3.750669240951538086e+00
1.307000000000000000e+03 4.651370239257812500e+01 3.467637634277343750e+01 8.565391302108764648e-01 2.676775217056274414e+00 1.059994339942932129e+00 -2.336146354675292969e+00
1.308000000000000000e+03 1.241755867004394531e+01 -2.628432035446166992e+00 2.424977865302935243e-04 4.982350219506770372e-05 8.769638952799141407e-05 2.908018541347701102e-05
1.309000000000000000e+03 4.652619934082031250e+01 3.731581115722656250e+01 3.467081487178802490e-01 5.169958114624023438e+00 1.654999852180480957e+00 -2.259038686752319336e+00
1.310000000000000000e+03 4.486952972412109375e+01 3.638341140747070312e+01 5.646542310714721680e-01 1.701041460037231445e+00 6.797087192535400391e-01 -1.097531676292419434e+00
1.311000000000000000e+03 4.358634185791015625e+01 3.597648239135742188e+01 -2.793081849813461304e-02 6.038725972175598145e-01 1.727825403213500977e-01 -3.809106051921844482e-01
1.312000000000000000e+03 4.595892333984375000e+01 3.650274658203125000e+01 6.845746636390686035e-01 3.555924892425537109e+00 1.272149801254272461e+00 -2.247981071472167969e+00
1.313000000000000000e+03 4.581156921386718750e+01 3.055606460571289062e+01 2.415502071380615234e+00 8.534876704216003418e-01 9.806969761848449707e-01 2.108075380325317383e+00
1.314000000000000000e+03 4.339402389526367188e+01 3.028892135620117188e+01 7.705388665199279785e-01 3.014248609542846680e-01 3.215891122817993164e-01 7.631945610046386719e-01
1.315000000000000000e+03 4.287474441528320312e+01 3.089396858215332031e+01 -1.179277002811431885e-01 1.115360558032989502e-01 -1.917495159432291985e-03 3.886267840862274170e-01
1.316000000000000000e+03 4.277582168579101562e+01 3.035497283935546875e+01 4.195349514484405518e-01 2.435457110404968262e-01 1.989241987466812134e-01 5.369037389755249023e-01
1.317000000000000000e+03 4.925070190429687500e+01 3.603909683227539062e+01 -9.733774065971374512e-01 1.278282642364501953e+01 3.542834758758544922e+00 -2.468000888824462891e+00
1.318000000000000000e+03 4.890042495727539062e+01 3.422653198242187500e+01 -1.808796375989913940e-01 1.556682682037353516e+01 4.615784168243408203e+00 -4.190135478973388672e+00
1.319000000000000000e+03 4.231486892700195312e+01 3.750192260742187500e+01 4.076862335205078125e-01 9.541592597961425781e-01 4.085536599159240723e-01 -5.554676055908203125e-02
1.320000000000000000e+03 4.220945358276367188e+01 3.099138450622558594e+01 -3.825469017028808594e-01 1.015212014317512512e-01 -8.430770784616470337e-02 2.410832941532135010e-01
1.321000000000000000e+03 4.211046981811523438e+01 3.042869186401367188e+01 1.386238187551498413e-01 1.911979466676712036e-01 9.894653409719467163e-02 3.676668107509613037e-01
1.322000000000000000e+03 2.760778617858886719e+01 3.340270996093750000e+01 -2.958681285381317139e-01 2.693233080208301544e-02 -8.068073540925979614e-02 -1.818949282169342041e-01
1.323000000000000000e+03 2.968421745300292969e+01 3.240874099731445312e+01 -3.982301354408264160e-01 6.128738820552825928e-02 -1.010828241705894470e-01 -2.529416084289550781e-01
1.324000000000000000e+03 2.074156951904296875e+01 3.988659667968750000e+01 -9.696649387478828430e-03 1.099162851460278034e-03 -2.579246181994676590e-03 -1.429163734428584576e-03
1.325000000000000000e+03 2.135999870300292969e+01 3.914110183715820312e+01 2.480346709489822388e-03 1.157371327280998230e-03 1.091315411031246185e-03 -4.340982995927333832e-03
1.326000000000000000e+03 1.386421108245849609e+01 2.694304466247558594e+00 -2.233655832242220640e-04 8.601124136475846171e-05 -4.120630183024331927e-05 -4.402747072163037956e-05
1.327000000000000000e+03 3.789870977401733398e+00 2.748732566833496094e+00 1.975984196178615093e-04 5.873080954188480973e-05 7.689877384109422565e-05 -3.448544885031878948e-05
1.328000000000000000e+03 5.997843265533447266e+00 2.649988889694213867e+00 -9.732670150697231293e-05 -1.063536619767546654e-04 -6.110411050030961633e-05 2.405124359938781708e-05
1.329000000000000000e+03 5.956842899322509766e+00 3.420334577560424805e+00 9.505027992418035865e-05 1.361329486826434731e-04 6.935496639925986528e-05 -2.162807504646480083e-05
1.330000000000000000e+03 6.695317268371582031e+00 3.418750762939453125e+00 -1.281036093132570386e-04 -1.225057785632088780e-04 -7.518281927332282066e-05 -1.754497316142078489e-05
1.331000000000000000e+03 8.919043540954589844e+00 3.373399972915649414e+00 1.673666847636923194e-04 6.422355363611131907e-05 6.947707151994109154e-05 6.450799992308020592e-05
1.332000000000000000e+03 6.730457782745361328e+00 2.640718221664428711e+00 1.051516228471882641e-04 1.017483882606029510e-04 6.207000114955008030e-05 -7.446824952239694539e-07
1.333000000000000000e+03 7.426583290100097656e+00 3.414981842041015625e+00 1.362694893032312393e-04 1.071750739356502891e-04 7.303337042685598135e-05 2.025881804001983255e-05
1.334000000000000000e+03 4.467187404632568359e+00 3.552734851837158203e+00 1.825421932153403759e-04 8.311124111060053110e-05 7.969603029778227210e-05 -9.472402598476037383e-05
1.335000000000000000e+03 4.519402027130126953e+00 2.718525171279907227e+00 -1.433740544598549604e-04 -7.993265899131074548e-05 -6.699201185256242752e-05 6.809709157096222043e-05
1.336000000000000000e+03 2.435495138168334961e+00 2.671482801437377930e+00 1.896032918011769652e-04 8.589930075686424971e-05 8.265078213298693299e-05 6.894582838867790997e-06
1.337000000000000000e+03 1.113899135589599609e+01 2.510108470916748047e+00 1.762790780048817396e-04 -9.740726454765535891e-06 4.996150892111472785e-05 -3.931026003556326032e-05
1.338000000000000000e+03 1.121170806884765625e+01 3.230748891830444336e+00 -2.628257498145103455e-04 5.120084460941143334e-05 -6.348747410811483860e-05 3.097243097727186978e-05
1.339000000000000000e+03 2.460013008117675781e+01 3.346696853637695312e+01 -1.187733635306358337e-01 -3.219405934214591980e-02 -4.529022797942161560e-02 -1.351173520088195801e-01
1.340000000000000000e+03 2.456330299377441406e+01 3.248760986328125000e+01 -1.094355955719947815e-01 -6.105003505945205688e-02 -5.114569142460823059e-02 -1.788177043199539185e-01
1.341000000000000000e+03 3.040338134765625000e+01 3.230532836914062500e+01 -4.426850378513336182e-01 6.959638744592666626e-02 -1.119265928864479065e-01 -2.572730481624603271e-01
1.342000000000000000e+03 3.112365341186523438e+01 3.219503021240234375e+01 -4.856057167053222656e-01 8.257117867469787598e-02 -1.209103614091873169e-01 -2.582482099533081055e-01
1.343000000000000000e+03 2.193658638000488281e+01 3.225815963745117188e+01 -2.074966952204704285e-02 -1.096819490194320679e-01 -3.912948444485664368e-02 -8.210108429193496704e-02
1.344000000000000000e+03 2.372814369201660156e+01 3.238001251220703125e+01 -7.462763041257858276e-02 -8.420623838901519775e-02 -4.765015840530395508e-02 -1.540996134281158447e-01
1.345000000000000000e+03 2.825717926025390625e+01 3.257097625732421875e+01 -3.105784654617309570e-01 3.535342589020729065e-02 -8.256750553846359253e-02 -2.409863322973251343e-01
1.346000000000000000e+03 2.755101394653320312e+01 3.262074661254882812e+01 -2.679055929183959961e-01 1.786105707287788391e-02 -7.501336187124252319e-02 -2.328697293996810913e-01
1.347000000000000000e+03 3.257975387573242188e+01 3.195717048645019531e+01 -5.672919750213623047e-01 9.908873587846755981e-02 -1.404609680175781250e-01 -2.546233832836151123e-01
1.348000000000000000e+03 3.330977630615234375e+01 3.183292007446289062e+01 -6.037870645523071289e-01 1.011208966374397278e-01 -1.507998555898666382e-01 -2.493091374635696411e-01
1.349000000000000000e+03 1.256290912628173828e+01 2.790168285369873047e+00 -4.996827556169591844e-05 -7.622682005603564903e-06 -1.727728704281616956e-05 8.100761624518781900e-05
1.350000000000000000e+03 9.570137023925781250e+00 -3.343466997146606445e+00 -2.358486672164872289e-04 -1.447184331482276320e-04 -1.141701286542229354e-04 1.274380338145419955e-05
1.351000000000000000e+03 1.354684543609619141e+01 -4.087412834167480469e+00 -5.096559762023389339e-04 -1.280285459870356135e-06 -1.532808819320052862e-04 1.179986938950605690e-04
1.352000000000000000e+03 9.590164184570312500e+00 -4.132833003997802734e+00 3.413110680412501097e-04 4.867920870310626924e-05 1.169970782939344645e-04 3.785031731240451336e-05
1.353000000000000000e+03 4.078027343750000000e+01 3.120561408996582031e+01 -7.386460900306701660e-01 9.348004311323165894e-02 -1.935498118400573730e-01 6.986767798662185669e-02
1.354000000000000000e+03 1.361723613739013672e+01 -2.984244346618652344e+00 5.138631095178425312e-04 -9.200182830682024360e-06 1.513988681836053729e-04 -1.165301437140442431e-04
1.355000000000000000e+03 4.216466903686523438e+01 3.585829925537109375e+01 -5.900566577911376953e-01 1.738570481538772583e-01 -1.248598769307136536e-01 3.197829425334930420e-01
1.356000000000000000e+03 3.922689056396484375e+01 3.079640007019042969e+01 -5.083180069923400879e-01 1.317350417375564575e-01 -1.129748895764350891e-01 -3.492312505841255188e-02
1.357000000000000000e+03 3.708824539184570312e+01 3.181582069396972656e+01 -9.218377470970153809e-01 8.446218818426132202e-02 -2.512126564979553223e-01 -1.167245432734489441e-01
1.358000000000000000e+03 3.848163986206054688e+01 3.090802574157714844e+01 -5.771865248680114746e-01 1.303443014621734619e-01 -1.340526640415191650e-01 -8.733844757080078125e-02
1.359000000000000000e+03 3.761467361450195312e+01 3.038283729553222656e+01 -3.459294438362121582e-01 1.646753698587417603e-01 -5.437622219324111938e-02 -1.369271129369735718e-01
1.360000000000000000e+03 3.404016113281250000e+01 3.170461654663085938e+01 -6.333004236221313477e-01 1.101872920989990234e-01 -1.569339334964752197e-01 -2.397017627954483032e-01
1.361000000000000000e+03 3.477374649047851562e+01 3.157094001770019531e+01 -6.557490229606628418e-01 1.085429415106773376e-01 -1.641618311405181885e-01 -2.280383408069610596e-01
1.362000000000000000e+03 3.634760284423828125e+01 3.195481109619140625e+01 -9.036583304405212402e-01 9.054259210824966431e-02 -2.439347058534622192e-01 -1.368069946765899658e-01
1.363000000000000000e+03 3.624311447143554688e+01 3.129749298095703125e+01 -6.680490970611572266e-01 1.127979531884193420e-01 -1.665753424167633057e-01 -1.912460476160049438e-01
1.364000000000000000e+03 4.069060134887695312e+01 3.060038566589355469e+01 -2.761127948760986328e-01 1.477004438638687134e-01 -3.852371126413345337e-02 1.133646890521049500e-01
1.365000000000000000e+03 3.996230697631835938e+01 3.069492530822753906e+01 -4.089268445968627930e-01 1.421515196561813354e-01 -8.003259450197219849e-02 2.960294671356678009e-02
1.366000000000000000e+03 1.353829097747802734e+01 4.215609073638916016e+00 -3.762285341508686543e-04 6.782578111597103998e-06 -1.108337819459848106e-04 -2.365679938520770520e-05
1.367000000000000000e+03 6.523399353027343750e+00 -3.401614665985107422e+00 -1.214165749843232334e-04 -1.952168822754174471e-04 -9.499003499513491988e-05 -7.691935024922713637e-05
1.368000000000000000e+03 2.749862670898437500e+00 -7.916086673736572266e+00 -7.726107141934335232e-04 -5.207741196500137448e-05 -2.474064531270414591e-04 -5.028591090194822755e-07
1.369000000000000000e+03 7.963821411132812500e+00 -4.855976104736328125e+00 -4.528014105744659901e-04 -1.167705850093625486e-04 -1.708716008579358459e-04 9.187561227008700371e-05
1.370000000000000000e+03 5.779810905456542969e+00 -3.431611776351928711e+00 2.325040986761450768e-04 1.552404282847419381e-04 1.163233537226915359e-04 2.081842831103131175e-04
1.371000000000000000e+03 5.782318115234375000e+00 -2.631930589675903320e+00 -2.199908194597810507e-04 -7.048309635138139129e-05 -8.714217256056144834e-05 -1.271678047487512231e-04
1.372000000000000000e+03 2.867281436920166016e+00 -4.162815570831298828e+00 6.865920731797814369e-04 3.351706254761666059e-04 3.065288183279335499e-04 -3.076985012739896774e-04
1.373000000000000000e+03 4.957112312316894531e+00 -4.298073768615722656e+00 6.596273742616176605e-04 1.304013421759009361e-04 2.370086149312555790e-04 2.590740914456546307e-04
1.374000000000000000e+03 2.273723363876342773e+00 -3.296921730041503906e+00 3.006023143825586885e-05 -2.215145505033433437e-04 -5.743629662902094424e-05 6.167695391923189163e-05
1.375000000000000000e+03 1.584772229194641113e+00 -5.039934635162353516e+00 6.224621320143342018e-04 5.807946581626310945e-05 2.041624684352427721e-04 -9.311984285886865109e-06
1.376000000000000000e+03 8.816834449768066406e+00 -3.366649389266967773e+00 2.963882870972156525e-04 8.855063788359984756e-05 1.154816782218404114e-04 -3.752909469767473638e-05
1.377000000000000000e+03 2.681391143798828125e+01 4.029780197143554688e+01 5.798622965812683105e-03 -5.842674523591995239e-02 -1.578843593597412109e-02 3.945926204323768616e-02
1.378000000000000000e+03 2.810742187500000000e+01 3.991893386840820312e+01 -7.059182506054639816e-03 -5.646105855703353882e-02 -1.905607245862483978e-02 5.815572291612625122e-02
1.379000000000000000e+03 2.216469955444335938e+01 4.167023086547851562e+01 -4.171881824731826782e-03 -4.279738757759332657e-03 -2.535486128181219101e-03 5.076848436146974564e-03
1.380000000000000000e+03 2.375119972229003906e+01 3.342073822021484375e+01 -8.164213597774505615e-02 -4.841728881001472473e-02 -3.901783004403114319e-02 -1.132534146308898926e-01
1.381000000000000000e+03 1.881333732604980469e+01 3.772520446777343750e+01 1.023191865533590317e-02 4.005342256277799606e-03 4.271178506314754486e-03 -3.576489631086587906e-03
1.382000000000000000e+03 5.167194747924804688e+01 3.363883972167968750e+01 4.275629043579101562e+00 1.537171459197998047e+01 5.894203186035156250e+00 2.698650121688842773e+00
1.383000000000000000e+03 5.114566040039062500e+01 3.487917709350585938e+01 9.303944706916809082e-01 1.605703544616699219e+01 5.096228599548339844e+00 1.777569055557250977e+00
1.384000000000000000e+03 5.283867645263671875e+01 3.202130889892578125e+01 5.952273845672607422e+00 1.267134571075439453e+01 5.587085723876953125e+00 5.453659892082214355e-01
1.385000000000000000e+03 5.166835403442382812e+01 3.124026489257812500e+01 6.938500404357910156e+00 1.474032020568847656e+01 6.503645896911621094e+00 -6.768041849136352539e-01
1.386000000000000000e+03 5.145502471923828125e+01 3.287464904785156250e+01 6.952369689941406250e+00 1.524929428100585938e+01 6.660499095916748047e+00 2.838073253631591797e+00
1.387000000000000000e+03 1.145326900482177734e+01 1.652055168151855469e+01 -5.866468418389558792e-04 -5.888217856409028172e-06 -1.777605211827903986e-04 1.855773152783513069e-04
1.388000000000000000e+03 1.229890632629394531e+01 1.038121986389160156e+01 -4.036545578856021166e-04 -1.056913752108812332e-04 -1.528037828393280506e-04 -1.157200822490267456e-04
1.389000000000000000e+03 4.129892349243164062e+01 3.671751785278320312e+01 -2.092942893505096436e-01 1.913596838712692261e-01 -5.380383227020502090e-03 3.446325063705444336e-01
1.390000000000000000e+03 1.249555683135986328e+01 2.697309875488281250e+01 -1.173515571281313896e-03 -3.389436460565775633e-04 -4.537377681117504835e-04 -4.664305306505411863e-04
1.391000000000000000e+03 2.295068740844726562e+01 -1.115837955474853516e+01 -6.664860062301158905e-03 2.807760238647460938e-01 8.223334699869155884e-02 7.236739248037338257e-02
1.392000000000000000e+03 3.350721359252929688e+01 3.934880828857421875e+01 8.793336153030395508e-02 -2.912114262580871582e-01 -6.098341941833496094e-02 2.272089719772338867e-01
1.393000000000000000e+03 2.350804328918457031e+01 -3.258714079856872559e-02 3.348725382238626480e-03 1.125445496290922165e-02 4.380953963845968246e-03 1.334273368120193481e-01
1.394000000000000000e+03 2.445765495300292969e+01 -7.040439605712890625e+00 -9.355757385492324829e-03 4.416803121566772461e-01 1.296973675489425659e-01 1.299588531255722046e-01
1.395000000000000000e+03 2.308569526672363281e+01 -7.010643005371093750e+00 -7.029714761301875114e-04 1.948124617338180542e-01 5.823284387588500977e-02 8.990354835987091064e-02
1.396000000000000000e+03 2.280255317687988281e+01 -1.818461227416992188e+01 -5.333218723535537720e-04 3.817361891269683838e-01 1.143608614802360535e-01 4.700322449207305908e-02
1.397000000000000000e+03 2.204516220092773438e+01 -1.388146638870239258e+00 1.056406254065223038e-04 -1.961771696805953979e-01 -5.882145836949348450e-02 5.983601510524749756e-02
1.398000000000000000e+03 2.346809577941894531e+01 -1.448186874389648438e+00 1.120967674069106579e-03 6.053991243243217468e-02 1.849826425313949585e-02 1.279937177896499634e-01
1.399000000000000000e+03 1.163413047790527344e+01 3.130464553833007812e+01 -1.646317075937986374e-03 1.171729294583201408e-03 -1.423763169441372156e-04 -8.639799780212342739e-04
1.400000000000000000e+03 1.420234680175781250e+01 3.315377426147460938e+01 1.389295561239123344e-03 8.390325237996876240e-04 6.684983964078128338e-04 -7.029850385151803493e-04
1.401000000000000000e+03 1.330513572692871094e+01 2.170589828491210938e+01 1.078283763490617275e-03 4.844481736654415727e-05 3.380185517016798258e-04 -6.069657683838158846e-05
1.402000000000000000e+03 1.181014633178710938e+01 1.784191322326660156e+01 8.226540521718561649e-04 -5.228551890468224883e-05 2.311105490662157536e-04 -1.377911248710006475e-04
1.403000000000000000e+03 2.283099365234375000e+01 -1.676041030883789062e+01 -1.397269777953624725e-03 3.671436607837677002e-01 1.097239181399345398e-01 5.223261937499046326e-02
1.404000000000000000e+03 1.159603404998779297e+01 1.425305366516113281e+01 3.802618302870541811e-04 9.560924081597477198e-05 1.427613169653341174e-04 3.447489580139517784e-04
1.405000000000000000e+03 1.359289455413818359e+01 6.507280826568603516e+00 -3.553176356945186853e-04 -1.877650356618687510e-05 -1.122282410506159067e-04 -9.753296581038739532e-06
1.406000000000000000e+03 1.058247375488281250e+01 4.869313716888427734e+00 3.353066567797213793e-04 2.556987237767316401e-05 1.082629605662077665e-04 1.163616179837845266e-04
1.407000000000000000e+03 1.094208431243896484e+01 1.266933345794677734e+01 2.632169343996793032e-04 2.462144184391945601e-04 1.528294087620452046e-04 2.544273447711020708e-04
1.408000000000000000e+03 1.359642696380615234e+01 5.289795875549316406e+00 3.326381265651434660e-04 3.857995807265979238e-07 9.990717808250337839e-05 7.447129064530599862e-06
1.409000000000000000e+03 8.939988136291503906e+00 4.140403747558593750e+00 -1.953077298821881413e-04 -7.196635851869359612e-05 -8.018222433747723699e-05 -1.036385801853612065e-04
1.410000000000000000e+03 1.188604831695556641e+01 2.050846672058105469e+01 9.934140834957361221e-04 4.799075759365223348e-05 3.124214708805084229e-04 -4.548383367364294827e-05
1.411000000000000000e+03 7.512493896484375000e+01 -3.485546112060546875e+01 -3.696291148662567139e-02 9.116425514221191406e+00 2.723838806152343750e+00 -4.170232266187667847e-02
1.412000000000000000e+03 7.703825378417968750e+01 -3.580264282226562500e+01 -3.006406314671039581e-02 9.445384979248046875e+00 2.824596405029296875e+00 1.014343369752168655e-02
1.413000000000000000e+03 7.487765502929687500e+01 -2.213974189758300781e+01 -8.134548552334308624e-03 9.016052246093750000e+00 2.702375411987304688e+00 -6.626088172197341919e-02
1.414000000000000000e+03 7.791994476318359375e+01 -2.926948928833007812e+01 -4.805102013051509857e-03 9.585278511047363281e+00 2.874141931533813477e+00 -2.234021387994289398e-02
1.415000000000000000e+03 7.811959838867187500e+01 -3.574189758300781250e+01 -2.666766569018363953e-02 9.630339622497558594e+00 2.881101608276367188e+00 2.537548169493675232e-02
1.416000000000000000e+03 7.337556457519531250e+01 -3.759646987915039062e+01 -2.384066022932529449e-02 8.796626091003417969e+00 2.631835460662841797e+00 -2.691287919878959656e-02
1.417000000000000000e+03 7.548730468750000000e+01 1.559898948669433594e+01 -4.199195653200149536e-02 7.093142509460449219e+00 2.115345239639282227e+00 -7.244238853454589844e-01
1.418000000000000000e+03 7.676840972900390625e+01 1.552984523773193359e+01 -2.013935893774032593e-02 7.007688045501708984e+00 2.096264600753784180e+00 -5.567840337753295898e-01
1.419000000000000000e+03 7.752805328369140625e+01 3.519413375854492188e+01 5.823952704668045044e-02 4.420779228210449219e+00 1.343705654144287109e+00 -1.486683636903762817e-01
1.420000000000000000e+03 7.633971405029296875e+01 3.201316452026367188e+01 8.536838740110397339e-02 4.915486812591552734e+00 1.500256657600402832e+00 -3.519991934299468994e-01
1.421000000000000000e+03 7.787725067138671875e+01 -2.223383331298828125e+01 3.764923603739589453e-04 9.510696411132812500e+00 2.853322029113769531e+00 -3.709496185183525085e-02
1.422000000000000000e+03 7.637833404541015625e+01 -2.363281059265136719e+01 -3.596964757889509201e-03 9.270331382751464844e+00 2.780020475387573242e+00 -5.058294534683227539e-02
1.423000000000000000e+03 7.658165740966796875e+01 -3.073129081726074219e+01 -6.338350009173154831e-03 9.367501258850097656e+00 2.808348894119262695e+00 -2.863629721105098724e-02
1.424000000000000000e+03 7.645578765869140625e+01 -2.937238311767578125e+01 -5.651810672134160995e-03 9.327532768249511719e+00 2.796564340591430664e+00 -2.535224519670009613e-02
1.425000000000000000e+03 7.805549621582031250e+01 -3.452275085449218750e+01 -3.524402622133493423e-03 9.631435394287109375e+00 2.888373136520385742e+00 2.644917694851756096e-03
1.426000000000000000e+03 7.488700103759765625e+01 -2.514195823669433594e+01 -1.427089888602495193e-02 9.022472381591796875e+00 2.702460289001464844e+00 -5.431049317121505737e-02
1.427000000000000000e+03 7.639600372314453125e+01 -2.797696876525878906e+01 -9.944703429937362671e-03 9.311758995056152344e+00 2.790544509887695312e+00 -3.610971570014953613e-02
1.428000000000000000e+03 7.637371826171875000e+01 -2.508964157104492188e+01 -9.581494145095348358e-03 9.283279418945312500e+00 2.782109498977661133e+00 -4.213548824191093445e-02
1.429000000000000000e+03 7.661106109619140625e+01 -3.445923995971679688e+01 -2.809343300759792328e-02 9.382228851318359375e+00 2.806240558624267578e+00 1.025893026962876320e-03
1.430000000000000000e+03 7.333670806884765625e+01 -2.981859779357910156e+01 -1.616698317229747772e-02 8.782732963562011719e+00 2.629969835281372070e+00 -4.622459784150123596e-02
1.431000000000000000e+03 7.665807342529296875e+01 -3.313380432128906250e+01 -2.376065216958522797e-02 9.380149841308593750e+00 2.806916952133178711e+00 -1.675165817141532898e-02
1.432000000000000000e+03 7.802555847167968750e+01 2.241090774536132812e+01 1.088248938322067261e-02 5.764258384704589844e+00 1.732542276382446289e+00 -3.860177993774414062e-01
1.433000000000000000e+03 7.672734832763671875e+01 1.969492912292480469e+01 -4.043034277856349945e-03 6.411527156829833984e+00 1.922245144844055176e+00 -5.978720784187316895e-01
1.434000000000000000e+03 7.538778686523437500e+01 2.254753684997558594e+01 3.101621754467487335e-02 6.253044605255126953e+00 1.885218262672424316e+00 -7.636196017265319824e-01
1.435000000000000000e+03 7.671636199951171875e+01 2.108593940734863281e+01 9.365525096654891968e-03 6.209875583648681641e+00 1.865772366523742676e+00 -5.975826382637023926e-01
1.436000000000000000e+03 7.675602722167968750e+01 1.277771854400634766e+01 -2.843117713928222656e-02 7.376402378082275391e+00 2.204391479492187500e+00 -5.139151811599731445e-01
1.437000000000000000e+03 7.519826507568359375e+01 8.666143417358398438e+00 -7.353240996599197388e-02 7.821278572082519531e+00 2.324323892593383789e+00 -5.866726040840148926e-01
1.438000000000000000e+03 7.676882934570312500e+01 1.415176200866699219e+01 -2.805804833769798279e-02 7.197020530700683594e+00 2.150688648223876953e+00 -5.372770428657531738e-01
1.439000000000000000e+03 7.671462249755859375e+01 2.387912750244140625e+01 3.148430958390235901e-02 5.812367916107177734e+00 1.753155589103698730e+00 -5.749467015266418457e-01
1.440000000000000000e+03 7.802333068847656250e+01 2.662885856628417969e+01 2.247791551053524017e-02 5.085020542144775391e+00 1.532249569892883301e+00 -3.339368104934692383e-01
1.441000000000000000e+03 7.641165161132812500e+01 -2.218936538696289062e+01 -3.982376307249069214e-03 9.261780738830566406e+00 2.777339458465576172e+00 -4.899473115801811218e-02
1.442000000000000000e+03 7.672782135009765625e+01 2.673181152343750000e+01 6.299453228712081909e-02 5.420969486236572266e+00 1.645189285278320312e+00 -5.165915489196777344e-01
1.443000000000000000e+03 7.419898223876953125e+01 -1.640625190734863281e+01 -3.469628468155860901e-02 8.830398559570312500e+00 2.638710737228393555e+00 -1.182654649019241333e-01
1.444000000000000000e+03 7.648155212402343750e+01 -2.075630569458007812e+01 -5.458138883113861084e-03 9.260762214660644531e+00 2.776591062545776367e+00 -5.484735220670700073e-02
1.445000000000000000e+03 7.415942382812500000e+01 -9.704964637756347656e+00 -5.454281717538833618e-02 8.692925453186035156e+00 2.591514825820922852e+00 -2.032787501811981201e-01
1.446000000000000000e+03 7.806064605712890625e+01 -1.522147655487060547e+01 -6.138612981885671616e-03 9.427827835083007812e+00 2.826506853103637695e+00 -5.594889074563980103e-02
1.447000000000000000e+03 7.555368041992187500e+01 -1.477005839347839355e+00 -4.957740381360054016e-02 8.565638542175292969e+00 2.554818153381347656e+00 -3.021834790706634521e-01
1.448000000000000000e+03 7.806236267089843750e+01 -8.303330421447753906e+00 -8.037965744733810425e-03 9.224795341491699219e+00 2.765027284622192383e+00 -9.558641165494918823e-02
1.449000000000000000e+03 7.793890380859375000e+01 5.596553325653076172e+00 -1.574951224029064178e-02 8.258787155151367188e+00 2.472911357879638672e+00 -2.524140477180480957e-01
1.450000000000000000e+03 7.543254852294921875e+01 2.573049068450927734e+00 -6.092993170022964478e-02 8.314526557922363281e+00 2.476078987121582031e+00 -4.004167914390563965e-01
1.451000000000000000e+03 7.613313293457031250e+01 3.461840438842773438e+01 8.252565562725067139e-02 4.806547641754150391e+00 1.466722011566162109e+00 -2.368028163909912109e-01
1.452000000000000000e+03 7.793141174316406250e+01 7.022620677947998047e+00 -1.569943502545356750e-02 8.104431152343750000e+00 2.426619529724121094e+00 -2.730854749679565430e-01
1.453000000000000000e+03 7.652439117431640625e+01 5.581540107727050781e+00 -4.022719338536262512e-02 8.155723571777343750e+00 2.434648990631103516e+00 -3.880130350589752197e-01
1.454000000000000000e+03 7.809063720703125000e+01 -1.409478783607482910e+00 -1.119972206652164459e-02 8.868732452392578125e+00 2.657259941101074219e+00 -1.535485386848449707e-01
1.455000000000000000e+03 7.681457519531250000e+01 -2.803555727005004883e+00 -2.539101988077163696e-02 8.787633895874023438e+00 2.628672838211059570e+00 -2.123573124408721924e-01
1.456000000000000000e+03 7.675870513916015625e+01 -9.671357154846191406e+00 -1.896191760897636414e-02 9.072918891906738281e+00 2.716187000274658203e+00 -1.293311417102813721e-01
1.457000000000000000e+03 7.674442291259765625e+01 -1.653571510314941406e+01 -1.341920159757137299e-02 9.237348556518554688e+00 2.767179012298583984e+00 -7.413448393344879150e-02
1.458000000000000000e+03 7.513703155517578125e+01 3.312947463989257812e+01 1.700585931539535522e-01 5.264439582824707031e+00 1.630349397659301758e+00 -4.136638045310974121e-01
1.459000000000000000e+03 7.331301116943359375e+01 3.406698608398437500e+01 2.686668336391448975e-01 5.894842147827148438e+00 1.849052667617797852e+00 -4.436298310756683350e-01
1.460000000000000000e+03 7.675111389160156250e+01 3.080697441101074219e+01 6.218214705586433411e-02 4.898429393768310547e+00 1.488183379173278809e+00 -3.581537306308746338e-01
1.461000000000000000e+03 7.674382019042968750e+01 1.830422782897949219e+01 -6.982684135437011719e-03 6.612745761871337891e+00 1.981728911399841309e+00 -5.894158482551574707e-01
1.462000000000000000e+03 7.666378021240234375e+01 9.981552124023437500e+00 -3.550639376044273376e-02 7.714470863342285156e+00 2.303689241409301758e+00 -4.709616005420684814e-01
1.463000000000000000e+03 7.677610015869140625e+01 -1.516391754150390625e+01 -1.142175961285829544e-02 9.215877532958984375e+00 2.761336803436279297e+00 -8.318908512592315674e-02
1.464000000000000000e+03 7.676401519775390625e+01 -8.285702705383300781e+00 -2.074169181287288666e-02 9.025469779968261719e+00 2.701418638229370117e+00 -1.443661004304885864e-01
1.465000000000000000e+03 7.528276062011718750e+01 3.986467599868774414e+00 -7.173378020524978638e-02 8.208703041076660156e+00 2.441090822219848633e+00 -4.474753737449645996e-01
1.466000000000000000e+03 7.681613159179687500e+01 -6.987501680850982666e-02 -2.938488125801086426e-02 8.624281883239746094e+00 2.578469038009643555e+00 -2.551102340221405029e-01
1.467000000000000000e+03 7.662603759765625000e+01 4.119214534759521484e+00 -3.952954337000846863e-02 8.291055679321289062e+00 2.475457668304443359e+00 -3.497578799724578857e-01
1.468000000000000000e+03 7.678749084472656250e+01 -5.540628433227539062e+00 -2.258257195353507996e-02 8.918781280517578125e+00 2.668859720230102539e+00 -1.764764189720153809e-01
1.469000000000000000e+03 7.677456665039062500e+01 -6.910714149475097656e+00 -2.109884098172187805e-02 8.974740982055664062e+00 2.686092615127563477e+00 -1.598500311374664307e-01
1.470000000000000000e+03 7.680117797851562500e+01 -4.170661449432373047e+00 -2.317803539335727692e-02 8.856004714965820312e+00 2.649847984313964844e+00 -1.937725543975830078e-01
1.471000000000000000e+03 7.677870941162109375e+01 -1.380417633056640625e+01 -1.284692715853452682e-02 9.188461303710937500e+00 2.752684354782104492e+00 -9.128486365079879761e-02
1.472000000000000000e+03 7.676888275146484375e+01 -1.243706893920898438e+01 -1.392215956002473831e-02 9.153950691223144531e+00 2.742008447647094727e+00 -1.027515307068824768e-01
1.473000000000000000e+03 7.657732391357421875e+01 -1.933502960205078125e+01 -1.154689397662878036e-02 9.254663467407226562e+00 2.772934913635253906e+00 -5.978214740753173828e-02
1.474000000000000000e+03 2.228280830383300781e+01 5.690378189086914062e+00 -1.395586039870977402e-02 -5.380217432975769043e-01 -1.655932813882827759e-01 7.859799265861511230e-02
1.475000000000000000e+03 2.354361534118652344e+01 9.907465934753417969e+00 1.388657838106155396e-02 -4.314907193183898926e-01 -1.252812445163726807e-01 1.227279379963874817e-01
1.476000000000000000e+03 2.283194351196289062e+01 -2.537727355957031250e+01 -5.968709941953420639e-03 4.558542370796203613e-01 1.349656581878662109e-01 2.230145782232284546e-02
1.477000000000000000e+03 2.129185676574707031e+01 -2.248510551452636719e+01 -2.606285968795418739e-03 1.958495229482650757e-01 5.797296762466430664e-02 1.704980619251728058e-02
1.478000000000000000e+03 2.192592239379882812e+01 3.103783607482910156e+01 -1.429488603025674820e-02 -1.756039559841156006e-01 -5.696965381503105164e-02 -1.063986346125602722e-01
1.479000000000000000e+03 2.353968811035156250e+01 1.273076915740966797e+01 2.755691111087799072e-02 -5.261725187301635742e-01 -1.495846807956695557e-01 8.655553311109542847e-02
1.480000000000000000e+03 1.230869102478027344e+01 -2.600933647155761719e+01 2.464148681610822678e-03 8.316825260408222675e-04 9.887493215501308441e-04 -3.828331246040761471e-04
1.481000000000000000e+03 2.461073303222656250e+01 3.148587989807128906e+01 -9.334247559309005737e-02 -9.482435882091522217e-02 -5.645005032420158386e-02 -2.198083996772766113e-01
1.482000000000000000e+03 2.211000061035156250e+01 2.694703292846679688e+01 1.650650054216384888e-03 -4.616242945194244385e-01 -1.379920989274978638e-01 -1.509028226137161255e-01
1.483000000000000000e+03 2.321827125549316406e+01 2.706012535095214844e+01 3.583410754799842834e-03 -3.669412434101104736e-01 -1.090073511004447937e-01 -2.248346358537673950e-01
1.484000000000000000e+03 1.352970790863037109e+01 -6.630340576171875000e+00 -6.562310736626386642e-04 4.584947600960731506e-05 -1.831144763855263591e-04 1.314507389906793833e-04
1.485000000000000000e+03 2.215667533874511719e+01 2.553710937500000000e+01 8.192038163542747498e-03 -5.594699978828430176e-01 -1.653833836317062378e-01 -1.483273953199386597e-01
1.486000000000000000e+03 2.465849685668945312e+01 2.288763618469238281e+01 8.128866553306579590e-02 -3.753699064254760742e-01 -8.822437375783920288e-02 -2.067669779062271118e-01
1.487000000000000000e+03 2.100834465026855469e+01 -2.797926521301269531e+01 -2.612439682707190514e-03 1.923245340585708618e-01 5.691362544894218445e-02 4.255847539752721786e-03
1.488000000000000000e+03 2.224427032470703125e+01 2.270013999938964844e+01 1.772857084870338440e-02 -7.242102026939392090e-01 -2.119445055723190308e-01 -1.148310005664825439e-01
1.489000000000000000e+03 2.345166015625000000e+01 2.278470802307128906e+01 4.547410085797309875e-02 -5.430601239204406738e-01 -1.492758095264434814e-01 -1.696776002645492554e-01
1.490000000000000000e+03 2.353153610229492188e+01 2.135000610351562500e+01 4.834103211760520935e-02 -5.726797580718994141e-01 -1.573016196489334106e-01 -1.326720863580703735e-01
1.491000000000000000e+03 2.228088188171386719e+01 2.128292655944824219e+01 2.033251710236072540e-02 -7.833025455474853516e-01 -2.288910001516342163e-01 -9.174040704965591431e-02
1.492000000000000000e+03 2.489628028869628906e+01 1.992870140075683594e+01 9.492973238229751587e-02 -3.751417994499206543e-01 -8.406361937522888184e-02 -1.039913818240165710e-01
1.493000000000000000e+03 1.328350734710693359e+01 -1.611719512939453125e+01 1.177148893475532532e-03 1.432054268661886454e-04 3.961062757298350334e-04 -3.178892075084149837e-04
1.494000000000000000e+03 1.178712272644042969e+01 -1.837771224975585938e+01 -1.142690540291368961e-03 -5.482520209625363350e-04 -5.072827916592359543e-04 6.326539441943168640e-04
1.495000000000000000e+03 1.209509944915771484e+01 -1.591422176361083984e+01 -1.055515371263027191e-03 -2.674915594980120659e-04 -3.969020617660135031e-04 3.514002892188727856e-04
1.496000000000000000e+03 1.251708984375000000e+01 -9.222583770751953125e+00 8.099975530058145523e-04 -1.981624336622189730e-05 2.370543952565640211e-04 -1.122341491281986237e-04
1.497000000000000000e+03 1.352252674102783203e+01 -9.284782409667968750e+00 -8.047978044487535954e-04 1.790344140317756683e-05 -2.360683138249441981e-04 4.019352854811586440e-05
1.498000000000000000e+03 1.217046451568603516e+01 -1.189260482788085938e+01 8.308713440783321857e-04 5.712745405617170036e-05 2.663996419869363308e-04 -1.176973528345115483e-04
1.499000000000000000e+03 2.354204368591308594e+01 1.415034198760986328e+01 3.592914342880249023e-02 -5.625317692756652832e-01 -1.579807847738265991e-01 5.943967401981353760e-02
1.500000000000000000e+03 2.355310058593750000e+01 1.557226276397705078e+01 4.081350564956665039e-02 -5.856112837791442871e-01 -1.634393334388732910e-01 2.907939627766609192e-02
1.501000000000000000e+03 2.230764579772949219e+01 1.276202201843261719e+01 1.196421030908823013e-02 -8.097709417343139648e-01 -2.393420189619064331e-01 5.255985260009765625e-02
1.502000000000000000e+03 2.354320716857910156e+01 1.131919002532958984e+01 2.177983336150646210e-02 -4.821620881557464600e-01 -1.381146758794784546e-01 1.063244789838790894e-01
1.503000000000000000e+03 1.151468276977539062e+01 -1.949451065063476562e+01 1.215689815580844879e-03 6.104909698478877544e-04 5.478542298078536987e-04 -4.065547836944460869e-04
1.504000000000000000e+03 1.181378459930419922e+01 -2.377186012268066406e+01 2.241125330328941345e-03 -3.985968360211700201e-04 5.527585162781178951e-04 -3.913711116183549166e-04
1.505000000000000000e+03 2.230735588073730469e+01 8.523958206176757812e+00 2.242255723103880882e-03 -6.616626381874084473e-01 -1.978261023759841919e-01 8.325204253196716309e-02
1.506000000000000000e+03 2.352301979064941406e+01 7.078407764434814453e+00 -3.676462685689330101e-03 -3.195248544216156006e-01 -9.696039557456970215e-02 1.372427940368652344e-01
1.507000000000000000e+03 2.315804672241210938e+01 -5.641248703002929688e+00 8.357857586815953255e-04 1.646239310503005981e-01 4.963791370391845703e-02 9.975259006023406982e-02
1.508000000000000000e+03 2.325391769409179688e+01 -4.260078430175781250e+00 -1.658282475546002388e-03 1.387609690427780151e-01 4.113080725073814392e-02 1.109123229980468750e-01
1.509000000000000000e+03 3.378913164138793945e+00 3.028725624084472656e+01 1.073785591870546341e-03 6.348030183289665729e-06 3.240400983486324549e-04 2.803571696858853102e-04
1.510000000000000000e+03 1.931138515472412109e+00 2.758001899719238281e+01 -9.397875983268022537e-04 2.711405613808892667e-05 -2.738020557444542646e-04 -9.603909711586311460e-05
1.511000000000000000e+03 5.067873001098632812e+00 3.312988662719726562e+01 -1.018591923639178276e-03 -1.840906916186213493e-04 -3.608047845773398876e-04 -3.165961534250527620e-04
1.512000000000000000e+03 3.076872110366821289e+00 3.716956710815429688e+01 -1.129653610405512154e-04 -1.750776864355430007e-04 -8.641291788080707192e-05 -7.330439075303729624e-06
1.513000000000000000e+03 3.264858722686767578e+00 2.890778732299804688e+01 -1.132737030275166035e-03 7.344488403759896755e-05 -3.177876351401209831e-04 -1.972105674212798476e-04
1.514000000000000000e+03 1.983341097831726074e+00 3.588221359252929688e+01 -7.659527473151683807e-04 -3.445300098974257708e-04 -3.331448242533951998e-04 3.379270783625543118e-04
1.515000000000000000e+03 2.028316259384155273e+00 3.455076217651367188e+01 7.612060289829969406e-04 1.895316818263381720e-04 2.852213219739496708e-04 -1.448471739422529936e-04
1.516000000000000000e+03 3.521906137466430664e+00 3.313058090209960938e+01 7.884799269959330559e-04 2.243982889922335744e-04 3.038634604308754206e-04 2.436109061818569899e-04
1.517000000000000000e+03 4.809209823608398438e+00 3.013342094421386719e+01 -1.343689509667456150e-03 4.738691495731472969e-05 -3.888907667715102434e-04 -3.077989968005567789e-04
1.518000000000000000e+03 3.478062152862548828e+00 3.168899154663085938e+01 -9.639351046644151211e-04 -1.501892547821626067e-04 -3.342372947372496128e-04 -2.238894958281889558e-04
1.519000000000000000e+03 3.524111986160278320e+00 -3.594720458984375000e+01 -6.671834853477776051e-04 7.464675582014024258e-04 2.378522367507684976e-05 1.888592960312962532e-04
1.520000000000000000e+03 3.223617076873779297e+00 -3.722196197509765625e+01 -2.573007077444344759e-04 4.172157205175608397e-04 4.797450310434214771e-05 7.337230490520596504e-04
1.521000000000000000e+03 3.477297544479370117e+00 -3.022512435913085938e+01 -1.175260986201465130e-03 -1.532763417344540358e-04 -3.985612129326909781e-04 9.445826290175318718e-04
1.522000000000000000e+03 2.035653352737426758e+00 -2.891261482238769531e+01 -9.491699747741222382e-04 1.174549761344678700e-04 -2.495145017746835947e-04 5.552551010623574257e-04
1.523000000000000000e+03 1.980143547058105469e+00 2.194627571105957031e+01 -8.455890347249805927e-04 6.318992745946161449e-06 -2.517810207791626453e-04 -1.424515357939526439e-05
1.524000000000000000e+03 3.281532049179077148e+00 2.336698722839355469e+01 -9.855806129053235054e-04 -1.438841263734502718e-05 -2.999907301273196936e-04 -1.082044182112440467e-04
1.525000000000000000e+03 3.105131626129150391e+00 -1.921871376037597656e+01 -1.320116221904754639e-03 -3.929197191610001028e-05 -4.078224592376500368e-04 7.063511293381452560e-05
1.526000000000000000e+03 2.962802648544311523e+00 -1.212349510192871094e+01 9.249433060176670551e-04 1.975902341655455530e-05 2.834107144735753536e-04 -5.055604924564249814e-05
1.527000000000000000e+03 1.699479222297668457e+00 -9.299109458923339844e+00 -8.309017866849899292e-04 -1.745542249409481883e-05 -2.545071474742144346e-04 7.832100891391746700e-06
1.528000000000000000e+03 3.042471408843994141e+00 1.734434509277343750e+01 -8.180883014574646950e-04 1.940100919455289841e-04 -1.872234715847298503e-04 3.254777402617037296e-04
1.529000000000000000e+03 3.021009683609008789e+00 1.193833637237548828e+01 -5.076747038401663303e-04 -5.088714533485472202e-05 -1.675685489317402244e-04 5.067546589998528361e-05
1.530000000000000000e+03 1.847105860710144043e+00 -1.495767498016357422e+01 -1.030573737807571888e-03 -6.342918641166761518e-05 -3.282008983660489321e-04 4.839200846618041396e-05
1.531000000000000000e+03 3.021373033523559570e+00 -1.355886936187744141e+01 -9.779224637895822525e-04 -5.375912587624043226e-05 -3.095044521614909172e-04 6.669337017228826880e-05
1.532000000000000000e+03 4.529619216918945312e+00 5.225987911224365234e+00 2.533896185923367739e-04 5.842089012730866671e-05 9.354315261589363217e-05 -2.378897333983331919e-04
1.533000000000000000e+03 2.780978679656982422e+00 7.692024230957031250e+00 3.855473769363015890e-04 4.498688213061541319e-05 1.291602675337344408e-04 -5.538244749914156273e-06
1.534000000000000000e+03 1.816286444664001465e+00 1.483166790008544922e+01 5.996796535328030586e-04 3.599348565330728889e-05 1.907019468490034342e-04 -1.538912183605134487e-04
1.535000000000000000e+03 2.888921260833740234e+00 1.616499519348144531e+01 6.300875684246420860e-04 -1.443423116143094376e-05 1.846959930844604969e-04 -2.620801969897001982e-04
1.536000000000000000e+03 2.876376867294311523e+00 9.097722053527832031e+00 -4.150767927058041096e-04 -4.094464020454324782e-05 -1.368064258713275194e-04 4.089246431249193847e-05
1.537000000000000000e+03 5.784661293029785156e+00 -4.283694267272949219e+00 -8.522994176018983126e-05 -3.043202159460633993e-04 -1.168650487670674920e-04 -2.260706096421927214e-04
1.538000000000000000e+03 2.672891616821289062e+00 -5.190563201904296875e+00 -6.153338472358882427e-04 -1.955478219315409660e-04 -2.432645123917609453e-04 1.363197952741757035e-04
1.539000000000000000e+03 1.612893223762512207e+00 -6.495770931243896484e+00 -7.432140992023050785e-04 -4.556866042548790574e-05 -2.366348344366997480e-04 1.248295393452281132e-05
1.540000000000000000e+03 3.382933378219604492e+00 -2.879023551940917969e+01 1.738576218485832214e-03 3.596750684664584696e-05 5.323631339706480503e-04 -2.711454581003636122e-04
1.541000000000000000e+03 3.161532402038574219e+00 -2.193996810913085938e+01 -1.545173581689596176e-03 -2.435867372696520761e-06 -4.642828134819865227e-04 2.004415146075189114e-04
1.542000000000000000e+03 2.104664802551269531e+00 -3.589884567260742188e+01 9.533895645290613174e-04 1.488789683207869530e-03 7.326537743210792542e-04 1.270243665203452110e-03
1.543000000000000000e+03 5.027482986450195312e+00 -3.623044204711914062e+01 -4.563607799354940653e-04 5.262121558189392090e-04 2.095540912705473602e-05 1.556368195451796055e-03
1.544000000000000000e+03 3.192062377929687500e+00 -2.328843307495117188e+01 1.610313425771892071e-03 -2.323459011677186936e-05 4.761236486956477165e-04 -2.770987630356103182e-04
1.545000000000000000e+03 3.070357561111450195e+00 -1.639855194091796875e+01 -1.129437237977981567e-03 -1.180335093522444367e-04 -3.742412081919610500e-04 5.373586463974788785e-05
1.546000000000000000e+03 3.255152940750122070e+00 2.192358207702636719e+01 9.847662877291440964e-04 -5.886673170607537031e-05 2.777698682621121407e-04 8.264480857178568840e-05
1.547000000000000000e+03 2.888354539871215820e+00 -1.070020675659179688e+01 -8.848654688335955143e-04 -7.233107226056745276e-06 -2.676295698620378971e-04 2.167437924072146416e-05
1.548000000000000000e+03 2.814188241958618164e+00 -9.298416137695312500e+00 8.370180148631334305e-04 1.675017119850963354e-05 2.561304718255996704e-04 -3.127123818558175117e-06
1.549000000000000000e+03 3.647765159606933594e+00 -3.310231781005859375e+01 -6.153320427983999252e-04 -7.086256518959999084e-04 -3.971872793044894934e-04 9.698312496766448021e-04
1.550000000000000000e+03 5.220657348632812500e+00 -3.464406967163085938e+01 -2.611840027384459972e-04 -1.649647019803524017e-03 -5.732493009418249130e-04 1.405318849720060825e-03
1.551000000000000000e+03 1.942108750343322754e+00 -2.472081375122070312e+01 1.343087642453610897e-03 2.249475619464647025e-05 4.096747143194079399e-04 -2.338133635930716991e-04
1.552000000000000000e+03 4.453800678253173828e+00 -2.323025512695312500e+01 -1.856281072832643986e-03 2.130486245732754469e-04 -4.929697024635970592e-04 3.645087708719074726e-04
1.553000000000000000e+03 3.281104087829589844e+00 -2.600516891479492188e+01 1.641144044697284698e-03 5.575082104769535363e-05 5.090684280730783939e-04 -3.402991569600999355e-04
1.554000000000000000e+03 3.055955171585083008e+00 -1.498536109924316406e+01 1.044881995767354965e-03 9.551332914270460606e-05 3.421185829211026430e-04 -7.696359534747898579e-05
1.555000000000000000e+03 2.959911346435546875e+00 1.051233577728271484e+01 4.695302050095051527e-04 4.039654959342442453e-05 1.529780274722725153e-04 -6.473610119428485632e-05
1.556000000000000000e+03 3.067913770675659180e+00 1.338922786712646484e+01 4.856313462369143963e-04 1.050635328283533454e-04 1.772084651747718453e-04 -4.816465298063121736e-05
1.557000000000000000e+03 3.269218444824218750e+00 1.875402641296386719e+01 7.844014908187091351e-04 -9.767783012648578733e-06 2.323901135241612792e-04 -5.981878348393365741e-05
1.558000000000000000e+03 2.348126411437988281e+01 2.812223672866821289e+00 -5.474078934639692307e-03 -1.219251155853271484e-01 -3.821975737810134888e-02 1.489263921976089478e-01
1.559000000000000000e+03 2.298737716674804688e+01 -9.766083717346191406e+00 -5.805224645882844925e-03 2.536135911941528320e-01 7.434250414371490479e-02 7.835141569375991821e-02
1.560000000000000000e+03 1.119943428039550781e+01 3.228677368164062500e+01 1.520621590316295624e-03 -8.213026449084281921e-04 2.097956748912110925e-04 8.606390329077839851e-04
1.561000000000000000e+03 1.375944519042968750e+01 2.960434150695800781e+01 1.711215474642813206e-03 -3.468607974355109036e-05 5.029588355682790279e-04 5.022122059017419815e-04
1.562000000000000000e+03 1.219475650787353516e+01 2.320811843872070312e+01 9.947174694389104843e-04 8.924849680624902248e-05 3.251897869631648064e-04 -1.774275879142805934e-04
1.563000000000000000e+03 1.576721286773681641e+01 3.692378234863281250e+01 -2.036783611401915550e-03 -1.740522449836134911e-03 -1.133191748522222042e-03 8.730997215025126934e-04
1.564000000000000000e+03 2.286535072326660156e+01 -1.534799957275390625e+01 -5.267071072012186050e-03 3.495014011859893799e-01 1.032702997326850891e-01 5.681506544351577759e-02
1.565000000000000000e+03 2.291982460021972656e+01 -1.255073165893554688e+01 -8.664475753903388977e-03 3.061610460281372070e-01 8.924897015094757080e-02 6.761026382446289062e-02
1.566000000000000000e+03 1.162386322021484375e+01 -3.531184005737304688e+01 2.927468623965978622e-03 -3.234392032027244568e-03 -9.207701805280521512e-05 -8.056606166064739227e-03
1.567000000000000000e+03 2.350547218322753906e+01 5.661942481994628906e+00 -1.042558997869491577e-02 -2.561237812042236328e-01 -7.996480911970138550e-02 1.418967097997665405e-01
1.568000000000000000e+03 3.711848449707031250e+01 3.730047988891601562e+01 -1.547990739345550537e-01 -2.893191874027252197e-01 -1.332354843616485596e-01 5.423460006713867188e-01
1.569000000000000000e+03 3.628276824951171875e+01 3.955437850952148438e+01 4.195866286754608154e-01 -3.819113671779632568e-01 1.130258105695247650e-02 3.017575442790985107e-01
1.570000000000000000e+03 4.078961563110351562e+01 3.893610000610351562e+01 6.873574256896972656e-01 3.532280027866363525e-01 3.121756315231323242e-01 2.968950867652893066e-01
1.571000000000000000e+03 2.336637687683105469e+01 -2.860116958618164062e+00 1.360382651910185814e-03 1.060969680547714233e-01 3.223720565438270569e-02 1.197918355464935303e-01
1.572000000000000000e+03 2.279910850524902344e+01 -1.961905479431152344e+01 -3.141108900308609009e-03 4.037694036960601807e-01 1.201884895563125610e-01 4.531032592058181763e-02
1.573000000000000000e+03 1.252879905700683594e+01 2.814941787719726562e+01 1.305642654187977314e-03 1.741240121191367507e-04 4.439299809746444225e-04 5.449664895422756672e-04
1.574000000000000000e+03 3.206197738647460938e+01 3.983933639526367188e+01 9.260092675685882568e-02 -2.339283078908920288e-01 -4.239821806550025940e-02 1.955921202898025513e-01
1.575000000000000000e+03 2.129850196838378906e+01 -2.104814529418945312e+01 -5.459790118038654327e-04 1.867492198944091797e-01 5.586097016930580139e-02 1.808311231434345245e-02
1.576000000000000000e+03 2.268827819824218750e+01 -3.224862670898437500e+01 -1.120287086814641953e-02 4.777869880199432373e-01 1.399752348661422729e-01 -5.840523634105920792e-03
1.577000000000000000e+03 2.236679649353027344e+01 -2.802784919738769531e+01 -3.649926045909523964e-03 4.244726598262786865e-01 1.262468248605728149e-01 1.167731173336505890e-02
1.578000000000000000e+03 2.697843551635742188e+01 3.933193969726562500e+01 -1.562252291478216648e-03 -4.035141319036483765e-02 -1.257409900426864624e-02 2.679237164556980133e-02
1.579000000000000000e+03 2.409768486022949219e+01 -2.701658058166503906e+01 -6.508127320557832718e-03 7.023716568946838379e-01 2.087590694427490234e-01 2.465110644698143005e-02
1.580000000000000000e+03 2.098395919799804688e+01 -2.936772537231445312e+01 -4.926268011331558228e-04 1.983495801687240601e-01 5.935708433389663696e-02 2.059307880699634552e-03
1.581000000000000000e+03 2.616598892211914062e+01 -3.566770172119140625e+01 -4.179156851023435593e-03 1.077009916305541992e+00 3.218492567539215088e-01 1.752041094005107880e-02
1.582000000000000000e+03 4.861927032470703125e+00 -4.050357437133789062e+01 1.064493088051676750e-03 2.082605846226215363e-03 9.441296570003032684e-04 9.993744315579533577e-04
1.583000000000000000e+03 7.916544914245605469e+00 -4.134783172607421875e+01 -3.252390306442975998e-03 -1.783527666702866554e-03 -1.510775415226817131e-03 9.086031932383775711e-04
1.584000000000000000e+03 4.704402160644531250e+01 3.509057617187500000e+01 9.531739950180053711e-01 4.960273265838623047e+00 1.774034142494201660e+00 -3.067538499832153320e+00
1.585000000000000000e+03 4.732655334472656250e+01 3.411675643920898438e+01 1.283120751380920410e+00 4.396934986114501953e+00 1.704016685485839844e+00 -3.629832744598388672e+00
1.586000000000000000e+03 4.756061935424804688e+01 3.039536094665527344e+01 4.743561267852783203e+00 6.059961318969726562e+00 3.241056680679321289e+00 6.262071609497070312e+00
1.587000000000000000e+03 4.751384735107421875e+01 3.437536621093750000e+01 1.395722389221191406e+00 5.630422592163085938e+00 2.107843637466430664e+00 -4.183012485504150391e+00
1.588000000000000000e+03 4.813262176513671875e+01 3.447001266479492188e+01 7.445598244667053223e-01 9.439187049865722656e+00 3.055124044418334961e+00 -5.119568824768066406e+00
1.589000000000000000e+03 4.723080062866210938e+01 3.478406143188476562e+01 1.042694807052612305e+00 5.527501583099365234e+00 1.971058845520019531e+00 -3.556479930877685547e+00
1.590000000000000000e+03 4.515182113647460938e+01 3.051732826232910156e+01 1.768834233283996582e+00 6.290318369865417480e-01 7.193598151206970215e-01 1.594376087188720703e+00
1.591000000000000000e+03 4.675769042968750000e+01 3.017133712768554688e+01 3.966690063476562500e+00 3.085490942001342773e+00 2.115654230117797852e+00 4.373915195465087891e+00
1.592000000000000000e+03 4.626965332031250000e+01 3.068176841735839844e+01 3.102359533309936523e+00 1.261530399322509766e+00 1.309167027473449707e+00 2.657296895980834961e+00
1.593000000000000000e+03 4.718812942504882812e+01 3.441391372680664062e+01 1.182522892951965332e+00 4.563389301300048828e+00 1.723773598670959473e+00 -3.365057468414306641e+00
1.594000000000000000e+03 4.814751815795898438e+01 3.012109756469726562e+01 3.846283674240112305e+00 1.059150791168212891e+01 4.331337451934814453e+00 7.073890209197998047e+00
1.595000000000000000e+03 4.857058334350585938e+01 2.921101570129394531e+01 1.728834390640258789e+00 1.227564430236816406e+01 4.201343536376953125e+00 5.151952266693115234e+00
1.596000000000000000e+03 4.899868011474609375e+01 2.915233039855957031e+01 1.315508484840393066e+00 1.380738067626953125e+01 4.536866664886474609e+00 4.460151195526123047e+00
1.597000000000000000e+03 4.268101882934570312e+01 2.980340194702148438e+01 8.653587102890014648e-01 3.914833962917327881e-01 3.770526349544525146e-01 7.408806085586547852e-01
1.598000000000000000e+03 4.396980667114257812e+01 3.022129058837890625e+01 1.162977337837219238e+00 4.402816593647003174e-01 4.809777140617370605e-01 1.047146439552307129e+00
1.599000000000000000e+03 4.640703964233398438e+01 3.601529693603515625e+01 7.341603636741638184e-01 3.894152641296386719e+00 1.388493895530700684e+00 -2.465627908706665039e+00
1.600000000000000000e+03 4.499385833740234375e+01 3.004516410827636719e+01 2.125351190567016602e+00 9.979510903358459473e-01 9.369906783103942871e-01 1.909109354019165039e+00
1.601000000000000000e+03 4.329632186889648438e+01 2.975674438476562500e+01 1.185312390327453613e+00 5.198599696159362793e-01 5.115516781806945801e-01 1.002545714378356934e+00
1.602000000000000000e+03 2.610881614685058594e+01 3.177278327941894531e+01 -1.645869612693786621e-01 -3.117975406348705292e-02 -5.873001366853713989e-02 -2.523111104965209961e-01
1.603000000000000000e+03 2.535552024841308594e+01 3.257336044311523438e+01 -1.466333568096160889e-01 -3.696227073669433594e-02 -5.507868900895118713e-02 -1.974604129791259766e-01
1.604000000000000000e+03 4.141003799438476562e+01 3.051128387451171875e+01 -9.082832932472229004e-02 1.671488732099533081e-01 2.289616316556930542e-02 2.211874425411224365e-01
1.605000000000000000e+03 4.201501464843750000e+01 2.985512161254882812e+01 5.741235017776489258e-01 3.279205560684204102e-01 2.706132233142852783e-01 5.185351371765136719e-01
1.606000000000000000e+03 4.836102294921875000e+01 3.611107635498046875e+01 -6.012409329414367676e-01 1.084938526153564453e+01 3.074443340301513672e+00 -3.068834781646728516e+00
1.607000000000000000e+03 2.681459617614746094e+01 3.182774162292480469e+01 -1.976863294839859009e-01 -1.292922534048557281e-02 -6.318466365337371826e-02 -2.647557258605957031e-01
1.608000000000000000e+03 8.175770759582519531e+00 4.178578376770019531e+00 1.407695235684514046e-04 1.045256358338519931e-04 7.358854782069101930e-05 7.141505921026691794e-05
1.609000000000000000e+03 1.044076538085937500e+01 3.315753459930419922e+00 2.559165877755731344e-04 -1.905085264297667891e-05 7.105972326826304197e-05 3.658123023342341185e-05
1.610000000000000000e+03 2.610960006713867188e+01 3.262389373779296875e+01 -1.864227652549743652e-01 -1.666764542460441589e-02 -6.092712283134460449e-02 -2.125411331653594971e-01
1.611000000000000000e+03 2.548276519775390625e+01 3.080270385742187500e+01 -1.131427064538002014e-01 -7.384581118822097778e-02 -5.609655752778053284e-02 -2.715867161750793457e-01
1.612000000000000000e+03 6.893434047698974609e+00 5.463506221771240234e+00 -2.502172355889342725e-05 1.043642168951919302e-05 -4.375590378913329914e-06 4.176672882749699056e-05
1.613000000000000000e+03 5.198608875274658203e+00 4.246617794036865234e+00 1.116378989536315203e-04 1.371759281028062105e-04 7.464415102731436491e-05 -1.274160313187167048e-04
1.614000000000000000e+03 4.675023078918457031e+00 6.234130382537841797e+00 -2.008920127991586924e-04 -9.548753587296232581e-05 -8.891386823961511254e-05 1.873865548986941576e-04
1.615000000000000000e+03 5.215226173400878906e+00 3.466183185577392578e+00 -1.172919946839101613e-04 -1.208844259963370860e-04 -7.145292329369112849e-05 7.638034003321081400e-05
1.616000000000000000e+03 3.042911291122436523e+00 5.107810497283935547e+00 2.790975559037178755e-04 8.022561087273061275e-05 1.077969573088921607e-04 1.086366246454417706e-04
1.617000000000000000e+03 2.889418029785156250e+01 3.175778007507324219e+01 -3.015611469745635986e-01 4.496562853455543518e-02 -7.697865366935729980e-02 -2.934050261974334717e-01
1.618000000000000000e+03 2.942459344863891602e+00 3.619638681411743164e+00 1.536231429781764746e-04 1.785871718311682343e-04 9.966309880837798119e-05 1.002783319563604891e-04
1.619000000000000000e+03 1.464598536491394043e+00 4.874153137207031250e+00 -1.889220438897609711e-04 -2.435106762277428061e-05 -6.398193363565951586e-05 7.907587132649496198e-05
1.620000000000000000e+03 1.648189544677734375e+00 3.294236183166503906e+00 2.903973218053579330e-04 2.089227564283646643e-05 9.338687959825620055e-05 6.756312359357252717e-05
1.621000000000000000e+03 2.960138130187988281e+01 3.168569374084472656e+01 -3.361290991306304932e-01 5.790144577622413635e-02 -8.346829563379287720e-02 -3.001380264759063721e-01
1.622000000000000000e+03 3.031346321105957031e+01 3.159578132629394531e+01 -3.681796193122863770e-01 7.470010966062545776e-02 -8.804385364055633545e-02 -3.037581443786621094e-01
1.623000000000000000e+03 3.175021171569824219e+01 3.139377021789550781e+01 -4.266864657402038574e-01 9.925853461027145386e-02 -9.822838008403778076e-02 -3.052700459957122803e-01
1.624000000000000000e+03 9.712173461914062500e+00 4.119254112243652344e+00 2.567111805547028780e-04 3.459408981143496931e-05 8.739158511161804199e-05 1.067168341251090169e-04
1.625000000000000000e+03 1.124920558929443359e+01 -5.293715953826904297e+00 2.879467501770704985e-04 3.363818395882844925e-04 1.872985740192234516e-04 -3.198015328962355852e-04
1.626000000000000000e+03 1.030105686187744141e+01 -4.031429290771484375e+00 -9.092835534829646349e-05 -2.395445626461878419e-04 -9.914187830872833729e-05 -3.847310654236935079e-05
1.627000000000000000e+03 2.896753311157226562e+01 3.249842071533203125e+01 -3.540467023849487305e-01 4.625558108091354370e-02 -9.233734011650085449e-02 -2.482448667287826538e-01
1.628000000000000000e+03 1.162824344635009766e+01 -4.244761943817138672e+00 -4.241809365339577198e-04 -1.847328821895644069e-04 -1.826741499826312065e-04 4.124164406675845385e-04
1.629000000000000000e+03 1.101976776123046875e+01 -3.325078725814819336e+00 -2.477389643900096416e-04 -2.235270658275112510e-04 -1.413798017892986536e-04 2.712439454626291990e-04
1.630000000000000000e+03 3.247676086425781250e+01 3.128348541259765625e+01 -4.514071941375732422e-01 1.061887219548225403e-01 -1.035655438899993896e-01 -3.022578656673431396e-01
1.631000000000000000e+03 2.750807571411132812e+01 3.183572959899902344e+01 -2.328680753707885742e-01 1.009321678429841995e-02 -6.683246046304702759e-02 -2.763758599758148193e-01
1.632000000000000000e+03 2.819675254821777344e+01 3.180864524841308594e+01 -2.670703530311584473e-01 2.582117542624473572e-02 -7.237475365400314331e-02 -2.857624888420104980e-01
1.633000000000000000e+03 3.184891891479492188e+01 3.207870101928710938e+01 -5.281901359558105469e-01 8.791624009609222412e-02 -1.320821791887283325e-01 -2.584735155105590820e-01
1.634000000000000000e+03 3.102902793884277344e+01 3.149778938293457031e+01 -3.991921246051788330e-01 8.407783508300781250e-02 -9.453428536653518677e-02 -3.066751360893249512e-01
1.635000000000000000e+03 3.912115859985351562e+01 3.016089630126953125e+01 -1.642347872257232666e-01 1.906085312366485596e-01 7.912124507129192352e-03 -5.524406209588050842e-03
1.636000000000000000e+03 3.698563385009765625e+01 3.116120338439941406e+01 -6.546510457992553711e-01 1.221682652831077576e-01 -1.597448438405990601e-01 -1.638985574245452881e-01
1.637000000000000000e+03 3.837042617797851562e+01 3.026492500305175781e+01 -2.667927145957946777e-01 1.704056411981582642e-01 -2.891612425446510315e-02 -7.781540602445602417e-02
1.638000000000000000e+03 3.550771331787109375e+01 3.143457412719726562e+01 -6.675604581832885742e-01 1.165755018591880798e-01 -1.652954816818237305e-01 -2.115866541862487793e-01
1.639000000000000000e+03 3.747548675537109375e+01 2.973790359497070312e+01 -9.686151891946792603e-02 2.038669735193252563e-01 3.210163488984107971e-02 -1.186660379171371460e-01
1.640000000000000000e+03 3.320384979248046875e+01 3.116811943054199219e+01 -4.693151414394378662e-01 1.194527223706245422e-01 -1.049587279558181763e-01 -2.939163744449615479e-01
1.641000000000000000e+03 3.393095779418945312e+01 3.104593467712402344e+01 -4.808158576488494873e-01 1.228385940194129944e-01 -1.073931753635406494e-01 -2.833401262760162354e-01
1.642000000000000000e+03 7.285174369812011719e+00 -3.375502586364746094e+00 1.849412365118041635e-04 1.522615493740886450e-04 1.011608401313424110e-04 -2.538282387831714004e-05
1.643000000000000000e+03 3.466029357910156250e+01 3.091604042053222656e+01 -4.811307489871978760e-01 1.343898177146911621e-01 -1.040222793817520142e-01 -2.666466236114501953e-01
1.644000000000000000e+03 3.538930130004882812e+01 3.078214454650878906e+01 -4.703040421009063721e-01 1.349626034498214722e-01 -1.006024405360221863e-01 -2.465466260910034180e-01
1.645000000000000000e+03 1.195290184020996094e+01 3.063557147979736328e+00 1.734413526719436049e-04 -2.235803913208656013e-05 4.532499588094651699e-05 -1.068305573426187038e-04
1.646000000000000000e+03 1.222982215881347656e+01 3.719687461853027344e+00 -2.992342924699187279e-04 8.500664989696815610e-05 -6.426829349948093295e-05 1.072339509846642613e-04
1.647000000000000000e+03 8.984607696533203125e+00 4.908161640167236328e+00 2.311338612344115973e-04 6.774785288143903017e-05 8.966451423475518823e-05 1.266463077627122402e-04
1.648000000000000000e+03 4.431237220764160156e+00 -3.340932130813598633e+00 4.116105556022375822e-04 2.161070005968213081e-05 1.299663708778098226e-04 -1.600979012437164783e-04
1.649000000000000000e+03 6.658541679382324219e+00 -4.858704090118408203e+00 1.461776992073282599e-05 -7.380794500022602733e-07 4.163907306065084413e-06 3.898732393281534314e-05
1.650000000000000000e+03 8.052824020385742188e+00 -3.369834423065185547e+00 -2.629310765769332647e-04 -1.101726884371601045e-04 -1.119311273214407265e-04 5.961430360912345350e-05
1.651000000000000000e+03 3.846740245819091797e+00 -7.932043552398681641e+00 7.228042231872677803e-04 6.641892832703888416e-05 2.367669512750580907e-04 7.415622530970722437e-05
1.652000000000000000e+03 3.819500684738159180e+00 -6.614806175231933594e+00 -5.793218151666224003e-04 -1.435691956430673599e-04 -2.168673090636730194e-04 -7.530218863394111395e-05
1.653000000000000000e+03 2.695958614349365234e+00 -6.551497936248779297e+00 7.020072080194950104e-04 9.783857967704534531e-05 2.399537479504942894e-04 -3.567706517060287297e-05
1.654000000000000000e+03 3.986040496826171875e+01 3.007010078430175781e+01 -3.567423298954963684e-02 2.020600587129592896e-01 4.991574585437774658e-02 8.475109189748764038e-02
1.655000000000000000e+03 4.059006881713867188e+01 2.998928070068359375e+01 1.282658129930496216e-01 2.336388826370239258e-01 1.085714101791381836e-01 1.960259079933166504e-01
1.656000000000000000e+03 1.253485012054443359e+01 -4.226607322692871094e+00 5.264828214421868324e-04 -1.521644844615366310e-05 1.533799077151343226e-04 -1.242962316609919071e-04
1.657000000000000000e+03 1.293053627014160156e+01 3.207736253738403320e+00 -1.123766014643479139e-05 -9.365836740471422672e-05 -3.146880771964788437e-05 -1.678759872447699308e-04
1.658000000000000000e+03 1.134531021118164062e+01 3.968454837799072266e+00 3.555316652636975050e-04 -5.858301665284670889e-05 8.908459130907431245e-05 2.167096681660041213e-05
1.659000000000000000e+03 1.356761550903320312e+01 3.381329774856567383e+00 4.314516554586589336e-04 -4.603622073773294687e-05 1.156246289610862732e-04 5.039126699557527900e-05
1.660000000000000000e+03 2.288768768310546875e+01 3.112038421630859375e+01 -3.691304475069046021e-02 -1.557146757841110229e-01 -5.778831988573074341e-02 -1.584001034498214722e-01
1.661000000000000000e+03 5.169749450683593750e+01 3.045334243774414062e+01 5.169814109802246094e+00 1.490368270874023438e+01 6.022048950195312500e+00 -1.076805830001831055e+00
1.662000000000000000e+03 2.285521125793457031e+01 3.229148483276367188e+01 -4.512065276503562927e-02 -1.018041297793388367e-01 -4.407743364572525024e-02 -1.214381977915763855e-01
1.663000000000000000e+03 5.257213973999023438e+01 3.123656654357910156e+01 5.879917144775390625e+00 1.297882175445556641e+01 5.657621860504150391e+00 -3.265825808048248291e-01
1.664000000000000000e+03 5.194508361816406250e+01 3.204333496093750000e+01 7.679080009460449219e+00 1.407532787322998047e+01 6.526322364807128906e+00 8.019768595695495605e-01
1.665000000000000000e+03 1.219969940185546875e+01 -1.329070377349853516e+01 -9.056893177330493927e-04 -1.057390763889998198e-04 -3.034285036846995354e-04 1.578288647579029202e-04
1.666000000000000000e+03 1.216841888427734375e+01 -1.462353801727294922e+01 9.817557875066995621e-04 1.739349972922354937e-04 3.467072383500635624e-04 -2.457183727528899908e-04
1.667000000000000000e+03 1.237986946105957031e+01 -6.751050472259521484e+00 6.786061567254364491e-04 -1.505420950707048178e-04 1.584192068548873067e-04 -1.269124913960695267e-04
1.668000000000000000e+03 1.255004405975341797e+01 -7.990452766418457031e+00 -7.443726062774658203e-04 1.502141240052878857e-04 -1.782475446816533804e-04 8.021004032343626022e-05
1.669000000000000000e+03 1.248767471313476562e+01 7.842378616333007812e+00 -3.674742474686354399e-04 -5.093901927466504276e-05 -1.255239767488092184e-04 -5.775262980023398995e-05
1.670000000000000000e+03 4.251431655883789062e+01 4.155931854248046875e+01 1.057372689247131348e+00 1.470945239067077637e+00 7.584953904151916504e-01 -1.117353327572345734e-02
1.671000000000000000e+03 3.897297286987304688e+01 3.960827255249023438e+01 7.319523096084594727e-01 -1.714517623186111450e-01 1.681501716375350952e-01 3.378646373748779297e-01
1.672000000000000000e+03 2.722066879272460938e+01 4.171122741699218750e+01 1.344161853194236755e-02 -7.213188707828521729e-02 -1.760707981884479523e-02 2.386943204328417778e-03
1.673000000000000000e+03 1.822852325439453125e+01 4.148554229736328125e+01 -3.168355324305593967e-04 2.888833405449986458e-03 7.715994142927229404e-04 -5.307082086801528931e-03
1.674000000000000000e+03 1.926706695556640625e+01 3.992159652709960938e+01 -2.525799442082643509e-03 1.808171742595732212e-03 -2.152882952941581607e-04 1.055913395248353481e-03
1.675000000000000000e+03 2.497197914123535156e+01 -2.741551399230957031e-02 -5.478384438902139664e-03 3.083531260490417480e-01 9.086242318153381348e-02 1.986794918775558472e-01
1.676000000000000000e+03 2.479873847961425781e+01 -2.954391717910766602e+00 -7.721115835011005402e-03 3.793675005435943604e-01 1.114939153194427490e-01 1.686514168977737427e-01
1.677000000000000000e+03 2.429141616821289062e+01 -1.814121437072753906e+01 -5.085758864879608154e-03 6.269962787628173828e-01 1.865731477737426758e-01 6.714000552892684937e-02
1.678000000000000000e+03 2.430768585205078125e+01 -1.958150672912597656e+01 -6.966226734220981598e-03 6.419953703880310059e-01 1.905087381601333618e-01 6.097682565450668335e-02
1.679000000000000000e+03 2.472603416442871094e+01 2.829935073852539062e+00 -7.417470216751098633e-03 1.336231082677841187e-01 3.786169365048408508e-02 2.026783227920532227e-01
1.680000000000000000e+03 2.429757308959960938e+01 -1.670471954345703125e+01 -7.335406728088855743e-03 6.080344319343566895e-01 1.802097111940383911e-01 7.244758307933807373e-02
1.681000000000000000e+03 2.303060722351074219e+01 -8.382304191589355469e+00 -3.585779340937733650e-03 2.265921980142593384e-01 6.690192967653274536e-02 8.337464928627014160e-02
1.682000000000000000e+03 2.454528808593750000e+01 -5.695256233215332031e+00 -8.994175121188163757e-03 4.166870415210723877e-01 1.223078593611717224e-01 1.429371088743209839e-01
1.683000000000000000e+03 1.335091400146484375e+01 -1.339146995544433594e+01 9.641211363486945629e-04 5.353788947104476392e-05 3.052976971957832575e-04 -1.645047304918989539e-04
1.684000000000000000e+03 2.430538177490234375e+01 -1.251490116119384766e+01 -1.327392738312482834e-02 5.434656143188476562e-01 1.590574979782104492e-01 9.468852728605270386e-02
1.685000000000000000e+03 1.110338878631591797e+01 2.584690856933593750e+01 -7.918158662505447865e-04 -5.050359759479761124e-04 -3.890555526595562696e-04 -2.064657601295039058e-04
1.686000000000000000e+03 5.397718429565429688e+00 1.041117382049560547e+01 3.961755428463220596e-04 1.494838361395522952e-04 1.636978122405707836e-04 -1.606544101377949119e-04
1.687000000000000000e+03 1.240029144287109375e+01 9.096663475036621094e+00 3.848641645163297653e-04 7.606174040120095015e-05 1.382777700200676918e-04 7.493635348509997129e-05
1.688000000000000000e+03 1.007473087310791016e+01 1.892633819580078125e+01 2.092281356453895569e-04 -6.255931220948696136e-04 -1.249094930244609714e-04 -6.001461952109821141e-05
1.689000000000000000e+03 1.073511505126953125e+01 1.532827568054199219e+01 9.679931099526584148e-05 -2.604780820547603071e-05 2.122545083693694323e-05 -4.336672427598387003e-04
1.690000000000000000e+03 7.547663879394531250e+01 1.423671913146972656e+01 -4.843763634562492371e-02 7.251759052276611328e+00 2.160996437072753906e+00 -6.973870396614074707e-01
1.691000000000000000e+03 7.499037933349609375e+01 7.115759849548339844e+00 -8.261020481586456299e-02 7.952757835388183594e+00 2.361044168472290039e+00 -5.600813627243041992e-01
1.692000000000000000e+03 7.678591156005859375e+01 1.300670027732849121e+00 -3.099699318408966064e-02 8.526986122131347656e+00 2.548796892166137695e+00 -2.815271019935607910e-01
1.693000000000000000e+03 7.424837493896484375e+01 1.088658690452575684e+00 -8.730112016201019287e-02 8.300384521484375000e+00 2.463925123214721680e+00 -4.305595457553863525e-01
1.694000000000000000e+03 7.672279357910156250e+01 2.692270994186401367e+00 -3.487040475010871887e-02 8.417277336120605469e+00 2.514722108840942383e+00 -3.119155466556549072e-01
1.695000000000000000e+03 7.502858734130859375e+01 5.510648727416992188e+00 -8.039408922195434570e-02 8.075619697570800781e+00 2.398567914962768555e+00 -5.121088624000549316e-01
1.696000000000000000e+03 7.427892303466796875e+01 -1.532125353813171387e+00 -7.746809720993041992e-02 8.430065155029296875e+00 2.505779027938842773e+00 -3.623486161231994629e-01
1.697000000000000000e+03 7.546544647216796875e+01 -8.289095878601074219e+00 -3.714810684323310852e-02 8.837250709533691406e+00 2.640030860900878906e+00 -1.881744265556335449e-01
1.698000000000000000e+03 7.545569610595703125e+01 -1.106925010681152344e+01 -3.185320645570755005e-02 8.918040275573730469e+00 2.665856122970581055e+00 -1.506042182445526123e-01
1.699000000000000000e+03 7.549009704589843750e+01 -1.513044834136962891e+01 -2.155390009284019470e-02 9.012515068054199219e+00 2.697288274765014648e+00 -1.075132116675376892e-01
1.700000000000000000e+03 7.551520538330078125e+01 -4.185665130615234375e+00 -4.369093105196952820e-02 8.690187454223632812e+00 2.593948841094970703e+00 -2.523950338363647461e-01
1.701000000000000000e+03 7.549481964111328125e+01 -5.549645423889160156e+00 -4.079551994800567627e-02 8.742806434631347656e+00 2.610603332519531250e+00 -2.297815084457397461e-01
1.702000000000000000e+03 7.553735351562500000e+01 -2.827974319458007812e+00 -4.609888419508934021e-02 8.630401611328125000e+00 2.575290918350219727e+00 -2.764724195003509521e-01
1.703000000000000000e+03 7.658056640625000000e+01 8.533002853393554688e+00 -4.332477971911430359e-02 7.876183509826660156e+00 2.349857568740844727e+00 -4.505909681320190430e-01
1.704000000000000000e+03 7.533632659912109375e+01 1.012222194671630859e+01 -6.759253144264221191e-02 7.690370082855224609e+00 2.286833286285400391e+00 -6.141397356986999512e-01
1.705000000000000000e+03 7.287403869628906250e+01 3.202881622314453125e+01 2.928889393806457520e-01 6.090892791748046875e+00 1.915134429931640625e+00 -5.745540857315063477e-01
1.706000000000000000e+03 7.535848236083984375e+01 -1.782403755187988281e+01 -2.214474789798259735e-02 9.034145355224609375e+00 2.703600168228149414e+00 -8.598026633262634277e-02
1.707000000000000000e+03 7.546258544921875000e+01 -1.244824886322021484e+01 -2.715841308236122131e-02 8.953227996826171875e+00 2.677820920944213867e+00 -1.320618987083435059e-01
1.708000000000000000e+03 7.676028442382812500e+01 -1.105747032165527344e+01 -1.725257001817226410e-02 9.115347862243652344e+00 2.729428768157958984e+00 -1.143487915396690369e-01
1.709000000000000000e+03 7.545725250244140625e+01 -9.677345275878906250e+00 -3.499226272106170654e-02 8.878161430358886719e+00 2.652950763702392578e+00 -1.686685979366302490e-01
1.710000000000000000e+03 7.541398620605468750e+01 1.152249717712402344e+01 -6.088345125317573547e-02 7.548088550567626953e+00 2.246161460876464844e+00 -6.407626271247863770e-01
1.711000000000000000e+03 7.403115081787109375e+01 1.030916595458984375e+01 -1.047824397683143616e-01 7.680608272552490234e+00 2.272747755050659180e+00 -7.321528196334838867e-01
1.712000000000000000e+03 7.546250915527343750e+01 -1.646321487426757812e+01 -2.235700190067291260e-02 9.029999732971191406e+00 2.702292919158935547e+00 -9.728457033634185791e-02
1.713000000000000000e+03 7.518910217285156250e+01 -1.921880149841308594e+01 -1.744904555380344391e-02 9.026469230651855469e+00 2.702706098556518555e+00 -7.898986339569091797e-02
1.714000000000000000e+03 7.667479705810546875e+01 -1.792705535888671875e+01 -1.099732425063848495e-02 9.249101638793945312e+00 2.771431207656860352e+00 -6.665936112403869629e-02
1.715000000000000000e+03 7.324480438232421875e+01 -2.371866798400878906e+01 -1.652682572603225708e-02 8.752452850341796875e+00 2.620777845382690430e+00 -6.569014489650726318e-02
1.716000000000000000e+03 7.675923156738281250e+01 1.691522979736328125e+01 -1.877061836421489716e-02 6.813497066497802734e+00 2.038417816162109375e+00 -5.762411355972290039e-01
1.717000000000000000e+03 7.545220184326171875e+01 1.835771751403808594e+01 -2.084136009216308594e-02 6.760961532592773438e+00 2.022036075592041016e+00 -7.651702165603637695e-01
1.718000000000000000e+03 7.539430999755859375e+01 2.114601898193359375e+01 1.171882078051567078e-02 6.420407295227050781e+00 1.929637789726257324e+00 -7.752489447593688965e-01
1.719000000000000000e+03 7.541900634765625000e+01 1.974843025207519531e+01 -3.881471347995102406e-04 6.590119361877441406e+00 1.976919412612915039e+00 -7.755115032196044922e-01
1.720000000000000000e+03 7.421496582031250000e+01 1.702058982849121094e+01 -4.676254838705062866e-02 7.046928405761718750e+00 2.100049734115600586e+00 -8.911724686622619629e-01
1.721000000000000000e+03 7.344689941406250000e+01 -2.672801780700683594e+01 -2.165975607931613922e-02 8.786476135253906250e+00 2.629444837570190430e+00 -5.561057850718498230e-02
1.722000000000000000e+03 7.637731933593750000e+01 -2.654702186584472656e+01 -7.870083674788475037e-03 9.290115356445312500e+00 2.784673690795898438e+00 -3.843334689736366272e-02
1.723000000000000000e+03 7.484969329833984375e+01 -2.363850402832031250e+01 -9.576776996254920959e-03 9.017260551452636719e+00 2.702305078506469727e+00 -5.629703402519226074e-02
1.724000000000000000e+03 7.420985412597656250e+01 2.696806144714355469e+01 1.455956101417541504e-01 6.047997951507568359e+00 1.858078002929687500e+00 -7.778397202491760254e-01
1.725000000000000000e+03 7.406650543212890625e+01 2.406050682067871094e+01 7.888600975275039673e-02 6.350369453430175781e+00 1.928776621818542480e+00 -8.813961148262023926e-01
1.726000000000000000e+03 7.545228576660156250e+01 2.684625434875488281e+01 9.428264200687408447e-02 5.752200126647949219e+00 1.753944873809814453e+00 -6.656910181045532227e-01
1.727000000000000000e+03 7.675949859619140625e+01 2.951881408691406250e+01 7.974941283464431763e-02 5.053076744079589844e+00 1.539847970008850098e+00 -4.229805171489715576e-01
1.728000000000000000e+03 7.546452331542968750e+01 2.829556465148925781e+01 1.187223568558692932e-01 5.591635704040527344e+00 1.713107347488403320e+00 -6.142624616622924805e-01
1.729000000000000000e+03 7.370235443115234375e+01 -3.581790161132812500e+01 -2.703475579619407654e-02 8.852602958679199219e+00 2.647670507431030273e+00 -3.156210482120513916e-02
1.730000000000000000e+03 7.551479339599609375e+01 2.970474243164062500e+01 1.201037541031837463e-01 5.447713851928710938e+00 1.670345187187194824e+00 -5.569899082183837891e-01
1.731000000000000000e+03 7.676988983154296875e+01 -3.197542190551757812e+01 -9.183048270642757416e-03 9.402621269226074219e+00 2.818031549453735352e+00 -8.353158831596374512e-03
1.732000000000000000e+03 7.493736267089843750e+01 -2.956692695617675781e+01 -1.366716157644987106e-02 9.072767257690429688e+00 2.717730045318603516e+00 -4.555844888091087341e-02
1.733000000000000000e+03 7.561827087402343750e+01 -3.242544174194335938e+01 -1.388022955507040024e-02 9.188508987426757812e+00 2.752388715744018555e+00 -3.371902182698249817e-02
1.734000000000000000e+03 2.475899696350097656e+01 1.123926162719726562e+01 3.746173903346061707e-02 -2.084088176488876343e-01 -5.128412321209907532e-02 1.495688110589981079e-01
1.735000000000000000e+03 1.274765777587890625e+01 -2.218643379211425781e+01 1.934053609147667885e-03 -5.052369670011103153e-04 4.286449693609029055e-04 -1.745269255479797721e-04
1.736000000000000000e+03 1.279715442657470703e+01 -2.006055450439453125e+01 -1.287556951865553856e-03 -9.092477848753333092e-04 -6.590413977392017841e-04 8.741894853301346302e-04
1.737000000000000000e+03 2.289415740966796875e+01 -1.394540786743164062e+01 -6.128360051661729813e-03 3.286822736263275146e-01 9.676617383956909180e-02 6.059912219643592834e-02
1.738000000000000000e+03 2.430874061584472656e+01 -1.389267063140869141e+01 -1.525567378848791122e-02 5.701767802238464355e-01 1.664763391017913818e-01 8.766073733568191528e-02
1.739000000000000000e+03 2.475555038452148438e+01 9.828064918518066406e+00 2.704124711453914642e-02 -1.569469422101974487e-01 -3.897171095013618469e-02 1.680777519941329956e-01
1.740000000000000000e+03 2.475708389282226562e+01 1.264768409729003906e+01 5.014165863394737244e-02 -2.572436034679412842e-01 -6.213058531284332275e-02 1.230565905570983887e-01
1.741000000000000000e+03 5.925856113433837891e+00 -2.441164398193359375e+01 -1.457845210097730160e-03 -2.412770700175315142e-04 -5.097366520203649998e-04 6.743932026438415051e-04
1.742000000000000000e+03 1.213394069671630859e+01 -2.833497810363769531e+01 2.294035861268639565e-03 2.062085550278425217e-03 1.306836493313312531e-03 -1.648123492486774921e-03
1.743000000000000000e+03 2.582993507385253906e+01 2.304825401306152344e+01 1.147562488913536072e-01 -2.358209192752838135e-01 -3.631939738988876343e-02 -2.252031713724136353e-01
1.744000000000000000e+03 2.482278823852539062e+01 2.141882324218750000e+01 9.183154255151748657e-02 -3.769987523555755615e-01 -8.555016666650772095e-02 -1.565528213977813721e-01
1.745000000000000000e+03 2.476407241821289062e+01 1.406107521057128906e+01 6.168295815587043762e-02 -2.978059649467468262e-01 -7.083690166473388672e-02 9.241598844528198242e-02
1.746000000000000000e+03 2.358031845092773438e+01 1.846751022338867188e+01 5.214523896574974060e-02 -6.033774018287658691e-01 -1.653696596622467041e-01 -5.174522101879119873e-02
1.747000000000000000e+03 2.486778450012207031e+01 1.843479728698730469e+01 1.017881333827972412e-01 -3.653322756290435791e-01 -7.906324416399002075e-02 -4.363663494586944580e-02
1.748000000000000000e+03 2.482099533081054688e+01 1.694942665100097656e+01 8.537230640649795532e-02 -3.506975173950195312e-01 -7.959756255149841309e-02 9.513025172054767609e-03
1.749000000000000000e+03 9.608783721923828125e+00 -1.653124809265136719e+01 8.821996161714196205e-04 5.623329780064523220e-04 4.333597898948937654e-04 -3.704081755131483078e-04
1.750000000000000000e+03 1.058727645874023438e+01 -1.798847007751464844e+01 1.018993556499481201e-03 5.988381453789770603e-04 4.853495338466018438e-04 -5.072758649475872517e-04
1.751000000000000000e+03 2.300552749633789062e+01 2.984417343139648438e+01 -2.438536472618579865e-02 -2.225763797760009766e-01 -7.408852130174636841e-02 -1.928968578577041626e-01
1.752000000000000000e+03 2.482762718200683594e+01 3.046514129638671875e+01 -7.630170881748199463e-02 -1.227706745266914368e-01 -5.972171574831008911e-02 -2.648943066596984863e-01
1.753000000000000000e+03 2.353457069396972656e+01 8.489192008972167969e+00 8.027302101254463196e-03 -3.792464137077331543e-01 -1.113657355308532715e-01 1.314009726047515869e-01
1.754000000000000000e+03 2.474525642395019531e+01 8.419821739196777344e+00 1.321349944919347763e-02 -1.019931808114051819e-01 -2.663390524685382843e-02 1.817516386508941650e-01
1.755000000000000000e+03 2.430018997192382812e+01 2.716505432128906250e+01 6.090044975280761719e-03 -2.808081805706024170e-01 -8.241544663906097412e-02 -2.796353995800018311e-01
1.756000000000000000e+03 2.449959373474121094e+01 2.432191085815429688e+01 5.556322261691093445e-02 -3.630370795726776123e-01 -9.224215894937515259e-02 -2.424306422472000122e-01
1.757000000000000000e+03 2.438209915161132812e+01 2.573909187316894531e+01 3.362117335200309753e-02 -3.315011560916900635e-01 -8.936399221420288086e-02 -2.672660648822784424e-01
1.758000000000000000e+03 8.575607299804687500e+00 -7.592505455017089844e+00 7.851952250348404050e-05 4.765933263115584850e-04 1.665338641032576561e-04 -4.459695992409251630e-05
1.759000000000000000e+03 2.422023582458496094e+01 2.863993263244628906e+01 -2.575445361435413361e-02 -2.223294079303741455e-01 -7.442516088485717773e-02 -2.699891030788421631e-01
1.760000000000000000e+03 2.683989334106445312e+01 3.022104835510253906e+01 -1.293205320835113525e-01 -3.965617343783378601e-02 -5.069301277399063110e-02 -3.277280032634735107e-01
1.761000000000000000e+03 2.473069953918457031e+01 7.021299839019775391e+00 3.212561598047614098e-03 -4.661349579691886902e-02 -1.302028074860572815e-02 1.901321709156036377e-01
1.762000000000000000e+03 3.082101106643676758e+00 -1.781181716918945312e+01 1.202909741550683975e-03 8.234197593992576003e-05 3.855755203403532505e-04 -6.301853136392310262e-05
1.763000000000000000e+03 4.251733303070068359e+00 -1.503209590911865234e+01 -1.087475684471428394e-03 -1.291013613808900118e-04 -3.649731224868446589e-04 8.661544416099786758e-05
1.764000000000000000e+03 4.464513778686523438e+00 2.188457679748535156e+01 -1.141038024798035622e-03 1.399910688633099198e-04 -3.003141027875244617e-04 -8.472473564324900508e-05
1.765000000000000000e+03 3.253354787826538086e+00 2.039563560485839844e+01 -9.185404633171856403e-04 5.715053339372389019e-05 -2.584169851616024971e-04 2.370397851336747408e-06
1.766000000000000000e+03 4.244754791259765625e+00 -1.786239624023437500e+01 -1.317004207521677017e-03 -9.455460531171411276e-05 -4.234676307532936335e-04 4.361385435913689435e-05
1.767000000000000000e+03 4.255304336547851562e+00 -1.645208168029785156e+01 1.191222341731190681e-03 1.981760578928515315e-04 4.168195300735533237e-04 -6.187060353113338351e-05
1.768000000000000000e+03 5.722820281982421875e+00 2.629627227783203125e+01 -6.833659135736525059e-04 -3.162056382279843092e-04 -2.998714626301079988e-04 -7.128233846742659807e-05
1.769000000000000000e+03 5.865593433380126953e+00 2.502951049804687500e+01 3.470431256573647261e-04 5.261207697913050652e-04 2.619491715449839830e-04 3.922297037206590176e-04
1.770000000000000000e+03 4.554868221282958984e+00 2.878863716125488281e+01 1.444238820113241673e-03 -2.355440228711813688e-04 3.626084362622350454e-04 1.862921199062839150e-04
1.771000000000000000e+03 4.631136894226074219e+00 -2.725725555419921875e+01 2.137657953426241875e-03 1.314171640842687339e-05 6.452398956753313541e-04 -2.077895769616588950e-04
1.772000000000000000e+03 3.238179206848144531e+00 -2.464448547363281250e+01 -1.557562849484384060e-03 1.469463586545316502e-05 -4.628604801837354898e-04 4.066348483320325613e-04
1.773000000000000000e+03 4.405197620391845703e+00 -2.193717765808105469e+01 1.851286506280303001e-03 -2.604385190352331847e-05 5.475727957673370838e-04 -1.841149496613070369e-04
1.774000000000000000e+03 4.559933185577392578e+00 1.870651817321777344e+01 -8.236972498707473278e-04 -5.580364086199551821e-05 -2.638502628542482853e-04 -1.741793093970045447e-04
1.775000000000000000e+03 3.856273889541625977e+00 1.647649765014648438e+01 -3.404954622965306044e-04 -1.836164592532441020e-04 -1.572335750097408891e-04 -2.318583137821406126e-04
1.776000000000000000e+03 4.372341632843017578e+00 -2.063105773925781250e+01 -1.578601659275591373e-03 -1.012219490803545341e-05 -4.766171623487025499e-04 1.240293204318732023e-04
1.777000000000000000e+03 4.293081283569335938e+00 -1.926471138000488281e+01 1.422222936525940895e-03 3.070945240324363112e-05 4.358797159511595964e-04 -1.023751174216158688e-04
1.778000000000000000e+03 3.220140933990478516e+00 2.615661811828613281e+01 -1.046062097884714603e-03 4.674537558457814157e-05 -2.997950359713286161e-04 -8.894913480617105961e-05
1.779000000000000000e+03 4.622264385223388672e+00 2.478299522399902344e+01 -9.694640175439417362e-04 -9.803308057598769665e-05 -3.202491207048296928e-04 -2.185140328947454691e-04
1.780000000000000000e+03 4.622098445892333984e+00 2.333276557922363281e+01 1.145412796176970005e-03 -6.304104317678138614e-05 3.247115237172693014e-04 2.013673802139237523e-04
1.781000000000000000e+03 1.004722499847412109e+01 -2.321134376525878906e+01 1.278050476685166359e-03 -8.504331344738602638e-04 1.282852026633918285e-04 -4.725721955765038729e-04
1.782000000000000000e+03 4.552918434143066406e+00 -2.455304908752441406e+01 1.848736894316971302e-03 3.052256715818657540e-06 5.555367679335176945e-04 -4.754985566250979900e-04
1.783000000000000000e+03 3.026885032653808594e+00 1.483320331573486328e+01 -4.873195139225572348e-04 -1.186427616630680859e-04 -1.817886804929003119e-04 1.289814244955778122e-04
1.784000000000000000e+03 4.898076534271240234e+00 1.698173141479492188e+01 6.618460174649953842e-04 1.223475410370156169e-04 2.352580631850287318e-04 2.712525310926139355e-04
1.785000000000000000e+03 4.202981948852539062e+00 1.187784385681152344e+01 5.776031757704913616e-04 3.255017145420424640e-05 1.830460096243768930e-04 -1.617660745978355408e-04
1.786000000000000000e+03 4.322880744934082031e+00 1.338055610656738281e+01 -6.627091206610202789e-04 1.481680556025821716e-06 -1.983682304853573442e-04 4.135575363761745393e-05
1.787000000000000000e+03 4.003770351409912109e+00 -1.067058753967285156e+01 9.077504510059952736e-04 -2.329325070604681969e-05 2.653371775522828102e-04 1.888600195343315136e-06
1.788000000000000000e+03 3.906888961791992188e+00 -9.283844947814941406e+00 -8.390282164327800274e-04 3.164325335092144087e-07 -2.516135282348841429e-04 -5.087821409688331187e-05
1.789000000000000000e+03 4.200522422790527344e+00 -1.357770156860351562e+01 9.762316476553678513e-04 6.110753020038828254e-05 3.112017584498971701e-04 -7.908077532192692161e-05
1.790000000000000000e+03 4.815639495849609375e+00 3.624493789672851562e+01 -1.609965256648138165e-04 -6.935737910680472851e-04 -2.563711022958159447e-04 -3.532128466758877039e-04
1.791000000000000000e+03 3.352134943008422852e+00 3.593296813964843750e+01 5.142084555700421333e-04 2.902617561630904675e-04 2.413410693407058716e-04 -3.184618981322273612e-05
1.792000000000000000e+03 3.580608606338500977e+00 -3.166607856750488281e+01 1.451399410143494606e-03 6.418796256184577942e-04 6.279837107285857201e-04 8.792026346782222390e-05
1.793000000000000000e+03 4.697216033935546875e+00 -2.864686584472656250e+01 -1.922408235259354115e-03 5.301867713569663465e-05 -5.608169012703001499e-04 6.068477523513138294e-04
1.794000000000000000e+03 4.115027904510498047e+00 -1.210672283172607422e+01 -9.336258517578244209e-04 7.049599730635236483e-07 -2.798762579914182425e-04 4.395915311761200428e-05
1.795000000000000000e+03 5.941822528839111328e+00 -5.215538024902343750e+00 -1.452020660508424044e-04 9.774779755389317870e-05 -1.423627963959006593e-05 1.157140359282493591e-04
1.796000000000000000e+03 4.151474475860595703e+00 1.044763374328613281e+01 -4.154702764935791492e-04 -1.008849721984006464e-04 -1.549065782455727458e-04 1.171132680610753596e-04
1.797000000000000000e+03 6.314030647277832031e+00 2.979424667358398438e+01 1.583089586347341537e-03 -1.030444473144598305e-04 4.440135671757161617e-04 -4.980606718163471669e-06
1.798000000000000000e+03 3.485898971557617188e+00 3.456433486938476562e+01 -6.093098199926316738e-04 -4.319231666158884764e-04 -3.123698988929390907e-04 -6.946446228539571166e-05
1.799000000000000000e+03 5.021378040313720703e+00 3.470108413696289062e+01 7.789937662892043591e-04 3.761147672776132822e-04 3.465325571596622467e-04 5.810867296531796455e-04
1.800000000000000000e+03 5.214295864105224609e+00 -3.307653427124023438e+01 1.573178218677639961e-03 8.692980045452713966e-04 7.327428902499377728e-04 1.078606946975924075e-04
1.801000000000000000e+03 4.857426166534423828e+00 -3.008497428894042969e+01 2.697464777156710625e-03 -1.715771650196984410e-04 7.577662472613155842e-04 -3.922842151951044798e-04
1.802000000000000000e+03 5.068944931030273438e+00 -3.156074714660644531e+01 -1.346517237834632397e-03 -9.490306256338953972e-04 -6.886643823236227036e-04 1.554896938614547253e-03
1.803000000000000000e+03 3.796065568923950195e+00 -5.354146003723144531e+00 4.039518244098871946e-04 1.789762027328833938e-04 1.748784125084057450e-04 1.367448712699115276e-04
1.804000000000000000e+03 2.741527795791625977e+00 6.293608188629150391e+00 -3.545011568348854780e-04 -9.757552470546215773e-05 -1.356230059172958136e-04 -3.785388980759307742e-05
1.805000000000000000e+03 5.872884750366210938e+00 4.857796669006347656e+00 8.145624451572075486e-05 1.500895450590178370e-04 6.946373468963429332e-05 -8.926926238927990198e-05
1.806000000000000000e+03 5.966196060180664062e+00 3.850228881835937500e+01 3.068643563892692327e-04 -6.789467879571020603e-04 -1.116247221943922341e-04 -6.428860360756516457e-04
1.807000000000000000e+03 2.288325881958007812e+01 -2.254003334045410156e+01 -4.970537498593330383e-03 4.593783020973205566e-01 1.363223344087600708e-01 3.005927242338657379e-02
1.808000000000000000e+03 2.126147842407226562e+01 -2.389146232604980469e+01 -1.173217431642115116e-03 2.019131332635879517e-01 6.022197380661964417e-02 1.666763983666896820e-02
1.809000000000000000e+03 1.710787200927734375e+01 3.887291717529296875e+01 7.069178856909275055e-03 1.042594900354743004e-03 2.433532150462269783e-03 -2.685946412384510040e-03
1.810000000000000000e+03 1.121133136749267578e+01 3.888740539550781250e+01 -2.258007181808352470e-03 5.481992266140878201e-04 -5.129423807375133038e-04 -9.864327730610966682e-04
1.811000000000000000e+03 2.430836677551269531e+01 -1.528669929504394531e+01 -9.712849743664264679e-03 5.920794606208801270e-01 1.747099757194519043e-01 7.815682888031005859e-02
1.812000000000000000e+03 5.253218078613281250e+01 3.358216476440429688e+01 4.477436542510986328e+00 1.378229141235351562e+01 5.477918148040771484e+00 2.422677516937255859e+00
1.813000000000000000e+03 2.348583412170410156e+01 4.236437320709228516e+00 -1.219754200428724289e-02 -1.919491887092590332e-01 -6.124401837587356567e-02 1.466576755046844482e-01
1.814000000000000000e+03 2.481011772155761719e+01 1.423416852951049805e+00 -4.995290189981460571e-03 2.147845476865768433e-01 6.293677538633346558e-02 2.027139961719512939e-01
1.815000000000000000e+03 2.470997238159179688e+01 5.621625900268554688e+00 -6.560094654560089111e-03 1.041530165821313858e-02 1.156562124378979206e-03 1.975884884595870972e-01
1.816000000000000000e+03 3.822871017456054688e+01 4.146046829223632812e+01 8.236477971076965332e-01 -2.728691697120666504e-01 1.652335822582244873e-01 9.139433503150939941e-02
1.817000000000000000e+03 3.520862197875976562e+01 3.990762329101562500e+01 2.523097693920135498e-01 -3.805451393127441406e-01 -3.847060725092887878e-02 2.590963542461395264e-01
1.818000000000000000e+03 1.261105537414550781e+01 3.617910766601562500e+01 -2.249764744192361832e-03 -9.021292498800903559e-05 -7.019933545961976051e-04 5.244821077212691307e-04
1.819000000000000000e+03 7.643754959106445312e+00 2.888013839721679688e+01 -4.791211977135390043e-04 -2.880734100472182035e-04 -2.301583881489932537e-04 3.448733477853238583e-04
1.820000000000000000e+03 2.431379699707031250e+01 -1.113840484619140625e+01 -1.381480600684881210e-02 5.184172391891479492e-01 1.513807177543640137e-01 1.027775034308433533e-01
1.821000000000000000e+03 2.102613067626953125e+01 -3.077588462829589844e+01 -2.514928579330444336e-03 2.013243734836578369e-01 5.964283645153045654e-02 -4.652621690183877945e-03
1.822000000000000000e+03 2.245723915100097656e+01 -3.070489311218261719e+01 -2.056544879451394081e-03 4.390366077423095703e-01 1.310940086841583252e-01 -7.389032980427145958e-04
1.823000000000000000e+03 2.465698242187500000e+01 -4.338119029998779297e+00 -8.148938417434692383e-03 3.936276435852050781e-01 1.156436130404472351e-01 1.542162001132965088e-01
1.824000000000000000e+03 5.273437881469726562e+01 3.471376419067382812e+01 2.398324728012084961e+00 1.419965076446533203e+01 4.979392528533935547e+00 2.380326509475708008e+00
1.825000000000000000e+03 5.165954589843750000e+01 3.444094085693359375e+01 2.223213434219360352e+00 1.550968265533447266e+01 5.319869041442871094e+00 2.640420436859130859e+00
1.826000000000000000e+03 2.956538009643554688e+01 4.092320251464843750e+01 7.026813179254531860e-02 -1.613073796033859253e-01 -2.731177397072315216e-02 1.346913259476423264e-02
1.827000000000000000e+03 2.189087486267089844e+01 4.032966995239257812e+01 -4.678369965404272079e-03 1.044902135618031025e-03 -1.090040314011275768e-03 -6.151234265416860580e-03
1.828000000000000000e+03 1.199662399291992188e+01 1.295073413848876953e+01 -4.659719998016953468e-04 -1.182605265057645738e-04 -1.752697571646422148e-04 -3.092316910624504089e-04
1.829000000000000000e+03 4.282800674438476562e+01 3.965697479248046875e+01 8.886574506759643555e-01 1.715454339981079102e+00 7.812335491180419922e-01 -2.457670718431472778e-01
1.830000000000000000e+03 1.140767860412597656e+01 2.802973175048828125e+01 -1.195555669255554676e-03 -2.623976906761527061e-04 -4.373860138002783060e-04 -5.742887151427567005e-04
1.831000000000000000e+03 1.125696277618408203e+01 2.701152038574218750e+01 9.265178814530372620e-04 4.417556046973913908e-04 4.104820545762777328e-04 3.230432048439979553e-04
1.832000000000000000e+03 6.597713947296142578e+00 1.043725013732910156e+01 -2.879132516682147980e-04 -2.441129472572356462e-04 -1.596078654984012246e-04 1.474066521041095257e-04
1.833000000000000000e+03 7.429919719696044922e+00 1.782505416870117188e+01 1.058991165336919948e-05 -4.190479230601340532e-04 -1.225374144269153476e-04 -2.090309426421299577e-04
1.834000000000000000e+03 2.254378890991210938e+01 -3.645362091064453125e+01 -1.214735396206378937e-02 5.153893232345581055e-01 1.509726047515869141e-01 -3.605228383094072342e-03
1.835000000000000000e+03 2.282915115356445312e+01 -2.106826591491699219e+01 -8.819000795483589172e-03 4.322693943977355957e-01 1.270351111888885498e-01 3.856126219034194946e-02
1.836000000000000000e+03 1.117114353179931641e+01 -3.701076507568359375e+01 6.236601620912551880e-04 -3.009696025401353836e-03 -7.158107473514974117e-04 7.430508267134428024e-03
1.837000000000000000e+03 1.206300354003906250e+01 -3.395213317871093750e+01 -3.342706710100173950e-03 -2.608674345538020134e-03 -1.785414293408393860e-03 1.438002102077007294e-03
1.838000000000000000e+03 2.468939781188964844e+01 -2.561876296997070312e+01 -1.340760104358196259e-02 7.849726080894470215e-01 2.314694970846176147e-01 3.390029445290565491e-02
1.839000000000000000e+03 2.259450340270996094e+01 -2.671764373779296875e+01 -5.091556347906589508e-03 4.426707029342651367e-01 1.312737464904785156e-01 1.916767284274101257e-02
1.840000000000000000e+03 1.230438518524169922e+01 2.449427986145019531e+01 -9.434231906197965145e-04 -3.158390463795512915e-04 -3.777786914724856615e-04 2.270080403832253069e-05
1.841000000000000000e+03 3.230181503295898438e+01 4.153364944458007812e+01 2.321965694427490234e-01 -3.255371749401092529e-01 -2.800218202173709869e-02 8.750411123037338257e-02
1.842000000000000000e+03 3.993087387084960938e+01 3.783710098266601562e+01 2.312228977680206299e-01 -2.494586110115051270e-01 -5.470713600516319275e-03 4.376549720764160156e-01
1.843000000000000000e+03 3.441563796997070312e+01 4.086207199096679688e+01 3.563598692417144775e-01 -3.888196349143981934e-01 -9.737921878695487976e-03 1.768278777599334717e-01
1.844000000000000000e+03 3.460730361938476562e+01 3.870834350585937500e+01 1.354271769523620605e-01 -3.246845602989196777e-01 -5.677721649408340454e-02 3.277877271175384521e-01
1.845000000000000000e+03 4.707650375366210938e+01 3.033834457397460938e+01 4.360520362854003906e+00 3.641169309616088867e+00 2.400506973266601562e+00 4.899547576904296875e+00
1.846000000000000000e+03 4.685232162475585938e+01 3.065781974792480469e+01 4.141462802886962891e+00 2.154064655303955078e+00 1.888658285140991211e+00 3.789669036865234375e+00
1.847000000000000000e+03 4.702411651611328125e+01 3.015105819702148438e+01 4.189109325408935547e+00 3.965455293655395508e+00 2.446369409561157227e+00 4.934006690979003906e+00
1.848000000000000000e+03 4.647573089599609375e+01 3.029035377502441406e+01 3.705448865890502930e+00 2.283619880676269531e+00 1.796720623970031738e+00 3.666341543197631836e+00
1.849000000000000000e+03 4.789136505126953125e+01 3.474796295166015625e+01 6.943122744560241699e-01 8.660630226135253906e+00 2.806482791900634766e+00 -4.517617225646972656e+00
1.850000000000000000e+03 4.732164382934570312e+01 3.456340408325195312e+01 1.261028289794921875e+00 5.503805160522460938e+00 2.029450178146362305e+00 -3.742378473281860352e+00
1.851000000000000000e+03 4.855929183959960938e+01 3.484554672241210938e+01 -2.176669090986251831e-01 1.234391689300537109e+01 3.637874841690063477e+00 -4.130295276641845703e+00
1.852000000000000000e+03 4.756472396850585938e+01 3.487251663208007812e+01 8.551852107048034668e-01 7.113367557525634766e+00 2.390565872192382812e+00 -3.991691112518310547e+00
1.853000000000000000e+03 4.603219604492187500e+01 3.025372123718261719e+01 3.139083862304687500e+00 1.667089462280273438e+00 1.441851973533630371e+00 2.933065891265869141e+00
1.854000000000000000e+03 4.822047805786132812e+01 2.975193977355957031e+01 2.982045412063598633e+00 1.111582565307617188e+01 4.229361057281494141e+00 6.628439903259277344e+00
1.855000000000000000e+03 4.676426696777343750e+01 3.551321411132812500e+01 8.261128067970275879e-01 4.315630912780761719e+00 1.542523026466369629e+00 -2.803400039672851562e+00
1.856000000000000000e+03 4.832268142700195312e+01 2.805057334899902344e+01 1.288742661476135254e+00 1.023737716674804688e+01 3.457836151123046875e+00 4.423432826995849609e+00
1.857000000000000000e+03 4.993141937255859375e+01 2.917530250549316406e+01 1.088034749031066895e+00 1.619216918945312500e+01 5.184061527252197266e+00 2.397053956985473633e+00
1.858000000000000000e+03 4.180941390991210938e+01 2.868158340454101562e+01 1.162646532058715820e+00 6.728007197380065918e-01 5.506342053413391113e-01 8.611581325531005859e-01
1.859000000000000000e+03 4.258665847778320312e+01 2.924167633056640625e+01 1.187227487564086914e+00 6.050210595130920410e-01 5.376745462417602539e-01 9.465353488922119141e-01
1.860000000000000000e+03 4.376986694335937500e+01 2.919292640686035156e+01 1.773310899734497070e+00 9.805738329887390137e-01 8.261654376983642578e-01 1.570972919464111328e+00
1.861000000000000000e+03 4.450557708740234375e+01 3.014115142822265625e+01 1.658183336257934570e+00 6.334657669067382812e-01 6.874946951866149902e-01 1.435415148735046387e+00
1.862000000000000000e+03 4.577433013916015625e+01 3.003064918518066406e+01 2.962298631668090820e+00 1.582527875900268555e+00 1.363447904586791992e+00 2.808546543121337891e+00
1.863000000000000000e+03 4.542601013183593750e+01 2.995106124877929688e+01 2.592053413391113281e+00 1.335857391357421875e+00 1.178373217582702637e+00 2.452948570251464844e+00
1.864000000000000000e+03 4.760093688964843750e+01 3.843896102905273438e+01 -3.045810163021087646e-01 7.758500099182128906e+00 2.236175775527954102e+00 -1.847612380981445312e+00
1.865000000000000000e+03 5.100679397583007812e+01 3.570436477661132812e+01 -3.580728173255920410e-01 1.568639755249023438e+01 4.598497390747070312e+00 9.440049529075622559e-01
1.866000000000000000e+03 2.681619262695312500e+01 3.101287269592285156e+01 -1.639570742845535278e-01 -2.655299380421638489e-02 -5.715302005410194397e-02 -3.013760149478912354e-01
1.867000000000000000e+03 3.727479457855224609e+00 4.530611991882324219e+00 3.322804404888302088e-04 -1.011357089737430215e-04 6.934341945452615619e-05 -2.487876336090266705e-04
1.868000000000000000e+03 4.479835033416748047e+00 4.373397827148437500e+00 -2.430604508845135570e-04 -4.900265048490837216e-05 -8.761892968323081732e-05 1.658718538237735629e-04
1.869000000000000000e+03 4.131111907958984375e+01 2.991726303100585938e+01 3.294434547424316406e-01 2.647393345832824707e-01 1.782548278570175171e-01 3.408780694007873535e-01
1.870000000000000000e+03 4.120536041259765625e+01 2.931698799133300781e+01 6.699689030647277832e-01 4.000509083271026611e-01 3.210059404373168945e-01 4.776518642902374268e-01
1.871000000000000000e+03 6.648816585540771484e+00 4.237170219421386719e+00 1.311779778916388750e-04 1.674486557021737099e-04 8.958799298852682114e-05 4.069350688951089978e-05
1.872000000000000000e+03 5.431246757507324219e+00 5.854114055633544922e+00 -2.168166429328266531e-05 2.296224556630477309e-05 3.841747400201711571e-07 -9.520752064418047667e-05
1.873000000000000000e+03 2.400860404968261719e+01 3.004822158813476562e+01 -4.816344752907752991e-02 -1.712502390146255493e-01 -6.582410633563995361e-02 -2.388330549001693726e-01
1.874000000000000000e+03 5.232239723205566406e+00 5.029147624969482422e+00 -6.811905768699944019e-05 -1.336838176939636469e-04 -6.054086043150164187e-05 1.577461371198296547e-04
1.875000000000000000e+03 9.023653030395507812e+00 5.679900169372558594e+00 -2.515110827516764402e-04 -7.634760549990460277e-05 -9.835761011345311999e-05 -1.089844736270606518e-04
1.876000000000000000e+03 7.407958030700683594e+00 4.258714199066162109e+00 -1.392279809806495905e-04 -1.239290286321192980e-04 -7.894710142863914371e-05 -2.679412318684626371e-05
1.877000000000000000e+03 8.241397857666015625e+00 4.954947471618652344e+00 -1.793535484466701746e-04 -7.000709592830389738e-05 -7.480819476768374443e-05 -1.103011891245841980e-04
1.878000000000000000e+03 2.952948951721191406e+01 3.096511459350585938e+01 -2.696956992149353027e-01 5.750001594424247742e-02 -6.365870684385299683e-02 -3.346434235572814941e-01
1.879000000000000000e+03 3.023231315612792969e+01 3.089039039611816406e+01 -2.921746969223022461e-01 7.111472636461257935e-02 -6.631799787282943726e-02 -3.394253849983215332e-01
1.880000000000000000e+03 8.810070991516113281e+00 -4.149323940277099609e+00 -3.811341885011643171e-04 -5.631174644804559648e-05 -1.312337844865396619e-04 7.416555308736860752e-05
1.881000000000000000e+03 1.051902198791503906e+01 -4.726319313049316406e+00 9.886860061669722199e-05 -2.162331511499360204e-04 -3.520936297718435526e-05 6.434860551962628961e-05
1.882000000000000000e+03 2.748401260375976562e+01 3.104346847534179688e+01 -1.916545778512954712e-01 -4.814938642084598541e-03 -5.894085764884948730e-02 -3.112393319606781006e-01
1.883000000000000000e+03 2.883349227905273438e+01 3.101780319213867188e+01 -2.453999668359756470e-01 3.640139102935791016e-02 -6.269957125186920166e-02 -3.296366333961486816e-01
1.884000000000000000e+03 3.165735816955566406e+01 3.071787643432617188e+01 -3.271867334842681885e-01 1.013444438576698303e-01 -6.775268167257308960e-02 -3.386282324790954590e-01
1.885000000000000000e+03 3.237643051147460938e+01 3.062265014648437500e+01 -3.370875120162963867e-01 1.188600435853004456e-01 -6.546823680400848389e-02 -3.320593535900115967e-01
1.886000000000000000e+03 8.035122871398925781e+00 -4.117776393890380859e+00 3.446648479439318180e-04 1.012390639516524971e-04 1.337711728410795331e-04 -1.060276190401054919e-04
1.887000000000000000e+03 1.163551521301269531e+01 -9.084331512451171875e+00 -5.468960735015571117e-04 -1.841201010392978787e-04 -2.193048567278310657e-04 2.055668883258476853e-04
1.888000000000000000e+03 3.899560928344726562e+01 2.952533531188964844e+01 1.304747909307479858e-01 2.519486844539642334e-01 1.147270426154136658e-01 5.155771598219871521e-02
1.889000000000000000e+03 3.309658050537109375e+01 3.051785850524902344e+01 -3.416603803634643555e-01 1.278170347213745117e-01 -6.415300816297531128e-02 -3.230165541172027588e-01
1.890000000000000000e+03 3.686442184448242188e+01 3.051127052307128906e+01 -4.044622778892517090e-01 1.491256803274154663e-01 -7.660097628831863403e-02 -1.830976158380508423e-01
1.891000000000000000e+03 3.823765182495117188e+01 2.962347412109375000e+01 5.817323923110961914e-03 2.318662554025650024e-01 7.130507379770278931e-02 -4.299664497375488281e-02
1.892000000000000000e+03 3.381731414794921875e+01 3.040033721923828125e+01 -3.350677192211151123e-01 1.440241038799285889e-01 -5.731308460235595703e-02 -3.069171309471130371e-01
1.893000000000000000e+03 3.453787994384765625e+01 3.027145576477050781e+01 -3.176071941852569580e-01 1.500484943389892578e-01 -5.026761069893836975e-02 -2.872342467308044434e-01
1.894000000000000000e+03 7.272876262664794922e+00 -4.759227752685546875e+00 4.098413337487727404e-04 1.016805981635116041e-04 1.534565817564725876e-04 -1.582663389854133129e-04
1.895000000000000000e+03 3.612183761596679688e+01 3.064644241333007812e+01 -4.455243945121765137e-01 1.471365392208099365e-01 -8.951635658740997314e-02 -2.186105400323867798e-01
1.896000000000000000e+03 3.808510208129882812e+01 2.898116302490234375e+01 2.363413423299789429e-01 2.905771434307098389e-01 1.580755412578582764e-01 1.035017240792512894e-02
1.897000000000000000e+03 3.525775146484375000e+01 3.013643836975097656e+01 -2.866107523441314697e-01 1.653498262166976929e-01 -3.637828305363655090e-02 -2.593936324119567871e-01
1.898000000000000000e+03 3.974153137207031250e+01 2.944298553466796875e+01 2.800376713275909424e-01 2.907877266407012939e-01 1.712476313114166260e-01 1.642010957002639771e-01
1.899000000000000000e+03 5.207577514648437500e+01 2.974872398376464844e+01 3.594685077667236328e+00 1.409385395050048828e+01 5.306561470031738281e+00 -1.039375543594360352e+00
1.900000000000000000e+03 5.304083251953125000e+01 3.046344184875488281e+01 4.870532035827636719e+00 1.247596263885498047e+01 5.203948497772216797e+00 -7.709848284721374512e-01
1.901000000000000000e+03 7.283559799194335938e+00 -4.100170612335205078e+00 -2.481773262843489647e-04 -1.407061645295470953e-04 -1.166650472441688180e-04 9.998327004723250866e-05
1.902000000000000000e+03 7.423473834991455078e+00 -6.317181110382080078e+00 -7.120689260773360729e-04 -7.263587031047791243e-05 -2.354114403715357184e-04 -2.211983810411766171e-04
1.903000000000000000e+03 1.254529762268066406e+01 6.639883041381835938e+00 3.516739234328269958e-04 2.614541153889149427e-05 1.133458063122816384e-04 4.507773701334372163e-05
1.904000000000000000e+03 6.544369220733642578e+00 -4.163364887237548828e+00 5.743825749959796667e-05 2.279362961417064071e-04 8.561236609239131212e-05 -1.721894295769743621e-05
1.905000000000000000e+03 7.059391498565673828e+00 -5.330585956573486328e+00 -6.193948793224990368e-04 -7.226739398902282119e-05 -2.074986841762438416e-04 1.660811394685879350e-04
1.906000000000000000e+03 1.237128448486328125e+01 -5.468557357788085938e+00 -5.437685176730155945e-04 -8.729848923394456506e-05 -1.893200969789177179e-04 1.536116033094003797e-04
1.907000000000000000e+03 4.047772216796875000e+01 2.937366485595703125e+01 4.573563337326049805e-01 3.305648863315582275e-01 2.363763600587844849e-01 3.057194948196411133e-01
1.908000000000000000e+03 1.246850681304931641e+01 4.517925262451171875e+00 3.588515101000666618e-04 -8.019540473469533026e-06 1.052495936164632440e-04 8.536124369129538536e-06
1.909000000000000000e+03 1.040020751953125000e+01 7.748647689819335938e+00 -3.109472454525530338e-04 -9.707162826089188457e-05 -1.224056613864377141e-04 -1.285851612919941545e-04
1.910000000000000000e+03 5.148100280761718750e+01 2.939008712768554688e+01 2.811381340026855469e+00 1.482228946685791016e+01 5.290101051330566406e+00 -6.306699514389038086e-01
1.911000000000000000e+03 5.396297836303710938e+01 2.842961311340332031e+01 2.238104343414306641e+00 1.176310062408447266e+01 4.200361251831054688e+00 -1.064831137657165527e+00
1.912000000000000000e+03 1.147655296325683594e+01 4.760820865631103516e+00 -3.640252980403602123e-04 3.894332110121467849e-07 -1.090907608158886433e-04 -7.201110565802082419e-05
1.913000000000000000e+03 2.497664070129394531e+01 -1.511761903762817383e+00 -8.099406026303768158e-03 3.628468811511993408e-01 1.064242422580718994e-01 1.865617483854293823e-01
1.914000000000000000e+03 2.634166908264160156e+01 2.769049704074859619e-01 -1.612085103988647461e-02 5.741717219352722168e-01 1.674152612686157227e-01 2.459237426519393921e-01
1.915000000000000000e+03 2.580798339843750000e+01 -1.807420730590820312e+01 -1.263480540364980698e-02 8.812716603279113770e-01 2.605910599231719971e-01 8.190250396728515625e-02
1.916000000000000000e+03 2.579359626770019531e+01 -1.661792373657226562e+01 -1.458550151437520981e-02 8.673436045646667480e-01 2.558274269104003906e-01 9.035005420446395874e-02
1.917000000000000000e+03 2.609280586242675781e+01 -4.438591480255126953e+00 -1.838054135441780090e-02 6.654404401779174805e-01 1.941179633140563965e-01 1.989331245422363281e-01
1.918000000000000000e+03 2.438787269592285156e+01 -8.390193939208984375e+00 -9.222509339451789856e-03 4.652498364448547363e-01 1.368082016706466675e-01 1.191206574440002441e-01
1.919000000000000000e+03 1.093334579467773438e+01 -1.568838214874267578e+01 9.498049039393663406e-04 3.795071970671415329e-04 3.987936361227184534e-04 -3.290128952357918024e-04
1.920000000000000000e+03 1.116730594635009766e+01 1.030218315124511719e+01 3.470724914222955704e-04 1.363893097732216120e-04 1.450385461794212461e-04 9.205839887727051973e-05
1.921000000000000000e+03 9.790590286254882812e+00 5.717520236968994141e+00 2.650035894475877285e-04 8.945145964389666915e-05 1.063365198206156492e-04 1.313332031713798642e-04
1.922000000000000000e+03 1.020045375823974609e+01 1.719210624694824219e+01 4.071149742230772972e-04 8.234541019191965461e-05 1.468381233280524611e-04 -7.001583435339853168e-05
1.923000000000000000e+03 1.101699256896972656e+01 2.461048507690429688e+01 6.141964113339781761e-04 5.270047113299369812e-04 3.423603484407067299e-04 -2.148662679246626794e-05
1.924000000000000000e+03 1.051032829284667969e+01 -1.103737926483154297e+01 -2.291713608428835869e-04 -3.315316571388393641e-04 -1.682109141256660223e-04 4.629942122846841812e-04
1.925000000000000000e+03 1.106181812286376953e+01 -1.197604179382324219e+01 -4.941935767419636250e-04 -1.245011808350682259e-04 -1.856084272731095552e-04 6.006758849252946675e-05
1.926000000000000000e+03 8.784025192260742188e+00 -3.481095886230468750e+01 -1.980946166440844536e-03 -3.557543503120541573e-03 -1.661546877585351467e-03 3.366026794537901878e-03
1.927000000000000000e+03 7.867681980133056641e+00 -3.081309318542480469e+01 -1.973217353224754333e-03 -8.556273533031344414e-04 -8.486534352414309978e-04 -9.952265536412596703e-04
1.928000000000000000e+03 4.330495452880859375e+01 3.806900024414062500e+01 6.689045429229736328e-01 1.640648126602172852e+00 6.928657889366149902e-01 -6.040225028991699219e-01
1.929000000000000000e+03 7.569724273681640625e+01 3.102105712890625000e+01 1.351858377456665039e-01 5.262715816497802734e+00 1.619370460510253906e+00 -4.984412491321563721e-01
1.930000000000000000e+03 1.535539722442626953e+01 4.015134429931640625e+01 -4.832399543374776840e-03 1.549080188851803541e-04 -1.403247471898794174e-03 3.004106692969799042e-04
1.931000000000000000e+03 1.804567337036132812e+01 3.845569992065429688e+01 -2.006807189900428057e-04 1.542955724289640784e-04 -1.391554451402043924e-05 -4.665309097617864609e-03
1.932000000000000000e+03 2.568341636657714844e+01 -1.108663654327392578e+01 -2.052722871303558350e-02 7.605890035629272461e-01 2.220185399055480957e-01 1.323934495449066162e-01
1.933000000000000000e+03 2.433991432189941406e+01 -9.758460998535156250e+00 -1.095358189195394516e-02 4.926596879959106445e-01 1.445118337869644165e-01 1.109002977609634399e-01
1.934000000000000000e+03 7.362810516357421875e+01 -3.150612068176269531e+01 -3.180260211229324341e-02 8.853056907653808594e+00 2.646376371383666992e+00 -4.143848270177841187e-02
1.935000000000000000e+03 7.488042449951171875e+01 -2.810411453247070312e+01 -1.030280441045761108e-02 9.041113853454589844e+00 2.709243535995483398e+00 -4.402229562401771545e-02
1.936000000000000000e+03 2.584470176696777344e+01 -7.072243690490722656e+00 -2.090335078537464142e-02 6.949697732925415039e-01 2.022199332714080811e-01 1.682334542274475098e-01
1.937000000000000000e+03 7.402321624755859375e+01 2.262945938110351562e+01 4.912141337990760803e-02 6.489720344543457031e+00 1.961652636528015137e+00 -9.128246307373046875e-01
1.938000000000000000e+03 7.540377807617187500e+01 2.395474815368652344e+01 4.851450398564338684e-02 6.084494113922119141e+00 1.839902639389038086e+00 -7.446472644805908203e-01
1.939000000000000000e+03 7.500989532470703125e+01 -2.065762138366699219e+01 -1.557896658778190613e-02 9.014722824096679688e+00 2.699743032455444336e+00 -7.158469408750534058e-02
1.940000000000000000e+03 7.322887420654296875e+01 -2.207974052429199219e+01 -2.142915874719619751e-02 8.743559837341308594e+00 2.616639375686645508e+00 -7.407964020967483521e-02
1.941000000000000000e+03 7.545394897460937500e+01 1.288617134094238281e+01 -5.730088800191879272e-02 7.404010295867919922e+00 2.204012870788574219e+00 -6.712014675140380859e-01
1.942000000000000000e+03 7.422060394287109375e+01 1.566777324676513672e+01 -6.508231163024902344e-02 7.187922000885009766e+00 2.136851787567138672e+00 -8.633803129196166992e-01
1.943000000000000000e+03 7.547888946533203125e+01 1.697470855712890625e+01 -2.961396984755992889e-02 6.926816940307617188e+00 2.069160938262939453e+00 -7.445702552795410156e-01
1.944000000000000000e+03 7.348831939697265625e+01 7.477001190185546875e+00 -1.270739138126373291e-01 7.886779785156250000e+00 2.327911615371704102e+00 -6.745727062225341797e-01
1.945000000000000000e+03 7.384368896484375000e+01 8.917640686035156250e+00 -1.134429797530174255e-01 7.791128158569335938e+00 2.303305625915527344e+00 -7.002633810043334961e-01
1.946000000000000000e+03 7.547825622558593750e+01 -1.380168914794921875e+01 -2.181373909115791321e-02 8.983924865722656250e+00 2.688633441925048828e+00 -1.194693967700004578e-01
1.947000000000000000e+03 7.418456268310546875e+01 -1.514116764068603516e+01 -3.052446618676185608e-02 8.809899330139160156e+00 2.633812427520751953e+00 -1.292040497064590454e-01
1.948000000000000000e+03 7.543316650390625000e+01 2.538737297058105469e+01 7.740660756826400757e-02 5.912715911865234375e+00 1.797036767005920410e+00 -7.083028554916381836e-01
1.949000000000000000e+03 7.555019378662109375e+01 -1.352403461933135986e-01 -5.257140472531318665e-02 8.491327285766601562e+00 2.531626701354980469e+00 -3.306567668914794922e-01
1.950000000000000000e+03 7.428336334228515625e+01 -2.182590514421463013e-01 -8.174441754817962646e-02 8.369982719421386719e+00 2.486471414566040039e+00 -3.946639299392700195e-01
1.951000000000000000e+03 7.547824859619140625e+01 -6.915951728820800781e+00 -3.933172672986984253e-02 8.791866302490234375e+00 2.625760316848754883e+00 -2.088751047849655151e-01
1.952000000000000000e+03 7.417197418212890625e+01 -8.311147689819335938e+00 -5.769996345043182373e-02 8.656378746032714844e+00 2.579603672027587891e+00 -2.267153412103652954e-01
1.953000000000000000e+03 7.410636138916015625e+01 1.167148399353027344e+01 -9.745984524488449097e-02 7.564621448516845703e+00 2.240148544311523438e+00 -7.717186808586120605e-01
1.954000000000000000e+03 7.272657775878906250e+01 6.226210594177246094e+00 -1.504889130592346191e-01 7.940242290496826172e+00 2.336925983428955078e+00 -6.723403334617614746e-01
1.955000000000000000e+03 7.361955261230468750e+01 5.095819473266601562e+00 -1.220553591847419739e-01 8.029256820678710938e+00 2.372160434722900391e+00 -5.923239588737487793e-01
1.956000000000000000e+03 7.416082763671875000e+01 2.399676561355590820e+00 -9.399032592773437500e-02 8.224746704101562500e+00 2.439226865768432617e+00 -4.710963666439056396e-01
1.957000000000000000e+03 7.425225830078125000e+01 -2.864773988723754883e+00 -7.311611622571945190e-02 8.484789848327636719e+00 2.523502349853515625e+00 -3.316148519515991211e-01
1.958000000000000000e+03 7.422102355957031250e+01 -4.214161872863769531e+00 -6.853558123111724854e-02 8.531850814819335938e+00 2.538994789123535156e+00 -3.029364049434661865e-01
1.959000000000000000e+03 7.414435577392578125e+01 -1.110499191284179688e+01 -4.918164014816284180e-02 8.723979949951171875e+00 2.602439403533935547e+00 -1.815826445817947388e-01
1.960000000000000000e+03 7.413511657714843750e+01 -1.249302101135253906e+01 -4.473063722252845764e-02 8.756633758544921875e+00 2.613570928573608398e+00 -1.628698259592056274e-01
1.961000000000000000e+03 7.407428741455078125e+01 -1.768375015258789062e+01 -3.539190813899040222e-02 8.829448699951171875e+00 2.638216972351074219e+00 -1.056080609560012817e-01
1.962000000000000000e+03 7.551425933837890625e+01 1.208422660827636719e+00 -5.707724019885063171e-02 8.408999443054199219e+00 2.505576848983764648e+00 -3.624866902828216553e-01
1.963000000000000000e+03 7.380362701416015625e+01 -1.902605056762695312e+01 -2.693562954664230347e-02 8.805974006652832031e+00 2.633711576461791992e+00 -9.662599116563796997e-02
1.964000000000000000e+03 7.416629791259765625e+01 1.838866043090820312e+01 -2.836058847606182098e-02 6.908783435821533203e+00 2.064126729965209961e+00 -9.064368009567260742e-01
1.965000000000000000e+03 7.345241546630859375e+01 -2.525428962707519531e+01 -1.532039791345596313e-02 8.789340972900390625e+00 2.632206201553344727e+00 -5.854975804686546326e-02
1.966000000000000000e+03 7.489275360107421875e+01 -2.663643455505371094e+01 -1.324196718633174896e-02 9.040208816528320312e+00 2.708090066909790039e+00 -4.765827953815460205e-02
1.967000000000000000e+03 7.419168853759765625e+01 2.845611190795898438e+01 1.644295752048492432e-01 5.940638542175292969e+00 1.831520438194274902e+00 -7.178906798362731934e-01
1.968000000000000000e+03 7.418213653564453125e+01 -6.938530445098876953e+00 -6.106920167803764343e-02 8.618753433227539062e+00 2.567305088043212891e+00 -2.504181563854217529e-01
1.969000000000000000e+03 7.414715576171875000e+01 -1.384313583374023438e+01 -3.635944053530693054e-02 8.787032127380371094e+00 2.625201940536499023e+00 -1.417006254196166992e-01
1.970000000000000000e+03 7.417477416992187500e+01 1.433066654205322266e+01 -7.910118997097015381e-02 7.322329998016357422e+00 2.172968626022338867e+00 -8.355362415313720703e-01
1.971000000000000000e+03 7.445187377929687500e+01 3.156981086730957031e+01 1.892399489879608154e-01 5.660062789916992188e+00 1.754790782928466797e+00 -5.388758778572082520e-01
1.972000000000000000e+03 7.280413818359375000e+01 3.018439674377441406e+01 2.726297974586486816e-01 6.196681976318359375e+00 1.940793514251708984e+00 -6.971002221107482910e-01
1.973000000000000000e+03 7.350492858886718750e+01 -2.047845077514648438e+01 -2.703598886728286743e-02 8.777135848999023438e+00 2.625030040740966797e+00 -8.859758824110031128e-02
1.974000000000000000e+03 7.405448913574218750e+01 2.119410514831542969e+01 2.604939974844455719e-02 6.637452125549316406e+00 1.999050378799438477e+00 -9.303157925605773926e-01
1.975000000000000000e+03 7.421207427978515625e+01 2.998209190368652344e+01 1.939960122108459473e-01 5.822205543518066406e+00 1.804860472679138184e+00 -6.379743814468383789e-01
1.976000000000000000e+03 6.684089660644531250e+00 -1.499218940734863281e+01 -7.375878631137311459e-04 1.916433539008721709e-04 -1.637833483982831240e-04 -7.919474592199549079e-05
1.977000000000000000e+03 5.926221847534179688e+00 -2.848779487609863281e+01 3.171240910887718201e-03 -3.310624742880463600e-04 8.520535193383693695e-04 1.890093517431523651e-05
1.978000000000000000e+03 1.095709991455078125e+01 -2.148990821838378906e+01 2.326306188479065895e-03 -3.779918770305812359e-04 5.844942643307149410e-04 -4.482036165427416563e-04
1.979000000000000000e+03 1.024306011199951172e+01 3.073927879333496094e+01 1.399764558300375938e-03 -8.425005944445729256e-04 1.671791833359748125e-04 7.989706355147063732e-04
1.980000000000000000e+03 2.594656753540039062e+01 8.316578865051269531e+00 2.389347180724143982e-02 1.674848794937133789e-01 5.741350725293159485e-02 2.317056357860565186e-01
1.981000000000000000e+03 5.981970787048339844e+00 -2.580899620056152344e+01 1.798609737306833267e-03 4.785052442457526922e-04 6.831344799138605595e-04 -1.200039259856566787e-04
1.982000000000000000e+03 4.440135002136230469e+00 2.749331283569335938e+01 -1.270511536858975887e-03 1.520791120128706098e-04 -3.355297085363417864e-04 -5.968057303107343614e-05
1.983000000000000000e+03 5.757693767547607422e+00 2.854240226745605469e+01 -1.613911823369562626e-03 3.435944672673940659e-04 -3.810951893683522940e-04 3.500370949041098356e-04
1.984000000000000000e+03 2.618349266052246094e+01 2.152637481689453125e+01 1.489186882972717285e-01 -1.832063198089599609e-01 -1.028628647327423096e-02 -1.615853458642959595e-01
1.985000000000000000e+03 2.616846084594726562e+01 1.830681419372558594e+01 1.484812349081039429e-01 -1.347270011901855469e-01 4.126273095607757568e-03 -1.626919023692607880e-02
1.986000000000000000e+03 2.596014595031738281e+01 1.110984992980957031e+01 5.691835656762123108e-02 5.820636078715324402e-02 3.453741595149040222e-02 1.953866481781005859e-01
1.987000000000000000e+03 1.449508571624755859e+01 -2.891057395935058594e+01 4.768989980220794678e-03 3.862774465233087540e-04 1.546580228023231030e-03 -1.132488832809031010e-03
1.988000000000000000e+03 2.478572273254394531e+01 1.548987197875976562e+01 7.443890720605850220e-02 -3.301834762096405029e-01 -7.672337442636489868e-02 5.273838341236114502e-02
1.989000000000000000e+03 3.155185508728027344e+01 1.764666938781738281e+01 3.943841457366943359e-01 8.149182200431823730e-01 3.627907037734985352e-01 2.858554124832153320e-01
1.990000000000000000e+03 5.593629837036132812e+00 2.175997543334960938e+01 9.840688435360789299e-04 -9.340186079498380423e-05 2.672001137398183346e-04 -6.093797128414735198e-05
1.991000000000000000e+03 1.073155593872070312e+01 2.234945106506347656e+01 5.359380738809704781e-04 -8.010324381757527590e-05 1.367504446534439921e-04 -4.102097300346940756e-04
1.992000000000000000e+03 6.155358314514160156e+00 -1.044936180114746094e+01 5.933523643761873245e-04 -1.279465941479429603e-04 1.396217412548139691e-04 1.328488579019904137e-04
1.993000000000000000e+03 4.963798046112060547e+00 -9.254899024963378906e+00 8.008397417142987251e-04 -1.996961873373948038e-05 2.342610387131571770e-04 1.156801154138520360e-04
1.994000000000000000e+03 2.593038558959960938e+01 6.939891815185546875e+00 7.494110614061355591e-03 2.220791280269622803e-01 6.887197494506835938e-02 2.416155040264129639e-01
1.995000000000000000e+03 2.535331726074218750e+01 2.721445655822753906e+01 1.115447562187910080e-02 -2.077560275793075562e-01 -5.898046866059303284e-02 -3.168301284313201904e-01
1.996000000000000000e+03 2.622367477416992188e+01 3.003720092773437500e+01 -9.698230028152465820e-02 -7.952567934989929199e-02 -5.295239388942718506e-02 -3.195342123508453369e-01
1.997000000000000000e+03 2.597294616699218750e+01 1.391953277587890625e+01 9.255763888359069824e-02 -4.474625363945960999e-02 1.434341724961996078e-02 1.323250830173492432e-01
1.998000000000000000e+03 2.534144210815429688e+01 2.866437911987304688e+01 -3.630436211824417114e-02 -1.582867652177810669e-01 -5.837734043598175049e-02 -3.135969042778015137e-01
1.999000000000000000e+03 2.643387222290039062e+01 2.847044181823730469e+01 -3.805917873978614807e-02 -1.030828878283500671e-01 -4.234262183308601379e-02 -3.475849032402038574e-01
2.000000000000000000e+03 5.666588306427001953e+00 -2.198260879516601562e+01 -2.235650317743420601e-03 1.983030088013038039e-04 -6.112042465247213840e-04 3.353197826072573662e-04
2.001000000000000000e+03 9.772421836853027344e+00 2.604447555541992188e+01 7.722647278569638729e-04 5.479645915329456329e-04 3.960687899962067604e-04 9.687211786513216794e-06
2.002000000000000000e+03 6.545783519744873047e+00 2.411977005004882812e+01 9.052505483850836754e-04 -3.283188270870596170e-04 1.730795192997902632e-04 -4.436087037902325392e-04
2.003000000000000000e+03 5.442885398864746094e+00 -1.655616569519042969e+01 -1.239167177118360996e-03 -3.518028534017503262e-04 -4.772910033352673054e-04 1.310984662268310785e-04
2.004000000000000000e+03 5.465202331542968750e+00 -1.510415649414062500e+01 1.207513036206364632e-03 2.342814877920318395e-05 3.692823811434209347e-04 -1.480759383412078023e-04
2.005000000000000000e+03 7.981430530548095703e+00 1.580769443511962891e+01 1.740690822771284729e-05 5.668898302246816456e-05 2.222876719315536320e-05 2.915404620580375195e-04
2.006000000000000000e+03 4.424974441528320312e+00 2.038160514831542969e+01 1.018202630802989006e-03 -6.165837112348526716e-05 2.869632735382765532e-04 1.110492012230679393e-04
2.007000000000000000e+03 7.281003952026367188e+00 -1.911964035034179688e+01 -3.736131184268742800e-04 -8.449404849670827389e-04 -3.655660839285701513e-04 -8.516133675584569573e-05
2.008000000000000000e+03 4.609734058380126953e+00 -2.589754676818847656e+01 -1.626812736503779888e-03 -1.690534409135580063e-04 -5.387598648667335510e-04 4.756875277962535620e-04
2.009000000000000000e+03 4.254639625549316406e+00 1.496658897399902344e+01 5.966710159555077553e-04 9.497007704339921474e-05 2.074923249892890453e-04 1.207417371915653348e-04
2.010000000000000000e+03 5.596161842346191406e+00 2.747879028320312500e+01 1.134108053520321846e-03 -1.164286222774535418e-04 3.053038381040096283e-04 -1.435768353985622525e-04
2.011000000000000000e+03 4.480896472930908203e+00 2.617710876464843750e+01 1.032132771797478199e-03 1.930230246216524392e-05 3.154305159114301205e-04 1.377355074509978294e-04
2.012000000000000000e+03 7.444605350494384766e+00 -2.584718513488769531e+01 -1.636840985156595707e-03 -9.814164368435740471e-04 -7.854772266000509262e-04 3.460496664047241211e-04
2.013000000000000000e+03 2.691545867919921875e+01 2.332572937011718750e+01 1.493998467922210693e-01 -1.248375624418258667e-01 7.368686608970165253e-03 -2.374134063720703125e-01
2.014000000000000000e+03 2.791908836364746094e+01 2.366750907897949219e+01 1.922054737806320190e-01 -9.887191466987133026e-03 5.469548702239990234e-02 -2.428769320249557495e-01
2.015000000000000000e+03 8.776192665100097656e+00 -1.085937976837158203e+01 5.017874646000564098e-04 -4.178671224508434534e-05 1.380002213409170508e-04 -6.629749259445816278e-05
2.016000000000000000e+03 6.645569324493408203e+00 3.142916870117187500e+01 -1.490228576585650444e-03 4.723349775304086506e-05 -4.328985232859849930e-04 -2.643850457388907671e-04
2.017000000000000000e+03 5.006578445434570312e+00 3.158669090270996094e+01 1.076144049875438213e-03 1.651578058954328299e-04 3.723905829247087240e-04 3.614576417021453381e-04
2.018000000000000000e+03 5.659974098205566406e+00 -2.069665145874023438e+01 1.738620689138770103e-03 -1.115469331125495955e-05 5.182398017495870590e-04 -2.017982296820264310e-05
2.019000000000000000e+03 5.337602615356445312e+00 -1.793778419494628906e+01 1.381765585392713547e-03 2.336067846044898033e-04 4.846117226406931877e-04 -4.432442074175924063e-05
2.020000000000000000e+03 6.636201381683349609e+00 3.489379119873046875e+01 -1.097982050850987434e-03 -1.718616113066673279e-04 -3.809531044680625200e-04 -8.286566589958965778e-04
2.021000000000000000e+03 5.944911003112792969e+00 1.715962028503417969e+01 -4.632038762792944908e-04 -2.692849084269255400e-04 -2.197466383222490549e-04 2.818089706124737859e-05
2.022000000000000000e+03 5.486829757690429688e+00 1.310067749023437500e+01 4.073303425684571266e-04 -5.784282257081940770e-05 1.048462581820785999e-04 -2.439407398924231529e-04
2.023000000000000000e+03 6.225577831268310547e+00 1.416753959655761719e+01 5.593606329057365656e-05 1.011320928228087723e-04 4.712044756161049008e-05 4.234986845403909683e-04
2.024000000000000000e+03 5.906507015228271484e+00 -2.716233062744140625e+01 -2.216482069343328476e-03 -1.233842631336301565e-04 -7.019598851911723614e-04 1.198491954710334539e-04
2.025000000000000000e+03 9.718411445617675781e+00 -3.092971038818359375e+01 9.092937689274549484e-04 -9.639892377890646458e-04 -1.640863956708926708e-05 -2.230656798928976059e-03
2.026000000000000000e+03 1.004889965057373047e+01 1.020064449310302734e+01 -3.953831910621374846e-04 -1.153319244622252882e-04 -1.532145397504791617e-04 -9.210775169776752591e-05
2.027000000000000000e+03 4.024842739105224609e+00 9.017651557922363281e+00 3.558743919711560011e-04 7.915363676147535443e-05 1.305084151681512594e-04 -6.061437670723535120e-05
2.028000000000000000e+03 5.361354351043701172e+00 -1.359109401702880859e+01 -1.075078966096043587e-03 -2.849620796041563153e-05 -3.310725733172148466e-04 -5.745270755141973495e-06
2.029000000000000000e+03 5.082293987274169922e+00 -1.060185527801513672e+01 -8.535600500181317329e-04 5.191550371819175780e-05 -2.404933766229078174e-04 -9.208907431457191706e-05
2.030000000000000000e+03 4.928740978240966797e+00 -7.959125041961669922e+00 -7.342417957261204720e-04 -4.670536509365774691e-05 -2.342841471545398235e-04 -1.509897119831293821e-04
2.031000000000000000e+03 5.162527084350585938e+00 8.889695167541503906e+00 -3.030414227396249771e-04 -1.149843592429533601e-04 -1.254077360499650240e-04 1.412255660397931933e-04
2.032000000000000000e+03 3.859493732452392578e+00 7.631361484527587891e+00 -3.184255619999021292e-04 -7.979218207765370607e-05 -1.194653232232667506e-04 5.066500671091489494e-05
2.033000000000000000e+03 7.387200355529785156e+00 -2.414752578735351562e+01 1.966136042028665543e-03 1.668550248723477125e-04 6.398973055183887482e-04 -4.282004665583372116e-04
2.034000000000000000e+03 1.132361888885498047e+01 -2.597649765014648438e+01 -1.447734655812382698e-03 -1.337694586254656315e-03 -8.356287726201117039e-04 -9.956731810234487057e-05
2.035000000000000000e+03 1.010871219635009766e+01 -2.661257743835449219e+01 -6.039518484612926841e-05 -2.624715445563197136e-03 -8.055332000367343426e-04 -7.405459473375231028e-05
2.036000000000000000e+03 1.056692600250244141e+01 1.357916736602783203e+01 -2.027091541094705462e-04 6.476739599747816101e-06 -5.886972576263360679e-05 -3.401445574127137661e-04
2.037000000000000000e+03 4.946162223815917969e+00 -5.393881797790527344e+00 -4.932105657644569874e-04 -7.812966214260086417e-05 -1.714020618237555027e-04 -1.991175231523811817e-04
2.038000000000000000e+03 2.596282196044921875e+01 -5.758004188537597656e+00 -2.097925730049610138e-02 6.798157691955566406e-01 1.976509541273117065e-01 1.827229857444763184e-01
2.039000000000000000e+03 2.625273704528808594e+01 -3.117753028869628906e+00 -1.865874230861663818e-02 6.497561335563659668e-01 1.893292218446731567e-01 2.143431603908538818e-01
2.040000000000000000e+03 2.571907997131347656e+01 -1.243994617462158203e+01 -2.658338844776153564e-02 7.923879623413085938e-01 2.297413796186447144e-01 1.208422631025314331e-01
2.041000000000000000e+03 2.568353652954101562e+01 -9.729791641235351562e+00 -1.899786852300167084e-02 7.324287891387939453e-01 2.140292823314666748e-01 1.401432305574417114e-01
2.042000000000000000e+03 6.994095325469970703e+00 -2.832790946960449219e+01 -2.279738662764430046e-03 -3.365558513905853033e-04 -7.848883979022502899e-04 1.738885184749960899e-04
2.043000000000000000e+03 2.469905471801757812e+01 4.224307537078857422e+00 -8.248645812273025513e-03 7.084149867296218872e-02 1.877785660326480865e-02 2.010256946086883545e-01
2.044000000000000000e+03 2.574193572998046875e+01 -8.388436317443847656e+00 -1.984509453177452087e-02 7.139255404472351074e-01 2.082241326570510864e-01 1.532277166843414307e-01
2.045000000000000000e+03 1.197033882141113281e+01 2.188345336914062500e+01 -1.053920481353998184e-03 5.473477358464151621e-06 -3.145341179333627224e-04 1.198081954498775303e-04
2.046000000000000000e+03 1.062138843536376953e+01 2.034956359863281250e+01 -5.137149710208177567e-04 -2.359073405386880040e-04 -2.248866949230432510e-04 -2.693589776754379272e-04
2.047000000000000000e+03 2.292314720153808594e+01 -2.399064254760742188e+01 -8.753059431910514832e-03 4.658694863319396973e-01 1.371349394321441650e-01 2.223237231373786926e-02
2.048000000000000000e+03 1.104388904571533203e+01 1.153528690338134766e+01 -3.099976165685802698e-04 -2.142501616617664695e-04 -1.572743349242955446e-04 -1.338322181254625320e-04
2.049000000000000000e+03 1.069234371185302734e+01 1.822382926940917969e+01 -5.980060086585581303e-04 6.147841486381366849e-05 -1.609582832315936685e-04 5.397143468144349754e-05
2.050000000000000000e+03 1.089554309844970703e+01 1.920691299438476562e+01 6.489231600426137447e-04 1.553704787511378527e-04 2.412880858173593879e-04 1.355213607894256711e-04
2.051000000000000000e+03 9.546688079833984375e+00 -2.940527153015136719e+01 3.625724930316209793e-04 -1.489373971708118916e-04 6.409053457900881767e-05 -1.005683094263076782e-03
2.052000000000000000e+03 1.188134574890136719e+01 -2.950699424743652344e+01 -1.929373480379581451e-03 -1.900275819934904575e-03 -1.148894778452813625e-03 1.688175951130688190e-03
2.053000000000000000e+03 2.648243904113769531e+01 -1.787839293479919434e+00 -1.982822827994823456e-02 6.591072678565979004e-01 1.917837113142013550e-01 2.346305102109909058e-01
2.054000000000000000e+03 2.590274047851562500e+01 5.571208477020263672e+00 4.801634058821946383e-04 2.716956436634063721e-01 8.165274560451507568e-02 2.464103996753692627e-01
2.055000000000000000e+03 2.606116104125976562e+01 1.575461626052856445e+00 -1.258316542953252792e-02 4.564634263515472412e-01 1.331640779972076416e-01 2.444970309734344482e-01
2.056000000000000000e+03 2.576018905639648438e+01 -1.380126094818115234e+01 -2.188105136156082153e-02 8.182271122932434082e-01 2.389038205146789551e-01 1.098797023296356201e-01
2.057000000000000000e+03 2.385618209838867188e+01 -3.038766860961914062e+01 -6.031523924320936203e-03 6.471922993659973145e-01 1.923482269048690796e-01 2.978036412969231606e-03
2.058000000000000000e+03 5.231373596191406250e+01 3.627598190307617188e+01 2.576613798737525940e-02 1.434918212890625000e+01 4.312484264373779297e+00 1.330601811408996582e+00
2.059000000000000000e+03 1.126107120513916016e+01 2.888987731933593750e+01 1.059954753145575523e-03 -1.502477389294654131e-04 2.729120897129178047e-04 6.145834340713918209e-04
2.060000000000000000e+03 8.253876686096191406e+00 2.484416198730468750e+01 8.452451438643038273e-04 3.231412847526371479e-04 3.505159402266144753e-04 -1.838550961110740900e-04
2.061000000000000000e+03 6.661299228668212891e+00 3.317634201049804688e+01 1.366645912639796734e-03 7.787341928633395582e-06 4.123299731872975826e-04 7.010531844571232796e-04
2.062000000000000000e+03 7.212404632568359375e+01 4.068653488159179688e+01 1.967200785875320435e-01 6.070379257202148438e+00 1.880129814147949219e+00 -1.254101097583770752e-01
2.063000000000000000e+03 4.736537551879882812e+01 3.012228012084960938e+01 4.268862247467041016e+00 5.618536472320556641e+00 2.966219663619995117e+00 5.760332584381103516e+00
2.064000000000000000e+03 4.777586364746093750e+01 2.930780792236328125e+01 2.912174463272094727e+00 8.595644950866699219e+00 3.452345848083496094e+00 5.892400741577148438e+00
2.065000000000000000e+03 4.787991714477539062e+01 3.000765037536621094e+01 3.836617469787597656e+00 8.786833763122558594e+00 3.787035226821899414e+00 6.745291233062744141e+00
2.066000000000000000e+03 4.582100296020507812e+01 2.942701530456542969e+01 2.975425720214843750e+00 2.410311222076416016e+00 1.615721106529235840e+00 3.332691431045532227e+00
2.067000000000000000e+03 4.757630157470703125e+01 3.532340240478515625e+01 4.192963540554046631e-01 7.592869758605957031e+00 2.403649806976318359e+00 -3.577342033386230469e+00
2.068000000000000000e+03 4.320451354980468750e+01 2.921788978576660156e+01 1.485973000526428223e+00 7.425537705421447754e-01 6.685580015182495117e-01 1.240239262580871582e+00
2.069000000000000000e+03 4.191520690917968750e+01 2.927289009094238281e+01 9.164978265762329102e-01 4.795709848403930664e-01 4.188206493854522705e-01 6.917335987091064453e-01
2.070000000000000000e+03 4.363930892944335938e+01 2.814733505249023438e+01 1.990109801292419434e+00 1.574514269828796387e+00 1.069387197494506836e+00 1.983568668365478516e+00
2.071000000000000000e+03 4.805877304077148438e+01 2.877154159545898438e+01 1.950743913650512695e+00 9.897159576416015625e+00 3.554371118545532227e+00 5.198114395141601562e+00
2.072000000000000000e+03 4.715048217773437500e+01 2.963326644897460938e+01 3.653006553649902344e+00 5.584720134735107422e+00 2.771317958831787109e+00 5.334824562072753906e+00
2.073000000000000000e+03 4.737900161743164062e+01 2.940296745300292969e+01 3.261421918869018555e+00 6.746427536010742188e+00 3.002354860305786133e+00 5.559426307678222656e+00
2.074000000000000000e+03 5.005967712402343750e+01 2.849250793457031250e+01 7.436817288398742676e-01 1.469541454315185547e+01 4.631729125976562500e+00 1.998951196670532227e+00
2.075000000000000000e+03 5.198642349243164062e+01 2.866600036621093750e+01 1.997181415557861328e+00 1.360451412200927734e+01 4.680508613586425781e+00 -5.100893974304199219e-01
2.076000000000000000e+03 4.386273956298828125e+01 2.970642662048339844e+01 1.557846784591674805e+00 6.784769296646118164e-01 6.708971261978149414e-01 1.327379226684570312e+00
2.077000000000000000e+03 4.668360900878906250e+01 2.988133430480957031e+01 3.734143257141113281e+00 3.519727706909179688e+00 2.176161289215087891e+00 4.420616149902343750e+00
2.078000000000000000e+03 4.109195709228515625e+01 2.870982551574707031e+01 9.271174073219299316e-01 5.428797602653503418e-01 4.409991502761840820e-01 6.237742900848388672e-01
2.079000000000000000e+03 8.347926139831542969e+00 5.672767639160156250e+00 2.536672691348940134e-04 2.802016933856066316e-05 8.450623136013746262e-05 1.045416647684760392e-04
2.080000000000000000e+03 9.760275840759277344e+00 4.901512145996093750e+00 -2.791464212350547314e-04 -5.627484279102645814e-05 -1.006263773888349533e-04 -1.324338663835078478e-04
2.081000000000000000e+03 6.348491191864013672e+00 5.883966445922851562e+00 5.549112393055111170e-05 -8.035281643969938159e-05 -7.458507297997130081e-06 -2.205255732405930758e-04
2.082000000000000000e+03 7.525191783905029297e+00 5.111500263214111328e+00 1.229720219271257520e-04 6.032740566297434270e-05 5.498982864082790911e-05 2.831844722095411271e-05
2.083000000000000000e+03 2.614687728881835938e+01 3.091795921325683594e+01 -1.342539340257644653e-01 -5.737570673227310181e-02 -5.748888850212097168e-02 -2.853067517280578613e-01
2.084000000000000000e+03 2.747644996643066406e+01 3.022574615478515625e+01 -1.473281979560852051e-01 -1.940752565860748291e-02 -5.002071335911750793e-02 -3.372016847133636475e-01
2.085000000000000000e+03 3.782330513000488281e+00 5.331230640411376953e+00 -3.314986242912709713e-04 -3.444903995841741562e-05 -1.097842978197149932e-04 2.264282666146755219e-04
2.086000000000000000e+03 6.450621604919433594e+00 4.953250885009765625e+00 -1.190750554087571800e-04 -1.488849375164136291e-04 -8.038800297072157264e-05 -7.728487980784848332e-05
2.087000000000000000e+03 6.015735149383544922e+00 5.414234638214111328e+00 -1.080227011698298156e-04 1.091044541681185365e-04 3.245268089813180268e-07 1.646008458919823170e-04
2.088000000000000000e+03 9.690913200378417969e+00 -5.006165027618408203e+00 -4.436634771991521120e-04 -6.473834218923002481e-05 -1.525205443613231182e-04 5.518240504898130894e-05
2.089000000000000000e+03 8.768278121948242188e+00 -4.954484939575195312e+00 4.184834833722561598e-04 1.471908908570185304e-04 1.697023108135908842e-04 -7.744177128188312054e-05
2.090000000000000000e+03 8.276042938232421875e+00 6.330628395080566406e+00 -3.202850348316133022e-04 -4.486272155190818012e-05 -1.095443294616416097e-04 -4.494559834711253643e-05
2.091000000000000000e+03 2.815062904357910156e+01 3.104219436645507812e+01 -2.180408537387847900e-01 1.785715110599994659e-02 -6.005511060357093811e-02 -3.213778138160705566e-01
2.092000000000000000e+03 1.062523174285888672e+01 5.731041908264160156e+00 -3.207183908671140671e-04 -6.309810123639181256e-05 -1.151449469034560025e-04 -1.310364314122125506e-04
2.093000000000000000e+03 3.016767501831054688e+01 3.018374633789062500e+01 -2.159616202116012573e-01 7.282394170761108398e-02 -4.294130206108093262e-02 -3.624041378498077393e-01
2.094000000000000000e+03 2.947562408447265625e+01 3.024540328979492188e+01 -2.032245695590972900e-01 5.055339261889457703e-02 -4.580135270953178406e-02 -3.603572547435760498e-01
2.095000000000000000e+03 3.087089347839355469e+01 3.011741065979003906e+01 -2.254278510808944702e-01 8.929111063480377197e-02 -4.084102064371109009e-02 -3.619543612003326416e-01
2.096000000000000000e+03 3.094207572937011719e+01 3.080655479431152344e+01 -3.111177086830139160e-01 8.991058170795440674e-02 -6.636213511228561401e-02 -3.399507403373718262e-01
2.097000000000000000e+03 3.157923316955566406e+01 3.004945945739746094e+01 -2.295999675989151001e-01 1.098761036992073059e-01 -3.591716289520263672e-02 -3.564968705177307129e-01
2.098000000000000000e+03 3.228781127929687500e+01 2.997490310668945312e+01 -2.301910221576690674e-01 1.232072114944458008e-01 -3.209514543414115906e-02 -3.494981825351715088e-01
2.099000000000000000e+03 2.879343414306640625e+01 3.028537178039550781e+01 -1.854825764894485474e-01 3.267674893140792847e-02 -4.584174975752830505e-02 -3.549668192863464355e-01
2.100000000000000000e+03 3.299535751342773438e+01 2.988450431823730469e+01 -2.211420536041259766e-01 1.444855779409408569e-01 -2.299694158136844635e-02 -3.353945612907409668e-01
2.101000000000000000e+03 5.367663574218750000e+01 2.943236923217773438e+01 3.357833147048950195e+00 1.217147922515869141e+01 4.658793449401855469e+00 -1.036119699478149414e+00
2.102000000000000000e+03 5.305831146240234375e+01 2.963790512084960938e+01 3.682359218597412109e+00 1.282371330261230469e+01 4.951821804046630859e+00 -1.122748851776123047e+00
2.103000000000000000e+03 3.885144424438476562e+01 2.888796806335449219e+01 3.744105696678161621e-01 3.394009470939636230e-01 2.141434550285339355e-01 1.224651187658309937e-01
2.104000000000000000e+03 3.672253799438476562e+01 2.986499214172363281e+01 -1.789158880710601807e-01 1.922304630279541016e-01 3.994375001639127731e-03 -1.786250770092010498e-01
2.105000000000000000e+03 3.598318862915039062e+01 2.999984550476074219e+01 -2.409066408872604370e-01 1.717104911804199219e-01 -2.075884491205215454e-02 -2.252031713724136353e-01
2.106000000000000000e+03 3.714087677001953125e+01 2.844001579284667969e+01 2.993160486221313477e-01 3.182710111141204834e-01 1.852761059999465942e-01 -3.443146869540214539e-02
2.107000000000000000e+03 3.370257949829101562e+01 2.977083015441894531e+01 -2.017868161201477051e-01 1.566483080387115479e-01 -1.354155130684375763e-02 -3.169953227043151855e-01
2.108000000000000000e+03 3.440718460083007812e+01 2.963623809814453125e+01 -1.671484559774398804e-01 1.769347637891769409e-01 2.935889177024364471e-03 -2.895565927028656006e-01
2.109000000000000000e+03 3.695776748657226562e+01 2.778211402893066406e+01 4.493746161460876465e-01 3.906980156898498535e-01 2.520217895507812500e-01 2.275313436985015869e-02
2.110000000000000000e+03 9.001268386840820312e+00 7.945168495178222656e+00 4.618077364284545183e-04 -7.473755249520763755e-05 1.161210529971867800e-04 -2.288410360051784664e-05
2.111000000000000000e+03 3.961015701293945312e+01 2.881215476989746094e+01 5.351683497428894043e-01 3.836435675621032715e-01 2.756435871124267578e-01 2.605454027652740479e-01
2.112000000000000000e+03 4.249285888671875000e+01 2.866917228698730469e+01 1.415539264678955078e+00 8.230286836624145508e-01 6.715704202651977539e-01 1.139520883560180664e+00
2.113000000000000000e+03 7.117514610290527344e+00 -7.154974937438964844e+00 5.810305592603981495e-04 1.563065743539482355e-04 2.212011459050700068e-04 1.977058127522468567e-04
2.114000000000000000e+03 3.511119461059570312e+01 2.949239730834960938e+01 -1.189372092485427856e-01 1.871254742145538330e-01 2.045647799968719482e-02 -2.574161589145660400e-01
2.115000000000000000e+03 8.594429016113281250e+00 -5.763086795806884766e+00 -4.392811097204685211e-04 -2.196881396230310202e-04 -1.976907806238159537e-04 -6.856747495476156473e-05
2.116000000000000000e+03 6.539882183074951172e+00 -5.950927734375000000e+00 7.940679206512868404e-04 2.182433490816038102e-05 2.447676670271903276e-04 -7.829929381841793656e-05
2.117000000000000000e+03 2.545544624328613281e+01 2.990037345886230469e+01 -7.816081494092941284e-02 -1.157309114933013916e-01 -5.816751718521118164e-02 -2.956617176532745361e-01
2.118000000000000000e+03 4.035776138305664062e+01 2.875274658203125000e+01 7.183566093444824219e-01 4.603353738784790039e-01 3.536075949668884277e-01 4.235353171825408936e-01
2.119000000000000000e+03 4.947255706787109375e+01 2.848274993896484375e+01 7.947285771369934082e-01 1.371653842926025391e+01 4.353380203247070312e+00 3.406878471374511719e+00
2.120000000000000000e+03 5.261001968383789062e+01 2.910351943969726562e+01 2.791518688201904297e+00 1.328331470489501953e+01 4.822450160980224609e+00 -9.442894458770751953e-01
2.121000000000000000e+03 1.152884292602539062e+01 6.708616733551025391e+00 -3.441028820816427469e-04 -3.967042721342295408e-05 -1.151319956989027560e-04 -8.185852493625134230e-05
2.122000000000000000e+03 4.817094039916992188e+01 3.528210067749023438e+01 -7.659840583801269531e-02 1.032506561279296875e+01 3.074540138244628906e+00 -3.923884153366088867e+00
2.123000000000000000e+03 5.015296936035156250e+01 3.606100463867187500e+01 -8.439972996711730957e-01 1.455626869201660156e+01 4.113681316375732422e+00 -3.936283886432647705e-01
2.124000000000000000e+03 1.254739570617675781e+01 5.516888141632080078e+00 -3.498235018923878670e-04 -7.454081242030952126e-06 -1.071832812158390880e-04 -3.071542596444487572e-05
2.125000000000000000e+03 5.420916748046875000e+01 3.300060653686523438e+01 4.332708358764648438e+00 1.185487747192382812e+01 4.856276035308837891e+00 1.284647703170776367e+00
2.126000000000000000e+03 5.339070510864257812e+01 3.105748176574707031e+01 5.057287216186523438e+00 1.213196182250976562e+01 5.156774520874023438e+00 -4.316798746585845947e-01
2.127000000000000000e+03 8.053955078125000000e+00 1.232579040527343750e+01 1.734000397846102715e-04 3.967017983086407185e-05 6.392106297425925732e-05 2.660045283846557140e-04
2.128000000000000000e+03 9.211882591247558594e+00 1.884531402587890625e+01 2.818494976963847876e-04 5.143051384948194027e-04 2.388463908573612571e-04 -9.924796177074313164e-05
2.129000000000000000e+03 4.884830474853515625e+00 7.476396560668945312e+00 2.359079226152971387e-04 1.380579778924584389e-04 1.121897730627097189e-04 -1.484573731431737542e-04
2.130000000000000000e+03 2.739242362976074219e+01 -1.949397850036621094e+01 -2.657166123390197754e-02 1.173850178718566895e+00 3.441835641860961914e-01 8.489144593477249146e-02
2.131000000000000000e+03 4.983037471771240234e+00 -6.668540000915527344e+00 6.096119177527725697e-04 1.458668557461351156e-04 2.266436204081401229e-04 1.857024908531457186e-04
2.132000000000000000e+03 7.460211277008056641e+00 7.917135715484619141e+00 2.488293976057320833e-04 9.627888357499614358e-05 1.035324821714311838e-04 1.321037561865523458e-04
2.133000000000000000e+03 2.722764968872070312e+01 1.799425125122070312e+00 -2.595737017691135406e-02 7.219142913818359375e-01 2.087870687246322632e-01 2.872775495052337646e-01
2.134000000000000000e+03 2.708660507202148438e+01 2.981961727142333984e+00 -1.768698170781135559e-02 6.264579296112060547e-01 1.826312839984893799e-01 2.953066825866699219e-01
2.135000000000000000e+03 1.122124862670898438e+01 -1.011201953887939453e+01 4.232638166286051273e-04 3.327589656691998243e-04 2.268068346893414855e-04 -2.528369950596243143e-04
2.136000000000000000e+03 8.374926567077636719e+00 -8.775053977966308594e+00 -2.568636045907624066e-05 4.415543808136135340e-04 1.247604086529463530e-04 -2.404166880296543241e-04
2.137000000000000000e+03 9.103079795837402344e+00 1.770765686035156250e+01 -4.315779951866716146e-04 -2.104813320329412818e-04 -1.926177938003093004e-04 4.075717879459261894e-05
2.138000000000000000e+03 8.869430541992187500e+00 1.508027935028076172e+01 -5.700860128854401410e-06 3.390773599676322192e-06 -6.930259246473724488e-07 -3.652773448266088963e-04
2.139000000000000000e+03 7.323534488677978516e+00 2.095053100585937500e+01 -7.781715248711407185e-05 -7.921661745058372617e-05 -4.711013025371357799e-05 -8.137351869663689286e-06
2.140000000000000000e+03 9.901265144348144531e+00 2.331487846374511719e+01 3.745259891729801893e-04 3.686260315589606762e-04 2.229456003988161683e-04 2.099116536555811763e-04
2.141000000000000000e+03 6.322074413299560547e+00 1.231538200378417969e+01 8.570171485189348459e-05 9.039239375852048397e-05 5.282823258312419057e-05 9.763407433638349175e-05
2.142000000000000000e+03 2.726074981689453125e+01 -7.137954235076904297e+00 -3.712128102779388428e-02 9.598007202148437500e-01 2.768038213253021240e-01 2.029820531606674194e-01
2.143000000000000000e+03 2.773706054687500000e+01 -3.282815217971801758e+00 -3.768550232052803040e-02 9.656388163566589355e-01 2.783859968185424805e-01 2.597941458225250244e-01
2.144000000000000000e+03 1.110187149047851562e+01 -1.322814941406250000e+01 7.443660288117825985e-04 1.863640063675120473e-04 2.792190061882138252e-04 -1.818214950617402792e-04
2.145000000000000000e+03 7.035718536376953125e+01 -2.516597938537597656e+01 -4.040930420160293579e-02 8.293865203857421875e+00 2.476036787033081055e+00 -6.961768865585327148e-02
2.146000000000000000e+03 7.022706604003906250e+01 -3.235636520385742188e+01 -1.475837547332048416e-02 8.291402816772460938e+00 2.482993364334106445e+00 -2.430520951747894287e-02
2.147000000000000000e+03 7.035178375244140625e+01 -3.464431762695312500e+01 -3.958638384938240051e-02 8.299292564392089844e+00 2.477911949157714844e+00 -2.563850209116935730e-02
2.148000000000000000e+03 1.005152797698974609e+01 2.727757835388183594e+01 -8.506476879119873047e-04 -4.799115413334220648e-04 -3.991677658632397652e-04 -6.191214924911037087e-05
2.149000000000000000e+03 7.127933502197265625e+01 2.487916564941406250e+01 1.895115375518798828e-01 6.819572448730468750e+00 2.102725267410278320e+00 -1.076107740402221680e+00
2.150000000000000000e+03 7.301974487304687500e+01 2.707872390747070312e+01 1.924619525671005249e-01 6.323635578155517578e+00 1.954829335212707520e+00 -8.702206015586853027e-01
2.151000000000000000e+03 7.416533660888671875e+01 2.549975204467773438e+01 1.133536472916603088e-01 6.198594093322753906e+00 1.893584251403808594e+00 -8.399080038070678711e-01
2.152000000000000000e+03 7.175022125244140625e+01 1.700128364562988281e+01 -9.259438514709472656e-02 7.302375793457031250e+00 2.162934541702270508e+00 -1.092910766601562500e+00
2.153000000000000000e+03 7.299132537841796875e+01 1.575384235382080078e+01 -8.753015100955963135e-02 7.276998043060302734e+00 2.156840324401855469e+00 -9.796945452690124512e-01
2.154000000000000000e+03 7.285800170898437500e+01 -1.746520042419433594e+01 -4.649904742836952209e-02 8.636311531066894531e+00 2.576943635940551758e+00 -1.245492473244667053e-01
2.155000000000000000e+03 7.155273437500000000e+01 1.070830059051513672e+01 -1.910742819309234619e-01 7.700190067291259766e+00 2.252734661102294922e+00 -9.105197787284851074e-01
2.156000000000000000e+03 7.288019561767578125e+01 -9.751183509826660156e+00 -7.597088068723678589e-02 8.514066696166992188e+00 2.531428813934326172e+00 -2.310591489076614380e-01
2.157000000000000000e+03 7.283625793457031250e+01 -1.115421104431152344e+01 -6.843531131744384766e-02 8.538078308105468750e+00 2.540892839431762695e+00 -2.087488770484924316e-01
2.158000000000000000e+03 7.299186706542968750e+01 -1.594844460487365723e+00 -1.101470068097114563e-01 8.302743911743164062e+00 2.457778930664062500e+00 -4.119704365730285645e-01
2.159000000000000000e+03 7.295213317871093750e+01 -2.911167144775390625e+00 -1.050246059894561768e-01 8.343115806579589844e+00 2.471427440643310547e+00 -3.782069087028503418e-01
2.160000000000000000e+03 7.214629364013671875e+01 8.071224212646484375e+00 -1.800227016210556030e-01 7.829271316528320312e+00 2.294774532318115234e+00 -7.794331908226013184e-01
2.161000000000000000e+03 7.280042266845703125e+01 3.427043676376342773e+00 -1.439224183559417725e-01 8.071785926818847656e+00 2.378359079360961914e+00 -5.774027109146118164e-01
2.162000000000000000e+03 7.291082763671875000e+01 -4.259381771087646484e+00 -9.810096025466918945e-02 8.383033752441406250e+00 2.485479831695556641e+00 -3.451717793941497803e-01
2.163000000000000000e+03 7.250615692138671875e+01 4.436161518096923828e+00 -1.587956547737121582e-01 8.013363838195800781e+00 2.356370210647583008e+00 -6.285156011581420898e-01
2.164000000000000000e+03 7.399933624267578125e+01 3.724725008010864258e+00 -1.020241975784301758e-01 8.142729759216308594e+00 2.412211656570434570e+00 -5.156729221343994141e-01
2.165000000000000000e+03 7.072287750244140625e+01 5.962061882019042969e+00 -2.249635010957717896e-01 7.893271923065185547e+00 2.300492525100708008e+00 -7.489712238311767578e-01
2.166000000000000000e+03 7.419694519042968750e+01 -5.575844287872314453e+00 -6.408756971359252930e-02 8.577564239501953125e+00 2.554042816162109375e+00 -2.762242257595062256e-01
2.167000000000000000e+03 7.413197326660156250e+01 1.300760173797607422e+01 -8.747697621583938599e-02 7.441923141479492188e+00 2.206333875656127930e+00 -8.042519092559814453e-01
2.168000000000000000e+03 8.436987876892089844e+00 3.692767715454101562e+01 -1.334176282398402691e-03 4.597209226631093770e-06 -3.988737298641353846e-04 -1.111755846068263054e-03
2.169000000000000000e+03 7.211319732666015625e+01 -2.672301673889160156e+01 -2.089365758001804352e-02 8.579895973205566406e+00 2.567700624465942383e+00 -5.161109194159507751e-02
2.170000000000000000e+03 7.331906890869140625e+01 -2.823190307617187500e+01 -1.111330837011337280e-02 8.787052154541015625e+00 2.632781744003295898e+00 -4.977213218808174133e-02
2.171000000000000000e+03 7.410534667968750000e+01 1.977972602844238281e+01 -9.762046858668327332e-03 6.780124664306640625e+00 2.031108856201171875e+00 -9.256487488746643066e-01
2.172000000000000000e+03 5.251440525054931641e+00 -1.205765533447265625e+01 9.110524551942944527e-04 -1.853586945799179375e-05 2.677549782674759626e-04 5.142295412952080369e-05
2.173000000000000000e+03 7.294177246093750000e+01 2.567360687255859375e+01 1.627859324216842651e-01 6.442794322967529297e+00 1.981673955917358398e+00 -9.315740466117858887e-01
2.174000000000000000e+03 1.129736995697021484e+01 9.048832893371582031e+00 -3.447743947617709637e-04 -1.039758426486514509e-04 -1.346250792266801000e-04 -8.826255361782386899e-05
2.175000000000000000e+03 9.256061553955078125e+00 -1.867768859863281250e+01 9.570505353622138500e-04 6.547778612002730370e-04 4.835485015064477921e-04 -6.477003917098045349e-04
2.176000000000000000e+03 1.078089237213134766e+01 -1.685629844665527344e+01 -9.808832546696066856e-04 -4.957682103849947453e-04 -4.429954278748482466e-04 4.651697527151554823e-04
2.177000000000000000e+03 2.638901519775390625e+01 2.719375991821289062e+01 1.846688427031040192e-02 -1.344447433948516846e-01 -3.479335829615592957e-02 -3.416957557201385498e-01
2.178000000000000000e+03 2.543764305114746094e+01 2.582986450195312500e+01 5.036609247326850891e-02 -2.367969453334808350e-01 -5.592925474047660828e-02 -3.015865683555603027e-01
2.179000000000000000e+03 2.854644203186035156e+01 1.620562171936035156e+01 2.193390727043151855e-01 3.514646589756011963e-01 1.712411195039749146e-01 1.591939330101013184e-01
2.180000000000000000e+03 1.211977100372314453e+01 -2.107762527465820312e+01 -2.806968986988067627e-04 7.792785763740539551e-04 1.495744945714250207e-04 -6.388595793396234512e-04
2.181000000000000000e+03 1.001172256469726562e+01 -2.013198852539062500e+01 1.514164847321808338e-03 1.850792177719995379e-04 5.097732646390795708e-04 -9.918141877278685570e-04
2.182000000000000000e+03 2.715255546569824219e+01 8.183815956115722656e+00 3.125422820448875427e-02 4.382362663745880127e-01 1.408471465110778809e-01 2.819451391696929932e-01
2.183000000000000000e+03 2.715064620971679688e+01 1.094015121459960938e+01 7.403201609849929810e-02 3.202297687530517578e-01 1.182785406708717346e-01 2.477803528308868408e-01
2.184000000000000000e+03 2.595544815063476562e+01 9.707139015197753906e+00 3.903963789343833923e-02 1.125978082418441772e-01 4.549123346805572510e-02 2.167585343122482300e-01
2.185000000000000000e+03 2.596132850646972656e+01 1.251522064208984375e+01 7.363401353359222412e-02 4.444582853466272354e-03 2.342357859015464783e-02 1.682565510272979736e-01
2.186000000000000000e+03 2.963401794433593750e+01 7.886245250701904297e+00 3.688979893922805786e-02 9.921781420707702637e-01 3.087203800678253174e-01 3.911370038986206055e-01
2.187000000000000000e+03 5.930205821990966797e+00 2.303838539123535156e+01 -1.044170465320348740e-03 1.685275492491200566e-04 -2.626928617246448994e-04 1.081893060472793877e-04
2.188000000000000000e+03 9.904951095581054688e+00 2.148825073242187500e+01 -3.203043888788670301e-05 1.997555518755689263e-04 5.031753607909195125e-05 3.567480889614671469e-04
2.189000000000000000e+03 5.981134414672851562e+00 -8.029351234436035156e+00 6.403410807251930237e-04 9.474390390096232295e-05 2.205255004810169339e-04 8.989934576675295830e-05
2.190000000000000000e+03 2.600358390808105469e+01 1.534220314025878906e+01 1.101224869489669800e-01 -8.598221838474273682e-02 7.242080289870500565e-03 9.100645035505294800e-02
2.191000000000000000e+03 2.716907691955566406e+01 1.372548198699951172e+01 1.222521290183067322e-01 2.049704343080520630e-01 9.816676378250122070e-02 1.839521527290344238e-01
2.192000000000000000e+03 6.989442825317382812e+00 2.516045188903808594e+01 -8.132160874083638191e-04 -3.665506956167519093e-04 -3.539300232660025358e-04 4.467419785214588046e-05
2.193000000000000000e+03 7.361339569091796875e+00 -1.718159294128417969e+01 -5.763517692685127258e-04 -7.371033425442874432e-04 -3.940365277230739594e-04 -3.972913546022027731e-04
2.194000000000000000e+03 8.851265907287597656e+00 -2.754891204833984375e+01 -9.387889294885098934e-04 -2.116140676662325859e-03 -9.164789225906133652e-04 3.101879847235977650e-04
2.195000000000000000e+03 6.760346889495849609e+00 -2.265280914306640625e+01 -7.989912410266697407e-04 8.108884212560951710e-04 3.569154159777099267e-06 -6.663708481937646866e-04
2.196000000000000000e+03 5.680785179138183594e+00 -2.313297271728515625e+01 2.248724689707159996e-03 -6.462387391366064548e-04 4.807457444258034229e-04 -5.678792367689311504e-04
2.197000000000000000e+03 5.423595905303955078e+00 -1.929366302490234375e+01 -1.543078222312033176e-03 -1.944451651070266962e-05 -4.687567998189479113e-04 -4.513138264883309603e-05
2.198000000000000000e+03 2.667467117309570312e+01 2.946947669982910156e+01 -8.393500000238418579e-02 -7.129678130149841309e-02 -4.656953364610671997e-02 -3.400602936744689941e-01
2.199000000000000000e+03 6.231884479522705078e+00 1.810550498962402344e+01 2.368276909692212939e-05 -1.965761039173230529e-04 -5.186799899092875421e-05 -2.364836400374770164e-04
2.200000000000000000e+03 1.130168247222900391e+01 -2.262346076965332031e+01 -2.055182121694087982e-03 7.048901170492172241e-04 -4.050876304972916842e-04 3.449150535743683577e-04
2.201000000000000000e+03 6.784694671630859375e+00 1.956878089904785156e+01 -4.541100934147834778e-04 -1.384435454383492470e-04 -1.777660945663228631e-04 1.654307270655408502e-04
2.202000000000000000e+03 5.719116210937500000e+00 1.908366584777832031e+01 4.537740023806691170e-04 1.781186729203909636e-04 1.895677996799349785e-04 7.385975186480209231e-05
2.203000000000000000e+03 7.156199455261230469e+00 1.499538135528564453e+01 -1.967527350643649697e-04 -3.393020233488641679e-05 -6.920487794559448957e-05 -3.594340814743191004e-04
2.204000000000000000e+03 8.157696723937988281e+00 1.893840789794921875e+01 -3.738531086128205061e-04 -4.070831055287271738e-04 -2.342808729736134410e-04 7.441099296556785703e-05
2.205000000000000000e+03 8.072958946228027344e+00 -1.926435089111328125e+01 3.210844297427684069e-04 1.087244716472923756e-03 4.224987351335585117e-04 -5.594373214989900589e-04
2.206000000000000000e+03 2.741538810729980469e+01 2.197147178649902344e+01 1.954866349697113037e-01 -4.221199080348014832e-02 4.598239064216613770e-02 -1.671267896890640259e-01
2.207000000000000000e+03 2.730031776428222656e+01 -1.506369972229003906e+01 -3.445822373032569885e-02 1.111749887466430664e+00 3.231875002384185791e-01 1.203799098730087280e-01
2.208000000000000000e+03 2.698390197753906250e+01 -9.681738853454589844e+00 -3.178682178258895874e-02 9.778490066528320312e-01 2.838186621665954590e-01 1.689680367708206177e-01
2.209000000000000000e+03 1.116321372985839844e+01 -2.512068367004394531e+01 2.080839127302169800e-03 -4.786970093846321106e-04 4.806426586583256721e-04 1.259213022422045469e-04
2.210000000000000000e+03 1.064775943756103516e+01 -2.424420738220214844e+01 -2.016675192862749100e-03 1.196946366690099239e-03 -2.459186362102627754e-04 2.248474775115028024e-04
2.211000000000000000e+03 5.412580966949462891e+00 1.539945602416992188e+01 -4.452599096111953259e-04 -1.309601357206702232e-04 -1.728660135995596647e-04 -3.245126281399279833e-04
2.212000000000000000e+03 6.370427608489990234e+00 -1.368724250793457031e+01 8.183462196029722691e-04 3.175060264766216278e-04 3.407556796446442604e-04 -1.178564416477456689e-04
2.213000000000000000e+03 2.559015464782714844e+01 2.445565605163574219e+01 8.361088484525680542e-02 -2.504130005836486816e-01 -5.004063248634338379e-02 -2.690860033035278320e-01
2.214000000000000000e+03 9.967869758605957031e+00 -2.768072128295898438e+01 5.238318699412047863e-04 2.890537958592176437e-03 1.024310942739248276e-03 -1.072785817086696625e-03
2.215000000000000000e+03 5.909831523895263672e+00 6.414448738098144531e+00 3.189400013070553541e-04 1.341240713372826576e-04 1.359192247036844492e-04 2.000418135139625520e-05
2.216000000000000000e+03 6.124552249908447266e+00 8.533241271972656250e+00 -4.701230409409618005e-06 1.366619253531098366e-04 3.958820525440387428e-05 -5.039467941969633102e-05
2.217000000000000000e+03 9.937092781066894531e+00 1.269215106964111328e+01 -2.936532255262136459e-04 -1.121072200476191938e-04 -1.217281387653201818e-04 1.255981915164738894e-04
2.218000000000000000e+03 6.701319694519042969e+00 -1.282542610168457031e+01 -3.909840888809412718e-04 -1.439241605112329125e-04 -1.604724820936098695e-04 4.229386686347424984e-04
2.219000000000000000e+03 7.339409828186035156e+00 8.616187095642089844e+00 -2.516134409233927727e-04 -1.063882882590405643e-04 -1.074005194823257625e-04 -1.572709152242168784e-04
2.220000000000000000e+03 7.713082790374755859e+00 -1.322961807250976562e+01 7.762264431221410632e-05 -2.674806746654212475e-04 -5.695740765077061951e-05 -2.780400391202419996e-04
2.221000000000000000e+03 6.114544868469238281e+00 -6.879046916961669922e+00 -6.753196357749402523e-04 -1.760126469889655709e-04 -2.553997037466615438e-04 -4.683340011979453266e-05
2.222000000000000000e+03 2.583930587768554688e+01 -1.952951240539550781e+01 -1.329701207578182220e-02 9.021266102790832520e-01 2.666488587856292725e-01 7.530990988016128540e-02
2.223000000000000000e+03 2.896888160705566406e+01 -1.942588806152343750e+01 -3.454943746328353882e-02 1.455256581306457520e+00 4.262121617794036865e-01 9.412452578544616699e-02
2.224000000000000000e+03 5.498759841918945312e+01 3.031110572814941406e+01 3.640734434127807617e+00 1.109489536285400391e+01 4.420688629150390625e+00 -6.372034549713134766e-01
2.225000000000000000e+03 2.713517189025878906e+01 6.829516887664794922e+00 1.530120428651571274e-02 4.892233014106750488e-01 1.513573527336120605e-01 2.913227975368499756e-01
2.226000000000000000e+03 2.578591156005859375e+01 -1.519004344940185547e+01 -2.183193899691104889e-02 8.441233634948730469e-01 2.466874420642852783e-01 1.023667827248573303e-01
2.227000000000000000e+03 2.753256797790527344e+01 7.474113106727600098e-01 -1.899899542331695557e-02 8.188387155532836914e-01 2.399519234895706177e-01 2.937827110290527344e-01
2.228000000000000000e+03 2.831627464294433594e+01 5.381404876708984375e+00 1.538100419566035271e-03 8.027805685997009277e-01 2.412955909967422485e-01 3.393781483173370361e-01
2.229000000000000000e+03 9.626688957214355469e+00 1.608698272705078125e+01 -2.254016726510599256e-04 2.637874786159954965e-05 -5.970687561784870923e-05 3.043470787815749645e-04
2.230000000000000000e+03 1.038515853881835938e+01 -3.002445030212402344e+01 1.650068006711080670e-04 -1.678878674283623695e-03 -4.541615489870309830e-04 4.342746688053011894e-04
2.231000000000000000e+03 1.104532909393310547e+01 -1.447807502746582031e+01 -8.752145804464817047e-04 -2.455998037476092577e-04 -3.362443239893764257e-04 2.501078997738659382e-04
2.232000000000000000e+03 1.077548789978027344e+01 2.973719787597656250e+01 -1.254520262591540813e-03 7.187896990217268467e-04 -1.607191807124763727e-04 -7.908002007752656937e-04
2.233000000000000000e+03 2.447943115234375000e+01 -2.250594520568847656e+01 -1.937509886920452118e-02 7.161179780960083008e-01 2.090228497982025146e-01 5.467944964766502380e-02
2.234000000000000000e+03 2.586894798278808594e+01 -2.095902061462402344e+01 -1.884529739618301392e-02 9.089821577072143555e-01 2.670410573482513428e-01 6.342126429080963135e-02
2.235000000000000000e+03 2.631450271606445312e+01 1.989670372009277344e+01 1.638346463441848755e-01 -1.462943255901336670e-01 5.262093152850866318e-03 -8.716367930173873901e-02
2.236000000000000000e+03 2.351766586303710938e+01 -2.922527122497558594e+01 -6.636127829551696777e-03 6.035979390144348145e-01 1.790885478258132935e-01 -5.691637634299695492e-04
2.237000000000000000e+03 2.542461204528808594e+01 -2.771855735778808594e+01 -3.405801579356193542e-02 9.040256142616271973e-01 2.609902620315551758e-01 1.778130419552326202e-02
2.238000000000000000e+03 1.170978164672851562e+01 3.464813232421875000e+01 1.974083716049790382e-03 2.324451925233006477e-04 6.619586492888629436e-04 -2.458645030856132507e-04
2.239000000000000000e+03 1.128414249420166016e+01 -7.203166484832763672e+00 -3.709394950419664383e-04 3.386855241842567921e-04 -9.676191439211834222e-06 1.451385833206586540e-05
2.240000000000000000e+03 9.552327156066894531e+00 -5.960590839385986328e+00 3.996720770373940468e-04 2.498517278581857681e-04 1.948571298271417618e-04 -3.772427953663282096e-05
2.241000000000000000e+03 1.050370597839355469e+01 2.826934432983398438e+01 4.654099466279149055e-04 3.512889670673757792e-04 2.450096653774380684e-04 -2.568468626122921705e-04
2.242000000000000000e+03 2.640566825866699219e+01 -2.362029838562011719e+01 -3.335671871900558472e-02 1.023433685302734375e+00 2.970230877399444580e-01 4.935640841722488403e-02
2.243000000000000000e+03 7.156489562988281250e+01 -2.173323440551757812e+01 -3.842293843626976013e-02 8.489248275756835938e+00 2.535247564315795898e+00 -8.907281607389450073e-02
2.244000000000000000e+03 7.297840118408203125e+01 -1.641464614868164062e+01 -4.748920723795890808e-02 8.645084381103515625e+00 2.579278707504272461e+00 -1.333019733428955078e-01
2.245000000000000000e+03 5.448467254638671875e+01 3.459956741333007812e+01 2.614487171173095703e+00 1.227450942993164062e+01 4.466699123382568359e+00 1.731946945190429688e+00
2.246000000000000000e+03 5.455596160888671875e+01 3.652366256713867188e+01 7.366994023323059082e-01 1.265077590942382812e+01 4.016242504119873047e+00 1.547179341316223145e+00
2.247000000000000000e+03 5.317655181884765625e+01 4.115773391723632812e+01 -1.382929682731628418e+00 1.244559574127197266e+01 3.318799734115600586e+00 2.126819044351577759e-01
2.248000000000000000e+03 6.916083335876464844e+00 -3.478523635864257812e+01 1.372800441458821297e-03 5.367361009120941162e-04 5.728609976358711720e-04 -5.303004290908575058e-04
2.249000000000000000e+03 8.872019767761230469e+00 -3.683046340942382812e+01 5.765389505540952086e-05 -1.524696242995560169e-03 -4.401127225719392300e-04 -1.333435066044330597e-03
2.250000000000000000e+03 2.701550102233886719e+01 -7.120065689086914062e-01 -2.284649014472961426e-02 7.204812765121459961e-01 2.092904448509216309e-01 2.579795122146606445e-01
2.251000000000000000e+03 7.289505004882812500e+01 -8.358201026916503906e+00 -8.168137073516845703e-02 8.487076759338378906e+00 2.521618604660034180e+00 -2.576876580715179443e-01
2.252000000000000000e+03 1.059622097015380859e+01 3.681135559082031250e+01 2.284705638885498047e-03 -9.860783757176250219e-05 6.558293243870139122e-04 5.157195846550166607e-04
2.253000000000000000e+03 1.011306953430175781e+01 3.501409149169921875e+01 -2.078630728647112846e-03 3.660251968540251255e-04 -5.137816187925636768e-04 -5.413015605881810188e-04
2.254000000000000000e+03 8.344512939453125000e+00 3.901801681518554688e+01 8.182922611013054848e-04 6.188121624290943146e-04 4.311313387006521225e-04 1.275793998502194881e-03
2.255000000000000000e+03 9.099546432495117188e+00 -1.305133152008056641e+01 7.378467125818133354e-04 1.051898289006203413e-04 2.529109769966453314e-04 -4.022485809400677681e-04
2.256000000000000000e+03 4.670183181762695312e+01 2.951546859741210938e+01 3.473521947860717773e+00 4.226087570190429688e+00 2.309882879257202148e+00 4.664710044860839844e+00
2.257000000000000000e+03 4.480197906494140625e+01 2.909503555297851562e+01 2.391564130783081055e+00 1.717041850090026855e+00 1.232581853866577148e+00 2.423535585403442383e+00
2.258000000000000000e+03 4.750576782226562500e+01 2.971242332458496094e+01 3.662065505981445312e+00 6.960152626037597656e+00 3.186665534973144531e+00 6.005319595336914062e+00
2.259000000000000000e+03 4.537883758544921875e+01 2.950596809387207031e+01 2.703864097595214844e+00 1.852474927902221680e+00 1.366901755332946777e+00 2.761739492416381836e+00
2.260000000000000000e+03 4.312226104736328125e+01 2.866966438293457031e+01 1.664136767387390137e+00 1.030213952064514160e+00 8.083052039146423340e-01 1.456085562705993652e+00
2.261000000000000000e+03 4.528993988037109375e+01 2.900949287414550781e+01 2.659258604049682617e+00 2.303505659103393555e+00 1.488829255104064941e+00 2.965513467788696289e+00
2.262000000000000000e+03 4.421842956542968750e+01 2.780085945129394531e+01 2.146635293960571289e+00 2.280141592025756836e+00 1.328033089637756348e+00 2.485115766525268555e+00
2.263000000000000000e+03 8.890060424804687500e+00 7.196724414825439453e+00 -3.033179964404553175e-04 -3.327837475808337331e-05 -1.009789120871573687e-04 3.509140515234321356e-05
2.264000000000000000e+03 6.619287490844726562e+00 7.244818687438964844e+00 -2.293922807439230382e-05 2.397912321612238884e-04 6.505560304503887892e-05 7.161581015679985285e-05
2.265000000000000000e+03 2.748349952697753906e+01 2.933872795104980469e+01 -9.135653823614120483e-02 -3.625942021608352661e-02 -3.828478604555130005e-02 -3.590728640556335449e-01
2.266000000000000000e+03 4.169956970214843750e+01 2.807942771911621094e+01 1.327105522155761719e+00 8.632742762565612793e-01 6.571139097213745117e-01 1.018813848495483398e+00
2.267000000000000000e+03 7.202041625976562500e+00 6.230838775634765625e+00 7.704200106672942638e-05 8.512491331202909350e-05 4.865007213084027171e-05 -3.348978498252108693e-05
2.268000000000000000e+03 3.152798843383789062e+01 2.938413429260253906e+01 -1.384302526712417603e-01 1.135374233126640320e-01 -7.467851042747497559e-03 -3.645765781402587891e-01
2.269000000000000000e+03 2.646444892883300781e+01 2.590581703186035156e+01 6.933125108480453491e-02 -1.517785787582397461e-01 -2.473419718444347382e-02 -3.232552409172058105e-01
2.270000000000000000e+03 2.812899589538574219e+01 3.026579284667968750e+01 -1.657119393348693848e-01 3.974227234721183777e-03 -4.852131381630897522e-02 -3.484713137149810791e-01
2.271000000000000000e+03 3.290576553344726562e+01 2.927411460876464844e+01 -1.133283376693725586e-01 1.522261202335357666e-01 1.166933588683605194e-02 -3.376527130603790283e-01
2.272000000000000000e+03 3.219179916381835938e+01 2.872028732299804688e+01 -3.970623761415481567e-02 1.449015438556671143e-01 3.155859187245368958e-02 -3.466408550739288330e-01
2.273000000000000000e+03 2.860462570190429688e+01 2.895459938049316406e+01 -7.797147333621978760e-02 9.626861661672592163e-03 -2.050338312983512878e-02 -3.746888935565948486e-01
2.274000000000000000e+03 2.838204765319824219e+01 2.814287376403808594e+01 -1.945825852453708649e-02 -3.714120713993906975e-03 -6.951713934540748596e-03 -3.774294555187225342e-01
2.275000000000000000e+03 1.058996105194091797e+01 6.686284542083740234e+00 3.094173443969339132e-04 8.324266673298552632e-05 1.177980011561885476e-04 1.430660049663856626e-04
2.276000000000000000e+03 3.358566665649414062e+01 2.916241455078125000e+01 -8.119776844978332520e-02 1.802817136049270630e-01 2.972518280148506165e-02 -3.127658963203430176e-01
2.277000000000000000e+03 3.869228363037109375e+01 2.824704742431640625e+01 5.683616995811462402e-01 4.220229387283325195e-01 2.971153855323791504e-01 2.013011276721954346e-01
2.278000000000000000e+03 7.760038375854492188e+00 -5.577942848205566406e+00 6.351738120429217815e-04 7.322934834519401193e-05 2.125209575751796365e-04 4.152035398874431849e-05
2.279000000000000000e+03 3.426040649414062500e+01 2.900769615173339844e+01 -3.246771544218063354e-02 1.957553327083587646e-01 4.898628592491149902e-02 -2.816382348537445068e-01
2.280000000000000000e+03 3.582507705688476562e+01 2.935080909729003906e+01 -5.795843154191970825e-02 2.114530503749847412e-01 4.604838788509368896e-02 -2.131657749414443970e-01
2.281000000000000000e+03 3.637824249267578125e+01 2.855649757385253906e+01 1.913832128047943115e-01 2.842795848846435547e-01 1.426988393068313599e-01 -1.216062754392623901e-01
2.282000000000000000e+03 7.724581241607666016e+00 -9.448775291442871094e+00 9.583968494553118944e-05 -7.327326457016170025e-04 -1.910678838612511754e-04 3.211443545296788216e-04
2.283000000000000000e+03 3.493911743164062500e+01 2.884000968933105469e+01 3.060175664722919464e-02 2.227716892957687378e-01 7.601203024387359619e-02 -2.398432642221450806e-01
2.284000000000000000e+03 3.564141464233398438e+01 2.868770027160644531e+01 1.054345965385437012e-01 2.439269870519638062e-01 1.048084720969200134e-01 -1.902934759855270386e-01
2.285000000000000000e+03 9.721960067749023438e+00 -8.766941070556640625e+00 -1.134940321207977831e-04 4.837756569031625986e-04 1.110844823415391147e-04 -3.978223321610130370e-05
2.286000000000000000e+03 3.754775238037109375e+01 2.702605819702148438e+01 6.804106831550598145e-01 5.407035946846008301e-01 3.663342893123626709e-01 2.019507884979248047e-01
2.287000000000000000e+03 1.154560661315917969e+01 5.671025753021240234e+00 3.431474906392395496e-04 2.747185499174520373e-05 1.111858073272742331e-04 8.037169027375057340e-05
2.288000000000000000e+03 1.142902469635009766e+01 7.841460704803466797e+00 3.441844892222434282e-04 7.242318679345771670e-05 1.249822962563484907e-04 7.919216295704245567e-05
2.289000000000000000e+03 4.097127151489257812e+01 2.809306526184082031e+01 1.111173987388610840e+00 7.210936546325683594e-01 5.496802926063537598e-01 7.612893581390380859e-01
2.290000000000000000e+03 5.093179321289062500e+01 2.899922180175781250e+01 1.862088441848754883e+00 1.510563564300537109e+01 5.090317249298095703e+00 2.199160307645797729e-01
2.291000000000000000e+03 5.130340194702148438e+01 2.843225860595703125e+01 1.410221099853515625e+00 1.400166320800781250e+01 4.623565196990966797e+00 7.491546124219894409e-02
2.292000000000000000e+03 4.022614669799804688e+01 2.812450981140136719e+01 9.135194420814514160e-01 5.890684127807617188e-01 4.507763683795928955e-01 5.446233749389648438e-01
2.293000000000000000e+03 4.972122955322265625e+01 3.699924087524414062e+01 -1.269832253456115723e+00 1.274880409240722656e+01 3.443691730499267578e+00 -1.170905947685241699e+00
2.294000000000000000e+03 1.055853176116943359e+01 -6.384314537048339844e+00 -1.192708223243243992e-04 -3.938591398764401674e-04 -1.539389922982081771e-04 2.417824580334126949e-04
2.295000000000000000e+03 8.675856590270996094e+00 1.123812389373779297e+01 -2.908572787418961525e-04 -1.877232571132481098e-04 -1.435741578461602330e-04 -1.312843378400430083e-04
2.296000000000000000e+03 7.182129859924316406e+00 1.323844909667968750e+01 -1.166357742476975545e-05 -1.169667229987680912e-04 -3.858908894471824169e-05 -3.315837820991873741e-04
2.297000000000000000e+03 9.787195205688476562e+00 1.433405113220214844e+01 1.217025856021791697e-04 -9.634914022171869874e-05 7.606032795592909679e-06 3.891935339197516441e-04
2.298000000000000000e+03 7.888427257537841797e+00 1.720015907287597656e+01 -3.424971946515142918e-04 2.314452722202986479e-04 -3.331558036734350026e-05 1.168526359833776951e-04
2.299000000000000000e+03 8.962302207946777344e+00 -1.409748363494873047e+01 -7.427144446410238743e-04 -3.368505567777901888e-04 -3.238694916944950819e-04 4.208241298329085112e-04
2.300000000000000000e+03 8.342811584472656250e+00 -1.008728981018066406e+01 -1.080911169992759824e-05 3.907883656211197376e-04 1.139937739935703576e-04 -5.254266434349119663e-04
2.301000000000000000e+03 1.019645309448242188e+01 8.941376686096191406e+00 3.475121920928359032e-04 1.186379085993394256e-04 1.398450258420780301e-04 1.216983946505934000e-04
2.302000000000000000e+03 4.838508987426757812e+01 3.722394180297851562e+01 -6.000630855560302734e-01 9.980912208557128906e+00 2.814254522323608398e+00 -2.121135234832763672e+00
2.303000000000000000e+03 2.960169219970703125e+01 5.168652057647705078e+00 -6.172955501824617386e-03 1.117329597473144531e+00 3.333469927310943604e-01 3.943832516670227051e-01
2.304000000000000000e+03 5.807521343231201172e+00 7.351980209350585938e+00 -1.692350197117775679e-04 -2.077043900499120355e-04 -1.130818272940814495e-04 6.179013871587812901e-05
2.305000000000000000e+03 5.845838928222656250e+01 3.296132659912109375e+01 2.304886579513549805e+00 9.871901512145996094e+00 3.653036355972290039e+00 2.533386945724487305e-01
2.306000000000000000e+03 5.651765060424804688e+01 3.406293487548828125e+01 2.529223203659057617e+00 1.078239631652832031e+01 3.993485689163208008e+00 9.742985963821411133e-01
2.307000000000000000e+03 9.853896141052246094e+00 1.148299217224121094e+01 4.044771485496312380e-04 1.701708242762833834e-04 1.723943860270082951e-04 3.497815669106785208e-06
2.308000000000000000e+03 7.082558441162109375e+01 1.566257667541503906e+01 -1.508424580097198486e-01 7.487828254699707031e+00 2.201095819473266602e+00 -1.130831241607666016e+00
2.309000000000000000e+03 1.165359973907470703e+01 -8.159761428833007812e+00 5.568004562519490719e-04 -2.093263465212658048e-04 1.042422372847795486e-04 -6.001822112011723220e-05
2.310000000000000000e+03 1.038622570037841797e+01 -9.454564094543457031e+00 -2.019296334765385836e-05 -4.452323773875832558e-04 -1.396276056766510010e-04 5.460237662191502750e-05
2.311000000000000000e+03 7.172356414794921875e+01 5.252852916717529297e+00 -1.881385296583175659e-01 7.957239627838134766e+00 2.330730199813842773e+00 -6.847538948059082031e-01
2.312000000000000000e+03 7.278018951416015625e+01 1.977683258056640625e+01 -1.318676583468914032e-02 6.955706596374511719e+00 2.082755804061889648e+00 -1.043050527572631836e+00
2.313000000000000000e+03 7.270927429199218750e+01 2.120543479919433594e+01 2.751839533448219299e-02 6.863662242889404297e+00 2.067354202270507812e+00 -1.053000807762145996e+00
2.314000000000000000e+03 7.198394012451171875e+01 -2.013084030151367188e+01 -4.461646452546119690e-02 8.547131538391113281e+00 2.550754308700561523e+00 -1.021609604358673096e-01
2.315000000000000000e+03 9.119920730590820312e+00 -8.129261016845703125e+00 5.492879790836013854e-05 -5.233180127106606960e-04 -1.405167713528499007e-04 1.667312026256695390e-04
2.316000000000000000e+03 7.301177215576171875e+01 -3.134929835796356201e-01 -1.149773225188255310e-01 8.256410598754882812e+00 2.442430019378662109e+00 -4.467916786670684814e-01
2.317000000000000000e+03 7.158337402343750000e+01 -4.318919658660888672e+00 -1.344754099845886230e-01 8.234299659729003906e+00 2.429947376251220703e+00 -3.794258534908294678e-01
2.318000000000000000e+03 7.173271942138671875e+01 -3.977017402648925781e-01 -1.544414013624191284e-01 8.146946907043457031e+00 2.397751569747924805e+00 -4.881910383701324463e-01
2.319000000000000000e+03 8.405318260192871094e+00 2.639883422851562500e+01 -8.326419047079980373e-04 -5.558720440603792667e-04 -4.165541904512792826e-04 2.508250181563198566e-04
2.320000000000000000e+03 9.651584625244140625e+00 2.464762687683105469e+01 -7.639041286893188953e-04 -4.749801300931721926e-04 -3.716652572620660067e-04 -1.127633731812238693e-04
2.321000000000000000e+03 3.059028434753417969e+01 -1.914584541320800781e+01 -5.692160502076148987e-02 1.731143593788146973e+00 5.022665858268737793e-01 1.103124842047691345e-01
2.322000000000000000e+03 2.733004188537597656e+01 -1.799378395080566406e+01 -2.066845260560512543e-02 1.156889438629150391e+00 3.408662974834442139e-01 9.812942892313003540e-02
2.323000000000000000e+03 7.184262084960937500e+01 2.600268554687500000e+01 2.048236280679702759e-01 6.632916927337646484e+00 2.051322221755981445e+00 -9.968945384025573730e-01
2.324000000000000000e+03 5.980131149291992188e+00 -9.203073501586914062e+00 -6.303284317255020142e-04 -2.667142871359828860e-05 -1.970999583136290312e-04 -1.700772118056192994e-04
2.325000000000000000e+03 7.087469482421875000e+01 -2.313821792602539062e+01 -3.630588203668594360e-02 8.405033111572265625e+00 2.510618209838867188e+00 -8.463918417692184448e-02
2.326000000000000000e+03 7.215617370605468750e+01 -2.550794792175292969e+01 -2.048623189330101013e-02 8.597687721252441406e+00 2.573160409927368164e+00 -5.301827192306518555e-02
2.327000000000000000e+03 1.033684062957763672e+01 -1.906652450561523438e+01 -1.312883105129003525e-03 -4.030249547213315964e-04 -5.147724295966327190e-04 5.832515307702124119e-04
2.328000000000000000e+03 8.480315208435058594e+00 -2.068835639953613281e+01 3.838349366560578346e-04 9.199256310239434242e-04 3.911281528417021036e-04 -1.052215811796486378e-03
2.329000000000000000e+03 7.184587097167968750e+01 -1.684208297729492188e+01 -5.631789937615394592e-02 8.466521263122558594e+00 2.523061037063598633e+00 -1.436148881912231445e-01
2.330000000000000000e+03 7.288593292236328125e+01 -6.985954761505126953e+00 -8.551285415887832642e-02 8.452399253845214844e+00 2.510066032409667969e+00 -2.860637605190277100e-01
2.331000000000000000e+03 7.164543914794921875e+01 -9.808876991271972656e+00 -9.642612189054489136e-02 8.348834037780761719e+00 2.475722312927246094e+00 -2.541457712650299072e-01
2.332000000000000000e+03 7.280320739746093750e+01 1.181142044067382812e+01 -1.383182853460311890e-01 7.596600532531738281e+00 2.237484693527221680e+00 -8.748540282249450684e-01
2.333000000000000000e+03 7.029319000244140625e+01 9.922286033630371094e+00 -2.479659914970397949e-01 7.758768081665039062e+00 2.253240585327148438e+00 -9.340458512306213379e-01
2.334000000000000000e+03 7.163542938232421875e+01 -2.956859350204467773e+00 -1.386768370866775513e-01 8.206916809082031250e+00 2.420471906661987305e+00 -4.162865877151489258e-01
2.335000000000000000e+03 7.012506103515625000e+01 3.280312538146972656e+00 -2.430608868598937988e-01 7.937801361083984375e+00 2.308422088623046875e+00 -6.629192829132080078e-01
2.336000000000000000e+03 7.161548614501953125e+01 1.830152893066406250e+01 -6.239560618996620178e-02 7.236740589141845703e+00 2.152303457260131836e+00 -1.127799153327941895e+00
2.337000000000000000e+03 5.330146026611328125e+01 2.872783279418945312e+01 2.428893566131591797e+00 1.247639465332031250e+01 4.471586227416992188e+00 -9.936024546623229980e-01
2.338000000000000000e+03 5.356713104248046875e+01 3.004698944091796875e+01 4.184616088867187500e+00 1.214252853393554688e+01 4.898143291473388672e+00 -9.119485616683959961e-01
2.339000000000000000e+03 2.715402603149414062e+01 9.554383277893066406e+00 5.317108705639839172e-02 3.819960951805114746e-01 1.305501461029052734e-01 2.682175338268280029e-01
2.340000000000000000e+03 2.721106529235839844e+01 1.512683582305908203e+01 1.479795277118682861e-01 1.533170193433761597e-01 9.038896113634109497e-02 1.406219303607940674e-01
2.341000000000000000e+03 6.593667507171630859e+00 2.151610565185546875e+01 -6.736666546203196049e-04 1.743008397170342505e-05 -1.968709839275106788e-04 1.101967427530325949e-04
2.342000000000000000e+03 2.778068542480468750e+01 1.953137969970703125e+01 2.294981181621551514e-01 7.811508327722549438e-02 9.228396415710449219e-02 -3.416159003973007202e-02
2.343000000000000000e+03 3.157789993286132812e+01 2.802622795104980469e+01 3.999794274568557739e-02 1.423899978399276733e-01 5.471638217568397522e-02 -3.455532193183898926e-01
2.344000000000000000e+03 2.950054550170898438e+01 1.189131832122802734e+01 1.389616280794143677e-01 7.710075378417968750e-01 2.729907631874084473e-01 3.403537571430206299e-01
2.345000000000000000e+03 3.038341712951660156e+01 1.822462272644042969e+01 3.504158556461334229e-01 5.650221109390258789e-01 2.746313810348510742e-01 1.692799329757690430e-01
2.346000000000000000e+03 2.914404296875000000e+01 1.886421585083007812e+01 2.977587282657623291e-01 3.219265937805175781e-01 1.859055906534194946e-01 6.427215784788131714e-02
2.347000000000000000e+03 2.747582054138183594e+01 1.801003837585449219e+01 1.966292262077331543e-01 8.320776373147964478e-02 8.395109325647354126e-02 3.133101761341094971e-02
2.348000000000000000e+03 7.274515533447265625e+01 1.313783264160156250e+01 -1.295864880084991455e-01 7.502663612365722656e+00 2.211923122406005859e+00 -9.252032041549682617e-01
2.349000000000000000e+03 6.332067966461181641e+00 -1.804772758483886719e+01 -1.013568835332989693e-03 -6.334632053039968014e-04 -4.941095830872654915e-04 -3.106645453954115510e-05
2.350000000000000000e+03 7.276309204101562500e+01 -1.393730640411376953e+01 -5.744503065943717957e-02 8.582669258117675781e+00 2.557567358016967773e+00 -1.687768250703811646e-01
2.351000000000000000e+03 6.737288951873779297e+00 1.739484214782714844e+01 -1.925338583532720804e-04 4.900690983049571514e-04 8.926057489588856697e-05 1.202577477670274675e-04
2.352000000000000000e+03 7.134798526763916016e+00 1.863657569885253906e+01 3.139046020805835724e-04 2.788747951854020357e-04 1.778338191797956824e-04 4.852614438277669251e-06
2.353000000000000000e+03 6.427873134613037109e+00 -1.923511505126953125e+01 1.049145474098622799e-03 4.320018051657825708e-04 4.443441866897046566e-04 3.510234819259494543e-04
2.354000000000000000e+03 8.963007926940917969e+00 -1.969652938842773438e+01 -7.567976135760545731e-04 -7.872338755987584591e-04 -4.632094642147421837e-04 9.298736113123595715e-04
2.355000000000000000e+03 8.601196289062500000e+00 -1.511561584472656250e+01 8.517590467818081379e-04 5.097083630971610546e-04 4.084402171429246664e-04 -3.313641063868999481e-04
2.356000000000000000e+03 9.959455490112304688e+00 -1.431193637847900391e+01 8.156025432981550694e-04 2.642947365529835224e-04 3.239691723138093948e-04 -2.858067164197564125e-04
2.357000000000000000e+03 6.366083145141601562e+00 -1.179612922668457031e+01 -4.450967244338244200e-04 -6.715816562063992023e-05 -1.536764611955732107e-04 -6.830058555351570249e-05
2.358000000000000000e+03 2.835777282714843750e+01 1.347966957092285156e+01 1.516072452068328857e-01 4.533077180385589600e-01 1.814744919538497925e-01 2.445696294307708740e-01
2.359000000000000000e+03 2.818331146240234375e+01 2.947561836242675781e+01 -1.094579249620437622e-01 -3.395413514226675034e-04 -3.293924033641815186e-02 -3.675557076930999756e-01
2.360000000000000000e+03 2.757819938659667969e+01 -4.543838500976562500e+00 -3.406450897455215454e-02 9.587366580963134766e-01 2.774016261100769043e-01 2.365220487117767334e-01
2.361000000000000000e+03 2.932504844665527344e+01 -2.113349199295043945e+00 -5.074138939380645752e-02 1.255974292755126953e+00 3.615698814392089844e-01 3.130092620849609375e-01
2.362000000000000000e+03 9.645730972290039062e+00 -2.127998733520507812e+01 -1.556480652652680874e-03 -4.531902668531984091e-04 -6.029012729413807392e-04 1.250509871169924736e-03
2.363000000000000000e+03 1.046738433837890625e+01 -2.568112754821777344e+01 2.413613692624494433e-04 1.478977617807686329e-03 5.161017179489135742e-04 6.154919537948444486e-05
2.364000000000000000e+03 9.451751708984375000e+00 -1.762396240234375000e+01 -9.297510841861367226e-04 -5.631975946016609669e-04 -4.478845803532749414e-04 4.509592836257070303e-04
2.365000000000000000e+03 9.782403945922851562e+00 -1.543526840209960938e+01 -9.018040145747363567e-04 -4.550562007352709770e-04 -4.070580762345343828e-04 2.920440747402608395e-04
2.366000000000000000e+03 9.078883171081542969e+00 -6.862100124359130859e+00 -3.229553985875099897e-04 -2.940563426818698645e-04 -1.851035194704309106e-04 5.799665086669847369e-05
2.367000000000000000e+03 2.833186721801757812e+01 1.211885070800781250e+01 1.190561279654502869e-01 5.177141427993774414e-01 1.910310834646224976e-01 2.771951258182525635e-01
2.368000000000000000e+03 2.916712951660156250e+01 2.294536781311035156e+01 2.872230112552642822e-01 1.399468481540679932e-01 1.281509548425674438e-01 -1.649144887924194336e-01
2.369000000000000000e+03 2.742725181579589844e+01 -5.842005252838134766e+00 -3.357142210006713867e-02 9.590096473693847656e-01 2.776314616203308105e-01 2.209079861640930176e-01
2.370000000000000000e+03 2.973720550537109375e+01 2.005010032653808594e+01 3.392302095890045166e-01 3.496189713478088379e-01 2.066547572612762451e-01 2.963650412857532501e-02
2.371000000000000000e+03 2.844650459289550781e+01 2.088345146179199219e+01 2.666812837123870850e-01 1.193912774324417114e-01 1.158217713236808777e-01 -7.837380468845367432e-02
2.372000000000000000e+03 2.832495498657226562e+01 2.262810325622558594e+01 2.405239939689636230e-01 6.391479074954986572e-02 9.133163839578628540e-02 -1.777332872152328491e-01
2.373000000000000000e+03 2.709627723693847656e+01 5.499791145324707031e+00 -8.243201591540127993e-05 5.362094044685363770e-01 1.608380973339080811e-01 2.944076657295227051e-01
2.374000000000000000e+03 2.836562156677246094e+01 6.690413475036621094e+00 1.677575707435607910e-02 7.699788808822631836e-01 2.360263913869857788e-01 3.391456007957458496e-01
2.375000000000000000e+03 8.273027420043945312e+00 3.330124282836914062e+01 -1.539526390843093395e-03 2.231539983768016100e-04 -3.949117381125688553e-04 -8.572195656597614288e-04
2.376000000000000000e+03 2.954022979736328125e+01 -1.042703056335449219e+01 -6.295216828584671021e-02 1.473803758621215820e+00 4.232554733753204346e-01 2.038804888725280762e-01
2.377000000000000000e+03 2.835815238952636719e+01 -8.538885116577148438e+00 -4.633401706814765930e-02 1.208957552909851074e+00 3.487870693206787109e-01 2.077991664409637451e-01
2.378000000000000000e+03 2.706073951721191406e+01 4.217087268829345703e+00 -4.249180201441049576e-03 5.767451524734497070e-01 1.717487871646881104e-01 2.926200330257415771e-01
2.379000000000000000e+03 7.138798522949218750e+01 2.117353248596191406e+01 3.295542672276496887e-02 7.051466941833496094e+00 2.125326633453369141e+00 -1.157252788543701172e+00
2.380000000000000000e+03 7.140582275390625000e+01 1.975174903869628906e+01 -1.174572482705116272e-02 7.155331134796142578e+00 2.143075466156005859e+00 -1.159334897994995117e+00
2.381000000000000000e+03 7.631810188293457031e+00 1.072771072387695312e+01 1.004084260785020888e-04 2.723542856983840466e-04 1.118288128054700792e-04 1.141555185313336551e-05
2.382000000000000000e+03 7.053300857543945312e+00 1.151260757446289062e+01 -2.654971103766001761e-05 6.613583423131785821e-07 -7.766506314510479569e-06 -2.292602293891832232e-04
2.383000000000000000e+03 7.162922668457031250e+01 -2.821706581115722656e+01 -2.281129546463489532e-02 8.491531372070312500e+00 2.540616035461425781e+00 -4.314409568905830383e-02
2.384000000000000000e+03 2.715514373779296875e+01 -1.230931949615478516e+01 -3.060210682451725006e-02 1.036788821220397949e+00 3.018560111522674561e-01 1.479177027940750122e-01
2.385000000000000000e+03 7.163736724853515625e+01 2.847956657409667969e+01 3.041917085647583008e-01 6.549468994140625000e+00 2.056098222732543945e+00 -8.670631051063537598e-01
2.386000000000000000e+03 7.102220916748046875e+01 2.678307723999023438e+01 2.840153872966766357e-01 6.771199226379394531e+00 2.116564273834228516e+00 -9.968701601028442383e-01
2.387000000000000000e+03 9.682047843933105469e+00 2.896483993530273438e+01 -5.089713158668018878e-05 -3.769324102904647589e-04 -1.283488527406007051e-04 7.382876356132328510e-04
2.388000000000000000e+03 8.832365989685058594e+00 2.784740066528320312e+01 6.968564703129231930e-04 4.512001178227365017e-04 3.444169706199318171e-04 -2.852563047781586647e-04
2.389000000000000000e+03 2.808050346374511719e+01 -1.043433547019958496e+00 -3.647891432046890259e-02 9.602508544921875000e-01 2.771315872669219971e-01 2.877933084964752197e-01
2.390000000000000000e+03 1.081105899810791016e+01 -2.904491615295410156e+01 8.805564139038324356e-04 2.881328808143734932e-03 1.128565520048141479e-03 -1.746154390275478363e-03
2.391000000000000000e+03 8.837830543518066406e+00 -3.005038261413574219e+01 1.833366812206804752e-03 2.675608848221600056e-04 6.302783149294555187e-04 9.443624876439571381e-04
2.392000000000000000e+03 7.298902130126953125e+01 9.471457600593566895e-01 -1.232544109225273132e-01 8.203517913818359375e+00 2.424078941345214844e+00 -4.860492348670959473e-01
2.393000000000000000e+03 7.169046020507812500e+01 1.932697296142578125e+00 -1.687285453081130981e-01 8.063097953796386719e+00 2.368310689926147461e+00 -5.706599354743957520e-01
2.394000000000000000e+03 7.043849945068359375e+01 -4.243332147598266602e-01 -1.992146223783493042e-01 8.037808418273925781e+00 2.351578235626220703e+00 -5.171768665313720703e-01
2.395000000000000000e+03 3.082515525817871094e+01 2.942118644714355469e+01 -1.394807845354080200e-01 9.576271474361419678e-02 -1.311542000621557236e-02 -3.709916174411773682e-01
2.396000000000000000e+03 2.826768493652343750e+01 2.013193607330322266e+00 -3.816628456115722656e-02 9.059013128280639648e-01 2.603205144405364990e-01 3.273791074752807617e-01
2.397000000000000000e+03 2.822612762451171875e+01 4.167997360229492188e+00 -5.298271309584379196e-03 8.361579179763793945e-01 2.492578923702239990e-01 3.393042981624603271e-01
2.398000000000000000e+03 7.151608276367187500e+01 6.979138374328613281e+00 -1.996083110570907593e-01 7.867672920227050781e+00 2.300419330596923828e+00 -7.641949653625488281e-01
2.399000000000000000e+03 7.154972839355468750e+01 -5.709919452667236328e+00 -1.205150038003921509e-01 8.264285087585449219e+00 2.443130970001220703e+00 -3.432318270206451416e-01
2.400000000000000000e+03 7.165316009521484375e+01 -8.444362640380859375e+00 -1.072201579809188843e-01 8.323786735534667969e+00 2.464969873428344727e+00 -2.805382013320922852e-01
2.401000000000000000e+03 2.740004158020019531e+01 -2.099592590332031250e+01 -3.012412972748279572e-02 1.189733982086181641e+00 3.478829562664031982e-01 7.433331757783889771e-02
2.402000000000000000e+03 1.221072769165039062e+01 3.289706420898437500e+01 5.592699744738638401e-04 6.236286135390400887e-04 3.548695822246372700e-04 -7.134500192478299141e-04
2.403000000000000000e+03 1.119697093963623047e+01 3.335429382324218750e+01 -2.016291022300720215e-03 2.202202740591019392e-04 -5.388212739489972591e-04 -1.525378756923601031e-04
2.404000000000000000e+03 5.765116882324218750e+01 3.857649230957031250e+01 1.753856837749481201e-01 1.132336330413818359e+01 3.449624538421630859e+00 8.422745466232299805e-01
2.405000000000000000e+03 2.794587135314941406e+01 -1.485632807016372681e-01 -3.175713121891021729e-02 8.973771333694458008e-01 2.596859931945800781e-01 2.961324751377105713e-01
2.406000000000000000e+03 2.591498184204101562e+01 -2.233427619934082031e+01 -2.187376283109188080e-02 9.094415903091430664e-01 2.662703394889831543e-01 6.242348626255989075e-02
2.407000000000000000e+03 6.471989631652832031e+00 3.665206527709960938e+01 6.060936721041798592e-04 6.503565236926078796e-04 3.769350296352058649e-04 1.149530871771275997e-03
2.408000000000000000e+03 9.832111358642578125e+00 3.340897750854492188e+01 1.731777330860495567e-03 -2.001271786866709590e-04 4.594950587488710880e-04 7.162813562899827957e-04
2.409000000000000000e+03 7.136113739013671875e+01 -1.557434558868408203e+01 -6.606256216764450073e-02 8.390706062316894531e+00 2.497392892837524414e+00 -1.644398719072341919e-01
2.410000000000000000e+03 2.633526802062988281e+01 -2.879046440124511719e+01 -3.543283417820930481e-02 1.044774293899536133e+00 3.028024137020111084e-01 3.490049764513969421e-02
2.411000000000000000e+03 2.434016799926757812e+01 -3.178864860534667969e+01 -1.275430154055356979e-02 7.494202852249145508e-01 2.209998071193695068e-01 1.863553654402494431e-03
2.412000000000000000e+03 6.978511810302734375e+01 -3.056339836120605469e+01 -3.657577931880950928e-02 8.208273887634277344e+00 2.451509475708007812e+00 -2.830114960670471191e-02
2.413000000000000000e+03 8.822104454040527344e+00 3.003769493103027344e+01 -5.731009296141564846e-04 4.460288037080317736e-04 -3.812164140981622040e-05 -8.765421225689351559e-04
2.414000000000000000e+03 1.006670379638671875e+01 -1.197978401184082031e+01 5.689550889655947685e-04 3.016362607013434172e-04 2.611773961689323187e-04 -5.752438446506857872e-04
2.415000000000000000e+03 2.725695800781250000e+01 -1.366402339935302734e+01 -4.073661193251609802e-02 1.082731366157531738e+00 3.125984072685241699e-01 1.393968760967254639e-01
2.416000000000000000e+03 8.884634971618652344e+00 2.068399429321289062e+01 -7.875664596213027835e-05 -9.003694140119478106e-05 -5.063807475380599499e-05 3.413576223465497606e-06
2.417000000000000000e+03 6.669016361236572266e+00 2.781098556518554688e+01 -3.104529168922454119e-04 8.971500210464000702e-05 -6.622137152589857578e-05 -3.236487100366503000e-04
2.418000000000000000e+03 7.023727416992187500e+00 2.650575828552246094e+01 6.763390847481787205e-04 5.010160966776311398e-04 3.532065602485090494e-04 6.278546788962557912e-05
2.419000000000000000e+03 7.155958557128906250e+01 -3.003569221496582031e+01 -1.815256290137767792e-02 8.478262901306152344e+00 2.538033008575439453e+00 -3.615174442529678345e-02
2.420000000000000000e+03 5.411370468139648438e+01 3.060755348205566406e+01 4.403753757476806641e+00 1.162844467163085938e+01 4.809659481048583984e+00 -5.601252913475036621e-01
2.421000000000000000e+03 8.659305572509765625e+00 1.669280815124511719e+01 2.791633887682110071e-04 -5.219355443841777742e-05 6.809095793869346380e-05 -2.099638659274205565e-04
2.422000000000000000e+03 8.921774864196777344e+00 2.261439704895019531e+01 2.249383542221039534e-04 -2.605991612654179335e-04 -1.069823974830796942e-05 -2.260058972751721740e-04
2.423000000000000000e+03 4.707402420043945312e+01 2.992855644226074219e+01 3.922146558761596680e+00 4.751454830169677734e+00 2.602080345153808594e+00 5.206477642059326172e+00
2.424000000000000000e+03 4.430018997192382812e+01 2.915709304809570312e+01 2.079684495925903320e+00 1.261710762977600098e+00 1.002418518066406250e+00 1.946175336837768555e+00
2.425000000000000000e+03 4.623176574707031250e+01 2.943907928466796875e+01 3.259320735931396484e+00 3.277653694152832031e+00 1.961092352867126465e+00 3.924100399017333984e+00
2.426000000000000000e+03 4.786983108520507812e+01 2.828694152832031250e+01 1.770527720451354980e+00 9.138537406921386719e+00 3.272719383239746094e+00 4.929956912994384766e+00
2.427000000000000000e+03 4.748777008056640625e+01 2.852752113342285156e+01 2.265258073806762695e+00 7.795031070709228516e+00 3.018086910247802734e+00 5.077838420867919922e+00
2.428000000000000000e+03 4.869227600097656250e+01 2.720458221435546875e+01 7.085164189338684082e-01 1.052789020538330078e+01 3.370921850204467773e+00 3.638427257537841797e+00
2.429000000000000000e+03 4.895150375366210938e+01 2.854602813720703125e+01 1.120773434638977051e+00 1.243385410308837891e+01 4.066388130187988281e+00 4.040920257568359375e+00
2.430000000000000000e+03 4.305145645141601562e+01 2.810423660278320312e+01 1.781047582626342773e+00 1.314491629600524902e+00 9.286617636680603027e-01 1.639023900032043457e+00
2.431000000000000000e+03 4.468530654907226562e+01 2.862216186523437500e+01 2.365020513534545898e+00 2.008571147918701172e+00 1.312077522277832031e+00 2.551933526992797852e+00
2.432000000000000000e+03 4.942339324951171875e+01 2.778217506408691406e+01 5.814177393913269043e-01 1.257934570312500000e+01 3.948229074478149414e+00 3.041330099105834961e+00
2.433000000000000000e+03 4.299449539184570312e+01 2.752542304992675781e+01 1.812325954437255859e+00 1.619239330291748047e+00 1.029469609260559082e+00 1.790691256523132324e+00
2.434000000000000000e+03 4.240015792846679688e+01 2.808379936218261719e+01 1.554379940032958984e+00 1.075401544570922852e+00 7.889344692230224609e-01 1.312600255012512207e+00
2.435000000000000000e+03 3.012036514282226562e+01 2.946325492858886719e+01 -1.394564509391784668e-01 7.100592553615570068e-02 -2.053515799343585968e-02 -3.755312263965606689e-01
2.436000000000000000e+03 3.151995849609375000e+01 2.871316909790039062e+01 -4.824538901448249817e-02 1.277275532484054565e-01 2.384465187788009644e-02 -3.590792417526245117e-01
2.437000000000000000e+03 2.942703819274902344e+01 2.951959037780761719e+01 -1.369585543870925903e-01 4.768947139382362366e-02 -2.678072452545166016e-02 -3.742720782756805420e-01
2.438000000000000000e+03 3.097378158569335938e+01 2.719740486145019531e+01 1.173354685306549072e-01 1.368615627288818359e-01 7.625910639762878418e-02 -3.334123790264129639e-01
2.439000000000000000e+03 3.345556640625000000e+01 2.858572006225585938e+01 2.163111791014671326e-02 1.910431683063507080e-01 6.380228698253631592e-02 -3.031025230884552002e-01
2.440000000000000000e+03 3.008738899230957031e+01 2.794599723815917969e+01 1.767933741211891174e-02 8.031415194272994995e-02 2.939804643392562866e-02 -3.702208697795867920e-01
2.441000000000000000e+03 2.878003120422363281e+01 2.958823585510253906e+01 -1.323148906230926514e-01 2.511055022478103638e-02 -3.216130286455154419e-02 -3.709550797939300537e-01
2.442000000000000000e+03 2.743684387207031250e+01 2.830376052856445312e+01 -3.126262128353118896e-02 -5.008459463715553284e-02 -2.440416440367698669e-02 -3.675579130649566650e-01
2.443000000000000000e+03 2.934355926513671875e+01 2.878404045104980469e+01 -6.644523143768310547e-02 4.233940690755844116e-02 -7.231747265905141830e-03 -3.797645866870880127e-01
2.444000000000000000e+03 7.927192687988281250e+00 -8.046720504760742188e+00 2.615576959215104580e-04 -1.559821394039317966e-04 3.167267277603968978e-05 7.367216312559321523e-05
2.445000000000000000e+03 8.272568702697753906e+00 -6.553379058837890625e+00 4.813545092474669218e-04 1.973227626876905560e-04 2.036031801253557205e-04 1.776731514837592840e-04
2.446000000000000000e+03 3.946367263793945312e+01 2.817608451843261719e+01 7.304413318634033203e-01 5.053183436393737793e-01 3.707278966903686523e-01 3.574371039867401123e-01
2.447000000000000000e+03 3.791693115234375000e+01 2.833566284179687500e+01 4.247985780239105225e-01 3.717683851718902588e-01 2.389700859785079956e-01 7.294765859842300415e-02
2.448000000000000000e+03 3.472100067138671875e+01 2.816229820251464844e+01 1.632859706878662109e-01 2.509177625179290771e-01 1.242611184716224670e-01 -2.165225297212600708e-01
2.449000000000000000e+03 3.407394790649414062e+01 2.838386344909667969e+01 8.622289448976516724e-02 2.282803058624267578e-01 9.435096383094787598e-02 -2.634398043155670166e-01
2.450000000000000000e+03 3.542639541625976562e+01 2.799460411071777344e+01 2.414243817329406738e-01 2.931809425354003906e-01 1.603816002607345581e-01 -1.556699275970458984e-01
2.451000000000000000e+03 3.773781585693359375e+01 2.768505859375000000e+01 5.744380950927734375e-01 4.452174901962280273e-01 3.058966696262359619e-01 1.374941468238830566e-01
2.452000000000000000e+03 4.158966064453125000e+01 2.746529960632324219e+01 1.425835132598876953e+00 1.086699128150939941e+00 7.537602782249450684e-01 1.154713630676269531e+00
2.453000000000000000e+03 9.752295494079589844e+00 6.572507858276367188e+00 -2.107525069732218981e-04 -1.481889485148712993e-04 -1.076824410120025277e-04 -1.295483380090445280e-04
2.454000000000000000e+03 5.233459854125976562e+01 2.779233551025390625e+01 1.324702858924865723e+00 1.283356094360351562e+01 4.247478961944580078e+00 -3.921876549720764160e-01
2.455000000000000000e+03 3.851963424682617188e+01 2.759895896911621094e+01 7.148472666740417480e-01 5.298191905021667480e-01 3.733999431133270264e-01 2.808350026607513428e-01
2.456000000000000000e+03 3.930054092407226562e+01 2.753095054626464844e+01 8.739950656890869141e-01 6.195495128631591797e-01 4.480633735656738281e-01 4.521621465682983398e-01
2.457000000000000000e+03 2.739370536804199219e+01 2.714747428894042969e+01 3.235007449984550476e-02 -6.728985905647277832e-02 -1.048193592578172684e-02 -3.589153885841369629e-01
2.458000000000000000e+03 4.084460067749023438e+01 2.746373558044433594e+01 1.232849597930908203e+00 8.892582654953002930e-01 6.366323828697204590e-01 8.879448175430297852e-01
2.459000000000000000e+03 7.168589019775390625e+01 -1.649763822555541992e+00 -1.463199853897094727e-01 8.177225112915039062e+00 2.409271478652954102e+00 -4.501995146274566650e-01
2.460000000000000000e+03 7.026889038085937500e+01 -4.370279788970947266e+00 -1.698544919490814209e-01 8.092765808105468750e+00 2.376873254776000977e+00 -4.024544656276702881e-01
2.461000000000000000e+03 4.556642532348632812e+01 3.942056274414062500e+01 3.598123192787170410e-01 4.814340114593505859e+00 1.552245736122131348e+00 -1.217238306999206543e+00
2.462000000000000000e+03 7.052822113037109375e+01 7.594760060310363770e-01 -2.087859064340591431e-01 8.015027046203613281e+00 2.341872215270996094e+00 -5.659490823745727539e-01
2.463000000000000000e+03 7.178090667724609375e+01 3.638604879379272461e+00 -1.828576177358627319e-01 8.014994621276855469e+00 2.349641084671020508e+00 -6.277732849121093750e-01
2.464000000000000000e+03 7.933332443237304688e+00 9.764981269836425781e+00 -2.772811858449131250e-04 -1.888997649075463414e-04 -1.398542808601632714e-04 3.764193752431310713e-05
2.465000000000000000e+03 8.974219322204589844e+00 1.003800868988037109e+01 3.248435386922210455e-04 1.744466280797496438e-04 1.497870398452505469e-04 9.460398723604157567e-05
2.466000000000000000e+03 7.158559417724609375e+01 -7.087211608886718750e+00 -1.126954481005668640e-01 8.293941497802734375e+00 2.454373836517333984e+00 -3.115005195140838623e-01
2.467000000000000000e+03 6.826127529144287109e+00 8.078058242797851562e+00 -5.323991354089230299e-05 -4.521809387370012701e-05 -2.953740295197349042e-05 -1.016558235278353095e-04
2.468000000000000000e+03 8.184214591979980469e+00 7.969349384307861328e+00 -3.975307045038789511e-04 -2.433980080240871757e-05 -1.265611499547958374e-04 -1.512608869234099984e-04
2.469000000000000000e+03 8.384786605834960938e+00 -1.620760345458984375e+01 -1.006500911898910999e-03 -3.552073903847485781e-04 -4.085125110577791929e-04 3.491097013466060162e-04
2.470000000000000000e+03 1.042612838745117188e+01 -7.979275226593017578e+00 2.681839105207473040e-04 -5.397023633122444153e-04 -8.145553874783217907e-05 1.107529169530607760e-05
2.471000000000000000e+03 9.680152893066406250e+00 -1.028140163421630859e+01 -5.836556738358922303e-05 3.711793106049299240e-04 9.384412260260432959e-05 -1.207781388075090945e-04
2.472000000000000000e+03 1.097297573089599609e+01 -8.660546302795410156e+00 -1.460217172279953957e-04 4.521465452853590250e-04 9.183745714835822582e-05 4.121668825973756611e-05
2.473000000000000000e+03 2.877202796936035156e+01 1.755712509155273438e+01 2.546793818473815918e-01 3.243106901645660400e-01 1.736970096826553345e-01 1.095951572060585022e-01
2.474000000000000000e+03 2.910566520690917969e+01 2.196043968200683594e+01 2.969232201576232910e-01 1.632882505655288696e-01 1.380634456872940063e-01 -1.130735427141189575e-01
2.475000000000000000e+03 8.988038063049316406e+00 6.447887897491455078e+00 2.465698053129017353e-04 1.049120401148684323e-04 1.054445456247776747e-04 3.204345193807967007e-05
2.476000000000000000e+03 7.377884864807128906e+00 7.090045928955078125e+00 -1.517575874458998442e-04 -1.415454462403431535e-04 -8.799090574029833078e-05 -3.539403769536875188e-05
2.477000000000000000e+03 3.085824775695800781e+01 2.796911239624023438e+01 3.087361343204975128e-02 1.169765815138816833e-01 4.435505717992782593e-02 -3.584005236625671387e-01
2.478000000000000000e+03 7.113535308837890625e+01 2.747958660125732422e+00 -1.997889429330825806e-01 8.010142326354980469e+00 2.343105792999267578e+00 -6.144604086875915527e-01
2.479000000000000000e+03 7.034890747070312500e+01 -1.677529215812683105e+00 -1.825189590454101562e-01 8.055815696716308594e+00 2.361989021301269531e+00 -4.823300242424011230e-01
2.480000000000000000e+03 7.049037170410156250e+01 -9.860149383544921875e+00 -1.195149645209312439e-01 8.198048591613769531e+00 2.423559904098510742e+00 -2.706517279148101807e-01
2.481000000000000000e+03 7.031778717041015625e+01 -1.117179584503173828e+01 -1.118191331624984741e-01 8.193817138671875000e+00 2.424599409103393555e+00 -2.469351887702941895e-01
2.482000000000000000e+03 6.972584533691406250e+01 -2.398298072814941406e+01 -4.724726080894470215e-02 8.208510398864746094e+00 2.448379039764404297e+00 -7.881499826908111572e-02
2.483000000000000000e+03 6.860491180419921875e+01 -2.894346237182617188e+01 -3.256337717175483704e-02 8.049525260925292969e+00 2.405088424682617188e+00 -4.113617539405822754e-02
2.484000000000000000e+03 2.833399963378906250e+01 1.074891853332519531e+01 9.279139339923858643e-02 5.833445787429809570e-01 2.028407901525497437e-01 3.019846379756927490e-01
2.485000000000000000e+03 2.842019271850585938e+01 1.484240055084228516e+01 1.843780130147933960e-01 3.978896141052246094e-01 1.746802926063537598e-01 2.035875916481018066e-01
2.486000000000000000e+03 7.950331211090087891e+00 -7.301472187042236328e+00 -4.437134484760463238e-04 -2.208220103057101369e-04 -1.993606420001015067e-04 -2.735681482590734959e-04
2.487000000000000000e+03 6.946499347686767578e+00 -9.141010284423828125e+00 4.551851598080247641e-04 2.104517479892820120e-04 1.996910723391920328e-04 7.290361099876463413e-05
2.488000000000000000e+03 7.015004730224609375e+01 2.600851249694824219e+01 2.959335446357727051e-01 6.982819557189941406e+00 2.183625936508178711e+00 -1.093104600906372070e+00
2.489000000000000000e+03 7.122714233398437500e+01 2.251728057861328125e+01 1.025631576776504517e-01 6.975348472595214844e+00 2.123373508453369141e+00 -1.148998498916625977e+00
2.490000000000000000e+03 7.039811706542968750e+01 1.812596702575683594e+01 -8.340415358543395996e-02 7.386308670043945312e+00 2.190871477127075195e+00 -1.205505251884460449e+00
2.491000000000000000e+03 7.143180847167968750e+01 -1.260210800170898438e+01 -8.258529752492904663e-02 8.364793777465820312e+00 2.484662532806396484e+00 -2.083293199539184570e-01
2.492000000000000000e+03 2.909164047241210938e+01 -4.626336574554443359e+00 -5.521702393889427185e-02 1.271680235862731934e+00 3.649389743804931641e-01 2.728567123413085938e-01
2.493000000000000000e+03 2.910850524902343750e+01 2.421410679817199707e-01 -4.161127284169197083e-02 1.136553287506103516e+00 3.284825980663299561e-01 3.312588036060333252e-01
2.494000000000000000e+03 3.066032409667968750e+01 1.165676784515380859e+01 1.485811918973922729e-01 1.030626893043518066e+00 3.537624180316925049e-01 4.084654152393341064e-01
2.495000000000000000e+03 2.837679481506347656e+01 8.033324241638183594e+00 3.772122412919998169e-02 7.173131704330444336e-01 2.265103161334991455e-01 3.366529643535614014e-01
2.496000000000000000e+03 2.950535583496093750e+01 1.056250095367431641e+01 1.039036810398101807e-01 8.464903235435485840e-01 2.851181924343109131e-01 3.632409274578094482e-01
2.497000000000000000e+03 7.709135532379150391e+00 -2.170466423034667969e+01 -1.171761832665652037e-04 -6.110040121711790562e-04 -2.184540644520893693e-04 1.009890809655189514e-03
2.498000000000000000e+03 9.029222488403320312e+00 -9.480936050415039062e+00 -1.347430770692881197e-05 -3.290727036073803902e-04 -1.027641046675853431e-04 1.276920083910226822e-04
2.499000000000000000e+03 7.787505149841308594e+00 -1.079061126708984375e+01 -3.183205553796142340e-04 -6.340514519251883030e-04 -2.857116051018238068e-04 5.876468494534492493e-04
2.500000000000000000e+03 8.039195060729980469e+00 1.413231086730957031e+01 4.049503331771120429e-05 3.536860458552837372e-05 2.275909173476975411e-05 3.661943192128092051e-04
2.501000000000000000e+03 2.962913131713867188e+01 1.450678730010986328e+01 2.181737571954727173e-01 6.511588692665100098e-01 2.607997655868530273e-01 2.805273234844207764e-01
2.502000000000000000e+03 2.874565505981445312e+01 -7.317697525024414062e+00 -5.831473693251609802e-02 1.243328452110290527e+00 3.555040955543518066e-01 2.318237423896789551e-01
2.503000000000000000e+03 6.494526863098144531e+00 2.056896972656250000e+01 5.630163941532373428e-04 7.419342728098854423e-05 1.911629369715228677e-04 -1.464642118662595749e-04
2.504000000000000000e+03 8.184019088745117188e+00 1.795170974731445312e+01 4.247385368216782808e-04 2.847278083208948374e-04 2.128399064531549811e-04 -6.552631930389907211e-06
2.505000000000000000e+03 9.031659126281738281e+00 -2.246490287780761719e+01 1.706722192466259003e-03 3.466293273959308863e-04 6.160054472275078297e-04 -9.649229468777775764e-04
2.506000000000000000e+03 8.247400283813476562e+00 -1.835251426696777344e+01 -6.286118878051638603e-04 -8.732802816666662693e-04 -4.505676333792507648e-04 2.641729661263525486e-04
2.507000000000000000e+03 7.638669013977050781e+00 -1.996257209777832031e+01 2.898717939388006926e-04 -5.782428197562694550e-04 -8.651131065562367439e-05 3.938706358894705772e-04
2.508000000000000000e+03 6.818689823150634766e+00 -2.048624420166015625e+01 -7.702976581640541553e-04 3.102515620412304997e-05 -2.217817527707666159e-04 -4.817599838133901358e-04
2.509000000000000000e+03 7.283509826660156250e+01 1.446404457092285156e+01 -1.128180623054504395e-01 7.400827407836914062e+00 2.186402797698974609e+00 -9.567412137985229492e-01
2.510000000000000000e+03 7.154333496093750000e+01 1.186984729766845703e+01 -1.807416677474975586e-01 7.636650085449218750e+00 2.236772537231445312e+00 -9.574738144874572754e-01
2.511000000000000000e+03 2.892823982238769531e+01 -5.950995445251464844e+00 -4.781262576580047607e-02 1.265046238899230957e+00 3.651700913906097412e-01 2.500576078891754150e-01
2.512000000000000000e+03 8.171708106994628906e+00 -1.377985095977783203e+01 4.640981205739080906e-04 5.588753847405314445e-04 3.068920632358640432e-04 -2.826835552696138620e-04
2.513000000000000000e+03 7.104050159454345703e+00 2.246856307983398438e+01 7.499604253098368645e-04 -1.824744540499523282e-04 1.702457957435399294e-04 -2.007464645430445671e-04
2.514000000000000000e+03 8.086490631103515625e+00 2.169417190551757812e+01 -1.628123136470094323e-04 9.602586942492052913e-05 -2.003593544941395521e-05 1.463888038415461779e-04
2.515000000000000000e+03 7.175394439697265625e+01 8.023943901062011719e-01 -1.590158343315124512e-01 8.112192153930664062e+00 2.385952949523925781e+00 -5.250656008720397949e-01
2.516000000000000000e+03 8.881558418273925781e+00 -2.616456222534179688e+01 1.031890977174043655e-03 1.948370831087231636e-03 8.940785191953182220e-04 -4.973161267116665840e-04
2.517000000000000000e+03 5.610233688354492188e+01 2.990594482421875000e+01 3.031718492507934570e+00 1.049741744995117188e+01 4.058740615844726562e+00 -7.587232589721679688e-01
2.518000000000000000e+03 8.151183128356933594e+00 8.841189384460449219e+00 3.688802826218307018e-04 8.762150537222623825e-05 1.369505334878340364e-04 9.973299165721982718e-05
2.519000000000000000e+03 3.081568908691406250e+01 2.870816612243652344e+01 -5.571984499692916870e-02 1.008242964744567871e-01 1.353133562952280045e-02 -3.714822828769683838e-01
2.520000000000000000e+03 9.870509147644042969e+00 3.196667671203613281e+01 -1.604304648935794830e-03 5.842781392857432365e-04 -3.060079761780798435e-04 -6.832877406850457191e-04
2.521000000000000000e+03 7.094441986083984375e+01 8.578479766845703125e+00 -2.246290594339370728e-01 7.800555229187011719e+00 2.272777795791625977e+00 -8.515545129776000977e-01
2.522000000000000000e+03 2.904837989807128906e+01 -2.110179901123046875e+01 -3.765251487493515015e-02 1.465191364288330078e+00 4.282616674900054932e-01 8.937805145978927612e-02
2.523000000000000000e+03 4.973896026611328125e+01 4.006695938110351562e+01 -1.294152021408081055e+00 1.078536415100097656e+01 2.847363471984863281e+00 -5.380629301071166992e-01
2.524000000000000000e+03 3.086596107482910156e+01 -2.324451637268066406e+01 -4.084469005465507507e-02 1.753517031669616699e+00 5.138016939163208008e-01 8.553805947303771973e-02
2.525000000000000000e+03 6.827683258056640625e+01 -2.088074874877929688e+01 -8.777452260255813599e-02 7.949655532836914062e+00 2.358564376831054688e+00 -1.193383336067199707e-01
2.526000000000000000e+03 7.045555877685546875e+01 -1.964550590515136719e+01 -6.759984046220779419e-02 8.281619071960449219e+00 2.464205741882324219e+00 -1.263529658317565918e-01
2.527000000000000000e+03 1.005526065826416016e+01 -1.314326572418212891e+01 -6.948637310415506363e-04 -1.838090684032067657e-04 -2.636018325574696064e-04 3.979966277256608009e-04
2.528000000000000000e+03 9.003067970275878906e+00 -1.192058086395263672e+01 -6.856403779238462448e-04 6.265077536227181554e-05 -1.868968683993443847e-04 3.443108289502561092e-04
2.529000000000000000e+03 2.962742424011230469e+01 6.542450904846191406e+00 2.155713923275470734e-02 1.055726885795593262e+00 3.231852054595947266e-01 3.966733217239379883e-01
2.530000000000000000e+03 7.010859680175781250e+01 1.949089050292968750e+01 -2.815188094973564148e-02 7.342453956604003906e+00 2.194290637969970703e+00 -1.241545081138610840e+00
2.531000000000000000e+03 2.882085418701171875e+01 -1.347835922241210938e+01 -5.098831281065940857e-02 1.350686669349670410e+00 3.899095058441162109e-01 1.558136045932769775e-01
2.532000000000000000e+03 2.703845214843750000e+01 -1.098708438873291016e+01 -3.344754502177238464e-02 1.002933382987976074e+00 2.908457517623901367e-01 1.504871547222137451e-01
2.533000000000000000e+03 7.027008819580078125e+01 2.171574211120605469e+01 7.345367223024368286e-02 7.208201408386230469e+00 2.184496402740478516e+00 -1.229279518127441406e+00
2.534000000000000000e+03 7.788396358489990234e+00 2.352622222900390625e+01 -8.972787763923406601e-04 1.995704078581184149e-04 -2.093125076498836279e-04 2.780820068437606096e-04
2.535000000000000000e+03 1.119634628295898438e+01 -2.694479560852050781e+01 1.172750024124979973e-03 2.296824939548969269e-03 1.040872535668313503e-03 -5.950520862825214863e-04
2.536000000000000000e+03 1.048807907104492188e+01 -3.426502609252929688e+01 7.694974076002836227e-03 1.379622844979166985e-03 2.722379053011536598e-03 3.476901911199092865e-04
2.537000000000000000e+03 2.764758300781250000e+01 2.480520820617675781e+01 1.453902274370193481e-01 -5.453923717141151428e-02 2.725529856979846954e-02 -2.961695194244384766e-01
2.538000000000000000e+03 2.956634140014648438e+01 9.226732254028320312e+00 7.641885429620742798e-02 9.276536107063293457e-01 3.012217283248901367e-01 3.797070384025573730e-01
2.539000000000000000e+03 2.747094917297363281e+01 2.597183609008789062e+01 9.202983975410461426e-02 -6.925865262746810913e-02 6.831355392932891846e-03 -3.323331177234649658e-01
2.540000000000000000e+03 6.994779205322265625e+01 -2.123817634582519531e+01 -6.385961920022964478e-02 8.217970848083496094e+00 2.446233272552490234e+00 -1.080930680036544800e-01
2.541000000000000000e+03 2.819249343872070312e+01 3.044716596603393555e+00 -2.326479740440845490e-02 8.784060478210449219e-01 2.565423846244812012e-01 3.297004401683807373e-01
2.542000000000000000e+03 2.938173103332519531e+01 3.990097045898437500e+00 -1.767217740416526794e-02 1.118002533912658691e+00 3.300990760326385498e-01 3.744736909866333008e-01
2.543000000000000000e+03 2.954292869567871094e+01 1.320282745361328125e+01 1.744137257337570190e-01 7.097864151000976562e-01 2.652600407600402832e-01 3.132736384868621826e-01
2.544000000000000000e+03 7.432605266571044922e+00 -1.168453598022460938e+01 5.070628831163048744e-04 4.681905265897512436e-04 2.925760345533490181e-04 -4.111889866180717945e-04
2.545000000000000000e+03 8.112738609313964844e+00 -1.221942996978759766e+01 5.518633988685905933e-04 -5.461187683977186680e-04 1.723373770801117644e-06 -4.553440667223185301e-04
2.546000000000000000e+03 7.048124694824218750e+01 1.680497932434082031e+01 -1.290133297443389893e-01 7.454010009765625000e+00 2.197499036788940430e+00 -1.171774268150329590e+00
2.547000000000000000e+03 7.135731506347656250e+01 1.306496429443359375e+01 -1.709678918123245239e-01 7.572327613830566406e+00 2.220407962799072266e+00 -1.009645223617553711e+00
2.548000000000000000e+03 7.088171386718750000e+01 1.413456058502197266e+01 -1.696836203336715698e-01 7.537517547607421875e+00 2.210350275039672852e+00 -1.061172604560852051e+00
2.549000000000000000e+03 6.947844696044921875e+01 -1.744983291625976562e+01 -7.968466728925704956e-02 8.138649940490722656e+00 2.417689561843872070e+00 -1.556511968374252319e-01
2.550000000000000000e+03 2.886121940612792969e+01 -1.494593906402587891e+01 -5.379293113946914673e-02 1.376347899436950684e+00 3.967665135860443115e-01 1.496199965476989746e-01
2.551000000000000000e+03 6.852024078369140625e+01 -3.189861488342285156e+01 -2.408892288804054260e-02 8.011073112487792969e+00 2.396095275878906250e+00 -2.399415895342826843e-02
2.552000000000000000e+03 8.359261512756347656e+00 3.505608749389648438e+01 1.525520114228129387e-03 4.195973815512843430e-05 4.702439473476260900e-04 1.045885728672146797e-03
2.553000000000000000e+03 7.291667175292968750e+01 2.855473518371582031e+01 2.371721416711807251e-01 6.241312026977539062e+00 1.943545341491699219e+00 -7.903401255607604980e-01
2.554000000000000000e+03 7.039012908935546875e+01 2.809233283996582031e+01 3.639219701290130615e-01 6.836130619049072266e+00 2.160015821456909180e+00 -9.441915750503540039e-01
2.555000000000000000e+03 7.035810089111328125e+01 7.593082904815673828e+00 -2.497897893190383911e-01 7.834018230438232422e+00 2.275268554687500000e+00 -8.308918476104736328e-01
2.556000000000000000e+03 7.135164642333984375e+01 9.607365608215332031e+00 -2.053230851888656616e-01 7.754983901977539062e+00 2.264898300170898438e+00 -8.786205649375915527e-01
2.557000000000000000e+03 7.016761779785156250e+01 -5.843404769897460938e+00 -1.551749706268310547e-01 8.103590965270996094e+00 2.384524583816528320e+00 -3.632186949253082275e-01
2.558000000000000000e+03 7.007266235351562500e+01 -2.752062416076660156e+01 -2.815333008766174316e-02 8.250928878784179688e+00 2.466832876205444336e+00 -4.430286958813667297e-02
2.559000000000000000e+03 6.895785522460937500e+01 -2.615214538574218750e+01 -4.829266667366027832e-02 8.081160545349121094e+00 2.409860372543334961e+00 -6.276400387287139893e-02
2.560000000000000000e+03 7.109491729736328125e+01 -2.621859550476074219e+01 -2.163675986230373383e-02 8.423125267028808594e+00 2.520446538925170898e+00 -4.923416301608085632e-02
2.561000000000000000e+03 2.921683120727539062e+01 1.962467312812805176e+00 -3.824168443679809570e-02 1.111770868301391602e+00 3.220587670803070068e-01 3.463695943355560303e-01
2.562000000000000000e+03 3.088498687744140625e+01 1.926521110534667969e+01 4.016143977642059326e-01 5.733571648597717285e-01 2.924914658069610596e-01 1.509845405817031860e-01
2.563000000000000000e+03 3.055916213989257812e+01 2.091208267211914062e+01 3.790273964405059814e-01 3.997755348682403564e-01 2.336408793926239014e-01 2.527600340545177460e-02
2.564000000000000000e+03 2.727713584899902344e+01 -2.977097892761230469e+01 -3.270473331212997437e-03 1.281952977180480957e+00 3.836047351360321045e-01 6.383907794952392578e-02
2.565000000000000000e+03 7.256655120849609375e+01 -3.414891433715820312e+01 -2.003279142081737518e-02 8.679119110107421875e+00 2.597725868225097656e+00 -4.102986678481101990e-02
2.566000000000000000e+03 6.974605560302734375e+01 2.975983428955078125e+01 4.864169359207153320e-01 6.913774013519287109e+00 2.220057249069213867e+00 -8.497158885002136230e-01
2.567000000000000000e+03 6.918849945068359375e+01 2.507312202453613281e+01 2.961353659629821777e-01 7.203763008117675781e+00 2.249969482421875000e+00 -1.183438777923583984e+00
2.568000000000000000e+03 8.960213661193847656e+00 1.328104305267333984e+01 2.861698021661140956e-06 3.239839134039357305e-05 1.057802728610113263e-05 -2.512967912480235100e-04
2.569000000000000000e+03 4.710050964355468750e+01 2.866469001770019531e+01 2.657826900482177734e+00 6.519260883331298828e+00 2.753126382827758789e+00 4.984463214874267578e+00
2.570000000000000000e+03 4.603692245483398438e+01 2.974389266967773438e+01 3.202367067337036133e+00 2.450923681259155273e+00 1.695987224578857422e+00 3.443121671676635742e+00
2.571000000000000000e+03 4.627883529663085938e+01 2.866478157043457031e+01 2.853008508682250977e+00 4.302207946777343750e+00 2.146564960479736328e+00 4.178688049316406250e+00
2.572000000000000000e+03 4.514508819580078125e+01 2.850617027282714844e+01 2.546052217483520508e+00 2.648058414459228516e+00 1.558233261108398438e+00 3.040995121002197266e+00
2.573000000000000000e+03 4.756021881103515625e+01 2.794098854064941406e+01 1.804789304733276367e+00 8.209896087646484375e+00 3.004405498504638672e+00 4.645701885223388672e+00
2.574000000000000000e+03 4.762245559692382812e+01 2.753234481811523438e+01 1.483895063400268555e+00 8.270075798034667969e+00 2.926191329956054688e+00 4.377670764923095703e+00
2.575000000000000000e+03 4.231035995483398438e+01 2.748695182800292969e+01 1.621506333351135254e+00 1.308408379554748535e+00 8.789744377136230469e-01 1.458775043487548828e+00
2.576000000000000000e+03 4.931115341186523438e+01 2.698202896118164062e+01 3.848429620265960693e-01 1.132339477539062500e+01 3.512471437454223633e+00 2.954647302627563477e+00
2.577000000000000000e+03 4.453286361694335938e+01 2.817790603637695312e+01 2.303361177444458008e+00 2.318846225738525391e+00 1.386662125587463379e+00 2.637339830398559570e+00
2.578000000000000000e+03 4.420901489257812500e+01 2.867568588256835938e+01 2.145087957382202148e+00 1.599830746650695801e+00 1.123475670814514160e+00 2.136243820190429688e+00
2.579000000000000000e+03 3.283432769775390625e+01 2.869700050354003906e+01 -1.910419203341007233e-02 1.710870414972305298e-01 4.559485614299774170e-02 -3.257194757461547852e-01
2.580000000000000000e+03 3.197643470764160156e+01 2.660610771179199219e+01 2.275363057851791382e-01 2.117439806461334229e-01 1.317840814590454102e-01 -2.706209719181060791e-01
2.581000000000000000e+03 4.292414855957031250e+01 2.692022132873535156e+01 1.786995053291320801e+00 1.869070410728454590e+00 1.096819639205932617e+00 1.895617246627807617e+00
2.582000000000000000e+03 3.008733367919921875e+01 2.872224426269531250e+01 -5.971985682845115662e-02 7.510248571634292603e-02 4.614789504557847977e-03 -3.768114149570465088e-01
2.583000000000000000e+03 2.845467758178710938e+01 2.603738975524902344e+01 1.177538707852363586e-01 3.836494404822587967e-03 3.647711127996444702e-02 -3.341295421123504639e-01
2.584000000000000000e+03 3.618338775634765625e+01 2.788224411010742188e+01 3.384758830070495605e-01 3.367292881011962891e-01 2.025615572929382324e-01 -7.507520914077758789e-02
2.585000000000000000e+03 3.677706527709960938e+01 2.712170600891113281e+01 5.676848292350769043e-01 4.503884017467498779e-01 3.054219782352447510e-01 7.610993832349777222e-02
2.586000000000000000e+03 3.600532913208007812e+01 2.720445251464843750e+01 4.662702977657318115e-01 4.049628674983978271e-01 2.613699436187744141e-01 -1.725753396749496460e-02
2.587000000000000000e+03 3.442271423339843750e+01 2.742774772644042969e+01 2.780739963054656982e-01 2.955499887466430664e-01 1.720871925354003906e-01 -1.799581646919250488e-01
2.588000000000000000e+03 3.519350051879882812e+01 2.724273300170898438e+01 3.684505224227905273e-01 3.435626029968261719e-01 2.136039435863494873e-01 -1.094241514801979065e-01
2.589000000000000000e+03 5.003571319580078125e+01 2.772389030456542969e+01 4.584971070289611816e-01 1.311471652984619141e+01 4.071963787078857422e+00 2.222332715988159180e+00
2.590000000000000000e+03 5.068138885498046875e+01 2.843271446228027344e+01 9.938515424728393555e-01 1.459257125854492188e+01 4.675926685333251953e+00 9.520564079284667969e-01
2.591000000000000000e+03 4.008008956909179688e+01 2.748538589477539062e+01 1.048825979232788086e+00 7.462531924247741699e-01 5.385237336158752441e-01 6.539284586906433105e-01
2.592000000000000000e+03 4.148217773437500000e+01 2.683315658569335938e+01 1.471360087394714355e+00 1.291398644447326660e+00 8.288276195526123047e-01 1.268819928169250488e+00
2.593000000000000000e+03 5.069805145263671875e+01 2.770854377746582031e+01 5.134187340736389160e-01 1.350709056854248047e+01 4.206152915954589844e+00 1.231402516365051270e+00
2.594000000000000000e+03 5.147601318359375000e+01 2.698980522155761719e+01 4.738297462463378906e-01 1.274273681640625000e+01 3.964970111846923828e+00 5.592111945152282715e-01
2.595000000000000000e+03 4.071564865112304688e+01 2.681797790527343750e+01 1.305125951766967773e+00 1.082208037376403809e+00 7.162002325057983398e-01 9.986721277236938477e-01
2.596000000000000000e+03 3.833080673217773438e+01 2.693759727478027344e+01 8.218382000923156738e-01 6.301406025886535645e-01 4.355936646461486816e-01 3.586919009685516357e-01
2.597000000000000000e+03 3.912628555297851562e+01 2.687118721008300781e+01 9.736554026603698730e-01 7.528588771820068359e-01 5.179542899131774902e-01 5.383957028388977051e-01
2.598000000000000000e+03 2.890384101867675781e+01 2.393227195739746094e+01 2.387551069259643555e-01 9.019061923027038574e-02 9.868372231721878052e-02 -2.288641035556793213e-01
2.599000000000000000e+03 7.013567924499511719e+00 -8.129925727844238281e+00 -5.126480828039348125e-04 -9.707978460937738419e-05 -1.829183602239936590e-04 2.348425823583966121e-06
2.600000000000000000e+03 6.893734455108642578e+00 9.362173080444335938e+00 3.926809004042297602e-04 4.262007860234007239e-05 1.305902987951412797e-04 4.457953764358535409e-06
2.601000000000000000e+03 6.909673309326171875e+01 3.862649440765380859e+00 -2.824361026287078857e-01 7.884849071502685547e+00 2.280723810195922852e+00 -7.017143964767456055e-01
2.602000000000000000e+03 6.902436828613281250e+01 -4.373144626617431641e+00 -2.034566849470138550e-01 7.969759464263916016e+00 2.329890727996826172e+00 -4.225266575813293457e-01
2.603000000000000000e+03 7.025630950927734375e+01 -7.285679340362548828e+00 -1.426149010658264160e-01 8.132942199707031250e+00 2.397098302841186523e+00 -3.281171023845672607e-01
2.604000000000000000e+03 9.805530548095703125e+00 -7.340646743774414062e+00 -2.811661033774726093e-05 5.251216352917253971e-04 1.491014991188421845e-04 -2.017587830778211355e-04
2.605000000000000000e+03 6.960073089599609375e+01 1.090363407135009766e+01 -2.678681910037994385e-01 7.743978977203369141e+00 2.242833137512207031e+00 -1.003875732421875000e+00
2.606000000000000000e+03 8.320813179016113281e+00 -1.304196739196777344e+01 -6.510385428555309772e-04 -2.727911851252429187e-05 -2.034953067777678370e-04 5.234688287600874901e-04
2.607000000000000000e+03 6.946820068359375000e+01 -9.858458518981933594e+00 -1.398904472589492798e-01 8.070137977600097656e+00 2.379074335098266602e+00 -2.825744152069091797e-01
2.608000000000000000e+03 6.873960113525390625e+01 -1.235930919647216797e+01 -1.302717179059982300e-01 7.989496231079101562e+00 2.357767343521118164e+00 -2.355916053056716919e-01
2.609000000000000000e+03 8.148265838623046875e+00 7.098679542541503906e+00 3.116560983471572399e-04 5.864604463567957282e-05 1.110906378016807139e-04 6.990558904362842441e-05
2.610000000000000000e+03 2.926564979553222656e+01 2.798369598388671875e+01 3.095604246482253075e-03 4.351557418704032898e-02 1.398335304111242294e-02 -3.762786090373992920e-01
2.611000000000000000e+03 3.198837089538574219e+01 1.863656425476074219e+01 4.421724379062652588e-01 8.071880936622619629e-01 3.748081624507904053e-01 2.725271284580230713e-01
2.612000000000000000e+03 3.002279853820800781e+01 1.705254936218261719e+01 3.045800626277923584e-01 5.777639746665954590e-01 2.647032141685485840e-01 2.043553143739700317e-01
2.613000000000000000e+03 5.533278656005859375e+01 2.875425529479980469e+01 2.502213716506958008e+00 1.095837306976318359e+01 4.038176059722900391e+00 -1.077250480651855469e+00
2.614000000000000000e+03 5.324561309814453125e+01 2.796321678161621094e+01 1.680411100387573242e+00 1.232384777069091797e+01 4.201277732849121094e+00 -8.093432188034057617e-01
2.615000000000000000e+03 3.084228324890136719e+01 -3.332915544509887695e+00 -8.082091808319091797e-02 1.581189513206481934e+00 4.501105844974517822e-01 3.258595764636993408e-01
2.616000000000000000e+03 6.895403289794921875e+01 -1.916339492797851562e+01 -8.183093369007110596e-02 8.056113243103027344e+00 2.392284631729125977e+00 -1.359703391790390015e-01
2.617000000000000000e+03 6.543144226074218750e+00 6.455948829650878906e+00 -8.092079951893538237e-06 -2.245995565317571163e-04 -6.980749458307400346e-05 7.065664249239489436e-05
2.618000000000000000e+03 3.072836303710937500e+01 1.290270614624023438e+01 1.961046606302261353e-01 9.684843420982360840e-01 3.493767082691192627e-01 3.883516192436218262e-01
2.619000000000000000e+03 2.977959823608398438e+01 1.579928588867187500e+01 2.585709095001220703e-01 6.077417731285095215e-01 2.598938047885894775e-01 2.418723553419113159e-01
2.620000000000000000e+03 3.121672630310058594e+01 1.656011772155761719e+01 3.414275348186492920e-01 8.341627717018127441e-01 3.526770770549774170e-01 3.058649003505706787e-01
2.621000000000000000e+03 6.905810546875000000e+01 1.900587654113769531e+01 -5.516386404633522034e-02 7.517439842224121094e+00 2.238682746887207031e+00 -1.292008996009826660e+00
2.622000000000000000e+03 6.929281616210937500e+01 1.799434089660644531e+01 -1.065919399261474609e-01 7.518522262573242188e+00 2.223578929901123047e+00 -1.263327717781066895e+00
2.623000000000000000e+03 3.063897705078125000e+01 1.041068744659423828e+01 1.157828941941261292e-01 1.096608877182006836e+00 3.637175559997558594e-01 4.218789339065551758e-01
2.624000000000000000e+03 6.855116271972656250e+01 7.270995140075683594e+00 -3.261904120445251465e-01 7.822346687316894531e+00 2.248846769332885742e+00 -8.536654710769653320e-01
2.625000000000000000e+03 6.912657928466796875e+01 1.678590583801269531e+01 -1.579880267381668091e-01 7.587960720062255859e+00 2.228991746902465820e+00 -1.237297415733337402e+00
2.626000000000000000e+03 6.823654937744140625e+01 -2.455071640014648438e+01 -5.947676673531532288e-02 7.970730304718017578e+00 2.373375892639160156e+00 -7.847089320421218872e-02
2.627000000000000000e+03 6.791889953613281250e+01 -2.272374343872070312e+01 -7.053678482770919800e-02 7.913413524627685547e+00 2.352863073348999023e+00 -1.027387008070945740e-01
2.628000000000000000e+03 6.818605041503906250e+01 2.405602455139160156e+01 2.690235376358032227e-01 7.427494525909423828e+00 2.308955430984497070e+00 -1.275071263313293457e+00
2.629000000000000000e+03 6.832101440429687500e+01 2.189312744140625000e+01 1.141250729560852051e-01 7.501096725463867188e+00 2.284566640853881836e+00 -1.322411060333251953e+00
2.630000000000000000e+03 7.048166656494140625e+01 -8.590784072875976562e+00 -1.268972158432006836e-01 8.179039001464843750e+00 2.415642499923706055e+00 -2.970592975616455078e-01
2.631000000000000000e+03 3.049660110473632812e+01 -1.323135089874267578e+01 -6.930492073297500610e-02 1.675464153289794922e+00 4.818477630615234375e-01 1.791069358587265015e-01
2.632000000000000000e+03 6.988317108154296875e+01 -1.405397987365722656e+01 -9.802031517028808594e-02 8.166522026062011719e+00 2.420550346374511719e+00 -2.008930891752243042e-01
2.633000000000000000e+03 7.133634948730468750e+01 -1.405341911315917969e+01 -7.847785204648971558e-02 8.366384506225585938e+00 2.486371994018554688e+00 -1.874916106462478638e-01
2.634000000000000000e+03 7.874845981597900391e+00 -2.790344619750976562e+01 7.097829366102814674e-04 1.208675443194806576e-03 5.755375022999942303e-04 -1.146902723121456802e-04
2.635000000000000000e+03 8.270690917968750000e+00 -2.903200531005859375e+01 -3.564936341717839241e-04 -2.058463869616389275e-03 -7.244872394949197769e-04 -4.926053225062787533e-04
2.636000000000000000e+03 3.060149002075195312e+01 -4.711299419403076172e+00 -7.684467732906341553e-02 1.572875380516052246e+00 4.488092064857482910e-01 3.046513795852661133e-01
2.637000000000000000e+03 6.936499023437500000e+01 2.076856040954589844e+01 3.376716002821922302e-02 7.384914875030517578e+00 2.225604772567749023e+00 -1.283614873886108398e+00
2.638000000000000000e+03 3.013930511474609375e+01 -1.644132804870605469e+01 -6.546890735626220703e-02 1.634263515472412109e+00 4.706383943557739258e-01 1.418927013874053955e-01
2.639000000000000000e+03 2.880391311645507812e+01 -1.788947486877441406e+01 -4.270886257290840149e-02 1.421287417411804199e+00 4.135735630989074707e-01 1.095019504427909851e-01
2.640000000000000000e+03 6.986404418945312500e+01 9.057792663574218750e+00 -2.703951895236968994e-01 7.790805339813232422e+00 2.256123065948486328e+00 -9.094122052192687988e-01
2.641000000000000000e+03 6.926409149169921875e+01 8.187310218811035156e+00 -2.955382466316223145e-01 7.810861110687255859e+00 2.254596948623657227e+00 -8.844425082206726074e-01
2.642000000000000000e+03 6.975682067871093750e+01 1.390720748901367188e+01 -2.171286642551422119e-01 7.645418643951416016e+00 2.228487014770507812e+00 -1.120624303817749023e+00
2.643000000000000000e+03 7.004756927490234375e+01 1.283643341064453125e+01 -2.301675379276275635e-01 7.671278953552246094e+00 2.232333421707153320e+00 -1.074241280555725098e+00
2.644000000000000000e+03 3.082549667358398438e+01 1.415267276763916016e+01 2.422724813222885132e-01 9.198693037033081055e-01 3.486425280570983887e-01 3.602278232574462891e-01
2.645000000000000000e+03 3.086617851257324219e+01 5.134025096893310547e+00 -1.628854312002658844e-02 1.373238563537597656e+00 4.070850014686584473e-01 4.255113303661346436e-01
2.646000000000000000e+03 3.091278076171875000e+01 6.412100791931152344e+00 1.650320179760456085e-02 1.341917514801025391e+00 4.075261950492858887e-01 4.418879747390747070e-01
2.647000000000000000e+03 1.232937526702880859e+01 -3.257710266113281250e+01 5.423936992883682251e-03 2.294198609888553619e-03 2.315440680831670761e-03 -3.661896334961056709e-03
2.648000000000000000e+03 6.566477298736572266e+00 -3.136447143554687500e+01 4.342030268162488937e-03 -5.198739236220717430e-04 1.146646798588335514e-03 -5.280037876218557358e-04
2.649000000000000000e+03 8.838738441467285156e+00 -3.183601570129394531e+01 1.485013752244412899e-03 -3.578788309823721647e-04 3.381404676474630833e-04 3.445770125836133957e-03
2.650000000000000000e+03 7.099833679199218750e+01 3.453906631469726562e+01 4.310177266597747803e-01 6.552758693695068359e+00 2.095132827758789062e+00 -4.150401055812835693e-01
2.651000000000000000e+03 6.906871795654296875e+01 3.178629875183105469e+01 5.917273163795471191e-01 7.015563964843750000e+00 2.282187461853027344e+00 -6.540983319282531738e-01
2.652000000000000000e+03 3.022312545776367188e+01 2.190622138977050781e+01 3.587206900119781494e-01 2.978405058383941650e-01 1.969683617353439331e-01 -6.307842582464218140e-02
2.653000000000000000e+03 6.920584106445312500e+01 2.737228584289550781e+01 4.279186129570007324e-01 7.106358051300048828e+00 2.260282993316650391e+00 -1.047313451766967773e+00
2.654000000000000000e+03 6.808078765869140625e+01 2.641477012634277344e+01 4.459367990493774414e-01 7.350449562072753906e+00 2.338915824890136719e+00 -1.158423066139221191e+00
2.655000000000000000e+03 3.125532913208007812e+01 2.169659614562988281e+01 4.375126659870147705e-01 4.465176165103912354e-01 2.652090787887573242e-01 2.130823396146297455e-02
2.656000000000000000e+03 7.129393768310546875e+01 3.015067672729492188e+01 3.813303112983703613e-01 6.546980857849121094e+00 2.078493356704711914e+00 -7.535672187805175781e-01
2.657000000000000000e+03 6.826817321777343750e+01 2.897472763061523438e+01 5.586552023887634277e-01 7.237054824829101562e+00 2.338713169097900391e+00 -9.544711112976074219e-01
2.658000000000000000e+03 6.154697895050048828e+00 -2.986765289306640625e+01 -2.764252480119466782e-03 -3.456620106589980423e-05 -8.396456250920891762e-04 3.750194155145436525e-04
2.659000000000000000e+03 2.515579986572265625e+01 -2.971172142028808594e+01 -9.078707545995712280e-03 8.870943784713745117e-01 2.634046971797943115e-01 2.384985331445932388e-03
2.660000000000000000e+03 3.513287734985351562e+01 -3.553068542480468750e+01 -4.718636348843574524e-02 2.510966777801513672e+00 7.391340732574462891e-01 1.969233341515064240e-02
2.661000000000000000e+03 7.064315795898437500e+01 1.842493176460266113e+00 -2.075152546167373657e-01 8.003224372863769531e+00 2.338712692260742188e+00 -5.963716506958007812e-01
2.662000000000000000e+03 4.700513839721679688e+01 2.832431221008300781e+01 2.430777788162231445e+00 6.339494228363037109e+00 2.631081581115722656e+00 4.681801319122314453e+00
2.663000000000000000e+03 4.533452224731445312e+01 2.782940101623535156e+01 2.365382432937622070e+00 3.399111986160278320e+00 1.729348301887512207e+00 3.312893152236938477e+00
2.664000000000000000e+03 4.633294296264648438e+01 2.825907135009765625e+01 2.535060882568359375e+00 4.887617111206054688e+00 2.226803541183471680e+00 4.169781208038330078e+00
2.665000000000000000e+03 4.365933990478515625e+01 2.759289169311523438e+01 2.005100965499877930e+00 1.973034501075744629e+00 1.193440675735473633e+00 2.179343938827514648e+00
2.666000000000000000e+03 4.720827484130859375e+01 2.767716217041015625e+01 1.842773556709289551e+00 7.089131832122802734e+00 2.679571628570556641e+00 4.423758983612060547e+00
2.667000000000000000e+03 4.221985244750976562e+01 2.686942863464355469e+01 1.635551214218139648e+00 1.572580814361572266e+00 9.624395966529846191e-01 1.574693560600280762e+00
2.668000000000000000e+03 5.185244369506835938e+01 2.554948997497558594e+01 -2.716090995818376541e-03 1.147834396362304688e+01 3.442688465118408203e+00 5.891436934471130371e-01
2.669000000000000000e+03 4.490761184692382812e+01 2.801298522949218750e+01 2.367931604385375977e+00 2.746866703033447266e+00 1.534439444541931152e+00 2.941989183425903320e+00
2.670000000000000000e+03 3.379527664184570312e+01 2.778011894226074219e+01 1.710595041513442993e-01 2.406812459230422974e-01 1.235222220420837402e-01 -2.485221773386001587e-01
2.671000000000000000e+03 3.223352432250976562e+01 2.810342979431152344e+01 4.965772852301597595e-02 1.673860847949981689e-01 6.511314958333969116e-02 -3.277606666088104248e-01
2.672000000000000000e+03 3.015788459777832031e+01 2.711463928222656250e+01 9.750904887914657593e-02 9.908124059438705444e-02 5.897708609700202942e-02 -3.476817607879638672e-01
2.673000000000000000e+03 3.031642150878906250e+01 2.623594093322753906e+01 1.770671755075454712e-01 1.256006062030792236e-01 9.080033004283905029e-02 -3.088493943214416504e-01
2.674000000000000000e+03 2.864664268493652344e+01 2.497469520568847656e+01 1.787357628345489502e-01 3.756495937705039978e-02 6.489022076129913330e-02 -2.887054383754730225e-01
2.675000000000000000e+03 2.835715484619140625e+01 2.709993171691894531e+01 5.236719548702239990e-02 -6.633402779698371887e-03 1.372013799846172333e-02 -3.616547584533691406e-01
2.676000000000000000e+03 3.733533477783203125e+01 2.634859466552734375e+01 7.647275328636169434e-01 6.339242458343505859e-01 4.195955395698547363e-01 2.713964581489562988e-01
2.677000000000000000e+03 3.811936569213867188e+01 2.625387573242187500e+01 8.934751152992248535e-01 7.379302978515625000e-01 4.894216358661651611e-01 4.224364459514617920e-01
2.678000000000000000e+03 3.658726501464843750e+01 2.644996643066406250e+01 6.380234360694885254e-01 5.277841091156005859e-01 3.497422635555267334e-01 1.264973282814025879e-01
2.679000000000000000e+03 3.588420104980468750e+01 2.655461502075195312e+01 5.533866882324218750e-01 4.463874995708465576e-01 2.999322712421417236e-01 4.165355488657951355e-02
2.680000000000000000e+03 4.283415985107421875e+01 2.627407073974609375e+01 1.736302256584167480e+00 2.165951013565063477e+00 1.170675992965698242e+00 1.984025835990905762e+00
2.681000000000000000e+03 5.145055007934570312e+01 2.772529411315917969e+01 8.701857328414916992e-01 1.338875484466552734e+01 4.277682304382324219e+00 2.981725335121154785e-01
2.682000000000000000e+03 3.992737960815429688e+01 2.683083152770996094e+01 1.134619116783142090e+00 8.959848880767822266e-01 6.091812252998352051e-01 7.530869245529174805e-01
2.683000000000000000e+03 4.058772659301757812e+01 2.615119171142578125e+01 1.334171056747436523e+00 1.258138775825500488e+00 7.776929736137390137e-01 1.086141824722290039e+00
2.684000000000000000e+03 3.977380371093750000e+01 2.616139030456542969e+01 1.188289046287536621e+00 1.059285521507263184e+00 6.742723584175109863e-01 8.447013497352600098e-01
2.685000000000000000e+03 5.312271499633789062e+01 2.647941017150878906e+01 6.927404999732971191e-01 1.179227447509765625e+01 3.745504379272460938e+00 -3.930895030498504639e-01
2.686000000000000000e+03 5.379587173461914062e+01 2.582053184509277344e+01 5.095170736312866211e-01 1.121874904632568359e+01 3.518479824066162109e+00 -5.222330093383789062e-01
2.687000000000000000e+03 5.231433868408203125e+01 2.688928413391113281e+01 6.787801384925842285e-01 1.230602550506591797e+01 3.895441770553588867e+00 -8.009184896945953369e-02
2.688000000000000000e+03 6.943363952636718750e+01 1.024449729919433594e+01 -2.823904156684875488e-01 7.766207695007324219e+00 2.245145320892333984e+00 -9.755598306655883789e-01
2.689000000000000000e+03 6.892131042480468750e+01 9.597131729125976562e+00 -3.094632923603057861e-01 7.788860321044921875e+00 2.243818998336791992e+00 -9.562531113624572754e-01
2.690000000000000000e+03 5.713066864013671875e+01 3.132102584838867188e+01 2.934407472610473633e+00 1.011053562164306641e+01 3.913482904434204102e+00 -2.089750617742538452e-01
2.691000000000000000e+03 2.989764022827148438e+01 2.413065338134765625e+01 2.865882515907287598e-01 1.626489013433456421e-01 1.347711533308029175e-01 -2.050779014825820923e-01
2.692000000000000000e+03 6.866719055175781250e+01 -9.539215087890625000e+00 -1.559729576110839844e-01 7.957596302032470703e+00 2.340487003326416016e+00 -2.925085127353668213e-01
2.693000000000000000e+03 6.803702545166015625e+01 -1.061702251434326172e+01 -1.661330759525299072e-01 7.876598358154296875e+00 2.313139677047729492e+00 -2.737344205379486084e-01
2.694000000000000000e+03 3.328783416748046875e+01 2.807341003417968750e+01 9.838741272687911987e-02 2.089049071073532104e-01 9.218769520521163940e-02 -2.844661176204681396e-01
2.695000000000000000e+03 3.126553153991699219e+01 2.341273689270019531e+01 3.874754607677459717e-01 3.314933776855468750e-01 2.156906425952911377e-01 -9.826152026653289795e-02
2.696000000000000000e+03 9.125561714172363281e+00 8.894035339355468750e+00 -3.705582348629832268e-04 -1.054542008205316961e-04 -1.428037357982248068e-04 -4.889543197350576520e-05
2.697000000000000000e+03 6.834095001220703125e+01 1.829587554931640625e+01 -1.102803722023963928e-01 7.644253253936767578e+00 2.260191917419433594e+00 -1.300849795341491699e+00
2.698000000000000000e+03 7.001526641845703125e+01 1.493783760070800781e+01 -1.839199960231781006e-01 7.568748950958251953e+00 2.215448617935180664e+00 -1.145379304885864258e+00
2.699000000000000000e+03 3.265837097167968750e+01 1.713929176330566406e+01 4.211015403270721436e-01 1.068149685859680176e+00 4.467753767967224121e-01 4.000258743762969971e-01
2.700000000000000000e+03 3.304747009277343750e+01 1.809593772888183594e+01 4.774576425552368164e-01 1.057422518730163574e+00 4.604640603065490723e-01 3.980310261249542236e-01
2.701000000000000000e+03 2.928240203857421875e+01 2.707972717285156250e+01 7.321099191904067993e-02 4.820651933550834656e-02 3.642525151371955872e-02 -3.584139645099639893e-01
2.702000000000000000e+03 6.886304473876953125e+01 5.604188442230224609e+00 -3.030177652835845947e-01 7.850042819976806641e+00 2.264107465744018555e+00 -7.761370539665222168e-01
2.703000000000000000e+03 6.901074218750000000e+01 -3.036970615386962891e+00 -2.155947387218475342e-01 7.950354099273681641e+00 2.320427656173706055e+00 -4.588527679443359375e-01
2.704000000000000000e+03 3.097916030883789062e+01 1.538452816009521484e+01 2.909185588359832764e-01 8.710265159606933594e-01 3.485835194587707520e-01 3.340783119201660156e-01
2.705000000000000000e+03 3.235420227050781250e+01 1.611133003234863281e+01 3.671129047870635986e-01 1.097475767135620117e+00 4.393766224384307861e-01 4.121564030647277832e-01
2.706000000000000000e+03 3.183286476135253906e+01 1.138089656829833984e+01 1.538274884223937988e-01 1.289270758628845215e+00 4.329294562339782715e-01 4.727301597595214844e-01
2.707000000000000000e+03 3.191738700866699219e+01 1.259017467498779297e+01 2.066507488489151001e-01 1.257074475288391113e+00 4.391175508499145508e-01 4.607175290584564209e-01
2.708000000000000000e+03 6.947687530517578125e+01 2.089543581008911133e+00 -2.512555718421936035e-01 7.926793098449707031e+00 2.302661180496215820e+00 -6.254838705062866211e-01
2.709000000000000000e+03 3.075072860717773438e+01 9.144528388977050781e+00 8.262255042791366577e-02 1.195830345153808594e+00 3.835358917713165283e-01 4.418956339359283447e-01
2.710000000000000000e+03 3.169953536987304688e+01 1.028308200836181641e+01 1.226670742034912109e-01 1.327236533164978027e+00 4.349710941314697266e-01 4.807099699974060059e-01
2.711000000000000000e+03 3.151340103149414062e+01 2.017730140686035156e+01 4.390280842781066895e-01 5.944012999534606934e-01 3.100288212299346924e-01 1.446700841188430786e-01
2.712000000000000000e+03 6.928008270263671875e+01 2.286560058593750000e+01 1.570661514997482300e-01 7.310100078582763672e+00 2.240149974822998047e+00 -1.264631986618041992e+00
2.713000000000000000e+03 6.186414337158203125e+01 -1.962698936462402344e+01 -1.534525305032730103e-01 6.986596584320068359e+00 2.049943208694458008e+00 -1.214583218097686768e-01
2.714000000000000000e+03 6.364285278320312500e+01 -2.159031867980957031e+01 -1.189238876104354858e-01 7.224404335021972656e+00 2.131644010543823242e+00 -1.178133115172386169e-01
2.715000000000000000e+03 3.044488716125488281e+01 -6.025749683380126953e+00 -7.239037752151489258e-02 1.563657164573669434e+00 4.473800361156463623e-01 2.725054621696472168e-01
2.716000000000000000e+03 9.086196899414062500e+00 -2.864004898071289062e+01 1.335444743745028973e-03 2.202716190367937088e-03 1.061448245309293270e-03 6.268134893616661429e-05
2.717000000000000000e+03 6.834027099609375000e+01 1.995094490051269531e+01 -2.083731442689895630e-02 7.577180385589599609e+00 2.266902923583984375e+00 -1.320762395858764648e+00
2.718000000000000000e+03 3.251646804809570312e+01 1.955835533142089844e+01 4.968145787715911865e-01 8.158454895019531250e-01 3.937979936599731445e-01 2.712898552417755127e-01
2.719000000000000000e+03 3.128980636596679688e+01 3.746347904205322266e+00 -3.104145266115665436e-02 1.498764753341674805e+00 4.403169751167297363e-01 4.355583786964416504e-01
2.720000000000000000e+03 2.920873641967773438e+01 3.012960910797119141e+00 -3.387238457798957825e-02 1.091109991073608398e+00 3.171713054180145264e-01 3.551121950149536133e-01
2.721000000000000000e+03 6.511629486083984375e+01 2.282380676269531250e+01 2.431339472532272339e-01 8.047234535217285156e+00 2.487110614776611328e+00 -1.414927482604980469e+00
2.722000000000000000e+03 6.721658325195312500e+01 2.298155975341796875e+01 2.195508480072021484e-01 7.651751995086669922e+00 2.361390829086303711e+00 -1.356004357337951660e+00
2.723000000000000000e+03 3.019439315795898438e+01 2.305969619750976562e+01 3.360249996185302734e-01 2.332451194524765015e-01 1.707810312509536743e-01 -1.356584280729293823e-01
2.724000000000000000e+03 3.312030029296875000e+01 2.624932861328125000e+01 3.379175662994384766e-01 3.042690157890319824e-01 1.926559656858444214e-01 -1.818735152482986450e-01
2.725000000000000000e+03 6.927727508544921875e+01 8.359117507934570312e-01 -2.562639117240905762e-01 7.929448604583740234e+00 2.301955461502075195e+00 -5.862655043601989746e-01
2.726000000000000000e+03 6.894331359863281250e+01 -1.656192183494567871e+00 -2.309107184410095215e-01 7.932886600494384766e+00 2.310592889785766602e+00 -5.042765140533447266e-01
2.727000000000000000e+03 3.097631454467773438e+01 7.765850543975830078e+00 3.493041917681694031e-02 1.307698845863342285e+00 4.027887880802154541e-01 4.482286572456359863e-01
2.728000000000000000e+03 3.193021011352539062e+01 5.713713169097900391e+00 -8.005225099623203278e-03 1.598806738853454590e+00 4.772404730319976807e-01 4.755459725856781006e-01
2.729000000000000000e+03 3.199869346618652344e+01 1.381213665008544922e+01 2.582766711711883545e-01 1.195036649703979492e+00 4.359939992427825928e-01 4.479590952396392822e-01
2.730000000000000000e+03 3.213591384887695312e+01 1.499749660491943359e+01 3.121156990528106689e-01 1.138452649116516113e+00 4.351705312728881836e-01 4.278081357479095459e-01
2.731000000000000000e+03 3.231533813476562500e+01 8.021877288818359375e+00 3.880625218152999878e-02 1.577047705650329590e+00 4.847562015056610107e-01 4.985667169094085693e-01
2.732000000000000000e+03 3.209933853149414062e+01 -1.559791469573974609e+01 -8.219781517982482910e-02 1.947821974754333496e+00 5.596872568130493164e-01 1.622724533081054688e-01
2.733000000000000000e+03 3.014917755126953125e+01 3.241862773895263672e+00 -3.295675292611122131e-02 1.282321214675903320e+00 3.748093247413635254e-01 3.952712714672088623e-01
2.734000000000000000e+03 6.956825256347656250e+01 -2.270609664916992188e+01 -4.890373349189758301e-02 8.181674003601074219e+00 2.439831256866455078e+00 -9.205558151006698608e-02
2.735000000000000000e+03 6.693716430664062500e+01 2.787204360961914062e+01 6.293656826019287109e-01 7.544502735137939453e+00 2.452160596847534180e+00 -1.081743597984313965e+00
2.736000000000000000e+03 2.792444610595703125e+01 -2.481646156311035156e+01 -3.442263603210449219e-02 1.293418288230895996e+00 3.776986896991729736e-01 6.820138543844223022e-02
2.737000000000000000e+03 2.878513908386230469e+01 -2.293571281433105469e+01 -3.420992940664291382e-02 1.432610154151916504e+00 4.195200800895690918e-01 8.885203301906585693e-02
2.738000000000000000e+03 4.585771560668945312e+01 2.857830047607421875e+01 2.777134418487548828e+00 3.522566795349121094e+00 1.889910340309143066e+00 3.744294404983520508e+00
2.739000000000000000e+03 4.554480361938476562e+01 2.830628013610839844e+01 2.618069171905517578e+00 3.288073301315307617e+00 1.771842718124389648e+00 3.428037643432617188e+00
2.740000000000000000e+03 4.594071197509765625e+01 2.817121505737304688e+01 2.552283287048339844e+00 4.233094692230224609e+00 2.035613298416137695e+00 3.880317687988281250e+00
2.741000000000000000e+03 4.813124465942382812e+01 2.741608428955078125e+01 1.133380174636840820e+00 9.447942733764648438e+00 3.174396991729736328e+00 4.164875984191894531e+00
2.742000000000000000e+03 4.508554458618164062e+01 2.732057952880859375e+01 2.183323383331298828e+00 3.511484146118164062e+00 1.708442211151123047e+00 3.165014743804931641e+00
2.743000000000000000e+03 5.000002288818359375e+01 2.691109085083007812e+01 2.445165961980819702e-01 1.203588962554931641e+01 3.684121847152709961e+00 2.176238536834716797e+00
2.744000000000000000e+03 4.658855056762695312e+01 2.797899055480957031e+01 2.280487775802612305e+00 5.678493976593017578e+00 2.387694358825683594e+00 4.332177162170410156e+00
2.745000000000000000e+03 4.741101455688476562e+01 2.703058624267578125e+01 1.415292501449584961e+00 7.776761531829833984e+00 2.757616043090820312e+00 4.125384330749511719e+00
2.746000000000000000e+03 4.457621765136718750e+01 2.750943374633789062e+01 2.174875974655151367e+00 2.771229982376098633e+00 1.483831763267517090e+00 2.771346330642700195e+00
2.747000000000000000e+03 4.212707138061523438e+01 2.621585464477539062e+01 1.607562065124511719e+00 1.807733058929443359e+00 1.024588584899902344e+00 1.659754514694213867e+00
2.748000000000000000e+03 4.427567672729492188e+01 2.694547271728515625e+01 2.017713308334350586e+00 2.850419998168945312e+00 1.460439920425415039e+00 2.658008813858032227e+00
2.749000000000000000e+03 3.172733879089355469e+01 2.732282257080078125e+01 1.339358687400817871e-01 1.727581471204757690e-01 9.200820326805114746e-02 -3.160696029663085938e-01
2.750000000000000000e+03 5.072073745727539062e+01 2.698150253295898438e+01 2.867009043693542480e-01 1.259519195556640625e+01 3.864567756652832031e+00 1.346116423606872559e+00
2.751000000000000000e+03 5.141971969604492188e+01 2.629943084716796875e+01 1.679528504610061646e-01 1.206894588470458984e+01 3.671069622039794922e+00 7.621319890022277832e-01
2.752000000000000000e+03 2.962108802795410156e+01 2.513568687438964844e+01 2.177572548389434814e-01 1.093470901250839233e-01 9.813130646944046021e-02 -2.723733484745025635e-01
2.753000000000000000e+03 2.940759277343750000e+01 2.611962127685546875e+01 1.474454402923583984e-01 7.147439569234848022e-02 6.567595154047012329e-02 -3.235019147396087646e-01
2.754000000000000000e+03 3.709068298339843750e+01 2.564663887023925781e+01 8.183746933937072754e-01 7.308916449546813965e-01 4.647799134254455566e-01 3.332368135452270508e-01
2.755000000000000000e+03 3.788326644897460938e+01 2.553041267395019531e+01 9.320608973503112793e-01 8.388021588325500488e-01 5.312589406967163086e-01 4.779489934444427490e-01
2.756000000000000000e+03 3.877440643310546875e+01 2.552373313903808594e+01 1.072558045387268066e+00 1.032632112503051758e+00 6.315570473670959473e-01 6.929038763046264648e-01
2.757000000000000000e+03 3.894423294067382812e+01 2.619706726074218750e+01 1.029753446578979492e+00 8.841793537139892578e-01 5.741798281669616699e-01 6.166364550590515137e-01
2.758000000000000000e+03 3.518915557861328125e+01 2.649715042114257812e+01 4.736110866069793701e-01 4.231584072113037109e-01 2.690308392047882080e-01 -4.365812242031097412e-02
2.759000000000000000e+03 3.635665130615234375e+01 2.575224494934082031e+01 6.947287917137145996e-01 6.008673310279846191e-01 3.886788487434387207e-01 1.884638667106628418e-01
2.760000000000000000e+03 3.388013839721679688e+01 2.674949455261230469e+01 3.336741626262664795e-01 3.101348280906677246e-01 1.931426972150802612e-01 -1.675546616315841675e-01
2.761000000000000000e+03 3.649054336547851562e+01 2.509883689880371094e+01 7.860721945762634277e-01 7.171796560287475586e-01 4.509755671024322510e-01 2.971518933773040771e-01
2.762000000000000000e+03 3.270991516113281250e+01 2.688367080688476562e+01 2.376201599836349487e-01 2.424262166023254395e-01 1.440139114856719971e-01 -2.522104680538177490e-01
2.763000000000000000e+03 4.841947555541992188e+01 2.651313591003417969e+01 6.481503844261169434e-01 9.575810432434082031e+00 3.067188501358032227e+00 3.509557962417602539e+00
2.764000000000000000e+03 4.275899505615234375e+01 2.558536338806152344e+01 1.619421482086181641e+00 2.440011978149414062e+00 1.217830061912536621e+00 2.022369861602783203e+00
2.765000000000000000e+03 4.137571716308593750e+01 2.617210769653320312e+01 1.475620031356811523e+00 1.524740219116210938e+00 9.001080989837646484e-01 1.365699410438537598e+00
2.766000000000000000e+03 3.216775894165039062e+01 2.104571533203125000e+01 4.963485300540924072e-01 6.208117008209228516e-01 3.351480662822723389e-01 1.397686153650283813e-01
2.767000000000000000e+03 4.046060562133789062e+01 2.546008872985839844e+01 1.325432658195495605e+00 1.455016613006591797e+00 8.341347575187683105e-01 1.162990808486938477e+00
2.768000000000000000e+03 3.962277984619140625e+01 2.548008728027343750e+01 1.200593948364257812e+00 1.197830796241760254e+00 7.195274829864501953e-01 9.109981656074523926e-01
2.769000000000000000e+03 3.223526000976562500e+01 2.392753219604492188e+01 4.541070759296417236e-01 4.040075838565826416e-01 2.574343979358673096e-01 -6.346724182367324829e-02
2.770000000000000000e+03 3.055802726745605469e+01 2.532663536071777344e+01 2.580957114696502686e-01 1.707403808832168579e-01 1.286508291959762573e-01 -2.528034150600433350e-01
2.771000000000000000e+03 6.816999053955078125e+01 1.030381011962890625e+01 -3.400518000125885010e-01 7.797233581542968750e+00 2.237154483795166016e+00 -9.991182088851928711e-01
2.772000000000000000e+03 6.733319854736328125e+01 9.632449150085449219e+00 -3.830541074275970459e-01 7.813057422637939453e+00 2.229001045227050781e+00 -9.717789292335510254e-01
2.773000000000000000e+03 6.862187957763671875e+01 1.154288387298583984e+01 -3.113876879215240479e-01 7.774487018585205078e+00 2.238929748535156250e+00 -1.053239583969116211e+00
2.774000000000000000e+03 3.472023391723632812e+01 1.629629898071289062e+01 4.397449493408203125e-01 1.598909378051757812e+00 6.115962862968444824e-01 6.227221488952636719e-01
2.775000000000000000e+03 5.376139831542968750e+01 2.719407844543457031e+01 1.249108552932739258e+00 1.176177120208740234e+01 3.903264045715332031e+00 -7.932988405227661133e-01
2.776000000000000000e+03 5.456283569335937500e+01 2.788255691528320312e+01 1.934456586837768555e+00 1.141157054901123047e+01 4.003808021545410156e+00 -1.095565557479858398e+00
2.777000000000000000e+03 6.828502655029296875e+01 2.620313405990600586e+00 -3.038658201694488525e-01 7.851824760437011719e+00 2.264387607574462891e+00 -6.597216725349426270e-01
2.778000000000000000e+03 5.445161437988281250e+01 2.517513275146484375e+01 3.704990446567535400e-01 1.082316017150878906e+01 3.358097791671752930e+00 -6.410211920738220215e-01
2.779000000000000000e+03 3.193036460876464844e+01 2.253848838806152344e+01 4.684587419033050537e-01 4.611206352710723877e-01 2.788738012313842773e-01 8.101481944322586060e-03
2.780000000000000000e+03 3.349369812011718750e+01 8.801862716674804688e+00 6.783945858478546143e-02 1.836000204086303711e+00 5.711519122123718262e-01 5.625079870223999023e-01
2.781000000000000000e+03 3.351236724853515625e+01 1.900989532470703125e+01 5.319174528121948242e-01 1.054241299629211426e+00 4.758476316928863525e-01 3.976647257804870605e-01
2.782000000000000000e+03 3.312828826904296875e+01 1.352552700042724609e+01 2.651981711387634277e-01 1.469052791595458984e+00 5.202752947807312012e-01 5.311947464942932129e-01
2.783000000000000000e+03 3.406344604492187500e+01 1.761412048339843750e+01 4.947644770145416260e-01 1.314828395843505859e+00 5.428778529167175293e-01 5.177735686302185059e-01
2.784000000000000000e+03 3.266962051391601562e+01 9.851943969726562500e+00 1.042709201574325562e-01 1.591136932373046875e+00 5.086223483085632324e-01 5.224389433860778809e-01
2.785000000000000000e+03 3.303977584838867188e+01 1.099938106536865234e+01 1.432368904352188110e-01 1.623953938484191895e+00 5.301572680473327637e-01 5.414907336235046387e-01
2.786000000000000000e+03 5.479130172729492188e+01 3.129871559143066406e+01 4.116313457489013672e+00 1.114992713928222656e+01 4.579872131347656250e+00 -9.504948556423187256e-02
2.787000000000000000e+03 6.772119903564453125e+01 -3.214805603027343750e+00 -2.464772760868072510e-01 7.838288307189941406e+00 2.277543306350708008e+00 -4.636297523975372314e-01
2.788000000000000000e+03 6.885656738281250000e+01 -5.750718593597412109e+00 -1.917100548744201660e-01 7.964475154876708984e+00 2.331829547882080078e+00 -3.782866597175598145e-01
2.789000000000000000e+03 3.173312187194824219e+01 -5.406003475189208984e+00 -9.602393954992294312e-02 1.795860290527343750e+00 5.099509358406066895e-01 3.065862059593200684e-01
2.790000000000000000e+03 3.247999191284179688e+01 -2.999414920806884766e+00 -1.037748232483863831e-01 1.901934027671813965e+00 5.394477844238281250e-01 3.517884314060211182e-01
2.791000000000000000e+03 3.021116065979003906e+01 -8.835437774658203125e+00 -7.573191821575164795e-02 1.547033548355102539e+00 4.413904845714569092e-01 2.270840704441070557e-01
2.792000000000000000e+03 3.035338401794433594e+01 -7.456976413726806641e+00 -7.353328168392181396e-02 1.560196638107299805e+00 4.459989964962005615e-01 2.535101175308227539e-01
2.793000000000000000e+03 6.913287353515625000e+01 -1.101670837402343750e+01 -1.377870440483093262e-01 8.034275054931640625e+00 2.368946552276611328e+00 -2.579184472560882568e-01
2.794000000000000000e+03 6.944675445556640625e+01 -8.876909255981445312e+00 -1.426536589860916138e-01 8.061110496520996094e+00 2.375537157058715820e+00 -3.013335168361663818e-01
2.795000000000000000e+03 6.745867156982421875e+01 1.903127670288085938e+01 -8.146320283412933350e-02 7.729010581970214844e+00 2.294264078140258789e+00 -1.342219114303588867e+00
2.796000000000000000e+03 7.305092811584472656e+00 -2.951044082641601562e+01 2.932057948783040047e-03 2.863345143850892782e-04 9.655177127569913864e-04 6.161758792586624622e-04
2.797000000000000000e+03 6.591876220703125000e+01 3.302445220947265625e+01 8.891248703002929688e-01 7.768136501312255859e+00 2.597178459167480469e+00 -5.196397304534912109e-01
2.798000000000000000e+03 2.863959884643554688e+01 1.175134062767028809e+00 -2.488392218947410583e-02 1.024093747138977051e+00 2.997629642486572266e-01 3.351439833641052246e-01
2.799000000000000000e+03 3.034260368347167969e+01 1.952806591987609863e+00 -4.504789412021636963e-02 1.346592783927917480e+00 3.904634714126586914e-01 3.924384713172912598e-01
2.800000000000000000e+03 3.261430358886718750e+01 4.368936061859130859e+00 -3.490434587001800537e-02 1.792268276214599609e+00 5.272091627120971680e-01 4.867196679115295410e-01
2.801000000000000000e+03 3.041807174682617188e+01 6.160504221916198730e-01 -5.049824714660644531e-02 1.405198454856872559e+00 4.064100682735443115e-01 3.781016170978546143e-01
2.802000000000000000e+03 3.058782196044921875e+01 -6.799918413162231445e-01 -6.359923630952835083e-02 1.490590453147888184e+00 4.280973672866821289e-01 3.624316751956939697e-01
2.803000000000000000e+03 2.834956550598144531e+01 -1.079270839691162109e+01 -4.399163275957107544e-02 1.236605882644653320e+00 3.577842712402343750e-01 1.845589578151702881e-01
2.804000000000000000e+03 3.000290679931640625e+01 -1.170588207244873047e+01 -6.448731571435928345e-02 1.563371658325195312e+00 4.496653079986572266e-01 1.936726421117782593e-01
2.805000000000000000e+03 3.323948669433593750e+01 1.466584682464599609e+01 3.238159120082855225e-01 1.407144188880920410e+00 5.192880630493164062e-01 5.217065811157226562e-01
2.806000000000000000e+03 6.859467506408691406e+00 -3.303265380859375000e+01 -1.647904980927705765e-03 -1.934239640831947327e-03 -1.074643339961767197e-03 2.270421711727976799e-03
2.807000000000000000e+03 3.208262634277343750e+01 -1.246668434143066406e+01 -8.726667612791061401e-02 1.930080890655517578e+00 5.528442859649658203e-01 2.029989361763000488e-01
2.808000000000000000e+03 3.123622512817382812e+01 -1.702895736694335938e+01 -7.312352955341339111e-02 1.817067861557006836e+00 5.231832861900329590e-01 1.456397622823715210e-01
2.809000000000000000e+03 3.015808868408203125e+01 -1.770026016235351562e+01 -5.207008123397827148e-02 1.652975201606750488e+00 4.802715182304382324e-01 1.242145523428916931e-01
2.810000000000000000e+03 6.809181976318359375e+01 -1.546209812164306641e+01 -1.179775744676589966e-01 7.914168357849121094e+00 2.338857412338256836e+00 -1.950548589229583740e-01
2.811000000000000000e+03 6.687403106689453125e+01 -2.010420989990234375e+01 -1.022201851010322571e-01 7.746518135070800781e+00 2.293289422988891602e+00 -1.329474151134490967e-01
2.812000000000000000e+03 3.465721893310546875e+01 3.773680925369262695e+00 -8.190181106328964233e-02 2.295531988143920898e+00 6.640890836715698242e-01 5.234456062316894531e-01
2.813000000000000000e+03 6.578816223144531250e+01 2.656232452392578125e+01 6.296542286872863770e-01 7.808520793914794922e+00 2.531452417373657227e+00 -1.220022201538085938e+00
2.814000000000000000e+03 3.222121047973632812e+01 -1.839373207092285156e+01 -7.567985355854034424e-02 2.004791498184204102e+00 5.787334442138671875e-01 1.419646143913269043e-01
2.815000000000000000e+03 6.806897735595703125e+01 1.302596187591552734e+01 -3.038053214550018311e-01 7.766903877258300781e+00 2.238929510116577148e+00 -1.116037964820861816e+00
2.816000000000000000e+03 6.732679748535156250e+01 -2.722950935363769531e+01 -5.246486514806747437e-02 7.839844703674316406e+00 2.336213827133178711e+00 -5.871924385428428650e-02
2.817000000000000000e+03 6.545432281494140625e+01 -2.108745765686035156e+01 -1.094563081860542297e-01 7.546010017395019531e+00 2.230966091156005859e+00 -1.278117299079895020e-01
2.818000000000000000e+03 4.362519454956054688e+01 2.698255538940429688e+01 1.938209295272827148e+00 2.322090148925781250e+00 1.278089761734008789e+00 2.286847829818725586e+00
2.819000000000000000e+03 4.790087127685546875e+01 2.679888916015625000e+01 9.919323325157165527e-01 8.752981185913085938e+00 2.923474073410034180e+00 3.820695400238037109e+00
2.820000000000000000e+03 4.464595031738281250e+01 2.627692031860351562e+01 1.830959200859069824e+00 3.627114772796630859e+00 1.637422204017639160e+00 2.892580032348632812e+00
2.821000000000000000e+03 5.012178802490234375e+01 2.613247680664062500e+01 6.652836501598358154e-02 1.135128498077392578e+01 3.425343990325927734e+00 2.018471956253051758e+00
2.822000000000000000e+03 3.441582870483398438e+01 2.608364868164062500e+01 4.544567465782165527e-01 3.876632153987884521e-01 2.526359856128692627e-01 -7.348444312810897827e-02
2.823000000000000000e+03 3.117403030395507812e+01 2.639496040344238281e+01 2.062139958143234253e-01 1.749976575374603271e-01 1.143634989857673645e-01 -2.906773686408996582e-01
2.824000000000000000e+03 4.203939437866210938e+01 2.551747322082519531e+01 1.550254940986633301e+00 2.072612047195434570e+00 1.086860060691833496e+00 1.729063630104064941e+00
2.825000000000000000e+03 4.350146865844726562e+01 2.633420372009277344e+01 1.808637619018554688e+00 2.588152885437011719e+00 1.319037079811096191e+00 2.300490379333496094e+00
2.826000000000000000e+03 5.134833908081054688e+01 2.566452789306640625e+01 -1.452358532696962357e-02 1.152639484405517578e+01 3.453561544418334961e+00 9.295178055763244629e-01
2.827000000000000000e+03 3.783987045288085938e+01 2.484943008422851562e+01 9.533245563507080078e-01 9.561146497726440430e-01 5.728317499160766602e-01 5.543482899665832520e-01
2.828000000000000000e+03 3.562500000000000000e+01 2.593530464172363281e+01 6.055061221122741699e-01 5.177411437034606934e-01 3.369741737842559814e-01 8.143474161624908447e-02
2.829000000000000000e+03 3.696652221679687500e+01 2.445707130432128906e+01 8.765680789947509766e-01 9.006123542785644531e-01 5.331541299819946289e-01 4.480346143245697021e-01
2.830000000000000000e+03 3.334044265747070312e+01 2.726429939270019531e+01 2.185614854097366333e-01 2.466879338026046753e-01 1.395748257637023926e-01 -2.405611425638198853e-01
2.831000000000000000e+03 3.863057327270507812e+01 2.487169075012207031e+01 1.069029927253723145e+00 1.142794370651245117e+00 6.635472774505615234e-01 7.423110008239746094e-01
2.832000000000000000e+03 4.272553253173828125e+01 2.483837127685546875e+01 1.499743819236755371e+00 2.745988368988037109e+00 1.273719668388366699e+00 2.054614305496215820e+00
2.833000000000000000e+03 4.127015304565429688e+01 2.547460746765136719e+01 1.444914937019348145e+00 1.737111091613769531e+00 9.546077847480773926e-01 1.436399698257446289e+00
2.834000000000000000e+03 5.076947784423828125e+01 2.629543876647949219e+01 1.039149388670921326e-01 1.196944808959960938e+01 3.622009038925170898e+00 1.356005072593688965e+00
2.835000000000000000e+03 6.824265289306640625e+01 8.847959518432617188e+00 -3.434841930866241455e-01 7.806623935699462891e+00 2.238941907882690430e+00 -9.288318753242492676e-01
2.836000000000000000e+03 5.441664505004882812e+01 2.650915908813476562e+01 9.738444685935974121e-01 1.120831680297851562e+01 3.654648303985595703e+00 -8.631959557533264160e-01
2.837000000000000000e+03 3.945245361328125000e+01 2.476778411865234375e+01 1.181525945663452148e+00 1.359081149101257324e+00 7.621821165084838867e-01 9.618589878082275391e-01
2.838000000000000000e+03 4.033262252807617188e+01 2.474312400817871094e+01 1.291110754013061523e+00 1.636597752571105957e+00 8.783125877380371094e-01 1.226942420005798340e+00
2.839000000000000000e+03 5.084556579589843750e+01 2.570253181457519531e+01 -6.974504142999649048e-02 1.139376354217529297e+01 3.397205591201782227e+00 1.317891120910644531e+00
2.840000000000000000e+03 3.087264633178710938e+01 2.439098548889160156e+01 3.300033807754516602e-01 2.286725640296936035e-01 1.676027774810791016e-01 -1.871407926082611084e-01
2.841000000000000000e+03 3.181302833557128906e+01 2.473927688598632812e+01 3.712763488292694092e-01 3.058974742889404297e-01 2.031521499156951904e-01 -1.597951501607894897e-01
2.842000000000000000e+03 3.273059082031250000e+01 2.319419670104980469e+01 5.004290342330932617e-01 4.960207641124725342e-01 2.989349663257598877e-01 2.026177570223808289e-02
2.843000000000000000e+03 3.448371887207031250e+01 1.850717353820800781e+01 5.595192909240722656e-01 1.305552363395690918e+00 5.595214962959289551e-01 5.299654603004455566e-01
2.844000000000000000e+03 3.455340957641601562e+01 2.394444465637207031e+01 6.434844732284545898e-01 6.395774483680725098e-01 3.849186003208160400e-01 1.518643647432327271e-01
2.845000000000000000e+03 3.231260299682617188e+01 2.587381744384765625e+01 3.200105428695678711e-01 2.762001752853393555e-01 1.788632273674011230e-01 -2.089627236127853394e-01
2.846000000000000000e+03 3.569741058349609375e+01 1.593903732299804688e+01 4.282662570476531982e-01 1.880392193794250488e+00 6.925975680351257324e-01 7.227776050567626953e-01
2.847000000000000000e+03 3.420116424560546875e+01 1.216764259338378906e+01 2.017699182033538818e-01 1.812790632247924805e+00 6.043681502342224121e-01 6.124982833862304688e-01
2.848000000000000000e+03 3.427050018310546875e+01 7.514957427978515625e+00 1.261815242469310760e-02 2.074776649475097656e+00 6.262184977531433105e-01 5.816592574119567871e-01
2.849000000000000000e+03 3.465275573730468750e+01 9.552828788757324219e+00 8.593495190143585205e-02 2.071796417236328125e+00 6.473194360733032227e-01 6.199467182159423828e-01
2.850000000000000000e+03 5.709946441650390625e+01 2.896296310424804688e+01 2.320716857910156250e+00 1.010852336883544922e+01 3.728771924972534180e+00 -9.490609765052795410e-01
2.851000000000000000e+03 3.428748321533203125e+01 1.440052700042724609e+01 3.243047893047332764e-01 1.671387434005737305e+00 5.987076759338378906e-01 6.072660088539123535e-01
2.852000000000000000e+03 3.447052383422851562e+01 1.538428497314453125e+01 3.810306787490844727e-01 1.631937503814697266e+00 6.038904786109924316e-01 6.147674918174743652e-01
2.853000000000000000e+03 6.964215850830078125e+01 6.610187053680419922e+00 -2.747844159603118896e-01 7.847453117370605469e+00 2.271800518035888672e+00 -8.072962164878845215e-01
2.854000000000000000e+03 5.915789413452148438e+01 2.852503967285156250e+01 1.758265495300292969e+00 9.440748214721679688e+00 3.359704256057739258e+00 -1.014945268630981445e+00
2.855000000000000000e+03 6.846424102783203125e+01 1.412629604339599609e+01 -2.655521631240844727e-01 7.733102798461914062e+00 2.240265130996704102e+00 -1.160730719566345215e+00
2.856000000000000000e+03 6.896492004394531250e+01 1.236786556243896484e+01 -2.844381332397460938e-01 7.743825912475585938e+00 2.237816333770751953e+00 -1.077479481697082520e+00
2.857000000000000000e+03 6.659177398681640625e+01 1.797427940368652344e+01 -1.763076335191726685e-01 7.870808601379394531e+00 2.308350324630737305e+00 -1.325947284698486328e+00
2.858000000000000000e+03 6.780209350585937500e+01 1.723801040649414062e+01 -1.785506010055541992e-01 7.727722167968750000e+00 2.264751434326171875e+00 -1.288279891014099121e+00
2.859000000000000000e+03 6.654979705810546875e+01 1.990003776550292969e+01 -4.646877571940422058e-02 7.837702751159667969e+00 2.337370157241821289e+00 -1.366567850112915039e+00
2.860000000000000000e+03 2.915415382385253906e+01 -9.238933563232421875e+00 -5.659997090697288513e-02 1.372771024703979492e+00 3.948513269424438477e-01 2.217250019311904907e-01
2.861000000000000000e+03 2.816144752502441406e+01 -9.616318702697753906e+00 -4.658071324229240417e-02 1.175150990486145020e+00 3.385711014270782471e-01 1.861987560987472534e-01
2.862000000000000000e+03 3.183256149291992188e+01 9.261533737182617188e+00 8.720042556524276733e-02 1.420289754867553711e+00 4.522470533847808838e-01 4.861350059509277344e-01
2.863000000000000000e+03 3.419562911987304688e+01 1.332884788513183594e+01 2.706063389778137207e-01 1.735371112823486328e+00 6.017932295799255371e-01 6.130604743957519531e-01
2.864000000000000000e+03 3.342157745361328125e+01 -1.693241310119628906e+01 -9.073922783136367798e-02 2.213980197906494141e+00 6.369723081588745117e-01 1.555081754922866821e-01
2.865000000000000000e+03 6.708727264404296875e+01 -9.944734573364257812e+00 -1.873160749673843384e-01 7.761934280395507812e+00 2.272385358810424805e+00 -2.906284630298614502e-01
2.866000000000000000e+03 6.826139831542968750e+01 -7.027232170104980469e+00 -1.870197057723999023e-01 7.910705566406250000e+00 2.317105770111083984e+00 -3.532246351242065430e-01
2.867000000000000000e+03 6.901995086669921875e+01 -7.879597663879394531e+00 -1.633737534284591675e-01 7.999868392944335938e+00 2.350948333740234375e+00 -3.284347653388977051e-01
2.868000000000000000e+03 6.752449035644531250e+01 -1.878492593765258789e+00 -2.732493579387664795e-01 7.807475090026855469e+00 2.260267734527587891e+00 -5.064026117324829102e-01
2.869000000000000000e+03 6.732742309570312500e+01 1.405494213104248047e+00 -3.289104104042053223e-01 7.791593551635742188e+00 2.238804817199707031e+00 -6.159243583679199219e-01
2.870000000000000000e+03 3.177968788146972656e+01 8.399570584297180176e-01 -7.255691289901733398e-02 1.711342930793762207e+00 4.916357994079589844e-01 4.144568443298339844e-01
2.871000000000000000e+03 6.870782470703125000e+01 1.544502830505371094e+01 -2.169130742549896240e-01 7.668057441711425781e+00 2.235343217849731445e+00 -1.204517364501953125e+00
2.872000000000000000e+03 3.174342346191406250e+01 2.258434057235717773e+00 -6.276540458202362061e-02 1.666599392890930176e+00 4.811501801013946533e-01 4.306733906269073486e-01
2.873000000000000000e+03 3.286453247070312500e+01 3.562834262847900391e-01 -9.492826461791992188e-02 1.948050618171691895e+00 5.559366941452026367e-01 4.316726326942443848e-01
2.874000000000000000e+03 6.990320587158203125e+01 4.947554111480712891e+00 -2.575818002223968506e-01 7.894523620605468750e+00 2.291082620620727539e+00 -7.286635041236877441e-01
2.875000000000000000e+03 6.805081176757812500e+01 4.538523197174072266e+00 -3.294937014579772949e-01 7.830185890197753906e+00 2.250207662582397461e+00 -7.391512989997863770e-01
2.876000000000000000e+03 3.290704727172851562e+01 -4.359245777130126953e+00 -1.142232492566108704e-01 2.033995866775512695e+00 5.759317874908447266e-01 3.414623439311981201e-01
2.877000000000000000e+03 3.276671981811523438e+01 -6.501513957977294922e+00 -1.119926571846008301e-01 2.064280033111572266e+00 5.856862068176269531e-01 3.046886622905731201e-01
2.878000000000000000e+03 3.413719177246093750e+01 -2.429283380508422852e+00 -1.383035778999328613e-01 2.302524805068969727e+00 6.492663621902465820e-01 3.952300846576690674e-01
2.879000000000000000e+03 6.770043945312500000e+01 -5.435998916625976562e+00 -2.339045107364654541e-01 7.822207450866699219e+00 2.276490926742553711e+00 -3.918893039226531982e-01
2.880000000000000000e+03 6.720764160156250000e+01 1.599920082092285156e+01 -2.537143230438232422e-01 7.806095123291015625e+00 2.265714168548583984e+00 -1.254433870315551758e+00
2.881000000000000000e+03 6.641915130615234375e+01 -1.512029743194580078e+01 -1.467322558164596558e-01 7.664494037628173828e+00 2.255328655242919922e+00 -1.974816471338272095e-01
2.882000000000000000e+03 6.754287719726562500e+01 -1.870939445495605469e+01 -9.872179478406906128e-02 7.867569446563720703e+00 2.330654144287109375e+00 -1.472421437501907349e-01
2.883000000000000000e+03 3.052787780761718750e+01 -1.494396972656250000e+01 -6.483123451471328735e-02 1.693024158477783203e+00 4.884578585624694824e-01 1.635285913944244385e-01
2.884000000000000000e+03 3.331398773193359375e+01 -1.396376419067382812e+01 -1.013340428471565247e-01 2.199281454086303711e+00 6.293842196464538574e-01 1.851336210966110229e-01
2.885000000000000000e+03 6.631710815429687500e+01 2.187512016296386719e+01 1.243172585964202881e-01 7.842782497406005859e+00 2.390130043029785156e+00 -1.388434290885925293e+00
2.886000000000000000e+03 6.353232192993164062e+01 2.617420005798339844e+01 7.716674804687500000e-01 8.359336853027343750e+00 2.739301204681396484e+00 -1.306975007057189941e+00
2.887000000000000000e+03 3.057348251342773438e+01 -9.927341461181640625e+00 -6.951636075973510742e-02 1.632894039154052734e+00 4.690133035182952881e-01 2.180599570274353027e-01
2.888000000000000000e+03 3.030119895935058594e+01 -2.559127044677734375e+01 -4.941032081842422485e-02 1.667063236236572266e+00 4.852958917617797852e-01 7.913549989461898804e-02
2.889000000000000000e+03 4.484215545654296875e+01 2.679899024963378906e+01 2.009347438812255859e+00 3.580131053924560547e+00 1.676843523979187012e+00 3.040573596954345703e+00
2.890000000000000000e+03 4.583508300781250000e+01 2.767725181579589844e+01 2.311812639236450195e+00 4.382519245147705078e+00 2.008299589157104492e+00 3.751558303833007812e+00
2.891000000000000000e+03 4.410764312744140625e+01 2.634502029418945312e+01 1.855843186378479004e+00 3.063634395599365234e+00 1.475843310356140137e+00 2.613768577575683594e+00
2.892000000000000000e+03 4.614147186279296875e+01 2.695127296447753906e+01 1.871326804161071777e+00 5.356178760528564453e+00 2.168251752853393555e+00 3.735654354095458984e+00
2.893000000000000000e+03 4.691460037231445312e+01 2.726020431518554688e+01 1.764641761779785156e+00 6.691295146942138672e+00 2.536781072616577148e+00 4.197538852691650391e+00
2.894000000000000000e+03 4.188588714599609375e+01 2.397750091552734375e+01 1.317012190818786621e+00 2.556082725524902344e+00 1.161928534507751465e+00 1.757856369018554688e+00
2.895000000000000000e+03 4.196128845214843750e+01 2.476528358459472656e+01 1.443266272544860840e+00 2.327227354049682617e+00 1.131148099899291992e+00 1.758002758026123047e+00
2.896000000000000000e+03 3.745470809936523438e+01 2.381966972351074219e+01 9.479363560676574707e-01 1.119088053703308105e+00 6.201072931289672852e-01 6.136941909790039062e-01
2.897000000000000000e+03 3.553836441040039062e+01 2.458655166625976562e+01 7.183424234390258789e-01 6.908447742462158203e-01 4.227561652660369873e-01 2.131931781768798828e-01
2.898000000000000000e+03 4.800268554687500000e+01 2.585396575927734375e+01 6.763831377029418945e-01 8.600305557250976562e+00 2.783006668090820312e+00 3.356142520904541016e+00
2.899000000000000000e+03 4.900721359252929688e+01 2.617651557922363281e+01 3.278817236423492432e-01 1.026005077362060547e+01 3.176379680633544922e+00 2.928950309753417969e+00
2.900000000000000000e+03 3.496640777587890625e+01 2.533590698242187500e+01 6.006770730018615723e-01 5.314128994941711426e-01 3.396269977092742920e-01 6.388197094202041626e-02
2.901000000000000000e+03 3.607733917236328125e+01 2.385314559936523438e+01 8.015798330307006836e-01 8.605307340621948242e-01 4.986331760883331299e-01 3.662964701652526855e-01
2.902000000000000000e+03 3.866292572021484375e+01 2.383205032348632812e+01 1.072456121444702148e+00 1.364295005798339844e+00 7.310253381729125977e-01 8.624075651168823242e-01
2.903000000000000000e+03 3.358083724975585938e+01 2.555552673339843750e+01 4.458282291889190674e-01 3.829759061336517334e-01 2.486412376165390015e-01 -9.653831273317337036e-02
2.904000000000000000e+03 3.315507125854492188e+01 2.435712432861328125e+01 5.056573152542114258e-01 4.538867175579071045e-01 2.878632247447967529e-01 -2.731116861104965210e-02
2.905000000000000000e+03 3.271485137939453125e+01 2.512345123291015625e+01 4.151048064231872559e-01 3.566447794437408447e-01 2.315248697996139526e-01 -1.229651793837547302e-01
2.906000000000000000e+03 4.179724884033203125e+01 2.318372154235839844e+01 1.211073517799377441e+00 2.740504264831542969e+00 1.185473322868347168e+00 1.758023977279663086e+00
2.907000000000000000e+03 4.116088867187500000e+01 2.473521041870117188e+01 1.384373426437377930e+00 1.944178700447082520e+00 9.985656142234802246e-01 1.483316183090209961e+00
2.908000000000000000e+03 3.220064926147460938e+01 -1.584115862846374512e+00 -9.291914105415344238e-02 1.818543791770935059e+00 5.176873803138732910e-01 3.718573749065399170e-01
2.909000000000000000e+03 3.937666320800781250e+01 2.406631278991699219e+01 1.143373847007751465e+00 1.522818207740783691e+00 7.998576164245605469e-01 1.014558672904968262e+00
2.910000000000000000e+03 4.019847869873046875e+01 2.398653793334960938e+01 1.235542535781860352e+00 1.806064724922180176e+00 9.124822020530700684e-01 1.265277266502380371e+00
2.911000000000000000e+03 5.127830505371093750e+01 2.502786064147949219e+01 -1.717180758714675903e-01 1.095955657958984375e+01 3.236351728439331055e+00 1.033487558364868164e+00
2.912000000000000000e+03 6.729751586914062500e+01 1.388535976409912109e+01 -3.177714645862579346e-01 7.809032440185546875e+00 2.247378349304199219e+00 -1.170691728591918945e+00
2.913000000000000000e+03 3.310021972656250000e+01 2.045414161682128906e+01 5.485822558403015137e-01 8.304558396339416504e-01 4.137114286422729492e-01 2.698534727096557617e-01
2.914000000000000000e+03 6.581062316894531250e+01 1.675043296813964844e+01 -2.701262235641479492e-01 7.953394412994384766e+00 2.304980516433715820e+00 -1.287575006484985352e+00
2.915000000000000000e+03 3.524369430541992188e+01 2.165705680847167969e+01 7.316062450408935547e-01 1.050745487213134766e+00 5.347055196762084961e-01 4.438350796699523926e-01
2.916000000000000000e+03 3.727989196777343750e+01 1.276292705535888672e+01 2.140476554632186890e-01 2.577969074249267578e+00 8.376050591468811035e-01 8.447505235671997070e-01
2.917000000000000000e+03 3.145663833618164062e+01 2.557109260559082031e+01 2.928737401962280273e-01 2.243493944406509399e-01 1.551669389009475708e-01 -2.332330942153930664e-01
2.918000000000000000e+03 3.528221511840820312e+01 1.419436073303222656e+01 3.250634670257568359e-01 1.939473986625671387e+00 6.793612241744995117e-01 7.003612518310546875e-01
2.919000000000000000e+03 2.929970359802246094e+01 -9.210039377212524414e-01 -4.623806476593017578e-02 1.221079230308532715e+00 3.524523377418518066e-01 3.299060463905334473e-01
2.920000000000000000e+03 5.830113220214843750e+01 2.647926521301269531e+01 1.161248087882995605e+00 9.687891960144042969e+00 3.254742145538330078e+00 -1.250061273574829102e+00
2.921000000000000000e+03 5.325259399414062500e+01 2.515033149719238281e+01 1.417850404977798462e-01 1.117537117004394531e+01 3.395146846771240234e+00 -1.790672987699508667e-01
2.922000000000000000e+03 5.755522918701171875e+01 2.483347320556640625e+01 5.574733614921569824e-01 9.813656806945800781e+00 3.111339092254638672e+00 -1.178394436836242676e+00
2.923000000000000000e+03 6.643395996093750000e+01 8.816155433654785156e+00 -4.280610680580139160e-01 7.812790393829345703e+00 2.215418815612792969e+00 -9.230440258979797363e-01
2.924000000000000000e+03 3.528099060058593750e+01 1.220188617706298828e+01 1.970127969980239868e-01 2.086467266082763672e+00 6.850439906120300293e-01 6.742203235626220703e-01
2.925000000000000000e+03 3.452571868896484375e+01 -1.012356185913085938e+01 -1.341482847929000854e-01 2.436374187469482422e+00 6.906677484512329102e-01 2.557380795478820801e-01
2.926000000000000000e+03 3.282607650756835938e+01 2.189076614379882812e+01 5.580034255981445312e-01 6.459404230117797852e-01 3.611831367015838623e-01 1.458288133144378662e-01
2.927000000000000000e+03 5.782467269897460938e+01 2.778194046020507812e+01 1.712031245231628418e+00 9.867867469787597656e+00 3.473969697952270508e+00 -1.137997388839721680e+00
2.928000000000000000e+03 5.838096237182617188e+01 3.006020927429199219e+01 2.289120912551879883e+00 9.680327415466308594e+00 3.590834379196166992e+00 -6.954120993614196777e-01
2.929000000000000000e+03 6.787988281250000000e+01 -4.390135288238525391e+00 -2.373310774564743042e-01 7.851058483123779297e+00 2.284118175506591797e+00 -4.294534623622894287e-01
2.930000000000000000e+03 6.551480102539062500e+01 2.076569175720214844e+01 1.362435985356569290e-02 7.998425960540771484e+00 2.403615236282348633e+00 -1.398474693298339844e+00
2.931000000000000000e+03 3.488523101806640625e+01 1.661466211080551147e-01 -1.404887735843658447e-01 2.420165538787841797e+00 6.839029788970947266e-01 4.454496800899505615e-01
2.932000000000000000e+03 3.392519760131835938e+01 1.430393815040588379e+00 -1.041509211063385010e-01 2.150584697723388672e+00 6.139301657676696777e-01 4.651798307895660400e-01
2.933000000000000000e+03 6.633143615722656250e+01 -9.035379409790039062e+00 -2.113516926765441895e-01 7.678217411041259766e+00 2.240059852600097656e+00 -3.076145052909851074e-01
2.934000000000000000e+03 3.668634796142578125e+01 1.565284729003906250e+01 4.099306166172027588e-01 2.176980733871459961e+00 7.760733962059020996e-01 8.296310901641845703e-01
2.935000000000000000e+03 6.976333618164062500e+01 -1.570565605163574219e+01 -8.869633078575134277e-02 8.168767929077148438e+00 2.424021482467651367e+00 -1.756443828344345093e-01
2.936000000000000000e+03 3.182158088684082031e+01 -7.859639167785644531e+00 -9.503632038831710815e-02 1.846974849700927734e+00 5.255815386772155762e-01 2.653523981571197510e-01
2.937000000000000000e+03 3.385247039794921875e+01 -5.251811504364013672e+00 -1.350955218076705933e-01 2.247867584228515625e+00 6.338316202163696289e-01 3.354246318340301514e-01
2.938000000000000000e+03 6.485464477539062500e+01 1.971019363403320312e+01 -9.061423689126968384e-02 8.106066703796386719e+00 2.404635906219482422e+00 -1.382868170738220215e+00
2.939000000000000000e+03 3.681357955932617188e+01 1.640960311889648438e+01 4.756857752799987793e-01 2.112241744995117188e+00 7.763782739639282227e-01 8.491749763488769531e-01
2.940000000000000000e+03 3.503618240356445312e+01 1.717518806457519531e+01 5.021173357963562012e-01 1.582855582237243652e+00 6.254918575286865234e-01 6.361038088798522949e-01
2.941000000000000000e+03 6.838197326660156250e+01 -1.385225677490234375e+01 -1.206559240818023682e-01 7.950015544891357422e+00 2.348807811737060547e+00 -2.172971516847610474e-01
2.942000000000000000e+03 6.512647247314453125e+01 -9.951065063476562500e+00 -2.254085242748260498e-01 7.506535530090332031e+00 2.184338092803955078e+00 -2.823406457901000977e-01
2.943000000000000000e+03 6.480195617675781250e+01 2.516227912902832031e+01 5.460355281829833984e-01 8.056878089904785156e+00 2.580874204635620117e+00 -1.346670031547546387e+00
2.944000000000000000e+03 6.009897613525390625e+01 3.131139755249023438e+01 1.946106314659118652e+00 9.197875976562500000e+00 3.343194723129272461e+00 -4.255453050136566162e-01
2.945000000000000000e+03 6.441302490234375000e+01 2.783916854858398438e+01 8.745552897453308105e-01 8.086767196655273438e+00 2.688396692276000977e+00 -1.143720746040344238e+00
2.946000000000000000e+03 6.599266052246093750e+01 1.142419910430908203e+01 -4.330587983131408691e-01 7.862195491790771484e+00 2.228740930557250977e+00 -1.040905237197875977e+00
2.947000000000000000e+03 6.706064605712890625e+01 1.217552661895751953e+01 -3.667628467082977295e-01 7.826259136199951172e+00 2.237848997116088867e+00 -1.088895082473754883e+00
2.948000000000000000e+03 4.638732910156250000e+01 2.750644683837890625e+01 2.084765434265136719e+00 5.576117515563964844e+00 2.298264980316162109e+00 4.056713104248046875e+00
2.949000000000000000e+03 4.342470169067382812e+01 2.567424201965332031e+01 1.684144496917724609e+00 2.858467340469360352e+00 1.362783551216125488e+00 2.311457157135009766e+00
2.950000000000000000e+03 4.665666580200195312e+01 2.673200607299804688e+01 1.608345866203308105e+00 6.402443408966064453e+00 2.403236865997314453e+00 3.897500514984130859e+00
2.951000000000000000e+03 4.715130233764648438e+01 2.654040908813476562e+01 1.304212689399719238e+00 7.265850543975830078e+00 2.571018934249877930e+00 3.915017366409301758e+00
2.952000000000000000e+03 4.755530548095703125e+01 2.624792098999023438e+01 9.758404493331909180e-01 7.959888458251953125e+00 2.680718660354614258e+00 3.646241188049316406e+00
2.953000000000000000e+03 4.561217117309570312e+01 2.714568710327148438e+01 2.087352514266967773e+00 4.407481670379638672e+00 1.948450326919555664e+00 3.543459177017211914e+00
2.954000000000000000e+03 4.343499374389648438e+01 2.497432708740234375e+01 1.521279573440551758e+00 3.150958776473999023e+00 1.401671528816223145e+00 2.315542459487915039e+00
2.955000000000000000e+03 4.401799774169921875e+01 2.575390052795410156e+01 1.704607009887695312e+00 3.284887790679931641e+00 1.496848464012145996e+00 2.572533369064331055e+00
2.956000000000000000e+03 3.738386535644531250e+01 2.260272979736328125e+01 9.226456284523010254e-01 1.336494684219360352e+00 6.777421236038208008e-01 7.165843248367309570e-01
2.957000000000000000e+03 3.372291564941406250e+01 2.133974456787109375e+01 6.057611107826232910e-01 8.313814997673034668e-01 4.311427772045135498e-01 2.713510990142822266e-01
2.958000000000000000e+03 3.406865692138671875e+01 2.479372215270996094e+01 5.550777912139892578e-01 4.895274043083190918e-01 3.133815526962280273e-01 1.858814246952533722e-02
2.959000000000000000e+03 4.103800964355468750e+01 2.394663619995117188e+01 1.283687710762023926e+00 2.129227399826049805e+00 1.023874521255493164e+00 1.498139619827270508e+00
2.960000000000000000e+03 3.819812774658203125e+01 2.432656097412109375e+01 1.019905090332031250e+00 1.165637850761413574e+00 6.556628346443176270e-01 7.164474725723266602e-01
2.961000000000000000e+03 3.520056915283203125e+01 1.323369121551513672e+01 2.578971385955810547e-01 2.002627134323120117e+00 6.781572699546813965e-01 6.837456822395324707e-01
2.962000000000000000e+03 3.872138214111328125e+01 2.274858093261718750e+01 1.035762786865234375e+00 1.644325375556945801e+00 8.040264248847961426e-01 9.873753786087036133e-01
2.963000000000000000e+03 4.954776000976562500e+01 2.566510581970214844e+01 8.053424954414367676e-02 1.045487022399902344e+01 3.160621166229248047e+00 2.383245706558227539e+00
2.964000000000000000e+03 5.040532302856445312e+01 2.553476142883300781e+01 -7.538338005542755127e-02 1.094784069061279297e+01 3.261737346649169922e+00 1.689365148544311523e+00
2.965000000000000000e+03 3.999048995971679688e+01 2.313660430908203125e+01 1.137335896492004395e+00 1.971036911010742188e+00 9.325118660926818848e-01 1.262419939041137695e+00
2.966000000000000000e+03 5.191275405883789062e+01 2.425844192504882812e+01 -2.674760520458221436e-01 1.059639739990234375e+01 3.098676443099975586e+00 7.163277864456176758e-01
2.967000000000000000e+03 5.497954559326171875e+01 2.583641815185546875e+01 7.512276172637939453e-01 1.086597728729248047e+01 3.485161542892456055e+00 -8.934147357940673828e-01
2.968000000000000000e+03 3.346578216552734375e+01 2.271672248840332031e+01 5.851303339004516602e-01 6.417757868766784668e-01 3.680718541145324707e-01 1.417018473148345947e-01
2.969000000000000000e+03 3.403810119628906250e+01 1.990511322021484375e+01 5.962157249450683594e-01 1.051204204559326172e+00 4.942259788513183594e-01 4.057062566280364990e-01
2.970000000000000000e+03 3.496371078491210938e+01 1.938303756713867188e+01 6.225962638854980469e-01 1.302910327911376953e+00 5.776519775390625000e-01 5.462001562118530273e-01
2.971000000000000000e+03 5.078285217285156250e+01 2.518532943725585938e+01 -1.226524338126182556e-01 1.087862300872802734e+01 3.226791143417358398e+00 1.360289931297302246e+00
2.972000000000000000e+03 3.357165527343750000e+01 2.355310440063476562e+01 5.802120566368103027e-01 5.788340568542480469e-01 3.477138280868530273e-01 8.148749172687530518e-02
2.973000000000000000e+03 6.666719055175781250e+01 7.063747882843017578e+00 -4.091838896274566650e-01 7.793891429901123047e+00 2.215412139892578125e+00 -8.465329408645629883e-01
2.974000000000000000e+03 6.747285461425781250e+01 7.996714591979980469e+00 -3.758264780044555664e-01 7.807367801666259766e+00 2.229462385177612305e+00 -8.936453461647033691e-01
2.975000000000000000e+03 6.777805328369140625e+01 6.305645465850830078e+00 -3.541524708271026611e-01 7.813634872436523438e+00 2.237844705581665039e+00 -8.174654841423034668e-01
2.976000000000000000e+03 7.008848571777343750e+01 -1.256018638610839844e+01 -1.065844222903251648e-01 8.176962852478027344e+00 2.421113491058349609e+00 -2.231828719377517700e-01
2.977000000000000000e+03 3.536808013916015625e+01 8.431715011596679688e+00 2.620758675038814545e-02 2.327238559722900391e+00 7.060338258743286133e-01 6.323518157005310059e-01
2.978000000000000000e+03 3.547515869140625000e+01 1.111885738372802734e+01 1.401529312133789062e-01 2.209446191787719727e+00 7.048797011375427246e-01 6.814754009246826172e-01
2.979000000000000000e+03 3.610798263549804688e+01 1.324537277221679688e+01 2.448155879974365234e-01 2.235143423080444336e+00 7.439876794815063477e-01 7.474910020828247070e-01
2.980000000000000000e+03 3.548265457153320312e+01 1.508874034881591797e+01 3.719990253448486328e-01 1.895415067672729492e+00 6.802242398262023926e-01 7.062967419624328613e-01
2.981000000000000000e+03 3.608632659912109375e+01 2.107750511169433594e+01 7.682861685752868652e-01 1.311095595359802246e+00 6.238145232200622559e-01 6.077994704246520996e-01
2.982000000000000000e+03 6.696510314941406250e+01 5.278439044952392578e+00 -3.831816315650939941e-01 7.787215232849121094e+00 2.221210241317749023e+00 -7.697641849517822266e-01
2.983000000000000000e+03 6.569895935058593750e+01 1.891555023193359375e+01 -1.373325437307357788e-01 7.972922325134277344e+00 2.350676774978637695e+00 -1.360252380371093750e+00
2.984000000000000000e+03 6.438454437255859375e+01 1.727995109558105469e+01 -3.004455268383026123e-01 8.121953964233398438e+00 2.346452474594116211e+00 -1.285822272300720215e+00
2.985000000000000000e+03 3.594139862060546875e+01 2.247497940063476562e+01 7.985070347785949707e-01 1.062423348426818848e+00 5.582790970802307129e-01 4.787013530731201172e-01
2.986000000000000000e+03 5.520095825195312500e+01 2.720718002319335938e+01 1.504510760307312012e+00 1.100155735015869141e+01 3.751820325851440430e+00 -1.094840168952941895e+00
2.987000000000000000e+03 6.229897689819335938e+01 2.082595634460449219e+01 -4.897095635533332825e-02 8.530580520629882812e+00 2.544482707977294922e+00 -1.349707365036010742e+00
2.988000000000000000e+03 3.517230606079101562e+01 2.354511976242065430e+00 -1.239295005798339844e-01 2.447858810424804688e+00 6.971787810325622559e-01 5.008335709571838379e-01
2.989000000000000000e+03 3.319879531860351562e+01 2.874660491943359375e+00 -7.425247877836227417e-02 1.950073719024658203e+00 5.627463459968566895e-01 4.760494232177734375e-01
2.990000000000000000e+03 3.126291465759277344e+01 -1.102616024017333984e+01 -8.005008846521377563e-02 1.767284035682678223e+00 5.061701536178588867e-01 2.128858715295791626e-01
2.991000000000000000e+03 5.577783966064453125e+01 2.639368438720703125e+01 1.100537300109863281e+00 1.064655876159667969e+01 3.524128675460815430e+00 -1.074683666229248047e+00
2.992000000000000000e+03 6.492677307128906250e+01 1.075532913208007812e+01 -4.947918951511383057e-01 7.869744777679443359e+00 2.212485790252685547e+00 -9.779405593872070312e-01
2.993000000000000000e+03 6.521518707275390625e+01 -1.279508781433105469e+01 -1.866720318794250488e-01 7.503029823303222656e+00 2.194907426834106445e+00 -2.317920178174972534e-01
2.994000000000000000e+03 6.683143615722656250e+01 -1.344374275207519531e+01 -1.476700305938720703e-01 7.730390548706054688e+00 2.274816274642944336e+00 -2.270365804433822632e-01
2.995000000000000000e+03 6.720056152343750000e+01 3.406262159347534180e+00 -3.576437234878540039e-01 7.787488460540771484e+00 2.228953361511230469e+00 -6.921268701553344727e-01
2.996000000000000000e+03 6.579280853271484375e+01 -7.955407142639160156e+00 -2.390407472848892212e-01 7.600145339965820312e+00 2.208331346511840820e+00 -3.267813026905059814e-01
2.997000000000000000e+03 6.471037292480468750e+01 -8.469811439514160156e+00 -2.569515705108642578e-01 7.455523014068603516e+00 2.159571409225463867e+00 -3.118687272071838379e-01
2.998000000000000000e+03 6.429735565185546875e+01 2.156397438049316406e+01 7.867389917373657227e-02 8.205466270446777344e+00 2.485241889953613281e+00 -1.412502884864807129e+00
2.999000000000000000e+03 6.619981384277343750e+01 -2.347697019577026367e+00 -3.124274015426635742e-01 7.681674480438232422e+00 2.210774183273315430e+00 -4.870039224624633789e-01
3.000000000000000000e+03 6.495073699951171875e+01 -5.045407295227050781e+00 -3.063480257987976074e-01 7.527949333190917969e+00 2.166480302810668945e+00 -3.924487531185150146e-01
3.001000000000000000e+03 6.684779357910156250e+01 -4.793094635009765625e+00 -2.671144008636474609e-01 7.726664066314697266e+00 2.237864732742309570e+00 -4.130008816719055176e-01
3.002000000000000000e+03 6.173993682861328125e+01 2.542523765563964844e+01 7.132738828659057617e-01 8.728756904602050781e+00 2.832609415054321289e+00 -1.344318985939025879e+00
3.003000000000000000e+03 3.458507919311523438e+01 -1.548844051361083984e+01 -1.108953952789306641e-01 2.438850641250610352e+00 6.983865499496459961e-01 1.746301054954528809e-01
3.004000000000000000e+03 3.444388580322265625e+01 -1.245901870727539062e+01 -1.202017590403556824e-01 2.424876689910888672e+00 6.914024949073791504e-01 2.118903100490570068e-01
3.005000000000000000e+03 4.537599945068359375e+01 2.662409210205078125e+01 1.887212157249450684e+00 4.358690738677978516e+00 1.873770833015441895e+00 3.308945894241333008e+00
3.006000000000000000e+03 4.456370162963867188e+01 2.536279106140136719e+01 1.551275253295898438e+00 4.007498264312744141e+00 1.667632102966308594e+00 2.798056125640869141e+00
3.007000000000000000e+03 4.514126968383789062e+01 2.612317466735839844e+01 1.736556768417358398e+00 4.317757129669189453e+00 1.816294074058532715e+00 3.145406484603881836e+00
3.008000000000000000e+03 4.589412307739257812e+01 2.640778923034667969e+01 1.712688446044921875e+00 5.182334423065185547e+00 2.068506956100463867e+00 3.523849725723266602e+00
3.009000000000000000e+03 4.274290847778320312e+01 2.402163124084472656e+01 1.332594037055969238e+00 3.064807653427124023e+00 1.319220542907714844e+00 2.063444852828979492e+00
3.010000000000000000e+03 3.669526672363281250e+01 2.320179367065429688e+01 8.639194965362548828e-01 1.075392842292785645e+00 5.817936658859252930e-01 5.347411632537841797e-01
3.011000000000000000e+03 3.517000198364257812e+01 2.313924789428710938e+01 7.222773432731628418e-01 8.250323534011840820e-01 4.641928970813751221e-01 3.005644977092742920e-01
3.012000000000000000e+03 3.803725051879882812e+01 2.325627326965332031e+01 9.895132184028625488e-01 1.347178816795349121e+00 7.010076045989990234e-01 7.827852368354797363e-01
3.013000000000000000e+03 4.480789947509765625e+01 2.496839904785156250e+01 1.414121985435485840e+00 4.372502803802490234e+00 1.735987424850463867e+00 2.826673269271850586e+00
3.014000000000000000e+03 4.405979537963867188e+01 2.516078758239746094e+01 1.537878990173339844e+00 3.619929790496826172e+00 1.547342658042907715e+00 2.566771984100341797e+00
3.015000000000000000e+03 4.101630783081054688e+01 2.220804786682128906e+01 1.069812774658203125e+00 2.599631786346435547e+00 1.100833415985107422e+00 1.546244382858276367e+00
3.016000000000000000e+03 4.759582901000976562e+01 2.520015144348144531e+01 6.526146531105041504e-01 7.791158676147460938e+00 2.533132076263427734e+00 3.233994007110595703e+00
3.017000000000000000e+03 4.855394744873046875e+01 2.545882987976074219e+01 3.402560353279113770e-01 9.115199089050292969e+00 2.836636543273925781e+00 2.943968772888183594e+00
3.018000000000000000e+03 5.053660202026367188e+01 2.462127685546875000e+01 -2.241009324789047241e-01 1.038599014282226562e+01 3.048566579818725586e+00 1.524034380912780762e+00
3.019000000000000000e+03 5.217115402221679688e+01 2.335523223876953125e+01 -3.825903832912445068e-01 1.016626167297363281e+01 2.935101509094238281e+00 5.997424721717834473e-01
3.020000000000000000e+03 4.907761001586914062e+01 2.497849082946777344e+01 9.394009411334991455e-02 9.513377189636230469e+00 2.882195234298706055e+00 2.546587944030761719e+00
3.021000000000000000e+03 3.812315750122070312e+01 2.204475402832031250e+01 9.541194438934326172e-01 1.636832475662231445e+00 7.772855758666992188e-01 9.082245230674743652e-01
3.022000000000000000e+03 3.636305618286132812e+01 1.971084022521972656e+01 7.060685753822326660e-01 1.580691695213317871e+00 6.860280632972717285e-01 7.200322747230529785e-01
3.023000000000000000e+03 3.717733383178710938e+01 1.712994194030761719e+01 5.272763967514038086e-01 2.131456613540649414e+00 7.976199388504028320e-01 8.741620182991027832e-01
3.024000000000000000e+03 3.618605422973632812e+01 1.400137424468994141e+01 3.010864257812500000e-01 2.205712318420410156e+00 7.520396113395690918e-01 7.703477740287780762e-01
3.025000000000000000e+03 3.951863479614257812e+01 2.227976036071777344e+01 1.041606307029724121e+00 2.030624628067016602e+00 9.216692447662353516e-01 1.199861288070678711e+00
3.026000000000000000e+03 6.554463195800781250e+01 7.886972904205322266e+00 -4.627059400081634521e-01 7.788984775543212891e+00 2.197883605957031250e+00 -8.666544556617736816e-01
3.027000000000000000e+03 3.437539291381835938e+01 2.226580619812011719e+01 6.638063788414001465e-01 8.202973008155822754e-01 4.452311098575592041e-01 2.753173708915710449e-01
3.028000000000000000e+03 3.461611557006835938e+01 2.078915977478027344e+01 6.590148210525512695e-01 1.049271345138549805e+00 5.124858617782592773e-01 4.193198084831237793e-01
3.029000000000000000e+03 3.542123794555664062e+01 1.803628540039062500e+01 5.636667609214782715e-01 1.577388882637023926e+00 6.423166990280151367e-01 6.555744409561157227e-01
3.030000000000000000e+03 5.445343017578125000e+01 2.352462959289550781e+01 -1.187006831169128418e-01 1.031914901733398438e+01 3.060134649276733398e+00 -4.061497747898101807e-01
3.031000000000000000e+03 3.920153045654296875e+01 2.341276741027832031e+01 1.098040580749511719e+00 1.649082064628601074e+00 8.241367936134338379e-01 1.037685155868530273e+00
3.032000000000000000e+03 4.023546981811523438e+01 2.167346382141113281e+01 1.003403306007385254e+00 2.412702083587646484e+00 1.024831533432006836e+00 1.372492551803588867e+00
3.033000000000000000e+03 3.644925308227539062e+01 2.949258327484130859e+00 -1.424217969179153442e-01 2.725410461425781250e+00 7.748966217041015625e-01 5.437938570976257324e-01
3.034000000000000000e+03 3.596129226684570312e+01 1.677195167541503906e+01 4.907153844833374023e-01 1.866146802902221680e+00 7.070586681365966797e-01 7.473358511924743652e-01
3.035000000000000000e+03 3.653818893432617188e+01 1.480181884765625000e+01 3.540794253349304199e-01 2.216926336288452148e+00 7.713017463684082031e-01 8.118691444396972656e-01
3.036000000000000000e+03 6.548756408691406250e+01 9.747405052185058594e+00 -4.714613258838653564e-01 7.835559368133544922e+00 2.209229469299316406e+00 -9.502899646759033203e-01
3.037000000000000000e+03 3.577735900878906250e+01 1.007703113555908203e+01 8.824694901704788208e-02 2.330967664718627930e+00 7.257643938064575195e-01 6.870880722999572754e-01
3.038000000000000000e+03 3.684674453735351562e+01 1.356098556518554688e+01 2.547791600227355957e-01 2.412052631378173828e+00 8.000495433807373047e-01 8.063614368438720703e-01
3.039000000000000000e+03 6.330967712402343750e+01 1.894708061218261719e+01 -2.232138216495513916e-01 8.309853553771972656e+00 2.425991773605346680e+00 -1.319675326347351074e+00
3.040000000000000000e+03 6.367835235595703125e+01 2.026981353759765625e+01 -6.669381260871887207e-02 8.269321441650390625e+00 2.460788249969482422e+00 -1.376801609992980957e+00
3.041000000000000000e+03 6.584429168701171875e+01 6.055565834045410156e+00 -4.384430348873138428e-01 7.759870529174804688e+00 2.196428298950195312e+00 -7.905801534652709961e-01
3.042000000000000000e+03 6.500007629394531250e+01 4.983808994293212891e+00 -4.656461179256439209e-01 7.707792282104492188e+00 2.172643899917602539e+00 -7.269728779792785645e-01
3.043000000000000000e+03 6.516467285156250000e+01 1.546887588500976562e+01 -3.673135042190551758e-01 8.002537727355957031e+00 2.290567398071289062e+00 -1.221476793289184570e+00
3.044000000000000000e+03 6.633012390136718750e+01 1.304763603210449219e+01 -3.836332559585571289e-01 7.875167369842529297e+00 2.247460126876831055e+00 -1.136132955551147461e+00
3.045000000000000000e+03 6.705946350097656250e+01 -6.069970130920410156e-01 -3.116641938686370850e-01 7.768635749816894531e+00 2.237091302871704102e+00 -5.431123375892639160e-01
3.046000000000000000e+03 6.816344451904296875e+01 3.279205262660980225e-01 -2.808635830879211426e-01 7.854205131530761719e+00 2.272002458572387695e+00 -5.775074958801269531e-01
3.047000000000000000e+03 6.470732879638671875e+01 1.319522857666015625e+01 -4.640178978443145752e-01 7.964670181274414062e+00 2.250195503234863281e+00 -1.095649242401123047e+00
3.048000000000000000e+03 5.387621688842773438e+01 2.442541694641113281e+01 3.063057921826839447e-02 1.069911098480224609e+01 3.218922615051269531e+00 -3.320164084434509277e-01
3.049000000000000000e+03 5.784428787231445312e+01 2.377435111999511719e+01 2.901449203491210938e-01 9.635537147521972656e+00 2.977704524993896484e+00 -1.164628982543945312e+00
3.050000000000000000e+03 6.300509262084960938e+01 1.763227272033691406e+01 -3.456885814666748047e-01 8.283929824829101562e+00 2.381472587585449219e+00 -1.240064382553100586e+00
3.051000000000000000e+03 6.913516235351562500e+01 -3.495707213878631592e-01 -2.444076091051101685e-01 7.929317474365234375e+00 2.305473089218139648e+00 -5.445801615715026855e-01
3.052000000000000000e+03 6.558106231689453125e+01 1.384117412567138672e+01 -4.024899303913116455e-01 7.932312965393066406e+00 2.258946895599365234e+00 -1.151704430580139160e+00
3.053000000000000000e+03 6.591573333740234375e+01 -1.256160736083984375e+00 -3.344263136386871338e-01 7.667310714721679688e+00 2.199865341186523438e+00 -5.163852572441101074e-01
3.054000000000000000e+03 6.446769714355468750e+01 -7.087182044982910156e+00 -2.853187322616577148e-01 7.447321414947509766e+00 2.148600816726684570e+00 -3.413410782814025879e-01
3.055000000000000000e+03 5.526728439331054688e+01 2.502968406677246094e+01 4.308585822582244873e-01 1.055332183837890625e+01 3.295254230499267578e+00 -8.323115706443786621e-01
3.056000000000000000e+03 6.177088928222656250e+01 2.336200714111328125e+01 3.150359690189361572e-01 8.707351684570312500e+00 2.706716537475585938e+00 -1.385661244392395020e+00
3.057000000000000000e+03 3.637104797363281250e+01 5.737666606903076172e+00 -8.064410090446472168e-02 2.631217956542968750e+00 7.651721239089965820e-01 6.120871305465698242e-01
3.058000000000000000e+03 3.661154174804687500e+01 1.138665580749511719e+01 1.435883939266204834e-01 2.508224725723266602e+00 7.955439686775207520e-01 7.569348216056823730e-01
3.059000000000000000e+03 6.294596481323242188e+01 2.234829711914062500e+01 1.711084991693496704e-01 8.459615707397460938e+00 2.589217185974121094e+00 -1.400655031204223633e+00
3.060000000000000000e+03 6.388979721069335938e+01 2.375725555419921875e+01 3.886511325836181641e-01 8.300388336181640625e+00 2.606711864471435547e+00 -1.414197087287902832e+00
3.061000000000000000e+03 6.638860321044921875e+01 -6.498323440551757812e+00 -2.391940951347351074e-01 7.692064285278320312e+00 2.235861063003540039e+00 -3.746715188026428223e-01
3.062000000000000000e+03 3.517854690551757812e+01 6.379234313964843750e+00 -4.061771556735038757e-02 2.340429306030273438e+00 6.899434924125671387e-01 5.869886875152587891e-01
3.063000000000000000e+03 3.748266983032226562e+01 1.588262081146240234e+01 4.122831225395202637e-01 2.369577169418334961e+00 8.345581293106079102e-01 8.934525251388549805e-01
3.064000000000000000e+03 3.673525238037109375e+01 1.839165115356445312e+01 6.242869496345520020e-01 1.858426094055175781e+00 7.448139190673828125e-01 8.104143142700195312e-01
3.065000000000000000e+03 5.568058776855468750e+01 3.236024856567382812e+01 3.590887546539306641e+00 1.081360912322998047e+01 4.321349143981933594e+00 4.365925788879394531e-01
3.066000000000000000e+03 6.085434722900390625e+01 2.717348861694335938e+01 1.120786786079406738e+00 8.933548927307128906e+00 3.016300916671752930e+00 -1.244848132133483887e+00
3.067000000000000000e+03 6.086234283447265625e+01 2.919150161743164062e+01 1.523985385894775391e+00 8.957092285156250000e+00 3.144323348999023438e+00 -9.066008329391479492e-01
3.068000000000000000e+03 3.425274658203125000e+01 -3.945306777954101562e+00 -1.384285539388656616e-01 2.322912454605102539e+00 6.553451418876647949e-01 3.649328947067260742e-01
3.069000000000000000e+03 3.580110931396484375e+01 -4.066252708435058594e+00 -1.828450113534927368e-01 2.634494781494140625e+00 7.354949116706848145e-01 3.708856999874114990e-01
3.070000000000000000e+03 6.361408996582031250e+01 -1.039072895050048828e+01 -2.463158965110778809e-01 7.315770626068115234e+00 2.120836496353149414e+00 -2.611279487609863281e-01
3.071000000000000000e+03 6.344629669189453125e+01 -1.224755191802978516e+01 -2.258603423833847046e-01 7.276338577270507812e+00 2.115143537521362305e+00 -2.289507240056991577e-01
3.072000000000000000e+03 6.351366806030273438e+01 -8.778042793273925781e+00 -2.764724493026733398e-01 7.319931507110595703e+00 2.113037824630737305e+00 -2.893721163272857666e-01
3.073000000000000000e+03 3.587514877319335938e+01 -1.270930862426757812e+01 -1.420325338840484619e-01 2.655317068099975586e+00 7.539853453636169434e-01 2.052944153547286987e-01
3.074000000000000000e+03 3.409209823608398438e+01 -8.772151947021484375e+00 -1.364101618528366089e-01 2.329848766326904297e+00 6.580315828323364258e-01 2.530860602855682373e-01
3.075000000000000000e+03 6.561779022216796875e+01 2.947371482849121094e+01 8.490063548088073730e-01 7.785609722137451172e+00 2.590384721755981445e+00 -9.586259126663208008e-01
3.076000000000000000e+03 6.221433258056640625e+01 2.693420982360839844e+01 9.907852411270141602e-01 8.622064590454101562e+00 2.883854866027832031e+00 -1.246061563491821289e+00
3.077000000000000000e+03 3.636405563354492188e+01 -1.461207866668701172e+01 -1.343083232641220093e-01 2.733527898788452148e+00 7.797659039497375488e-01 1.772059500217437744e-01
3.078000000000000000e+03 6.472369384765625000e+01 -1.465499210357666016e+01 -1.739485412836074829e-01 7.425558090209960938e+00 2.175482988357543945e+00 -1.986617296934127808e-01
3.079000000000000000e+03 4.525213241577148438e+01 2.539890670776367188e+01 1.469699144363403320e+00 4.736141204833984375e+00 1.861752033233642578e+00 3.065739154815673828e+00
3.080000000000000000e+03 4.702353668212890625e+01 2.600691032409667969e+01 1.158914685249328613e+00 7.083305835723876953e+00 2.472666263580322266e+00 3.615500211715698242e+00
3.081000000000000000e+03 4.699873352050781250e+01 2.541215515136718750e+01 9.482715129852294922e-01 6.986912727355957031e+00 2.380555391311645508e+00 3.357096433639526367e+00
3.082000000000000000e+03 4.356192779541015625e+01 2.422754287719726562e+01 1.347319722175598145e+00 3.545506954193115234e+00 1.467847943305969238e+00 2.329376697540283203e+00
3.083000000000000000e+03 4.561735153198242188e+01 2.507035064697265625e+01 1.283777236938476562e+00 5.243746280670166016e+00 1.958257079124450684e+00 3.075464010238647461e+00
3.084000000000000000e+03 4.560800170898437500e+01 2.588560676574707031e+01 1.566974163055419922e+00 5.005497932434082031e+00 1.971741557121276855e+00 3.294267177581787109e+00
3.085000000000000000e+03 4.263078308105468750e+01 2.317473220825195312e+01 1.188327789306640625e+00 3.253229141235351562e+00 1.332467079162597656e+00 2.005006074905395508e+00
3.086000000000000000e+03 5.085728836059570312e+01 2.354631233215332031e+01 -3.541583418846130371e-01 9.937685012817382812e+00 2.875057935714721680e+00 1.270377755165100098e+00
3.087000000000000000e+03 3.750417709350585938e+01 2.130371856689453125e+01 8.647534251213073730e-01 1.617387533187866211e+00 7.446423172950744629e-01 8.332086801528930664e-01
3.088000000000000000e+03 5.305107498168945312e+01 2.382204818725585938e+01 -2.503027021884918213e-01 1.052677917480468750e+01 3.082942962646484375e+00 1.236199885606765747e-01
3.089000000000000000e+03 5.117532348632812500e+01 2.428868675231933594e+01 -2.677832841873168945e-01 1.042347431182861328e+01 3.046707391738891602e+00 1.108224034309387207e+00
3.090000000000000000e+03 4.335198593139648438e+01 2.289906692504882812e+01 1.098717451095581055e+00 3.758323192596435547e+00 1.457112193107604980e+00 2.165815830230712891e+00
3.091000000000000000e+03 4.090301513671875000e+01 2.307346725463867188e+01 1.174295425415039062e+00 2.341498136520385742e+00 1.054738044738769531e+00 1.503265738487243652e+00
3.092000000000000000e+03 4.177666473388671875e+01 2.246302413940429688e+01 1.109156250953674316e+00 2.934177160263061523e+00 1.212999939918518066e+00 1.762911200523376465e+00
3.093000000000000000e+03 3.771224594116210938e+01 1.998380088806152344e+01 7.724632024765014648e-01 1.903254508972167969e+00 8.027153015136718750e-01 9.190098643302917480e-01
3.094000000000000000e+03 3.848519515991210938e+01 1.945743942260742188e+01 7.367403507232666016e-01 2.226557493209838867e+00 8.889893889427185059e-01 1.057446122169494629e+00
3.095000000000000000e+03 3.549944686889648438e+01 2.024221801757812500e+01 6.950144171714782715e-01 1.303627371788024902e+00 5.995925068855285645e-01 5.745761394500732422e-01
3.096000000000000000e+03 3.887268447875976562e+01 2.150622940063476562e+01 9.420266151428222656e-01 1.981364130973815918e+00 8.770171999931335449e-01 1.089038133621215820e+00
3.097000000000000000e+03 4.812059783935546875e+01 2.479771614074707031e+01 3.609492778778076172e-01 8.382980346679687500e+00 2.623178958892822266e+00 2.897573232650756836e+00
3.098000000000000000e+03 6.385739135742187500e+01 5.765598297119140625e+00 -5.215193033218383789e-01 7.680329799652099609e+00 2.147643089294433594e+00 -7.233943343162536621e-01
3.099000000000000000e+03 3.791040802001953125e+01 2.010566949844360352e+00 -1.936031430959701538e-01 3.066595792770385742e+00 8.618977665901184082e-01 5.386795997619628906e-01
3.100000000000000000e+03 3.618932723999023438e+01 4.298554897308349609e+00 -1.080357357859611511e-01 2.630880355834960938e+00 7.568534016609191895e-01 5.757227540016174316e-01
3.101000000000000000e+03 3.586484909057617188e+01 1.888038253784179688e+01 6.342962980270385742e-01 1.573668599128723145e+00 6.623894572257995605e-01 6.876351833343505859e-01
3.102000000000000000e+03 6.079108428955078125e+01 2.098242759704589844e+01 -9.694066643714904785e-02 8.759114265441894531e+00 2.598651885986328125e+00 -1.264857888221740723e+00
3.103000000000000000e+03 3.817908477783203125e+01 1.335282611846923828e+01 2.411595880985260010e-01 2.801449775695800781e+00 9.127828478813171387e-01 9.345323443412780762e-01
3.104000000000000000e+03 3.756907653808593750e+01 1.425788402557373047e+01 2.927407324314117432e-01 2.560910463333129883e+00 8.560953736305236816e-01 8.848423957824707031e-01
3.105000000000000000e+03 6.320875930786132812e+01 9.635681152343750000e+00 -5.789117217063903809e-01 7.831696033477783203e+00 2.175835371017456055e+00 -8.566302657127380371e-01
3.106000000000000000e+03 6.469766235351562500e+01 6.858687400817871094e+00 -4.971475005149841309e-01 7.748538494110107422e+00 2.175417184829711914e+00 -7.991753816604614258e-01
3.107000000000000000e+03 3.683344650268554688e+01 1.029277420043945312e+01 7.936169952154159546e-02 2.612640857696533203e+00 8.076007962226867676e-01 7.463411092758178711e-01
3.108000000000000000e+03 3.774102401733398438e+01 1.175994777679443359e+01 1.330077201128005981e-01 2.803021430969238281e+00 8.808087706565856934e-01 8.535188436508178711e-01
3.109000000000000000e+03 3.715383529663085938e+01 8.529491424560546875e+00 -8.420807309448719025e-03 2.769431352615356445e+00 8.283031582832336426e-01 7.157299518585205078e-01
3.110000000000000000e+03 6.536173248291015625e+01 1.228945136070251465e+00 -3.943654894828796387e-01 7.654133796691894531e+00 2.177930355072021484e+00 -5.902016162872314453e-01
3.111000000000000000e+03 6.627515411376953125e+01 4.036024808883666992e-01 -3.524416089057922363e-01 7.708294868469238281e+00 2.206756114959716797e+00 -5.745112299919128418e-01
3.112000000000000000e+03 3.883453750610351562e+01 -1.441625475883483887e+00 -2.427848428487777710e-01 3.274318218231201172e+00 9.094600081443786621e-01 4.299128949642181396e-01
3.113000000000000000e+03 3.579477310180664062e+01 1.267686963081359863e+00 -1.523017734289169312e-01 2.601184606552124023e+00 7.346648573875427246e-01 4.956097304821014404e-01
3.114000000000000000e+03 6.460767364501953125e+01 1.425406265258789062e+01 -4.395036399364471436e-01 7.993990421295166016e+00 2.266346216201782227e+00 -1.137004375457763672e+00
3.115000000000000000e+03 6.414277648925781250e+01 3.875117778778076172e+00 -4.836444556713104248e-01 7.633383750915527344e+00 2.144921779632568359e+00 -6.584288477897644043e-01
3.116000000000000000e+03 6.272879028320312500e+01 -3.094944953918457031e-01 -4.509386718273162842e-01 7.396384716033935547e+00 2.083633899688720703e+00 -4.786884188652038574e-01
3.117000000000000000e+03 5.986623382568359375e+01 3.502053451538085938e+01 1.493782997131347656e+00 9.747756004333496094e+00 3.372461557388305664e+00 4.529542326927185059e-01
3.118000000000000000e+03 6.274171829223632812e+01 2.467006683349609375e+01 5.509350299835205078e-01 8.502737998962402344e+00 2.716101884841918945e+00 -1.378933310508728027e+00
3.119000000000000000e+03 6.524066162109375000e+01 -3.898694992065429688e+00 -3.154572546482086182e-01 7.569089412689208984e+00 2.176089763641357422e+00 -4.284238219261169434e-01
3.120000000000000000e+03 5.548954391479492188e+01 2.401683616638183594e+01 1.470560282468795776e-01 1.025347900390625000e+01 3.120160579681396484e+00 -7.638298869132995605e-01
3.121000000000000000e+03 5.992440414428710938e+01 2.400697517395019531e+01 4.164816439151763916e-01 9.126803398132324219e+00 2.862985372543334961e+00 -1.327704071998596191e+00
3.122000000000000000e+03 6.588415527343750000e+01 -5.675188064575195312e+00 -2.740524709224700928e-01 7.618378639221191406e+00 2.203297853469848633e+00 -3.903028070926666260e-01
3.123000000000000000e+03 3.374282073974609375e+01 -7.512059688568115234e+00 -1.378177851438522339e-01 2.263824224472045898e+00 6.378019452095031738e-01 2.851729094982147217e-01
3.124000000000000000e+03 3.750249862670898438e+01 -2.246505260467529297e+00 -2.065102756023406982e-01 3.006833791732788086e+00 8.400970697402954102e-01 4.124736189842224121e-01
3.125000000000000000e+03 3.615661239624023438e+01 -5.981553792953491211e-01 -1.722979843616485596e-01 2.699969530105590820e+00 7.583014369010925293e-01 4.539717137813568115e-01
3.126000000000000000e+03 5.860967254638671875e+01 2.517069053649902344e+01 7.033517956733703613e-01 9.507863044738769531e+00 3.063364505767822266e+00 -1.285398721694946289e+00
3.127000000000000000e+03 6.781806182861328125e+01 -1.711542892456054688e+01 -1.080514043569564819e-01 7.889082431793212891e+00 2.334309339523315430e+00 -1.684746891260147095e-01
3.128000000000000000e+03 3.642493820190429688e+01 -8.217551231384277344e+00 -1.742179393768310547e-01 2.784033060073852539e+00 7.829445600509643555e-01 3.065505325794219971e-01
3.129000000000000000e+03 3.829708480834960938e+01 1.516745758056640625e+01 3.460163176059722900e-01 2.692465066909790039e+00 9.115444421768188477e-01 9.680074453353881836e-01
3.130000000000000000e+03 6.225485992431640625e+01 -8.686641693115234375e+00 -3.020081818103790283e-01 7.158295631408691406e+00 2.056886196136474609e+00 -2.761983275413513184e-01
3.131000000000000000e+03 6.401153564453125000e+01 -5.950047016143798828e+00 -3.071523010730743408e-01 7.413731575012207031e+00 2.131973743438720703e+00 -3.605229854583740234e-01
3.132000000000000000e+03 6.310583877563476562e+01 -6.632670879364013672e+00 -3.203964829444885254e-01 7.292056560516357422e+00 2.091497898101806641e+00 -3.275564610958099365e-01
3.133000000000000000e+03 3.613895034790039062e+01 7.558048248291015625e+00 -1.999187655746936798e-02 2.539080142974853516e+00 7.557264566421508789e-01 6.512454748153686523e-01
3.134000000000000000e+03 3.511949539184570312e+01 -1.981525802612304688e+01 -9.864475578069686890e-02 2.495668888092041016e+00 7.191072702407836914e-01 1.218800917267799377e-01
3.135000000000000000e+03 3.878459548950195312e+01 -1.056569194793701172e+01 -2.070728689432144165e-01 3.213647603988647461e+00 9.019724130630493164e-01 2.351920902729034424e-01
3.136000000000000000e+03 4.644364929199218750e+01 2.520864295959472656e+01 1.115703701972961426e+00 6.264592170715332031e+00 2.214088678359985352e+00 3.322430610656738281e+00
3.137000000000000000e+03 4.425263595581054688e+01 2.459331321716308594e+01 1.368685007095336914e+00 4.003855228424072266e+00 1.611762046813964844e+00 2.599198341369628906e+00
3.138000000000000000e+03 4.642205429077148438e+01 2.615768623352050781e+01 1.436774015426635742e+00 6.074594497680664062e+00 2.253410577774047852e+00 3.564557075500488281e+00
3.139000000000000000e+03 4.678117370605468750e+01 2.486900901794433594e+01 8.410986661911010742e-01 6.762392997741699219e+00 2.281047582626342773e+00 3.123749971389770508e+00
3.140000000000000000e+03 4.513180923461914062e+01 2.457248115539550781e+01 1.242086768150329590e+00 4.806081295013427734e+00 1.814450502395629883e+00 2.850929737091064453e+00
3.141000000000000000e+03 4.862559509277343750e+01 2.430645751953125000e+01 1.130460947751998901e-01 8.711396217346191406e+00 2.647332668304443359e+00 2.552584171295166016e+00
3.142000000000000000e+03 4.960719299316406250e+01 2.443944358825683594e+01 -1.242058202624320984e-01 9.713219642639160156e+00 2.876703977584838867e+00 2.066761255264282227e+00
3.143000000000000000e+03 3.672083282470703125e+01 2.187219047546386719e+01 8.482345342636108398e-01 1.316811203956604004e+00 6.495137214660644531e-01 6.563205718994140625e-01
3.144000000000000000e+03 4.722276306152343750e+01 2.457850837707519531e+01 6.541348695755004883e-01 7.154541015625000000e+00 2.342602729797363281e+00 3.000101566314697266e+00
3.145000000000000000e+03 4.977120971679687500e+01 2.311610031127929688e+01 -2.895660996437072754e-01 9.122713088989257812e+00 2.649944067001342773e+00 1.740312337875366211e+00
3.146000000000000000e+03 4.083047103881835938e+01 2.095682144165039062e+01 8.946001529693603516e-01 2.841133832931518555e+00 1.120720148086547852e+00 1.497601389884948730e+00
3.147000000000000000e+03 3.880810928344726562e+01 1.611274719238281250e+01 4.125804901123046875e-01 2.794699430465698242e+00 9.621839523315429688e-01 1.054902195930480957e+00
3.148000000000000000e+03 3.826992797851562500e+01 2.075220489501953125e+01 8.524003624916076660e-01 1.933709263801574707e+00 8.358328938484191895e-01 9.942871332168579102e-01
3.149000000000000000e+03 3.691170120239257812e+01 2.052284431457519531e+01 7.838377356529235840e-01 1.593608379364013672e+00 7.132338285446166992e-01 7.698643207550048828e-01
3.150000000000000000e+03 4.238914871215820312e+01 2.243685913085937500e+01 1.063774585723876953e+00 3.297298431396484375e+00 1.308321952819824219e+00 1.890166521072387695e+00
3.151000000000000000e+03 6.422781372070312500e+01 -4.277682304382324219e+00 -3.448053002357482910e-01 7.450073719024658203e+00 2.131580591201782227e+00 -4.018641412258148193e-01
3.152000000000000000e+03 6.354238510131835938e+01 7.666703224182128906e+00 -5.544427037239074707e-01 7.745418071746826172e+00 2.157292604446411133e+00 -7.886237502098083496e-01
3.153000000000000000e+03 3.631870651245117188e+01 1.758646202087402344e+01 5.572051405906677246e-01 1.851227641105651855e+00 7.225298285484313965e-01 7.812928557395935059e-01
3.154000000000000000e+03 3.797813796997070312e+01 1.662460327148437500e+01 4.708318412303924561e-01 2.463360309600830078e+00 8.802576065063476562e-01 9.597285389900207520e-01
3.155000000000000000e+03 3.957971572875976562e+01 2.093789672851562500e+01 8.979224562644958496e-01 2.319045066833496094e+00 9.650902152061462402e-01 1.235559701919555664e+00
3.156000000000000000e+03 5.133107376098632812e+01 2.291492080688476562e+01 -4.370847344398498535e-01 9.772794723510742188e+00 2.800713062286376953e+00 9.936044216156005859e-01
3.157000000000000000e+03 5.257138442993164062e+01 2.240053367614746094e+01 -4.864571392536163330e-01 9.832113265991210938e+00 2.803696870803833008e+00 4.338659942150115967e-01
3.158000000000000000e+03 6.446467590332031250e+01 1.163373661041259766e+01 -5.023323297500610352e-01 7.913839817047119141e+00 2.223452329635620117e+00 -1.011178374290466309e+00
3.159000000000000000e+03 6.295589447021484375e+01 1.145485401153564453e+01 -5.783787369728088379e-01 7.926376342773437500e+00 2.204399347305297852e+00 -9.238460063934326172e-01
3.160000000000000000e+03 6.537196350097656250e+01 1.230666923522949219e+01 -4.562555551528930664e-01 7.908093929290771484e+00 2.235551595687866211e+00 -1.064868569374084473e+00
3.161000000000000000e+03 5.589041137695312500e+01 2.295687675476074219e+01 -1.049368679523468018e-01 9.903710365295410156e+00 2.939631938934326172e+00 -7.328548431396484375e-01
3.162000000000000000e+03 6.270949554443359375e+01 6.525172710418701172e+00 -5.758440494537353516e-01 7.660645484924316406e+00 2.125440359115600586e+00 -7.038600444793701172e-01
3.163000000000000000e+03 6.328828048706054688e+01 2.738779544830322266e+00 -4.933920204639434814e-01 7.543259620666503906e+00 2.114960193634033203e+00 -5.933972001075744629e-01
3.164000000000000000e+03 6.448699951171875000e+01 1.573734432458877563e-01 -4.039544463157653809e-01 7.570965290069580078e+00 2.150103092193603516e+00 -5.392546057701110840e-01
3.165000000000000000e+03 3.758638763427734375e+01 -3.981392860412597656e+00 -2.162630259990692139e-01 2.996021747589111328e+00 8.339276313781738281e-01 3.713574707508087158e-01
3.166000000000000000e+03 3.766221237182617188e+01 -7.959890961647033691e-01 -2.100427150726318359e-01 3.034109592437744141e+00 8.472200632095336914e-01 4.578257501125335693e-01
3.167000000000000000e+03 6.074563217163085938e+01 1.949194526672363281e+01 -2.940037548542022705e-01 8.636975288391113281e+00 2.502891302108764648e+00 -1.180062174797058105e+00
3.168000000000000000e+03 6.203312301635742188e+01 1.931680870056152344e+01 -2.555634975433349609e-01 8.480017662048339844e+00 2.467336177825927734e+00 -1.259257316589355469e+00
3.169000000000000000e+03 6.215724182128906250e+01 3.472517728805541992e+00 -5.437889099121093750e-01 7.483932018280029297e+00 2.082042932510375977e+00 -5.720970630645751953e-01
3.170000000000000000e+03 6.523983764648437500e+01 3.097398519515991211e+00 -4.305710494518280029e-01 7.679156303405761719e+00 2.174575567245483398e+00 -6.567691564559936523e-01
3.171000000000000000e+03 6.435911560058593750e+01 1.992230415344238281e+00 -4.430506229400634766e-01 7.599136352539062500e+00 2.146825790405273438e+00 -5.972391366958618164e-01
3.172000000000000000e+03 3.797656631469726562e+01 6.443752050399780273e-01 -2.145374268293380737e-01 3.074303627014160156e+00 8.579298853874206543e-01 4.918339252471923828e-01
3.173000000000000000e+03 3.669668960571289062e+01 7.266660928726196289e-01 -1.806949079036712646e-01 2.794524669647216797e+00 7.841489315032958984e-01 4.922950863838195801e-01
3.174000000000000000e+03 3.776602554321289062e+01 3.251358032226562500e+00 -1.748140454292297363e-01 3.022925138473510742e+00 8.544333577156066895e-01 5.775905251502990723e-01
3.175000000000000000e+03 3.692921829223632812e+01 6.928267955780029297e+00 -5.958563089370727539e-02 2.736012935638427734e+00 8.029281497001647949e-01 6.651265621185302734e-01
3.176000000000000000e+03 6.179126358032226562e+01 1.798775672912597656e+01 -3.740837574005126953e-01 8.408275604248046875e+00 2.410257577896118164e+00 -1.183070659637451172e+00
3.177000000000000000e+03 6.374389648437500000e+01 1.247389125823974609e+01 -5.225679874420166016e-01 7.971988677978515625e+00 2.234826326370239258e+00 -1.025656700134277344e+00
3.178000000000000000e+03 6.367685317993164062e+01 -3.236418485641479492e+00 -3.727201819419860840e-01 7.419554233551025391e+00 2.114050388336181641e+00 -4.196802377700805664e-01
3.179000000000000000e+03 6.331169128417968750e+01 -5.051670074462890625e+00 -3.482990860939025879e-01 7.351631641387939453e+00 2.100999832153320312e+00 -3.699817061424255371e-01
3.180000000000000000e+03 3.784918975830078125e+01 6.759513378143310547e+00 -1.053715571761131287e-01 2.995971441268920898e+00 8.671799302101135254e-01 6.682033538818359375e-01
3.181000000000000000e+03 3.640333557128906250e+01 9.292100906372070312e+00 3.943628445267677307e-02 2.557712078094482422e+00 7.791444659233093262e-01 7.130487561225891113e-01
3.182000000000000000e+03 3.800921249389648438e+01 1.868769073486328125e+01 6.616505980491638184e-01 2.197312116622924805e+00 8.576888442039489746e-01 9.828746318817138672e-01
3.183000000000000000e+03 6.671620178222656250e+01 -7.343163490295410156e+00 -2.229077816009521484e-01 7.737791061401367188e+00 2.254465103149414062e+00 -3.498599231243133545e-01
3.184000000000000000e+03 6.729104614257812500e+01 -6.473683357238769531e+00 -2.167217880487442017e-01 7.790819644927978516e+00 2.272229433059692383e+00 -3.736086189746856689e-01
3.185000000000000000e+03 5.879827499389648438e+01 2.389236450195312500e+01 3.610101044178009033e-01 9.354722023010253906e+00 2.914719581604003906e+00 -1.257409930229187012e+00
3.186000000000000000e+03 6.387016296386718750e+01 1.591208362579345703e+01 -4.066525697708129883e-01 8.106842994689941406e+00 2.310057163238525391e+00 -1.193404555320739746e+00
3.187000000000000000e+03 6.255143737792968750e+01 -7.474868297576904297e+00 -3.235650956630706787e-01 7.211299896240234375e+00 2.066320419311523438e+00 -3.009691834449768066e-01
3.188000000000000000e+03 3.906034851074218750e+01 -1.604531860351562500e+01 -1.717406809329986572e-01 3.264221906661987305e+00 9.277443885803222656e-01 1.501063555479049683e-01
3.189000000000000000e+03 3.788292312622070312e+01 -5.959703445434570312e+00 -2.102762460708618164e-01 3.058284759521484375e+00 8.544025421142578125e-01 3.220091164112091064e-01
3.190000000000000000e+03 5.689956665039062500e+01 2.337353897094726562e+01 1.186553463339805603e-01 9.792551040649414062e+00 2.973361968994140625e+00 -9.967326521873474121e-01
3.191000000000000000e+03 6.297909164428710938e+01 -1.413988399505615234e+01 -2.012127935886383057e-01 7.188330173492431641e+00 2.096135139465332031e+00 -1.940246820449829102e-01
3.192000000000000000e+03 6.376078796386718750e+01 -1.819175720214843750e+01 -1.531543880701065063e-01 7.275447368621826172e+00 2.136687994003295898e+00 -1.482803523540496826e-01
3.193000000000000000e+03 3.953311538696289062e+01 1.465220355987548828e+01 2.627065479755401611e-01 3.139355182647705078e+00 1.020618557929992676e+00 1.061422705650329590e+00
3.194000000000000000e+03 3.296149063110351562e+01 -2.051194000244140625e+01 -7.349012792110443115e-02 2.150221586227416992e+00 6.230193972587585449e-01 1.242910996079444885e-01
3.195000000000000000e+03 6.077428054809570312e+01 2.566095924377441406e+01 8.100587129592895508e-01 8.969257354736328125e+00 2.933794736862182617e+00 -1.322349071502685547e+00
3.196000000000000000e+03 6.040282058715820312e+01 -9.622949600219726562e+00 -3.161640465259552002e-01 6.886505603790283203e+00 1.971102476119995117e+00 -2.235423624515533447e-01
3.197000000000000000e+03 4.607846832275390625e+01 2.558978843688964844e+01 1.327849388122558594e+00 5.699372768402099609e+00 2.108166694641113281e+00 3.349891901016235352e+00
3.198000000000000000e+03 4.392442703247070312e+01 2.357283210754394531e+01 1.160214781761169434e+00 3.994277954101562500e+00 1.546347856521606445e+00 2.371884107589721680e+00
3.199000000000000000e+03 4.457608413696289062e+01 2.408546638488769531e+01 1.218133807182312012e+00 4.399024486541748047e+00 1.685147523880004883e+00 2.625453948974609375e+00
3.200000000000000000e+03 4.500465393066406250e+01 2.362794113159179688e+01 1.009689211845397949e+00 4.856379508972167969e+00 1.759820699691772461e+00 2.619734048843383789e+00
3.201000000000000000e+03 5.052903366088867188e+01 2.273425102233886719e+01 -3.966819941997528076e-01 9.327699661254882812e+00 2.679305315017700195e+00 1.370771646499633789e+00
3.202000000000000000e+03 4.598518753051757812e+01 2.471639060974121094e+01 1.088342666625976562e+00 5.713451862335205078e+00 2.040538311004638672e+00 3.092856168746948242e+00
3.203000000000000000e+03 4.144921493530273438e+01 2.148186683654785156e+01 9.413496255874633789e-01 3.017540931701660156e+00 1.187667131423950195e+00 1.635868430137634277e+00
3.204000000000000000e+03 3.757498550415039062e+01 1.790370941162109375e+01 5.938210487365722656e-01 2.167895317077636719e+00 8.285148739814758301e-01 9.251242280006408691e-01
3.205000000000000000e+03 4.915681457519531250e+01 2.373760986328125000e+01 -9.185475856065750122e-02 8.956789970397949219e+00 2.659480571746826172e+00 2.181503057479858398e+00
3.206000000000000000e+03 3.900543975830078125e+01 2.020407867431640625e+01 8.193063139915466309e-01 2.267351865768432617e+00 9.259974360466003418e-01 1.138280987739562988e+00
3.207000000000000000e+03 5.350187683105468750e+01 2.294079399108886719e+01 -3.579211831092834473e-01 1.015153408050537109e+01 2.938083648681640625e+00 2.766360528767108917e-02
3.208000000000000000e+03 4.024813842773437500e+01 2.032498168945312500e+01 8.361977934837341309e-01 2.696910858154296875e+00 1.059932589530944824e+00 1.374555110931396484e+00
3.209000000000000000e+03 3.951504898071289062e+01 1.771699142456054688e+01 5.468429923057556152e-01 2.843863964080810547e+00 1.017212033271789551e+00 1.185521364212036133e+00
3.210000000000000000e+03 5.489686965942382812e+01 2.250597953796386719e+01 -2.901727259159088135e-01 9.915156364440917969e+00 2.887495040893554688e+00 -4.338178336620330811e-01
3.211000000000000000e+03 3.971672058105468750e+01 1.964210700988769531e+01 7.518343925476074219e-01 2.617473840713500977e+00 1.010792493820190430e+00 1.264926910400390625e+00
3.212000000000000000e+03 3.915293121337890625e+01 1.696266937255859375e+01 4.834115207195281982e-01 2.809284448623657227e+00 9.878087639808654785e-01 1.122823834419250488e+00
3.213000000000000000e+03 3.720067596435546875e+01 1.919485473632812500e+01 6.964234113693237305e-01 1.877853155136108398e+00 7.722829580307006836e-01 8.602128624916076660e-01
3.214000000000000000e+03 6.242338943481445312e+01 -5.929543495178222656e+00 -3.434909582138061523e-01 7.228160858154296875e+00 2.065400838851928711e+00 -3.300331532955169678e-01
3.215000000000000000e+03 6.535956573486328125e+01 -4.715663492679595947e-01 -3.699553012847900391e-01 7.625392913818359375e+00 2.176631212234497070e+00 -5.346419215202331543e-01
3.216000000000000000e+03 3.918918991088867188e+01 1.348548316955566406e+01 1.909010112285614014e-01 3.146262884140014648e+00 1.001149177551269531e+00 9.900352358818054199e-01
3.217000000000000000e+03 4.042943191528320312e+01 1.201123428344726562e+01 1.793797686696052551e-02 3.631553173065185547e+00 1.094847321510314941e+00 9.850860834121704102e-01
3.218000000000000000e+03 5.832642364501953125e+01 1.930046463012695312e+01 -4.574375748634338379e-01 8.913994789123535156e+00 2.536967277526855469e+00 -8.923203945159912109e-01
3.219000000000000000e+03 6.442522430419921875e+01 8.795145988464355469e+00 -5.196104049682617188e-01 7.807645797729492188e+00 2.186410665512084961e+00 -8.761003017425537109e-01
3.220000000000000000e+03 6.300726699829101562e+01 4.635279178619384766e+00 -5.390226840972900391e-01 7.593160629272460938e+00 2.116241455078125000e+00 -6.478571891784667969e-01
3.221000000000000000e+03 3.934973144531250000e+01 9.557915329933166504e-01 -2.514874637126922607e-01 3.393649101257324219e+00 9.426485300064086914e-01 4.924622178077697754e-01
3.222000000000000000e+03 6.062309265136718750e+01 1.820064735412597656e+01 -4.311027228832244873e-01 8.544577598571777344e+00 2.434042453765869141e+00 -1.093412041664123535e+00
3.223000000000000000e+03 6.351217269897460938e+01 8.555004000663757324e-01 -4.470774829387664795e-01 7.505490303039550781e+00 2.117523908615112305e+00 -5.396585464477539062e-01
3.224000000000000000e+03 3.873260879516601562e+01 8.065502166748046875e+00 -8.525059372186660767e-02 3.188506364822387695e+00 9.309767484664916992e-01 7.326874136924743652e-01
3.225000000000000000e+03 3.934866333007812500e+01 -5.290293216705322266e+00 -2.498180717229843140e-01 3.367418527603149414e+00 9.352800846099853516e-01 3.428128063678741455e-01
3.226000000000000000e+03 5.952165603637695312e+01 2.692829513549804688e+01 1.181148290634155273e+00 9.312980651855468750e+00 3.148238658905029297e+00 -1.249845862388610840e+00
3.227000000000000000e+03 6.253759384155273438e+01 1.628892326354980469e+01 -4.522599279880523682e-01 8.241944313049316406e+00 2.336905241012573242e+00 -1.144941687583923340e+00
3.228000000000000000e+03 6.339897537231445312e+01 1.453198051452636719e+01 -4.846585094928741455e-01 8.083237648010253906e+00 2.279573678970336914e+00 -1.112320065498352051e+00
3.229000000000000000e+03 6.042321395874023438e+01 2.252929687500000000e+01 1.390299052000045776e-01 8.924653053283691406e+00 2.719105005264282227e+00 -1.311817049980163574e+00
3.230000000000000000e+03 6.254309082031250000e+01 -1.596886730194091797e+01 -1.948402822017669678e-01 7.106097221374511719e+00 2.073377132415771484e+00 -1.626170724630355835e-01
3.231000000000000000e+03 3.766653442382812500e+01 4.464242935180664062e+00 -1.424234062433242798e-01 3.006894111633300781e+00 8.593412041664123535e-01 6.122545599937438965e-01
3.232000000000000000e+03 6.186090469360351562e+01 5.378158569335937500e+00 -5.885453224182128906e-01 7.553618431091308594e+00 2.089521884918212891e+00 -6.209855675697326660e-01
3.233000000000000000e+03 5.654109191894531250e+01 2.441915702819824219e+01 3.820122480392456055e-01 1.006530952453613281e+01 3.134196519851684570e+00 -1.032676577568054199e+00
3.234000000000000000e+03 6.197165679931640625e+01 -1.017363262176513672e+01 -2.788372337818145752e-01 7.089719772338867188e+00 2.043264627456665039e+00 -2.421470582485198975e-01
3.235000000000000000e+03 3.884164047241210938e+01 -7.692637443542480469e+00 -2.188085466623306274e-01 3.230577230453491211e+00 9.035306572914123535e-01 2.814966440200805664e-01
3.236000000000000000e+03 3.635944747924804688e+01 -6.658511161804199219e+00 -1.860107332468032837e-01 2.778736114501953125e+00 7.778176069259643555e-01 3.161790072917938232e-01
3.237000000000000000e+03 6.117636489868164062e+01 -1.363872337341308594e+01 -2.399795353412628174e-01 6.939972400665283203e+00 2.009997844696044922e+00 -1.810883432626724243e-01
3.238000000000000000e+03 3.653357696533203125e+01 -1.038734626770019531e+01 -1.675538718700408936e-01 2.758522510528564453e+00 7.772905826568603516e-01 2.504425048828125000e-01
3.239000000000000000e+03 3.763526535034179688e+01 -9.058069229125976562e+00 -1.929772794246673584e-01 3.007725238800048828e+00 8.444243669509887695e-01 2.668766081333160400e-01
3.240000000000000000e+03 3.231375122070312500e+01 -9.975012779235839844e+00 -9.957049787044525146e-02 1.973826050758361816e+00 5.622766613960266113e-01 2.415411323308944702e-01
3.241000000000000000e+03 3.333799362182617188e+01 -1.118322372436523438e+01 -1.118070632219314575e-01 2.196295261383056641e+00 6.253464818000793457e-01 2.176453620195388794e-01
3.242000000000000000e+03 6.002160263061523438e+01 -9.648671001195907593e-02 -5.254249572753906250e-01 7.142699241638183594e+00 1.985182285308837891e+00 -3.867606222629547119e-01
3.243000000000000000e+03 6.386695861816406250e+01 1.075414848327636719e+01 -5.376803874969482422e-01 7.889976024627685547e+00 2.205688714981079102e+00 -9.465408921241760254e-01
3.244000000000000000e+03 4.609783935546875000e+01 2.298762321472167969e+01 6.194159388542175293e-01 5.941938877105712891e+00 1.968406438827514648e+00 2.588032960891723633e+00
3.245000000000000000e+03 4.551275253295898438e+01 2.418724632263183594e+01 1.051781654357910156e+00 5.313915729522705078e+00 1.909709215164184570e+00 2.839066028594970703e+00
3.246000000000000000e+03 4.392300415039062500e+01 2.245868492126464844e+01 9.225767254829406738e-01 4.302402496337890625e+00 1.567493796348571777e+00 2.245998144149780273e+00
3.247000000000000000e+03 4.445517730712890625e+01 2.306145668029785156e+01 9.817740917205810547e-01 4.545081615447998047e+00 1.658056616783142090e+00 2.433320760726928711e+00
3.248000000000000000e+03 4.593360519409179688e+01 2.383712577819824219e+01 8.478156924247741699e-01 5.793951988220214844e+00 1.992530226707458496e+00 2.830605506896972656e+00
3.249000000000000000e+03 4.667757415771484375e+01 2.318527412414550781e+01 4.752531349658966064e-01 6.533916950225830078e+00 2.102751016616821289e+00 2.608864784240722656e+00
3.250000000000000000e+03 4.550919723510742188e+01 2.319610214233398438e+01 7.906786799430847168e-01 5.434837818145751953e+00 1.867654919624328613e+00 2.596365690231323242e+00
3.251000000000000000e+03 4.637422180175781250e+01 2.437293434143066406e+01 8.652285933494567871e-01 6.241425037384033203e+00 2.131996154785156250e+00 3.024787187576293945e+00
3.252000000000000000e+03 3.980220031738281250e+01 1.576104640960693359e+01 3.479555845260620117e-01 3.120603084564208984e+00 1.040567636489868164e+00 1.136830091476440430e+00
3.253000000000000000e+03 4.089308547973632812e+01 1.456542778015136719e+01 1.910841912031173706e-01 3.606659889221191406e+00 1.139323234558105469e+00 1.161309003829956055e+00
3.254000000000000000e+03 5.936795806884765625e+01 2.071029853820800781e+01 -2.088379859924316406e-01 8.966972351074218750e+00 2.627440214157104492e+00 -1.126325488090515137e+00
3.255000000000000000e+03 4.005591201782226562e+01 1.289578723907470703e+01 1.266639679670333862e-01 3.404061794281005859e+00 1.059217691421508789e+00 1.027986288070678711e+00
3.256000000000000000e+03 4.154570770263671875e+01 1.914703941345214844e+01 6.096449494361877441e-01 3.448362350463867188e+00 1.217402219772338867e+00 1.517553210258483887e+00
3.257000000000000000e+03 3.922972869873046875e+01 1.893443679809570312e+01 6.816864609718322754e-01 2.560483932495117188e+00 9.726511836051940918e-01 1.171096205711364746e+00
3.258000000000000000e+03 4.767506790161132812e+01 2.418015289306640625e+01 3.934473991394042969e-01 7.646191596984863281e+00 2.411891698837280273e+00 2.824495553970336914e+00
3.259000000000000000e+03 4.756416702270507812e+01 2.311209106445312500e+01 2.377732694149017334e-01 7.343345642089843750e+00 2.274335622787475586e+00 2.509945392608642578e+00
3.260000000000000000e+03 6.216302490234375000e+01 1.049264335632324219e+01 -6.253061294555664062e-01 7.871516227722167969e+00 2.173862934112548828e+00 -8.313916921615600586e-01
3.261000000000000000e+03 5.160723114013671875e+01 2.187871170043945312e+01 -5.374718308448791504e-01 9.414206504821777344e+00 2.663020372390747070e+00 8.330947160720825195e-01
3.262000000000000000e+03 5.394429016113281250e+01 2.200318527221679688e+01 -4.562836587429046631e-01 9.812690734863281250e+00 2.806922197341918945e+00 -6.816488504409790039e-02
3.263000000000000000e+03 3.915666580200195312e+01 2.255803346633911133e+00 -2.339926511049270630e-01 3.338044881820678711e+00 9.312156438827514648e-01 5.436515808105468750e-01
3.264000000000000000e+03 4.860423278808593750e+01 2.307111549377441406e+01 -4.673221707344055176e-02 8.271250724792480469e+00 2.467355489730834961e+00 2.236976623535156250e+00
3.265000000000000000e+03 4.913229751586914062e+01 2.235246658325195312e+01 -2.399949133396148682e-01 8.416641235351562500e+00 2.452993869781494141e+00 1.869191408157348633e+00
3.266000000000000000e+03 3.878210830688476562e+01 1.819153594970703125e+01 6.120302677154541016e-01 2.521677255630493164e+00 9.401122927665710449e-01 1.098556160926818848e+00
3.267000000000000000e+03 3.898666381835937500e+01 5.809928417205810547e+00 -1.569791585206985474e-01 3.308966875076293945e+00 9.455962777137756348e-01 6.622307896614074707e-01
3.268000000000000000e+03 3.771791076660156250e+01 5.668919563293457031e+00 -1.216758564114570618e-01 3.000704526901245117e+00 8.637085556983947754e-01 6.396581530570983887e-01
3.269000000000000000e+03 4.061264419555664062e+01 1.096307373046875000e+01 -3.790724650025367737e-02 3.690027475357055664e+00 1.095636010169982910e+00 9.233548045158386230e-01
3.270000000000000000e+03 4.134579849243164062e+01 1.233310699462890625e+01 -2.017483487725257874e-02 3.887138366699218750e+00 1.160089015960693359e+00 1.002726078033447266e+00
3.271000000000000000e+03 6.284458541870117188e+01 1.323007583618164062e+01 -5.517363548278808594e-01 8.032190322875976562e+00 2.244136095046997070e+00 -1.009988784790039062e+00
3.272000000000000000e+03 6.374643325805664062e+01 -1.049394011497497559e+00 -4.051625430583953857e-01 7.476607322692871094e+00 2.121433496475219727e+00 -4.846657216548919678e-01
3.273000000000000000e+03 3.940701675415039062e+01 1.078256988525390625e+01 1.749433204531669617e-02 3.307531833648681641e+00 9.975078701972961426e-01 8.767288327217102051e-01
3.274000000000000000e+03 3.950207138061523438e+01 1.197012519836425781e+01 8.839213848114013672e-02 3.244208574295043945e+00 9.997802376747131348e-01 9.275583624839782715e-01
3.275000000000000000e+03 4.143027496337890625e+01 2.031163978576660156e+01 7.816791534423828125e-01 3.242283105850219727e+00 1.207188725471496582e+00 1.580929636955261230e+00
3.276000000000000000e+03 4.198797225952148438e+01 2.087673187255859375e+01 8.250199556350708008e-01 3.371006727218627930e+00 1.258808016777038574e+00 1.702309608459472656e+00
3.277000000000000000e+03 5.438924407958984375e+01 2.105471038818359375e+01 -5.376405119895935059e-01 9.491063117980957031e+00 2.686026811599731445e+00 -1.581854969263076782e-01
3.278000000000000000e+03 5.900097274780273438e+01 2.197146606445312500e+01 -4.306184872984886169e-02 9.163154602050781250e+00 2.736027717590332031e+00 -1.165812492370605469e+00
3.279000000000000000e+03 5.971039962768554688e+01 2.545052909851074219e+01 7.979460954666137695e-01 9.224635124206542969e+00 3.006774425506591797e+00 -1.339601039886474609e+00
3.280000000000000000e+03 3.990776443481445312e+01 8.376632690429687500e+00 -1.229790970683097839e-01 3.502808094024658203e+00 1.013948678970336914e+00 7.739546298980712891e-01
3.281000000000000000e+03 3.807519912719726562e+01 1.050065231323242188e+01 5.267882719635963440e-02 2.944748878479003906e+00 8.992282748222351074e-01 8.146002888679504395e-01
3.282000000000000000e+03 5.945488739013671875e+01 1.823069953918457031e+01 -4.961018860340118408e-01 8.657835960388183594e+00 2.448520421981811523e+00 -9.809902310371398926e-01
3.283000000000000000e+03 3.893493652343750000e+01 6.951292514801025391e+00 -1.300888061523437500e-01 3.272209882736206055e+00 9.426363706588745117e-01 6.956604123115539551e-01
3.284000000000000000e+03 3.768343734741210938e+01 7.656405925750732422e+00 -5.513856559991836548e-02 2.935312032699584961e+00 8.640520572662353516e-01 7.038350105285644531e-01
3.285000000000000000e+03 6.246686172485351562e+01 1.574626207351684570e+00 -4.951675832271575928e-01 7.435741424560546875e+00 2.082172155380249023e+00 -5.270417332649230957e-01
3.286000000000000000e+03 6.142626571655273438e+01 1.677660751342773438e+01 -4.854837656021118164e-01 8.347682952880859375e+00 2.358659744262695312e+00 -1.086306810379028320e+00
3.287000000000000000e+03 6.210749816894531250e+01 1.491980838775634766e+01 -5.417895913124084473e-01 8.176399230957031250e+00 2.290382862091064453e+00 -1.042818307876586914e+00
3.288000000000000000e+03 3.996869277954101562e+01 -2.125272899866104126e-01 -2.732688784599304199e-01 3.548714876174926758e+00 9.826337695121765137e-01 4.549634754657745361e-01
3.289000000000000000e+03 6.161326980590820312e+01 -1.184476375579833984e+01 -2.605233192443847656e-01 7.015868186950683594e+00 2.026603460311889648e+00 -2.141819447278976440e-01
3.290000000000000000e+03 6.093019485473632812e+01 -4.335836887359619141e+00 -4.138668179512023926e-01 7.094129085540771484e+00 2.004078626632690430e+00 -3.287838697433471680e-01
3.291000000000000000e+03 6.167650604248046875e+01 -5.162196159362792969e+00 -3.794703781604766846e-01 7.162110805511474609e+00 2.034791946411132812e+00 -3.340353369712829590e-01
3.292000000000000000e+03 6.166101074218750000e+01 -6.968059062957763672e+00 -3.429105281829833984e-01 7.115974903106689453e+00 2.031919479370117188e+00 -2.970636785030364990e-01
3.293000000000000000e+03 3.837540054321289062e+01 1.741535377502441406e+01 5.368780493736267090e-01 2.498808860778808594e+00 9.107060432434082031e-01 1.024210929870605469e+00
3.294000000000000000e+03 6.098965835571289062e+01 4.195513725280761719e+00 -5.969063043594360352e-01 7.429936408996582031e+00 2.049909114837646484e+00 -5.382938981056213379e-01
3.295000000000000000e+03 4.017154693603515625e+01 -6.550405979156494141e+00 -2.632403671741485596e-01 3.524909496307373047e+00 9.785007238388061523e-01 3.029371500015258789e-01
3.296000000000000000e+03 6.158240890502929688e+01 7.236948490142822266e+00 -6.255887150764465332e-01 7.640103340148925781e+00 2.104354381561279297e+00 -6.677804589271545410e-01
3.297000000000000000e+03 6.074139022827148438e+01 6.114071846008300781e+00 -6.334583759307861328e-01 7.525334835052490234e+00 2.067562818527221680e+00 -5.835462212562561035e-01
3.298000000000000000e+03 6.614655303955078125e+01 -1.866451454162597656e+01 -1.192338392138481140e-01 7.604988098144531250e+00 2.245726346969604492e+00 -1.573830693960189819e-01
3.299000000000000000e+03 6.170977401733398438e+01 4.088723063468933105e-01 -4.934208989143371582e-01 7.330559730529785156e+00 2.051141738891601562e+00 -4.658455550670623779e-01
3.300000000000000000e+03 5.988102722167968750e+01 -7.424009323120117188e+00 -3.650978207588195801e-01 6.875786781311035156e+00 1.953206658363342285e+00 -2.453575432300567627e-01
3.301000000000000000e+03 5.984497070312500000e+01 -1.125410366058349609e+01 -2.914110124111175537e-01 6.788323402404785156e+00 1.949073791503906250e+00 -1.922016590833663940e-01
3.302000000000000000e+03 5.851802825927734375e+01 -1.698497772216796875e+01 -2.128749787807464600e-01 6.516552925109863281e+00 1.891103386878967285e+00 -1.152568385004997253e-01
3.303000000000000000e+03 6.074741744995117188e+01 -1.549089717864990234e+01 -2.189077883958816528e-01 6.861838817596435547e+00 1.992879271507263184e+00 -1.501806527376174927e-01
3.304000000000000000e+03 4.794179534912109375e+01 2.248609924316406250e+01 4.704374074935913086e-02 7.566828727722167969e+00 2.284161806106567383e+00 2.254272222518920898e+00
3.305000000000000000e+03 4.498638153076171875e+01 2.256132507324218750e+01 7.648957371711730957e-01 5.048708915710449219e+00 1.744081377983093262e+00 2.413977384567260742e+00
3.306000000000000000e+03 4.440557098388671875e+01 2.204952621459960938e+01 7.748518586158752441e-01 4.674017429351806641e+00 1.634660720825195312e+00 2.248969793319702148e+00
3.307000000000000000e+03 4.404738235473632812e+01 2.147101020812988281e+01 7.084772586822509766e-01 4.506997108459472656e+00 1.564642310142517090e+00 2.101972341537475586e+00
3.308000000000000000e+03 4.718904876708984375e+01 2.363129234313964844e+01 4.408754110336303711e-01 7.047152519226074219e+00 2.246408224105834961e+00 2.692114353179931641e+00
3.309000000000000000e+03 4.679055786132812500e+01 2.403755187988281250e+01 6.387268304824829102e-01 6.680934906005859375e+00 2.195898532867431641e+00 2.855096578598022461e+00
3.310000000000000000e+03 4.307495498657226562e+01 2.106476974487304688e+01 7.661796212196350098e-01 3.928719520568847656e+00 1.408469796180725098e+00 1.910175323486328125e+00
3.311000000000000000e+03 4.294152069091796875e+01 2.214205360412597656e+01 9.660378098487854004e-01 3.654667139053344727e+00 1.386211514472961426e+00 1.988128542900085449e+00
3.312000000000000000e+03 5.301452636718750000e+01 2.146263504028320312e+01 -5.596552491188049316e-01 9.551495552062988281e+00 2.697551965713500977e+00 2.959588468074798584e-01
3.313000000000000000e+03 4.953112792968750000e+01 2.142609405517578125e+01 -3.721302747726440430e-01 8.324934959411621094e+00 2.385841369628906250e+00 1.601787567138671875e+00
3.314000000000000000e+03 3.994049835205078125e+01 1.663255310058593750e+01 4.232146441936492920e-01 3.113558530807495117e+00 1.061031937599182129e+00 1.191415309906005859e+00
3.315000000000000000e+03 5.057884979248046875e+01 1.902188873291015625e+01 -5.922667384147644043e-01 8.024218559265136719e+00 2.229585409164428711e+00 1.015689373016357422e+00
3.316000000000000000e+03 5.613526153564453125e+01 1.963401603698730469e+01 -5.794318914413452148e-01 9.104739189147949219e+00 2.557592153549194336e+00 -5.142676234245300293e-01
3.317000000000000000e+03 5.940566253662109375e+01 1.592696571350097656e+01 -6.351770162582397461e-01 8.369571685791015625e+00 2.320318222045898438e+00 -8.408988118171691895e-01
3.318000000000000000e+03 4.170377731323242188e+01 1.781042098999023438e+01 4.509261250495910645e-01 3.691504955291748047e+00 1.242729306221008301e+00 1.483882427215576172e+00
3.319000000000000000e+03 5.836257934570312500e+01 2.293803024291992188e+01 1.076312139630317688e-01 9.378089904785156250e+00 2.845716238021850586e+00 -1.163919687271118164e+00
3.320000000000000000e+03 5.779672622680664062e+01 2.142087554931640625e+01 -2.232031971216201782e-01 9.288837432861328125e+00 2.719690322875976562e+00 -9.714047908782958984e-01
3.321000000000000000e+03 5.268879699707031250e+01 1.997562217712402344e+01 -6.700449585914611816e-01 8.952675819396972656e+00 2.484789133071899414e+00 4.150438606739044189e-01
3.322000000000000000e+03 4.086975097656250000e+01 9.834502220153808594e+00 -1.107011958956718445e-01 3.768615245819091797e+00 1.097374200820922852e+00 8.608191013336181641e-01
3.323000000000000000e+03 4.207403182983398438e+01 1.016399574279785156e+01 -1.621014624834060669e-01 4.128946781158447266e+00 1.190053701400756836e+00 8.826060295104980469e-01
3.324000000000000000e+03 5.573109054565429688e+01 2.056741905212402344e+01 -5.049378275871276855e-01 9.327866554260253906e+00 2.646878480911254883e+00 -4.916768670082092285e-01
3.325000000000000000e+03 6.109405899047851562e+01 -2.495528697967529297e+00 -4.525164961814880371e-01 7.170796394348144531e+00 2.015483856201171875e+00 -3.719863891601562500e-01
3.326000000000000000e+03 6.059531784057617188e+01 1.608960533142089844e+01 -5.651729106903076172e-01 8.343407630920410156e+00 2.333470582962036133e+00 -9.799091815948486328e-01
3.327000000000000000e+03 6.046776199340820312e+01 1.707849502563476562e+01 -5.201632976531982422e-01 8.463516235351562500e+00 2.383005857467651367e+00 -1.021215915679931641e+00
3.328000000000000000e+03 3.835857772827148438e+01 9.200161933898925781e+00 -2.182486839592456818e-02 3.058911561965942383e+00 9.111260175704956055e-01 7.746222615242004395e-01
3.329000000000000000e+03 6.216942977905273438e+01 1.216608333587646484e+01 -6.067942976951599121e-01 7.976651668548583984e+00 2.210957288742065430e+00 -9.083370566368103027e-01
3.330000000000000000e+03 3.994440078735351562e+01 1.840372467041015625e+01 6.092991232872009277e-01 2.900367975234985352e+00 1.052900075912475586e+00 1.275100588798522949e+00
3.331000000000000000e+03 4.111464691162109375e+01 1.846855926513671875e+01 5.536264777183532715e-01 3.362298727035522461e+00 1.174777507781982422e+00 1.422868490219116211e+00
3.332000000000000000e+03 5.531965255737304688e+01 2.152105522155761719e+01 -4.152726829051971436e-01 9.599030494689941406e+00 2.755127429962158203e+00 -4.535149633884429932e-01
3.333000000000000000e+03 5.351022338867187500e+01 2.054397201538085938e+01 -6.326878666877746582e-01 9.282403945922851562e+00 2.594914913177490234e+00 1.536973118782043457e-01
3.334000000000000000e+03 6.235555648803710938e+01 8.424764633178710938e+00 -6.063432693481445312e-01 7.745307445526123047e+00 2.141689300537109375e+00 -7.597332000732421875e-01
3.335000000000000000e+03 4.147700881958007812e+01 1.610135197639465332e+00 -3.119195997714996338e-01 3.911789655685424805e+00 1.079961061477661133e+00 4.995425343513488770e-01
3.336000000000000000e+03 4.037950897216796875e+01 2.532855272293090820e+00 -2.698807418346405029e-01 3.650651931762695312e+00 1.014231324195861816e+00 5.342056751251220703e-01
3.337000000000000000e+03 3.741579818725585938e+01 -1.184754753112792969e+01 -1.807214617729187012e-01 2.953396081924438477e+00 8.318024277687072754e-01 2.194406390190124512e-01
3.338000000000000000e+03 6.077982711791992188e+01 -6.241975784301757812e+00 -3.688456416130065918e-01 7.020306587219238281e+00 1.995438337326049805e+00 -2.882469892501831055e-01
3.339000000000000000e+03 5.826157379150390625e+01 -5.165525913238525391e+00 -4.388410151004791260e-01 6.724867343902587891e+00 1.885807871818542480e+00 -2.384176999330520630e-01
3.340000000000000000e+03 6.262204742431640625e+01 -4.167095184326171875e+00 -3.881343305110931396e-01 7.287016391754150391e+00 2.069664716720581055e+00 -3.721851706504821777e-01
3.341000000000000000e+03 6.289453887939453125e+01 -2.248588323593139648e+00 -4.114969074726104736e-01 7.367560386657714844e+00 2.086818933486938477e+00 -4.301718473434448242e-01
3.342000000000000000e+03 3.900719451904296875e+01 4.647053241729736328e+00 -1.811273694038391113e-01 3.318858623504638672e+00 9.413194060325622559e-01 6.193463206291198730e-01
3.343000000000000000e+03 3.905965805053710938e+01 3.470293998718261719e+00 -2.050268799066543579e-01 3.333726644515991211e+00 9.386099576950073242e-01 5.841603279113769531e-01
3.344000000000000000e+03 4.170199966430664062e+01 1.128249359130859375e+01 -8.692153543233871460e-02 4.018700122833251953e+00 1.179533481597900391e+00 9.486402869224548340e-01
3.345000000000000000e+03 4.237394332885742188e+01 -4.043748855590820312e+00 -3.208971023559570312e-01 4.021628856658935547e+00 1.110219478607177734e+00 3.237687945365905762e-01
3.346000000000000000e+03 4.343154907226562500e+01 -2.636283636093139648e+00 -3.595383465290069580e-01 4.262277603149414062e+00 1.170821785926818848e+00 3.357243835926055908e-01
3.347000000000000000e+03 4.193705368041992188e+01 1.287498623132705688e-01 -3.366792798042297363e-01 3.981952905654907227e+00 1.093582153320312500e+00 4.462135136127471924e-01
3.348000000000000000e+03 3.994979858398437500e+01 -2.401483297348022461e+00 -2.692670524120330811e-01 3.523274183273315430e+00 9.762021303176879883e-01 3.915184140205383301e-01
3.349000000000000000e+03 6.102297210693359375e+01 2.449425125122070312e+01 5.289781093597412109e-01 8.884284019470214844e+00 2.823978662490844727e+00 -1.367315649986267090e+00
3.350000000000000000e+03 5.967578125000000000e+01 6.877624034881591797e+00 -6.785822510719299316e-01 7.504369258880615234e+00 2.047736167907714844e+00 -5.332338809967041016e-01
3.351000000000000000e+03 6.134582901000976562e+01 2.272608757019042969e+00 -5.429241061210632324e-01 7.369089126586914062e+00 2.047849416732788086e+00 -5.032538771629333496e-01
3.352000000000000000e+03 6.213150024414062500e+01 -1.775735855102539062e+01 -1.661247611045837402e-01 7.042651176452636719e+00 2.062957763671875000e+00 -1.405947357416152954e-01
3.353000000000000000e+03 5.983509063720703125e+01 4.930832386016845703e+00 -6.426772475242614746e-01 7.384227752685546875e+00 2.022465229034423828e+00 -4.915596842765808105e-01
3.354000000000000000e+03 6.062836074829101562e+01 1.061408281326293945e+00 -5.368417501449584961e-01 7.249293804168701172e+00 2.013735532760620117e+00 -4.397159814834594727e-01
3.355000000000000000e+03 5.888256072998046875e+01 -8.743918418884277344e+00 -3.561277687549591064e-01 6.695521354675292969e+00 1.901818037033081055e+00 -1.979975104331970215e-01
3.356000000000000000e+03 5.935607910156250000e+01 -1.308101177215576172e+01 -2.750028371810913086e-01 6.681563377380371094e+00 1.921968102455139160e+00 -1.615435332059860229e-01
3.357000000000000000e+03 5.890283966064453125e+01 -1.500527667999267578e+01 -2.458418458700180054e-01 6.584172248840332031e+00 1.901499032974243164e+00 -1.355940103530883789e-01
3.358000000000000000e+03 4.641101455688476562e+01 2.153777694702148438e+01 2.816210687160491943e-01 6.176686286926269531e+00 1.937492132186889648e+00 2.224624633789062500e+00
3.359000000000000000e+03 4.636109161376953125e+01 2.355134010314941406e+01 6.722909808158874512e-01 6.186520099639892578e+00 2.057643413543701172e+00 2.762292623519897461e+00
3.360000000000000000e+03 4.969466781616210938e+01 2.044205856323242188e+01 -4.551911056041717529e-01 8.153274536132812500e+00 2.309425115585327148e+00 1.423694968223571777e+00
3.361000000000000000e+03 4.831251144409179688e+01 2.176314163208007812e+01 -1.231522113084793091e-01 7.624400138854980469e+00 2.250374317169189453e+00 2.004739522933959961e+00
3.362000000000000000e+03 4.467516708374023438e+01 2.151956367492675781e+01 6.231011152267456055e-01 4.905970096588134766e+00 1.658721327781677246e+00 2.183157682418823242e+00
3.363000000000000000e+03 4.749527740478515625e+01 2.122655677795410156e+01 -4.625931847840547562e-03 6.965349197387695312e+00 2.088217020034790039e+00 2.054387092590332031e+00
3.364000000000000000e+03 4.062591552734375000e+01 1.784733581542968750e+01 5.188971161842346191e-01 3.207226276397705078e+00 1.117836952209472656e+00 1.321077466011047363e+00
3.365000000000000000e+03 5.453396987915039062e+01 1.866644287109375000e+01 -7.159060835838317871e-01 8.816901206970214844e+00 2.430298566818237305e+00 -8.737713843584060669e-02
3.366000000000000000e+03 4.019633865356445312e+01 1.727378082275390625e+01 4.883214831352233887e-01 3.130868196487426758e+00 1.085756897926330566e+00 1.265960931777954102e+00
3.367000000000000000e+03 4.072834777832031250e+01 1.668451881408691406e+01 3.858298361301422119e-01 3.406927824020385742e+00 1.137827277183532715e+00 1.278477668762207031e+00
3.368000000000000000e+03 4.155186462402343750e+01 4.997306823730468750e+00 -2.772909700870513916e-01 3.967646121978759766e+00 1.107106566429138184e+00 6.217307448387145996e-01
3.369000000000000000e+03 4.360308837890625000e+01 1.813190841674804688e+01 3.049095273017883301e-01 4.487287044525146484e+00 1.437659025192260742e+00 1.615686416625976562e+00
3.370000000000000000e+03 4.250647735595703125e+01 2.147571182250976562e+01 8.805887103080749512e-01 3.534845352172851562e+00 1.324630260467529297e+00 1.832172036170959473e+00
3.371000000000000000e+03 4.291558074951171875e+01 1.321214485168457031e+01 -6.821055710315704346e-02 4.376598358154296875e+00 1.292516350746154785e+00 1.104917168617248535e+00
3.372000000000000000e+03 4.094931411743164062e+01 1.574259757995605469e+01 2.787562906742095947e-01 3.530246496200561523e+00 1.142700791358947754e+00 1.224548816680908203e+00
3.373000000000000000e+03 4.029080963134765625e+01 4.838699817657470703e+00 -2.247802615165710449e-01 3.640995979309082031e+00 1.024864673614501953e+00 6.298142671585083008e-01
3.374000000000000000e+03 5.734304046630859375e+01 2.238988685607910156e+01 -1.038450300693511963e-01 9.515417098999023438e+00 2.823471784591674805e+00 -9.724823832511901855e-01
3.375000000000000000e+03 5.938472747802734375e+01 1.706026458740234375e+01 -5.747471451759338379e-01 8.510467529296875000e+00 2.380716085433959961e+00 -9.064718484878540039e-01
3.376000000000000000e+03 6.077518081665039062e+01 1.498961067199707031e+01 -6.008601784706115723e-01 8.236474990844726562e+00 2.290684461593627930e+00 -9.441033005714416504e-01
3.377000000000000000e+03 6.070053100585937500e+01 1.381897830963134766e+01 -6.432269811630249023e-01 8.126676559448242188e+00 2.245034933090209961e+00 -8.758832216262817383e-01
3.378000000000000000e+03 4.102768707275390625e+01 -1.081084609031677246e+00 -3.091074228286743164e-01 3.772042274475097656e+00 1.038880467414855957e+00 4.210012555122375488e-01
3.379000000000000000e+03 4.251066589355468750e+01 1.346217513084411621e+00 -3.523373007774353027e-01 4.146552562713623047e+00 1.138264536857604980e+00 4.797685742378234863e-01
3.380000000000000000e+03 4.099500656127929688e+01 7.026122808456420898e-01 -3.084145188331604004e-01 3.791769504547119141e+00 1.045006513595581055e+00 4.851163029670715332e-01
3.381000000000000000e+03 4.100068283081054688e+01 1.340268039703369141e+01 9.308347851037979126e-02 3.719939708709716797e+00 1.143906950950622559e+00 1.092378854751586914e+00
3.382000000000000000e+03 5.402254104614257812e+01 1.961283302307128906e+01 -6.776416897773742676e-01 9.034118652343750000e+00 2.506942987442016602e+00 1.546326000243425369e-02
3.383000000000000000e+03 6.178759384155273438e+01 1.367315769195556641e+01 -5.939645767211914062e-01 8.093777656555175781e+00 2.249943733215332031e+00 -9.594155550003051758e-01
3.384000000000000000e+03 4.364228820800781250e+01 9.227260589599609375e+00 -2.981401383876800537e-01 4.613027095794677734e+00 1.294466137886047363e+00 8.211735486984252930e-01
3.385000000000000000e+03 6.194358062744140625e+01 -1.439383745193481445e+00 -4.523078501224517822e-01 7.294210910797119141e+00 2.052570819854736328e+00 -4.248764216899871826e-01
3.386000000000000000e+03 5.671280288696289062e+01 2.099249649047851562e+01 -3.802557587623596191e-01 9.350168228149414062e+00 2.690973758697509766e+00 -7.398632168769836426e-01
3.387000000000000000e+03 5.960887145996093750e+01 1.369856548309326172e+01 -6.959491968154907227e-01 8.131248474121093750e+00 2.230589628219604492e+00 -7.651394605636596680e-01
3.388000000000000000e+03 6.120007324218750000e+01 8.914279937744140625e+00 -6.564472913742065430e-01 7.739908218383789062e+00 2.125038146972656250e+00 -7.081649899482727051e-01
3.389000000000000000e+03 3.836296081542968750e+01 -1.369598674774169922e+01 -1.730683296918869019e-01 3.147600889205932617e+00 8.923597931861877441e-01 1.857495605945587158e-01
3.390000000000000000e+03 5.630902862548828125e+01 2.195291137695312500e+01 -2.609046101570129395e-01 9.604254722595214844e+00 2.803004980087280273e+00 -7.403463721275329590e-01
3.391000000000000000e+03 5.795410537719726562e+01 -2.310581207275390625e+00 -5.125468969345092773e-01 6.781173706054687500e+00 1.880588054656982422e+00 -2.539426386356353760e-01
3.392000000000000000e+03 6.050882720947265625e+01 7.901654720306396484e+00 -6.631130576133728027e-01 7.631221294403076172e+00 2.090432405471801758e+00 -6.243777871131896973e-01
3.393000000000000000e+03 5.775075912475585938e+01 -7.350469112396240234e+00 -3.946974575519561768e-01 6.580194473266601562e+00 1.855649113655090332e+00 -1.869593560695648193e-01
3.394000000000000000e+03 5.894684600830078125e+01 -6.366681575775146484e+00 -3.958738148212432861e-01 6.788612365722656250e+00 1.917821526527404785e+00 -2.384538799524307251e-01
3.395000000000000000e+03 6.345313644409179688e+01 -1.973768424987792969e+01 -1.367961168289184570e-01 7.214943885803222656e+00 2.123444318771362305e+00 -1.333467513322830200e-01
3.396000000000000000e+03 5.706264114379882812e+01 -1.447282505035400391e+01 -2.711324989795684814e-01 6.312778949737548828e+00 1.812493920326232910e+00 -1.117595583200454712e-01
3.397000000000000000e+03 5.945308303833007812e+01 1.609858870506286621e+00 -5.772151350975036621e-01 7.160307407379150391e+00 1.974927783012390137e+00 -3.972403109073638916e-01
3.398000000000000000e+03 6.482903289794921875e+01 -1.473890781402587891e+00 -3.688742816448211670e-01 7.558173656463623047e+00 2.156789779663085938e+00 -4.900799095630645752e-01
3.399000000000000000e+03 6.100279998779296875e+01 -7.095645070075988770e-01 -4.903323650360107422e-01 7.219530582427978516e+00 2.018759489059448242e+00 -4.109227955341339111e-01
3.400000000000000000e+03 5.447489547729492188e+01 -1.579041671752929688e+01 -2.530061900615692139e-01 5.882704257965087891e+00 1.688909411430358887e+00 -5.869762226939201355e-02
3.401000000000000000e+03 6.014703750610351562e+01 2.934867143630981445e+00 -5.872382521629333496e-01 7.288630485534667969e+00 2.010417699813842773e+00 -4.612970352172851562e-01
3.402000000000000000e+03 4.616357803344726562e+01 2.228994178771972656e+01 4.651142060756683350e-01 5.992991447448730469e+00 1.937431693077087402e+00 2.428324937820434570e+00
3.403000000000000000e+03 4.691861724853515625e+01 2.263623237609863281e+01 3.367476463317871094e-01 6.724981307983398438e+00 2.118518590927124023e+00 2.464250564575195312e+00
3.404000000000000000e+03 4.579309463500976562e+01 2.031653785705566406e+01 2.320445030927658081e-01 5.709871768951416016e+00 1.782574772834777832e+00 2.006630897521972656e+00
3.405000000000000000e+03 4.514440536499023438e+01 1.894932746887207031e+01 1.649473309516906738e-01 5.364414691925048828e+00 1.658808708190917969e+00 1.776392698287963867e+00
3.406000000000000000e+03 5.194534683227539062e+01 1.930002403259277344e+01 -6.912802457809448242e-01 8.621570587158203125e+00 2.379086971282958984e+00 6.248489022254943848e-01
3.407000000000000000e+03 4.231929397583007812e+01 1.816397285461425781e+01 4.433434009552001953e-01 3.863669157028198242e+00 1.292103767395019531e+00 1.523886799812316895e+00
3.408000000000000000e+03 5.127406692504882812e+01 2.002914428710937500e+01 -6.235846281051635742e-01 8.650691986083984375e+00 2.408132314682006836e+00 8.897542953491210938e-01
3.409000000000000000e+03 4.562486267089843750e+01 2.117130661010742188e+01 3.882780671119689941e-01 5.618938446044921875e+00 1.802164912223815918e+00 2.189396619796752930e+00
3.410000000000000000e+03 4.225802230834960938e+01 1.461304092407226562e+01 8.581265807151794434e-02 4.141269207000732422e+00 1.268124580383300781e+00 1.227257251739501953e+00
3.411000000000000000e+03 4.202016448974609375e+01 1.972635650634765625e+01 6.609821319580078125e-01 3.600322246551513672e+00 1.278391361236572266e+00 1.631900787353515625e+00
3.412000000000000000e+03 4.225231170654296875e+01 1.900161361694335938e+01 5.466270446777343750e-01 3.781554222106933594e+00 1.298454403877258301e+00 1.601424455642700195e+00
3.413000000000000000e+03 4.487838363647460938e+01 2.088129234313964844e+01 4.857040643692016602e-01 5.123608589172363281e+00 1.682793855667114258e+00 2.093134403228759766e+00
3.414000000000000000e+03 4.538603591918945312e+01 2.193039894104003906e+01 5.621343851089477539e-01 5.442353248596191406e+00 1.801346302032470703e+00 2.323241949081420898e+00
3.415000000000000000e+03 4.259310531616210938e+01 2.032084083557128906e+01 6.971451044082641602e-01 3.782270193099975586e+00 1.343824505805969238e+00 1.756190657615661621e+00
3.416000000000000000e+03 5.733342742919921875e+01 1.912730979919433594e+01 -5.388227105140686035e-01 8.967896461486816406e+00 2.528722047805786133e+00 -7.287428975105285645e-01
3.417000000000000000e+03 5.325521850585937500e+01 1.908842849731445312e+01 -7.197267413139343262e-01 8.802866935729980469e+00 2.424942016601562500e+00 2.412505149841308594e-01
3.418000000000000000e+03 5.656488800048828125e+01 1.871512031555175781e+01 -6.274950504302978516e-01 8.897615432739257812e+00 2.481036186218261719e+00 -5.428065657615661621e-01
3.419000000000000000e+03 5.484548950195312500e+01 2.010810279846191406e+01 -6.095666289329528809e-01 9.222354888916015625e+00 2.583836555480957031e+00 -2.289196699857711792e-01
3.420000000000000000e+03 4.274474716186523438e+01 2.579298019409179688e+00 -3.491140902042388916e-01 4.222177982330322266e+00 1.161919116973876953e+00 5.131344795227050781e-01
3.421000000000000000e+03 4.720085906982421875e+01 2.197340393066406250e+01 1.553307175636291504e-01 6.836475849151611328e+00 2.097542047500610352e+00 2.269515991210937500e+00
3.422000000000000000e+03 3.963708877563476562e+01 9.551605224609375000e+00 -6.105842813849449158e-02 3.409261465072631836e+00 1.004460930824279785e+00 8.227448463439941406e-01
3.423000000000000000e+03 4.022974014282226562e+01 6.015058994293212891e+00 -1.996556222438812256e-01 3.621242761611938477e+00 1.026476144790649414e+00 6.727207899093627930e-01
3.424000000000000000e+03 5.728701019287109375e+01 1.821368980407714844e+01 -6.203930974006652832e-01 8.785889625549316406e+00 2.449648857116699219e+00 -6.490588188171386719e-01
3.425000000000000000e+03 5.823518371582031250e+01 1.703606605529785156e+01 -6.422398686408996582e-01 8.554137229919433594e+00 2.373569250106811523e+00 -7.488747239112854004e-01
3.426000000000000000e+03 6.120026397705078125e+01 9.902664184570312500e+00 -6.544756889343261719e-01 7.806725502014160156e+00 2.145674943923950195e+00 -7.475184798240661621e-01
3.427000000000000000e+03 5.769853973388671875e+01 4.488286018371582031e+00 -6.758098602294921875e-01 7.142754554748535156e+00 1.940083503723144531e+00 -3.322185575962066650e-01
3.428000000000000000e+03 6.142525482177734375e+01 1.269519042968750000e+01 -6.319755911827087402e-01 8.022775650024414062e+00 2.217240095138549805e+00 -8.824039697647094727e-01
3.429000000000000000e+03 6.061188125610351562e+01 1.079230022430419922e+01 -6.790174245834350586e-01 7.862952709197998047e+00 2.155180692672729492e+00 -7.390299439430236816e-01
3.430000000000000000e+03 5.773598861694335938e+01 6.678046703338623047e+00 -7.187380194664001465e-01 7.324254989624023438e+00 1.981655001640319824e+00 -3.764234185218811035e-01
3.431000000000000000e+03 4.156368637084960938e+01 2.650680303573608398e+00 -3.116714060306549072e-01 3.953072071075439453e+00 1.092420220375061035e+00 5.355645418167114258e-01
3.432000000000000000e+03 6.032116699218750000e+01 9.424709320068359375e+00 -6.971724033355712891e-01 7.736809730529785156e+00 2.111891269683837891e+00 -6.519746780395507812e-01
3.433000000000000000e+03 5.953604125976562500e+01 8.654515266418457031e+00 -7.084481120109558105e-01 7.631020545959472656e+00 2.076771736145019531e+00 -5.714802742004394531e-01
3.434000000000000000e+03 4.373443222045898438e+01 1.004112362861633301e+00 -3.894347846508026123e-01 4.395130157470703125e+00 1.201708555221557617e+00 4.359455406665802002e-01
3.435000000000000000e+03 4.206665802001953125e+01 1.353758335113525391e+01 2.018622308969497681e-02 4.095978260040283203e+00 1.234849333763122559e+00 1.126768231391906738e+00
3.436000000000000000e+03 5.531177520751953125e+01 1.916996192932128906e+01 -6.527131199836730957e-01 8.989957809448242188e+00 2.501173257827758789e+00 -3.151175677776336670e-01
3.437000000000000000e+03 4.035824203491210938e+01 -4.420382499694824219e+00 -2.758200466632843018e-01 3.625693559646606445e+00 1.004962086677551270e+00 3.436732590198516846e-01
3.438000000000000000e+03 4.223191452026367188e+01 1.265286922454833984e+01 -5.842648819088935852e-02 4.141892910003662109e+00 1.225039839744567871e+00 1.052528500556945801e+00
3.439000000000000000e+03 6.028773117065429688e+01 -1.737905263900756836e+00 -4.850179255008697510e-01 7.106861114501953125e+00 1.986552953720092773e+00 -3.626246452331542969e-01
3.440000000000000000e+03 4.163885498046875000e+01 -1.318465805053710938e+01 -2.244195491075515747e-01 3.726289987564086914e+00 1.050561070442199707e+00 1.719636917114257812e-01
3.441000000000000000e+03 5.861399459838867188e+01 -3.359087944030761719e+00 -4.696707427501678467e-01 6.824623584747314453e+00 1.906485795974731445e+00 -2.727673947811126709e-01
3.442000000000000000e+03 5.587466812133789062e+01 -4.338016033172607422e+00 -4.812690913677215576e-01 6.420056819915771484e+00 1.781636238098144531e+00 -1.464363485574722290e-01
3.443000000000000000e+03 4.468487167358398438e+01 -8.573438644409179688e+00 -3.225758075714111328e-01 4.372344017028808594e+00 1.214930534362792969e+00 1.967860311269760132e-01
3.444000000000000000e+03 4.002037048339843750e+01 -9.121180534362792969e+00 -2.314923852682113647e-01 3.475141048431396484e+00 9.730945825576782227e-01 2.382355332374572754e-01
3.445000000000000000e+03 5.586358642578125000e+01 -1.188687324523925781e+01 -3.138441443443298340e-01 6.200689315795898438e+00 1.766053557395935059e+00 -1.022951677441596985e-01
3.446000000000000000e+03 5.757645034790039062e+01 -1.246665668487548828e+01 -2.956434190273284912e-01 6.428130149841308594e+00 1.839745998382568359e+00 -1.334178000688552856e-01
3.447000000000000000e+03 6.012883377075195312e+01 -1.936580276489257812e+01 -1.658902466297149658e-01 6.729918003082275391e+00 1.969208359718322754e+00 -1.089503020048141479e-01
3.448000000000000000e+03 5.829604721069335938e+01 -1.901890563964843750e+01 -1.881201714277267456e-01 6.464977264404296875e+00 1.883057117462158203e+00 -9.498336166143417358e-02
3.449000000000000000e+03 4.779087829589843750e+01 2.040328979492187500e+01 -1.275482326745986938e-01 7.004384517669677734e+00 2.063050985336303711e+00 1.841641545295715332e+00
3.450000000000000000e+03 4.226947402954101562e+01 1.589643478393554688e+01 1.889240294694900513e-01 4.070340156555175781e+00 1.277779221534729004e+00 1.324846744537353516e+00
3.451000000000000000e+03 5.082962799072265625e+01 1.761584281921386719e+01 -6.559576988220214844e-01 7.794846534729003906e+00 2.141666650772094727e+00 8.176389932632446289e-01
3.452000000000000000e+03 4.863191986083984375e+01 2.093377876281738281e+01 -2.547251284122467041e-01 7.663614273071289062e+00 2.222666740417480469e+00 1.777734398841857910e+00
3.453000000000000000e+03 4.665890884399414062e+01 2.073313331604003906e+01 1.153168901801109314e-01 6.312423706054687500e+00 1.928322196006774902e+00 2.039254426956176758e+00
3.454000000000000000e+03 5.254336929321289062e+01 1.853221893310546875e+01 -7.337718009948730469e-01 8.504865646362304688e+00 2.331328153610229492e+00 4.289302229881286621e-01
3.455000000000000000e+03 5.377791213989257812e+01 1.816032600402832031e+01 -7.559767961502075195e-01 8.626600265502929688e+00 2.361187219619750977e+00 1.010506823658943176e-01
3.456000000000000000e+03 4.133343887329101562e+01 7.438110351562500000e+00 -2.167396992444992065e-01 3.911628484725952148e+00 1.108466625213623047e+00 7.404941916465759277e-01
3.457000000000000000e+03 4.237506484985351562e+01 8.941102027893066406e+00 -2.256753891706466675e-01 4.206769466400146484e+00 1.194328188896179199e+00 8.219996094703674316e-01
3.458000000000000000e+03 5.429842376708984375e+01 1.714695739746093750e+01 -7.793807387351989746e-01 8.448130607604980469e+00 2.300624847412109375e+00 -2.008483372628688812e-02
3.459000000000000000e+03 5.769427108764648438e+01 8.706773757934570312e+00 -7.526189684867858887e-01 7.504615306854248047e+00 2.025598764419555664e+00 -4.112446308135986328e-01
3.460000000000000000e+03 5.671916580200195312e+01 5.570916652679443359e+00 -7.170719504356384277e-01 7.118603229522705078e+00 1.920459389686584473e+00 -2.644670009613037109e-01
3.461000000000000000e+03 6.010361862182617188e+01 1.166806221008300781e+01 -6.993163228034973145e-01 7.921875000000000000e+00 2.166767597198486328e+00 -7.260075211524963379e-01
3.462000000000000000e+03 5.950436019897460938e+01 1.481020641326904297e+01 -6.742435693740844727e-01 8.253312110900878906e+00 2.273720502853393555e+00 -7.961382865905761719e-01
3.463000000000000000e+03 4.372261428833007812e+01 2.073561096191406250e+01 6.389391422271728516e-01 4.358551025390625000e+00 1.499247074127197266e+00 1.959501862525939941e+00
3.464000000000000000e+03 4.295001220703125000e+01 1.822316741943359375e+01 3.718332350254058838e-01 4.223860263824462891e+00 1.378708004951477051e+00 1.590535402297973633e+00
3.465000000000000000e+03 5.592894363403320312e+01 1.718622779846191406e+01 -7.397370338439941406e-01 8.596961021423339844e+00 2.357167243957519531e+00 -3.619785904884338379e-01
3.466000000000000000e+03 4.277231979370117188e+01 5.096951007843017578e+00 -3.308968842029571533e-01 4.288223266601562500e+00 1.187197923660278320e+00 6.142132282257080078e-01
3.467000000000000000e+03 4.256604003906250000e+01 7.656235218048095703e+00 -2.784603536128997803e-01 4.274565696716308594e+00 1.198831677436828613e+00 7.506221532821655273e-01
3.468000000000000000e+03 5.820862579345703125e+01 1.582293415069580078e+01 -6.986750364303588867e-01 8.387155532836914062e+00 2.306544065475463867e+00 -6.861966848373413086e-01
3.469000000000000000e+03 4.326523971557617188e+01 1.058282661437988281e+01 -2.202814519405364990e-01 4.508143901824951172e+00 1.286358714103698730e+00 9.170171618461608887e-01
3.470000000000000000e+03 4.359734344482421875e+01 1.237483310699462891e+01 -1.614147275686264038e-01 4.588495254516601562e+00 1.328124165534973145e+00 1.061911582946777344e+00
3.471000000000000000e+03 4.997550964355468750e+01 1.963077545166015625e+01 -5.324310064315795898e-01 8.005191802978515625e+00 2.241828203201293945e+00 1.207397580146789551e+00
3.472000000000000000e+03 4.890559768676757812e+01 2.004446220397949219e+01 -3.609199523925781250e-01 7.656754016876220703e+00 2.188750267028808594e+00 1.551488757133483887e+00
3.473000000000000000e+03 4.396478271484375000e+01 2.443136453628540039e+00 -3.916260600090026855e-01 4.510991573333740234e+00 1.235809683799743652e+00 4.702084958553314209e-01
3.474000000000000000e+03 4.398609542846679688e+01 3.813321113586425781e+00 -3.957130014896392822e-01 4.562820911407470703e+00 1.250132322311401367e+00 5.255810618400573730e-01
3.475000000000000000e+03 5.969160079956054688e+01 1.025352859497070312e+01 -7.128121852874755859e-01 7.779201984405517578e+00 2.119916915893554688e+00 -6.359881162643432617e-01
3.476000000000000000e+03 4.430516052246093750e+01 1.128351497650146484e+01 -2.746977806091308594e-01 4.859908580780029297e+00 1.375563263893127441e+00 9.633021354675292969e-01
3.477000000000000000e+03 5.832460784912109375e+01 1.461886310577392578e+01 -7.313848733901977539e-01 8.234529495239257812e+00 2.250943422317504883e+00 -6.505998373031616211e-01
3.478000000000000000e+03 4.313692092895507812e+01 -4.486474692821502686e-01 -3.743408024311065674e-01 4.245065212249755859e+00 1.161217212677001953e+00 4.114135205745697021e-01
3.479000000000000000e+03 4.271358108520507812e+01 1.748972892761230469e+01 3.047301471233367920e-01 4.129986286163330078e+00 1.330414891242980957e+00 1.476197361946105957e+00
3.480000000000000000e+03 4.353379058837890625e+01 1.419594001770019531e+01 -5.271761491894721985e-02 4.611028194427490234e+00 1.367493152618408203e+00 1.205927014350891113e+00
3.481000000000000000e+03 5.776250839233398438e+01 -4.030869960784912109e+00 -4.658352434635162354e-01 6.705304622650146484e+00 1.871840834617614746e+00 -2.337785363197326660e-01
3.482000000000000000e+03 5.596191406250000000e+01 -5.983749866485595703e+00 -4.425693750381469727e-01 6.377435684204101562e+00 1.780459880828857422e+00 -1.402929425239562988e-01
3.483000000000000000e+03 4.133274459838867188e+01 -5.359761238098144531e+00 -2.946428954601287842e-01 3.796048641204833984e+00 1.050421714782714844e+00 3.110995888710021973e-01
3.484000000000000000e+03 4.344953536987304688e+01 -4.985793113708496094e+00 -3.379869461059570312e-01 4.214874267578125000e+00 1.163066267967224121e+00 2.817794978618621826e-01
3.485000000000000000e+03 6.101409530639648438e+01 -8.206005096435546875e+00 -3.356616795063018799e-01 6.995653629302978516e+00 1.997997641563415527e+00 -2.591756582260131836e-01
3.486000000000000000e+03 5.532146072387695312e+01 -1.382307529449462891e+01 -2.866405248641967773e-01 6.080980300903320312e+00 1.738301873207092285e+00 -8.232576400041580200e-02
3.487000000000000000e+03 5.951151657104492188e+01 -1.106220483779907227e+00 -5.144557356834411621e-01 7.038019180297851562e+00 1.957069039344787598e+00 -3.400253355503082275e-01
3.488000000000000000e+03 5.688692855834960938e+01 -4.365723133087158203e+00 -4.748204946517944336e-01 6.557408809661865234e+00 1.824776530265808105e+00 -1.820617318153381348e-01
3.489000000000000000e+03 4.302117156982421875e+01 1.905358505249023438e+01 4.789025783538818359e-01 4.158742904663085938e+00 1.391293644905090332e+00 1.673581600189208984e+00
3.490000000000000000e+03 4.999007797241210938e+01 1.792710113525390625e+01 -5.803507566452026367e-01 7.558862686157226562e+00 2.093553543090820312e+00 1.041309356689453125e+00
3.491000000000000000e+03 5.883097839355468750e+01 1.231809234619140625e+01 -7.444267868995666504e-01 7.947836399078369141e+00 2.161022901535034180e+00 -6.178128719329833984e-01
3.492000000000000000e+03 5.855045318603515625e+01 1.345390510559082031e+01 -7.471538782119750977e-01 8.087730407714843750e+00 2.202172994613647461e+00 -6.226283907890319824e-01
3.493000000000000000e+03 5.302403640747070312e+01 1.769619560241699219e+01 -7.617308497428894043e-01 8.397195816040039062e+00 2.290639400482177734e+00 2.794823348522186279e-01
3.494000000000000000e+03 5.570000839233398438e+01 1.585264205932617188e+01 -7.886227965354919434e-01 8.312064170837402344e+00 2.257032394409179688e+00 -2.808936238288879395e-01
3.495000000000000000e+03 4.427808380126953125e+01 1.533049297332763672e+01 -4.371416196227073669e-02 4.882715225219726562e+00 1.451700329780578613e+00 1.317550182342529297e+00
3.496000000000000000e+03 4.113220214843750000e+01 8.657865524291992188e+00 -1.723552197217941284e-01 3.857451200485229492e+00 1.105528712272644043e+00 7.988976240158081055e-01
3.497000000000000000e+03 4.146882247924804688e+01 6.209810733795166016e+00 -2.524198293685913086e-01 3.955925464630126953e+00 1.111051678657531738e+00 6.852024197578430176e-01
3.498000000000000000e+03 4.351442337036132812e+01 1.622370338439941406e+01 1.028157249093055725e-01 4.555920124053955078e+00 1.397620797157287598e+00 1.392478108406066895e+00
3.499000000000000000e+03 4.600420379638671875e+01 1.934500885009765625e+01 7.343643158674240112e-02 5.827167034149169922e+00 1.770180940628051758e+00 1.826105117797851562e+00
3.500000000000000000e+03 4.498257064819335938e+01 2.017592430114746094e+01 3.353393673896789551e-01 5.250060558319091797e+00 1.675620079040527344e+00 1.969260573387145996e+00
3.501000000000000000e+03 4.342084884643554688e+01 1.724998664855957031e+01 2.176702916622161865e-01 4.430816173553466797e+00 1.394545912742614746e+00 1.495167255401611328e+00
3.502000000000000000e+03 5.782078933715820312e+01 4.728468060493469238e-01 -5.804330110549926758e-01 6.895379066467285156e+00 1.894483923912048340e+00 -2.828625738620758057e-01
3.503000000000000000e+03 5.457504653930664062e+01 3.498496055603027344e+00 -6.654499173164367676e-01 6.684731483459472656e+00 1.805784463882446289e+00 -1.005843877792358398e-01
3.504000000000000000e+03 5.681626510620117188e+01 2.040557146072387695e+00 -6.315383911132812500e-01 6.883881092071533203e+00 1.875702857971191406e+00 -2.487068474292755127e-01
3.505000000000000000e+03 5.868516921997070312e+01 9.604222297668457031e+00 -7.456633448600769043e-01 7.664809226989746094e+00 2.075743675231933594e+00 -5.171742439270019531e-01
3.506000000000000000e+03 6.065326309204101562e+01 1.284307956695556641e+01 -6.640774011611938477e-01 8.041180610656738281e+00 2.213130950927734375e+00 -8.279544115066528320e-01
3.507000000000000000e+03 4.400230026245117188e+01 1.968767738342285156e+01 4.496230185031890869e-01 4.634047985076904297e+00 1.525101304054260254e+00 1.853176474571228027e+00
3.508000000000000000e+03 4.328387451171875000e+01 1.992147254943847656e+01 5.630061626434326172e-01 4.191880702972412109e+00 1.426466107368469238e+00 1.794070124626159668e+00
3.509000000000000000e+03 5.706032180786132812e+01 1.709236145019531250e+01 -6.979094743728637695e-01 8.584851264953613281e+00 2.366082668304443359e+00 -5.603722929954528809e-01
3.510000000000000000e+03 5.582112884521484375e+01 1.823573112487792969e+01 -6.912755966186523438e-01 8.816687583923339844e+00 2.437623500823974609e+00 -3.937791883945465088e-01
3.511000000000000000e+03 4.378677368164062500e+01 7.821040153503417969e+00 -3.427368700504302979e-01 4.605471134185791016e+00 1.278820276260375977e+00 7.257691621780395508e-01
3.512000000000000000e+03 4.270695877075195312e+01 1.172242546081542969e+01 -1.298519968986511230e-01 4.315580844879150391e+00 1.255718708038330078e+00 9.961199164390563965e-01
3.513000000000000000e+03 5.465473175048828125e+01 -7.735630989074707031e+00 -4.052495658397674561e-01 6.113146781921386719e+00 1.712369203567504883e+00 -8.994397521018981934e-02
3.514000000000000000e+03 5.713049316406250000e+01 -3.162518024444580078e+00 -4.986233115196228027e-01 6.647494792938232422e+00 1.844661474227905273e+00 -2.142372727394104004e-01
3.515000000000000000e+03 5.470718002319335938e+01 -4.224857330322265625e+00 -4.918954074382781982e-01 6.266984939575195312e+00 1.732526898384094238e+00 -1.008488088846206665e-01
3.516000000000000000e+03 5.763813781738281250e+01 -1.018207073211669922e+00 -5.384855866432189941e-01 6.804746150970458984e+00 1.879878163337707520e+00 -2.592903077602386475e-01
3.517000000000000000e+03 5.464606094360351562e+01 -5.950600147247314453e+00 -4.446647167205810547e-01 6.186636924743652344e+00 1.722591638565063477e+00 -9.439146518707275391e-02
3.518000000000000000e+03 5.452571487426757812e+01 -9.568490028381347656e+00 -3.771826028823852539e-01 6.036563873291015625e+00 1.697814345359802246e+00 -7.922968268394470215e-02
3.519000000000000000e+03 4.693287277221679688e+01 1.986027526855468750e+01 -3.292334079742431641e-02 6.434972763061523438e+00 1.920614838600158691e+00 1.869864344596862793e+00
3.520000000000000000e+03 4.528906250000000000e+01 1.712254905700683594e+01 -1.887639984488487244e-02 5.347775459289550781e+00 1.598669648170471191e+00 1.531456470489501953e+00
3.521000000000000000e+03 4.811415100097656250e+01 1.952937126159667969e+01 -2.586711049079895020e-01 7.054847717285156250e+00 2.038852930068969727e+00 1.629263401031494141e+00
3.522000000000000000e+03 4.922044372558593750e+01 1.916798973083496094e+01 -4.552669227123260498e-01 7.592784404754638672e+00 2.141255140304565430e+00 1.325081825256347656e+00
3.523000000000000000e+03 5.050663757324218750e+01 2.050464057922363281e+01 -5.432237982749938965e-01 8.515827178955078125e+00 2.391781091690063477e+00 1.133200526237487793e+00
3.524000000000000000e+03 5.129415512084960938e+01 1.849901199340820312e+01 -6.849977970123291016e-01 8.176301002502441406e+00 2.247390985488891602e+00 7.710785269737243652e-01
3.525000000000000000e+03 5.227724456787109375e+01 1.726359367370605469e+01 -7.605911493301391602e-01 8.136261940002441406e+00 2.212701320648193359e+00 4.489560723304748535e-01
3.526000000000000000e+03 4.375456237792968750e+01 1.893241691589355469e+01 3.753991127014160156e-01 4.571585178375244141e+00 1.484095335006713867e+00 1.740993738174438477e+00
3.527000000000000000e+03 4.444624710083007812e+01 1.322329807281494141e+01 -1.948996186256408691e-01 4.962387084960937500e+00 1.430246233940124512e+00 1.119373321533203125e+00
3.528000000000000000e+03 4.435063934326171875e+01 1.674250984191894531e+01 4.255798086524009705e-02 4.975091457366943359e+00 1.505294919013977051e+00 1.462801694869995117e+00
3.529000000000000000e+03 4.512928009033203125e+01 1.214249038696289062e+01 -3.141030073165893555e-01 5.165184020996093750e+00 1.455324292182922363e+00 9.862978458404541016e-01
3.530000000000000000e+03 5.664555740356445312e+01 9.551795005798339844e+00 -7.844262123107910156e-01 7.502821922302246094e+00 2.015518665313720703e+00 -3.179133236408233643e-01
3.531000000000000000e+03 5.677371597290039062e+01 7.616302490234375000e+00 -7.518297433853149414e-01 7.310778617858886719e+00 1.967684626579284668e+00 -2.969204485416412354e-01
3.532000000000000000e+03 5.714104080200195312e+01 1.435166645050048828e+01 -7.814828753471374512e-01 8.160205841064453125e+00 2.213616847991943359e+00 -4.694866836071014404e-01
3.533000000000000000e+03 5.696044921875000000e+01 1.571800136566162109e+01 -7.561382055282592773e-01 8.349799156188964844e+00 2.278098344802856445e+00 -4.899353682994842529e-01
3.534000000000000000e+03 5.056473922729492188e+01 1.679025268554687500e+01 -6.770107746124267578e-01 7.564000129699707031e+00 2.066096782684326172e+00 8.403764367103576660e-01
3.535000000000000000e+03 5.816909790039062500e+01 2.034226655960083008e+00 -6.113529205322265625e-01 7.034887790679931641e+00 1.927060484886169434e+00 -3.267009258270263672e-01
3.536000000000000000e+03 5.886470794677734375e+01 3.584985733032226562e+00 -6.339548826217651367e-01 7.199831008911132812e+00 1.969762802124023438e+00 -3.970768451690673828e-01
3.537000000000000000e+03 4.505936813354492188e+01 1.811010169982910156e+01 8.415696024894714355e-02 5.347725391387939453e+00 1.629564642906188965e+00 1.660736322402954102e+00
3.538000000000000000e+03 4.432033157348632812e+01 1.811760520935058594e+01 2.103883326053619385e-01 4.855906963348388672e+00 1.519888520240783691e+00 1.642374157905578613e+00
3.539000000000000000e+03 5.789520263671875000e+01 1.197922325134277344e+01 -7.746506333351135254e-01 7.878832817077636719e+00 2.131254673004150391e+00 -4.979435801506042480e-01
3.540000000000000000e+03 4.387817764282226562e+01 6.480294227600097656e+00 -3.670683801174163818e-01 4.604201793670654297e+00 1.271139979362487793e+00 6.633192896842956543e-01
3.541000000000000000e+03 4.279966354370117188e+01 3.828220129013061523e+00 -3.441852629184722900e-01 4.273426055908203125e+00 1.178772330284118652e+00 5.557255148887634277e-01
3.542000000000000000e+03 4.488046646118164062e+01 9.257750511169433594e+00 -3.696406185626983643e-01 4.941487312316894531e+00 1.371554017066955566e+00 7.950410842895507812e-01
3.543000000000000000e+03 4.526469802856445312e+01 2.378996849060058594e+00 -4.418259859085083008e-01 4.810280799865722656e+00 1.310536384582519531e+00 4.349679946899414062e-01
3.544000000000000000e+03 4.393527603149414062e+01 5.150257587432861328e+00 -3.863753080368041992e-01 4.595201492309570312e+00 1.262647867202758789e+00 5.897495150566101074e-01
3.545000000000000000e+03 5.338817214965820312e+01 1.680657768249511719e+01 -7.886652946472167969e-01 8.232670783996582031e+00 2.233201742172241211e+00 1.887633055448532104e-01
3.546000000000000000e+03 5.948805236816406250e+01 -2.619804382324218750e+00 -4.853821396827697754e-01 6.968502044677734375e+00 1.944935917854309082e+00 -3.094572424888610840e-01
3.547000000000000000e+03 5.887401962280273438e+01 -1.795502066612243652e+00 -5.077637434005737305e-01 6.929215431213378906e+00 1.926435589790344238e+00 -3.058253228664398193e-01
3.548000000000000000e+03 5.867774200439453125e+01 -8.585681915283203125e-01 -5.288040637969970703e-01 6.942566871643066406e+00 1.924128770828247070e+00 -3.096865713596343994e-01
3.549000000000000000e+03 5.626963806152343750e+01 -7.834051609039306641e+00 -3.977134525775909424e-01 6.364378929138183594e+00 1.789999604225158691e+00 -1.395783275365829468e-01
3.550000000000000000e+03 4.454349899291992188e+01 -3.550400495529174805e+00 -3.758924603462219238e-01 4.450146198272705078e+00 1.222276091575622559e+00 2.931293249130249023e-01
3.551000000000000000e+03 5.817405700683593750e+01 1.076380634307861328e+01 -7.644253969192504883e-01 7.738597393035888672e+00 2.092251539230346680e+00 -4.983817338943481445e-01
3.552000000000000000e+03 5.713043975830078125e+01 1.064825248718261719e+01 -7.858827710151672363e-01 7.656839847564697266e+00 2.061287164688110352e+00 -3.869043588638305664e-01
3.553000000000000000e+03 5.918900680541992188e+01 1.122961616516113281e+01 -7.311928272247314453e-01 7.849053859710693359e+00 2.135358333587646484e+00 -6.248164772987365723e-01
3.554000000000000000e+03 5.754253387451171875e+01 1.313277530670166016e+01 -7.822107076644897461e-01 7.997384548187255859e+00 2.164552211761474609e+00 -4.906079173088073730e-01
3.555000000000000000e+03 5.612552642822265625e+01 -2.739364862442016602e+00 -5.171019434928894043e-01 6.538190364837646484e+00 1.806326508522033691e+00 -1.723868548870086670e-01
3.556000000000000000e+03 5.491733551025390625e+01 -2.564816474914550781e+00 -5.284581780433654785e-01 6.365904808044433594e+00 1.751234054565429688e+00 -1.165297776460647583e-01
3.557000000000000000e+03 5.028597640991210938e+01 -8.979063987731933594e+00 -3.749917745590209961e-01 5.342670917510986328e+00 1.490303754806518555e+00 3.977448493242263794e-02
3.558000000000000000e+03 5.376771926879882812e+01 -1.309662055969238281e+01 -2.991133034229278564e-01 5.858236789703369141e+00 1.667737126350402832e+00 -6.539141386747360229e-02
3.559000000000000000e+03 4.470534896850585938e+01 1.947342872619628906e+01 3.038058280944824219e-01 5.120210170745849609e+00 1.627204775810241699e+00 1.863850593566894531e+00
3.560000000000000000e+03 4.770608901977539062e+01 1.792241859436035156e+01 -3.123964667320251465e-01 6.613425731658935547e+00 1.890308737754821777e+00 1.450864076614379883e+00
3.561000000000000000e+03 4.727590942382812500e+01 1.892708969116210938e+01 -1.711495071649551392e-01 6.491683006286621094e+00 1.896160006523132324e+00 1.679033041000366211e+00
3.562000000000000000e+03 4.647333908081054688e+01 1.500553035736083984e+01 -3.196611106395721436e-01 5.808547019958496094e+00 1.646665811538696289e+00 1.182696700096130371e+00
3.563000000000000000e+03 4.542967987060546875e+01 1.382079124450683594e+01 -2.552665770053863525e-01 5.322150230407714844e+00 1.520065069198608398e+00 1.133548378944396973e+00
3.564000000000000000e+03 4.912924194335937500e+01 1.817676734924316406e+01 -5.022698044776916504e-01 7.336232662200927734e+00 2.050188779830932617e+00 1.237634420394897461e+00
3.565000000000000000e+03 5.455548477172851562e+01 1.601056480407714844e+01 -8.052330017089843750e-01 8.254686355590820312e+00 2.234835863113403320e+00 -6.420186907052993774e-02
3.566000000000000000e+03 5.196075057983398438e+01 1.585583686828613281e+01 -7.670421004295349121e-01 7.771337509155273438e+00 2.101288795471191406e+00 4.734325408935546875e-01
3.567000000000000000e+03 5.255150985717773438e+01 1.648359298706054688e+01 -7.863471508026123047e-01 8.039732933044433594e+00 2.176015853881835938e+00 3.802714645862579346e-01
3.568000000000000000e+03 5.191684341430664062e+01 1.795591163635253906e+01 -7.260481119155883789e-01 8.244297981262207031e+00 2.255474805831909180e+00 5.737416744232177734e-01
3.569000000000000000e+03 5.565447616577148438e+01 1.197167587280273438e+01 -8.168096542358398438e-01 7.702628612518310547e+00 2.065745592117309570e+00 -2.107808291912078857e-01
3.570000000000000000e+03 5.526911544799804688e+01 1.454048824310302734e+01 -8.153967857360839844e-01 8.043836593627929688e+00 2.168532133102416992e+00 -1.910664290189743042e-01
3.571000000000000000e+03 5.561803817749023438e+01 4.530649185180664062e+00 -6.922484636306762695e-01 6.903027057647705078e+00 1.863233447074890137e+00 -1.771684288978576660e-01
3.572000000000000000e+03 5.560838317871093750e+01 1.757519125938415527e+00 -6.327719688415527344e-01 6.700221538543701172e+00 1.820234894752502441e+00 -1.632154434919357300e-01
3.573000000000000000e+03 5.560272598266601562e+01 1.028922557830810547e+01 -8.089677691459655762e-01 7.472364425659179688e+00 1.999019026756286621e+00 -1.949322968721389771e-01
3.574000000000000000e+03 5.582199859619140625e+01 8.489905357360839844e+00 -7.756062150001525879e-01 7.290482997894287109e+00 1.954463005065917969e+00 -2.164489030838012695e-01
3.575000000000000000e+03 4.525292587280273438e+01 1.034435939788818359e+01 -3.730691075325012207e-01 5.124810218811035156e+00 1.425522327423095703e+00 8.417546153068542480e-01
3.576000000000000000e+03 4.520560455322265625e+01 6.991372108459472656e-01 -4.358954727649688721e-01 4.732805728912353516e+00 1.289073109626770020e+00 3.773637115955352783e-01
3.577000000000000000e+03 4.630829620361328125e+01 4.017605781555175781e+00 -4.900001585483551025e-01 5.117863655090332031e+00 1.388359069824218750e+00 4.601776599884033203e-01
3.578000000000000000e+03 4.454335021972656250e+01 -1.062395691871643066e+00 -4.096643030643463135e-01 4.544960498809814453e+00 1.240588784217834473e+00 3.521305620670318604e-01
3.579000000000000000e+03 4.502480697631835938e+01 7.892745018005371094e+00 -4.088441133499145508e-01 4.945390224456787109e+00 1.360963821411132812e+00 7.123820185661315918e-01
3.580000000000000000e+03 5.579841995239257812e+01 6.541388988494873047e+00 -7.432258725166320801e-01 7.103849887847900391e+00 1.908187270164489746e+00 -1.970107406377792358e-01
3.581000000000000000e+03 5.468089294433593750e+01 5.466977596282958984e+00 -7.194007039070129395e-01 6.847713470458984375e+00 1.838493824005126953e+00 -9.483635425567626953e-02
3.582000000000000000e+03 5.518962478637695312e+01 -9.843339920043945312e-01 -5.648270249366760254e-01 6.485848903656005859e+00 1.776306629180908203e+00 -1.313339620828628540e-01
3.583000000000000000e+03 5.604596710205078125e+01 1.372754192352294922e+01 -8.116416335105895996e-01 7.993343830108642578e+00 2.154510736465454102e+00 -2.985719442367553711e-01
3.584000000000000000e+03 5.406177520751953125e+01 1.207968330383300781e+01 -8.125032186508178711e-01 7.483622550964355469e+00 2.001335859298706055e+00 7.786283269524574280e-03
3.585000000000000000e+03 5.495023727416992188e+01 7.463030815124511719e+00 -7.640734910964965820e-01 7.092300415039062500e+00 1.898468017578125000e+00 -1.231309399008750916e-01
3.586000000000000000e+03 5.245743179321289062e+01 -1.100668716430664062e+01 -3.394080996513366699e-01 5.651977062225341797e+00 1.593770742416381836e+00 -2.490587532520294189e-02
3.587000000000000000e+03 5.451829147338867188e+01 1.356806373596191406e+01 -8.189492225646972656e-01 7.758543968200683594e+00 2.081878423690795898e+00 -5.357075855135917664e-02
3.588000000000000000e+03 4.850689697265625000e+01 1.869968032836914062e+01 -3.870392441749572754e-01 7.114631652832031250e+00 2.018277645111083984e+00 1.434944629669189453e+00
3.589000000000000000e+03 4.590457916259765625e+01 1.708762168884277344e+01 -1.066614016890525818e-01 5.689507961273193359e+00 1.674854040145874023e+00 1.509261608123779297e+00
3.590000000000000000e+03 4.638471221923828125e+01 1.836918830871582031e+01 -7.616440951824188232e-02 6.011668682098388672e+00 1.780651211738586426e+00 1.652955770492553711e+00
3.591000000000000000e+03 4.566923904418945312e+01 1.780636596679687500e+01 -1.552030444145202637e-02 5.614780902862548828e+00 1.679778218269348145e+00 1.606687664985656738e+00
3.592000000000000000e+03 5.155988311767578125e+01 1.723831939697265625e+01 -7.264200448989868164e-01 7.955080032348632812e+00 2.168597936630249023e+00 6.242698431015014648e-01
3.593000000000000000e+03 5.270176315307617188e+01 1.569272518157958984e+01 -7.943876981735229492e-01 7.876837253570556641e+00 2.124734878540039062e+00 3.110846579074859619e-01
3.594000000000000000e+03 5.075403594970703125e+01 1.560754489898681641e+01 -7.002938985824584961e-01 7.351964950561523438e+00 1.995501399040222168e+00 7.019562721252441406e-01
3.595000000000000000e+03 5.436050796508789062e+01 1.492326927185058594e+01 -8.230755329132080078e-01 8.016988754272460938e+00 2.158174037933349609e+00 -2.136800996959209442e-02
3.596000000000000000e+03 5.508681106567382812e+01 1.284402370452880859e+01 -8.235718607902526855e-01 7.742478370666503906e+00 2.075671911239624023e+00 -1.384639292955398560e-01
3.597000000000000000e+03 4.638324737548828125e+01 1.402591896057128906e+01 -3.424379825592041016e-01 5.700702667236328125e+00 1.607479453086853027e+00 1.115457653999328613e+00
3.598000000000000000e+03 4.541089630126953125e+01 1.500572872161865234e+01 -1.957996636629104614e-01 5.350307464599609375e+00 1.546352267265319824e+00 1.254130363464355469e+00
3.599000000000000000e+03 5.357670211791992188e+01 1.590321063995361328e+01 -8.104303479194641113e-01 8.085687637329101562e+00 2.182577133178710938e+00 1.482644081115722656e-01
3.600000000000000000e+03 4.770388793945312500e+01 1.598350334167480469e+01 -4.053692221641540527e-01 6.383235931396484375e+00 1.793359994888305664e+00 1.193768858909606934e+00
3.601000000000000000e+03 5.481973648071289062e+01 9.315709114074707031e+00 -7.947157621383666992e-01 7.264035701751708984e+00 1.940796017646789551e+00 -1.042024269700050354e-01
3.602000000000000000e+03 5.265040206909179688e+01 5.943849086761474609e+00 -7.042366862297058105e-01 6.559860706329345703e+00 1.756687283515930176e+00 6.411458551883697510e-02
3.603000000000000000e+03 4.269179916381835938e+01 6.370930194854736328e+00 -3.110953569412231445e-01 4.285807132720947266e+00 1.192413568496704102e+00 6.717708706855773926e-01
3.604000000000000000e+03 4.504167938232421875e+01 6.517392635345458984e+00 -4.316965341567993164e-01 4.927529811859130859e+00 1.348749995231628418e+00 6.288027763366699219e-01
3.605000000000000000e+03 5.657973098754882812e+01 1.266068458557128906e+01 -8.011431694030761719e-01 7.883360862731933594e+00 2.124665260314941406e+00 -3.655488789081573486e-01
3.606000000000000000e+03 5.342446136474609375e+01 -4.025412082672119141e+00 -4.955170452594757080e-01 6.064636707305908203e+00 1.670735955238342285e+00 -4.747725278139114380e-02
3.607000000000000000e+03 4.578885269165039062e+01 -2.033766746520996094e+00 -4.275931119918823242e-01 4.764173984527587891e+00 1.300974249839782715e+00 2.960140109062194824e-01
3.608000000000000000e+03 4.813798141479492188e+01 3.261256933212280273e+00 -5.529698729515075684e-01 5.490877151489257812e+00 1.481372237205505371e+00 3.381295204162597656e-01
3.609000000000000000e+03 4.515068054199218750e+01 3.831963539123535156e+00 -4.387348294258117676e-01 4.832995891571044922e+00 1.318278312683105469e+00 4.906751513481140137e-01
3.610000000000000000e+03 5.215636444091796875e+01 8.346263885498046875e+00 -7.361711263656616211e-01 6.685991764068603516e+00 1.784946084022521973e+00 1.772416830062866211e-01
3.611000000000000000e+03 4.671209716796875000e+01 -3.285249948501586914e+00 -4.291875362396240234e-01 4.918055534362792969e+00 1.346660494804382324e+00 2.374571710824966431e-01
3.612000000000000000e+03 5.643730163574218750e+01 -1.104428052902221680e+00 -5.543744564056396484e-01 6.653105258941650391e+00 1.829619288444519043e+00 -2.008391171693801880e-01
3.613000000000000000e+03 4.890362548828125000e+01 1.672851562500000000e+00 -5.528002977371215820e-01 5.571730613708496094e+00 1.505679130554199219e+00 2.427076995372772217e-01
3.614000000000000000e+03 5.046291732788085938e+01 -1.330525588989257812e+01 -3.000126481056213379e-01 5.290358543395996094e+00 1.497103691101074219e+00 2.448928728699684143e-02
3.615000000000000000e+03 5.223274612426757812e+01 -1.281085395812988281e+01 -3.101646304130554199e-01 5.561353206634521484e+00 1.575356483459472656e+00 -1.175539102405309677e-02
3.616000000000000000e+03 4.236920166015625000e+01 -6.374453067779541016e+00 -3.088931441307067871e-01 3.977447509765625000e+00 1.100566267967224121e+00 2.789182662963867188e-01
3.617000000000000000e+03 4.453596115112304688e+01 -5.989772319793701172e+00 -3.471778035163879395e-01 4.398960113525390625e+00 1.215534687042236328e+00 2.389905154705047607e-01
3.618000000000000000e+03 4.966188430786132812e+01 1.366064357757568359e+01 -6.467941999435424805e-01 6.775765895843505859e+00 1.838691592216491699e+00 7.185121774673461914e-01
3.619000000000000000e+03 4.674651336669921875e+01 1.733918762207031250e+01 -2.068651914596557617e-01 6.106108665466308594e+00 1.769773006439208984e+00 1.451251268386840820e+00
3.620000000000000000e+03 5.389051437377929688e+01 1.406906318664550781e+01 -8.133935332298278809e-01 7.783352375030517578e+00 2.090987682342529297e+00 5.906839296221733093e-02
3.621000000000000000e+03 5.469847488403320312e+01 1.113887786865234375e+01 -8.117662072181701660e-01 7.454419612884521484e+00 1.992796063423156738e+00 -7.599452883005142212e-02
3.622000000000000000e+03 4.737865066528320312e+01 1.486091613769531250e+01 -4.131336510181427002e-01 6.129479408264160156e+00 1.714903712272644043e+00 1.101258277893066406e+00
3.623000000000000000e+03 4.985086441040039062e+01 1.690380096435546875e+01 -6.079061031341552734e-01 7.304168224334716797e+00 2.008878469467163086e+00 9.971054792404174805e-01
3.624000000000000000e+03 4.966254043579101562e+01 1.573953723907470703e+01 -6.113727092742919922e-01 7.087523460388183594e+00 1.942845225334167480e+00 8.836804628372192383e-01
3.625000000000000000e+03 4.574517822265625000e+01 1.613361358642578125e+01 -1.477854102849960327e-01 5.517967224121093750e+00 1.611054539680480957e+00 1.391182661056518555e+00
3.626000000000000000e+03 4.673128128051757812e+01 1.616038513183593750e+01 -2.905270755290985107e-01 6.007456302642822266e+00 1.715078830718994141e+00 1.301176786422729492e+00
3.627000000000000000e+03 5.628730773925781250e+01 1.114518356323242188e+01 -8.036823272705078125e-01 7.635711193084716797e+00 2.049608707427978516e+00 -2.855023443698883057e-01
3.628000000000000000e+03 4.716506576538085938e+01 1.388891315460205078e+01 -4.197727739810943604e-01 5.968141555786132812e+00 1.664510607719421387e+00 1.023823380470275879e+00
3.629000000000000000e+03 5.304454803466796875e+01 9.563372611999511719e+00 -7.729732990264892578e-01 6.969897270202636719e+00 1.859077095985412598e+00 1.150904074311256409e-01
3.630000000000000000e+03 4.600666427612304688e+01 5.213103294372558594e+00 -4.838182926177978516e-01 5.078768730163574219e+00 1.378485083580017090e+00 5.326843857765197754e-01
3.631000000000000000e+03 5.664354324340820312e+01 4.806461930274963379e-01 -5.853708982467651367e-01 6.769360542297363281e+00 1.855196833610534668e+00 -2.270552217960357666e-01
3.632000000000000000e+03 5.646973037719726562e+01 3.445733070373535156e+00 -6.608405709266662598e-01 6.929630756378173828e+00 1.880637049674987793e+00 -2.379580289125442505e-01
3.633000000000000000e+03 5.389448928833007812e+01 6.510635375976562500e+00 -7.343366146087646484e-01 6.814502239227294922e+00 1.824049592018127441e+00 -1.631051674485206604e-02
3.634000000000000000e+03 5.155949020385742188e+01 4.492501735687255859e+00 -6.613867878913879395e-01 6.258780002593994141e+00 1.679218053817749023e+00 1.261972188949584961e-01
3.635000000000000000e+03 4.668254089355468750e+01 2.603589534759521484e+00 -4.893972277641296387e-01 5.123041152954101562e+00 1.390093088150024414e+00 3.878622949123382568e-01
3.636000000000000000e+03 5.192049789428710938e+01 3.567557573318481445e+00 -6.385883688926696777e-01 6.282840728759765625e+00 1.693275690078735352e+00 8.382407575845718384e-02
3.637000000000000000e+03 4.710067749023437500e+01 1.250645351409912109e+01 -4.602603614330291748e-01 5.816971302032470703e+00 1.607013344764709473e+00 9.085986018180847168e-01
3.638000000000000000e+03 4.712932968139648438e+01 1.170409584045410156e+01 -4.746742546558380127e-01 5.747866153717041016e+00 1.581957459449768066e+00 8.295952677726745605e-01
3.639000000000000000e+03 4.931223678588867188e+01 -1.656861603260040283e-01 -5.339007377624511719e-01 5.558703422546386719e+00 1.507440805435180664e+00 1.865890026092529297e-01
3.640000000000000000e+03 4.624044799804687500e+01 8.087859153747558594e+00 -4.754919409751892090e-01 5.305670261383056641e+00 1.449053525924682617e+00 6.586865782737731934e-01
3.641000000000000000e+03 5.391598129272460938e+01 -7.938690185546875000e-01 -5.660741925239562988e-01 6.302494525909423828e+00 1.720926165580749512e+00 -6.466364860534667969e-02
3.642000000000000000e+03 5.042177581787109375e+01 -4.971692562103271484e+00 -4.494062066078186035e-01 5.506046772003173828e+00 1.516992092132568359e+00 7.050913572311401367e-02
3.643000000000000000e+03 4.603303909301757812e+01 9.359653472900390625e+00 -4.483887553215026855e-01 5.325918197631835938e+00 1.463258862495422363e+00 7.363782525062561035e-01
3.644000000000000000e+03 4.557849502563476562e+01 -4.571913242340087891e+00 -3.916339278221130371e-01 4.655585765838623047e+00 1.279185533523559570e+00 2.485842704772949219e-01
3.645000000000000000e+03 4.960976791381835938e+01 -3.223734855651855469e+00 -4.722852110862731934e-01 5.437626838684082031e+00 1.489602446556091309e+00 1.191596463322639465e-01
3.646000000000000000e+03 5.159893035888671875e+01 -7.260980129241943359e+00 -4.158189594745635986e-01 5.638861656188964844e+00 1.566912889480590820e+00 4.727405495941638947e-03
3.647000000000000000e+03 4.766019439697265625e+01 -9.881480216979980469e+00 -3.441519737243652344e-01 4.901067733764648438e+00 1.367074728012084961e+00 1.072284355759620667e-01
3.648000000000000000e+03 5.019892883300781250e+01 1.620666503906250000e+01 -6.427100896835327148e-01 7.268828392028808594e+00 1.987835407257080078e+00 8.603687286376953125e-01
3.649000000000000000e+03 4.795027923583984375e+01 1.259983825683593750e+01 -5.232560038566589355e-01 6.072634696960449219e+00 1.664813637733459473e+00 8.501049876213073730e-01
3.650000000000000000e+03 5.388885116577148438e+01 1.018489170074462891e+01 -8.036425113677978516e-01 7.215274333953857422e+00 1.923489570617675781e+00 2.323755994439125061e-02
3.651000000000000000e+03 5.161579895019531250e+01 1.030244350433349609e+01 -7.449775934219360352e-01 6.827235221862792969e+00 1.824677228927612305e+00 2.982962131500244141e-01
3.652000000000000000e+03 5.372297286987304688e+01 1.290083312988281250e+01 -8.207457065582275391e-01 7.542987823486328125e+00 2.016672611236572266e+00 7.004383206367492676e-02
3.653000000000000000e+03 5.282516479492187500e+01 1.494457149505615234e+01 -8.087273240089416504e-01 7.784869194030761719e+00 2.092842578887939453e+00 2.884413599967956543e-01
3.654000000000000000e+03 4.795058059692382812e+01 1.160675525665283203e+01 -5.500075817108154297e-01 5.996044158935546875e+00 1.633810877799987793e+00 7.551424503326416016e-01
3.655000000000000000e+03 4.909770202636718750e+01 1.641525077819824219e+01 -5.477204322814941406e-01 7.002773761749267578e+00 1.936516046524047852e+00 1.033466935157775879e+00
3.656000000000000000e+03 4.838155746459960938e+01 1.710557174682617188e+01 -4.426845014095306396e-01 6.805134296417236328e+00 1.908734917640686035e+00 1.231350064277648926e+00
3.657000000000000000e+03 5.464027786254882812e+01 1.850654721260070801e+00 -6.367952823638916016e-01 6.564100265502929688e+00 1.778191566467285156e+00 -1.019762456417083740e-01
3.658000000000000000e+03 5.262877273559570312e+01 4.660751819610595703e+00 -6.818009018898010254e-01 6.473888397216796875e+00 1.737626194953918457e+00 5.626570433378219604e-02
3.659000000000000000e+03 4.502561569213867188e+01 5.176345348358154297e+00 -4.392074644565582275e-01 4.860946178436279297e+00 1.326521635055541992e+00 5.499251484870910645e-01
3.660000000000000000e+03 4.904301071166992188e+01 1.427757263183593750e+01 -5.850187540054321289e-01 6.672555446624755859e+00 1.826261043548583984e+00 8.497081995010375977e-01
3.661000000000000000e+03 5.052855682373046875e+01 7.832726001739501953e+00 -6.838234066963195801e-01 6.339230060577392578e+00 1.696622014045715332e+00 3.242352008819580078e-01
3.662000000000000000e+03 4.679985427856445312e+01 5.548727989196777344e+00 -5.171855092048645020e-01 5.308320045471191406e+00 1.437340378761291504e+00 4.998780190944671631e-01
3.663000000000000000e+03 5.365463256835937500e+01 4.231159687042236328e+00 -6.765610575675964355e-01 6.596555709838867188e+00 1.775998473167419434e+00 -2.129941619932651520e-02
3.664000000000000000e+03 5.544198989868164062e+01 4.762982726097106934e-01 -5.962090492248535156e-01 6.610547065734863281e+00 1.804301381111145020e+00 -1.554213613271713257e-01
3.665000000000000000e+03 4.778456115722656250e+01 1.060986900329589844e+01 -5.495295524597167969e-01 5.912138462066650391e+00 1.608782649040222168e+00 6.870688796043395996e-01
3.666000000000000000e+03 4.667599487304687500e+01 7.070339202880859375e+00 -5.059255957603454590e-01 5.316903591156005859e+00 1.443293333053588867e+00 5.796371102333068848e-01
3.667000000000000000e+03 5.364889907836914062e+01 -2.356845617294311523e+00 -5.354345440864562988e-01 6.187306880950927734e+00 1.695561766624450684e+00 -5.339737981557846069e-02
3.668000000000000000e+03 5.324407577514648438e+01 -5.759662628173828125e+00 -4.507441818714141846e-01 5.968023300170898438e+00 1.655183792114257812e+00 -4.416954144835472107e-02
3.669000000000000000e+03 4.688754272460937500e+01 1.083583927154541016e+01 -4.784296154975891113e-01 5.579796314239501953e+00 1.530410051345825195e+00 7.889282107353210449e-01
3.670000000000000000e+03 4.802872848510742188e+01 -2.320034980773925781e+00 -4.680603444576263428e-01 5.194537162780761719e+00 1.417943120002746582e+00 2.026109397411346436e-01
3.671000000000000000e+03 4.854614257812500000e+01 -5.319121837615966797e+00 -4.214865863323211670e-01 5.194095134735107422e+00 1.431782603263854980e+00 1.283306181430816650e-01
3.672000000000000000e+03 4.661998367309570312e+01 -5.574547290802001953e+00 -3.962312638759613037e-01 4.828659534454345703e+00 1.329728484153747559e+00 2.017246931791305542e-01
3.673000000000000000e+03 4.595079803466796875e+01 1.124601364135742188e+01 -4.034087359905242920e-01 5.370753765106201172e+00 1.490203499794006348e+00 8.943856358528137207e-01
3.674000000000000000e+03 4.121932601928710938e+01 -7.733784675598144531e+00 -2.773669362068176270e-01 3.731929063796997070e+00 1.036368608474731445e+00 2.654378116130828857e-01
3.675000000000000000e+03 5.063708877563476562e+01 2.607015132904052734e+00 -6.044367551803588867e-01 5.945527553558349609e+00 1.602327227592468262e+00 1.735102385282516479e-01
3.676000000000000000e+03 5.336052322387695312e+01 7.564989089965820312e+00 -7.468293309211730957e-01 6.824406147003173828e+00 1.823273062705993652e+00 3.659189119935035706e-02
3.677000000000000000e+03 4.896408462524414062e+01 9.517739295959472656e+00 -6.205800175666809082e-01 6.103075504302978516e+00 1.644748687744140625e+00 5.451275706291198730e-01
3.678000000000000000e+03 4.959994506835937500e+01 -1.136074256896972656e+01 -3.307296335697174072e-01 5.207427978515625000e+00 1.463009476661682129e+00 5.385034158825874329e-02
3.679000000000000000e+03 5.101657485961914062e+01 -1.030156040191650391e+01 -3.473982512950897217e-01 5.448757171630859375e+00 1.530407667160034180e+00 1.503619085997343063e-02
3.680000000000000000e+03 4.853307723999023438e+01 1.552182292938232422e+01 -5.104796886444091797e-01 6.652113437652587891e+00 1.842490077018737793e+00 1.047959446907043457e+00
3.681000000000000000e+03 4.824799728393554688e+01 5.311851978302001953e+00 -5.698326230049133301e-01 5.602858066558837891e+00 1.509907603263854980e+00 4.034344553947448730e-01
3.682000000000000000e+03 5.371033096313476562e+01 2.322818279266357422e+00 -6.489808559417724609e-01 6.439296245574951172e+00 1.737094640731811523e+00 -2.925962768495082855e-02
3.683000000000000000e+03 4.729810714721679688e+01 7.881778717041015625e+00 -5.316982865333557129e-01 5.562674522399902344e+00 1.509292840957641602e+00 5.872895717620849609e-01
3.684000000000000000e+03 4.890947341918945312e+01 1.152397537231445312e+01 -6.175282001495361328e-01 6.266407012939453125e+00 1.694663643836975098e+00 6.812893748283386230e-01
3.685000000000000000e+03 5.285787963867187500e+01 1.058022499084472656e+01 -7.889393568038940430e-01 7.108332633972167969e+00 1.895817875862121582e+00 1.614673286676406860e-01
3.686000000000000000e+03 5.282887649536132812e+01 1.275754642486572266e+01 -8.058633804321289062e-01 7.382258892059326172e+00 1.972918748855590820e+00 2.187000513076782227e-01
3.687000000000000000e+03 4.712992477416992188e+01 9.835596084594726562e+00 -5.080105066299438477e-01 5.636765003204345703e+00 1.538626313209533691e+00 7.062464356422424316e-01
3.688000000000000000e+03 4.915232467651367188e+01 4.384263992309570312e+00 -5.951428413391113281e-01 5.758779525756835938e+00 1.549090981483459473e+00 3.104098439216613770e-01
3.689000000000000000e+03 4.966884994506835938e+01 7.065582275390625000e+00 -6.372237205505371094e-01 6.068061351776123047e+00 1.629251360893249512e+00 3.647924065589904785e-01
3.690000000000000000e+03 4.798672866821289062e+01 1.360943508148193359e+01 -5.046265125274658203e-01 6.214568614959716797e+00 1.712982654571533203e+00 9.274754524230957031e-01
3.691000000000000000e+03 4.891770172119140625e+01 1.255358028411865234e+01 -6.001936793327331543e-01 6.385768890380859375e+00 1.735672593116760254e+00 7.398284673690795898e-01
3.692000000000000000e+03 5.048412322998046875e+01 5.353083133697509766e+00 -6.517829298973083496e-01 6.109251022338867188e+00 1.637240409851074219e+00 2.570177912712097168e-01
3.693000000000000000e+03 5.274528884887695312e+01 2.901559829711914062e+00 -6.438297629356384277e-01 6.335333347320556641e+00 1.707451105117797852e+00 3.785863891243934631e-02
3.694000000000000000e+03 5.171146011352539062e+01 1.528873324394226074e+00 -6.042317152023315430e-01 6.050896644592285156e+00 1.633999586105346680e+00 8.483444154262542725e-02
3.695000000000000000e+03 5.203560638427734375e+01 9.302579879760742188e+00 -7.500205636024475098e-01 6.783784389495849609e+00 1.810129165649414062e+00 2.121082693338394165e-01
3.696000000000000000e+03 5.209972000122070312e+01 -3.751992225646972656e+00 -4.939433932304382324e-01 5.855290412902832031e+00 1.608404040336608887e+00 1.603506319224834442e-02
3.697000000000000000e+03 5.232039260864257812e+01 -2.097086429595947266e+00 -5.345690846443176270e-01 5.979035854339599609e+00 1.633340001106262207e+00 1.697135716676712036e-02
3.698000000000000000e+03 5.302590942382812500e+01 9.827814698219299316e-01 -6.022089123725891113e-01 6.249240398406982422e+00 1.694109439849853516e+00 -6.300866603851318359e-03
3.699000000000000000e+03 4.948990249633789062e+01 -1.851125478744506836e+00 -5.024412870407104492e-01 5.488145828247070312e+00 1.495711445808410645e+00 1.434971541166305542e-01
3.700000000000000000e+03 5.319980621337890625e+01 8.556888580322265625e+00 -7.638393640518188477e-01 6.905542373657226562e+00 1.842510938644409180e+00 7.289054989814758301e-02
3.701000000000000000e+03 4.234585189819335938e+01 -8.829903602600097656e+00 -2.798151671886444092e-01 3.940221786499023438e+00 1.098122000694274902e+00 2.331633716821670532e-01
3.702000000000000000e+03 4.758275222778320312e+01 -4.395368576049804688e+00 -4.278467893600463867e-01 5.045156955718994141e+00 1.385193109512329102e+00 1.804352849721908569e-01
3.703000000000000000e+03 4.348737716674804688e+01 -9.910014152526855469e+00 -2.827471494674682617e-01 4.143342494964599609e+00 1.158178567886352539e+00 1.931192725896835327e-01
3.704000000000000000e+03 4.390865325927734375e+01 -1.143804836273193359e+01 -2.874126732349395752e-01 4.185081005096435547e+00 1.169300436973571777e+00 1.668690443038940430e-01
3.705000000000000000e+03 4.689689636230468750e+01 -7.818932533264160156e+00 -3.761707544326782227e-01 4.818198680877685547e+00 1.332608342170715332e+00 1.622411161661148071e-01
3.706000000000000000e+03 4.820681381225585938e+01 1.457961750030517578e+01 -5.009351968765258789e-01 6.423550128936767578e+00 1.776784539222717285e+00 1.005730748176574707e+00
3.707000000000000000e+03 4.932105636596679688e+01 1.506431102752685547e+01 -5.989403128623962402e-01 6.885097980499267578e+00 1.885847330093383789e+00 8.714817166328430176e-01
3.708000000000000000e+03 5.142187118530273438e+01 1.488591289520263672e+01 -7.500974535942077637e-01 7.442497730255126953e+00 2.007719993591308594e+00 5.404690504074096680e-01
3.709000000000000000e+03 5.004283142089843750e+01 1.144255256652832031e+01 -6.848126649856567383e-01 6.587996006011962891e+00 1.770954966545104980e+00 5.362992882728576660e-01
3.710000000000000000e+03 5.008935165405273438e+01 1.505579185485839844e+01 -6.513581871986389160e-01 7.077364921569824219e+00 1.927801966667175293e+00 7.561295032501220703e-01
3.711000000000000000e+03 4.995609283447265625e+01 1.263658046722412109e+01 -6.767853498458862305e-01 6.721963405609130859e+00 1.813553333282470703e+00 6.141460537910461426e-01
3.712000000000000000e+03 5.210194396972656250e+01 1.336898899078369141e+01 -7.852551341056823730e-01 7.356503486633300781e+00 1.971374511718750000e+00 3.500417768955230713e-01
3.713000000000000000e+03 4.967282867431640625e+01 5.545006275177001953e+00 -6.242637038230895996e-01 5.966739177703857422e+00 1.602742671966552734e+00 3.126184940338134766e-01
3.714000000000000000e+03 5.057049179077148438e+01 9.588953971862792969e+00 -6.994560956954956055e-01 6.508745670318603516e+00 1.742786765098571777e+00 3.958328068256378174e-01
3.715000000000000000e+03 4.973669815063476562e+01 1.029669952392578125e+01 -6.678885221481323242e-01 6.416368007659912109e+00 1.724543809890747070e+00 5.042508244514465332e-01
3.716000000000000000e+03 5.356652069091796875e+01 1.508698558807373047e+01 -8.108918070793151855e-01 7.951320648193359375e+00 2.142128705978393555e+00 1.242013722658157349e-01
3.717000000000000000e+03 4.612379837036132812e+01 -9.470415115356445312e+00 -3.313222229480743408e-01 4.623941898345947266e+00 1.287785887718200684e+00 1.447334140539169312e-01
3.718000000000000000e+03 5.027553558349609375e+01 6.268314361572265625e+00 -6.592321395874023438e-01 6.133182525634765625e+00 1.642185211181640625e+00 3.043273091316223145e-01
3.719000000000000000e+03 5.147305297851562500e+01 5.634911537170410156e+00 -6.791411042213439941e-01 6.298021793365478516e+00 1.685664176940917969e+00 1.691978424787521362e-01
3.720000000000000000e+03 5.107065582275390625e+01 -1.235984042286872864e-01 -5.610905885696411133e-01 5.865607261657714844e+00 1.591354966163635254e+00 9.723075479269027710e-02
3.721000000000000000e+03 4.855979537963867188e+01 -3.518430471420288086e+00 -4.576140344142913818e-01 5.246561050415039062e+00 1.436684131622314453e+00 1.593578159809112549e-01
3.722000000000000000e+03 4.749039077758789062e+01 6.239761352539062500e+00 -5.434545278549194336e-01 5.478976249694824219e+00 1.480656504631042480e+00 4.964279830455780029e-01
3.723000000000000000e+03 5.424222564697265625e+01 6.284081935882568359e-01 -6.039140820503234863e-01 6.426922798156738281e+00 1.746902585029602051e+00 -7.293154299259185791e-02
3.724000000000000000e+03 5.178876113891601562e+01 -5.487331390380859375e+00 -4.504407048225402832e-01 5.719498157501220703e+00 1.580717206001281738e+00 1.181949302554130554e-02
3.725000000000000000e+03 4.962389373779296875e+01 -6.157195091247558594e+00 -4.164750874042510986e-01 5.347990036010742188e+00 1.479454517364501953e+00 7.964536547660827637e-02
3.726000000000000000e+03 5.257441329956054688e+01 -5.036164522171020508e-01 -5.692564249038696289e-01 6.112581729888916016e+00 1.662997603416442871e+00 9.575115516781806946e-03
3.727000000000000000e+03 5.227437591552734375e+01 7.207131862640380859e+00 -7.198395133018493652e-01 6.618932723999023438e+00 1.769727945327758789e+00 1.300489604473114014e-01
3.728000000000000000e+03 4.902016067504882812e+01 -9.614400863647460938e+00 -3.660488426685333252e-01 5.137176036834716797e+00 1.431338191032409668e+00 9.105989336967468262e-02
3.729000000000000000e+03 4.889935302734375000e+01 7.900704383850097656e+00 -6.080225110054016113e-01 5.963251590728759766e+00 1.606568813323974609e+00 4.454583525657653809e-01
3.730000000000000000e+03 4.817451477050781250e+01 7.059479713439941406e+00 -5.796207785606384277e-01 5.722321033477783203e+00 1.542810082435607910e+00 4.808637499809265137e-01
3.731000000000000000e+03 5.155025482177734375e+01 -8.899988174438476562e+00 -3.806378245353698730e-01 5.600817680358886719e+00 1.566053986549377441e+00 7.210602780105546117e-05
3.732000000000000000e+03 5.311610794067382812e+01 -7.499485969543457031e+00 -4.135826826095581055e-01 5.890148162841796875e+00 1.642969608306884766e+00 -3.520766273140907288e-02
3.733000000000000000e+03 4.764739227294921875e+01 -1.170132732391357422e+01 -3.097044825553894043e-01 4.862765312194824219e+00 1.365918278694152832e+00 9.608847647905349731e-02
3.734000000000000000e+03 5.278318023681640625e+01 1.174791717529296875e+01 -7.974939346313476562e-01 7.236728191375732422e+00 1.931770324707031250e+00 1.960103660821914673e-01
3.735000000000000000e+03 4.894426727294921875e+01 6.228563308715820312e+00 -6.068139672279357910e-01 5.840861320495605469e+00 1.570214271545410156e+00 3.777539134025573730e-01
3.736000000000000000e+03 5.110310745239257812e+01 1.294612789154052734e+01 -7.379581332206726074e-01 7.051502227783203125e+00 1.894063115119934082e+00 4.739868938922882080e-01
3.737000000000000000e+03 4.885719299316406250e+01 1.348411941528320312e+01 -5.817776322364807129e-01 6.470649719238281250e+00 1.766661643981933594e+00 8.072933554649353027e-01
3.738000000000000000e+03 4.972098159790039062e+01 8.697497367858886719e+00 -6.574883460998535156e-01 6.201272964477539062e+00 1.663135290145874023e+00 4.423997104167938232e-01
3.739000000000000000e+03 5.127842330932617188e+01 8.680992126464843750e+00 -7.220387458801269531e-01 6.578894615173339844e+00 1.757056713104248047e+00 2.717104554176330566e-01
3.740000000000000000e+03 4.930494689941406250e+01 -4.320558547973632812e+00 -4.532558619976043701e-01 5.341478347778320312e+00 1.466466665267944336e+00 1.197317093610763550e-01
3.741000000000000000e+03 4.771314620971679688e+01 -6.463967800140380859e+00 -3.952312767505645752e-01 4.991355895996093750e+00 1.378837347030639648e+00 1.507578492164611816e-01
3.742000000000000000e+03 4.817392349243164062e+01 -8.511011123657226562e+00 -3.862423300743103027e-01 5.011653423309326172e+00 1.387623310089111328e+00 1.146128848195075989e-01
3.743000000000000000e+03 4.567929458618164062e+01 -1.146461772918701172e+01 -2.991246581077575684e-01 4.492409706115722656e+00 1.257985472679138184e+00 1.346890479326248169e-01
3.744000000000000000e+03 4.897767639160156250e+01 -1.441963291168212891e+01 -2.722799479961395264e-01 5.023844718933105469e+00 1.425469398498535156e+00 5.753851681947708130e-02
3.745000000000000000e+03 4.735763931274414062e+01 -1.371770572662353516e+01 -2.791966199874877930e-01 4.780071258544921875e+00 1.350262403488159180e+00 8.874303847551345825e-02
3.746000000000000000e+03 5.035007476806640625e+01 4.094704151153564453e+00 -6.255451440811157227e-01 5.969902515411376953e+00 1.603307247161865234e+00 2.236276566982269287e-01
3.747000000000000000e+03 5.136029815673828125e+01 1.157288074493408203e+01 -7.489255070686340332e-01 6.921877384185791016e+00 1.851885557174682617e+00 3.776128888130187988e-01
3.748000000000000000e+03 4.541604995727539062e+01 -1.353086566925048828e+01 -2.643613219261169434e-01 4.422920227050781250e+00 1.247567653656005859e+00 1.198310628533363342e-01
3.749000000000000000e+03 4.886767196655273438e+01 -7.257132530212402344e+00 -3.967163562774658203e-01 5.154253959655761719e+00 1.427261233329772949e+00 1.024010106921195984e-01
3.750000000000000000e+03 4.245479965209960938e+01 -1.122960758209228516e+01 -2.652492821216583252e-01 3.894994020462036133e+00 1.088923454284667969e+00 1.924549788236618042e-01
3.751000000000000000e+03 4.838626861572265625e+01 -1.594699001312255859e+01 -2.490066736936569214e-01 4.862080097198486328e+00 1.383922100067138672e+00 6.522992998361587524e-02
3.752000000000000000e+03 6.178578186035156250e+01 -2.171599960327148438e+01 -1.333783566951751709e-01 6.948372840881347656e+00 2.044498443603515625e+00 -1.004836335778236389e-01
3.753000000000000000e+03 6.391885757446289062e+01 -2.376272583007812500e+01 -1.149754002690315247e-01 7.276442527770996094e+00 2.148440122604370117e+00 -1.063562184572219849e-01
3.754000000000000000e+03 6.720276641845703125e+01 3.085009574890136719e+01 7.696259021759033203e-01 7.438069820404052734e+00 2.462308883666992188e+00 -7.905830144882202148e-01
3.755000000000000000e+03 6.393689346313476562e+01 3.117929077148437500e+01 1.168539643287658691e+00 8.266088485717773438e+00 2.830388307571411133e+00 -7.157226204872131348e-01
3.756000000000000000e+03 6.646633911132812500e+01 -2.526943778991699219e+01 -7.257945835590362549e-02 7.710057735443115234e+00 2.291243553161621094e+00 -7.522439956665039062e-02
3.757000000000000000e+03 4.999322128295898438e+01 -1.751699256896972656e+01 -2.307753860950469971e-01 5.136528968811035156e+00 1.471726059913635254e+00 3.017222136259078979e-02
3.758000000000000000e+03 5.632610321044921875e+01 -1.876656532287597656e+01 -2.029784917831420898e-01 6.145267963409423828e+00 1.782686948776245117e+00 -8.279769867658615112e-02
3.759000000000000000e+03 4.121478271484375000e+01 -1.034314060211181641e+01 -2.437607198953628540e-01 3.713944673538208008e+00 1.041055202484130859e+00 2.159081250429153442e-01
3.760000000000000000e+03 4.122944641113281250e+01 -1.565115261077880859e+01 -1.932027339935302734e-01 3.646672487258911133e+00 1.036040902137756348e+00 1.521354019641876221e-01
3.761000000000000000e+03 4.353470993041992188e+01 -1.344052314758300781e+01 -2.414556443691253662e-01 4.100109577178955078e+00 1.157596230506896973e+00 1.436063647270202637e-01
3.762000000000000000e+03 6.835577392578125000e+01 3.421967697143554688e+01 6.224009394645690918e-01 7.205488204956054688e+00 2.348366737365722656e+00 -4.306995570659637451e-01
3.763000000000000000e+03 6.769502258300781250e+01 -3.404383468627929688e+01 -3.564837947487831116e-02 7.887038707733154297e+00 2.355417013168334961e+00 -1.255621854215860367e-02
3.764000000000000000e+03 2.660040092468261719e+01 -3.207240295410156250e+01 -3.010360524058341980e-02 1.142099261283874512e+00 3.335986733436584473e-01 4.561918973922729492e-02
3.765000000000000000e+03 2.897412681579589844e+01 -3.320534896850585938e+01 -4.096958041191101074e-02 1.521018624305725098e+00 4.440146982669830322e-01 4.004760086536407471e-02
3.766000000000000000e+03 2.979334640502929688e+01 -2.795020675659179688e+01 -2.815964445471763611e-02 1.621956348419189453e+00 4.781390130519866943e-01 6.544629484415054321e-02
3.767000000000000000e+03 3.298870086669921875e+01 -2.611156272888183594e+01 -4.975732788443565369e-02 2.163111209869384766e+00 6.340062022209167480e-01 7.021199166774749756e-02
3.768000000000000000e+03 2.071011543273925781e+01 -3.726202011108398438e+01 -3.836469724774360657e-02 1.588516533374786377e-01 3.614608570933341980e-02 -1.746426150202751160e-02
3.769000000000000000e+03 5.292769241333007812e+01 -1.445504856109619141e+01 -2.845409512519836426e-01 5.638619899749755859e+00 1.606223583221435547e+00 -2.805766277015209198e-02
3.770000000000000000e+03 6.758497714996337891e+00 -3.659029388427734375e+01 5.554525996558368206e-04 -2.504299627617001534e-03 -5.846541607752442360e-04 2.046226290985941887e-03
3.771000000000000000e+03 2.407223701477050781e+01 -3.486180114746093750e+01 -2.550065889954566956e-02 7.163724303245544434e-01 2.072615325450897217e-01 7.007429376244544983e-03
3.772000000000000000e+03 2.721279144287109375e+01 -2.245365905761718750e+01 -3.541304916143417358e-02 1.176642775535583496e+00 3.423689305782318115e-01 5.574738979339599609e-02
3.773000000000000000e+03 1.849258232116699219e+01 -3.910214233398437500e+01 -7.254396378993988037e-02 -5.207545310258865356e-02 -3.738582506775856018e-02 -3.033985383808612823e-02
3.774000000000000000e+03 4.001009368896484375e+01 -1.215620422363281250e+01 -2.168470919132232666e-01 3.446701765060424805e+00 9.689563512802124023e-01 1.982863098382949829e-01
3.775000000000000000e+03 5.137927246093750000e+01 -1.525676822662353516e+01 -2.606253325939178467e-01 5.409787654876708984e+00 1.544748663902282715e+00 -1.081347186118364334e-02
3.776000000000000000e+03 7.601078796386718750e+01 -3.636957931518554688e+01 -4.087092354893684387e-02 9.343504905700683594e+00 2.790790081024169922e+00 -8.612330420874059200e-04
3.777000000000000000e+03 3.726500320434570312e+01 -1.913853645324707031e+01 -1.213646233081817627e-01 2.920753002166748047e+00 8.398165106773376465e-01 1.206386238336563110e-01
3.778000000000000000e+03 3.497948837280273438e+01 -1.742261505126953125e+01 -1.063890904188156128e-01 2.491504669189453125e+00 7.155346870422363281e-01 1.519182920455932617e-01
3.779000000000000000e+03 6.688539123535156250e+01 -3.692885971069335938e+01 -2.808327414095401764e-02 7.739043235778808594e+00 2.313287973403930664e+00 -1.382487080991268158e-02
3.780000000000000000e+03 4.675878524780273438e+01 4.141199111938476562e+01 -2.773260176181793213e-01 7.006008148193359375e+00 2.018604516983032227e+00 -4.243981838226318359e-01
3.781000000000000000e+03 5.417461776733398438e+01 3.867825317382812500e+01 -6.135597229003906250e-01 1.271082401275634766e+01 3.629179239273071289e+00 8.924255371093750000e-01
3.782000000000000000e+03 5.721651077270507812e+01 3.614497375488281250e+01 1.285964250564575195e+00 1.098944473266601562e+01 3.682622671127319336e+00 1.094510197639465332e+00
3.783000000000000000e+03 6.142893981933593750e+01 3.766557693481445312e+01 7.285653948783874512e-01 9.622358322143554688e+00 3.105277061462402344e+00 3.254113197326660156e-01
3.784000000000000000e+03 6.150436401367187500e+00 -3.851441955566406250e+01 -2.197586931288242340e-03 -7.649548351764678955e-04 -8.887625299394130707e-04 1.349671510979533195e-03
3.785000000000000000e+03 5.647887420654296875e+01 -3.739980697631835938e+01 -6.398514658212661743e-02 6.068511962890625000e+00 1.801358103752136230e+00 -2.342233806848526001e-02
3.786000000000000000e+03 3.871313095092773438e+01 -3.686275100708007812e+01 -4.167392849922180176e-02 3.103053569793701172e+00 9.184138774871826172e-01 2.937890775501728058e-02
3.787000000000000000e+03 2.795648002624511719e+01 -4.112310791015625000e+01 -1.971309073269367218e-03 1.337631106376647949e+00 4.006979465484619141e-01 4.501305986195802689e-03
3.788000000000000000e+03 6.349507141113281250e+01 -3.482261657714843750e+01 -4.950049892067909241e-02 7.232254505157470703e+00 2.154826164245605469e+00 -3.005350567400455475e-02
3.789000000000000000e+03 7.167646789550781250e+01 -4.078564834594726562e+01 -1.940869027748703957e-03 8.587816238403320312e+00 2.575762748718261719e+00 -1.211105659604072571e-02
3.790000000000000000e+03 6.427911376953125000e+01 3.559074783325195312e+01 8.534184694290161133e-01 8.480106353759765625e+00 2.800057411193847656e+00 -1.492867171764373779e-01
3.791000000000000000e+03 6.754750061035156250e+01 3.719165039062500000e+01 5.125083923339843750e-01 7.613728523254394531e+00 2.437871217727661133e+00 -1.846989691257476807e-01
3.792000000000000000e+03 3.247274398803710938e+01 -3.779702758789062500e+01 -1.681645959615707397e-02 2.129588127136230469e+00 6.338315010070800781e-01 2.388737909495830536e-02
3.793000000000000000e+03 7.866827487945556641e+00 4.131533813476562500e+01 6.363641296047717333e-05 -1.022618380375206470e-04 -1.158762916020350531e-05 -9.072638349607586861e-04
3.794000000000000000e+03 4.686512374877929688e+01 -1.570179557800292969e+01 -2.349219918251037598e-01 4.650650024414062500e+00 1.324718475341796875e+00 8.253477513790130615e-02
3.795000000000000000e+03 5.196189498901367188e+01 -1.876169776916503906e+01 -2.170398682355880737e-01 5.442957878112792969e+00 1.567775368690490723e+00 -2.249072492122650146e-02
3.796000000000000000e+03 5.475938796997070312e+01 -2.382869529724121094e+01 -1.635641306638717651e-01 5.801987171173095703e+00 1.691526889801025391e+00 -3.509518876671791077e-02
3.797000000000000000e+03 5.812910842895507812e+01 -2.111090087890625000e+01 -1.724722534418106079e-01 6.410702228546142578e+00 1.871469020843505859e+00 -7.497169077396392822e-02
3.798000000000000000e+03 3.574304199218750000e+01 -2.251228523254394531e+01 -9.176838397979736328e-02 2.631094217300415039e+00 7.617977261543273926e-01 9.750120341777801514e-02
3.799000000000000000e+03 3.332870483398437500e+01 -2.325926399230957031e+01 -6.335094571113586426e-02 2.232660770416259766e+00 6.507929563522338867e-01 8.219173550605773926e-02
3.800000000000000000e+03 3.165543365478515625e+01 -3.228389358520507812e+01 -3.955595195293426514e-02 1.941419839859008789e+00 5.705592036247253418e-01 5.002024024724960327e-02
3.801000000000000000e+03 3.195183181762695312e+01 -2.858288002014160156e+01 -3.516630828380584717e-02 1.985918402671813965e+00 5.852256417274475098e-01 7.111851125955581665e-02
3.802000000000000000e+03 6.198071670532226562e+01 -2.697339439392089844e+01 -9.676141291856765747e-02 6.951704978942871094e+00 2.056483030319213867e+00 -8.413862437009811401e-02
3.803000000000000000e+03 4.512379455566406250e+01 -1.556296634674072266e+01 -2.290541976690292358e-01 4.372355461120605469e+00 1.242990374565124512e+00 1.050448045134544373e-01
3.804000000000000000e+03 6.314577865600585938e+01 -2.989804649353027344e+01 -6.085889041423797607e-02 7.158911228179931641e+00 2.129415750503540039e+00 -6.218122318387031555e-02
3.805000000000000000e+03 2.522940063476562500e+01 -3.308857727050781250e+01 -1.000691577792167664e-02 9.224276542663574219e-01 2.737262248992919922e-01 -3.453841898590326309e-03
3.806000000000000000e+03 3.934974288940429688e+01 -1.859192466735839844e+01 -1.388962864875793457e-01 3.313564300537109375e+00 9.524003863334655762e-01 1.200639009475708008e-01
3.807000000000000000e+03 4.146696853637695312e+01 -1.833525848388671875e+01 -1.710003763437271118e-01 3.678042650222778320e+00 1.052112698554992676e+00 1.222431957721710205e-01
3.808000000000000000e+03 3.882647705078125000e+01 -2.279514503479003906e+01 -1.058260202407836914e-01 3.195013761520385742e+00 9.267563223838806152e-01 9.445675462484359741e-02
3.809000000000000000e+03 6.439891052246093750e+01 -2.613950920104980469e+01 -8.641683310270309448e-02 7.390946865081787109e+00 2.191359043121337891e+00 -8.025255799293518066e-02
3.810000000000000000e+03 3.672396850585937500e+01 -3.204111099243164062e+01 -5.025286227464675903e-02 2.803503274917602539e+00 8.259751200675964355e-01 3.559221327304840088e-02
3.811000000000000000e+03 3.564535140991210938e+01 -2.733239936828613281e+01 -6.036431714892387390e-02 2.643559694290161133e+00 7.749586701393127441e-01 5.488729476928710938e-02
3.812000000000000000e+03 5.021847915649414062e+01 -1.943357276916503906e+01 -2.150634378194808960e-01 5.141168594360351562e+00 1.477831482887268066e+00 2.257958799600601196e-02
3.813000000000000000e+03 4.830848312377929688e+01 -1.774981498718261719e+01 -2.255914658308029175e-01 4.846064090728759766e+00 1.386141777038574219e+00 5.453469604253768921e-02
3.814000000000000000e+03 5.647722244262695312e+01 -2.074756622314453125e+01 -1.782967150211334229e-01 6.159317970275878906e+00 1.794306397438049316e+00 -8.332955837249755859e-02
3.815000000000000000e+03 5.336065292358398438e+01 -1.759218788146972656e+01 -2.294274419546127319e-01 5.694987773895263672e+00 1.639668107032775879e+00 -4.476328194141387939e-02
3.816000000000000000e+03 5.503287887573242188e+01 -2.107606315612792969e+01 -1.773042380809783936e-01 5.886551856994628906e+00 1.712774276733398438e+00 -5.691765993833541870e-02
3.817000000000000000e+03 3.403772354125976562e+01 -3.027355766296386719e+01 -4.905888065695762634e-02 2.318388462066650391e+00 6.807988286018371582e-01 4.078599810600280762e-02
3.818000000000000000e+03 6.113124084472656250e+01 -3.182855987548828125e+01 -7.444197684526443481e-02 6.801716804504394531e+00 2.018182516098022461e+00 -4.088968038558959961e-02
3.819000000000000000e+03 2.110494232177734375e+01 -4.032003784179687500e+01 3.298873826861381531e-02 2.813985645771026611e-01 9.431619197130203247e-02 3.451333567500114441e-02
3.820000000000000000e+03 6.178445434570312500e+01 -2.412712478637695312e+01 -1.215406060218811035e-01 6.909808635711669922e+00 2.036480426788330078e+00 -8.988954871892929077e-02
3.821000000000000000e+03 4.144183349609375000e+01 -2.103857231140136719e+01 -1.362984776496887207e-01 3.655459403991699219e+00 1.055748224258422852e+00 9.520850330591201782e-02
3.822000000000000000e+03 5.993630981445312500e+01 -2.152325630187988281e+01 -1.568067222833633423e-01 6.681184291839599609e+00 1.957313299179077148e+00 -8.557638525962829590e-02
3.823000000000000000e+03 4.336354827880859375e+01 -1.785146713256835938e+01 -1.857680678367614746e-01 4.006009101867675781e+00 1.146072268486022949e+00 1.089080274105072021e-01
3.824000000000000000e+03 5.906455993652343750e+01 -2.702388000488281250e+01 -1.057861819863319397e-01 6.484456539154052734e+00 1.913601160049438477e+00 -4.764973372220993042e-02
3.825000000000000000e+03 5.600897216796875000e+01 -2.237348937988281250e+01 -1.632635891437530518e-01 6.044558525085449219e+00 1.764388442039489746e+00 -7.275673002004623413e-02
3.826000000000000000e+03 5.355537414550781250e+01 -2.210385894775390625e+01 -1.828493177890777588e-01 5.638527870178222656e+00 1.636703610420227051e+00 -1.553951110690832138e-02
3.827000000000000000e+03 4.831763076782226562e+01 -1.981696701049804688e+01 -2.078694254159927368e-01 4.829877376556396484e+00 1.386602401733398438e+00 4.897285997867584229e-02
3.828000000000000000e+03 3.770507049560546875e+01 -2.131045913696289062e+01 -1.140815243124961853e-01 3.005933761596679688e+00 8.675556778907775879e-01 1.022774949669837952e-01
3.829000000000000000e+03 3.091479301452636719e+01 -2.101736640930175781e+01 -4.250755161046981812e-02 1.786926388740539551e+00 5.233256220817565918e-01 9.554878622293472290e-02
3.830000000000000000e+03 3.963341903686523438e+01 -2.614694595336914062e+01 -9.110399335622787476e-02 3.308433532714843750e+00 9.651988744735717773e-01 5.967497080564498901e-02
3.831000000000000000e+03 4.637110900878906250e+01 -1.978761482238769531e+01 -1.960420906543731689e-01 4.505233764648437500e+00 1.292757511138916016e+00 5.715497583150863647e-02
3.832000000000000000e+03 4.498873138427734375e+01 -1.753474044799804688e+01 -2.036675810813903809e-01 4.335205554962158203e+00 1.239461421966552734e+00 9.332428872585296631e-02
3.833000000000000000e+03 4.386106491088867188e+01 -3.404096984863281250e+01 -7.273744791746139526e-02 3.967475414276123047e+00 1.168421387672424316e+00 1.827625557780265808e-02
3.834000000000000000e+03 4.845265960693359375e+01 -2.223582077026367188e+01 -1.695604324340820312e-01 4.837915897369384766e+00 1.400506615638732910e+00 2.955505065619945526e-02
3.835000000000000000e+03 5.761730575561523438e+01 -2.333065223693847656e+01 -1.459138095378875732e-01 6.327968597412109375e+00 1.854616403579711914e+00 -7.101126760244369507e-02
3.836000000000000000e+03 5.184183502197265625e+01 -2.335012435913085938e+01 -1.748013347387313843e-01 5.336367130279541016e+00 1.548469781875610352e+00 -3.266337153036147356e-04
3.837000000000000000e+03 4.446437835693359375e+01 -1.932990646362304688e+01 -1.884679049253463745e-01 4.165436744689941406e+00 1.193090677261352539e+00 8.644972741603851318e-02
3.838000000000000000e+03 5.645182800292968750e+01 -2.571002960205078125e+01 -1.276378929615020752e-01 6.090001583099365234e+00 1.788709044456481934e+00 -4.984060674905776978e-02
3.839000000000000000e+03 4.514388656616210938e+01 -2.775073242187500000e+01 -1.077761054039001465e-01 4.223243713378906250e+00 1.234640240669250488e+00 3.674037009477615356e-02
3.840000000000000000e+03 5.267065048217773438e+01 -2.039876747131347656e+01 -1.984850317239761353e-01 5.510929584503173828e+00 1.593733429908752441e+00 -1.719759777188301086e-02
3.841000000000000000e+03 5.506334304809570312e+01 -3.051528739929199219e+01 -1.000298932194709778e-01 5.863760948181152344e+00 1.729119300842285156e+00 -1.474995724856853485e-02
3.842000000000000000e+03 4.454269409179687500e+01 -3.079658699035644531e+01 -8.805905282497406006e-02 4.109602928161621094e+00 1.206463217735290527e+00 2.777734398841857910e-02
3.843000000000000000e+03 4.783790969848632812e+01 -3.438281631469726562e+01 -8.039242774248123169e-02 4.648540973663330078e+00 1.370444536209106445e+00 4.778103902935981750e-03
3.844000000000000000e+03 4.754212951660156250e+01 -4.092336273193359375e+01 -6.500510126352310181e-02 4.594392299652099609e+00 1.358816146850585938e+00 4.495306871831417084e-03
3.845000000000000000e+03 4.816904449462890625e+01 -2.807093429565429688e+01 -1.145857125520706177e-01 4.733482360839843750e+00 1.385668992996215820e+00 1.451894547790288925e-02
3.846000000000000000e+03 5.305146408081054688e+01 -2.504968643188476562e+01 -1.410187929868698120e-01 5.563910484313964844e+00 1.626867413520812988e+00 -1.446295902132987976e-02
3.847000000000000000e+03 4.801426696777343750e+01 -3.114651870727539062e+01 -9.700676053762435913e-02 4.678184509277343750e+00 1.374353408813476562e+00 9.179991669952869415e-03
3.848000000000000000e+03 4.225503540039062500e+01 -2.711006164550781250e+01 -1.002824977040290833e-01 3.742670774459838867e+00 1.092716455459594727e+00 5.173763260245323181e-02
3.849000000000000000e+03 5.562916183471679688e+01 -3.395366668701171875e+01 -7.122591882944107056e-02 5.979827404022216797e+00 1.772580504417419434e+00 -2.250722050666809082e-02
3.850000000000000000e+03 4.075236511230468750e+01 -2.363952445983886719e+01 -1.264142543077468872e-01 3.506818771362304688e+00 1.014121413230895996e+00 7.881390303373336792e-02
3.851000000000000000e+03 5.095059204101562500e+01 -2.532289695739746094e+01 -1.370279192924499512e-01 5.214343070983886719e+00 1.523194551467895508e+00 8.537007961422204971e-04
3.852000000000000000e+03 4.604138946533203125e+01 -2.214003181457519531e+01 -1.579881608486175537e-01 4.424636840820312500e+00 1.279994606971740723e+00 4.978189244866371155e-02
3.853000000000000000e+03 4.369400405883789062e+01 -2.156722450256347656e+01 -1.533892303705215454e-01 4.024718284606933594e+00 1.161398768424987793e+00 7.286384701728820801e-02
3.854000000000000000e+03 4.840069580078125000e+01 -2.506973838806152344e+01 -1.447678059339523315e-01 4.802065849304199219e+00 1.397189378738403320e+00 1.753442734479904175e-02
3.855000000000000000e+03 4.678020858764648438e+01 3.472299194335937500e+01 9.450146555900573730e-01 3.328904151916503906e+00 1.282175660133361816e+00 -2.569324254989624023e+00
3.856000000000000000e+03 4.693498992919921875e+01 3.421446609497070312e+01 1.042773962020874023e+00 2.909053802490234375e+00 1.185548305511474609e+00 -2.533715248107910156e+00
3.857000000000000000e+03 4.701438522338867188e+01 3.453963851928710938e+01 1.069012999534606934e+00 4.149610996246337891e+00 1.565587282180786133e+00 -2.924500703811645508e+00
3.858000000000000000e+03 4.752185058593750000e+01 3.410269927978515625e+01 1.308531045913696289e+00 5.118063926696777344e+00 1.927978515625000000e+00 -4.085381984710693359e+00
3.859000000000000000e+03 4.874168014526367188e+01 3.390965652465820312e+01 3.442880511283874512e-01 1.533851337432861328e+01 4.704840183258056641e+00 -5.594338893890380859e+00
3.860000000000000000e+03 4.925355148315429688e+01 3.442918395996093750e+01 -6.722472310066223145e-01 1.756166267395019531e+01 5.066824913024902344e+00 -2.513268470764160156e+00
3.861000000000000000e+03 5.023269653320312500e+01 3.382583999633789062e+01 1.984062314033508301e+00 2.037024879455566406e+01 6.706293582916259766e+00 2.209177255630493164e+00
3.862000000000000000e+03 3.851110839843750000e+01 3.609818267822265625e+01 -6.799297332763671875e-01 -2.837199568748474121e-01 -2.890948951244354248e-01 5.751751065254211426e-01
3.863000000000000000e+03 3.560976409912109375e+01 3.829715347290039062e+01 7.584817707538604736e-02 -3.463365435600280762e-01 -8.114650845527648926e-02 4.364524185657501221e-01
3.864000000000000000e+03 3.267336654663085938e+01 3.728977584838867188e+01 -1.604303568601608276e-01 -1.455383896827697754e-01 -9.179062396287918091e-02 2.168934494256973267e-01
3.865000000000000000e+03 4.860150909423828125e+01 2.979343414306640625e+01 2.247678279876708984e+00 1.409173965454101562e+01 4.901825428009033203e+00 6.098729610443115234e+00
3.866000000000000000e+03 4.738490295410156250e+01 3.046802711486816406e+01 4.730060100555419922e+00 4.761438369750976562e+00 2.847449541091918945e+00 5.630933284759521484e+00
3.867000000000000000e+03 4.700216674804687500e+01 3.058414077758789062e+01 4.326177597045898438e+00 2.714965105056762695e+00 2.112342834472656250e+00 4.395267486572265625e+00
3.868000000000000000e+03 4.720021438598632812e+01 3.052895927429199219e+01 4.629356861114501953e+00 3.580334663391113281e+00 2.462907552719116211e+00 4.993748664855957031e+00
3.869000000000000000e+03 4.660838699340820312e+01 3.094459915161132812e+01 3.317228794097900391e+00 1.104953408241271973e+00 1.326654672622680664e+00 2.718572378158569336e+00
3.870000000000000000e+03 4.642441940307617188e+01 3.095554542541503906e+01 2.916846275329589844e+00 9.139410853385925293e-01 1.149236202239990234e+00 2.344347476959228516e+00
3.871000000000000000e+03 4.647414779663085938e+01 3.070123291015625000e+01 3.408370733261108398e+00 1.398902177810668945e+00 1.442181825637817383e+00 2.962187767028808594e+00
3.872000000000000000e+03 1.268430233001708984e+00 2.700267791748046875e+00 -4.200976400170475245e-05 6.148549437057226896e-05 5.842719929205486551e-06 9.984082680603023618e-06
3.873000000000000000e+03 2.060480117797851562e+01 3.400548171997070312e+01 -1.593143329955637455e-03 -1.588778384029865265e-02 -5.244277883321046829e-03 -5.580685101449489594e-03
3.874000000000000000e+03 5.073054122924804688e+01 3.421852874755859375e+01 2.287014245986938477e+00 1.809422492980957031e+01 6.114371776580810547e+00 2.917664766311645508e+00
3.875000000000000000e+03 4.467083454132080078e+00 -3.779356002807617188e+01 1.014142908388748765e-04 1.862609176896512508e-03 5.892070475965738297e-04 1.141254208050668240e-03
3.876000000000000000e+03 2.268411827087402344e+01 -3.824595260620117188e+01 2.760748146101832390e-03 5.375703573226928711e-01 1.620993316173553467e-01 -1.073873974382877350e-02
3.877000000000000000e+03 4.954113769531250000e+01 2.959440612792968750e+01 1.564869999885559082e+00 1.616187477111816406e+01 5.318023681640625000e+00 3.413594961166381836e+00
3.878000000000000000e+03 1.293850231170654297e+01 2.357869863510131836e+00 9.038563803187571466e-06 -1.092954407795332372e-04 -3.007706436619628221e-05 -2.281037814100272954e-05
3.879000000000000000e+03 2.269841194152832031e+00 3.517411947250366211e+00 -1.787945366231724620e-04 -1.219187834067270160e-04 -9.021399455377832055e-05 1.594110653968527913e-04
3.880000000000000000e+03 4.276740264892578125e+01 3.673698425292968750e+01 1.376115232706069946e-01 9.110500216484069824e-01 3.145984709262847900e-01 -1.746993064880371094e-01
3.881000000000000000e+03 3.015269851684570312e+01 3.818925094604492188e+01 -6.477315910160541534e-03 -1.177579611539840698e-01 -3.727058321237564087e-02 1.249594017863273621e-01
3.882000000000000000e+03 3.297417449951171875e+01 3.819712448120117188e+01 -2.353008277714252472e-02 -2.175899147987365723e-01 -7.233599573373794556e-02 2.731964886188507080e-01
3.883000000000000000e+03 1.914777565002441406e+01 3.858418655395507812e+01 -1.557689975015819073e-03 1.250192872248589993e-03 -9.224911627825349569e-05 -1.364672090858221054e-03
3.884000000000000000e+03 1.883008575439453125e+01 3.818005752563476562e+01 6.554150022566318512e-03 4.042304120957851410e-03 3.178936196491122246e-03 -3.238916629925370216e-03
3.885000000000000000e+03 5.262768554687500000e+01 3.007272148132324219e+01 4.348493099212646484e+00 1.332378482818603516e+01 5.301683425903320312e+00 -1.176642537117004395e+00
3.886000000000000000e+03 4.946036529541015625e+01 2.908647537231445312e+01 1.225720405578613281e+00 1.448790168762207031e+01 4.714086532592773438e+00 3.425039529800415039e+00
3.887000000000000000e+03 1.112824535369873047e+01 -2.048543930053710938e+01 -1.880440744571387768e-03 3.262608370278030634e-04 -4.662539868149906397e-04 4.212530329823493958e-04
3.888000000000000000e+03 5.110161590576171875e+01 3.383000946044921875e+01 3.752939701080322266e+00 1.680295944213867188e+01 6.166769504547119141e+00 2.891029357910156250e+00
3.889000000000000000e+03 3.728968811035156250e+01 3.896818161010742188e+01 4.298399388790130615e-01 -3.326439857482910156e-01 2.915878780186176300e-02 4.005014300346374512e-01
3.890000000000000000e+03 1.393390083312988281e+01 3.519363021850585938e+01 7.410788675770163536e-04 9.116583387367427349e-04 4.958211793564260006e-04 -5.222039180807769299e-04
3.891000000000000000e+03 2.164969062805175781e+01 -3.536561965942382812e+01 -2.828913927078247070e-02 3.385101556777954102e-01 9.306631237268447876e-02 -1.861944608390331268e-02
3.892000000000000000e+03 5.040914916992187500e+01 2.956679916381835938e+01 2.093620300292968750e+00 1.703585624694824219e+01 5.738842964172363281e+00 3.254837393760681152e-01
3.893000000000000000e+03 4.863344192504882812e+01 3.431890106201171875e+01 7.037822157144546509e-02 1.393182277679443359e+01 4.200660228729248047e+00 -4.697131156921386719e+00
3.894000000000000000e+03 1.246958923339843750e+01 -3.307693958282470703e+00 -5.712874699383974075e-04 2.615667763166129589e-04 -9.291620517615228891e-05 -5.218063961365260184e-05
3.895000000000000000e+03 4.351582717895507812e+01 3.692956924438476562e+01 4.648337364196777344e-01 1.183879733085632324e+00 4.946140348911285400e-01 -6.558985114097595215e-01
3.896000000000000000e+03 3.584349822998046875e+01 4.090804672241210938e+01 4.300737380981445312e-01 -3.885781168937683105e-01 1.244868431240320206e-02 1.700402498245239258e-01
3.897000000000000000e+03 4.682504272460937500e+01 3.069659233093261719e+01 4.138713359832763672e+00 2.141473293304443359e+00 1.884055972099304199e+00 3.780013084411621094e+00
3.898000000000000000e+03 4.688853073120117188e+01 3.069955444335937500e+01 4.142049789428710938e+00 2.147441387176513672e+00 1.886847376823425293e+00 3.790235996246337891e+00
3.899000000000000000e+03 4.785495376586914062e+01 2.969239234924316406e+01 3.310211896896362305e+00 8.769685745239257812e+00 3.623969316482543945e+00 6.233201026916503906e+00
3.900000000000000000e+03 4.817400360107421875e+01 2.925405502319335938e+01 2.222527980804443359e+00 1.095940208435058594e+01 3.954579114913940430e+00 5.826677799224853516e+00
3.901000000000000000e+03 4.775634765625000000e+01 3.032840538024902344e+01 4.675278186798095703e+00 7.355582714080810547e+00 3.609258174896240234e+00 6.840582370758056641e+00
3.902000000000000000e+03 4.722876739501953125e+01 3.025671958923339844e+01 4.371337413787841797e+00 4.557925701141357422e+00 2.678778886795043945e+00 5.348741531372070312e+00
3.903000000000000000e+03 4.554261779785156250e+01 3.032418632507324219e+01 2.376878499984741211e+00 9.409490823745727539e-01 9.953482747077941895e-01 2.092571258544921875e+00
3.904000000000000000e+03 4.622257232666015625e+01 3.045061302185058594e+01 3.130355834960937500e+00 1.530062913894653320e+00 1.398125648498535156e+00 2.948079824447631836e+00
3.905000000000000000e+03 4.663418960571289062e+01 3.051132774353027344e+01 3.733723640441894531e+00 2.072669744491577148e+00 1.741917967796325684e+00 3.657149076461791992e+00
3.906000000000000000e+03 4.674945068359375000e+01 3.074593925476074219e+01 3.943817853927612305e+00 1.665106177330017090e+00 1.682677268981933594e+00 3.458834171295166016e+00
3.907000000000000000e+03 2.231500625610351562e+01 -2.933793258666992188e+01 -1.051446702331304550e-02 4.128541648387908936e-01 1.207019090652465820e-01 1.395280356518924236e-03
3.908000000000000000e+03 9.851575851440429688e+00 -3.280803298950195312e+01 -2.452659653499722481e-03 -2.372111426666378975e-03 -1.447431277483701706e-03 -1.989486161619424820e-03
3.909000000000000000e+03 4.142639923095703125e+01 3.770059967041015625e+01 4.718630611896514893e-01 6.344432234764099121e-01 3.318918943405151367e-01 2.691856622695922852e-01
3.910000000000000000e+03 4.747798156738281250e+01 3.594311141967773438e+01 3.037786781787872314e-01 7.296610355377197266e+00 2.280116796493530273e+00 -2.990899324417114258e+00
3.911000000000000000e+03 4.560469055175781250e+01 3.719179153442382812e+01 5.872753262519836426e-01 3.728885173797607422e+00 1.294848203659057617e+00 -1.725159406661987305e+00
3.912000000000000000e+03 8.464839935302734375e+00 -3.309291458129882812e+01 4.690784495323896408e-03 -1.918642374221235514e-05 1.401479355990886688e-03 -2.653804607689380646e-03
3.913000000000000000e+03 1.104041385650634766e+01 -2.799464607238769531e+01 -7.253031944856047630e-04 -2.537325955927371979e-03 -9.787887101992964745e-04 8.890797616913914680e-04
3.914000000000000000e+03 5.244859313964843750e+01 3.059093666076660156e+01 5.357155799865722656e+00 1.330627059936523438e+01 5.599028110504150391e+00 -9.558019638061523438e-01
3.915000000000000000e+03 2.359150505065917969e+01 -2.817821693420410156e+01 -2.762535400688648224e-02 6.165111660957336426e-01 1.766657382249832153e-01 1.310131326317787170e-02
3.916000000000000000e+03 4.682164382934570312e+01 3.062528228759765625e+01 4.142391681671142578e+00 2.162434816360473633e+00 1.891448020935058594e+00 3.785894155502319336e+00
3.917000000000000000e+03 4.688513183593750000e+01 3.062824440002441406e+01 4.148108482360839844e+00 2.155675649642944336e+00 1.891135215759277344e+00 3.795134305953979492e+00
3.918000000000000000e+03 4.734391784667968750e+01 3.436907958984375000e+01 1.234612584114074707e+00 5.134263515472412109e+00 1.910662889480590820e+00 -3.780205726623535156e+00
3.919000000000000000e+03 5.217439270019531250e+01 3.281363296508789062e+01 6.655239582061767578e+00 1.393043422698974609e+01 6.175702095031738281e+00 2.188045501708984375e+00
3.920000000000000000e+03 3.346791982650756836e+00 -3.680249929428100586e+00 -1.160462416009977460e-04 -4.605926733347587287e-05 -4.863165304413996637e-05 4.973144968971610069e-04
3.921000000000000000e+03 4.752053070068359375e+01 3.458758163452148438e+01 1.143550634384155273e+00 6.537273883819580078e+00 2.304247379302978516e+00 -4.227958202362060547e+00
3.922000000000000000e+03 3.897706985473632812e+01 3.826165008544921875e+01 3.005215227603912354e-01 -2.018521875143051147e-01 2.960080280900001526e-02 4.441288709640502930e-01
3.923000000000000000e+03 5.067577362060546875e+00 -3.415143013000488281e+00 -5.081667914055287838e-04 -1.370869995298562571e-06 -1.528613065602257848e-04 -1.191953124362044036e-04
3.924000000000000000e+03 1.092552185058593750e+01 -4.067166328430175781e+00 5.563595914281904697e-05 4.708418564405292273e-04 1.579433446750044823e-04 -3.097668231930583715e-04
3.925000000000000000e+03 4.478785705566406250e+01 3.792201995849609375e+01 6.259119510650634766e-01 2.835422992706298828e+00 1.038400411605834961e+00 -1.292871236801147461e+00
3.926000000000000000e+03 4.431815719604492188e+01 3.687011337280273438e+01 5.592740774154663086e-01 1.525367975234985352e+00 6.253926157951354980e-01 -1.027339577674865723e+00
3.927000000000000000e+03 2.899810981750488281e+01 -3.561668014526367188e+01 -1.681115664541721344e-02 1.539185881614685059e+00 4.567124247550964355e-01 2.775127068161964417e-02
3.928000000000000000e+03 4.759514236450195312e+01 3.002472496032714844e+01 4.083778381347656250e+00 7.043170452117919922e+00 3.338084459304809570e+00 6.243734836578369141e+00
3.929000000000000000e+03 4.764458465576171875e+01 2.890830230712890625e+01 2.498660802841186523e+00 8.398283004760742188e+00 3.269083023071289062e+00 5.490185737609863281e+00
3.930000000000000000e+03 4.439507293701171875e+01 2.964607620239257812e+01 1.920073270797729492e+00 9.772028923034667969e-01 8.691828250885009766e-01 1.727254271507263184e+00
3.931000000000000000e+03 4.720735549926757812e+01 2.904581451416015625e+01 3.012219905853271484e+00 6.449705123901367188e+00 2.838577508926391602e+00 5.268454074859619141e+00
3.932000000000000000e+03 1.101083660125732422e+01 2.341230392456054688e+01 -6.550211110152304173e-04 -3.266552230343222618e-04 -2.945028827525675297e-04 3.513162082526832819e-04
3.933000000000000000e+03 5.382255935668945312e+01 3.185940933227539062e+01 4.900671482086181641e+00 1.177903747558593750e+01 5.003912925720214844e+00 3.644441664218902588e-01
3.934000000000000000e+03 2.585967636108398438e+01 -3.085538482666015625e+01 -2.400087541900575161e-04 1.045133233070373535e+00 3.134679794311523438e-01 2.667797356843948364e-02
3.935000000000000000e+03 4.631217575073242188e+01 3.000758361816406250e+01 3.468677043914794922e+00 2.461194992065429688e+00 1.778961658477783203e+00 3.673582077026367188e+00
3.936000000000000000e+03 4.686760711669921875e+01 3.040466690063476562e+01 4.232519149780273438e+00 2.838896751403808594e+00 2.121424913406372070e+00 4.331892013549804688e+00
3.937000000000000000e+03 4.672979736328125000e+01 2.910406494140625000e+01 3.160914421081542969e+00 5.000060558319091797e+00 2.448292493820190430e+00 4.720949649810791016e+00
3.938000000000000000e+03 8.832463264465332031e+00 -2.379570198059082031e+01 -1.950795296579599380e-03 2.367616980336606503e-04 -5.142100853845477104e-04 5.997988628223538399e-04
3.939000000000000000e+03 8.319763183593750000e+00 3.156307601928710938e+01 1.141521381214261055e-03 -4.777451613335870206e-05 3.281240351498126984e-04 7.652736385352909565e-04
3.940000000000000000e+03 3.669650554656982422e+00 -4.365977764129638672e+00 -1.938317436724901199e-04 -1.191462215501815081e-04 -9.389338811160996556e-05 -4.726909101009368896e-04
3.941000000000000000e+03 2.834442710876464844e+01 -3.113818740844726562e+01 -1.949426531791687012e-02 1.444117903709411621e+00 4.273870885372161865e-01 3.802518174052238464e-02
3.942000000000000000e+03 4.578144073486328125e+01 2.899178504943847656e+01 2.893401861190795898e+00 2.958163738250732422e+00 1.755469679832458496e+00 3.503484487533569336e+00
3.943000000000000000e+03 3.751791477203369141e+00 6.364720821380615234e+00 2.721596101764589548e-04 1.074375177267938852e-04 1.138791340054012835e-04 -8.853212784742936492e-05
3.944000000000000000e+03 7.236253261566162109e+00 1.656897735595703125e+01 -3.028515311598312110e-05 -2.110059867845848203e-04 -7.238734542625024915e-05 -1.047975383698940277e-04
3.945000000000000000e+03 8.357059478759765625e+00 -1.732699203491210938e+01 9.156218147836625576e-04 4.666526510845869780e-04 4.146823484916239977e-04 -1.334008265985175967e-04
3.946000000000000000e+03 2.449580001831054688e+01 -2.871860504150390625e+01 -2.849228680133819580e-02 7.621436715126037598e-01 2.200954258441925049e-01 8.687751367688179016e-03
3.947000000000000000e+03 7.514687347412109375e+01 -3.103765296936035156e+01 -1.248789019882678986e-02 9.108304977416992188e+00 2.728745222091674805e+00 -2.793125808238983154e-02
3.948000000000000000e+03 9.890431404113769531e+00 -2.866197776794433594e+01 1.246322499355301261e-04 -2.998442854732275009e-03 -8.621431770734488964e-04 5.999073619022965431e-04
3.949000000000000000e+03 7.106920719146728516e+00 -2.722427177429199219e+01 2.762983320280909538e-03 2.890484029194340110e-05 8.375664474442601204e-04 -3.412900841794908047e-04
3.950000000000000000e+03 9.609252929687500000e+00 1.977791976928710938e+01 -6.209373532328754663e-05 1.266696781385689974e-04 1.937278284458443522e-05 6.415140524040907621e-05
3.951000000000000000e+03 4.669128417968750000e+01 2.870678520202636719e+01 2.809257030487060547e+00 5.360136508941650391e+00 2.450818061828613281e+00 4.641567230224609375e+00
3.952000000000000000e+03 4.667036437988281250e+01 2.834367942810058594e+01 2.576663494110107422e+00 5.712892532348632812e+00 2.486866950988769531e+00 4.604590415954589844e+00
3.953000000000000000e+03 4.729158782958984375e+01 2.820551681518554688e+01 2.136699199676513672e+00 7.483244419097900391e+00 2.885983228683471680e+00 4.808815956115722656e+00
3.954000000000000000e+03 4.699633407592773438e+01 2.798759841918945312e+01 2.118324518203735352e+00 6.631674289703369141e+00 2.624999761581420898e+00 4.496093273162841797e+00
3.955000000000000000e+03 4.306941223144531250e+01 -2.433036804199218750e+01 -1.315195262432098389e-01 3.890381813049316406e+00 1.127658724784851074e+00 6.258346885442733765e-02
3.956000000000000000e+03 2.775434875488281250e+01 -2.812458419799804688e+01 -2.850779704749584198e-02 1.310740590095520020e+00 3.846698403358459473e-01 5.743391439318656921e-02
3.957000000000000000e+03 7.790218353271484375e+00 5.890262603759765625e+00 -4.223774521960876882e-05 -1.469083417759975418e-05 -1.707857518340460956e-05 -6.999571724009001628e-06
3.958000000000000000e+03 5.608801269531250000e+01 2.801287841796875000e+01 2.032605886459350586e+00 1.060081863403320312e+01 3.790027379989624023e+00 -1.132676362991333008e+00
3.959000000000000000e+03 5.672616958618164062e+01 2.705711364746093750e+01 1.476231217384338379e+00 1.027589321136474609e+01 3.525637388229370117e+00 -1.185347914695739746e+00
3.960000000000000000e+03 7.193792724609375000e+01 2.711828422546386719e+01 2.454810887575149536e-01 6.542207241058349609e+00 2.036306619644165039e+00 -9.234024882316589355e-01
3.961000000000000000e+03 7.853900432586669922e+00 2.001284408569335938e+01 3.609397390391677618e-04 1.508321583969518542e-04 1.535315677756443620e-04 -8.528379112249240279e-05
3.962000000000000000e+03 7.631626605987548828e+00 -1.447648239135742188e+01 -7.243503205245360732e-05 -5.846283165737986565e-04 -1.971190067706629634e-04 -1.304785928368801251e-05
3.963000000000000000e+03 6.405262947082519531e+00 1.598958969116210938e+01 4.187304293736815453e-04 8.085003355517983437e-05 1.498741330578923225e-04 1.586354919709265232e-04
3.964000000000000000e+03 4.625378799438476562e+01 2.905615043640136719e+01 3.136616945266723633e+00 3.752171516418457031e+00 2.066636562347412109e+00 4.157513141632080078e+00
3.965000000000000000e+03 7.177839756011962891e+00 -1.618386077880859375e+01 6.140470504760742188e-04 -1.266086765099316835e-04 1.462315121898427606e-04 3.083137853536754847e-04
3.966000000000000000e+03 7.280123710632324219e+00 -1.816402053833007812e+01 4.967731656506657600e-04 9.714962798170745373e-04 4.404808569233864546e-04 1.147931689047254622e-04
3.967000000000000000e+03 6.473875999450683594e+00 -1.689258766174316406e+01 6.544851348735392094e-04 9.693537140265107155e-04 4.871516430284827948e-04 -1.432904828106984496e-04
3.968000000000000000e+03 9.567364692687988281e+00 -2.497627830505371094e+01 9.351909393444657326e-04 -1.361830974929034710e-03 -1.279920106753706932e-04 4.149191081523895264e-04
3.969000000000000000e+03 5.720628738403320312e+01 2.596496582031250000e+01 9.752395749092102051e-01 1.003124046325683594e+01 3.301944017410278320e+00 -1.194701433181762695e+00
3.970000000000000000e+03 4.413724517822265625e+01 2.821446990966796875e+01 2.144346714019775391e+00 1.831623196601867676e+00 1.192790985107421875e+00 2.244329452514648438e+00
3.971000000000000000e+03 5.621195602416992188e+01 2.544824600219726562e+01 7.018328309059143066e-01 1.030809402465820312e+01 3.302978038787841797e+00 -1.061446428298950195e+00
3.972000000000000000e+03 7.121912002563476562e+00 -1.359048271179199219e+01 3.844574384856969118e-04 -2.407687716186046600e-04 4.310660006012767553e-05 1.754952681949362159e-04
3.973000000000000000e+03 7.439423084259033203e+00 -1.251317882537841797e+01 -6.938909064047038555e-04 4.288887721486389637e-04 -7.950063445605337620e-05 2.046477457042783499e-04
3.974000000000000000e+03 5.341404438018798828e+00 1.183550739288330078e+01 -5.887475563213229179e-04 -4.223329233354888856e-05 -1.892942527774721384e-04 2.449919702485203743e-04
3.975000000000000000e+03 5.207302856445312500e+01 2.613997077941894531e+01 2.449256181716918945e-01 1.187170124053955078e+01 3.634988069534301758e+00 3.356845080852508545e-01
3.976000000000000000e+03 5.268824768066406250e+01 2.575345611572265625e+01 2.221009284257888794e-01 1.150803661346435547e+01 3.519041299819946289e+00 2.520233765244483948e-02
3.977000000000000000e+03 5.180101394653320312e+01 2.498853302001953125e+01 -1.243652701377868652e-01 1.106144428253173828e+01 3.281123638153076172e+00 7.249537706375122070e-01
3.978000000000000000e+03 7.035084533691406250e+01 2.381378173828125000e+01 1.723358035087585449e-01 7.044002056121826172e+00 2.164901256561279297e+00 -1.168507933616638184e+00
3.979000000000000000e+03 6.740242767333984375e+01 2.091359901428222656e+01 4.251199588179588318e-02 7.683344364166259766e+00 2.317756891250610352e+00 -1.361950039863586426e+00
3.980000000000000000e+03 9.567553520202636719e+00 7.448003292083740234e+00 8.521942072547972202e-05 1.596238871570676565e-04 7.345298945438116789e-05 9.404042793903499842e-05
3.981000000000000000e+03 5.505720138549804688e+00 2.044934272766113281e+01 -7.646068697795271873e-04 -5.659174712491221726e-05 -2.463595883455127478e-04 -5.802284795208834112e-05
3.982000000000000000e+03 7.088967800140380859e+00 -1.009012031555175781e+01 -3.369940677657723427e-04 5.153600941412150860e-04 5.350980791263282299e-05 -1.722467422951012850e-04
3.983000000000000000e+03 3.075164031982421875e+01 -1.961715579032897949e+00 -7.356856763362884521e-02 1.548861503601074219e+00 4.425878822803497314e-01 3.437092006206512451e-01
3.984000000000000000e+03 5.227267837524414062e+01 2.522101020812988281e+01 -1.139471060014329851e-04 1.124349594116210938e+01 3.373014688491821289e+00 3.773660063743591309e-01
3.985000000000000000e+03 5.263564300537109375e+01 2.460315895080566406e+01 -1.103795990347862244e-01 1.087047195434570312e+01 3.228027820587158203e+00 2.309939712285995483e-01
3.986000000000000000e+03 5.001148986816406250e+01 2.507764053344726562e+01 -1.045752838253974915e-01 1.047105598449707031e+01 3.109944343566894531e+00 1.902882933616638184e+00
3.987000000000000000e+03 5.019283676147460938e+01 2.393742752075195312e+01 -2.641862034797668457e-01 9.892290115356445312e+00 2.888431072235107422e+00 1.632570385932922363e+00
3.988000000000000000e+03 6.610330963134765625e+01 -1.690528297424316406e+01 -1.343941390514373779e-01 7.609268188476562500e+00 2.242462158203125000e+00 -1.764570474624633789e-01
3.989000000000000000e+03 3.129573822021484375e+01 -9.126215934753417969e+00 -8.780473470687866211e-02 1.746711611747741699e+00 4.976720809936523438e-01 2.477065622806549072e-01
3.990000000000000000e+03 5.171645736694335938e+01 -1.711524200439453125e+01 -2.321801781654357910e-01 5.436917304992675781e+00 1.561421155929565430e+00 -1.649198308587074280e-02
3.991000000000000000e+03 6.432259368896484375e+01 -1.653020668029785156e+01 -1.586464494466781616e-01 7.357886791229248047e+00 2.159772157669067383e+00 -1.679079085588455200e-01
3.992000000000000000e+03 7.282250976562500000e+01 -1.525422000885009766e+01 -4.330692067742347717e-02 8.619253158569335938e+00 2.572783946990966797e+00 -1.465018838644027710e-01
3.993000000000000000e+03 7.164896392822265625e+01 1.486271095275878906e+01 -1.444857716560363770e-01 7.466646194458007812e+00 2.196648120880126953e+00 -1.045648097991943359e+00
3.994000000000000000e+03 4.812902069091796875e+01 2.367436981201171875e+01 1.609554886817932129e-01 8.025085449218750000e+00 2.455812215805053711e+00 2.533346652984619141e+00
3.995000000000000000e+03 3.297169494628906250e+01 -8.653336524963378906e+00 -1.146143823862075806e-01 2.116056680679321289e+00 6.004326939582824707e-01 2.668176889419555664e-01
3.996000000000000000e+03 3.183457946777343750e+01 -3.721728026866912842e-01 -8.070517331361770630e-02 1.742943167686462402e+00 4.986713826656341553e-01 3.860893547534942627e-01
3.997000000000000000e+03 5.814043045043945312e+01 2.038692092895507812e+01 -3.466651141643524170e-01 9.103963851928710938e+00 2.627189636230468750e+00 -9.429364800453186035e-01
3.998000000000000000e+03 3.280127716064453125e+01 2.817147254943847656e+01 5.762010812759399414e-02 1.820079833269119263e-01 7.188842445611953735e-02 -3.142033219337463379e-01
3.999000000000000000e+03 4.451281356811523438e+01 2.578879928588867188e+01 1.691621184349060059e+00 3.751273870468139648e+00 1.632868528366088867e+00 2.808209419250488281e+00
4.000000000000000000e+03 7.185754394531250000e+01 1.586017608642578125e+01 -1.117498055100440979e-01 7.368480682373046875e+00 2.177019119262695312e+00 -1.061028718948364258e+00
4.001000000000000000e+03 3.524753189086914062e+01 -8.295900344848632812e+00 -1.528254300355911255e-01 2.530593395233154297e+00 7.133303880691528320e-01 2.872562110424041748e-01
4.002000000000000000e+03 7.039505004882812500e+01 1.182107448577880859e+01 -2.271579653024673462e-01 7.685788154602050781e+00 2.237589120864868164e+00 -1.008281826972961426e+00
4.003000000000000000e+03 3.527116012573242188e+01 -5.678857803344726562e+00 -1.482203304767608643e-01 2.539814472198486328e+00 7.174782156944274902e-01 3.295995593070983887e-01
4.004000000000000000e+03 4.490279006958007812e+01 2.567347526550292969e+01 1.616825819015502930e+00 4.236217498779296875e+00 1.755913019180297852e+00 2.979740619659423828e+00
4.005000000000000000e+03 7.048086547851562500e+01 1.083935070037841797e+01 -2.292460650205612183e-01 7.716821670532226562e+00 2.246272563934326172e+00 -9.673931002616882324e-01
4.006000000000000000e+03 3.295262527465820312e+01 2.771475982666015625e+01 1.370786130428314209e-01 2.115294784307479858e-01 1.045824289321899414e-01 -2.839817404747009277e-01
4.007000000000000000e+03 3.499839019775390625e+01 -7.027756214141845703e+00 -1.696067452430725098e-01 2.436543226242065430e+00 6.800808906555175781e-01 3.001494705677032471e-01
4.008000000000000000e+03 5.706343078613281250e+01 2.004351997375488281e+01 -4.639292955398559570e-01 9.129038810729980469e+00 2.599532842636108398e+00 -7.383798956871032715e-01
4.009000000000000000e+03 5.508900833129882812e+01 1.770371627807617188e+01 -7.456326484680175781e-01 8.617263793945312500e+00 2.361489534378051758e+00 -1.974384188652038574e-01
4.010000000000000000e+03 4.123017501831054688e+01 -3.175883293151855469e+00 -3.000303506851196289e-01 3.803706169128417969e+00 1.051102757453918457e+00 3.574514985084533691e-01
4.011000000000000000e+03 6.946037292480468750e+01 1.165187072753906250e+01 -2.593500316143035889e-01 7.722759723663330078e+00 2.239022970199584961e+00 -1.035358190536499023e+00
4.012000000000000000e+03 6.800650787353515625e+01 -8.855974197387695312e+00 -1.792803108692169189e-01 7.869416713714599609e+00 2.307040929794311523e+00 -3.110052645206451416e-01
4.013000000000000000e+03 3.240120697021484375e+01 2.749273490905761719e+01 1.398368626832962036e-01 1.947700530290603638e-01 1.003820747137069702e-01 -2.988726198673248291e-01
4.014000000000000000e+03 6.889167022705078125e+01 1.075602340698242188e+01 -3.066179156303405762e-01 7.773284912109375000e+00 2.240000009536743164e+00 -1.013130307197570801e+00
4.015000000000000000e+03 6.549076843261718750e+01 -6.787777423858642578e+00 -2.707554697990417480e-01 7.555232524871826172e+00 2.185343027114868164e+00 -3.572843968868255615e-01
4.016000000000000000e+03 6.733937835693359375e+01 -8.086615562438964844e+00 -2.008783370256423950e-01 7.796880245208740234e+00 2.278800487518310547e+00 -3.288894295692443848e-01
4.017000000000000000e+03 5.997429656982421875e+01 -5.355688095092773438e+00 -4.050057530403137207e-01 6.947314739227294922e+00 1.962692737579345703e+00 -2.835732102394104004e-01
4.018000000000000000e+03 3.674830627441406250e+01 1.814376831054687500e+00 -1.630812585353851318e-01 2.803875207901000977e+00 7.922381758689880371e-01 5.187031626701354980e-01
4.019000000000000000e+03 6.345247268676757812e+01 -7.513275623321533203e+00 -3.051158487796783447e-01 7.321056842803955078e+00 2.104782342910766602e+00 -3.146668374538421631e-01
4.020000000000000000e+03 3.632320785522460938e+01 1.238115406036376953e+01 1.965657323598861694e-01 2.363880157470703125e+00 7.681337594985961914e-01 7.525498270988464355e-01
4.021000000000000000e+03 6.019585418701171875e+01 -3.476807355880737305e+00 -4.468942284584045410e-01 7.028507709503173828e+00 1.974484086036682129e+00 -3.185767233371734619e-01
4.022000000000000000e+03 4.032767868041992188e+01 3.670504331588745117e+00 -2.489051222801208496e-01 3.639921903610229492e+00 1.017305016517639160e+00 5.784833431243896484e-01
4.023000000000000000e+03 4.011251831054687500e+01 7.197086334228515625e+00 -1.693557053804397583e-01 3.582627534866333008e+00 1.023981571197509766e+00 7.244384884834289551e-01
4.024000000000000000e+03 4.348790359497070312e+01 2.178293037414550781e+01 8.509411215782165527e-01 4.056706428527832031e+00 1.472294211387634277e+00 2.056103229522705078e+00
4.025000000000000000e+03 4.434146118164062500e+01 2.040782165527343750e+01 5.004535317420959473e-01 4.754999160766601562e+00 1.576635837554931641e+00 1.980753421783447266e+00
4.026000000000000000e+03 5.126961517333984375e+01 1.638112449645996094e+01 -7.262665629386901855e-01 7.676263809204101562e+00 2.084999084472656250e+00 6.406530141830444336e-01
4.027000000000000000e+03 5.977541351318359375e+01 1.263698101043701172e+01 -7.072769403457641602e-01 8.016780853271484375e+00 2.192851066589355469e+00 -7.351126074790954590e-01
4.028000000000000000e+03 6.188663101196289062e+01 -3.308706283569335938e+00 -4.172111749649047852e-01 7.231210231781005859e+00 2.044199705123901367e+00 -3.729621171951293945e-01
4.029000000000000000e+03 5.701497650146484375e+01 1.167652702331542969e+01 -7.902148962020874023e-01 7.790729999542236328e+00 2.100154638290405273e+00 -4.018797576427459717e-01
4.030000000000000000e+03 5.329561233520507812e+01 1.342035865783691406e+01 -8.111189007759094238e-01 7.592870235443115234e+00 2.034525394439697266e+00 1.639855355024337769e-01
4.031000000000000000e+03 5.327533721923828125e+01 1.445142555236816406e+01 -8.234123587608337402e-01 7.745709896087646484e+00 2.076689243316650391e+00 1.835231482982635498e-01
4.032000000000000000e+03 6.490596771240234375e+01 -2.676974773406982422e+00 -3.482722043991088867e-01 7.551546096801757812e+00 2.160982131958007812e+00 -4.617891013622283936e-01
4.033000000000000000e+03 6.089031600952148438e+01 1.207632255554199219e+01 -6.670991778373718262e-01 7.973549842834472656e+00 2.191935300827026367e+00 -8.097587823867797852e-01
4.034000000000000000e+03 5.094012069702148438e+01 -1.855095148086547852e+00 -5.261061191558837891e-01 5.743054389953613281e+00 1.565084457397460938e+00 8.650044351816177368e-02
4.035000000000000000e+03 4.443788528442382812e+01 1.883755683898925781e+01 2.700346708297729492e-01 4.890261173248291016e+00 1.548088788986206055e+00 1.723501563072204590e+00
4.036000000000000000e+03 5.080485534667968750e+01 -3.438698768615722656e+00 -4.847004711627960205e-01 5.650220394134521484e+00 1.549655914306640625e+00 6.863241642713546753e-02
4.037000000000000000e+03 5.275559234619140625e+01 1.387705039978027344e+01 -7.988587021827697754e-01 7.625538825988769531e+00 2.048004150390625000e+00 2.151870429515838623e-01
4.038000000000000000e+03 5.215446853637695312e+01 1.431533145904541016e+01 -7.712737321853637695e-01 7.488005638122558594e+00 2.015019416809082031e+00 3.642567694187164307e-01
4.039000000000000000e+03 4.419209289550781250e+01 1.736703109741210938e+01 1.149289309978485107e-01 4.868375301361083984e+00 1.494991302490234375e+00 1.522282242774963379e+00
4.040000000000000000e+03 4.477624893188476562e+01 1.734432029724121094e+01 3.663054481148719788e-02 5.176270008087158203e+00 1.563870191574096680e+00 1.552926421165466309e+00
4.041000000000000000e+03 4.492214965820312500e+01 1.631585502624511719e+01 -3.352297097444534302e-02 5.199476718902587891e+00 1.549786210060119629e+00 1.452449917793273926e+00
4.042000000000000000e+03 4.668477249145507812e+01 1.324870491027832031e+01 -4.035046994686126709e-01 5.745633602142333984e+00 1.602638602256774902e+00 1.014646291732788086e+00
4.043000000000000000e+03 4.041201019287109375e+01 1.906107902526855469e+01 6.697517633438110352e-01 2.966886997222900391e+00 1.090991616249084473e+00 1.360485315322875977e+00
4.044000000000000000e+03 4.590325927734375000e+01 1.280299472808837891e+01 -3.485797643661499023e-01 5.431576728820800781e+00 1.524899125099182129e+00 1.000496149063110352e+00
4.045000000000000000e+03 5.533017349243164062e+01 2.736984014511108398e+00 -6.598030924797058105e-01 6.718057632446289062e+00 1.817476391792297363e+00 -1.475751549005508423e-01
4.046000000000000000e+03 4.607842636108398438e+01 6.263405323028564453e+00 -4.804258942604064941e-01 5.157129764556884766e+00 1.403011083602905273e+00 5.707041621208190918e-01
4.047000000000000000e+03 4.646314239501953125e+01 1.205367469787597656e+01 -4.088957607746124268e-01 5.555203437805175781e+00 1.543892264366149902e+00 9.310687780380249023e-01
4.048000000000000000e+03 4.799711227416992188e+01 8.821331977844238281e+00 -5.627582073211669922e-01 5.797344207763671875e+00 1.570375800132751465e+00 5.782317519187927246e-01
4.049000000000000000e+03 4.126602172851562500e+01 1.722002220153808594e+01 4.088022708892822266e-01 3.567309856414794922e+00 1.192833662033081055e+00 1.345301747322082520e+00
4.050000000000000000e+03 4.203626632690429688e+01 1.701037788391113281e+01 3.191067874431610107e-01 3.918120861053466797e+00 1.271168231964111328e+00 1.419897079467773438e+00
4.051000000000000000e+03 5.117207717895507812e+01 6.798434257507324219e+00 -6.845085024833679199e-01 6.366364955902099609e+00 1.704556941986083984e+00 2.290673106908798218e-01
4.052000000000000000e+03 4.873140335083007812e+01 1.045773506164550781e+01 -5.995160937309265137e-01 6.132409095764160156e+00 1.659867882728576660e+00 6.304891109466552734e-01
4.053000000000000000e+03 1.426702117919921875e+01 1.252673983573913574e+00 -1.088590797735378146e-04 1.215680185850942507e-06 -3.229302092222496867e-05 -8.184315083781257272e-05
4.054000000000000000e+03 1.462149238586425781e+01 1.164639949798583984e+00 2.268068783450871706e-04 2.190149871239555068e-06 6.869911157991737127e-05 -3.408974589547142386e-05
4.055000000000000000e+03 1.332876110076904297e+01 1.093653082847595215e+00 -3.392200233065523207e-05 -5.520267222891561687e-05 -2.673740164027549326e-05 -3.748250674107111990e-05
4.056000000000000000e+03 1.406522464752197266e+01 3.572364747524261475e-01 -2.838093314494471997e-05 -3.408703196328133345e-05 -1.874038935056887567e-05 -5.827150744153186679e-06
4.057000000000000000e+03 1.336003494262695312e+01 3.511472940444946289e-01 1.325177436228841543e-05 5.587335544987581670e-05 2.073753967124503106e-05 1.520363002782687545e-05
4.058000000000000000e+03 1.476313018798828125e+01 5.016638040542602539e-01 1.240950223291292787e-05 1.846971827035304159e-05 9.263765605282969773e-06 8.874616469256579876e-06
4.059000000000000000e+03 1.414069938659667969e+01 9.322270154953002930e-01 1.400071196258068085e-04 -4.072237788932397962e-05 2.978542397613637149e-05 5.697408778360113502e-05
4.060000000000000000e+03 1.384797477722167969e+01 1.187353014945983887e+00 2.736834539973642677e-05 3.307595034129917622e-05 1.813328890420962125e-05 3.845390892820432782e-05
4.061000000000000000e+03 1.112969017028808594e+01 3.708996772766113281e-01 -1.894067099783569574e-05 -5.069961480330675840e-05 -2.089208464894909412e-05 7.980739610502496362e-06
4.062000000000000000e+03 1.113907623291015625e+01 1.110847473144531250e+00 6.058393773855641484e-05 3.497857687762007117e-05 2.866875547624658793e-05 -2.213623338320758194e-05
4.063000000000000000e+03 1.263169097900390625e+01 3.451149165630340576e-01 -1.481908202549675480e-05 -6.804359145462512970e-05 -2.485880213498603553e-05 -2.849525344572612084e-06
4.064000000000000000e+03 1.037880802154541016e+01 3.837110698223114014e-01 2.117148869729135185e-05 3.625508543336763978e-05 1.722797242109663785e-05 -6.045576355973025784e-06
4.065000000000000000e+03 1.188065242767333984e+01 3.580341637134552002e-01 1.558081748953554779e-05 6.433550151996314526e-05 2.397489697614219040e-05 -4.584169346344424412e-06
4.066000000000000000e+03 1.264514160156250000e+01 1.084993243217468262e+00 3.104014467680826783e-05 5.550784044316969812e-05 2.596439480839762837e-05 5.017633156967349350e-06
4.067000000000000000e+03 1.038616180419921875e+01 1.123693704605102539e+00 -6.659665086772292852e-05 -2.861915345420129597e-05 -2.856474202417302877e-05 1.371559028484625742e-05
4.068000000000000000e+03 1.189207077026367188e+01 1.097947120666503906e+00 -4.337518112151883543e-05 -4.836264997720718384e-05 -2.752134787442628294e-05 1.891089777927845716e-05
4.069000000000000000e+03 9.625078201293945312e+00 3.871397972106933594e-01 -2.214161395386327058e-05 -2.888330891437362880e-05 -1.530747613287530839e-05 5.155631583875219803e-07
4.070000000000000000e+03 8.868724822998046875e+00 3.828192353248596191e-01 2.116673385899048299e-05 2.980556382681243122e-05 1.529168912384193391e-05 3.450870735832722858e-06
4.071000000000000000e+03 9.644926071166992188e+00 1.127139806747436523e+00 6.863353337394073606e-05 2.809187026286963373e-05 2.901762127294205129e-05 -1.944378482221509330e-06
4.072000000000000000e+03 8.112174034118652344e+00 3.804100155830383301e-01 -2.122749720001593232e-05 -3.389680205145850778e-05 -1.653728941164445132e-05 -5.305016202328260988e-06
4.073000000000000000e+03 7.356014251708984375e+00 3.793691694736480713e-01 1.988763870031107217e-05 3.658700370579026639e-05 1.694239290372934192e-05 4.828984401683555916e-06
4.074000000000000000e+03 5.843623161315917969e+00 3.767499327659606934e-01 1.768615948094520718e-05 2.408024920441675931e-05 1.252992296940647066e-05 -2.722920271480688825e-06
4.075000000000000000e+03 5.088051319122314453e+00 3.757717311382293701e-01 -1.383811559207970276e-05 -6.461681095970561728e-06 -6.089938779041403905e-06 1.078694367606658489e-05
4.076000000000000000e+03 3.576755046844482422e+00 3.680583238601684570e-01 -2.080900776491034776e-05 2.894372300943359733e-05 2.440414846205385402e-06 1.466115008952328935e-05
4.077000000000000000e+03 2.822042465209960938e+00 3.613462746143341064e-01 2.970892637677025050e-05 -2.790059625112917274e-05 5.424988103186478838e-07 -6.180233867780771106e-06
4.078000000000000000e+03 2.068703651428222656e+00 3.577998280525207520e-01 -2.437295370327774435e-05 1.664614683249965310e-05 -2.318042106708162464e-06 1.216321038555179257e-06
4.079000000000000000e+03 2.358754634857177734e+00 1.097799897193908691e+00 7.545073458459228277e-05 -6.920642135810339823e-06 2.055902768915984780e-05 1.545009763503912836e-05
4.080000000000000000e+03 1.327708005905151367e+00 3.658417165279388428e-01 4.473627541301539168e-06 -1.613700806046836078e-05 -3.499013928376371041e-06 -1.546896237414330244e-05
4.081000000000000000e+03 1.644779324531555176e+00 1.105841755867004395e+00 -4.321973028709180653e-05 -2.280320768477395177e-05 -1.980688102776184678e-05 -1.278945092053618282e-05
4.082000000000000000e+03 6.509408354759216309e-01 3.937322795391082764e-01 7.149521115934476256e-05 6.064320768928155303e-05 3.964152710977941751e-05 7.750583608867600560e-05
4.083000000000000000e+03 3.482567369937896729e-01 9.569563269615173340e-01 -1.095370171242393553e-04 -6.926641799509525299e-05 -5.364102980820462108e-05 -2.629441223689354956e-05
4.084000000000000000e+03 3.085073232650756836e+00 1.101346254348754883e+00 -8.610374788986518979e-05 1.587622500665020198e-05 -2.106825741066131741e-05 -1.285647499571496155e-06
4.085000000000000000e+03 3.812765598297119141e+00 1.108058333396911621e+00 7.239690603455528617e-05 -7.523421572841471061e-06 1.946204429259523749e-05 -1.937103297677822411e-05
4.086000000000000000e+03 4.332499980926513672e+00 3.732680678367614746e-01 1.760897248459514230e-05 -1.482689913245849311e-05 8.346221420652000234e-07 -1.604902354301884770e-05
4.087000000000000000e+03 5.998572826385498047e+00 1.116749882698059082e+00 -4.637558959075249732e-05 -2.855664024536963552e-05 -2.247966767754405737e-05 1.262552814296213910e-05
4.088000000000000000e+03 6.600036144256591797e+00 3.784387111663818359e-01 -1.919046553666703403e-05 -3.382861905265599489e-05 -1.590572537679690868e-05 -2.019584826484788209e-06
4.089000000000000000e+03 8.186062812805175781e+00 1.120409965515136719e+00 5.832378155901096761e-05 3.254791226936504245e-05 2.726150887610856444e-05 8.045164577197283506e-06
4.090000000000000000e+03 8.915593147277832031e+00 1.122819185256958008e+00 -6.332378688966855407e-05 -2.975079223688226193e-05 -2.792237319226842374e-05 -6.553533694386715069e-06
4.091000000000000000e+03 7.456923484802246094e+00 1.119369149208068848e+00 -5.499886901816353202e-05 -3.381114584044553339e-05 -2.664300336618907750e-05 -4.421533958520740271e-06
4.092000000000000000e+03 6.727965354919433594e+00 1.118438720703125000e+00 5.085406519356183708e-05 3.325270154164172709e-05 2.523202965676318854e-05 -2.145372263839817606e-06
4.093000000000000000e+03 5.270021438598632812e+00 1.115771770477294922e+00 4.378485027700662613e-05 2.110134300892241299e-05 1.946585689438506961e-05 -2.144305108231492341e-05
4.094000000000000000e+03 4.541490077972412109e+00 1.113268017768859863e+00 -5.141064320923760533e-05 -8.983221050584688783e-06 -1.811815855035092682e-05 2.751931970124132931e-05
4.095000000000000000e+03 9.950323700904846191e-01 1.133732318878173828e+00 -2.413373840681742877e-05 8.989917114377021790e-05 1.972963036678265780e-05 -2.224820673291105777e-05
4.096000000000000000e+03 7.951600551605224609e+00 -3.791473805904388428e-01 -4.363948028185404837e-05 -2.127932966686785221e-04 -7.692983490414917469e-05 2.863767986127641052e-05
4.097000000000000000e+03 8.812386512756347656e+00 -1.121279358863830566e+00 -1.058441266650334001e-04 -1.327514619333669543e-04 -7.157867366913706064e-05 3.607502731028944254e-05
4.098000000000000000e+03 9.587816238403320312e+00 -3.863115906715393066e-01 -3.933812331524677575e-05 -1.770260860212147236e-04 -6.490926170954480767e-05 2.253075581393204629e-05
4.099000000000000000e+03 7.132064342498779297e+00 -3.779651820659637451e-01 4.967856875737197697e-05 2.187853970099240541e-04 8.053919009398669004e-05 -3.653669409686699510e-05
4.100000000000000000e+03 6.306247234344482422e+00 -3.772793114185333252e-01 -5.485848669195547700e-05 -2.262616762891411781e-04 -8.433604671154171228e-05 4.707722837338224053e-05
4.101000000000000000e+03 5.442752361297607422e+00 -3.835102021694183350e-01 2.008785713769611903e-06 2.129397180397063494e-04 6.448454951168969274e-05 -1.333219097432447597e-05
4.102000000000000000e+03 4.552286148071289062e+00 -3.399353623390197754e-01 -5.157027408131398261e-05 -2.150785294361412525e-04 -7.999464287422597408e-05 -1.287350096390582621e-05
4.103000000000000000e+03 4.371328830718994141e+00 -8.708365559577941895e-01 3.867236664518713951e-04 2.010056778090074658e-04 1.763188047334551811e-04 2.011218166444450617e-04
4.104000000000000000e+03 2.785328388214111328e+00 -7.796061038970947266e-01 9.500885789748281240e-05 -1.797747245291247964e-04 -2.542976289987564087e-05 3.694623301271349192e-04
4.105000000000000000e+03 1.180722951889038086e+00 -3.608860373497009277e-01 -3.162608190905302763e-04 1.692947844276204705e-04 -4.408980748848989606e-05 -3.208108319086022675e-05
4.106000000000000000e+03 4.099212884902954102e-01 -5.526853203773498535e-01 -3.048711732844822109e-05 -1.463448716094717383e-04 -5.304959631757810712e-05 -8.349474956048652530e-05
4.107000000000000000e+03 7.477942705154418945e-01 -1.100885987281799316e+00 9.647945407778024673e-04 1.826210645958781242e-04 3.442246816121041775e-04 2.219718444393947721e-04
4.108000000000000000e+03 9.597747802734375000e+00 -1.126311540603637695e+00 1.016978785628452897e-04 1.331580861005932093e-04 7.045678648864850402e-05 -5.044750650995410979e-05
4.109000000000000000e+03 8.026608467102050781e+00 -1.119147419929504395e+00 1.062359806383028626e-04 1.209354159072972834e-04 6.815142114646732807e-05 -2.371524169575423002e-05
4.110000000000000000e+03 7.239610195159912109e+00 -1.117965221405029297e+00 -1.130094897234812379e-04 -8.895091013982892036e-05 -6.058811777620576322e-05 5.910244453843915835e-06
4.111000000000000000e+03 6.446331024169921875e+00 -1.117279291152954102e+00 9.622849756851792336e-05 1.334058379143243656e-05 3.287072468083351851e-05 2.514685365895275027e-05
4.112000000000000000e+03 5.615375041961669922e+00 -1.123510241508483887e+00 2.161785914722713642e-07 6.047940041753463447e-05 1.820867328206077218e-05 -5.450929165817797184e-05
4.113000000000000000e+03 4.879715442657470703e+00 -1.221276640892028809e+00 -1.616461086086928844e-04 -3.157953324262052774e-04 -1.432324352208524942e-04 -1.016551977954804897e-04
4.114000000000000000e+03 4.223337173461914062e+00 -1.290901184082031250e+00 -2.457181981299072504e-04 3.003313031513243914e-04 1.638393587199971080e-05 1.221736238221637905e-05
4.115000000000000000e+03 3.489140987396240234e+00 -1.263193726539611816e+00 1.581655378686264157e-04 -9.936231799656525254e-05 1.764096850820351392e-05 2.115429088007658720e-04
4.116000000000000000e+03 2.723763942718505859e+00 -1.258556365966796875e+00 9.012522059492766857e-05 -1.908562844619154930e-04 -3.021932207047939301e-05 -3.741130058187991381e-04
4.117000000000000000e+03 1.357383847236633301e+00 -1.202877521514892578e+00 -1.011956250295042992e-03 -4.494689637795090675e-04 -4.384275816846638918e-04 -1.273313537240028381e-04
4.118000000000000000e+03 8.769917488098144531e+00 -3.812793791294097900e-01 3.849344648187980056e-05 2.001993707381188869e-04 7.160784298321232200e-05 -2.550940735090989619e-05
4.119000000000000000e+03 3.581377506256103516e+00 -7.854385375976562500e-01 -1.588700542924925685e-04 -7.432676648022606969e-05 -6.995904550421983004e-05 -2.350940922042354941e-04
4.120000000000000000e+03 3.695749998092651367e+00 -2.822447717189788818e-01 1.913590313051827252e-05 2.200402086600661278e-04 7.175283826654776931e-05 6.546595977852120996e-05
4.121000000000000000e+03 2.864297151565551758e+00 -2.810497581958770752e-01 -1.163665801868773997e-04 -1.697665866231545806e-04 -8.583995077060535550e-05 -8.995072130346670747e-05
4.122000000000000000e+03 1.994235515594482422e+00 -3.319245874881744385e-01 -1.692932346486486495e-05 3.477149584796279669e-05 5.352651896828319877e-06 1.547759020468220115e-04
4.123000000000000000e+03 1.981270551681518555e+00 -1.274680376052856445e+00 3.072706749662756920e-05 5.138256237842142582e-04 1.633658102946355939e-04 3.482145548332482576e-04
4.124000000000000000e+03 1.973554253578186035e+00 -8.466050028800964355e-01 4.979316727258265018e-04 2.613326942082494497e-04 2.277792955283075571e-04 -5.225210334174335003e-04
4.125000000000000000e+03 1.332448291778564453e+01 -3.621845245361328125e-01 3.213073432561941445e-05 6.252961611608043313e-05 2.839810622390359640e-05 1.942322705872356892e-05
4.126000000000000000e+03 1.426397991180419922e+01 -1.317608714103698730e+00 -1.081335140042938292e-04 -9.689260332379490137e-05 -6.150783883640542626e-05 -5.929960593675787095e-07
4.127000000000000000e+03 1.327361392974853516e+01 -1.248556852340698242e+00 -2.704294165596365929e-04 -6.311103788902983069e-05 -1.000621414277702570e-04 1.304614270338788629e-04
4.128000000000000000e+03 1.480296707153320312e+01 -1.047354817390441895e+00 4.381268445285968482e-05 3.096054570050910115e-05 2.243197013740427792e-05 -5.083546966488938779e-06
4.129000000000000000e+03 1.356446647644042969e+01 -7.579438090324401855e-01 1.429330441169440746e-04 2.926678462245035917e-05 5.165994662092998624e-05 -1.066052427631802857e-04
4.130000000000000000e+03 1.393659019470214844e+01 -3.302382230758666992e-01 -3.423774614930152893e-05 -5.542474900721572340e-05 -2.689874963834881783e-05 2.881700856960378587e-05
4.131000000000000000e+03 1.449034786224365234e+01 -4.399540424346923828e-01 1.536088529974222183e-05 -7.125793672457803041e-06 2.470527306286385283e-06 -2.873946323234122247e-05
4.132000000000000000e+03 1.380024147033691406e+01 -1.352263331413269043e+00 3.089259262196719646e-04 5.086800592835061252e-05 1.079381836461834610e-04 -7.075371831888332963e-05
4.133000000000000000e+03 1.402595424652099609e+01 -9.610455632209777832e-01 -8.181841985788196325e-05 -2.487864730937872082e-05 -3.200912033207714558e-05 1.025268429657444358e-04
4.134000000000000000e+03 1.185737037658691406e+01 -1.162281751632690430e+00 -9.393833170179277658e-05 -1.163895940408110619e-04 -6.309837772278115153e-05 5.345830504666082561e-05
4.135000000000000000e+03 1.112013435363769531e+01 -4.102526009082794189e-01 -3.649878635769709945e-05 -1.232852664543315768e-04 -4.793521657120436430e-05 2.077837780234403908e-05
4.136000000000000000e+03 1.261753940582275391e+01 -4.348734915256500244e-01 -5.787256304756738245e-05 -4.805715798283927143e-05 -3.177891630912199616e-05 1.438600793335353956e-05
4.137000000000000000e+03 1.037124824523925781e+01 -3.971002995967864990e-01 3.454282705206423998e-05 1.591666223248466849e-04 5.811283335788175464e-05 -2.186143865401390940e-05
4.138000000000000000e+03 1.036389350891113281e+01 -1.137082934379577637e+00 -1.127678842749446630e-04 -1.292034721700474620e-04 -7.259140693349763751e-05 5.811595474369823933e-05
4.139000000000000000e+03 1.260408973693847656e+01 -1.174751639366149902e+00 1.362882321700453758e-04 9.770895121619105339e-05 7.019915210548788309e-05 -6.134713476058095694e-05
4.140000000000000000e+03 1.111074829101562500e+01 -1.150200366973876953e+00 1.033084263326600194e-04 1.149613381130620837e-04 6.548093369929119945e-05 -5.513868381967768073e-05
4.141000000000000000e+03 1.186878871917724609e+01 -4.223687946796417236e-01 2.580854379630181938e-05 8.221596363000571728e-05 3.240735168219543993e-05 -2.782381670840550214e-05
4.142000000000000000e+03 4.883805465698242188e+01 3.218794250488281250e+01 3.545398712158203125e+01 3.218053817749023438e+00 1.160161209106445312e+01 7.785491943359375000e+00
4.143000000000000000e+03 4.883877182006835938e+01 3.216848754882812500e+01 3.676953125000000000e+01 1.205000972747802734e+01 1.464586257934570312e+01 2.120699310302734375e+01
4.144000000000000000e+03 4.884326553344726562e+01 3.214954757690429688e+01 3.604200363159179688e+01 2.280255317687988281e+01 1.765336799621582031e+01 2.726670455932617188e+01
4.145000000000000000e+03 4.885136032104492188e+01 3.213183975219726562e+01 3.305974197387695312e+01 3.505880355834960938e+01 2.043556213378906250e+01 3.090497207641601562e+01
4.146000000000000000e+03 4.886274337768554688e+01 3.211604690551757812e+01 2.943990898132324219e+01 4.709509277343750000e+01 2.296050071716308594e+01 3.140126419067382812e+01
4.147000000000000000e+03 4.887698745727539062e+01 3.210277557373046875e+01 2.524353408813476562e+01 5.831655502319335938e+01 2.506802749633789062e+01 2.915893745422363281e+01
4.148000000000000000e+03 4.889353942871093750e+01 3.209252929687500000e+01 2.195738601684570312e+01 6.766119384765625000e+01 2.688557434082031250e+01 2.438572311401367188e+01
4.149000000000000000e+03 4.891177368164062500e+01 3.208570480346679688e+01 1.981890869140625000e+01 7.407126617431640625e+01 2.816705322265625000e+01 1.787676429748535156e+01
4.150000000000000000e+03 4.893098449707031250e+01 3.208255767822265625e+01 1.981972122192382812e+01 7.734683227539062500e+01 2.914996528625488281e+01 1.048246574401855469e+01
4.151000000000000000e+03 4.895044326782226562e+01 3.208320999145507812e+01 2.182155609130859375e+01 7.737763214111328125e+01 2.975975799560546875e+01 3.477003574371337891e+00
4.152000000000000000e+03 4.896939849853515625e+01 3.208763885498046875e+01 2.577629089355468750e+01 7.463544464111328125e+01 3.012351989746093750e+01 -2.582563400268554688e+00
4.153000000000000000e+03 4.898713302612304688e+01 3.209567260742187500e+01 3.023033332824707031e+01 7.004232025146484375e+01 3.008179664611816406e+01 -6.528445720672607422e+00
4.154000000000000000e+03 4.900296020507812500e+01 3.210700607299804688e+01 3.589377212524414062e+01 6.470072174072265625e+01 3.017834663391113281e+01 -8.305006027221679688e+00
4.155000000000000000e+03 4.901628112792968750e+01 3.212120437622070312e+01 4.104411697387695312e+01 5.938407516479492188e+01 3.012845802307128906e+01 -7.988551139831542969e+00
4.156000000000000000e+03 4.902658462524414062e+01 3.213772583007812500e+01 4.488861846923828125e+01 5.420790863037109375e+01 2.972895812988281250e+01 -6.063736915588378906e+00
4.157000000000000000e+03 4.903347015380859375e+01 3.215593338012695312e+01 4.803430938720703125e+01 5.190650177001953125e+01 2.998224258422851562e+01 -2.712554931640625000e+00
4.158000000000000000e+03 4.903668212890625000e+01 3.217513275146484375e+01 4.953597640991210938e+01 5.012610626220703125e+01 2.989862442016601562e+01 1.912047147750854492e+00
4.159000000000000000e+03 4.903609466552734375e+01 3.219459152221679688e+01 4.913131713867187500e+01 5.005108261108398438e+01 2.975472068786621094e+01 6.094560623168945312e+00
4.160000000000000000e+03 4.903172683715820312e+01 3.221356582641601562e+01 4.749041366577148438e+01 5.332443237304687500e+01 3.024445343017578125e+01 1.038529396057128906e+01
4.161000000000000000e+03 4.902375030517578125e+01 3.223132705688476562e+01 4.348339080810546875e+01 5.684672927856445312e+01 3.009903526306152344e+01 1.385429859161376953e+01
4.162000000000000000e+03 4.901247024536132812e+01 3.224719238281250000e+01 3.856559753417968750e+01 6.245712661743164062e+01 3.030681610107421875e+01 1.554127120971679688e+01
4.163000000000000000e+03 4.899831771850585938e+01 3.226055908203125000e+01 3.243651580810546875e+01 6.853317260742187500e+01 3.029090499877929688e+01 1.521973228454589844e+01
4.164000000000000000e+03 4.898183059692382812e+01 3.227091598510742188e+01 2.600284194946289062e+01 7.415900421142578125e+01 3.004855537414550781e+01 1.253784275054931641e+01
4.165000000000000000e+03 4.896364593505859375e+01 3.227786254882812500e+01 2.017678833007812500e+01 7.839357757568359375e+01 2.957110977172851562e+01 7.501363277435302734e+00
4.166000000000000000e+03 4.894445800781250000e+01 3.228113937377929688e+01 1.581806755065917969e+01 8.013900756835937500e+01 2.878712081909179688e+01 7.307254672050476074e-01
4.167000000000000000e+03 4.892499542236328125e+01 3.228061676025390625e+01 1.335657119750976562e+01 7.870741271972656250e+01 2.761919403076171875e+01 -7.169793605804443359e+00
4.168000000000000000e+03 4.890600585937500000e+01 3.227631378173828125e+01 1.293447303771972656e+01 7.381810760498046875e+01 2.602577400207519531e+01 -1.478276824951171875e+01
4.169000000000000000e+03 4.888822174072265625e+01 3.226839828491210938e+01 1.468440628051757812e+01 6.558675384521484375e+01 2.408134841918945312e+01 -2.136914062500000000e+01
4.170000000000000000e+03 4.887231826782226562e+01 3.225717163085937500e+01 1.762542152404785156e+01 5.486191177368164062e+01 2.174620056152343750e+01 -2.576007270812988281e+01
4.171000000000000000e+03 4.885890197753906250e+01 3.224306106567382812e+01 2.180936431884765625e+01 4.173873519897460938e+01 1.906443023681640625e+01 -2.747209739685058594e+01
4.172000000000000000e+03 4.884849166870117188e+01 3.222660827636718750e+01 2.564783859252929688e+01 2.831353759765625000e+01 1.618841361999511719e+01 -2.593663978576660156e+01
4.173000000000000000e+03 4.884148406982421875e+01 3.220844650268554688e+01 3.206240463256835938e+01 1.165875053405761719e+01 1.311634635925292969e+01 -1.730798721313476562e+01
