# el_label, x, y, sXX, sYY, sZZ, sXY
1.000000000000000000e+00 3.978467178344726562e+01 3.381098175048828125e+01 -5.569368362426757812e+00 -1.646150350570678711e+00 -2.164655685424804688e+00 -2.142375946044921875e+00
2.000000000000000000e+00 3.958631134033203125e+01 3.382743072509765625e+01 -1.858505904674530029e-01 6.360779404640197754e-01 1.350682079792022705e-01 9.779983162879943848e-01
3.000000000000000000e+00 3.938795089721679688e+01 3.384387969970703125e+01 -1.730812311172485352e+00 -4.310390949249267578e-01 -6.485553979873657227e-01 2.342965900897979736e-01
4.000000000000000000e+00 3.918959045410156250e+01 3.386032867431640625e+01 -1.903931498527526855e+00 1.004544794559478760e-01 -5.410431027412414551e-01 5.235200524330139160e-01
5.000000000000000000e+00 3.978556060791015625e+01 3.375258255004882812e+01 1.088876628875732422e+01 -2.728788137435913086e+00 2.447993278503417969e+00 -4.563253819942474365e-01
6.000000000000000000e+00 3.958779144287109375e+01 3.373010253906250000e+01 3.866696596145629883e+00 1.562345772981643677e-02 1.164695978164672852e+00 7.346146106719970703e-01
7.000000000000000000e+00 3.939002609252929688e+01 3.370761871337890625e+01 3.999833822250366211e+00 1.408763378858566284e-01 1.242213010787963867e+00 1.525765657424926758e+00
8.000000000000000000e+00 3.919226074218750000e+01 3.368513488769531250e+01 2.492455959320068359e+00 -1.214142069220542908e-01 7.113125324249267578e-01 9.281848669052124023e-01
9.000000000000000000e+00 3.979780197143554688e+01 3.369547653198242188e+01 1.848995208740234375e+01 -9.736855328083038330e-02 5.517775058746337891e+00 6.151139736175537109e+00
1.000000000000000000e+01 3.960819625854492188e+01 3.363492202758789062e+01 1.095682334899902344e+01 -1.361417770385742188e-02 3.282962799072265625e+00 3.516185760498046875e+00
1.100000000000000000e+01 3.941859054565429688e+01 3.357436752319335938e+01 7.546927452087402344e+00 7.870388627052307129e-01 2.500190019607543945e+00 3.104439258575439453e+00
1.200000000000000000e+01 3.922898101806640625e+01 3.351381301879882812e+01 6.696733951568603516e+00 6.573778390884399414e-01 2.206233501434326172e+00 3.047112226486206055e+00
1.300000000000000000e+01 3.982092666625976562e+01 3.364184570312500000e+01 2.208380699157714844e+01 4.762019157409667969e+00 8.053748130798339844e+00 1.216567707061767578e+01
1.400000000000000000e+01 3.964673614501953125e+01 3.354553604125976562e+01 1.417333316802978516e+01 2.892069578170776367e+00 5.119620800018310547e+00 7.848453998565673828e+00
1.500000000000000000e+01 3.947254562377929688e+01 3.344922637939453125e+01 1.110634613037109375e+01 2.391518592834472656e+00 4.049359321594238281e+00 6.203443527221679688e+00
1.600000000000000000e+01 3.929835510253906250e+01 3.335292053222656250e+01 8.877230644226074219e+00 2.266893863677978516e+00 3.343237400054931641e+00 5.274100780487060547e+00
1.700000000000000000e+01 3.985404968261718750e+01 3.359374237060546875e+01 2.170143699645996094e+01 1.205389499664306641e+01 1.012659931182861328e+01 1.705928230285644531e+01
1.800000000000000000e+01 3.970194244384765625e+01 3.346536254882812500e+01 1.536948394775390625e+01 7.472386360168457031e+00 6.852560997009277344e+00 1.175062465667724609e+01
1.900000000000000000e+01 3.954983520507812500e+01 3.333698654174804688e+01 1.206708908081054688e+01 5.997967720031738281e+00 5.419517040252685547e+00 9.266733169555664062e+00
2.000000000000000000e+01 3.939772796630859375e+01 3.320861053466796875e+01 1.015433502197265625e+01 5.074987411499023438e+00 4.568796634674072266e+00 8.150781631469726562e+00
2.100000000000000000e+01 3.989590454101562500e+01 3.355300521850585938e+01 1.930722999572753906e+01 2.032103919982910156e+01 1.188848114013671875e+01 1.976148033142089844e+01
2.200000000000000000e+01 3.977170181274414062e+01 3.339747238159179688e+01 1.434828376770019531e+01 1.358419609069824219e+01 8.379743576049804688e+00 1.423704242706298828e+01
2.300000000000000000e+01 3.964749526977539062e+01 3.324193954467773438e+01 1.163689899444580078e+01 1.074060630798339844e+01 6.713251590728759766e+00 1.177583122253417969e+01
2.400000000000000000e+01 3.952328872680664062e+01 3.308640670776367188e+01 9.920358657836914062e+00 9.191765785217285156e+00 5.733637332916259766e+00 1.008484745025634766e+01
2.500000000000000000e+01 3.994488906860351562e+01 3.352119827270507812e+01 1.592294406890869141e+01 2.883916664123535156e+01 1.342863273620605469e+01 1.980808448791503906e+01
2.600000000000000000e+01 3.985334014892578125e+01 3.334446334838867188e+01 1.231848907470703125e+01 2.007165718078613281e+01 9.717043876647949219e+00 1.512922859191894531e+01
2.700000000000000000e+01 3.976179122924804688e+01 3.316772460937500000e+01 1.013931274414062500e+01 1.615590286254882812e+01 7.888564586639404297e+00 1.266682815551757812e+01
2.800000000000000000e+01 3.967024230957031250e+01 3.299098587036132812e+01 8.673541069030761719e+00 1.397345066070556641e+01 6.794097423553466797e+00 1.118705463409423828e+01
2.900000000000000000e+01 3.999912643432617188e+01 3.349953842163085938e+01 1.280266571044921875e+01 3.626134109497070312e+01 1.471920204162597656e+01 1.751076316833496094e+01
3.000000000000000000e+01 3.994373703002929688e+01 3.330836105346679688e+01 1.017894363403320312e+01 2.620175743103027344e+01 1.091421031951904297e+01 1.416706752777099609e+01
3.100000000000000000e+01 3.988834762573242188e+01 3.311717987060546875e+01 8.200911521911621094e+00 2.159809494018554688e+01 8.939702033996582031e+00 1.215501117706298828e+01
3.200000000000000000e+01 3.983295822143554688e+01 3.292600250244140625e+01 7.117808818817138672e+00 1.855525779724121094e+01 7.701920032501220703e+00 1.065278053283691406e+01
3.300000000000000000e+01 4.005654525756835938e+01 3.348884963989257812e+01 1.112129592895507812e+01 4.187086868286132812e+01 1.589764976501464844e+01 1.343868446350097656e+01
3.400000000000000000e+01 4.003943252563476562e+01 3.329054641723632812e+01 8.451752662658691406e+00 3.119686508178710938e+01 1.189458560943603516e+01 1.173847389221191406e+01
3.500000000000000000e+01 4.002232360839843750e+01 3.309224319458007812e+01 6.825286388397216797e+00 2.615779113769531250e+01 9.894923210144042969e+00 1.032720851898193359e+01
3.600000000000000000e+01 4.000521469116210938e+01 3.289393615722656250e+01 5.402644634246826172e+00 2.311726188659667969e+01 8.555972099304199219e+00 9.021589279174804688e+00
3.700000000000000000e+01 4.011494445800781250e+01 3.348954391479492188e+01 1.088702583312988281e+01 4.505352401733398438e+01 1.678216552734375000e+01 8.567911148071289062e+00
3.800000000000000000e+01 4.013676834106445312e+01 3.329170227050781250e+01 8.169613838195800781e+00 3.463744354248046875e+01 1.284211730957031250e+01 8.334771156311035156e+00
3.900000000000000000e+01 4.015859222412109375e+01 3.309386444091796875e+01 6.066922664642333984e+00 2.930518913269042969e+01 1.061163330078125000e+01 7.606774806976318359e+00
4.000000000000000000e+01 4.018041610717773438e+01 3.289602279663085938e+01 4.859450340270996094e+00 2.647416496276855469e+01 9.400084495544433594e+00 7.073810100555419922e+00
4.100000000000000000e+01 4.017209243774414062e+01 3.350159454345703125e+01 1.259220981597900391e+01 4.599728775024414062e+01 1.757684898376464844e+01 4.032372474670410156e+00
4.200000000000000000e+01 4.023201370239257812e+01 3.331178665161132812e+01 8.959712982177734375e+00 3.630410766601562500e+01 1.357914543151855469e+01 4.513860702514648438e+00
4.300000000000000000e+01 4.029193878173828125e+01 3.312198257446289062e+01 6.900625705718994141e+00 3.092968940734863281e+01 1.134909439086914062e+01 4.569720745086669922e+00
4.400000000000000000e+01 4.035185623168945312e+01 3.293217468261718750e+01 5.346559047698974609e+00 2.731918525695800781e+01 9.799723625183105469e+00 4.652061939239501953e+00
4.500000000000000000e+01 4.022580337524414062e+01 3.352453994750976562e+01 1.596739768981933594e+01 4.508812332153320312e+01 1.831665611267089844e+01 3.735572695732116699e-01
4.600000000000000000e+01 4.032152938842773438e+01 3.335003280639648438e+01 1.068436431884765625e+01 3.630565261840820312e+01 1.409700489044189453e+01 1.203334093093872070e+00
4.700000000000000000e+01 4.041725540161132812e+01 3.317552185058593750e+01 9.054574966430664062e+00 3.107444763183593750e+01 1.203870677947998047e+01 1.557992219924926758e+00
4.800000000000000000e+01 4.051298141479492188e+01 3.300101470947265625e+01 7.150930404663085938e+00 2.709540176391601562e+01 1.027390003204345703e+01 1.746110677719116211e+00
4.900000000000000000e+01 4.027401351928710938e+01 3.355750274658203125e+01 1.948707199096679688e+01 4.280598831176757812e+01 1.868791770935058594e+01 -1.999099612236022949e+00
5.000000000000000000e+01 4.040188217163085938e+01 3.340497207641601562e+01 1.393180847167968750e+01 3.508748245239257812e+01 1.470578670501708984e+01 -9.210677146911621094e-01
5.100000000000000000e+01 4.052975082397460938e+01 3.325243759155273438e+01 1.107019519805908203e+01 2.997622299194335938e+01 1.231392478942871094e+01 -8.641906976699829102e-01
5.200000000000000000e+01 4.065762329101562500e+01 3.309989929199218750e+01 1.018514728546142578e+01 2.736462593078613281e+01 1.126493167877197266e+01 -6.441231369972229004e-01
5.300000000000000000e+01 4.031488800048828125e+01 3.359922409057617188e+01 2.316322708129882812e+01 4.026956939697265625e+01 1.902983856201171875e+01 -2.688761711120605469e+00
5.400000000000000000e+01 4.047000885009765625e+01 3.347449874877929688e+01 1.731967353820800781e+01 3.291976547241210938e+01 1.507183170318603516e+01 -1.947861909866333008e+00
5.500000000000000000e+01 4.062512588500976562e+01 3.334977722167968750e+01 1.373631000518798828e+01 2.857468795776367188e+01 1.269329929351806641e+01 -1.817358851432800293e+00
5.600000000000000000e+01 4.078024291992187500e+01 3.322505569458007812e+01 1.195014381408691406e+01 2.598523521423339844e+01 1.138061428070068359e+01 -1.391830682754516602e+00
5.700000000000000000e+01 4.034685897827148438e+01 3.364810180664062500e+01 2.662290763854980469e+01 3.821268081665039062e+01 1.945067596435546875e+01 -1.771673679351806641e+00
5.800000000000000000e+01 4.052328872680664062e+01 3.355596542358398438e+01 2.010794067382812500e+01 3.031342697143554688e+01 1.512640953063964844e+01 -1.899317026138305664e+00
5.900000000000000000e+01 4.069972229003906250e+01 3.346382904052734375e+01 1.660690116882324219e+01 2.720871925354003906e+01 1.314468669891357422e+01 -1.083892703056335449e+00
6.000000000000000000e+01 4.087615585327148438e+01 3.337168884277343750e+01 1.367338752746582031e+01 2.327123641967773438e+01 1.108338737487792969e+01 -1.156071782112121582e+00
6.100000000000000000e+01 4.036870193481445312e+01 3.370226669311523438e+01 2.882246398925781250e+01 3.574773406982421875e+01 1.937105941772460938e+01 2.964352257549762726e-02
6.200000000000000000e+01 4.055969619750976562e+01 3.364624023437500000e+01 2.210336875915527344e+01 2.928874969482421875e+01 1.541763591766357422e+01 -2.725226283073425293e-01
6.300000000000000000e+01 4.075068664550781250e+01 3.359021759033203125e+01 1.858376884460449219e+01 2.468994331359863281e+01 1.298211383819580078e+01 1.134502142667770386e-01
6.400000000000000000e+01 4.094168090820312500e+01 3.353418731689453125e+01 1.615575981140136719e+01 2.314783287048339844e+01 1.179107761383056641e+01 -3.245178237557411194e-02
6.500000000000000000e+01 4.037958145141601562e+01 3.375964736938476562e+01 2.962914466857910156e+01 3.485618972778320312e+01 1.934560012817382812e+01 2.263463497161865234e+00
6.600000000000000000e+01 4.057782745361328125e+01 3.374187850952148438e+01 2.299003028869628906e+01 2.839388084411621094e+01 1.541517353057861328e+01 2.360577344894409180e+00
6.700000000000000000e+01 4.077607345581054688e+01 3.372410583496093750e+01 1.909782791137695312e+01 2.405673217773437500e+01 1.294636821746826172e+01 1.583079814910888672e+00
6.800000000000000000e+01 4.097431945800781250e+01 3.370633697509765625e+01 1.681749916076660156e+01 2.250654983520507812e+01 1.179721450805664062e+01 1.942947030067443848e+00
6.900000000000000000e+01 4.037908172607421875e+01 3.381805038452148438e+01 2.912348365783691406e+01 3.554718780517578125e+01 1.940120124816894531e+01 5.149038314819335938e+00
7.000000000000000000e+01 4.057699203491210938e+01 3.383921432495117188e+01 2.236867904663085938e+01 2.796712112426757812e+01 1.510074043273925781e+01 4.710809707641601562e+00
7.100000000000000000e+01 4.077490615844726562e+01 3.386037826538085938e+01 1.821696853637695312e+01 2.537403106689453125e+01 1.307730007171630859e+01 3.934295177459716797e+00
7.200000000000000000e+01 4.097282028198242188e+01 3.388154220581054688e+01 1.529341602325439453e+01 2.136696815490722656e+01 1.099811553955078125e+01 3.674591302871704102e+00
7.300000000000000000e+01 4.036722183227539062e+01 3.387524032592773438e+01 2.688908195495605469e+01 3.644738388061523438e+01 1.900094032287597656e+01 7.788560390472412109e+00
7.400000000000000000e+01 4.055722427368164062e+01 3.393452835083007812e+01 2.018382263183593750e+01 2.974349784851074219e+01 1.497819614410400391e+01 6.562034606933593750e+00
7.500000000000000000e+01 4.074723052978515625e+01 3.399381637573242188e+01 1.620526313781738281e+01 2.598707389831542969e+01 1.265770149230957031e+01 6.097319602966308594e+00
7.600000000000000000e+01 4.093723678588867188e+01 3.405310440063476562e+01 1.387710762023925781e+01 2.339417457580566406e+01 1.118138504028320312e+01 5.150809288024902344e+00
7.700000000000000000e+01 4.034445571899414062e+01 3.392902374267578125e+01 2.337103271484375000e+01 3.845108413696289062e+01 1.854663467407226562e+01 9.416269302368164062e+00
7.800000000000000000e+01 4.051928329467773438e+01 3.402416610717773438e+01 1.676197052001953125e+01 3.214281082153320312e+01 1.467143440246582031e+01 7.683962345123291016e+00
7.900000000000000000e+01 4.069411087036132812e+01 3.411931228637695312e+01 1.336703681945800781e+01 2.728176307678222656e+01 1.219464015960693359e+01 6.953637599945068359e+00
8.000000000000000000e+01 4.086893844604492188e+01 3.421445846557617188e+01 1.170114517211914062e+01 2.563508224487304688e+01 1.120086860656738281e+01 5.941594600677490234e+00
8.100000000000000000e+01 4.031164932250976562e+01 3.397734451293945312e+01 1.898477363586425781e+01 4.191205596923828125e+01 1.826904869079589844e+01 9.581632614135742188e+00
8.200000000000000000e+01 4.046461105346679688e+01 3.410470581054687500e+01 1.247606563568115234e+01 3.396733856201171875e+01 1.393302154541015625e+01 7.698396205902099609e+00
8.300000000000000000e+01 4.061756896972656250e+01 3.423206710815429688e+01 1.026829242706298828e+01 2.974189376831054688e+01 1.200305557250976562e+01 6.171425819396972656e+00
8.400000000000000000e+01 4.077053070068359375e+01 3.435942840576171875e+01 7.733780384063720703e+00 2.639189338684082031e+01 1.023770141601562500e+01 5.817821502685546875e+00
8.500000000000000000e+01 4.027006912231445312e+01 3.401836013793945312e+01 1.340712833404541016e+01 4.445165252685546875e+01 1.735763359069824219e+01 8.422162055969238281e+00
8.600000000000000000e+01 4.039530944824218750e+01 3.417306137084960938e+01 8.842976570129394531e+00 3.627379226684570312e+01 1.353503036499023438e+01 5.737000942230224609e+00
8.700000000000000000e+01 4.052054595947265625e+01 3.432776260375976562e+01 6.195854663848876953e+00 3.103468704223632812e+01 1.116916275024414062e+01 4.647774696350097656e+00
8.800000000000000000e+01 4.064578247070312500e+01 3.448246383666992188e+01 5.136144161224365234e+00 2.771713447570800781e+01 9.855983734130859375e+00 4.161607742309570312e+00
8.900000000000000000e+01 4.022129821777343750e+01 3.405049133300781250e+01 8.879402160644531250e+00 4.671435546875000000e+01 1.667812728881835938e+01 5.185809135437011719e+00
9.000000000000000000e+01 4.031402206420898438e+01 3.422661590576171875e+01 5.102542877197265625e+00 3.702121734619140625e+01 1.263712787628173828e+01 2.755135059356689453e+00
9.100000000000000000e+01 4.040674972534179688e+01 3.440274047851562500e+01 3.373040437698364258e+00 3.188463783264160156e+01 1.057730293273925781e+01 1.968548417091369629e+00
9.200000000000000000e+01 4.049947357177734375e+01 3.457886123657226562e+01 2.522700071334838867e+00 2.793520545959472656e+01 9.137372016906738281e+00 1.382262587547302246e+00
9.300000000000000000e+01 4.016720581054687500e+01 3.407251358032226562e+01 5.187979221343994141e+00 4.707061767578125000e+01 1.567757892608642578e+01 5.077555179595947266e-01
9.400000000000000000e+01 4.022386932373046875e+01 3.426331710815429688e+01 2.673852443695068359e+00 3.650082015991210938e+01 1.175240135192871094e+01 -1.094319820404052734e+00
9.500000000000000000e+01 4.028052902221679688e+01 3.445412445068359375e+01 1.610647559165954590e+00 3.087454414367675781e+01 9.745557785034179688e+00 -1.293567538261413574e+00
9.600000000000000000e+01 4.033719253540039062e+01 3.464493179321289062e+01 4.132967889308929443e-01 2.772987937927246094e+01 8.442953109741210938e+00 -1.598644733428955078e+00
9.700000000000000000e+01 4.010985946655273438e+01 3.408358764648437500e+01 3.135630607604980469e+00 4.516520690917968750e+01 1.449025058746337891e+01 -5.038243770599365234e+00
9.800000000000000000e+01 4.012829208374023438e+01 3.428176879882812500e+01 1.881861090660095215e+00 3.387531661987304688e+01 1.072715282440185547e+01 -5.024152755737304688e+00
9.900000000000000000e+01 4.014672470092773438e+01 3.447995758056640625e+01 7.269132137298583984e-01 2.845545578002929688e+01 8.754711151123046875e+00 -4.749767780303955078e+00
1.000000000000000000e+02 4.016515731811523438e+01 3.467814254760742188e+01 3.476352691650390625e-01 2.540425682067871094e+01 7.725567817687988281e+00 -3.840556144714355469e+00
1.010000000000000000e+02 4.005145645141601562e+01 3.408327865600585938e+01 3.313769578933715820e+00 4.059105682373046875e+01 1.317144775390625000e+01 -1.013051986694335938e+01
1.020000000000000000e+02 4.003095245361328125e+01 3.428126144409179688e+01 2.226583957672119141e+00 2.940431022644042969e+01 9.489268302917480469e+00 -8.639964103698730469e+00
1.030000000000000000e+02 4.001044845581054688e+01 3.447924423217773438e+01 1.316736459732055664e+00 2.437799263000488281e+01 7.708418846130371094e+00 -7.234168052673339844e+00
1.040000000000000000e+02 3.998994445800781250e+01 3.467722702026367188e+01 1.140954732894897461e+00 2.098635101318359375e+01 6.638191699981689453e+00 -6.321137428283691406e+00
1.050000000000000000e+02 3.999422836303710938e+01 3.407160949707031250e+01 5.242930889129638672e+00 3.349690246582031250e+01 1.162194919586181641e+01 -1.413818168640136719e+01
1.060000000000000000e+02 3.993557357788085938e+01 3.426181030273437500e+01 3.553105831146240234e+00 2.345116043090820312e+01 8.101280212402343750e+00 -1.071696662902832031e+01
1.070000000000000000e+02 3.987691879272460938e+01 3.445201492309570312e+01 2.770319938659667969e+00 1.891013717651367188e+01 6.504137516021728516e+00 -8.856619834899902344e+00
1.080000000000000000e+02 3.981826400756835938e+01 3.464221572875976562e+01 2.018911123275756836e+00 1.613937759399414062e+01 5.447486400604248047e+00 -7.754002571105957031e+00
1.090000000000000000e+02 3.994036865234375000e+01 3.404902267456054688e+01 7.838583946228027344e+00 2.474795913696289062e+01 9.775962829589843750e+00 -1.568770408630371094e+01
1.100000000000000000e+02 3.984580612182617188e+01 3.422416687011718750e+01 5.450006484985351562e+00 1.648611450195312500e+01 6.580836296081542969e+00 -1.116742324829101562e+01
1.110000000000000000e+02 3.975124740600585938e+01 3.439931106567382812e+01 4.015146732330322266e+00 1.303854942321777344e+01 5.116108894348144531e+00 -8.839906692504882812e+00
1.120000000000000000e+02 3.965668487548828125e+01 3.457445526123046875e+01 3.054691553115844727e+00 1.135321807861328125e+01 4.322372913360595703e+00 -7.628237247467041016e+00
1.130000000000000000e+02 3.989193725585937500e+01 3.401638031005859375e+01 1.047616004943847656e+01 1.518111515045166016e+01 7.697182655334472656e+00 -1.456164073944091797e+01
1.140000000000000000e+02 3.976508712768554688e+01 3.416976547241210938e+01 6.340164661407470703e+00 9.604517936706542969e+00 4.783404827117919922e+00 -9.425316810607910156e+00
1.150000000000000000e+02 3.963823699951171875e+01 3.432315063476562500e+01 4.733306884765625000e+00 7.722155094146728516e+00 3.736638545989990234e+00 -7.376038551330566406e+00
1.160000000000000000e+02 3.951138687133789062e+01 3.447653198242187500e+01 3.455934047698974609e+00 6.644691467285156250e+00 3.030187606811523438e+00 -5.989205837249755859e+00
1.170000000000000000e+02 3.985078430175781250e+01 3.397493743896484375e+01 1.073937034606933594e+01 6.425371646881103516e+00 5.149422645568847656e+00 -1.047327613830566406e+01
1.180000000000000000e+02 3.969650268554687500e+01 3.410068893432617188e+01 5.944386005401611328e+00 3.670825242996215820e+00 2.884563446044921875e+00 -6.100909709930419922e+00
1.190000000000000000e+02 3.954221725463867188e+01 3.422644424438476562e+01 3.477375984191894531e+00 3.757779836654663086e+00 2.170546770095825195e+00 -4.317161083221435547e+00
1.200000000000000000e+02 3.938793563842773438e+01 3.435219573974609375e+01 2.717115879058837891e+00 3.461495399475097656e+00 1.853583335876464844e+00 -4.195441246032714844e+00
1.210000000000000000e+02 3.981848907470703125e+01 3.392627334594726562e+01 7.996801853179931641e+00 -1.510137438774108887e+00 1.945999264717102051e+00 -3.957338809967041016e+00
1.220000000000000000e+02 3.964267730712890625e+01 3.401958465576171875e+01 1.639434456825256348e+00 1.061143279075622559e+00 8.101733326911926270e-01 -1.491703271865844727e+00
1.230000000000000000e+02 3.946686553955078125e+01 3.411289596557617188e+01 1.205041527748107910e+00 1.480871081352233887e+00 8.057737946510314941e-01 -2.254725217819213867e+00
1.240000000000000000e+02 3.929104995727539062e+01 3.420620727539062500e+01 3.018076717853546143e-01 9.858003258705139160e-01 3.862824141979217529e-01 -1.232569932937622070e+00
1.250000000000000000e+02 3.979628753662109375e+01 3.387225341796875000e+01 -5.086997509002685547e+00 -3.488018512725830078e+00 -2.572504758834838867e+00 3.331139564514160156e+00
1.260000000000000000e+02 3.960567092895507812e+01 3.392955017089843750e+01 -2.155362129211425781e+00 9.002038240432739258e-01 -3.765474855899810791e-01 -1.933954656124114990e-01
1.270000000000000000e+02 3.941505813598632812e+01 3.398685073852539062e+01 -3.074670314788818359e+00 -2.994418442249298096e-01 -1.012233614921569824e+00 6.191235184669494629e-01
1.280000000000000000e+02 3.922444152832031250e+01 3.404414749145507812e+01 -3.331533670425415039e+00 -6.386189907789230347e-02 -1.018618702888488770e+00 5.418533682823181152e-01
1.290000000000000000e+02 2.333872413635253906e+01 3.602074050903320312e+01 -1.376205980777740479e-01 7.814332493580877781e-04 -4.105174914002418518e-02 -3.439263999462127686e-02
1.300000000000000000e+02 2.389290046691894531e+01 3.609888076782226562e+01 -1.948551982641220093e-01 -6.079495884478092194e-03 -6.028040871024131775e-02 -3.573995456099510193e-02
1.310000000000000000e+02 2.284308815002441406e+01 3.526721954345703125e+01 -1.147057265043258667e-01 -1.829535514116287231e-02 -3.990032523870468140e-02 -9.619322419166564941e-02
1.320000000000000000e+02 2.421754455566406250e+01 3.556056594848632812e+01 -2.364470958709716797e-01 -1.455623772926628590e-03 -7.137081772089004517e-02 -1.042872145771980286e-01
1.330000000000000000e+02 2.498613166809082031e+01 3.604191207885742188e+01 -3.310744464397430420e-01 2.994547365233302116e-03 -9.842396527528762817e-02 -2.793400362133979797e-02
1.340000000000000000e+02 2.485820960998535156e+01 3.530118560791015625e+01 -3.052712976932525635e-01 1.431298349052667618e-02 -8.728749305009841919e-02 -1.248538345098495483e-01
1.350000000000000000e+02 2.364893722534179688e+01 3.528245925903320312e+01 -1.849960833787918091e-01 -1.046611275523900986e-02 -5.863865837454795837e-02 -1.240038871765136719e-01
1.360000000000000000e+02 2.269410705566406250e+01 3.600639724731445312e+01 -8.300048857927322388e-02 1.609242288395762444e-03 -2.441737428307533264e-02 -3.688219189643859863e-02
1.370000000000000000e+02 2.440931320190429688e+01 3.610589981079101562e+01 -2.807216942310333252e-01 6.102883256971836090e-03 -8.238564431667327881e-02 -3.627742826938629150e-02
1.380000000000000000e+02 2.713174057006835938e+01 3.578996658325195312e+01 -7.050648331642150879e-01 7.995072752237319946e-03 -2.091209292411804199e-01 2.182165347039699554e-02
1.390000000000000000e+02 2.639669990539550781e+01 3.588855361938476562e+01 -5.618717074394226074e-01 7.425829302519559860e-03 -1.663337647914886475e-01 2.675696974620223045e-03
1.400000000000000000e+02 2.560692596435546875e+01 3.524289321899414062e+01 -4.076935946941375732e-01 2.867876552045345306e-02 -1.137044429779052734e-01 -1.295675635337829590e-01
1.410000000000000000e+02 2.704477500915527344e+01 3.505500793457031250e+01 -5.965464711189270020e-01 3.984902054071426392e-02 -1.670092344284057617e-01 -1.183586195111274719e-01
1.420000000000000000e+02 2.786719703674316406e+01 3.568653869628906250e+01 -8.407492637634277344e-01 5.192777607589960098e-03 -2.506669461727142334e-01 4.396709054708480835e-02
1.430000000000000000e+02 2.776436805725097656e+01 3.495370483398437500e+01 -7.051163315773010254e-01 5.256844311952590942e-02 -1.957643628120422363e-01 -1.016620099544525146e-01
1.440000000000000000e+02 2.632559776306152344e+01 3.515146636962890625e+01 -4.971654713153839111e-01 3.883486986160278320e-02 -1.374991834163665771e-01 -1.276154965162277222e-01
1.450000000000000000e+02 2.566216468811035156e+01 3.598210525512695312e+01 -4.203679263591766357e-01 1.178089622408151627e-02 -1.225761100649833679e-01 -1.511387061327695847e-02
1.460000000000000000e+02 2.933965110778808594e+01 3.544803619384765625e+01 -1.157987833023071289e+00 -6.045431364327669144e-03 -3.492099642753601074e-01 1.063065454363822937e-01
1.470000000000000000e+02 2.922042655944824219e+01 3.471769332885742188e+01 -9.080430865287780762e-01 5.683271586894989014e-02 -2.553631067276000977e-01 -7.050341367721557617e-02
1.480000000000000000e+02 2.848941230773925781e+01 3.484096145629882812e+01 -8.106482028961181641e-01 5.253622680902481079e-02 -2.274335920810699463e-01 -8.958010375499725342e-02
1.490000000000000000e+02 3.068212890625000000e+01 3.447154998779296875e+01 -1.101444125175476074e+00 6.140007823705673218e-02 -3.120132088661193848e-01 -1.077950838953256607e-02
1.500000000000000000e+02 2.995129966735839844e+01 3.459505081176757812e+01 -1.003923773765563965e+00 4.982553794980049133e-02 -2.862294614315032959e-01 -4.292646050453186035e-02
1.510000000000000000e+02 3.081263542175292969e+01 3.519998931884765625e+01 -1.463024616241455078e+00 -1.155266351997852325e-02 -4.423731863498687744e-01 1.721845567226409912e-01
1.520000000000000000e+02 2.860299301147460938e+01 3.557225799560546875e+01 -9.900155663490295410e-01 8.039280772209167480e-03 -2.945928871631622314e-01 7.597638666629791260e-02
1.530000000000000000e+02 3.007616424560546875e+01 3.532444381713867188e+01 -1.318925142288208008e+00 -3.688034368678927422e-03 -3.967839479446411133e-01 1.371332108974456787e-01
1.540000000000000000e+02 3.228277587890625000e+01 3.491655731201171875e+01 -1.792690277099609375e+00 -3.757071867585182190e-02 -5.490782856941223145e-01 2.570996880531311035e-01
1.550000000000000000e+02 3.141323661804199219e+01 3.433660507202148438e+01 -1.183589100837707520e+00 5.428917333483695984e-02 -3.387899696826934814e-01 9.827444329857826233e-03
1.560000000000000000e+02 3.301699829101562500e+01 3.477141952514648438e+01 -1.952567219734191895e+00 -3.056482598185539246e-02 -5.949395895004272461e-01 2.963310778141021729e-01
1.570000000000000000e+02 3.287635040283203125e+01 3.404490280151367188e+01 -1.253636360168457031e+00 3.744127973914146423e-02 -3.648585379123687744e-01 7.103782892227172852e-02
1.580000000000000000e+02 3.360715103149414062e+01 3.390307235717773438e+01 -1.242566704750061035e+00 3.847644105553627014e-02 -3.612270653247833252e-01 1.126044839620590210e-01
1.590000000000000000e+02 3.375072097778320312e+01 3.462901306152343750e+01 -2.102070093154907227e+00 -5.347410961985588074e-02 -6.466632485389709473e-01 3.287551105022430420e-01
1.600000000000000000e+02 3.214505767822265625e+01 3.418946456909179688e+01 -1.225672245025634766e+00 5.265013128519058228e-02 -3.519066274166107178e-01 3.810117021203041077e-02
1.610000000000000000e+02 3.154802894592285156e+01 3.506427764892578125e+01 -1.617401719093322754e+00 -1.219709496945142746e-02 -4.888796508312225342e-01 2.191208451986312866e-01
1.620000000000000000e+02 3.494253158569335938e+01 3.363656997680664062e+01 -1.015892028808593750e+00 3.244712203741073608e-02 -2.950334548950195312e-01 1.806782186031341553e-01
1.630000000000000000e+02 3.590043258666992188e+01 3.368881225585937500e+01 -1.095906853675842285e+00 -1.785896904766559601e-02 -3.341297507286071777e-01 3.162890076637268066e-01
1.640000000000000000e+02 3.677714157104492188e+01 3.323318862915039062e+01 4.437623620033264160e-01 -2.592859230935573578e-02 1.253501325845718384e-01 6.495022773742675781e-01
1.650000000000000000e+02 3.429188919067382812e+01 3.377111434936523438e+01 -1.198113679885864258e+00 2.095633558928966522e-02 -3.531472086906433105e-01 1.411215662956237793e-01
1.660000000000000000e+02 3.663970947265625000e+01 3.304115295410156250e+01 9.392631649971008301e-01 9.248592704534530640e-02 3.095247447490692139e-01 7.857288718223571777e-01
1.670000000000000000e+02 3.685288619995117188e+01 3.382416915893554688e+01 -1.660375952720642090e+00 5.323399975895881653e-02 -4.821425974369049072e-01 4.351400732994079590e-01
1.680000000000000000e+02 3.519700241088867188e+01 3.434009552001953125e+01 -2.358510494232177734e+00 -7.309418171644210815e-02 -7.294813990592956543e-01 4.043107926845550537e-01
1.690000000000000000e+02 3.683094406127929688e+01 3.341152954101562500e+01 -4.574434831738471985e-02 9.620491415262222290e-03 -1.083715725690126419e-02 4.671016931533813477e-01
1.700000000000000000e+02 3.650399780273437500e+01 3.382760620117187500e+01 -1.626453876495361328e+00 -7.408194988965988159e-02 -5.101607441902160645e-01 4.531413018703460693e-01
1.710000000000000000e+02 3.593460845947265625e+01 3.422901153564453125e+01 -2.511526823043823242e+00 -8.638446778059005737e-02 -7.793734073638916016e-01 3.980636596679687500e-01
1.720000000000000000e+02 3.687302017211914062e+01 3.403633499145507812e+01 -2.214852094650268555e+00 1.397880017757415771e-01 -6.225192546844482422e-01 3.321408331394195557e-01
1.730000000000000000e+02 3.549505996704101562e+01 3.342710494995117188e+01 -5.816737413406372070e-01 -2.139119058847427368e-02 -1.809194684028625488e-01 2.490141987800598145e-01
1.740000000000000000e+02 3.649018478393554688e+01 3.412891387939453125e+01 -2.536486625671386719e+00 -1.010474115610122681e-01 -7.912601828575134277e-01 3.889599740505218506e-01
1.750000000000000000e+02 3.447340011596679688e+01 3.448939132690429688e+01 -2.236823320388793945e+00 -4.137452691793441772e-02 -6.834594011306762695e-01 3.727407753467559814e-01
1.760000000000000000e+02 3.682778930664062500e+01 3.427087783813476562e+01 -3.016247034072875977e+00 -2.854234771803021431e-03 -9.057304263114929199e-01 5.158909559249877930e-01
1.770000000000000000e+02 3.631623077392578125e+01 3.364220046997070312e+01 -1.054183006286621094e+00 -1.236095055937767029e-01 -3.533377647399902344e-01 3.903221786022186279e-01
1.780000000000000000e+02 3.684363174438476562e+01 3.361197662353515625e+01 -6.690597534179687500e-01 -3.910325095057487488e-02 -2.124489098787307739e-01 4.597851037979125977e-01
1.790000000000000000e+02 3.596116638183593750e+01 3.325990676879882812e+01 7.024729251861572266e-02 1.332583129405975342e-01 6.105168163776397705e-02 3.714914321899414062e-01
1.800000000000000000e+02 3.635683822631835938e+01 3.328810882568359375e+01 1.068623885512351990e-01 1.308818347752094269e-02 3.598517179489135742e-02 5.211366415023803711e-01
1.810000000000000000e+02 3.661066818237304688e+01 3.338971710205078125e+01 -1.115448027849197388e-01 -5.498923826962709427e-03 -3.511311858892440796e-02 5.487059950828552246e-01
1.820000000000000000e+02 3.657352447509765625e+01 3.360737228393554688e+01 -7.102216482162475586e-01 6.474641710519790649e-02 -1.936425715684890747e-01 4.340093135833740234e-01
1.830000000000000000e+02 3.796125030517578125e+01 3.298941040039062500e+01 3.261410474777221680e+00 5.735770463943481445e-01 1.150496244430541992e+00 2.016829490661621094e+00
1.840000000000000000e+02 3.910120010375976562e+01 3.325443267822265625e+01 7.632130622863769531e+00 1.843320250511169434e+00 2.842635154724121094e+00 4.705193042755126953e+00
1.850000000000000000e+02 4.017884826660156250e+01 3.241651153564453125e+01 3.386344432830810547e+00 2.071227073669433594e+01 7.229584693908691406e+00 6.611573696136474609e+00
1.860000000000000000e+02 4.069201278686523438e+01 3.260450744628906250e+01 5.426447868347167969e+00 2.270020103454589844e+01 8.437994956970214844e+00 1.357266306877136230e+00
1.870000000000000000e+02 4.121408843994140625e+01 3.346493911743164062e+01 1.218333148956298828e+01 2.060145378112792969e+01 9.835435867309570312e+00 1.708931028842926025e-01
1.880000000000000000e+02 4.125325012207031250e+01 3.367108535766601562e+01 1.289068698883056641e+01 1.969142532348632812e+01 9.774633407592773438e+00 2.323087453842163086e+00
1.890000000000000000e+02 4.112722778320312500e+01 3.431280136108398438e+01 8.657635688781738281e+00 2.160282135009765625e+01 9.078136444091796875e+00 5.029832839965820312e+00
1.900000000000000000e+02 4.093218994140625000e+01 3.448756408691406250e+01 6.875285148620605469e+00 2.501716041564941406e+01 9.567733764648437500e+00 5.779814243316650391e+00
1.910000000000000000e+02 3.987971115112304688e+01 3.524766159057617188e+01 8.313620090484619141e-02 1.532486534118652344e+01 4.622400283813476562e+00 -5.154348373413085938e+00
1.920000000000000000e+02 4.042374420166015625e+01 3.483913421630859375e+01 2.557805478572845459e-01 2.579654121398925781e+01 7.815696716308593750e+00 -7.065236568450927734e-01
1.930000000000000000e+02 4.036510086059570312e+01 3.279388427734375000e+01 4.672723293304443359e+00 2.635772132873535156e+01 9.309133529663085938e+00 4.713373661041259766e+00
1.940000000000000000e+02 3.938391876220703125e+01 3.294998931884765625e+01 8.861880302429199219e+00 7.882699489593505859e+00 5.023374080657958984e+00 9.124505043029785156e+00
1.950000000000000000e+02 3.856682205200195312e+01 3.369392013549804688e+01 3.051470816135406494e-01 -1.630504615604877472e-02 8.665261417627334595e-02 6.901465058326721191e-01
1.960000000000000000e+02 3.696536254882812500e+01 3.296054840087890625e+01 1.580062508583068848e+00 3.951917290687561035e-01 5.925762653350830078e-01 1.212882518768310547e+00
1.970000000000000000e+02 3.716688537597656250e+01 3.293274688720703125e+01 1.757981300354003906e+00 2.633262276649475098e-01 6.063922643661499023e-01 1.231394171714782715e+00
1.980000000000000000e+02 3.907253646850585938e+01 3.268653869628906250e+01 7.173233985900878906e+00 5.883503913879394531e+00 3.917021274566650391e+00 7.221004009246826172e+00
1.990000000000000000e+02 3.899170684814453125e+01 3.387942504882812500e+01 -2.190264463424682617e+00 -2.090658843517303467e-01 -7.197991013526916504e-01 4.482635855674743652e-01
2.000000000000000000e+02 3.750068664550781250e+01 3.569317626953125000e+01 -1.934035718441009521e-01 1.202442049980163574e+00 3.027115464210510254e-01 -8.454968929290771484e-01
2.010000000000000000e+02 3.843075561523437500e+01 3.523339462280273438e+01 6.562801599502563477e-01 2.199847698211669922e+00 8.568384051322937012e-01 -2.255886316299438477e+00
2.020000000000000000e+02 3.995951080322265625e+01 3.486598205566406250e+01 7.365120649337768555e-01 1.838701057434082031e+01 5.737056732177734375e+00 -6.087009429931640625e+00
2.030000000000000000e+02 4.006905746459960938e+01 3.523441696166992188e+01 -2.065781801939010620e-01 1.826030349731445312e+01 5.416117668151855469e+00 -4.682652473449707031e+00
2.040000000000000000e+02 3.725658035278320312e+01 3.445010757446289062e+01 -4.349548816680908203e+00 -3.693864345550537109e-01 -1.415680646896362305e+00 8.284878134727478027e-01
2.050000000000000000e+02 3.745220184326171875e+01 3.441436004638671875e+01 -4.320975780487060547e+00 7.444430142641067505e-03 -1.294059395790100098e+00 9.026759266853332520e-01
2.060000000000000000e+02 3.805011749267578125e+01 3.432897949218750000e+01 -4.170275688171386719e+00 -2.601114809513092041e-01 -1.329116225242614746e+00 7.611365318298339844e-01
2.070000000000000000e+02 3.745906829833984375e+01 3.548427581787109375e+01 -6.842372417449951172e-01 8.564028739929199219e-01 5.164968967437744141e-02 -5.474179387092590332e-01
2.080000000000000000e+02 3.844879531860351562e+01 3.425395202636718750e+01 -4.006478786468505859e+00 -2.481910437345504761e-01 -1.276401042938232422e+00 7.172852158546447754e-01
2.090000000000000000e+02 3.872909927368164062e+01 3.443444442749023438e+01 -1.163210988044738770e+00 3.584946393966674805e-01 -2.414149045944213867e-01 -5.849854350090026855e-01
2.100000000000000000e+02 3.903443908691406250e+01 3.409850311279296875e+01 -3.501210451126098633e+00 -6.024612486362457275e-02 -1.068436980247497559e+00 6.705751419067382812e-01
2.110000000000000000e+02 4.118734359741210938e+01 3.389486312866210938e+01 1.545733547210693359e+01 2.002966117858886719e+01 1.064609909057617188e+01 3.888802051544189453e+00
2.120000000000000000e+02 4.114850616455078125e+01 3.457703781127929688e+01 6.848579883575439453e+00 2.171079826354980469e+01 8.567813873291015625e+00 5.218328952789306641e+00
2.130000000000000000e+02 4.012543869018554688e+01 3.507442474365234375e+01 2.371732145547866821e-01 1.929684638977050781e+01 5.860205650329589844e+00 -4.018750667572021484e+00
2.140000000000000000e+02 3.975750350952148438e+01 3.483002090454101562e+01 1.591791868209838867e+00 1.479248905181884766e+01 4.915284156799316406e+00 -6.947872161865234375e+00
2.150000000000000000e+02 3.911243820190429688e+01 3.429430389404296875e+01 -3.369497060775756836e-01 6.761696338653564453e-01 1.017659828066825867e-01 -1.117232322692871094e+00
2.160000000000000000e+02 3.877967453002929688e+01 3.367494964599609375e+01 9.775364995002746582e-01 -1.091134622693061829e-01 2.605268955230712891e-01 7.677609324455261230e-01
2.170000000000000000e+02 3.923246002197265625e+01 3.281392288208007812e+01 7.862308502197265625e+00 6.849401950836181641e+00 4.413513183593750000e+00 7.959822177886962891e+00
2.180000000000000000e+02 3.992993927001953125e+01 3.257674026489257812e+01 4.734831809997558594e+00 1.898598861694335938e+01 7.116246223449707031e+00 7.955145359039306641e+00
2.190000000000000000e+02 4.101571655273437500e+01 3.306611251831054688e+01 1.010500621795654297e+01 2.225478363037109375e+01 9.707937240600585938e+00 -5.646574497222900391e-01
2.200000000000000000e+02 3.779484558105468750e+01 3.354158020019531250e+01 2.956384420394897461e-01 -4.722562059760093689e-02 7.452385127544403076e-02 6.525272727012634277e-01
2.210000000000000000e+02 3.799073028564453125e+01 3.403594207763671875e+01 -2.928128242492675781e+00 -9.806746989488601685e-02 -9.078587293624877930e-01 5.694857835769653320e-01
2.220000000000000000e+02 3.758196640014648438e+01 3.286936950683593750e+01 2.769255161285400391e+00 3.930298388004302979e-01 9.486855268478393555e-01 1.684760808944702148e+00
2.230000000000000000e+02 3.740552139282226562e+01 3.416496658325195312e+01 -3.129856586456298828e+00 -3.083444014191627502e-02 -9.482073187828063965e-01 5.546790957450866699e-01
2.240000000000000000e+02 3.732367706298828125e+01 3.374507522583007812e+01 -1.182963728904724121e+00 -1.113182157278060913e-01 -3.882845938205718994e-01 3.925701081752777100e-01
2.250000000000000000e+02 3.720909500122070312e+01 3.420288467407226562e+01 -3.187098979949951172e+00 -3.001640141010284424e-01 -1.046178936958312988e+00 6.212638020515441895e-01
2.260000000000000000e+02 3.948326110839843750e+01 3.499494171142578125e+01 1.765721797943115234e+00 9.989071846008300781e+00 3.526437997817993164e+00 -6.187017917633056641e+00
2.270000000000000000e+02 4.077025985717773438e+01 3.462442779541015625e+01 5.384122371673583984e+00 2.467350006103515625e+01 9.017286300659179688e+00 4.073555946350097656e+00
2.280000000000000000e+02 4.024819564819335938e+01 3.518600463867187500e+01 2.922927439212799072e-01 1.941104888916015625e+01 5.911002159118652344e+00 -3.786756753921508789e+00
2.290000000000000000e+02 4.061734008789062500e+01 3.472647094726562500e+01 1.428864598274230957e+00 2.568930053710937500e+01 8.135449409484863281e+00 7.044909596443176270e-01
2.300000000000000000e+02 3.967721176147460938e+01 3.526409530639648438e+01 5.548496246337890625e-01 1.305866909027099609e+01 4.084055423736572266e+00 -5.613453388214111328e+00
2.310000000000000000e+02 4.017744827270507812e+01 3.488650894165039062e+01 4.473776817321777344e-01 2.231895065307617188e+01 6.829898834228515625e+00 -3.421156883239746094e+00
2.320000000000000000e+02 4.141499710083007812e+01 3.389582443237304688e+01 1.282341003417968750e+01 1.877483749389648438e+01 9.479475021362304688e+00 3.323513984680175781e+00
2.330000000000000000e+02 4.084387969970703125e+01 3.478826522827148438e+01 3.358994483947753906e+00 2.295877647399902344e+01 7.895331382751464844e+00 2.460045099258422852e+00
2.340000000000000000e+02 4.059665679931640625e+01 3.501470565795898438e+01 5.860950946807861328e-01 2.346425247192382812e+01 7.215104579925537109e+00 3.151385486125946045e-01
2.350000000000000000e+02 4.121458816528320312e+01 3.411483764648437500e+01 1.150864219665527344e+01 2.022376441955566406e+01 9.519721984863281250e+00 4.015262126922607422e+00
2.360000000000000000e+02 3.886517333984375000e+01 3.542472076416015625e+01 1.285805583000183105e+00 4.870892524719238281e+00 1.847009420394897461e+00 -3.973612785339355469e+00
2.370000000000000000e+02 4.008870697021484375e+01 3.264490890502929688e+01 4.456620693206787109e+00 2.251902770996093750e+01 8.092694282531738281e+00 7.405918598175048828e+00
2.380000000000000000e+02 3.978503417968750000e+01 3.242979812622070312e+01 4.983773708343505859e+00 1.514056301116943359e+01 6.037301063537597656e+00 7.853855133056640625e+00
2.390000000000000000e+02 3.956093597412109375e+01 3.247830200195312500e+01 5.867451190948486328e+00 1.306820297241210938e+01 5.680696010589599609e+00 9.254097938537597656e+00
2.400000000000000000e+02 3.899007415771484375e+01 3.366983795166015625e+01 1.812031030654907227e+00 -2.199923433363437653e-02 5.370095372200012207e-01 1.000663757324218750e+00
2.410000000000000000e+02 4.128231430053710938e+01 3.319661712646484375e+01 1.147312736511230469e+01 2.054140663146972656e+01 9.604360580444335938e+00 -8.266895413398742676e-01
2.420000000000000000e+02 3.877471542358398438e+01 3.262184906005859375e+01 6.330860137939453125e+00 3.781237125396728516e+00 3.033629179000854492e+00 5.794820308685302734e+00
2.430000000000000000e+02 4.107080841064453125e+01 3.328084182739257812e+01 1.357488250732421875e+01 2.226440811157226562e+01 1.075178718566894531e+01 -1.789176106452941895e+00
2.440000000000000000e+02 3.923641204833984375e+01 3.308763122558593750e+01 8.789639472961425781e+00 4.581856727600097656e+00 4.011448860168457031e+00 6.997714042663574219e+00
2.450000000000000000e+02 4.082178878784179688e+01 3.289646530151367188e+01 7.430466175079345703e+00 2.402899551391601562e+01 9.437838554382324219e+00 -3.244627416133880615e-01
2.460000000000000000e+02 4.001918411254882812e+01 3.274364471435546875e+01 4.900753974914550781e+00 2.282247161865234375e+01 8.316967964172363281e+00 8.239562034606933594e+00
2.470000000000000000e+02 3.961466979980468750e+01 3.269579315185546875e+01 6.897753238677978516e+00 1.340643119812011719e+01 6.091255187988281250e+00 9.733119010925292969e+00
2.480000000000000000e+02 3.900160980224609375e+01 3.518180084228515625e+01 1.616709828376770020e+00 5.394570827484130859e+00 2.103384256362915039e+00 -4.077799797058105469e+00
2.490000000000000000e+02 3.946433258056640625e+01 3.527597427368164062e+01 1.425703763961791992e+00 9.832826614379882812e+00 3.377558946609497070e+00 -5.422232151031494141e+00
2.500000000000000000e+02 3.828460693359375000e+01 3.552840805053710938e+01 5.703742504119873047e-01 2.653087139129638672e+00 9.670383930206298828e-01 -2.406285524368286133e+00
2.510000000000000000e+02 3.769665145874023438e+01 3.565281677246093750e+01 -5.906007438898086548e-02 1.426907300949096680e+00 4.103541672229766846e-01 -1.202003955841064453e+00
2.520000000000000000e+02 3.915517044067382812e+01 3.509989547729492188e+01 1.854726910591125488e+00 6.141878128051757812e+00 2.398981571197509766e+00 -4.737939834594726562e+00
2.530000000000000000e+02 3.867087554931640625e+01 3.545658874511718750e+01 1.171479463577270508e+00 3.818476200103759766e+00 1.496986746788024902e+00 -3.390715360641479492e+00
2.540000000000000000e+02 3.729560470581054688e+01 3.465890884399414062e+01 -3.531651258468627930e+00 -1.780134886503219604e-01 -1.112899422645568848e+00 5.994387865066528320e-01
2.550000000000000000e+02 3.825058364868164062e+01 3.429975509643554688e+01 -4.081141948699951172e+00 -2.413037046790122986e-02 -1.231581687927246094e+00 7.878328561782836914e-01
2.560000000000000000e+02 3.853254318237304688e+01 3.453191375732421875e+01 -1.368306994438171387e+00 5.329678654670715332e-01 -2.506017386913299561e-01 -3.625537455081939697e-01
2.570000000000000000e+02 3.892494201660156250e+01 3.436656570434570312e+01 -7.763944864273071289e-01 6.016617417335510254e-01 -5.241981893777847290e-02 -6.850746273994445801e-01
2.580000000000000000e+02 3.736326217651367188e+01 3.395465087890625000e+01 -2.150246143341064453e+00 -1.295227110385894775e-01 -6.839306950569152832e-01 4.986510276794433594e-01
2.590000000000000000e+02 3.835508346557617188e+01 3.371117019653320312e+01 -2.132856994867324829e-01 -1.099262759089469910e-01 -9.696359187364578247e-02 5.858107209205627441e-01
2.600000000000000000e+02 3.838896560668945312e+01 3.396368789672851562e+01 -2.715650796890258789e+00 -8.918477594852447510e-02 -8.414506912231445312e-01 5.549745559692382812e-01
2.610000000000000000e+02 3.738576507568359375e+01 3.292335510253906250e+01 2.240296363830566406e+00 3.780485093593597412e-01 7.855035066604614258e-01 1.485992789268493652e+00
2.620000000000000000e+02 3.836182785034179688e+01 3.273559951782226562e+01 5.142784118652343750e+00 1.785135507583618164e+00 2.078375816345214844e+00 3.782867431640625000e+00
2.630000000000000000e+02 3.933753967285156250e+01 3.251494216918945312e+01 6.725875854492187500e+00 9.559966087341308594e+00 4.885752677917480469e+00 8.439266204833984375e+00
2.640000000000000000e+02 3.890831756591796875e+01 3.311025238037109375e+01 6.750672817230224609e+00 1.822111725807189941e+00 2.571835279464721680e+00 4.342038631439208984e+00
2.650000000000000000e+02 3.890951538085937500e+01 3.280570602416992188e+01 7.074452400207519531e+00 3.704011678695678711e+00 3.233539104461669922e+00 5.891544818878173828e+00
2.660000000000000000e+02 3.700378799438476562e+01 3.316934967041015625e+01 8.985351324081420898e-01 1.872068345546722412e-01 3.257225751876831055e-01 8.352883458137512207e-01
2.670000000000000000e+02 3.857745742797851562e+01 3.269177246093750000e+01 5.881142616271972656e+00 2.690720796585083008e+00 2.571558952331542969e+00 4.688454151153564453e+00
2.680000000000000000e+02 3.789279556274414062e+01 3.561209869384765625e+01 9.670747071504592896e-02 1.522214293479919434e+00 4.856765270233154297e-01 -1.324502110481262207e+00
2.690000000000000000e+02 3.741639709472656250e+01 3.527823638916015625e+01 -1.079267024993896484e+00 3.415800631046295166e-01 -2.213061004877090454e-01 -2.640477418899536133e-01
2.700000000000000000e+02 3.733421707153320312e+01 3.486653900146484375e+01 -2.371573925018310547e+00 -8.287920802831649780e-02 -7.363359332084655762e-01 5.420193672180175781e-01
2.710000000000000000e+02 3.784833908081054688e+01 3.435254669189453125e+01 -4.234357357025146484e+00 -2.234935201704502106e-02 -1.277011990547180176e+00 8.332831859588623047e-01
2.720000000000000000e+02 3.704650497436523438e+01 3.337194061279296875e+01 2.185601890087127686e-01 4.389356763567775488e-04 6.569974124431610107e-02 5.484864711761474609e-01
2.730000000000000000e+02 3.760107040405273438e+01 3.412590789794921875e+01 -3.083407163619995117e+00 -1.237400993704795837e-01 -9.621441960334777832e-01 5.741180777549743652e-01
2.740000000000000000e+02 3.712908935546875000e+01 3.378441619873046875e+01 -1.298654556274414062e+00 1.358015183359384537e-02 -3.855223059654235840e-01 3.155795335769653320e-01
2.750000000000000000e+02 3.904328536987304688e+01 3.480911636352539062e+01 1.718199968338012695e+00 3.631254911422729492e+00 1.604836463928222656e+00 -3.713244676589965820e+00
2.760000000000000000e+02 3.926269149780273438e+01 3.489480590820312500e+01 2.117461681365966797e+00 6.155693054199218750e+00 2.481946468353271484e+00 -4.868939876556396484e+00
2.770000000000000000e+02 3.862555694580078125e+01 3.521130371093750000e+01 1.031619787216186523e+00 2.950417757034301758e+00 1.194611310958862305e+00 -2.941282987594604492e+00
2.780000000000000000e+02 3.784865188598632812e+01 3.539305877685546875e+01 -3.613202869892120361e-01 1.265730261802673340e+00 2.713229954242706299e-01 -1.135208129882812500e+00
2.790000000000000000e+02 3.804484558105468750e+01 3.533882141113281250e+01 4.273731261491775513e-02 1.282856583595275879e+00 3.976781964302062988e-01 -1.328255534172058105e+00
2.800000000000000000e+02 3.956365585327148438e+01 3.476358032226562500e+01 2.502389192581176758e+00 1.006260585784912109e+01 3.769498586654663086e+00 -6.568357467651367188e+00
2.810000000000000000e+02 3.847772216796875000e+01 3.549016189575195312e+01 9.174488782882690430e-01 3.328971862792968750e+00 1.273926258087158203e+00 -3.000768899917602539e+00
2.820000000000000000e+02 3.764882659912109375e+01 3.438118743896484375e+01 -4.313002109527587891e+00 -2.930937111377716064e-01 -1.381828784942626953e+00 8.053917288780212402e-01
2.830000000000000000e+02 3.756059646606445312e+01 3.503559875488281250e+01 -1.536274075508117676e+00 2.014638185501098633e-01 -4.004431068897247314e-01 3.495807573199272156e-02
2.840000000000000000e+02 3.808934020996093750e+01 3.461074829101562500e+01 -2.269919872283935547e+00 3.032135665416717529e-01 -5.900118947029113770e-01 1.124626249074935913e-01
2.850000000000000000e+02 3.779610061645507812e+01 3.408248519897460938e+01 -3.013713121414184570e+00 -9.183716773986816406e-02 -9.316650629043579102e-01 5.663531422615051270e-01
2.860000000000000000e+02 3.872936248779296875e+01 3.292224884033203125e+01 6.108964443206787109e+00 2.174279928207397461e+00 2.484973192214965820e+00 4.511835575103759766e+00
2.870000000000000000e+02 3.776813125610351562e+01 3.320175933837890625e+01 1.929386734962463379e+00 2.054558694362640381e-01 6.404528021812438965e-01 1.257029652595520020e+00
2.880000000000000000e+02 3.812954330444335938e+01 3.345983886718750000e+01 1.238912224769592285e+00 2.233144454658031464e-02 3.783731162548065186e-01 9.608049988746643066e-01
2.890000000000000000e+02 3.792604064941406250e+01 3.377545166015625000e+01 -1.048766970634460449e+00 -8.265587687492370605e-02 -3.394268453121185303e-01 5.113958120346069336e-01
2.900000000000000000e+02 3.759677505493164062e+01 3.333551025390625000e+01 1.180287957191467285e+00 1.088236123323440552e-01 3.867334723472595215e-01 9.299886822700500488e-01
2.910000000000000000e+02 3.775443649291992188e+01 3.280238723754882812e+01 3.449228763580322266e+00 7.141838669776916504e-01 1.249023795127868652e+00 2.145969867706298828e+00
2.920000000000000000e+02 3.901667022705078125e+01 3.345512390136718750e+01 5.208011627197265625e+00 4.118918478488922119e-01 1.685971140861511230e+00 2.438847303390502930e+00
2.930000000000000000e+02 3.738912963867187500e+01 3.318152999877929688e+01 1.407303094863891602e+00 1.338178813457489014e-01 4.623363018035888672e-01 1.058341383934020996e+00
2.940000000000000000e+02 3.765341186523437500e+01 3.544038772583007812e+01 -4.670840799808502197e-01 9.208723902702331543e-01 1.361364871263504028e-01 -7.914527058601379395e-01
2.950000000000000000e+02 3.724543762207031250e+01 3.332403945922851562e+01 6.162137389183044434e-01 8.985679596662521362e-02 2.118211686611175537e-01 7.374771833419799805e-01
2.960000000000000000e+02 3.901771163940429688e+01 3.458358764648437500e+01 1.086254477500915527e+00 2.091121435165405273e+00 9.532127976417541504e-01 -2.594623804092407227e+00
2.970000000000000000e+02 3.837954711914062500e+01 3.300019454956054688e+01 4.803178787231445312e+00 1.046933293342590332e+00 1.755033493041992188e+00 2.976590156555175781e+00
2.980000000000000000e+02 3.755320739746093750e+01 3.391436767578125000e+01 -1.991961956024169922e+00 -3.916342183947563171e-02 -6.093376278877258301e-01 4.284205734729766846e-01
2.990000000000000000e+02 3.873439407348632812e+01 3.323188781738281250e+01 5.217310905456542969e+00 9.068815112113952637e-01 1.837257623672485352e+00 3.009712696075439453e+00
3.000000000000000000e+02 3.774282455444335938e+01 3.299364852905273438e+01 2.696960926055908203e+00 3.659887909889221191e-01 9.188849329948425293e-01 1.680590629577636719e+00
3.010000000000000000e+02 3.768035125732421875e+01 3.459998703002929688e+01 -3.249535560607910156e+00 6.089076027274131775e-02 -9.565934538841247559e-01 5.817762613296508789e-01
3.020000000000000000e+02 3.779574966430664062e+01 3.518779754638671875e+01 -7.485194206237792969e-01 7.004891037940979004e-01 -1.440908852964639664e-02 -6.191412210464477539e-01
3.030000000000000000e+02 3.899771118164062500e+01 3.500811004638671875e+01 1.832653522491455078e+00 4.354645252227783203e+00 1.856189608573913574e+00 -3.887238025665283203e+00
3.040000000000000000e+02 3.881246185302734375e+01 3.498626708984375000e+01 1.442664980888366699e+00 3.023433208465576172e+00 1.339829444885253906e+00 -3.074509143829345703e+00
3.050000000000000000e+02 3.798385620117187500e+01 3.512258529663085938e+01 -7.054676413536071777e-01 9.738872051239013672e-01 8.052586764097213745e-02 -8.459397554397583008e-01
3.060000000000000000e+02 3.854578018188476562e+01 3.326053237915039062e+01 3.905027627944946289e+00 3.901463449001312256e-01 1.288552165031433105e+00 2.127724170684814453e+00
3.070000000000000000e+02 3.794607162475585938e+01 3.277812576293945312e+01 3.918179988861083984e+00 9.267196655273437500e-01 1.453469872474670410e+00 2.534926891326904297e+00
3.080000000000000000e+02 3.814714431762695312e+01 3.275345230102539062e+01 4.493738651275634766e+00 1.318998813629150391e+00 1.743821144104003906e+00 3.092928886413574219e+00
3.090000000000000000e+02 3.730038452148437500e+01 3.352445983886718750e+01 -1.110386177897453308e-01 9.310477413237094879e-03 -3.051844239234924316e-02 5.116505026817321777e-01
3.100000000000000000e+02 3.709045028686523438e+01 3.357565307617187500e+01 -5.872441530227661133e-01 -4.706861218437552452e-04 -1.763144433498382568e-01 4.641819596290588379e-01
3.110000000000000000e+02 3.750200271606445312e+01 3.372087097167968750e+01 -1.057582736015319824e+00 -5.765937641263008118e-02 -3.345726132392883301e-01 4.791973829269409180e-01
3.120000000000000000e+02 3.716872787475585938e+01 3.399382400512695312e+01 -2.204532623291015625e+00 -1.902696192264556885e-01 -7.184406518936157227e-01 4.111250936985015869e-01
3.130000000000000000e+02 3.816582107543945312e+01 3.298959350585937500e+01 3.945665836334228516e+00 7.585067749023437500e-01 1.411251783370971680e+00 2.402177095413208008e+00
3.140000000000000000e+02 3.913047790527343750e+01 3.253384399414062500e+01 6.821229457855224609e+00 7.247777462005615234e+00 4.220702171325683594e+00 7.750097751617431641e+00
3.150000000000000000e+02 3.895133590698242188e+01 3.255864715576171875e+01 6.582667350769042969e+00 5.171015739440917969e+00 3.526104927062988281e+00 6.567235469818115234e+00
3.160000000000000000e+02 3.940805435180664062e+01 3.270652389526367188e+01 7.274243831634521484e+00 9.520737648010253906e+00 5.038494586944580078e+00 9.084766387939453125e+00
3.170000000000000000e+02 3.982552337646484375e+01 3.272948074340820312e+01 6.053665637969970703e+00 1.746594238281250000e+01 7.055881977081298828e+00 9.238164901733398438e+00
3.180000000000000000e+02 4.040267562866210938e+01 3.264960861206054688e+01 4.584736824035644531e+00 2.429047393798828125e+01 8.662563323974609375e+00 4.575074195861816406e+00
3.190000000000000000e+02 3.737436676025390625e+01 3.507283020019531250e+01 -1.995839118957519531e+00 3.070622384548187256e-01 -5.066330432891845703e-01 7.816770672798156738e-02
3.200000000000000000e+02 3.770464706420898438e+01 3.480398559570312500e+01 -2.252403020858764648e+00 4.035050794482231140e-02 -6.636157631874084473e-01 2.930755019187927246e-01
3.210000000000000000e+02 3.748783493041992188e+01 3.462660980224609375e+01 -3.382056474685668945e+00 -1.398152709007263184e-01 -1.056561589241027832e+00 6.577160358428955078e-01
3.220000000000000000e+02 3.787833786010742188e+01 3.458839035034179688e+01 -2.961361646652221680e+00 -1.335997134447097778e-01 -9.284883737564086914e-01 4.348625242710113525e-01
3.230000000000000000e+02 3.831687927246093750e+01 3.461280441284179688e+01 -1.667111158370971680e+00 1.915222108364105225e-01 -4.426766932010650635e-01 -2.230256348848342896e-01
3.240000000000000000e+02 3.808925247192382812e+01 3.557012557983398438e+01 1.140343621373176575e-01 2.226710081100463867e+00 7.022233009338378906e-01 -1.898989677429199219e+00
3.250000000000000000e+02 3.816985702514648438e+01 3.502166366577148438e+01 -4.912801682949066162e-01 8.418380022048950195e-01 1.051673591136932373e-01 -9.867858886718750000e-01
3.260000000000000000e+02 3.905910491943359375e+01 3.538608551025390625e+01 1.484977960586547852e+00 5.785191059112548828e+00 2.181050777435302734e+00 -4.188297271728515625e+00
3.270000000000000000e+02 3.925504302978515625e+01 3.532197189331054688e+01 1.410160779953002930e+00 8.218719482421875000e+00 2.888664245605468750e+00 -4.865126609802246094e+00
3.280000000000000000e+02 3.970226669311523438e+01 3.503043365478515625e+01 1.393367052078247070e+00 1.312810611724853516e+01 4.356441974639892578e+00 -6.212342739105224609e+00
3.290000000000000000e+02 3.991344451904296875e+01 3.504908370971679688e+01 5.782558917999267578e-01 1.730450057983398438e+01 5.364827156066894531e+00 -5.699896335601806641e+00
3.300000000000000000e+02 3.864662170410156250e+01 3.420012664794921875e+01 -3.883557558059692383e+00 2.783216163516044617e-02 -1.156717658042907715e+00 7.322496771812438965e-01
3.310000000000000000e+02 3.884274291992187500e+01 3.414892196655273438e+01 -3.734416961669921875e+00 -2.270725816488265991e-01 -1.188446879386901855e+00 5.937577486038208008e-01
3.320000000000000000e+02 3.921955108642578125e+01 3.448979949951171875e+01 1.868227362632751465e+00 2.928303480148315430e+00 1.438959240913391113e+00 -3.226945638656616211e+00
3.330000000000000000e+02 3.937470245361328125e+01 3.465582656860351562e+01 2.678662300109863281e+00 6.212417602539062500e+00 2.667324066162109375e+00 -5.547860622406005859e+00
3.340000000000000000e+02 3.879228591918945312e+01 3.390427398681640625e+01 -2.376791238784790039e+00 -6.286623328924179077e-02 -7.318972945213317871e-01 5.466466546058654785e-01
3.350000000000000000e+02 3.859070587158203125e+01 3.393339157104492188e+01 -2.573174953460693359e+00 -1.170901879668235779e-01 -8.070795536041259766e-01 5.380444526672363281e-01
3.360000000000000000e+02 3.818804550170898438e+01 3.399582290649414062e+01 -2.833073377609252930e+00 -1.103934645652770996e-01 -8.830400109291076660e-01 5.584009289741516113e-01
3.370000000000000000e+02 3.813617324829101562e+01 3.372441482543945312e+01 -5.957303047180175781e-01 -5.988699942827224731e-02 -1.966851949691772461e-01 5.559461116790771484e-01
3.380000000000000000e+02 3.906976699829101562e+01 3.295831680297851562e+01 7.779425621032714844e+00 3.895792484283447266e+00 3.502565383911132812e+00 6.396806240081787109e+00
3.390000000000000000e+02 3.953778076171875000e+01 3.284587860107421875e+01 8.066560745239257812e+00 1.172755336761474609e+01 5.938234329223632812e+00 9.919568061828613281e+00
3.400000000000000000e+02 4.020188522338867188e+01 3.276660537719726562e+01 4.447044372558593750e+00 2.462912178039550781e+01 8.722849845886230469e+00 6.754628658294677734e+00
3.410000000000000000e+02 4.053842926025390625e+01 3.282450103759765625e+01 5.635914325714111328e+00 2.462074851989746094e+01 9.076998710632324219e+00 2.706593036651611328e+00
3.420000000000000000e+02 4.015172195434570312e+01 3.254445648193359375e+01 4.028707504272460938e+00 2.230563163757324219e+01 7.900301456451416016e+00 6.819533348083496094e+00
3.430000000000000000e+02 4.026586532592773438e+01 3.270759201049804688e+01 4.257226943969726562e+00 2.477020645141601562e+01 8.708230018615722656e+00 5.897193908691406250e+00
3.440000000000000000e+02 3.752147674560546875e+01 3.483342361450195312e+01 -2.481438159942626953e+00 8.546659350395202637e-02 -7.187914252281188965e-01 2.764809429645538330e-01
3.450000000000000000e+02 3.773812866210937500e+01 3.385675048828125000e+01 -1.637534737586975098e+00 -5.387204512953758240e-02 -5.074220299720764160e-01 5.067365169525146484e-01
3.460000000000000000e+02 3.764974975585937500e+01 3.366101074218750000e+01 -5.721197724342346191e-01 4.286335408687591553e-02 -1.587769240140914917e-01 5.236624479293823242e-01
3.470000000000000000e+02 3.760643005371093750e+01 3.523619079589843750e+01 -1.072785854339599609e+00 6.862861514091491699e-01 -1.159499138593673706e-01 -4.862353801727294922e-01
3.480000000000000000e+02 3.719385528564453125e+01 3.314340591430664062e+01 1.375714421272277832e+00 2.409629076719284058e-01 4.850032031536102295e-01 1.079140424728393555e+00
3.490000000000000000e+02 3.855484008789062500e+01 3.346837234497070312e+01 2.418429374694824219e+00 7.038810104131698608e-02 7.466452121734619141e-01 1.323085784912109375e+00
3.500000000000000000e+02 3.774202346801757812e+01 3.499568176269531250e+01 -1.429374217987060547e+00 4.267190992832183838e-01 -3.007965087890625000e-01 -2.641953825950622559e-01
3.510000000000000000e+02 3.837854385375976562e+01 3.493906402587890625e+01 -1.594417691230773926e-01 1.268416762351989746e+00 3.326925039291381836e-01 -1.292599439620971680e+00
3.520000000000000000e+02 3.823898315429687500e+01 3.528017425537109375e+01 2.873581647872924805e-01 1.854077458381652832e+00 6.424306631088256836e-01 -1.803389072418212891e+00
3.530000000000000000e+02 3.878073120117187500e+01 3.344557571411132812e+01 3.928687334060668945e+00 3.653714060783386230e-01 1.288217663764953613e+00 1.947370409965515137e+00
3.540000000000000000e+02 3.882061004638671875e+01 3.520072937011718750e+01 1.419156908988952637e+00 3.750220060348510742e+00 1.550813078880310059e+00 -3.537409543991088867e+00
3.550000000000000000e+02 3.881686782836914062e+01 3.462710952758789062e+01 1.279827356338500977e-01 1.402043938636779785e+00 4.590079784393310547e-01 -1.619479894638061523e+00
3.560000000000000000e+02 3.796527862548828125e+01 3.319126510620117188e+01 2.633411645889282227e+00 2.659907937049865723e-01 8.698207139968872070e-01 1.495402216911315918e+00
3.570000000000000000e+02 3.834354782104492188e+01 3.347043228149414062e+01 1.672340273857116699e+00 5.458315089344978333e-02 5.180770158767700195e-01 1.138258457183837891e+00
3.580000000000000000e+02 3.750220108032226562e+01 3.353535842895507812e+01 7.692344021052122116e-03 -3.358817845582962036e-02 -7.768750190734863281e-03 5.667148232460021973e-01
3.590000000000000000e+02 3.787924575805664062e+01 3.478653335571289062e+01 -2.014452457427978516e+00 2.445077598094940186e-01 -5.309833884239196777e-01 7.929354161024093628e-02
3.600000000000000000e+02 3.884006500244140625e+01 3.479596710205078125e+01 9.578244090080261230e-01 2.116067647933959961e+00 9.221675992012023926e-01 -2.433258533477783203e+00
3.610000000000000000e+02 3.860450744628906250e+01 3.494762039184570312e+01 5.356326103210449219e-01 1.618437409400939941e+00 6.462209820747375488e-01 -1.905940055847167969e+00
3.620000000000000000e+02 3.866492080688476562e+01 3.473081207275390625e+01 -1.344241667538881302e-02 1.269799828529357910e+00 3.769072294235229492e-01 -1.567600965499877930e+00
3.630000000000000000e+02 3.791044998168945312e+01 3.494608688354492188e+01 -1.150005936622619629e+00 4.744476377964019775e-01 -2.026674747467041016e-01 -3.587428033351898193e-01
3.640000000000000000e+02 3.804511260986328125e+01 3.483604431152343750e+01 -1.409697651863098145e+00 3.741118311882019043e-01 -3.106757402420043945e-01 -2.535163164138793945e-01
3.650000000000000000e+02 3.858874130249023438e+01 3.307154846191406250e+01 5.430020809173583984e+00 1.178027987480163574e+00 1.982414722442626953e+00 3.396144390106201172e+00
3.660000000000000000e+02 3.792277526855468750e+01 3.338359832763671875e+01 1.202123999595642090e+00 9.946893900632858276e-02 3.904778659343719482e-01 9.481772780418395996e-01
3.670000000000000000e+02 3.815730285644531250e+01 3.321858215332031250e+01 2.991537332534790039e+00 3.656655550003051758e-01 1.007160902023315430e+00 1.676490902900695801e+00
3.680000000000000000e+02 3.835253143310546875e+01 3.323802947998046875e+01 3.389767885208129883e+00 2.981305122375488281e-01 1.106369495391845703e+00 1.854736208915710449e+00
3.690000000000000000e+02 3.719821166992187500e+01 3.533196640014648438e+01 -1.204306483268737793e+00 4.604513645172119141e-01 -2.231565415859222412e-01 -2.166047841310501099e-01
3.700000000000000000e+02 3.601490783691406250e+01 3.496419143676757812e+01 -3.544752836227416992e+00 -2.301054745912551880e-01 -1.132457494735717773e+00 8.117504119873046875e-01
3.710000000000000000e+02 3.654327392578125000e+01 3.568767166137695312e+01 -1.232208013534545898e+00 1.531040519475936890e-01 -3.237311840057373047e-01 5.008148401975631714e-02
3.720000000000000000e+02 3.535110473632812500e+01 3.584400177001953125e+01 -1.873048782348632812e+00 -1.444007158279418945e-01 -6.052348613739013672e-01 5.171086192131042480e-01
3.730000000000000000e+02 3.706226730346679688e+01 3.497674560546875000e+01 -2.791126966476440430e+00 9.537035971879959106e-02 -8.087269663810729980e-01 6.134766936302185059e-01
3.740000000000000000e+02 3.718305587768554688e+01 3.575448989868164062e+01 -4.916024208068847656e-01 7.122831344604492188e-01 6.620422750711441040e-02 -5.991818904876708984e-01
3.750000000000000000e+02 3.721807098388671875e+01 3.553177642822265625e+01 -7.545734643936157227e-01 3.976928293704986572e-01 -1.070641949772834778e-01 -3.543655574321746826e-01
3.760000000000000000e+02 3.472727966308593750e+01 3.597739410400390625e+01 -1.915828108787536621e+00 -3.208456188440322876e-02 -5.843738317489624023e-01 6.008562445640563965e-01
3.770000000000000000e+02 3.531717300415039062e+01 3.509589004516601562e+01 -3.355666160583496094e+00 -1.179838776588439941e-01 -1.042094945907592773e+00 7.874884009361267090e-01
3.780000000000000000e+02 3.671415328979492188e+01 3.522508239746093750e+01 -2.371734619140625000e+00 8.245695382356643677e-03 -7.090466618537902832e-01 2.777049839496612549e-01
3.790000000000000000e+02 3.461928176879882812e+01 3.524425506591796875e+01 -3.135162115097045898e+00 -2.211248874664306641e-01 -1.006886124610900879e+00 7.554142475128173828e-01
3.800000000000000000e+02 3.715381240844726562e+01 3.515333175659179688e+01 -2.005375862121582031e+00 2.423316240310668945e-01 -5.289132595062255859e-01 9.351553022861480713e-02
3.810000000000000000e+02 3.699168014526367188e+01 3.476131057739257812e+01 -3.031104326248168945e+00 -6.517184525728225708e-02 -9.288828969001770020e-01 7.902422547340393066e-01
3.820000000000000000e+02 3.696891403198242188e+01 3.533972930908203125e+01 -1.566063761711120605e+00 3.238334953784942627e-01 -3.726690709590911865e-01 3.473492711782455444e-02
3.830000000000000000e+02 3.687032318115234375e+01 3.454101181030273438e+01 -4.267277717590332031e+00 -1.207312941551208496e-01 -1.316402792930603027e+00 9.080283641815185547e-01
3.840000000000000000e+02 3.693719482421875000e+01 3.562965393066406250e+01 -9.000594019889831543e-01 6.216266155242919922e-01 -8.352983742952346802e-02 -2.579438984394073486e-01
3.850000000000000000e+02 3.597477340698242188e+01 3.572727966308593750e+01 -1.556755304336547852e+00 1.285639703273773193e-01 -4.284574091434478760e-01 3.182771205902099609e-01
3.860000000000000000e+02 3.657360458374023438e+01 3.487484359741210938e+01 -3.367755413055419922e+00 -1.718798130750656128e-01 -1.061890602111816406e+00 7.942211627960205078e-01
3.870000000000000000e+02 3.390202713012695312e+01 3.539514541625976562e+01 -2.901699542999267578e+00 -1.390600800514221191e-01 -9.122279286384582520e-01 7.010438442230224609e-01
3.880000000000000000e+02 3.256509399414062500e+01 3.641382217407226562e+01 -1.431240797042846680e+00 -1.628539413213729858e-01 -4.782284200191497803e-01 7.596040964126586914e-01
3.890000000000000000e+02 3.404560089111328125e+01 3.612108612060546875e+01 -1.765499234199523926e+00 -2.094775140285491943e-01 -5.924929976463317871e-01 7.098799943923950195e-01
3.900000000000000000e+02 3.182485580444335938e+01 3.655983352661132812e+01 -1.247540116310119629e+00 -2.590445876121520996e-01 -4.519754052162170410e-01 6.350697278976440430e-01
3.910000000000000000e+02 3.242737579345703125e+01 3.568672943115234375e+01 -2.336061239242553711e+00 -1.693417280912399292e-01 -7.516208887100219727e-01 6.002731323242187500e-01
3.920000000000000000e+02 3.169006347656250000e+01 3.583216094970703125e+01 -2.003380298614501953e+00 -9.264575690031051636e-02 -6.288077831268310547e-01 5.921827554702758789e-01
3.930000000000000000e+02 3.316469573974609375e+01 3.554105377197265625e+01 -2.621397733688354492e+00 -1.568013876676559448e-01 -8.334597349166870117e-01 6.792821288108825684e-01
3.940000000000000000e+02 3.330534362792968750e+01 3.626757049560546875e+01 -1.656305074691772461e+00 -1.622871011495590210e-01 -5.455776453018188477e-01 6.486701965332031250e-01
3.950000000000000000e+02 2.946516418457031250e+01 3.621912765502929688e+01 -1.046369791030883789e+00 -1.938644945621490479e-01 -3.720703125000000000e-01 2.867088019847869873e-01
3.960000000000000000e+02 2.958438682556152344e+01 3.694947052001953125e+01 -7.712184190750122070e-01 -8.051249384880065918e-02 -2.555192708969116211e-01 4.850727021694183350e-01
3.970000000000000000e+02 2.872264671325683594e+01 3.634394836425781250e+01 -8.277408480644226074e-01 3.210708126425743103e-02 -2.386901378631591797e-01 2.538112103939056396e-01
3.980000000000000000e+02 3.020768547058105469e+01 3.609378433227539062e+01 -1.323162913322448730e+00 -6.073549389839172363e-03 -3.987709283828735352e-01 4.047477245330810547e-01
3.990000000000000000e+02 3.095018768310546875e+01 3.596792221069335938e+01 -1.663642168045043945e+00 -2.180070877075195312e-01 -5.644947886466979980e-01 4.458487629890441895e-01
4.000000000000000000e+02 3.108069419860839844e+01 3.669636154174804688e+01 -1.055602431297302246e+00 -1.881687492132186890e-01 -3.731313645839691162e-01 6.915967464447021484e-01
4.010000000000000000e+02 2.883622932434082031e+01 3.707524490356445312e+01 -5.735470056533813477e-01 -2.643893659114837646e-01 -2.513809204101562500e-01 3.903608918190002441e-01
4.020000000000000000e+02 3.033255004882812500e+01 3.682317352294921875e+01 -8.943733572959899902e-01 -3.224782645702362061e-01 -3.650554716587066650e-01 5.077026486396789551e-01
4.030000000000000000e+02 2.647223281860351562e+01 3.666142654418945312e+01 -3.283817172050476074e-01 -9.528520703315734863e-02 -1.271000802516937256e-01 1.007786467671394348e-01
4.040000000000000000e+02 2.572040748596191406e+01 3.676027679443359375e+01 -2.422350645065307617e-01 2.717148885130882263e-02 -6.451907008886337280e-02 6.654216349124908447e-02
4.050000000000000000e+02 2.731099891662597656e+01 3.729562377929687500e+01 -3.276560306549072266e-01 -1.805476397275924683e-01 -1.524610966444015503e-01 2.564371824264526367e-01
4.060000000000000000e+02 2.722403526306152344e+01 3.656066131591796875e+01 -4.610458016395568848e-01 3.968933224678039551e-02 -1.264069378376007080e-01 1.398205757141113281e-01
4.070000000000000000e+02 2.797564125061035156e+01 3.645804595947265625e+01 -6.265535950660705566e-01 -1.450605392456054688e-01 -2.314842492341995239e-01 1.775813847780227661e-01
4.080000000000000000e+02 2.807846832275390625e+01 3.719087982177734375e+01 -4.570932090282440186e-01 -5.340440198779106140e-02 -1.531492769718170166e-01 3.114566206932067871e-01
4.090000000000000000e+02 2.577564430236816406e+01 3.749948883056640625e+01 -1.685311198234558105e-01 -1.178141608834266663e-01 -8.590358495712280273e-02 1.490221619606018066e-01
4.100000000000000000e+02 2.654333496093750000e+01 3.739851379394531250e+01 -2.573375999927520752e-01 -2.492626011371612549e-02 -8.467915654182434082e-02 1.708171963691711426e-01
4.110000000000000000e+02 2.340743637084960938e+01 3.754123687744140625e+01 -5.171356350183486938e-02 5.639982409775257111e-03 -1.382207497954368591e-02 3.752201050519943237e-02
4.120000000000000000e+02 2.266618919372558594e+01 3.679620742797851562e+01 -1.656414754688739777e-02 6.746183149516582489e-03 -2.945389365777373314e-03 8.844307623803615570e-03
4.130000000000000000e+02 2.419788742065429688e+01 3.680555725097656250e+01 -8.743397146463394165e-02 1.639274880290031433e-02 -2.131236717104911804e-02 2.041825279593467712e-02
4.140000000000000000e+02 2.496211051940917969e+01 3.680892944335937500e+01 -1.567118018865585327e-01 -4.704077914357185364e-02 -6.112577766180038452e-02 4.926958680152893066e-02
4.150000000000000000e+02 2.499495697021484375e+01 3.754912567138671875e+01 -1.334720253944396973e-01 7.027317769825458527e-05 -4.002052545547485352e-02 8.228012919425964355e-02
4.160000000000000000e+02 2.261228370666503906e+01 3.753591537475585938e+01 -3.135514259338378906e-02 -2.771972492337226868e-02 -1.772245950996875763e-02 3.467424213886260986e-02
4.170000000000000000e+02 2.343242454528808594e+01 3.680136489868164062e+01 -4.513175785541534424e-02 -1.664388738572597504e-02 -1.853269338607788086e-02 1.964526623487472534e-02
4.180000000000000000e+02 2.420181655883789062e+01 3.754558944702148438e+01 -9.675108641386032104e-02 -5.298612266778945923e-02 -4.492116346955299377e-02 8.662291616201400757e-02
4.190000000000000000e+02 1.998039245605468750e+01 3.692026138305664062e+01 7.702068891376256943e-03 -2.503745723515748978e-03 1.559496857225894928e-03 -7.517292164266109467e-03
4.200000000000000000e+02 2.062745285034179688e+01 3.732268142700195312e+01 4.675542935729026794e-03 8.477348019368946552e-04 1.656983280554413795e-03 -4.401034675538539886e-03
4.210000000000000000e+02 2.113145446777343750e+01 3.686664581298828125e+01 2.468094695359468460e-03 -1.976807834580540657e-03 1.473860320402309299e-04 5.865764338523149490e-03
4.220000000000000000e+02 2.021580696105957031e+01 3.715901565551757812e+01 4.309952724725008011e-03 -6.315757054835557938e-03 -6.017412524670362473e-04 -3.165036905556917191e-03
4.230000000000000000e+02 2.186282539367675781e+01 3.673282623291015625e+01 1.990045711863785982e-04 -7.873956114053726196e-03 -2.302485285326838493e-03 5.007604137063026428e-03
4.240000000000000000e+02 2.186202239990234375e+01 3.748466491699218750e+01 -1.212793402373790741e-02 3.946521785110235214e-03 -2.454423811286687851e-03 1.205174438655376434e-02
4.250000000000000000e+02 2.119230079650878906e+01 3.743341445922851562e+01 8.264244534075260162e-04 -1.831770688295364380e-02 -5.247384309768676758e-03 1.246668491512537003e-02
4.260000000000000000e+02 2.068652153015136719e+01 3.649208450317382812e+01 8.599744178354740143e-03 9.074143134057521820e-03 5.302166100591421127e-03 -3.125816583633422852e-03
4.270000000000000000e+02 2.102560424804687500e+01 3.579481887817382812e+01 -2.874943893402814865e-03 -2.100073266774415970e-03 -1.492505078203976154e-03 -9.063767269253730774e-03
4.280000000000000000e+02 2.197462081909179688e+01 3.519912338256835938e+01 -5.487580224871635437e-02 -3.584317117929458618e-02 -2.721569314599037170e-02 -6.872250884771347046e-02
4.290000000000000000e+02 2.189435958862304688e+01 3.593660354614257812e+01 -3.410239517688751221e-02 -1.531830709427595139e-02 -1.482621021568775177e-02 -2.236722782254219055e-02
4.300000000000000000e+02 2.057264900207519531e+01 3.514139175415039062e+01 -1.004760153591632843e-03 -7.653220091015100479e-03 -2.597394166514277458e-03 3.418982261791825294e-03
4.310000000000000000e+02 2.112965202331542969e+01 3.506163787841796875e+01 -1.941492594778537750e-02 -4.637556523084640503e-02 -1.973714679479598999e-02 -3.310388326644897461e-02
4.320000000000000000e+02 2.118340682983398438e+01 3.421354675292968750e+01 -1.776394806802272797e-02 -9.364937990903854370e-02 -3.342399746179580688e-02 -6.885680556297302246e-02
4.330000000000000000e+02 2.459500885009765625e+01 3.360822296142578125e+01 -1.862224191427230835e-01 -1.248181145638227463e-02 -5.961126834154129028e-02 -2.816002070903778076e-01
4.340000000000000000e+02 2.692704772949218750e+01 3.430283355712890625e+01 -4.722227156162261963e-01 6.743972003459930420e-02 -1.214348971843719482e-01 -2.261682152748107910e-01
4.350000000000000000e+02 2.101600456237792969e+01 2.542557334899902344e+01 1.134955696761608124e-02 -9.981867671012878418e-01 -2.960511744022369385e-01 -1.292765140533447266e-03
4.360000000000000000e+02 2.590496826171875000e+01 1.726652908325195312e+01 7.102894037961959839e-02 1.485527515411376953e+00 4.669669270515441895e-01 7.932239770889282227e-01
4.370000000000000000e+02 3.296700286865234375e+01 1.177377319335937500e+01 -3.055627942085266113e-01 4.252691745758056641e+00 1.184138774871826172e+00 1.203251600265502930e+00
4.380000000000000000e+02 4.372044372558593750e+01 4.227541387081146240e-01 -6.477073431015014648e-01 6.253048419952392578e+00 1.681602239608764648e+00 3.004516065120697021e-01
4.390000000000000000e+02 4.695037460327148438e+01 -4.803376674652099609e+00 -5.425251722335815430e-01 6.399148464202880859e+00 1.756986856460571289e+00 8.022935688495635986e-02
4.400000000000000000e+02 6.004722595214843750e+01 -9.051609992980957031e+00 -3.248681724071502686e-01 7.487832069396972656e+00 2.148889303207397461e+00 -3.054956495761871338e-01
4.410000000000000000e+02 6.537223815917968750e+01 -1.580451107025146484e+01 -1.483521014451980591e-01 7.898850917816162109e+00 2.325149774551391602e+00 -2.215701639652252197e-01
4.420000000000000000e+02 7.144715881347656250e+01 -2.294140625000000000e+01 -4.107531905174255371e-02 8.524625778198242188e+00 2.545065164566040039e+00 -1.025433912873268127e-01
4.430000000000000000e+02 7.793577575683593750e+01 -3.041064071655273438e+01 -5.359552800655364990e-03 9.335882186889648438e+00 2.799156665802001953e+00 -2.007911726832389832e-02
4.440000000000000000e+02 7.932848358154296875e+01 -2.641311454772949219e+01 -1.032489934004843235e-03 9.474520683288574219e+00 2.842046499252319336e+00 -1.284888293594121933e-02
4.450000000000000000e+02 7.801215362548828125e+01 -2.350317764282226562e+01 -2.600565785542130470e-03 9.279946327209472656e+00 2.783203601837158203e+00 -3.190116956830024719e-02
4.460000000000000000e+02 7.933619689941406250e+01 -2.222892189025878906e+01 1.382864866172894835e-04 9.424520492553710938e+00 2.827397584915161133e+00 -1.696995086967945099e-02
4.470000000000000000e+02 7.301756286621093750e+01 -1.233332252502441406e+01 -5.383797362446784973e-02 8.555528640747070312e+00 2.550507068634033203e+00 -1.961144804954528809e-01
4.480000000000000000e+02 6.516610717773437500e+01 -6.547715663909912109e+00 -2.483292669057846069e-01 7.873721599578857422e+00 2.287617683410644531e+00 -4.053884446620941162e-01
4.490000000000000000e+02 5.900762939453125000e+01 4.643003940582275391e+00 -5.510731935501098633e-01 7.782385826110839844e+00 2.169393777847290039e+00 -6.442136764526367188e-01
4.500000000000000000e+02 3.991254425048828125e+01 1.328160095214843750e+01 -7.196812629699707031e-01 6.517471313476562500e+00 1.739336967468261719e+00 1.030904531478881836e+00
4.510000000000000000e+02 3.177577972412109375e+01 3.294308471679687500e+01 -2.993612885475158691e-01 1.522626578807830811e-01 -4.412959143519401550e-02 -9.371611475944519043e-02
4.520000000000000000e+02 2.980021095275878906e+01 3.390224838256835938e+01 -7.065190672874450684e-01 1.030010655522346497e-01 -1.810554116964340210e-01 -1.633828431367874146e-01
4.530000000000000000e+02 2.369889259338378906e+01 -3.469930267333984375e+01 1.331748366355895996e-01 3.133216142654418945e+00 9.799173474311828613e-01 3.441893309354782104e-02
4.540000000000000000e+02 1.661701965332031250e+01 -3.862032699584960938e+01 -2.456525266170501709e-01 -3.942806273698806763e-02 -8.552417904138565063e-02 8.397191017866134644e-02
4.550000000000000000e+02 1.881183624267578125e+01 -3.917306900024414062e+01 -2.552050352096557617e-01 1.666233420372009277e+00 4.233085215091705322e-01 5.168534517288208008e-01
4.560000000000000000e+02 1.819571113586425781e+01 -4.125584793090820312e+01 -1.246720831841230392e-02 1.127947926521301270e+00 3.346442282199859619e-01 1.684423983097076416e-01
4.570000000000000000e+02 1.454047012329101562e+01 -3.647851943969726562e+01 -6.308633089065551758e-02 -4.563109576702117920e-02 -3.261522576212882996e-02 2.787734568119049072e-02
4.580000000000000000e+02 1.536989593505859375e+01 -3.760188293457031250e+01 -1.528782099485397339e-01 -3.525423258543014526e-02 -5.643973127007484436e-02 6.155596673488616943e-02
4.590000000000000000e+02 1.288536930084228516e+01 -3.138729667663574219e+01 -5.826551467180252075e-03 -4.530438687652349472e-03 -3.107096999883651733e-03 3.921876661479473114e-03
4.600000000000000000e+02 6.627389788627624512e-01 -2.476526641845703125e+01 -2.906472655013203621e-03 6.833176012150943279e-04 -6.669465219601988792e-04 -2.805774565786123276e-04
4.610000000000000000e+02 6.694432497024536133e-01 -3.040672302246093750e+01 -4.112511873245239258e-03 -3.588921972550451756e-04 -1.341421273536980152e-03 -9.801395935937762260e-04
4.620000000000000000e+02 6.865322589874267578e-01 -3.181100082397460938e+01 4.232666920870542526e-03 -1.436581369489431381e-03 8.388256537728011608e-04 -8.749974949751049280e-05
4.630000000000000000e+02 8.352732062339782715e-01 -3.737000274658203125e+01 7.495040073990821838e-03 -1.166953705251216888e-02 -1.252348884008824825e-03 1.793591654859483242e-04
4.640000000000000000e+02 8.943258285522460938e+00 -3.945896911621093750e+01 2.503175847232341766e-02 1.200088113546371460e-02 1.110979169607162476e-02 -2.825819887220859528e-02
4.650000000000000000e+02 1.212767028808593750e+01 -4.146073532104492188e+01 1.062393561005592346e-01 2.415666170418262482e-02 3.911880776286125183e-02 -1.693244650959968567e-02
4.660000000000000000e+02 2.132054901123046875e+01 -3.361184310913085938e+01 1.197648495435714722e-01 3.070951223373413086e+00 9.572147727012634277e-01 1.704386025667190552e-01
4.670000000000000000e+02 1.967960357666015625e+01 -2.801109695434570312e+01 1.320342626422643661e-02 2.805728435516357422e+00 8.456795811653137207e-01 2.638018876314163208e-02
4.680000000000000000e+02 2.115297889709472656e+01 -3.085272598266601562e+01 -2.914764452725648880e-03 3.035339355468750000e+00 9.097273945808410645e-01 8.313151448965072632e-02
4.690000000000000000e+02 1.970790863037109375e+01 -3.505088043212890625e+01 9.481822699308395386e-02 3.220295190811157227e+00 9.945340752601623535e-01 2.909476459026336670e-01
4.700000000000000000e+02 1.951826286315917969e+01 -3.646116638183593750e+01 3.838015198707580566e-01 2.916115999221801758e+00 9.899752736091613770e-01 4.997535645961761475e-01
4.710000000000000000e+02 1.971795272827148438e+01 -2.380134010314941406e+01 -3.096805512905120850e-02 2.635359048843383789e+00 7.813172936439514160e-01 6.596748530864715576e-02
4.720000000000000000e+02 1.980041122436523438e+01 -2.098483085632324219e+01 7.859576493501663208e-03 2.685713052749633789e+00 8.080717921257019043e-01 7.934524118900299072e-02
4.730000000000000000e+02 2.132718467712402344e+01 -2.389164733886718750e+01 -2.447522804141044617e-02 2.912943601608276367e+00 8.665404915809631348e-01 8.382345736026763916e-02
4.740000000000000000e+02 2.065836715698242188e+01 -1.308701515197753906e+00 1.576902158558368683e-02 2.343440532684326172e+00 7.077628374099731445e-01 1.435733437538146973e-01
4.750000000000000000e+02 2.036935615539550781e+01 -6.918940544128417969e+00 -1.503114309161901474e-02 2.478746652603149414e+00 7.391146421432495117e-01 7.945860922336578369e-02
4.760000000000000000e+02 2.163015174865722656e+01 -1.114481067657470703e+01 9.344690479338169098e-03 2.904144525527954102e+00 8.740468025207519531e-01 1.455081254243850708e-01
4.770000000000000000e+02 2.674043846130371094e+01 -2.270223236083984375e+01 -4.826652258634567261e-02 3.542754650115966797e+00 1.048346400260925293e+00 1.343061029911041260e-01
4.780000000000000000e+02 3.564142227172851562e+01 -3.433260345458984375e+01 -9.468015283346176147e-02 4.578015804290771484e+00 1.345000743865966797e+00 2.164915949106216431e-02
4.790000000000000000e+02 4.677511596679687500e+01 -3.730812835693359375e+01 -1.130287051200866699e-01 5.855775833129882812e+00 1.722824215888977051e+00 -2.581609878689050674e-03
4.800000000000000000e+02 5.216470336914062500e+01 -4.064697647094726562e+01 -1.037411093711853027e-01 6.442622184753417969e+00 1.901664257049560547e+00 -9.515557438135147095e-03
4.810000000000000000e+02 4.725857162475585938e+01 -4.076046752929687500e+01 -1.201194003224372864e-01 5.893332958221435547e+00 1.731964111328125000e+00 -1.141812768764793873e-03
4.820000000000000000e+02 6.213155364990234375e+01 -4.039249038696289062e+01 -6.056882068514823914e-02 7.535778045654296875e+00 2.242562770843505859e+00 -9.677144698798656464e-03
4.830000000000000000e+02 5.709009170532226562e+01 -4.031801605224609375e+01 -8.003980666399002075e-02 7.015268802642822266e+00 2.080568790435791016e+00 -9.069260209798812866e-03
4.840000000000000000e+02 6.087683486938476562e+01 -3.147497749328613281e+01 -8.154137432575225830e-02 7.448679924011230469e+00 2.210141420364379883e+00 -5.328947678208351135e-02
4.850000000000000000e+02 5.932913208007812500e+01 -2.443778610229492188e+01 -1.432316154241561890e-01 7.289205074310302734e+00 2.143792152404785156e+00 -1.109921932220458984e-01
4.860000000000000000e+02 5.543581771850585938e+01 -1.660316467285156250e+01 -2.665499150753021240e-01 6.947292327880859375e+00 2.004222631454467773e+00 -1.291317343711853027e-01
4.870000000000000000e+02 5.245822525024414062e+01 -9.019746780395507812e+00 -4.366031587123870850e-01 6.837366104125976562e+00 1.920228958129882812e+00 -1.235924661159515381e-01
4.880000000000000000e+02 4.867407226562500000e+01 -4.962876319885253906e+00 -5.440841913223266602e-01 6.589663028717041016e+00 1.813673734664916992e+00 3.015028778463602066e-03
4.890000000000000000e+02 3.893188095092773438e+01 -4.277951240539550781e+00 -4.274861514568328857e-01 5.310123920440673828e+00 1.464791297912597656e+00 3.963963687419891357e-01
4.900000000000000000e+02 3.402887725830078125e+01 -1.963979244232177734e+00 -3.126485645771026611e-01 4.489086151123046875e+00 1.252931237220764160e+00 5.573726296424865723e-01
4.910000000000000000e+02 2.769096183776855469e+01 -2.663722515106201172e+00 -1.088868081569671631e-01 3.392591714859008789e+00 9.851114749908447266e-01 4.551323950290679932e-01
4.920000000000000000e+02 2.059000396728515625e+01 -2.714313983917236328e+00 3.712771832942962646e-02 2.437180519104003906e+00 7.422924637794494629e-01 1.812728494405746460e-01
4.930000000000000000e+02 2.032890319824218750e+01 -9.732398986816406250e+00 2.571114897727966309e-02 2.771167993545532227e+00 8.390637040138244629e-01 9.708388149738311768e-02
4.940000000000000000e+02 1.996562194824218750e+01 -1.676503944396972656e+01 -8.674873970448970795e-04 2.639789819717407227e+00 7.916767001152038574e-01 2.101774662733078003e-01
4.950000000000000000e+02 2.143583869934082031e+01 -1.679672050476074219e+01 -2.919590100646018982e-02 2.892232894897460938e+00 8.589110970497131348e-01 1.334746330976486206e-01
4.960000000000000000e+02 2.938667678833007812e+01 -3.124709320068359375e+01 -1.611209288239479065e-02 3.811091184616088867e+00 1.138493657112121582e+00 5.315831303596496582e-02
4.970000000000000000e+02 3.737443161010742188e+01 -4.090132522583007812e+01 -1.186717227101325989e-01 4.792006492614746094e+00 1.402000546455383301e+00 -3.629619255661964417e-03
4.980000000000000000e+02 4.231675720214843750e+01 -4.077904510498046875e+01 -1.182116270065307617e-01 5.322798728942871094e+00 1.561376094818115234e+00 2.839146414771676064e-03
4.990000000000000000e+02 1.327513980865478516e+01 -3.579325103759765625e+01 -4.099707305431365967e-02 -5.572842783294618130e-04 -1.246630679816007614e-02 2.769437432289123535e-02
5.000000000000000000e+02 1.387629890441894531e+01 -3.440901565551757812e+01 2.880371408537030220e-03 -1.530713029205799103e-02 -3.728027688339352608e-03 7.426100317388772964e-03
5.010000000000000000e+02 1.414826679229736328e+01 -3.305508804321289062e+01 -8.290407247841358185e-03 -3.699610708281397820e-03 -3.597005503252148628e-03 4.256472457200288773e-03
5.020000000000000000e+02 1.327471065521240234e+01 -2.618253517150878906e+01 -4.373270552605390549e-03 -1.052179504767991602e-04 -1.343546551652252674e-03 -6.286971038207411766e-04
5.030000000000000000e+02 1.882166981697082520e+00 -1.758143043518066406e+01 -2.109821652993559837e-03 7.350376836257055402e-05 -6.108953966759145260e-04 -2.271837292937561870e-04
5.040000000000000000e+02 6.665987372398376465e-01 -2.335033226013183594e+01 2.610033843666315079e-03 6.124978535808622837e-04 9.667595149949193001e-04 3.899967705365270376e-04
5.050000000000000000e+02 1.442073822021484375e+01 -3.033294868469238281e+01 -5.677506327629089355e-03 7.643916760571300983e-04 -1.473934389650821686e-03 1.098260981962084770e-03
5.060000000000000000e+02 1.315785217285156250e+01 -2.880183601379394531e+01 -4.737393464893102646e-03 -8.800444775260984898e-04 -1.685231341980397701e-03 4.604374116752296686e-04
5.070000000000000000e+02 1.424368286132812500e+01 -2.199948883056640625e+01 -4.487002268433570862e-03 5.714609287679195404e-04 -1.174662378616631031e-03 -4.579809683491475880e-05
5.080000000000000000e+02 1.452623462677001953e+01 -1.348172664642333984e+01 -2.381852595135569572e-03 -6.531242252094671130e-05 -7.341494783759117126e-04 3.122062771581113338e-04
5.090000000000000000e+02 1.462554359436035156e+01 -6.557368755340576172e+00 1.442088629119098186e-03 4.492055086302570999e-05 4.461027565412223339e-04 1.159903604275314137e-05
5.100000000000000000e+02 1.460791301727294922e+01 -3.868047714233398438e+00 9.979582391679286957e-04 1.681085268501192331e-04 3.498200385365635157e-04 2.084035659208893776e-04
5.110000000000000000e+02 1.442763328552246094e+01 -2.845927953720092773e+00 -9.514394332654774189e-04 -1.966239942703396082e-04 -3.444190369918942451e-04 -4.776939749717712402e-04
5.120000000000000000e+02 1.031103038787841797e+01 -2.659471988677978516e+00 -3.567150561138987541e-04 -2.594786346890032291e-04 -1.848581159720197320e-04 3.048814833164215088e-04
5.130000000000000000e+02 1.349806880950927734e+01 -1.061776638031005859e+01 1.782387029379606247e-03 1.398621534463018179e-04 5.766747635789215565e-04 -2.812893944792449474e-04
5.140000000000000000e+02 1.283702087402343750e+01 -1.871368789672851562e+01 2.318852115422487259e-03 6.520520546473562717e-04 8.912712219171226025e-04 -1.122237998060882092e-03
5.150000000000000000e+02 1.326627349853515625e+01 -2.489805603027343750e+01 4.385179840028285980e-03 8.915087091736495495e-04 1.583006465807557106e-03 5.016515497118234634e-04
5.160000000000000000e+02 1.450127029418945312e+01 -2.620426750183105469e+01 5.345036741346120834e-03 1.273518893867731094e-03 1.985566690564155579e-03 3.922878750017844141e-05
5.170000000000000000e+02 1.108742427825927734e+01 -1.895178318023681641e+00 -4.137645591981709003e-04 -9.152158600045368075e-05 -1.515858457423746586e-04 2.667811932042241096e-04
5.180000000000000000e+02 4.267902851104736328e+00 -1.892537593841552734e+00 1.269153726752847433e-04 1.524532272014766932e-04 8.381057705264538527e-05 6.842422590125352144e-05
5.190000000000000000e+02 1.764458775520324707e+00 -1.058852767944335938e+01 1.247417763806879520e-03 1.050676364684477448e-04 4.057456098962575197e-04 7.581547106383368373e-05
5.200000000000000000e+02 6.299694180488586426e-01 -1.770100021362304688e+01 1.959208631888031960e-03 1.371975668007507920e-04 6.289218435995280743e-04 2.171646920032799244e-04
5.210000000000000000e+02 2.751008749008178711e+00 -3.806790542602539062e+01 7.078329101204872131e-03 -1.043135207146406174e-02 -1.005906960926949978e-03 -3.148847725242376328e-03
5.220000000000000000e+02 2.153060531616210938e+01 -3.665924072265625000e+01 1.700948774814605713e-01 2.754509210586547852e+00 8.773812055587768555e-01 -1.642376743257045746e-02
5.230000000000000000e+02 2.418464088439941406e+01 -3.660503387451171875e+01 1.362011581659317017e-02 3.150410175323486328e+00 9.492090940475463867e-01 -4.567909613251686096e-02
5.240000000000000000e+02 3.225602340698242188e+01 -3.835723114013671875e+01 -1.081834509968757629e-01 4.166079044342041016e+00 1.217368602752685547e+00 -2.481437986716628075e-03
5.250000000000000000e+02 1.966020965576171875e+01 -3.080846595764160156e+01 3.173831477761268616e-02 2.917917966842651367e+00 8.848969340324401855e-01 3.888125345110893250e-02
5.260000000000000000e+02 6.235635375976562500e+01 -3.658293151855468750e+01 -6.749158352613449097e-02 7.555343151092529297e+00 2.246355533599853516e+00 -2.476140856742858887e-02
5.270000000000000000e+02 6.264329528808593750e+01 -2.911617660522460938e+01 -8.935450017452239990e-02 7.622864723205566406e+00 2.260053157806396484e+00 -6.921558827161788940e-02
5.280000000000000000e+02 6.550595855712890625e+01 -2.514395332336425781e+01 -8.021678775548934937e-02 7.919161796569824219e+00 2.351683378219604492e+00 -1.020230054855346680e-01
5.290000000000000000e+02 6.409587097167968750e+01 -1.849359321594238281e+01 -1.430452167987823486e-01 7.780738353729248047e+00 2.291307926177978516e+00 -1.846203505992889404e-01
5.300000000000000000e+02 6.705887603759765625e+01 -4.081687545776367188e+01 -3.476997837424278259e-02 8.117774009704589844e+00 2.424901247024536133e+00 -9.022891521453857422e-03
5.310000000000000000e+02 7.298698425292968750e+01 -3.795572662353515625e+01 -2.188381366431713104e-02 8.755484580993652344e+00 2.620080232620239258e+00 -3.475631028413772583e-02
5.320000000000000000e+02 7.257120513916015625e+01 -3.042237472534179688e+01 -2.345792204141616821e-02 8.694302558898925781e+00 2.601253509521484375e+00 -4.735310375690460205e-02
5.330000000000000000e+02 7.143607330322265625e+01 -2.557892990112304688e+01 -3.343363478779792786e-02 8.541030883789062500e+00 2.552279233932495117e+00 -8.694482594728469849e-02
5.340000000000000000e+02 7.791182708740234375e+01 -4.162482070922851562e+01 3.615551814436912537e-02 9.383049011230468750e+00 2.825761318206787109e+00 1.014007441699504852e-02
5.350000000000000000e+02 7.775000000000000000e+01 -3.678273391723632812e+01 -1.006831228733062744e-02 9.336782455444335938e+00 2.798014163970947266e+00 1.340456306934356689e-02
5.360000000000000000e+02 7.931528472900390625e+01 -3.334542465209960938e+01 2.936478413175791502e-04 9.520417213439941406e+00 2.856213092803955078e+00 -3.126696683466434479e-03
5.370000000000000000e+02 7.802772521972656250e+01 -1.654713058471679688e+01 -4.193030297756195068e-03 9.165698051452636719e+00 2.748451709747314453e+00 -5.271277204155921936e-02
5.380000000000000000e+02 7.934672546386718750e+01 -1.247864723205566406e+01 -9.626987739466130733e-04 9.211784362792968750e+00 2.763246297836303711e+00 -3.067082911729812622e-02
5.390000000000000000e+02 7.277931976318359375e+01 -5.530905723571777344e+00 -7.933692634105682373e-02 8.362280845642089844e+00 2.484883308410644531e+00 -3.140960037708282471e-01
5.400000000000000000e+02 6.671479797363281250e+01 2.388258218765258789e+00 -2.693590223789215088e-01 7.903389930725097656e+00 2.290209293365478516e+00 -6.622220873832702637e-01
5.410000000000000000e+02 6.087031555175781250e+01 1.006969070434570312e+01 -4.644974172115325928e-01 7.951744079589843750e+00 2.246173858642578125e+00 -9.052560925483703613e-01
5.420000000000000000e+02 5.130410385131835938e+01 2.237349700927734375e+01 -7.440784573554992676e-02 9.215797424316406250e+00 2.742416858673095703e+00 -9.009418487548828125e-01
5.430000000000000000e+02 4.290525436401367188e+01 2.861344909667968750e+01 7.911883592605590820e-01 1.251684284210205078e+01 3.992409467697143555e+00 5.687101483345031738e-01
5.440000000000000000e+02 3.577924346923828125e+01 3.279609680175781250e+01 7.208628058433532715e-01 1.293452829122543335e-01 2.550624310970306396e-01 6.066643595695495605e-01
5.450000000000000000e+02 3.269753646850585938e+01 3.340433502197265625e+01 -6.566382050514221191e-01 9.951813519001007080e-02 -1.671360284090042114e-01 -2.303308062255382538e-02
5.460000000000000000e+02 7.804895019531250000e+01 -9.580060005187988281e+00 -6.293731741607189178e-03 8.968968391418457031e+00 2.688802242279052734e+00 -8.426435291767120361e-02
5.470000000000000000e+02 7.934887695312500000e+01 -5.510614395141601562e+00 -1.492772134952247143e-03 8.930365562438964844e+00 2.678661823272705078e+00 -4.564395546913146973e-02
5.480000000000000000e+02 6.594004058837890625e+01 1.021367454528808594e+01 -2.790609896183013916e-01 7.813237667083740234e+00 2.260252952575683594e+00 -9.336163997650146484e-01
5.490000000000000000e+02 6.006745529174804688e+01 1.592071151733398438e+01 -3.166350722312927246e-01 8.119035720825195312e+00 2.340720415115356445e+00 -1.109675526618957520e+00
5.500000000000000000e+02 4.889194869995117188e+01 2.855450439453125000e+01 1.502551317214965820e+00 1.016183376312255859e+01 3.499315738677978516e+00 -9.544166326522827148e-01
5.510000000000000000e+02 4.318183517456054688e+01 3.187382316589355469e+01 4.960063457489013672e+00 1.402911186218261719e+01 5.696752548217773438e+00 -7.634300589561462402e-01
5.520000000000000000e+02 4.079817581176757812e+01 3.172845649719238281e+01 2.605043411254882812e+00 1.886398124694824219e+01 6.440707206726074219e+00 2.745500564575195312e+00
5.530000000000000000e+02 4.017975616455078125e+01 3.204018020629882812e+01 2.984518766403198242e+00 1.814697456359863281e+01 6.339447975158691406e+00 5.468080043792724609e+00
5.540000000000000000e+02 3.925105667114257812e+01 3.216341400146484375e+01 5.290672779083251953e+00 9.497737884521484375e+00 4.436522960662841797e+00 7.754631042480468750e+00
5.550000000000000000e+02 7.804734802246093750e+01 -2.605568408966064453e+00 -8.599081076681613922e-03 8.646697044372558594e+00 2.591429471969604492e+00 -1.303213983774185181e-01
5.560000000000000000e+02 7.934469604492187500e+01 2.865664005279541016e+00 -1.453062868677079678e-03 8.364390373229980469e+00 2.508881330490112305e+00 -6.966146081686019897e-02
5.570000000000000000e+02 7.287272644042968750e+01 1.044177818298339844e+01 -8.461778610944747925e-02 7.622756004333496094e+00 2.261441469192504883e+00 -6.737793087959289551e-01
5.580000000000000000e+02 6.630731201171875000e+01 1.732487297058105469e+01 -1.073361113667488098e-01 7.658905982971191406e+00 2.265470981597900391e+00 -1.114268302917480469e+00
5.590000000000000000e+02 5.398580932617187500e+01 2.072404670715332031e+01 -1.645943373441696167e-01 8.800720214843750000e+00 2.590837717056274414e+00 -1.030783057212829590e+00
5.600000000000000000e+02 4.727169036865234375e+01 2.914557838439941406e+01 1.824592351913452148e+00 1.080570602416992188e+01 3.789089441299438477e+00 -8.723234534263610840e-01
5.610000000000000000e+02 4.208612442016601562e+01 3.436467742919921875e+01 8.555840492248535156e+00 1.665614891052246094e+01 7.563596725463867188e+00 3.169766902923583984e+00
5.620000000000000000e+02 4.269868469238281250e+01 3.376438522338867188e+01 8.134103775024414062e+00 1.491503715515136719e+01 6.914741992950439453e+00 1.520905137062072754e+00
5.630000000000000000e+02 4.195174026489257812e+01 3.237807846069335938e+01 6.418741703033447266e+00 1.756333351135253906e+01 7.194622993469238281e+00 -9.253684878349304199e-01
5.640000000000000000e+02 7.803056335449218750e+01 4.410208702087402344e+00 -8.752963505685329437e-03 8.151243209838867188e+00 2.442746877670288086e+00 -1.892689764499664307e-01
5.650000000000000000e+02 7.934556579589843750e+01 8.447318077087402344e+00 -8.011962054297327995e-04 7.818247795104980469e+00 2.345233917236328125e+00 -8.589039742946624756e-02
5.660000000000000000e+02 7.271045684814453125e+01 1.725102043151855469e+01 -3.099052049219608307e-02 7.162631034851074219e+00 2.139492034912109375e+00 -7.984593510627746582e-01
5.670000000000000000e+02 6.460624694824218750e+01 2.155912971496582031e+01 8.285874128341674805e-02 7.708470344543457031e+00 2.337398767471313477e+00 -1.196273088455200195e+00
5.680000000000000000e+02 5.431373977661132812e+01 2.802937126159667969e+01 1.029381394386291504e+00 8.977501869201660156e+00 3.002065181732177734e+00 -1.066350817680358887e+00
5.690000000000000000e+02 4.681658935546875000e+01 4.105212402343750000e+01 4.518238827586174011e-02 1.269751834869384766e+01 3.822810173034667969e+00 5.309336185455322266e-01
5.700000000000000000e+02 4.038943862915039062e+01 3.590346527099609375e+01 -1.002886652946472168e+00 1.711665344238281250e+01 4.834130287170410156e+00 -2.550557136535644531e+00
5.710000000000000000e+02 7.805796813964843750e+01 1.139230251312255859e+01 -7.239581551402807236e-03 7.472642898559570312e+00 2.239620923995971680e+00 -2.428040653467178345e-01
5.720000000000000000e+02 7.936660003662109375e+01 1.678174781799316406e+01 4.595477657858282328e-04 6.761227607727050781e+00 2.028506278991699219e+00 -9.929174184799194336e-02
5.730000000000000000e+02 6.040691375732421875e+01 2.872673225402832031e+01 7.246871590614318848e-01 8.149179458618164062e+00 2.662159919738769531e+00 -1.035729169845581055e+00
5.740000000000000000e+02 5.411304092407226562e+01 3.686359786987304688e+01 1.579111337661743164e+00 9.554198265075683594e+00 3.339992761611938477e+00 4.099230840802192688e-02
5.750000000000000000e+02 7.809417724609375000e+01 1.962340164184570312e+01 -9.847463807091116905e-04 6.476954460144042969e+00 1.942790985107421875e+00 -2.718809843063354492e-01
5.760000000000000000e+02 7.934896087646484375e+01 2.369882011413574219e+01 1.237456570379436016e-03 5.772412776947021484e+00 1.732095122337341309e+00 -1.000863686203956604e-01
5.770000000000000000e+02 7.208140563964843750e+01 2.905250167846679688e+01 1.765264868736267090e-01 6.455296039581298828e+00 1.989546775817871094e+00 -6.859335303306579590e-01
5.780000000000000000e+02 6.275349807739257812e+01 4.058281707763671875e+01 9.323269724845886230e-01 7.825055599212646484e+00 2.627214670181274414e+00 -1.400190144777297974e-01
5.790000000000000000e+02 5.785491180419921875e+01 4.044569396972656250e+01 1.208803892135620117e+00 8.797455787658691406e+00 3.001877784729003906e+00 -1.086292415857315063e-01
5.800000000000000000e+02 7.676332855224609375e+01 2.233197975158691406e+01 4.471314139664173126e-03 6.303393363952636719e+00 1.892359375953674316e+00 -4.307116866111755371e-01
5.810000000000000000e+02 7.933018493652343750e+01 2.929292297363281250e+01 5.596356932073831558e-03 5.049674510955810547e+00 1.516581177711486816e+00 -8.026441186666488647e-02
5.820000000000000000e+02 6.788360595703125000e+01 3.793254852294921875e+01 5.186144709587097168e-01 6.867161750793457031e+00 2.215732812881469727e+00 -3.301240205764770508e-01
5.830000000000000000e+02 7.939088439941406250e+01 3.201455307006835938e+01 1.071546878665685654e-02 4.756438255310058594e+00 1.430146217346191406e+00 -5.622871220111846924e-02
5.840000000000000000e+02 7.887634277343750000e+01 3.755304718017578125e+01 -8.280581794679164886e-03 4.491501331329345703e+00 1.344966292381286621e+00 -3.723536431789398193e-02
5.850000000000000000e+02 7.665840911865234375e+01 3.729705047607421875e+01 7.016018778085708618e-02 5.119049549102783203e+00 1.556762814521789551e+00 -1.071947291493415833e-01
5.860000000000000000e+02 3.658042526245117188e+01 3.627043914794921875e+01 -3.496340215206146240e-01 7.600384950637817383e-01 1.231213361024856567e-01 -3.321399688720703125e-01
5.870000000000000000e+02 3.554712677001953125e+01 3.669420623779296875e+01 -3.719823956489562988e-01 3.730099201202392578e-01 3.082524635829031467e-04 -2.426166832447052002e-02
5.880000000000000000e+02 3.268663787841796875e+01 3.866586303710937500e+01 3.545666933059692383e-01 4.447894692420959473e-01 2.398068457841873169e-01 7.046278119087219238e-01
5.890000000000000000e+02 3.200440597534179688e+01 3.720397186279296875e+01 -6.775316596031188965e-01 -2.339606881141662598e-01 -2.734476923942565918e-01 8.718546628952026367e-01
5.900000000000000000e+02 2.986137771606445312e+01 3.790299224853515625e+01 -2.679993510246276855e-01 -4.091008901596069336e-01 -2.031300663948059082e-01 5.328586697578430176e-01
5.910000000000000000e+02 2.668697357177734375e+01 3.816320037841796875e+01 -1.370572298765182495e-01 -1.968839764595031738e-01 -1.001823619008064270e-01 2.418631762266159058e-01
5.920000000000000000e+02 2.249561500549316406e+01 3.840787506103515625e+01 -1.807865500450134277e-02 -1.775837689638137817e-02 -1.075110957026481628e-02 3.907832503318786621e-02
5.930000000000000000e+02 2.223471641540527344e+01 3.933113861083984375e+01 -9.808375500142574310e-03 -6.355568021535873413e-02 -2.200921811163425446e-02 6.582629680633544922e-02
5.940000000000000000e+02 1.946657180786132812e+01 3.767056655883789062e+01 2.816823683679103851e-02 -7.752850186079740524e-03 6.124616134911775589e-03 6.737276271451264620e-05
5.950000000000000000e+02 1.912728905677795410e+00 2.622465133666992188e+01 1.814485760405659676e-03 -9.457054693484678864e-05 5.159745924174785614e-04 8.294275903608649969e-05
5.960000000000000000e+02 1.946891188621520996e+00 3.038222885131835938e+01 -1.787924673408269882e-03 -4.498790804063901305e-05 -5.498738028109073639e-04 -4.086095141246914864e-04
5.970000000000000000e+02 4.311135292053222656e+00 3.776654052734375000e+01 -5.509120528586208820e-04 6.020773435011506081e-04 1.534959483251441270e-05 7.311674999073147774e-04
5.980000000000000000e+02 1.997359156608581543e+00 4.163410568237304688e+01 1.338162808679044247e-03 -2.474281645845621824e-04 3.272203903179615736e-04 4.191510088276118040e-04
5.990000000000000000e+02 1.382439994812011719e+01 3.809391784667968750e+01 7.105840370059013367e-03 -6.882949382998049259e-04 1.925263553857803345e-03 -2.977297874167561531e-03
6.000000000000000000e+02 1.299544811248779297e+01 3.398341369628906250e+01 -1.925236312672495842e-03 -2.537316177040338516e-03 -1.338765723630785942e-03 1.124148955568671227e-03
6.010000000000000000e+02 1.462001609802246094e+01 2.294251060485839844e+01 2.779596252366900444e-03 3.702284084283746779e-05 8.449857123196125031e-04 2.956671960419043899e-05
6.020000000000000000e+02 1.442718887329101562e+01 1.740891456604003906e+01 1.691485056653618813e-03 -4.876379898632876575e-05 4.928163834847509861e-04 -3.799375917878933251e-05
6.030000000000000000e+02 1.454938411712646484e+01 1.043904495239257812e+01 -1.086224452592432499e-03 -1.989057091122958809e-05 -3.318345115985721350e-04 -8.091427844192367047e-06
6.040000000000000000e+02 1.368164157867431641e+01 1.819469451904296875e+00 -1.360248861601576209e-04 -5.943089490756392479e-05 -5.863673504791222513e-05 -1.311628147959709167e-04
6.050000000000000000e+02 1.317469120025634766e+01 1.766687035560607910e+00 5.689478712156414986e-05 1.660383713897317648e-04 6.687994755338877439e-05 7.213291974039748311e-05
6.060000000000000000e+02 6.701912283897399902e-01 3.465213394165039062e+01 -1.619887189008295536e-03 -1.985270064324140549e-04 -5.455242935568094254e-04 3.315127105452120304e-04
6.070000000000000000e+02 6.318678259849548340e-01 2.763943290710449219e+01 1.754029071889817715e-03 -6.087657675379887223e-05 5.079457187093794346e-04 4.393526614876464009e-05
6.080000000000000000e+02 6.431418061256408691e-01 2.058216285705566406e+01 -1.488999463617801666e-03 3.339353497722186148e-06 -4.456980386748909950e-04 -3.872269007842987776e-05
6.090000000000000000e+02 1.884118795394897461e+00 1.632188415527343750e+01 -1.478459686040878296e-03 3.354988075443543494e-05 -4.334729455877095461e-04 -9.922760909830685705e-06
6.100000000000000000e+02 1.220480251312255859e+01 1.168345737457275391e+01 8.389317081309854984e-04 2.424576523480936885e-04 3.244168183300644159e-04 3.244241524953395128e-04
6.110000000000000000e+02 1.290731048583984375e+01 1.608359718322753906e+01 1.636186731047928333e-03 -4.140258897677995265e-05 4.784352495335042477e-04 1.790476380847394466e-05
6.120000000000000000e+02 1.196167755126953125e+01 1.904871177673339844e+01 -1.808000844903290272e-03 2.821138696162961423e-05 -5.339368362911045551e-04 -1.360608875984326005e-04
6.130000000000000000e+02 1.349116897583007812e+01 2.436386489868164062e+01 2.834888640791177750e-03 1.570863532833755016e-04 8.975925156846642494e-04 3.466607595328241587e-04
6.140000000000000000e+02 1.361530303955078125e+01 2.568838882446289062e+01 -3.114672843366861343e-03 -3.172109136357903481e-04 -1.029565115459263325e-03 -5.827502463944256306e-04
6.150000000000000000e+02 1.239470195770263672e+01 2.924649620056152344e+01 -2.877641003578901291e-03 5.600042641162872314e-05 -8.464921847917139530e-04 -1.186417532153427601e-03
6.160000000000000000e+02 6.251991391181945801e-01 1.491969108581542969e+01 -1.339448965154588223e-03 3.735110112756956369e-06 -4.007141396868973970e-04 2.613230026327073574e-05
6.170000000000000000e+02 1.707716345787048340e+00 9.218603134155273438e+00 9.948263177648186684e-04 -1.132110264734365046e-05 2.950515772681683302e-04 -1.270727516384795308e-04
6.180000000000000000e+02 8.910415649414062500e+00 2.620607137680053711e+00 -2.666582295205444098e-04 -1.229435583809390664e-04 -1.168805392808280885e-04 -3.767608723137527704e-05
6.190000000000000000e+02 9.650864601135253906e+00 1.866587162017822266e+00 -2.366708504268899560e-04 -7.005940278759226203e-05 -9.201907232636585832e-05 7.961298251757398248e-06
6.200000000000000000e+02 1.125697135925292969e+00 3.787474155426025391e+00 -1.874603622127324343e-04 2.219231100752949715e-04 1.033882563206134364e-05 -4.928435082547366619e-04
6.210000000000000000e+02 5.412157177925109863e-01 6.416231632232666016e+00 -7.264277664944529533e-04 -6.509943341370671988e-05 -2.374581672484055161e-04 1.856457129179034382e-05
6.220000000000000000e+02 3.695300340652465820e+00 3.709657430648803711e+00 -5.244097555987536907e-04 -1.071824008249677718e-04 -1.894776505650952458e-04 1.158089289674535394e-04
6.230000000000000000e+02 1.343374252319335938e+01 1.044685554504394531e+01 9.595741867087781429e-04 8.385763794649392366e-05 3.130295372102409601e-04 1.283913152292370796e-04
6.240000000000000000e+02 1.448292922973632812e+01 2.019401550292968750e+01 2.130787586793303490e-03 2.398965989414136857e-05 6.464332109317183495e-04 -1.117819265346042812e-04
6.250000000000000000e+02 1.533948516845703125e+01 3.118521881103515625e+01 5.860328208655118942e-03 -5.467908340506255627e-04 1.594061148352921009e-03 -3.250472364015877247e-04
6.260000000000000000e+02 1.522123622894287109e+01 2.977525138854980469e+01 -5.998268723487854004e-03 3.494619886623695493e-05 -1.788996742106974125e-03 -4.813731939066201448e-04
6.270000000000000000e+02 1.816039466857910156e+01 3.778874206542968750e+01 2.494289539754390717e-02 -2.022987045347690582e-02 1.413907622918486595e-03 1.698651933111250401e-03
6.280000000000000000e+02 1.845449256896972656e+01 3.857938385009765625e+01 2.182083204388618469e-03 1.373409613734111190e-04 6.958272424526512623e-04 -1.963185844942927361e-03
6.290000000000000000e+02 1.725881767272949219e+01 3.917164611816406250e+01 1.048653293401002884e-02 -3.106576856225728989e-03 2.213986823335289955e-03 -1.156252436339855194e-02
6.300000000000000000e+02 1.202146911621093750e+01 4.127016830444335938e+01 1.472838455811142921e-03 -2.409090375294908881e-04 3.695788327604532242e-04 2.980573102831840515e-03
6.310000000000000000e+02 1.980349159240722656e+01 3.776438522338867188e+01 2.276293188333511353e-02 -2.457014052197337151e-03 6.091775372624397278e-03 -6.254034815356135368e-04
6.320000000000000000e+02 2.088001823425292969e+01 3.818502807617187500e+01 2.485591219738125801e-03 -7.557475008070468903e-03 -1.521565136499702930e-03 4.933880176395177841e-03
6.330000000000000000e+02 2.669963264465332031e+01 2.420145797729492188e+01 4.473730325698852539e-01 7.865084409713745117e-01 3.701644539833068848e-01 4.757254719734191895e-01
6.340000000000000000e+02 2.669197273254394531e+01 2.559547424316406250e+01 4.715728759765625000e-01 5.941462516784667969e-01 3.197157382965087891e-01 3.125291764736175537e-01
6.350000000000000000e+02 4.276701354980468750e+01 2.944106864929199219e+01 1.221561670303344727e+00 1.324841308593750000e+01 4.340992450714111328e+00 3.740643560886383057e-01
6.360000000000000000e+02 4.776492309570312500e+01 2.825979232788085938e+01 1.376007676124572754e+00 1.049607276916503906e+01 3.561624288558959961e+00 -8.873103260993957520e-01
6.370000000000000000e+02 5.434374237060546875e+01 2.588458633422851562e+01 6.463738083839416504e-01 8.961560249328613281e+00 2.882380247116088867e+00 -1.147829174995422363e+00
6.380000000000000000e+02 6.402853393554687500e+01 2.567980384826660156e+01 3.295652866363525391e-01 7.643337726593017578e+00 2.391870975494384766e+00 -1.121484160423278809e+00
6.390000000000000000e+02 7.215457916259765625e+01 2.379947471618652344e+01 5.194592848420143127e-02 6.729185104370117188e+00 2.034339427947998047e+00 -8.012332320213317871e-01
6.400000000000000000e+02 7.182710266113281250e+01 3.089235496520996094e+01 2.073401212692260742e-01 6.392596244812011719e+00 1.979980945587158203e+00 -6.280446648597717285e-01
6.410000000000000000e+02 5.416105651855468750e+01 3.056768608093261719e+01 1.482057809829711914e+00 9.062066078186035156e+00 3.163237094879150391e+00 -8.143178224563598633e-01
6.420000000000000000e+02 4.698962783813476562e+01 3.303822326660156250e+01 3.546462774276733398e+00 1.094721221923828125e+01 4.348102569580078125e+00 2.413532584905624390e-01
6.430000000000000000e+02 3.282414627075195312e+01 1.621326828002929688e+01 -1.028986871242523193e-01 4.062480926513671875e+00 1.187874794006347656e+00 1.462422490119934082e+00
6.440000000000000000e+02 4.039881515502929688e+01 1.614403152465820312e+01 -7.011820077896118164e-01 6.965787410736083984e+00 1.879381656646728516e+00 1.161945104598999023e+00
6.450000000000000000e+02 4.886589813232421875e+01 2.050561714172363281e+01 -4.849583208560943604e-01 9.158360481262207031e+00 2.602020502090454102e+00 -4.578884243965148926e-01
6.460000000000000000e+02 5.878678131103515625e+01 2.086412048339843750e+01 -1.113186031579971313e-02 8.315772056579589844e+00 2.491392135620117188e+00 -1.214750289916992188e+00
6.470000000000000000e+02 6.702037048339843750e+01 1.866577148437500000e+01 -4.633588716387748718e-02 7.553331851959228516e+00 2.252098798751831055e+00 -1.111117243766784668e+00
6.480000000000000000e+02 7.293619537353515625e+01 1.869900131225585938e+01 -6.938547827303409576e-03 7.031321048736572266e+00 2.107314825057983398e+00 -7.952415943145751953e-01
6.490000000000000000e+02 2.716211128234863281e+01 1.599493789672851562e+01 3.376067802309989929e-02 2.050349473953247070e+00 6.252330541610717773e-01 9.563728570938110352e-01
6.500000000000000000e+02 2.753681182861328125e+01 8.680429458618164062e+00 -1.031052693724632263e-01 2.824638843536376953e+00 8.164600729942321777e-01 8.381184339523315430e-01
6.510000000000000000e+02 2.600532722473144531e+01 4.358789443969726562e+00 -4.404259845614433289e-02 2.760509967803955078e+00 8.149402141571044922e-01 5.891327857971191406e-01
6.520000000000000000e+02 2.594313240051269531e+01 2.992810010910034180e+00 -4.379432648420333862e-02 2.831932783126831055e+00 8.364415168762207031e-01 5.426554083824157715e-01
6.530000000000000000e+02 3.305677413940429688e+01 1.607612848281860352e+00 -3.186368644237518311e-01 4.318275451660156250e+00 1.199891686439514160e+00 7.006174921989440918e-01
6.540000000000000000e+02 3.541659164428710938e+01 5.692897319793701172e+00 -4.638826549053192139e-01 4.887717723846435547e+00 1.327150464057922363e+00 8.617056608200073242e-01
6.550000000000000000e+02 3.522975158691406250e+01 1.112565231323242188e+01 -4.435518085956573486e-01 4.957054138183593750e+00 1.354050755500793457e+00 1.179362177848815918e+00
6.560000000000000000e+02 2.622004508972167969e+01 1.012730884552001953e+01 -5.949604883790016174e-02 2.361070871353149414e+00 6.904724836349487305e-01 7.735962271690368652e-01
6.570000000000000000e+02 4.089692687988281250e+01 1.084732341766357422e+01 -7.688710093498229980e-01 6.487628459930419922e+00 1.715627312660217285e+00 8.140051960945129395e-01
6.580000000000000000e+02 3.974854660034179688e+01 1.199250411987304688e+01 -7.143940329551696777e-01 6.330844879150390625e+00 1.684935331344604492e+00 9.781993031501770020e-01
6.590000000000000000e+02 4.600069808959960938e+01 8.109334945678710938e+00 -8.619647026062011719e-01 7.184820175170898438e+00 1.896856665611267090e+00 2.306858450174331665e-01
6.600000000000000000e+02 5.933583831787109375e+01 7.009573936462402344e+00 -5.446412563323974609e-01 7.862825393676757812e+00 2.195455312728881836e+00 -7.373281121253967285e-01
6.610000000000000000e+02 6.494393920898437500e+01 1.172304344177246094e+01 -2.908765375614166260e-01 7.833968162536621094e+00 2.262927532196044922e+00 -9.927195906639099121e-01
6.620000000000000000e+02 7.299594879150390625e+01 1.178129100799560547e+01 -7.563508301973342896e-02 7.531758308410644531e+00 2.236836910247802734e+00 -6.945652365684509277e-01
6.630000000000000000e+02 2.105182838439941406e+01 1.839251327514648438e+01 3.962686751037836075e-03 -3.595892488956451416e-01 -1.066879704594612122e-01 9.970529377460479736e-02
6.640000000000000000e+02 2.105703544616699219e+01 1.698597717285156250e+01 2.687515690922737122e-03 -1.250987648963928223e-01 -3.672337532043457031e-02 1.077829673886299133e-01
6.650000000000000000e+02 2.107451248168945312e+01 9.947328567504882812e+00 -2.521322574466466904e-03 1.121315956115722656e+00 3.356383740901947021e-01 1.076705753803253174e-01
6.660000000000000000e+02 2.101867103576660156e+01 4.300037860870361328e+00 3.731046244502067566e-02 2.078922748565673828e+00 6.348699331283569336e-01 1.702776104211807251e-01
6.670000000000000000e+02 2.105954742431640625e+01 5.715004444122314453e+00 1.522669661790132523e-02 1.862197041511535645e+00 5.632271170616149902e-01 1.195584237575531006e-01
6.680000000000000000e+02 5.807566452026367188e+01 5.876618385314941406e+00 -5.934714674949645996e-01 7.802504062652587891e+00 2.162709712982177734e+00 -6.460667848587036133e-01
6.690000000000000000e+02 6.567533111572265625e+01 2.094346761703491211e+00 -3.040015101432800293e-01 7.883711338043212891e+00 2.273912906646728516e+00 -6.590024232864379883e-01
6.700000000000000000e+02 7.265019226074218750e+01 4.418704986572265625e+00 -1.029207929968833923e-01 7.964529991149902344e+00 2.358482837677001953e+00 -5.452101230621337891e-01
6.710000000000000000e+02 2.107016372680664062e+01 1.276436614990234375e+01 -1.724716508761048317e-03 6.275714039802551270e-01 1.877540200948715210e-01 1.125870943069458008e-01
6.720000000000000000e+02 4.200066757202148438e+01 6.524682998657226562e+00 -7.532185316085815430e-01 6.362108707427978516e+00 1.682667016983032227e+00 5.566700100898742676e-01
6.730000000000000000e+02 6.143247985839843750e+01 -5.242809772491455078e+00 -3.608974516391754150e-01 7.644528388977050781e+00 2.185089349746704102e+00 -4.106981754302978516e-01
6.740000000000000000e+02 6.117771530151367188e+01 -3.311123132705688477e+00 -3.869855701923370361e-01 7.663978576660156250e+00 2.183097839355468750e+00 -4.573499560356140137e-01
6.750000000000000000e+02 6.470447540283203125e+01 -1.705205678939819336e+00 -3.064118325710296631e-01 7.848111152648925781e+00 2.262509822845458984e+00 -5.382019281387329102e-01
6.760000000000000000e+02 6.765986633300781250e+01 -1.297348260879516602e+00 -2.263422161340713501e-01 7.978621959686279297e+00 2.325683832168579102e+00 -5.340058803558349609e-01
6.770000000000000000e+02 2.915416717529296875e+01 -2.719038009643554688e+00 -1.468953192234039307e-01 3.637166500091552734e+00 1.047081351280212402e+00 4.954365193843841553e-01
6.780000000000000000e+02 2.741887664794921875e+01 -8.138019561767578125e+00 -7.786954194307327271e-02 3.480531215667724609e+00 1.020798563957214355e+00 3.351482748985290527e-01
6.790000000000000000e+02 3.417094039916992188e+01 -1.558674335479736328e+01 -1.595646440982818604e-01 4.443176746368408203e+00 1.285083651542663574e+00 2.193709462881088257e-01
6.800000000000000000e+02 4.199355697631835938e+01 -2.104859161376953125e+01 -2.023525834083557129e-01 5.396827697753906250e+00 1.558342576026916504e+00 7.494381815195083618e-02
6.810000000000000000e+02 5.221305465698242188e+01 -2.907792663574218750e+01 -1.491413265466690063e-01 6.484802246093750000e+00 1.900698184967041016e+00 -3.669372200965881348e-02
6.820000000000000000e+02 3.576921463012695312e+01 -5.373200178146362305e-01 -4.017753005027770996e-01 4.827147960662841797e+00 1.327611684799194336e+00 5.938085317611694336e-01
6.830000000000000000e+02 3.315663146972656250e+01 -1.184438514709472656e+01 -1.705767214298248291e-01 4.315257072448730469e+00 1.243404150009155273e+00 2.760524451732635498e-01
6.840000000000000000e+02 4.306612777709960938e+01 -1.696853446960449219e+01 -2.604725956916809082e-01 5.588510990142822266e+00 1.598411440849304199e+00 1.026271283626556396e-01
6.850000000000000000e+02 4.830455017089843750e+01 -2.139139556884765625e+01 -2.230907827615737915e-01 6.116736888885498047e+00 1.768093824386596680e+00 2.435452304780483246e-03
6.860000000000000000e+02 4.277507781982421875e+01 -7.206243038177490234e+00 -4.456464350223541260e-01 5.773878097534179688e+00 1.598469495773315430e+00 2.184069901704788208e-01
6.870000000000000000e+02 5.770764923095703125e+01 -1.473955345153808594e+01 -2.701863348484039307e-01 7.211392879486083984e+00 2.082361936569213867e+00 -1.845972985029220581e-01
6.880000000000000000e+02 6.641437530517578125e+01 -1.159639358520507812e+01 -1.680927574634552002e-01 7.975475311279296875e+00 2.342214822769165039e+00 -2.908459305763244629e-01
6.890000000000000000e+02 6.433039093017578125e+01 -8.612722396850585938e+00 -2.453312873840332031e-01 7.808990955352783203e+00 2.269097805023193359e+00 -3.530175387859344482e-01
6.900000000000000000e+02 7.192675018310546875e+01 -1.114404487609863281e+01 -6.683211773633956909e-02 8.433532714843750000e+00 2.510010242462158203e+00 -2.358990907669067383e-01
6.910000000000000000e+02 2.874886703491210938e+01 -1.204443740844726562e+01 -7.914224267005920410e-02 3.715504407882690430e+00 1.090908646583557129e+00 2.669790685176849365e-01
6.920000000000000000e+02 2.771913528442382812e+01 -1.625549316406250000e+01 -5.814231187105178833e-02 3.595652103424072266e+00 1.061252951622009277e+00 1.805236935615539551e-01
6.930000000000000000e+02 3.777156448364257812e+01 -2.119200134277343750e+01 -1.483976691961288452e-01 4.833949089050292969e+00 1.405665397644042969e+00 1.062714010477066040e-01
6.940000000000000000e+02 4.640918731689453125e+01 -3.396757888793945312e+01 -1.197718977928161621e-01 5.816777706146240234e+00 1.709101676940917969e+00 -1.113073900341987610e-02
6.950000000000000000e+02 3.608895874023437500e+01 -9.508054733276367188e+00 -2.674888074398040771e-01 4.759294509887695312e+00 1.347541689872741699e+00 3.187845349311828613e-01
6.960000000000000000e+02 4.181338882446289062e+01 -8.781564712524414062e+00 -3.987967371940612793e-01 5.594585418701171875e+00 1.558736562728881836e+00 2.283238768577575684e-01
6.970000000000000000e+02 5.044238281250000000e+01 -1.070763111114501953e+01 -4.080512225627899170e-01 6.580081939697265625e+00 1.851609230041503906e+00 -5.648866295814514160e-02
6.980000000000000000e+02 7.254386138916015625e+01 -1.933417510986328125e+01 -4.008117318153381348e-02 8.605337142944335938e+00 2.569576740264892578e+00 -1.237547993659973145e-01
6.990000000000000000e+02 7.120311737060546875e+01 -1.762186050415039062e+01 -5.463832244277000427e-02 8.459901809692382812e+00 2.521579027175903320e+00 -1.581347882747650146e-01
7.000000000000000000e+02 2.008620643615722656e+01 -1.536306953430175781e+01 3.019673749804496765e-02 2.819009542465209961e+00 8.547618985176086426e-01 2.297738343477249146e-01
7.010000000000000000e+02 3.578791427612304688e+01 -1.854225921630859375e+01 -1.559010595083236694e-01 4.625486850738525391e+00 1.340875744819641113e+00 1.584307551383972168e-01
7.020000000000000000e+02 4.135252380371093750e+01 -1.727199172973632812e+01 -2.399276047945022583e-01 5.362524509429931641e+00 1.536779046058654785e+00 1.202583685517311096e-01
7.030000000000000000e+02 4.992591476440429688e+01 -2.016738128662109375e+01 -2.350423187017440796e-01 6.300077915191650391e+00 1.819510698318481445e+00 -3.118583746254444122e-02
7.040000000000000000e+02 2.852274894714355469e+01 -2.753459167480468750e+01 -1.552292518317699432e-02 3.736325979232788086e+00 1.116240978240966797e+00 1.019137129187583923e-01
7.050000000000000000e+02 3.309494781494140625e+01 -2.010106086730957031e+01 -1.114176735281944275e-01 4.310297012329101562e+00 1.259663701057434082e+00 1.506306082010269165e-01
7.060000000000000000e+02 4.418928527832031250e+01 -2.307164382934570312e+01 -1.835631728172302246e-01 5.641264438629150391e+00 1.637310385704040527e+00 3.841450437903404236e-02
7.070000000000000000e+02 4.732172393798828125e+01 -2.464795684814453125e+01 -1.755755692720413208e-01 5.973306179046630859e+00 1.739319205284118652e+00 5.159281659871339798e-03
7.080000000000000000e+02 6.696836090087890625e+01 -2.633231544494628906e+01 -6.206973642110824585e-02 8.071626663208007812e+00 2.402867317199707031e+00 -9.146094322204589844e-02
7.090000000000000000e+02 4.066262054443359375e+01 -2.973251914978027344e+01 -1.151331067085266113e-01 5.189067840576171875e+00 1.522180438041687012e+00 2.152694202959537506e-02
7.100000000000000000e+02 4.223145294189453125e+01 -3.377357482910156250e+01 -1.145344376564025879e-01 5.321475982666015625e+00 1.562082409858703613e+00 9.707172401249408722e-03
7.110000000000000000e+02 6.689303588867187500e+01 -3.239654922485351562e+01 -5.031436681747436523e-02 8.035490989685058594e+00 2.395552873611450195e+00 -4.608680680394172668e-02
7.120000000000000000e+02 7.336308288574218750e+01 -3.256489181518554688e+01 -1.595967449247837067e-02 8.810208320617675781e+00 2.638274669647216797e+00 -3.792218863964080811e-02
7.130000000000000000e+02 1.019042778015136719e+01 -3.075627517700195312e+01 -7.709253113716840744e-03 -3.231856273487210274e-03 -3.282332792878150940e-03 2.913688076660037041e-03
7.140000000000000000e+02 1.440511608123779297e+01 -1.764950752258300781e+01 3.048791782930493355e-03 3.139828622806817293e-04 1.008832477964460850e-03 -6.703805993311107159e-04
7.150000000000000000e+02 1.169034194946289062e+01 -1.700753211975097656e+01 1.875739195384085178e-03 6.772495689801871777e-04 7.658966351300477982e-04 -6.966622895561158657e-04
7.160000000000000000e+02 1.457469844818115234e+01 -1.070259571075439453e+01 -2.042336156591773033e-03 -5.444200360216200352e-05 -6.290334276854991913e-04 1.852764689829200506e-04
7.170000000000000000e+02 1.240980434417724609e+01 -1.051729106903076172e+01 -1.597424154169857502e-03 -1.764930348144844174e-04 -5.321751232258975506e-04 3.085714124608784914e-04
7.180000000000000000e+02 5.864351391792297363e-01 -1.066071605682373047e+01 -1.157874125055968761e-03 -2.662364568095654249e-05 -3.553493297658860683e-04 -4.700947829405777156e-05
7.190000000000000000e+02 1.350187301635742188e+01 9.118888854980468750e+00 -8.510551415383815765e-04 -7.456294406438246369e-05 -2.776854380499571562e-04 -6.934073462616652250e-05
7.200000000000000000e+02 2.549568176269531250e+01 3.445068740844726562e+01 -3.340867161750793457e-01 3.220508992671966553e-02 -9.056448936462402344e-02 -2.213398516178131104e-01
7.210000000000000000e+02 2.380967903137207031e+01 3.445124053955078125e+01 -1.778457909822463989e-01 -2.465113624930381775e-02 -6.074907630681991577e-02 -1.935193538665771484e-01
7.220000000000000000e+02 2.097612190246582031e+01 2.961875534057617188e+01 4.701746162027120590e-03 -6.927927136421203613e-01 -2.064272910356521606e-01 -6.761309504508972168e-02
7.230000000000000000e+02 2.098870086669921875e+01 2.822564125061035156e+01 9.056051261723041534e-03 -8.515826463699340820e-01 -2.527579963207244873e-01 -5.040493234992027283e-02
7.240000000000000000e+02 2.220571517944335938e+01 2.408356475830078125e+01 5.297793820500373840e-02 -5.213416218757629395e-01 -1.405091136693954468e-01 7.256812602281570435e-02
7.250000000000000000e+02 2.102611541748046875e+01 2.401992797851562500e+01 1.105016376823186874e-02 -9.757249355316162109e-01 -2.894024252891540527e-01 2.560849487781524658e-02
7.260000000000000000e+02 2.104073905944824219e+01 2.120573234558105469e+01 7.957457564771175385e-03 -7.532632350921630859e-01 -2.235917448997497559e-01 7.186740636825561523e-02
7.270000000000000000e+02 2.231094741821289062e+01 1.563797473907470703e+01 5.133535712957382202e-03 5.261398553848266602e-01 1.593820303678512573e-01 3.196000158786773682e-01
7.280000000000000000e+02 2.106175422668457031e+01 1.557896804809570312e+01 2.897968515753746033e-04 1.219202578067779541e-01 3.666301444172859192e-02 1.115967780351638794e-01
7.290000000000000000e+02 2.106619834899902344e+01 1.417177391052246094e+01 7.158681983128190041e-04 3.746429681777954102e-01 1.126076579093933105e-01 1.132958307862281799e-01
7.300000000000000000e+02 2.234814453125000000e+01 1.140620708465576172e+01 -7.515541743487119675e-03 1.197518587112426758e+00 3.570009171962738037e-01 3.195654451847076416e-01
7.310000000000000000e+02 2.107342529296875000e+01 8.537789344787597656e+00 3.006076731253415346e-04 1.360526204109191895e+00 4.082480370998382568e-01 1.057191118597984314e-01
7.320000000000000000e+02 2.106841468811035156e+01 7.127629756927490234e+00 -2.343764994293451309e-03 1.596214532852172852e+00 4.781612157821655273e-01 1.037274003028869629e-01
7.330000000000000000e+02 2.226368713378906250e+01 4.303963184356689453e+00 5.579279735684394836e-02 2.129554986953735352e+00 6.556043028831481934e-01 2.889268696308135986e-01
7.340000000000000000e+02 2.092454147338867188e+01 2.889345407485961914e+00 3.475150838494300842e-02 2.138882160186767578e+00 6.520900726318359375e-01 2.161372900009155273e-01
7.350000000000000000e+02 2.080230140686035156e+01 1.488523244857788086e+00 2.791538368910551071e-03 2.100320816040039062e+00 6.309337019920349121e-01 2.077459096908569336e-01
7.360000000000000000e+02 2.070685005187988281e+01 9.257812798023223877e-02 -2.176718600094318390e-02 2.139397382736206055e+00 6.352890729904174805e-01 1.576477736234664917e-01
7.370000000000000000e+02 2.048575401306152344e+01 -4.117241382598876953e+00 -1.029053796082735062e-02 2.356488943099975586e+00 7.038595676422119141e-01 1.760693490505218506e-01
7.380000000000000000e+02 2.194479560852050781e+01 -2.718349218368530273e+00 2.039835788309574127e-02 2.508819580078125000e+00 7.587653994560241699e-01 2.064572572708129883e-01
7.390000000000000000e+02 2.035185241699218750e+01 -8.323935508728027344e+00 3.486432135105133057e-03 2.635166406631469727e+00 7.915958166122436523e-01 6.771212071180343628e-02
7.400000000000000000e+02 2.023499488830566406e+01 -1.254584789276123047e+01 2.469874918460845947e-03 2.834367036819458008e+00 8.510510325431823730e-01 1.103152707219123840e-01
7.410000000000000000e+02 2.027739334106445312e+01 -1.113938331604003906e+01 -3.296569630037993193e-04 2.756399869918823242e+00 8.268210291862487793e-01 1.145403310656547546e-01
7.420000000000000000e+02 2.158828926086425781e+01 -1.255502700805664062e+01 3.599853441119194031e-02 2.933219671249389648e+00 8.907654881477355957e-01 1.908559501171112061e-01
7.430000000000000000e+02 1.981489181518554688e+01 -1.957433509826660156e+01 -2.625564485788345337e-02 2.563178300857543945e+00 7.610768079757690430e-01 9.901410341262817383e-02
7.440000000000000000e+02 2.139596748352050781e+01 -1.821139144897460938e+01 -5.413290858268737793e-02 2.866456508636474609e+00 8.436971306800842285e-01 1.370588093996047974e-01
7.450000000000000000e+02 1.976659393310546875e+01 -2.239561080932617188e+01 8.778334595263004303e-03 2.690376996994018555e+00 8.097466230392456055e-01 8.933448791503906250e-02
7.460000000000000000e+02 1.969086265563964844e+01 -2.660848045349121094e+01 -1.243756804615259171e-02 2.753778696060180664e+00 8.224022984504699707e-01 2.714324183762073517e-02
7.470000000000000000e+02 1.970008087158203125e+01 -2.520489692687988281e+01 9.628107654862105846e-04 2.695628166198730469e+00 8.089773058891296387e-01 3.657659888267517090e-02
7.480000000000000000e+02 1.966707992553710938e+01 -2.941083145141601562e+01 -1.567211560904979706e-02 2.856535673141479492e+00 8.522590398788452148e-01 2.567286789417266846e-02
7.490000000000000000e+02 1.967108154296875000e+01 -3.221275711059570312e+01 -2.935394831001758575e-02 2.996815443038940430e+00 8.902384042739868164e-01 4.291931167244911194e-02
7.500000000000000000e+02 2.116452026367187500e+01 -3.222026062011718750e+01 8.016827702522277832e-02 3.107242822647094727e+00 9.562233686447143555e-01 1.553369760513305664e-01
7.510000000000000000e+02 1.434187412261962891e+01 -3.169914436340332031e+01 6.046083755791187286e-03 9.293702896684408188e-04 2.092636190354824066e-03 -8.493331843055784702e-04
7.520000000000000000e+02 1.448991107940673828e+01 -2.758106803894042969e+01 -5.244046915322542191e-03 1.148063689470291138e-03 -1.228795037604868412e-03 1.947819691849872470e-05
7.530000000000000000e+02 1.323199081420898438e+01 -2.748923110961914062e+01 4.280287772417068481e-03 8.462124969810247421e-04 1.537950127385556698e-03 -3.540119359968230128e-05
7.540000000000000000e+02 1.314088153839111328e+01 -2.362639427185058594e+01 -4.387381952255964279e-03 -1.083794704754836857e-04 -1.348728546872735023e-03 -1.497565419413149357e-03
7.550000000000000000e+02 1.442093181610107422e+01 -2.344408226013183594e+01 5.157141946256160736e-03 4.807166405953466892e-04 1.691357581876218319e-03 1.865778031060472131e-04
7.560000000000000000e+02 1.420070075988769531e+01 -2.050735664367675781e+01 3.927672747522592545e-03 1.412148994859308004e-04 1.220666221342980862e-03 -6.100416649132966995e-04
7.570000000000000000e+02 1.302337551116943359e+01 -1.735896110534667969e+01 -2.349807182326912880e-03 -4.156281065661460161e-04 -8.296305895783007145e-04 7.315617403946816921e-04
7.580000000000000000e+02 1.445602893829345703e+01 -1.625698661804199219e+01 -2.757884562015533447e-03 -7.837195153115317225e-05 -8.508769678883254528e-04 4.987755673937499523e-04
7.590000000000000000e+02 1.459531116485595703e+01 -9.317247390747070312e+00 1.862513367086648941e-03 4.923432788928039372e-05 5.735243321396410465e-04 -1.224739244207739830e-04
7.600000000000000000e+02 1.254176044464111328e+01 -1.926367163658142090e+00 -2.785361721180379391e-04 -5.232938201515935361e-05 -9.925966878654435277e-05 8.708865789230912924e-05
7.610000000000000000e+02 1.300595283508300781e+01 -2.833417892456054688e+00 -2.962903818115592003e-05 -2.063543943222612143e-04 -7.079503120621666312e-05 1.910767168737947941e-04
7.620000000000000000e+02 1.428537654876708984e+01 -2.024761915206909180e+00 4.574209742713719606e-04 2.739861520240083337e-05 1.454458688385784626e-04 3.848806954920291901e-04
7.630000000000000000e+02 1.373575210571289062e+01 -2.034455537796020508e+00 -6.835115491412580013e-04 4.064242602908052504e-05 -1.928607234731316566e-04 1.239088596776127815e-04
7.640000000000000000e+02 1.317545127868652344e+01 -1.981879711151123047e+00 2.095670643029734492e-04 1.863065408542752266e-04 1.187620800919830799e-04 -2.321798820048570633e-04
7.650000000000000000e+02 1.182115840911865234e+01 -1.904882788658142090e+00 4.414327268023043871e-04 3.062153837163350545e-06 1.333484688075259328e-04 -1.596217189216986299e-04
7.660000000000000000e+02 9.589246749877929688e+00 -1.879293203353881836e+00 -2.728886029217392206e-04 -2.385526895523071289e-04 -1.534323819214478135e-04 1.742099120747298002e-04
7.670000000000000000e+02 1.034475040435791016e+01 -1.886301040649414062e+00 3.140391490887850523e-04 1.959758519660681486e-04 1.530044974060729146e-04 -2.530624333303421736e-04
7.680000000000000000e+02 8.824006080627441406e+00 -1.875681757926940918e+00 2.733857836574316025e-04 2.576678525656461716e-04 1.593160995980724692e-04 -1.063583185896277428e-04
7.690000000000000000e+02 7.297450065612792969e+00 -1.869265675544738770e+00 3.169623087160289288e-04 2.507916942704468966e-04 1.703261950751766562e-04 -6.970645358705951367e-07
7.700000000000000000e+02 5.780066013336181641e+00 -1.865140199661254883e+00 2.310277486685663462e-04 2.675962168723344803e-04 1.495871983934193850e-04 5.843537292093969882e-05
7.710000000000000000e+02 3.512508392333984375e+00 -1.935121536254882812e+00 -1.534748589619994164e-04 -7.635218207724392414e-05 -6.894810940138995647e-05 -1.061706498148851097e-04
7.720000000000000000e+02 5.023890495300292969e+00 -1.871580600738525391e+00 -1.353752304567024112e-04 -2.595565747469663620e-04 -1.184795401059091091e-04 -5.844543193234130740e-05
7.730000000000000000e+02 4.371275901794433594e+00 -2.666558742523193359e+00 -1.941641676239669323e-04 -2.346726978430524468e-04 -1.286510669160634279e-04 -1.627279416425153613e-04
7.740000000000000000e+02 2.751726865768432617e+00 -2.006530284881591797e+00 1.164353961939923465e-04 1.276642869925126433e-04 7.322990131797268987e-05 9.327748557552695274e-05
7.750000000000000000e+02 1.984585642814636230e+00 -2.101622819900512695e+00 -2.513853542041033506e-04 -1.305465266341343522e-04 -1.145795613410882652e-04 -1.270864449907094240e-04
7.760000000000000000e+02 1.205195665359497070e+00 -2.176213502883911133e+00 6.203334778547286987e-04 3.446604750934056938e-05 1.964398543350398540e-04 7.862751954235136509e-05
7.770000000000000000e+02 2.048720359802246094e+00 -4.164775085449218750e+01 -1.552163157612085342e-03 -1.687785424292087555e-02 -5.529005080461502075e-03 5.241026519797742367e-04
7.780000000000000000e+02 5.160262584686279297e+00 -3.766215515136718750e+01 5.731001496315002441e-03 -6.949618458747863770e-03 -3.655850305221974850e-04 -9.167404845356941223e-03
7.790000000000000000e+02 1.011715531349182129e+00 -3.872090911865234375e+01 -8.039536885917186737e-03 -1.514823734760284424e-02 -6.956331897526979446e-03 -3.585505997762084007e-03
7.800000000000000000e+02 7.382700443267822266e-01 -3.460920333862304688e+01 5.206949077546596527e-03 -5.656736437231302261e-03 -1.349360827589407563e-04 -3.969985700678080320e-04
7.810000000000000000e+02 7.100042104721069336e-01 -3.321140670776367188e+01 -5.008797626942396164e-03 -3.569135675206780434e-03 -2.573380013927817345e-03 -1.863868092186748981e-03
7.820000000000000000e+02 6.586526632308959961e-01 -2.899925041198730469e+01 3.583675948902964592e-03 5.309685948304831982e-04 1.234393334016203880e-03 2.168129576602950692e-04
7.830000000000000000e+02 6.540639996528625488e-01 -2.759000587463378906e+01 -3.476172219961881638e-03 7.332867826335132122e-04 -8.228655788116157055e-04 -4.236565146129578352e-04
7.840000000000000000e+02 6.564151644706726074e-01 -2.617878532409667969e+01 3.154340432956814766e-03 8.246242068707942963e-04 1.193689415231347084e-03 3.788469184655696154e-04
7.850000000000000000e+02 6.630393862724304199e-01 -2.193662452697753906e+01 -2.364745130762457848e-03 3.602738725021481514e-04 -6.013413658365607262e-04 -1.943308161571621895e-04
7.860000000000000000e+02 6.524019837379455566e-01 -2.052369499206542969e+01 2.206532750278711319e-03 3.257199714425951242e-04 7.596758077852427959e-04 2.610795490909367800e-04
7.870000000000000000e+02 1.954323887825012207e+00 -2.039397430419921875e+01 -2.413762966170907021e-03 7.413481216644868255e-05 -7.018884643912315369e-04 -1.323172618867829442e-04
7.880000000000000000e+02 6.242157816886901855e-01 -1.629341697692871094e+01 -1.788184163160622120e-03 4.652086136047728360e-05 -5.224989727139472961e-04 -1.696456456556916237e-04
7.890000000000000000e+02 6.197267770767211914e-01 -1.488610267639160156e+01 1.600781804881989956e-03 7.192856719484552741e-05 5.018131341785192490e-04 1.754961704136803746e-04
7.900000000000000000e+02 6.138804554939270020e-01 -1.347758769989013672e+01 -1.410516793839633465e-03 -1.639326546865049750e-05 -4.280730208847671747e-04 -1.223088620463386178e-04
7.910000000000000000e+02 1.843557238578796387e+00 -1.339315223693847656e+01 1.504177460446953773e-03 1.291879161726683378e-04 4.900096100755035877e-04 2.324186643818393350e-04
7.920000000000000000e+02 5.636937022209167480e-01 -9.256098747253417969e+00 1.085932832211256027e-03 1.842000528995413333e-05 3.313058405183255672e-04 2.017123733821790665e-05
7.930000000000000000e+02 5.373915433883666992e-01 -7.854396343231201172e+00 -1.010024105198681355e-03 -6.219897841219790280e-06 -3.048732178285717964e-04 -8.427881766692735255e-06
7.940000000000000000e+02 5.150192975997924805e-01 -6.449943542480468750e+00 9.059145813807845116e-04 1.154808842329657637e-06 2.721208147704601288e-04 8.967530447989702225e-06
7.950000000000000000e+02 7.466413116455078125e+01 -4.021062850952148438e+01 1.659492589533329010e-02 9.000796318054199219e+00 2.705217361450195312e+00 -3.336826711893081665e-02
7.960000000000000000e+02 3.247066497802734375e+01 -4.112955474853515625e+01 -1.189381331205368042e-01 4.189542293548583984e+00 1.221181273460388184e+00 3.803882282227277756e-03
7.970000000000000000e+02 1.159416866302490234e+01 -3.949054718017578125e+01 1.200646441429853439e-02 2.212120033800601959e-02 1.023829914629459381e-02 -5.846039578318595886e-02
7.980000000000000000e+02 7.594515228271484375e+01 4.063106155395507812e+01 5.256536602973937988e-02 4.991151332855224609e+00 1.513114929199218750e+00 -1.619691252708435059e-01
7.990000000000000000e+02 7.808364105224609375e+01 4.176680755615234375e+01 -1.232886016368865967e-01 4.625313758850097656e+00 1.350607633590698242e+00 3.435727581381797791e-02
8.000000000000000000e+02 7.873825073242187500e+01 3.897403335571289062e+01 1.088386774063110352e-01 4.490629673004150391e+00 1.379840493202209473e+00 2.792107313871383667e-02
8.010000000000000000e+02 7.703664398193359375e+01 3.581671905517578125e+01 1.646416634321212769e-02 5.052402496337890625e+00 1.520660042762756348e+00 -1.512113660573959351e-01
8.020000000000000000e+02 7.918120574951171875e+01 3.474274063110351562e+01 4.880333319306373596e-03 4.585576534271240234e+00 1.377137064933776855e+00 -3.915529325604438782e-02
8.030000000000000000e+02 7.791972351074218750e+01 3.311977767944335938e+01 3.506055474281311035e-02 4.981636047363281250e+00 1.505008935928344727e+00 -1.575837433338165283e-01
8.040000000000000000e+02 7.930565643310546875e+01 3.337102508544921875e+01 6.731465109623968601e-04 4.656331062316894531e+00 1.397101283073425293e+00 -4.476305469870567322e-02
8.050000000000000000e+02 7.938298797607421875e+01 3.066300010681152344e+01 2.249584300443530083e-03 4.898931503295898438e+00 1.470354318618774414e+00 -7.198112457990646362e-02
8.060000000000000000e+02 7.657717132568359375e+01 2.789155197143554688e+01 3.912457451224327087e-02 5.740684986114501953e+00 1.733942866325378418e+00 -3.952224850654602051e-01
8.070000000000000000e+02 7.932564544677734375e+01 2.648923683166503906e+01 2.337866462767124176e-03 5.389451503753662109e+00 1.617536783218383789e+00 -9.681314975023269653e-02
8.080000000000000000e+02 7.672015380859375000e+01 2.504986000061035156e+01 1.953975856304168701e-02 6.016592502593994141e+00 1.810839653015136719e+00 -4.174181520938873291e-01
8.090000000000000000e+02 7.933745574951171875e+01 2.509134292602539062e+01 6.354430661303922534e-05 5.578246116638183594e+00 1.673492908477783203e+00 -9.906462579965591431e-02
8.100000000000000000e+02 7.936351776123046875e+01 2.093334579467773438e+01 -3.553752903826534748e-04 6.169407844543457031e+00 1.850715756416320801e+00 -1.001081839203834534e-01
8.110000000000000000e+02 7.936672210693359375e+01 1.955054664611816406e+01 1.074941712431609631e-03 6.368201732635498047e+00 1.910782933235168457e+00 -1.006931737065315247e-01
8.120000000000000000e+02 7.936742401123046875e+01 1.816627311706542969e+01 -1.053759013302624226e-03 6.566055297851562500e+00 1.969500541687011719e+00 -1.001250892877578735e-01
8.130000000000000000e+02 7.935867309570312500e+01 1.401364040374755859e+01 -4.476181638892740011e-04 7.139491558074951172e+00 2.141713142395019531e+00 -9.687255322933197021e-02
8.140000000000000000e+02 7.935498809814453125e+01 1.262403488159179688e+01 -1.043802942149341106e-03 7.319919586181640625e+00 2.195662736892700195e+00 -9.475453943014144897e-02
8.150000000000000000e+02 7.935166931152343750e+01 1.123294258117675781e+01 -8.534727385267615318e-04 7.494005203247070312e+00 2.247945547103881836e+00 -9.243646264076232910e-02
8.160000000000000000e+02 7.934375000000000000e+01 7.053376674652099609e+00 -2.431782428175210953e-03 7.967689990997314453e+00 2.389577388763427734e+00 -8.186667412519454956e-02
8.170000000000000000e+02 7.934342193603515625e+01 5.658093929290771484e+00 -1.060546608641743660e-03 8.108562469482421875e+00 2.432250499725341797e+00 -7.808952778577804565e-02
8.180000000000000000e+02 7.934373474121093750e+01 4.262964248657226562e+00 -2.428342821076512337e-03 8.240862846374511719e+00 2.471530437469482422e+00 -7.387937605381011963e-02
8.190000000000000000e+02 7.934787750244140625e+01 7.602357864379882812e-02 -1.629569451324641705e-03 8.585669517517089844e+00 2.575211763381958008e+00 -6.109236553311347961e-02
8.200000000000000000e+02 7.934793090820312500e+01 -1.321386694908142090e+00 -1.933190273120999336e-03 8.683597564697265625e+00 2.604499340057373047e+00 -5.699332430958747864e-02
8.210000000000000000e+02 7.804743957519531250e+01 -4.004678726196289062e+00 -7.848889566957950592e-03 8.723560333251953125e+00 2.614713668823242188e+00 -1.199099868535995483e-01
8.220000000000000000e+02 7.934848785400390625e+01 -4.114554882049560547e+00 -1.759492326527833939e-03 8.855540275573730469e+00 2.656134128570556641e+00 -4.920507967472076416e-02
8.230000000000000000e+02 7.934875488281250000e+01 -8.295425415039062500e+00 -1.317757414653897285e-03 9.060023307800292969e+00 2.717611789703369141e+00 -3.898555040359497070e-02
8.240000000000000000e+02 7.804720306396484375e+01 -1.097328567504882812e+01 -5.741104017943143845e-03 9.016772270202636719e+00 2.703309297561645508e+00 -7.686156779527664185e-02
8.250000000000000000e+02 7.934701538085937500e+01 -1.108337783813476562e+01 -1.326204277575016022e-03 9.166263580322265625e+00 2.749481201171875000e+00 -3.321611508727073669e-02
8.260000000000000000e+02 7.934400177001953125e+01 -1.526388835906982422e+01 -7.335816044360399246e-04 9.289370536804199219e+00 2.786591053009033203e+00 -2.582059800624847412e-02
8.270000000000000000e+02 7.801999664306640625e+01 -1.794187355041503906e+01 -3.571104956790804863e-03 9.193944931030273438e+00 2.757112264633178711e+00 -4.859283939003944397e-02
8.280000000000000000e+02 7.933922576904296875e+01 -1.805254936218261719e+01 -6.551681435666978359e-04 9.351785659790039062e+00 2.805339097976684570e+00 -2.187588624656200409e-02
8.290000000000000000e+02 7.933262634277343750e+01 -2.362306022644042969e+01 -1.897162292152643204e-03 9.443253517150878906e+00 2.832406997680664062e+00 -1.484187878668308258e-02
8.300000000000000000e+02 7.800166320800781250e+01 -2.490254402160644531e+01 -3.483961336314678192e-03 9.296312332153320312e+00 2.787848472595214844e+00 -2.831977047026157379e-02
8.310000000000000000e+02 7.932998657226562500e+01 -2.501904678344726562e+01 4.865116789005696774e-04 9.459311485290527344e+00 2.837939262390136719e+00 -1.361864060163497925e-02
8.320000000000000000e+02 7.932064056396484375e+01 -2.918770408630371094e+01 4.545921110548079014e-04 9.502068519592285156e+00 2.850756883621215820e+00 -1.165290270000696182e-02
8.330000000000000000e+02 7.791631317138671875e+01 -3.179043197631835938e+01 -8.592567406594753265e-03 9.348294258117675781e+00 2.801910400390625000e+00 -1.523593533784151077e-02
8.340000000000000000e+02 7.931087493896484375e+01 -3.196100425720214844e+01 -2.137886360287666321e-03 9.519808769226074219e+00 2.855301141738891602e+00 -4.627631977200508118e-03
8.350000000000000000e+02 7.931056213378906250e+01 -3.606973266601562500e+01 4.616054240614175797e-03 9.497925758361816406e+00 2.850762605667114258e+00 4.155812785029411316e-03
8.360000000000000000e+02 7.918755340576171875e+01 -3.738409805297851562e+01 -1.364078558981418610e-02 9.468993186950683594e+00 2.836605787277221680e+00 1.787657849490642548e-02
8.370000000000000000e+02 7.892977905273437500e+01 -3.867802429199218750e+01 -2.076415985357016325e-04 9.432223320007324219e+00 2.829604625701904297e+00 2.417703159153461456e-02
8.380000000000000000e+02 7.854965209960937500e+01 -4.003870010375976562e+01 -7.984388619661331177e-03 9.397093772888183594e+00 2.816732883453369141e+00 3.127050772309303284e-02
8.390000000000000000e+02 4.793627738952636719e+00 4.047889328002929688e+01 -2.056579105556011200e-03 8.923661662265658379e-04 -3.492638934403657913e-04 9.807839524000883102e-04
8.400000000000000000e+02 2.744713211059570312e+01 3.806697082519531250e+01 -1.855039596557617188e-01 -1.404040455818176270e-01 -9.777239710092544556e-02 2.808018326759338379e-01
8.410000000000000000e+02 6.755375671386718750e+01 4.097550201416015625e+01 5.461474657058715820e-01 6.894366264343261719e+00 2.232154130935668945e+00 -1.098949089646339417e-01
8.420000000000000000e+02 6.781250834465026855e-01 3.017405748367309570e+00 3.410314093343913555e-04 -1.105319897760637105e-04 6.914982077432796359e-05 5.492949276231229305e-04
8.430000000000000000e+02 3.104815721511840820e+00 2.736266613006591797e+00 -3.786688612308353186e-04 -2.023398265009745955e-04 -1.743026077747344971e-04 5.475398666021646932e-06
8.440000000000000000e+02 5.272710800170898438e+00 2.688886880874633789e+00 2.342677325941622257e-04 1.962795067811384797e-04 1.291641674470156431e-04 -8.944241562858223915e-05
8.450000000000000000e+02 1.656272172927856445e+00 6.320600986480712891e+00 7.271143840625882149e-04 1.160437604994513094e-04 2.529474440962076187e-04 -1.219702462549321353e-04
8.460000000000000000e+02 5.737450718879699707e-01 9.254938125610351562e+00 -9.240985382348299026e-04 4.281250767235178500e-06 -2.759451745077967644e-04 7.534930045949295163e-05
8.470000000000000000e+02 6.034469604492187500e-01 1.208721923828125000e+01 -1.158539555035531521e-03 5.277792752167442814e-06 -3.459785366430878639e-04 5.056782902101986110e-05
8.480000000000000000e+02 1.802424788475036621e+00 1.205251693725585938e+01 1.192771247588098049e-03 -2.373062307015061378e-05 3.507121873553842306e-04 -1.017084796330891550e-04
8.490000000000000000e+02 6.288604736328125000e-01 1.633535003662109375e+01 1.411272678524255753e-03 -4.809289748664014041e-06 4.219390102662146091e-04 -1.258407337445532903e-05
8.500000000000000000e+02 1.890940904617309570e+00 1.773587799072265625e+01 1.570367370732128620e-03 -3.381389979040250182e-05 4.609660245478153229e-04 4.921636718790978193e-05
8.510000000000000000e+02 6.310662627220153809e-01 1.774945449829101562e+01 -1.465537003241479397e-03 8.950813025876414031e-06 -4.369758535176515579e-04 -6.298118933045770973e-06
8.520000000000000000e+02 6.530714035034179688e-01 2.200070381164550781e+01 1.499331323429942131e-03 -4.418679964146576822e-07 4.496668116189539433e-04 5.201197200221940875e-05
8.530000000000000000e+02 6.578397750854492188e-01 2.341337203979492188e+01 -1.548744156025350094e-03 -5.309343396220356226e-05 -4.805513017345219851e-04 -1.371770576952258125e-05
8.540000000000000000e+02 1.986642837524414062e+00 2.342423057556152344e+01 1.671279314905405045e-03 9.697680798126384616e-05 5.304767983034253120e-04 1.097104250220581889e-04
8.550000000000000000e+02 6.522806286811828613e-01 2.482103538513183594e+01 1.644451753236353397e-03 -7.703572919126600027e-06 4.910244606435298920e-04 -1.801572216209024191e-05
8.560000000000000000e+02 6.335958838462829590e-01 2.904862403869628906e+01 -1.671663601882755756e-03 -1.668549521127715707e-05 -5.065047298558056355e-04 -8.913237252272665501e-05
8.570000000000000000e+02 6.455703377723693848e-01 3.045285034179687500e+01 1.509452355094254017e-03 -4.758455543196760118e-05 4.385603533592075109e-04 1.192465642816387117e-04
8.580000000000000000e+02 2.023670911788940430e+00 3.175331115722656250e+01 1.619058195501565933e-03 1.791474787751212716e-04 5.394616746343672276e-04 2.852225443348288536e-04
8.590000000000000000e+02 6.634644865989685059e-01 3.185231018066406250e+01 -1.325908466242253780e-03 -1.099147339118644595e-04 -4.307469353079795837e-04 -6.043113535270094872e-05
8.600000000000000000e+02 6.642031073570251465e-01 3.603667449951171875e+01 2.252695150673389435e-03 2.845662820618599653e-04 7.611784385517239571e-04 -6.728890002705156803e-04
8.610000000000000000e+02 1.977421641349792480e+00 3.711139297485351562e+01 2.076439559459686279e-03 4.408701206557452679e-04 7.551928865723311901e-04 -1.168474904261529446e-03
8.620000000000000000e+02 8.659254312515258789e-01 3.872738265991210938e+01 3.156666876748204231e-03 2.956535900011658669e-04 1.035696128383278847e-03 -8.107458124868571758e-04
8.630000000000000000e+02 1.247638940811157227e+00 4.007548141479492188e+01 -2.762977965176105499e-03 1.725559559417888522e-04 -7.771265809424221516e-04 4.786958161275833845e-04
8.640000000000000000e+02 1.038643932342529297e+01 1.850157141685485840e+00 2.454128698445856571e-04 4.880598135059699416e-05 8.826565317576751113e-05 -4.410146721056662500e-05
8.650000000000000000e+02 8.928878784179687500e+00 1.871931076049804688e+00 2.038017992163076997e-04 1.039123017108067870e-04 9.231422882294282317e-05 1.436470029148040339e-06
8.660000000000000000e+02 8.208441734313964844e+00 1.874175310134887695e+00 -1.812267582863569260e-04 -1.309283834416419268e-04 -9.364654397359117866e-05 1.052008428814588115e-05
8.670000000000000000e+02 8.177532196044921875e+00 2.627080917358398438e+00 2.272573183290660381e-04 1.640819682506844401e-04 1.174017888843081892e-04 8.048830750340130180e-06
8.680000000000000000e+02 7.489451885223388672e+00 1.876249790191650391e+00 1.748472277540713549e-04 1.500230573583394289e-04 9.746108844410628080e-05 -3.149503390886820853e-05
8.690000000000000000e+02 5.329627990722656250e+00 1.894022345542907715e+00 -1.822181511670351028e-04 -1.654511142987757921e-04 -1.043007796397432685e-04 8.727224485483020544e-05
8.700000000000000000e+02 4.607020378112792969e+00 1.905182600021362305e+00 2.101175196003168821e-04 1.583312550792470574e-04 1.105346309486776590e-04 -8.906352741178125143e-05
8.710000000000000000e+02 3.891641139984130859e+00 1.909412026405334473e+00 -2.632179239299148321e-04 -1.540230441605672240e-04 -1.251722860615700483e-04 7.352970715146511793e-05
8.720000000000000000e+02 3.187478542327880859e+00 1.900664806365966797e+00 3.111828118562698364e-04 1.428752584615722299e-04 1.362174225505441427e-04 -1.496989898441825062e-05
8.730000000000000000e+02 2.493039131164550781e+00 1.885226011276245117e+00 -2.642194449435919523e-04 -1.665673917159438133e-04 -1.292360539082437754e-04 -5.620117735816165805e-05
8.740000000000000000e+02 1.803966045379638672e+00 1.880603671073913574e+00 1.406483497703447938e-04 2.136503608198836446e-04 1.062896117218770087e-04 5.660373790306039155e-05
8.750000000000000000e+02 1.186531925201416016e+01 1.780703425407409668e+00 1.905596582219004631e-04 7.022590580163523555e-05 7.823566556908190250e-05 -9.862794104265049100e-05
8.760000000000000000e+02 1.435599231719970703e+01 2.980667829513549805e+00 -7.746613846393302083e-05 -1.462118234485387802e-04 -6.710339221172034740e-05 2.417141949990764260e-04
8.770000000000000000e+02 1.459622097015380859e+01 3.783521175384521484e+00 4.608260642271488905e-04 9.577304444974288344e-05 1.669797347858548164e-04 -1.337744033662602305e-04
8.780000000000000000e+02 1.479368591308593750e+01 2.012097358703613281e+00 -3.028677601832896471e-04 -5.873378177057020366e-05 -1.084804680431261659e-04 -1.579167656018398702e-05
8.790000000000000000e+02 1.461333656311035156e+01 6.349004745483398438e+00 7.676782552152872086e-04 3.437554187257774174e-05 2.406161511316895485e-04 -8.765123493503779173e-05
8.800000000000000000e+02 1.459819602966308594e+01 7.703433513641357422e+00 -8.745283703319728374e-04 -2.965902785945218056e-05 -2.712562272790819407e-04 5.785304165328852832e-05
8.810000000000000000e+02 1.457625484466552734e+01 9.068500518798828125e+00 9.775211801752448082e-04 2.424790545774158090e-05 3.005307225976139307e-04 -2.428013794997241348e-05
8.820000000000000000e+02 1.451285171508789062e+01 1.181558418273925781e+01 1.193628879263997078e-03 1.900966424273065059e-07 3.581456840038299561e-04 2.334969940420705825e-05
8.830000000000000000e+02 1.445905876159667969e+01 1.320442771911621094e+01 -1.265356084331870079e-03 3.580575503292493522e-05 -3.688650904223322868e-04 1.020391209749504924e-05
8.840000000000000000e+02 1.439844894409179688e+01 1.460560703277587891e+01 1.327149104326963425e-03 2.085154301312286407e-05 4.044001980219036341e-04 -2.756350113486405462e-05
8.850000000000000000e+02 1.438750267028808594e+01 1.600833702087402344e+01 -1.474948949180543423e-03 -1.116571002057753503e-05 -4.458344192244112492e-04 -3.503134621496428736e-06
8.860000000000000000e+02 1.320151901245117188e+01 2.031083869934082031e+01 -2.036000369116663933e-03 -9.783238783711567521e-05 -6.401498685590922832e-04 3.650250801001675427e-05
8.870000000000000000e+02 1.453325271606445312e+01 2.156989288330078125e+01 -2.412465633824467659e-03 -5.222013714956119657e-05 -7.394056883640587330e-04 5.101925489725545049e-05
8.880000000000000000e+02 1.484083938598632812e+01 2.567860221862792969e+01 3.862532787024974823e-03 7.366840145550668240e-05 1.180860330350697041e-03 2.663984487298876047e-04
8.890000000000000000e+02 1.335608482360839844e+01 2.302171897888183594e+01 -2.539378125220537186e-03 -1.109472068492323160e-04 -7.950976141728460789e-04 -2.343313535675406456e-04
8.900000000000000000e+02 1.494777107238769531e+01 2.704468727111816406e+01 -4.557799547910690308e-03 -8.967825124273076653e-05 -1.394243328832089901e-03 -4.186895675957202911e-04
8.910000000000000000e+02 1.508593750000000000e+01 2.840791130065917969e+01 5.306777078658342361e-03 4.408799577504396439e-05 1.605259487405419350e-03 5.199181032367050648e-04
8.920000000000000000e+02 1.571102619171142578e+01 3.262332153320312500e+01 -6.063408683985471725e-03 -3.279842494521290064e-04 -1.917417859658598900e-03 5.378783098421990871e-04
8.930000000000000000e+02 1.628336143493652344e+01 3.399510574340820312e+01 7.610743399709463120e-03 -3.354984801262617111e-04 2.182573545724153519e-03 -1.251667039468884468e-03
8.940000000000000000e+02 1.525329971313476562e+01 3.562333679199218750e+01 8.123709820210933685e-03 -1.618849695660173893e-03 1.951458165422081947e-03 -1.324813114479184151e-03
8.950000000000000000e+02 1.717163276672363281e+01 3.647599792480468750e+01 1.156809832900762558e-02 3.327092388644814491e-03 4.468556959182024002e-03 2.036618068814277649e-03
8.960000000000000000e+02 2.169098472595214844e+01 3.830115127563476562e+01 -8.775288239121437073e-03 -3.323887288570404053e-02 -1.260424870997667313e-02 3.450318798422813416e-02
8.970000000000000000e+02 2.423849296569824219e+01 3.855932235717773438e+01 -5.337928608059883118e-02 -4.474414512515068054e-02 -2.943702973425388336e-02 9.201147407293319702e-02
8.980000000000000000e+02 2.334316062927246094e+01 3.852471542358398438e+01 -4.576571285724639893e-02 -6.091613322496414185e-02 -3.200455382466316223e-02 8.269537240266799927e-02
8.990000000000000000e+02 2.592920112609863281e+01 3.830953216552734375e+01 -1.262426376342773438e-01 -7.797010242938995361e-02 -6.126382201910018921e-02 1.763132363557815552e-01
9.000000000000000000e+02 2.822041893005371094e+01 3.802047729492187500e+01 -1.851506233215332031e-01 -2.959186434745788574e-01 -1.443207859992980957e-01 3.878076374530792236e-01
9.010000000000000000e+02 2.903228569030761719e+01 3.799978256225585938e+01 -2.604075372219085693e-01 -2.262775897979736328e-01 -1.460055410861968994e-01 4.632443189620971680e-01
9.020000000000000000e+02 3.125697898864746094e+01 3.870063781738281250e+01 2.811487615108489990e-01 -4.955366849899291992e-01 -6.431638449430465698e-02 5.096782445907592773e-01
9.030000000000000000e+02 3.135927009582519531e+01 3.745136642456054688e+01 -5.476938486099243164e-01 -3.427116572856903076e-01 -2.671216428279876709e-01 6.514768600463867188e-01
9.040000000000000000e+02 3.263897705078125000e+01 3.709397506713867188e+01 -8.563944697380065918e-01 -1.138125807046890259e-01 -2.910621166229248047e-01 5.818274617195129395e-01
9.050000000000000000e+02 3.418199539184570312e+01 3.705765151977539062e+01 -6.943565607070922852e-01 1.445288956165313721e-01 -1.649482995271682739e-01 3.655360341072082520e-01
9.060000000000000000e+02 3.659113311767578125e+01 3.754536056518554688e+01 5.401960015296936035e-01 2.027773141860961914e+00 7.703907489776611328e-01 -1.058772206306457520e+00
9.070000000000000000e+02 3.709767532348632812e+01 3.621022033691406250e+01 -2.367554605007171631e-01 1.300189852714538574e+00 3.190303146839141846e-01 -9.224426150321960449e-01
9.080000000000000000e+02 3.650882339477539062e+01 3.682077026367187500e+01 -1.015290692448616028e-01 1.016961812973022461e+00 2.746298313140869141e-01 -5.442517995834350586e-01
9.090000000000000000e+02 3.818864440917968750e+01 3.592901229858398438e+01 8.552297949790954590e-01 3.225335359573364258e+00 1.224169492721557617e+00 -2.587066173553466797e+00
9.100000000000000000e+02 3.871331787109375000e+01 3.571926879882812500e+01 1.158004164695739746e+00 4.659130573272705078e+00 1.745140314102172852e+00 -3.693603038787841797e+00
9.110000000000000000e+02 3.835951232910156250e+01 3.579123306274414062e+01 9.062216877937316895e-01 3.682238340377807617e+00 1.376537919044494629e+00 -3.002861499786376953e+00
9.120000000000000000e+02 3.951921463012695312e+01 3.570893096923828125e+01 2.776510119438171387e-01 1.135703754425048828e+01 3.490406513214111328e+00 -4.482412338256835938e+00
9.130000000000000000e+02 3.928494262695312500e+01 3.565423202514648438e+01 9.068429470062255859e-01 8.481212615966796875e+00 2.816416740417480469e+00 -4.169115066528320312e+00
9.140000000000000000e+02 3.994478988647460938e+01 3.556636810302734375e+01 -3.793813586235046387e-01 1.590302181243896484e+01 4.657092094421386719e+00 -4.437741279602050781e+00
9.150000000000000000e+02 3.890618515014648438e+01 3.569902420043945312e+01 1.135196328163146973e+00 5.616738319396972656e+00 2.025580406188964844e+00 -3.938503026962280273e+00
9.160000000000000000e+02 4.015194320678710938e+01 3.552091217041015625e+01 -6.387147307395935059e-01 1.677577781677246094e+01 4.841118812561035156e+00 -4.151615619659423828e+00
9.170000000000000000e+02 3.944068145751953125e+01 3.162064552307128906e+01 3.761163949966430664e+00 1.136152267456054688e+01 4.536806106567382812e+00 7.015695095062255859e+00
9.180000000000000000e+02 3.887472915649414062e+01 3.232992172241210938e+01 5.956632137298583984e+00 5.489109992980957031e+00 3.433722734451293945e+00 6.630259990692138672e+00
9.190000000000000000e+02 3.772468948364257812e+01 3.244722747802734375e+01 4.000464439392089844e+00 1.326602220535278320e+00 1.598119974136352539e+00 2.861642122268676758e+00
9.200000000000000000e+02 3.692882537841796875e+01 3.265468215942382812e+01 2.233874559402465820e+00 3.854145407676696777e-01 7.857867479324340820e-01 1.390602588653564453e+00
9.210000000000000000e+02 3.734704589843750000e+01 3.245932388305664062e+01 3.213737249374389648e+00 8.005443215370178223e-01 1.204284429550170898e+00 2.162156105041503906e+00
9.220000000000000000e+02 3.656628417968750000e+01 3.263769149780273438e+01 1.727514743804931641e+00 3.815004825592041016e-01 6.327045559883117676e-01 1.100239157676696777e+00
9.230000000000000000e+02 3.525030899047851562e+01 3.290999603271484375e+01 2.654691934585571289e-01 1.113427430391311646e-01 1.130435764789581299e-01 4.180955588817596436e-01
9.240000000000000000e+02 3.406923675537109375e+01 3.314097213745117188e+01 -2.863500714302062988e-01 8.619152754545211792e-02 -6.004756316542625427e-02 1.141823083162307739e-01
9.250000000000000000e+02 3.052344894409179688e+01 3.378759384155273438e+01 -7.413930892944335938e-01 1.011459231376647949e-01 -1.920741498470306396e-01 -1.388244628906250000e-01
9.260000000000000000e+02 3.197423362731933594e+01 3.353586578369140625e+01 -7.282003164291381836e-01 1.012679114937782288e-01 -1.880797147750854492e-01 -6.857500225305557251e-02
9.270000000000000000e+02 2.907735443115234375e+01 3.401543045043945312e+01 -6.608931422233581543e-01 9.122635424137115479e-02 -1.709000319242477417e-01 -1.874742656946182251e-01
9.280000000000000000e+02 2.835528564453125000e+01 3.412487792968750000e+01 -6.050437092781066895e-01 8.930449187755584717e-02 -1.547217667102813721e-01 -2.039340734481811523e-01
9.290000000000000000e+02 2.763890647888183594e+01 3.422070312500000000e+01 -5.403878688812255859e-01 7.512288540601730347e-02 -1.395795047283172607e-01 -2.194262146949768066e-01
9.300000000000000000e+02 2.469487380981445312e+01 3.447817230224609375e+01 -2.575867176055908203e-01 3.016559639945626259e-03 -7.637105137109756470e-02 -2.137017548084259033e-01
9.310000000000000000e+02 2.621387290954589844e+01 3.438002014160156250e+01 -4.037021398544311523e-01 4.840285703539848328e-02 -1.065897867083549500e-01 -2.295888364315032959e-01
9.320000000000000000e+02 2.203256225585937500e+01 3.431854629516601562e+01 -5.861312150955200195e-02 -7.653070986270904541e-02 -4.054315015673637390e-02 -1.124501600861549377e-01
9.330000000000000000e+02 2.114047431945800781e+01 3.337456893920898438e+01 -1.895576901733875275e-02 -1.656184196472167969e-01 -5.537225678563117981e-02 -8.114899694919586182e-02
9.340000000000000000e+02 3.749822998046875000e+01 3.613706588745117188e+01 1.092051118612289429e-01 1.699714422225952148e+00 5.426758527755737305e-01 -1.422778129577636719e+00
9.350000000000000000e+02 3.909598159790039062e+01 3.566030883789062500e+01 1.132807016372680664e+00 6.656402111053466797e+00 2.336762666702270508e+00 -4.479747772216796875e+00
9.360000000000000000e+02 3.792241668701171875e+01 3.649701309204101562e+01 6.060521006584167480e-01 3.613073348999023438e+00 1.265737652778625488e+00 -2.399539232254028320e+00
9.370000000000000000e+02 3.774580764770507812e+01 3.603662109375000000e+01 2.900395393371582031e-01 2.213196277618408203e+00 7.509707212448120117e-01 -1.589343190193176270e+00
9.380000000000000000e+02 3.797478866577148438e+01 3.599806976318359375e+01 5.681010484695434570e-01 2.996385574340820312e+00 1.069345951080322266e+00 -2.232050895690917969e+00
9.390000000000000000e+02 4.041306304931640625e+01 3.552604293823242188e+01 -7.990292906761169434e-01 1.837201118469238281e+01 5.271894454956054688e+00 -2.563770771026611328e+00
9.400000000000000000e+02 4.001860809326171875e+01 3.598033523559570312e+01 -5.681619644165039062e-01 1.474481105804443359e+01 4.252994537353515625e+00 -3.400991678237915039e+00
9.410000000000000000e+02 4.095032501220703125e+01 3.541431045532226562e+01 7.009924054145812988e-01 2.009121704101562500e+01 6.237662792205810547e+00 1.039462924003601074e+00
9.420000000000000000e+02 4.071272277832031250e+01 3.657925033569335938e+01 -1.005326151847839355e+00 1.580247688293457031e+01 4.439145088195800781e+00 -1.287816524505615234e+00
9.430000000000000000e+02 3.905176925659179688e+01 3.225618743896484375e+01 5.717292308807373047e+00 7.478865146636962891e+00 3.958847045898437500e+00 7.294473648071289062e+00
9.440000000000000000e+02 3.846967315673828125e+01 3.238537597656250000e+01 5.415008068084716797e+00 3.389252901077270508e+00 2.641278266906738281e+00 5.038724422454833984e+00
9.450000000000000000e+02 3.948664855957031250e+01 3.211392974853515625e+01 4.675858020782470703e+00 1.184051227569580078e+01 4.954911231994628906e+00 7.649010658264160156e+00
9.460000000000000000e+02 3.867636871337890625e+01 3.235243988037109375e+01 5.763433456420898438e+00 4.463876724243164062e+00 3.068193197250366211e+00 5.767716407775878906e+00
9.470000000000000000e+02 3.787811660766601562e+01 3.255895996093750000e+01 4.090092658996582031e+00 1.355808138847351074e+00 1.633770227432250977e+00 2.950941085815429688e+00
9.480000000000000000e+02 3.973475646972656250e+01 3.207239151000976562e+01 3.987768888473510742e+00 1.436647319793701172e+01 5.506272792816162109e+00 7.964077472686767578e+00
9.490000000000000000e+02 2.022521781921386719e+01 3.795691299438476562e+01 6.376494187861680984e-03 -9.914615191519260406e-03 -1.061436254531145096e-03 9.172626771032810211e-03
9.500000000000000000e+02 1.420566272735595703e+01 1.887881994247436523e+00 1.266058388864621520e-04 3.686360651045106351e-05 4.904083471046760678e-05 -3.209803617210127413e-05
9.510000000000000000e+02 1.257299518585205078e+01 1.751429915428161621e+00 -9.933958062902092934e-05 -1.106728304876014590e-04 -6.300372479017823935e-05 6.439337448682636023e-05
9.520000000000000000e+02 3.582663726806640625e+01 3.766954803466796875e+01 3.412605822086334229e-01 1.148994922637939453e+00 4.470766484737396240e-01 -3.925334215164184570e-01
9.530000000000000000e+02 3.489658737182617188e+01 3.683952331542968750e+01 -4.751592278480529785e-01 1.801256239414215088e-01 -8.851008117198944092e-02 1.990878880023956299e-01
9.540000000000000000e+02 3.702976226806640625e+01 3.693828201293945312e+01 4.527480304241180420e-01 2.455898046493530273e+00 8.725938200950622559e-01 -1.348503112792968750e+00
9.550000000000000000e+02 3.609589767456054688e+01 3.646860122680664062e+01 -3.962042629718780518e-01 2.893039584159851074e-01 -3.207008913159370422e-02 -1.829650849103927612e-01
9.560000000000000000e+02 3.341230392456054688e+01 3.326926422119140625e+01 -5.241178870201110840e-01 9.639773517847061157e-02 -1.283160448074340820e-01 3.820307552814483643e-02
9.570000000000000000e+02 3.502785110473632812e+01 3.237742614746093750e+01 1.049506545066833496e+00 2.902662456035614014e-01 4.019318222999572754e-01 5.973522663116455078e-01
9.580000000000000000e+02 3.555641937255859375e+01 3.226007843017578125e+01 1.565294742584228516e+00 4.235734939575195312e-01 5.966604948043823242e-01 9.568381309509277344e-01
9.590000000000000000e+02 3.466859054565429688e+01 3.302439498901367188e+01 1.269531436264514923e-02 1.157180964946746826e-01 3.852402418851852417e-02 2.526136040687561035e-01
9.600000000000000000e+02 3.383010101318359375e+01 3.260375976562500000e+01 2.632607817649841309e-01 1.747887283563613892e-01 1.314148455858230591e-01 2.096505165100097656e-01
9.610000000000000000e+02 3.317643737792968750e+01 3.271975326538085938e+01 1.059009693562984467e-02 1.621052622795104980e-01 5.180860683321952820e-02 7.159306854009628296e-02
9.620000000000000000e+02 2.047467422485351562e+01 3.918091201782226562e+01 -1.501232152804732323e-03 -2.678791433572769165e-02 -8.486744016408920288e-03 2.288366481661796570e-02
9.630000000000000000e+02 1.966210556030273438e+01 3.829868316650390625e+01 5.246072076261043549e-03 -9.177408181130886078e-03 -1.179400831460952759e-03 9.216382168233394623e-03
9.640000000000000000e+02 6.052151203155517578e+00 1.885004401206970215e+00 1.788615627447143197e-04 1.661268761381506920e-04 1.034965316648595035e-04 -6.689941801596432924e-05
9.650000000000000000e+02 9.647856712341308594e+00 2.608355283737182617e+00 3.240079386159777641e-04 6.556403241120278835e-05 1.168715898529626429e-04 3.514666605042293668e-05
9.660000000000000000e+02 6.771601200103759766e+00 1.879849314689636230e+00 -1.784963387763127685e-04 -1.583064586156979203e-04 -1.010408377624116838e-04 5.267891901894472539e-05
9.670000000000000000e+02 7.450853824615478516e+00 2.635129928588867188e+00 -2.256378211313858628e-04 -1.822352642193436623e-04 -1.223619328811764717e-04 2.854593731171917170e-05
9.680000000000000000e+02 8.151681900024414062e+00 3.392647266387939453e+00 -2.449861494824290276e-04 -2.059727412415668368e-04 -1.352876715827733278e-04 -3.211875446140766144e-05
9.690000000000000000e+02 5.959961414337158203e+00 4.264219760894775391e+00 -3.899405419360846281e-04 -2.117784169968217611e-04 -1.805156789487227798e-04 4.015522790723480284e-05
9.700000000000000000e+02 1.671321988105773926e+00 7.792453765869140625e+00 -9.002607548609375954e-04 -2.427404615445993841e-05 -2.773604355752468109e-04 1.192933923448435962e-04
9.710000000000000000e+02 3.894926011562347412e-01 3.776276111602783203e+00 -8.651553071103990078e-04 -1.535723131382837892e-04 -3.056182758882641792e-04 -2.186272176913917065e-04
9.720000000000000000e+02 1.828991174697875977e+00 2.612983226776123047e+00 -2.795636828523129225e-04 -1.703271846054121852e-04 -1.349672675132751465e-04 -1.157361839432269335e-04
9.730000000000000000e+02 3.840798437595367432e-01 2.093523979187011719e+00 3.081245522480458021e-04 1.685204042587429285e-04 1.429934782208874822e-04 -1.099880610127002001e-04
9.740000000000000000e+02 1.114023923873901367e+00 1.931764006614685059e+00 2.378872886765748262e-05 -2.668225206434726715e-04 -7.291013753274455667e-05 -8.860864909365773201e-06
9.750000000000000000e+02 1.113192653656005859e+01 1.819407820701599121e+00 -2.341372455703094602e-04 -5.151823279447853565e-05 -8.569664350943639874e-05 7.945330435177311301e-05
9.760000000000000000e+02 9.657090187072753906e+00 3.364856719970703125e+00 -4.063474771101027727e-04 -7.624574209330603480e-05 -1.447779650334268808e-04 -1.056217224686406553e-04
9.770000000000000000e+02 2.738400077819824219e+01 3.276387405395507812e+01 -1.989257335662841797e-01 1.067522242665290833e-01 -2.765205129981040955e-02 -3.269641399383544922e-01
9.780000000000000000e+02 2.607899284362792969e+01 3.358656692504882812e+01 -2.847649753093719482e-01 4.857530817389488220e-02 -7.085689902305603027e-02 -2.987906634807586670e-01
9.790000000000000000e+02 2.291950416564941406e+01 3.440623474121093750e+01 -1.070951372385025024e-01 -6.029414758086204529e-02 -5.021678656339645386e-02 -1.599859595298767090e-01
9.800000000000000000e+02 2.416031455993652344e+01 3.099652671813964844e+01 2.603476308286190033e-02 -1.168703362345695496e-01 -2.725067362189292908e-02 -3.238557279109954834e-01
9.810000000000000000e+02 2.750106048583984375e+01 3.349265289306640625e+01 -3.692858219146728516e-01 9.670825302600860596e-02 -8.177326619625091553e-02 -2.897099554538726807e-01
9.820000000000000000e+02 2.891637611389160156e+01 3.333576965332031250e+01 -4.179870784282684326e-01 1.238984689116477966e-01 -8.822657912969589233e-02 -2.547722160816192627e-01
9.830000000000000000e+02 2.962710380554199219e+01 3.324236297607421875e+01 -4.242625236511230469e-01 1.305613815784454346e-01 -8.811034262180328369e-02 -2.292344719171524048e-01
9.840000000000000000e+02 2.820834922790527344e+01 3.342188262939453125e+01 -3.981131017208099365e-01 1.077422574162483215e-01 -8.711124956607818604e-02 -2.759423553943634033e-01
9.850000000000000000e+02 3.124807167053222656e+01 3.366568374633789062e+01 -7.469773292541503906e-01 1.077796965837478638e-01 -1.917592883110046387e-01 -1.048142835497856140e-01
9.860000000000000000e+02 3.105755996704101562e+01 3.304664993286132812e+01 -3.739884197711944580e-01 1.455488353967666626e-01 -6.853187829256057739e-02 -1.496139317750930786e-01
9.870000000000000000e+02 3.034077835083007812e+01 3.314600753784179688e+01 -4.085847139358520508e-01 1.436248868703842163e-01 -7.948794960975646973e-02 -1.932119131088256836e-01
9.880000000000000000e+02 3.444525146484375000e+01 3.249254226684570312e+01 5.599999427795410156e-01 2.237985283136367798e-01 2.351395487785339355e-01 3.709580302238464355e-01
9.890000000000000000e+02 1.176867771148681641e+01 -2.673929214477539062e+00 -7.589797023683786392e-04 3.125931107206270099e-05 -2.183161122957244515e-04 2.849735028576105833e-04
9.900000000000000000e+02 1.026451778411865234e+01 -3.457676172256469727e+00 3.420054272282868624e-04 3.521659527905285358e-04 2.082514110952615738e-04 -3.307097358629107475e-04
9.910000000000000000e+02 1.105109500885009766e+01 -2.670944929122924805e+00 5.214568809606134892e-04 1.618732349015772343e-04 2.049990289378911257e-04 -3.810730704572051764e-04
9.920000000000000000e+02 1.245936393737792969e+01 2.319532871246337891e+00 1.608417078386992216e-04 8.554687519790604711e-05 7.391657709376886487e-05 -1.203658903250470757e-04
9.930000000000000000e+02 1.039229011535644531e+01 2.577480077743530273e+00 -3.645028918981552124e-04 -7.125903266569366679e-06 -1.114886399591341615e-04 1.423156845703488216e-05
9.940000000000000000e+02 1.293817710876464844e+01 2.360901355743408203e+00 1.037105812429217622e-05 -2.041435363935306668e-04 -5.813174357172101736e-05 -3.363662472111172974e-05
9.950000000000000000e+02 1.336481380462646484e+01 2.540331602096557617e+00 1.718610001262277365e-04 1.641785784158855677e-04 1.008118706522509456e-04 2.571224176790565252e-04
9.960000000000000000e+02 3.338463592529296875e+01 3.714585113525390625e+01 -7.427508831024169922e-01 -7.781491428613662720e-02 -2.461697310209274292e-01 6.037771701812744141e-01
9.970000000000000000e+02 3.219088745117187500e+01 3.955046081542968750e+01 8.297680616378784180e-01 -2.584610879421234131e-01 1.713920980691909790e-01 6.967487335205078125e-01
9.980000000000000000e+02 3.088439178466796875e+01 4.068759918212890625e+01 7.645111083984375000e-01 -6.084226369857788086e-01 4.682654514908790588e-02 2.106766700744628906e-01
9.990000000000000000e+02 2.758879089355468750e+01 3.887520980834960938e+01 -4.280394688248634338e-02 -2.991735637187957764e-01 -1.025932505726814270e-01 3.414585590362548828e-01
1.000000000000000000e+03 3.064368820190429688e+01 3.770148849487304688e+01 -3.900444209575653076e-01 -3.038069009780883789e-01 -2.081553936004638672e-01 7.173748612403869629e-01
1.001000000000000000e+03 8.059778213500976562e+00 -1.872382879257202148e+00 -3.010000218637287617e-04 -2.570074575487524271e-04 -1.674022350925952196e-04 4.388127854326739907e-05
1.002000000000000000e+03 9.554956436157226562e+00 -2.644486188888549805e+00 3.115134022664278746e-04 2.824959519784897566e-04 1.782028120942413807e-04 -1.904485106933861971e-04
1.003000000000000000e+03 7.287171363830566406e+00 -2.616848468780517578e+00 -4.146500432398170233e-04 -2.316246973350644112e-04 -1.938824134413152933e-04 -1.931472615979146212e-05
1.004000000000000000e+03 8.036918640136718750e+00 -2.623975515365600586e+00 3.766272857319563627e-04 2.570226788520812988e-04 1.900950010167434812e-04 -2.598930223030038178e-05
1.005000000000000000e+03 8.792828559875488281e+00 -2.632958173751831055e+00 -3.316679794806987047e-04 -2.766458201222121716e-04 -1.824941427912563086e-04 9.380576375406235456e-05
1.006000000000000000e+03 6.537322998046875000e+00 -1.866129040718078613e+00 -3.013619279954582453e-04 -2.528335608076304197e-04 -1.662586437305435538e-04 -3.273055335739627481e-05
1.007000000000000000e+03 6.544510841369628906e+00 -2.608524799346923828e+00 4.197615780867636204e-04 2.177095593651756644e-04 1.912413426907733083e-04 3.036012458323966712e-05
1.008000000000000000e+03 5.088979244232177734e+00 -2.614776611328125000e+00 2.594429533928632736e-04 2.470292092766612768e-04 1.519416546216234565e-04 7.699503476032987237e-05
1.009000000000000000e+03 1.610824465751647949e+00 -7.824214935302734375e+00 1.128554693423211575e-03 1.836964656831696630e-05 3.440772998146712780e-04 2.490649649189435877e-06
1.010000000000000000e+03 3.858510732650756836e+00 -3.549928665161132812e+00 -3.555176954250782728e-04 -1.686827017692849040e-04 -1.572601177031174302e-04 -4.760860174428671598e-04
1.011000000000000000e+03 4.578661620616912842e-01 -3.614838600158691406e+00 7.464670925401151180e-04 -1.340485505352262408e-05 2.199186710640788078e-04 -2.399961886112578213e-05
1.012000000000000000e+03 4.049473106861114502e-01 -2.203242540359497070e+00 -6.869138451293110847e-04 2.921349050666322000e-06 -2.051977498922497034e-04 1.251828871318139136e-05
1.013000000000000000e+03 4.978976547718048096e-01 -5.034559249877929688e+00 -8.033107151277363300e-04 -3.509839007165282965e-05 -2.515227242838591337e-04 1.212637198477750644e-05
1.014000000000000000e+03 4.121837997436523438e+01 3.217353439331054688e+01 4.438242435455322266e+00 1.959716987609863281e+01 7.210623741149902344e+00 4.514409303665161133e-01
1.015000000000000000e+03 4.162810897827148438e+01 3.498352432250976562e+01 4.955022335052490234e+00 1.912526321411132812e+01 7.224085807800292969e+00 4.165700435638427734e+00
1.016000000000000000e+03 4.272471618652343750e+01 3.259447097778320312e+01 6.585955142974853516e+00 1.420847702026367188e+01 6.238329887390136719e+00 -2.293567061424255371e-01
1.017000000000000000e+03 4.281345367431640625e+01 4.126515197753906250e+01 -1.198200821876525879e+00 1.271674156188964844e+01 3.455562114715576172e+00 3.862696886062622070e-02
1.018000000000000000e+03 4.191649246215820312e+01 3.303711318969726562e+01 9.017906188964843750e+00 1.698015785217285156e+01 7.799419403076171875e+00 -3.984066247940063477e-01
1.019000000000000000e+03 4.361282730102539062e+01 3.311529159545898438e+01 5.804263591766357422e+00 1.324431705474853516e+01 5.714574337005615234e+00 2.536359429359436035e-01
1.020000000000000000e+03 2.827533340454101562e+01 3.895096588134765625e+01 3.459153696894645691e-02 -2.564208507537841797e-01 -6.654879450798034668e-02 2.890733480453491211e-01
1.021000000000000000e+03 2.919750595092773438e+01 3.922493362426757812e+01 2.267285734415054321e-01 -4.926454722881317139e-01 -7.977507263422012329e-02 4.434451758861541748e-01
1.022000000000000000e+03 2.487768745422363281e+01 4.121935653686523438e+01 1.199658736586570740e-01 -1.750218421220779419e-01 -1.651678979396820068e-02 3.385724499821662903e-02
1.023000000000000000e+03 2.512375831604003906e+01 3.846881484985351562e+01 -7.189903408288955688e-02 -1.184201687574386597e-01 -5.709576234221458435e-02 1.557985544204711914e-01
1.024000000000000000e+03 2.431287956237792969e+01 3.989217758178710938e+01 5.339938681572675705e-03 -1.365112513303756714e-01 -3.935139626264572144e-02 1.280366778373718262e-01
1.025000000000000000e+03 2.626000022888183594e+01 3.914525985717773438e+01 2.949704229831695557e-02 -2.296333760023117065e-01 -6.004089862108230591e-02 1.974451690912246704e-01
1.026000000000000000e+03 2.204777336120605469e+01 3.331744384765625000e+01 -3.812045976519584656e-02 -1.636397242546081543e-01 -6.052805483341217041e-02 -1.646306812763214111e-01
1.027000000000000000e+03 2.597575378417968750e+01 3.278047561645507812e+01 -1.650776863098144531e-01 3.919236361980438232e-02 -3.776559978723526001e-02 -3.428378999233245850e-01
1.028000000000000000e+03 2.060612869262695312e+01 3.400331878662109375e+01 -1.658560475334525108e-03 -1.174411475658416748e-01 -3.572991490364074707e-02 -1.700123585760593414e-02
1.029000000000000000e+03 2.097997665405273438e+01 3.232838439941406250e+01 -2.796417335048317909e-03 -2.989603281021118164e-01 -9.052702784538269043e-02 -7.303985208272933960e-02
1.030000000000000000e+03 2.279533767700195312e+01 -4.131333541870117188e+01 -3.307515382766723633e-01 2.895900249481201172e+00 7.695446014404296875e-01 -4.431892931461334229e-02
1.031000000000000000e+03 1.904880905151367188e+01 -3.774871444702148438e+01 2.566487789154052734e-01 2.253876686096191406e+00 7.531576156616210938e-01 6.161250472068786621e-01
1.032000000000000000e+03 1.307919406890869141e+01 -3.723915481567382812e+01 -5.989481508731842041e-02 1.672844029963016510e-02 -1.294991187751293182e-02 1.558567117899656296e-02
1.033000000000000000e+03 1.237569141387939453e+01 2.572483825683593750e+01 2.483948599547147751e-03 5.398741341196000576e-04 9.071467793546617031e-04 4.503304662648588419e-04
1.034000000000000000e+03 1.305705165863037109e+01 3.202133178710937500e+01 2.827573334798216820e-04 -2.280944259837269783e-03 -5.994560779072344303e-04 2.785068936645984650e-03
1.035000000000000000e+03 1.361163425445556641e+01 3.088712882995605469e+01 -3.613554406911134720e-03 8.399131475016474724e-04 -8.320924243889749050e-04 -1.072977087460458279e-03
1.036000000000000000e+03 1.371856784820556641e+01 2.700090408325195312e+01 3.438673680648207664e-03 2.880653773900121450e-04 1.118021667934954166e-03 8.531840867362916470e-04
1.037000000000000000e+03 1.673097610473632812e+01 3.528162002563476562e+01 -7.662846706807613373e-03 -5.929562030360102654e-05 -2.316642785444855690e-03 2.318166429176926613e-03
1.038000000000000000e+03 1.707132339477539062e+01 3.775071716308593750e+01 8.329162374138832092e-04 8.596636354923248291e-03 2.828865777701139450e-03 -6.522480398416519165e-03
1.039000000000000000e+03 1.493665218353271484e+01 3.441477203369140625e+01 -4.892275203019380569e-03 -4.736369883175939322e-04 -1.609773607924580574e-03 9.891449008136987686e-04
1.040000000000000000e+03 1.446240234375000000e+01 1.880666732788085938e+01 -1.903023920021951199e-03 1.091344893211498857e-05 -5.676331347785890102e-04 1.058071793522685766e-04
1.041000000000000000e+03 1.318137645721435547e+01 1.892973518371582031e+01 1.879696152172982693e-03 -5.494617289514280856e-05 5.474250065162777901e-04 -8.221226016758009791e-05
1.042000000000000000e+03 1.473269367218017578e+01 2.431207847595214844e+01 -3.286195453256368637e-03 -6.353470234898850322e-05 -1.004919060505926609e-03 -1.344247866654768586e-04
1.043000000000000000e+03 1.377981472015380859e+01 2.830313491821289062e+01 -3.716845763847231865e-03 -3.482324827928096056e-04 -1.219523488543927670e-03 -1.120235538110136986e-03
1.044000000000000000e+03 1.208409500122070312e+01 3.028331947326660156e+01 3.419906832277774811e-03 -1.682262518443167210e-03 5.212932592257857323e-04 1.138590741902589798e-03
1.045000000000000000e+03 1.308744144439697266e+01 1.753126716613769531e+01 -1.782770152203738689e-03 1.100721055991016328e-04 -5.018094088882207870e-04 6.192157889017835259e-05
1.046000000000000000e+03 1.334081172943115234e+01 1.178396224975585938e+01 -1.095463172532618046e-03 -5.434550257632508874e-05 -3.449426149018108845e-04 -1.975951017811894417e-04
1.047000000000000000e+03 1.294636249542236328e+01 1.459275531768798828e+01 -1.466117566451430321e-03 3.162486609653569758e-05 -4.303478344809263945e-04 -1.703616144368425012e-04
1.048000000000000000e+03 1.461778736114501953e+01 5.021966457366943359e+00 -6.362236454151570797e-04 -3.914375338354147971e-05 -2.026102301897481084e-04 1.066809054464101791e-04
1.049000000000000000e+03 1.184156227111816406e+01 2.421579837799072266e+00 -2.535818784963339567e-04 -3.325760189909487963e-05 -8.605184120824560523e-05 1.265597529709339142e-04
1.050000000000000000e+03 1.047964096069335938e+01 4.098257064819335938e+00 -5.954290390945971012e-04 -1.307298498431919143e-05 -1.825506187742576003e-04 -1.422452769475057721e-04
1.051000000000000000e+03 1.355392456054687500e+01 7.805064678192138672e+00 7.611016044393181801e-04 5.839240111527033150e-05 2.458482049405574799e-04 3.283147088950499892e-05
1.052000000000000000e+03 1.318994140625000000e+01 1.315190887451171875e+01 1.274893991649150848e-03 -3.656356784631498158e-05 3.714991325978189707e-04 2.483827993273735046e-04
1.053000000000000000e+03 7.932579040527343750e+01 -2.780233001708984375e+01 -3.434325044509023428e-04 9.488274574279785156e+00 2.846379280090332031e+00 -1.150678377598524094e-02
1.054000000000000000e+03 7.705083465576171875e+01 -3.773372650146484375e+01 -2.161271497607231140e-02 9.278896331787109375e+00 2.777184963226318359e+00 2.033776603639125824e-02
1.055000000000000000e+03 7.932505798339843750e+01 -3.471786880493164062e+01 -6.551928352564573288e-03 9.512215614318847656e+00 2.851699113845825195e+00 4.403924103826284409e-03
1.056000000000000000e+03 7.821785736083984375e+01 3.190475463867187500e+01 2.270227670669555664e-02 5.027372360229492188e+00 1.515022397041320801e+00 -1.663487255573272705e-01
1.057000000000000000e+03 7.901953887939453125e+01 3.613850021362304688e+01 3.225906053557991982e-03 4.534242630004882812e+00 1.361240625381469727e+00 -3.299647942185401917e-02
1.058000000000000000e+03 7.933865356445312500e+01 -2.083838462829589844e+01 -1.542275538668036461e-03 9.403185844421386719e+00 2.820492982864379883e+00 -1.826502569019794464e-02
1.059000000000000000e+03 7.799201202392578125e+01 -2.629591369628906250e+01 -7.367595680989325047e-04 9.308700561523437500e+00 2.792389154434204102e+00 -2.541189268231391907e-02
1.060000000000000000e+03 7.931455993652343750e+01 -3.057382774353027344e+01 -2.450337400659918785e-03 9.514069557189941406e+00 2.853485822677612305e+00 -9.307052940130233765e-03
1.061000000000000000e+03 7.791856384277343750e+01 -3.316891098022460938e+01 -1.044263970106840134e-02 9.355680465698242188e+00 2.803571224212646484e+00 -1.072513041435740888e-04
1.062000000000000000e+03 7.445630645751953125e+01 -3.718229675292968750e+01 -2.134140953421592712e-02 8.966864585876464844e+00 2.683657169342041016e+00 -4.694815352559089661e-02
1.063000000000000000e+03 7.611087799072265625e+01 -3.886677551269531250e+01 -6.498342379927635193e-03 9.239904403686523438e+00 2.770021915435791016e+00 -2.544402377679944038e-03
1.064000000000000000e+03 7.807701110839843750e+01 1.416225528717041016e+01 -4.855341743677854538e-03 7.153745651245117188e+00 2.144667148590087891e+00 -2.578871548175811768e-01
1.065000000000000000e+03 7.936328887939453125e+01 1.539841461181640625e+01 -7.309035281650722027e-04 6.952920436859130859e+00 2.085656881332397461e+00 -9.843630343675613403e-02
1.066000000000000000e+03 7.808443450927734375e+01 2.098362541198730469e+01 1.688482239842414856e-03 6.304048061370849609e+00 1.891720890998840332e+00 -2.749997973442077637e-01
1.067000000000000000e+03 7.935767364501953125e+01 2.231422042846679688e+01 -9.549564856570214033e-05 5.970646858215332031e+00 1.791165351867675781e+00 -1.010309010744094849e-01
1.068000000000000000e+03 7.814013671875000000e+01 3.074394226074218750e+01 2.080452069640159607e-02 5.175466060638427734e+00 1.558881163597106934e+00 -1.933379024267196655e-01
1.069000000000000000e+03 7.795051574707031250e+01 2.792712593078613281e+01 2.112090587615966797e-02 5.488902568817138672e+00 1.653007030487060547e+00 -2.475715577602386475e-01
1.070000000000000000e+03 7.931758117675781250e+01 2.789256858825683594e+01 4.394576884806156158e-03 5.211441516876220703e+00 1.564750790596008301e+00 -9.025286883115768433e-02
1.071000000000000000e+03 7.802056884765625000e+01 2.509048461914062500e+01 7.891806773841381073e-03 5.800663948059082031e+00 1.742566704750061035e+00 -2.703581750392913818e-01
1.072000000000000000e+03 7.804808044433593750e+01 2.370228385925292969e+01 4.562427755445241928e-03 5.967967510223388672e+00 1.791759014129638672e+00 -2.748576104640960693e-01
1.073000000000000000e+03 7.809629058837890625e+01 1.825749206542968750e+01 1.118770342145580798e-06 6.649197101593017578e+00 1.994759440422058105e+00 -2.703793346881866455e-01
1.074000000000000000e+03 7.808660888671875000e+01 1.553008651733398438e+01 -3.773007076233625412e-03 6.989820480346679688e+00 2.095814228057861328e+00 -2.628274559974670410e-01
1.075000000000000000e+03 7.809373474121093750e+01 1.689275360107421875e+01 -3.117659129202365875e-03 6.821408271789550781e+00 2.045487165451049805e+00 -2.680754065513610840e-01
1.076000000000000000e+03 7.806819915771484375e+01 1.277957248687744141e+01 -5.539606790989637375e-03 7.316467761993408203e+00 2.193278551101684570e+00 -2.515452802181243896e-01
1.077000000000000000e+03 7.677065277099609375e+01 1.152449512481689453e+01 -1.801330968737602234e-02 7.469704627990722656e+00 2.235507249832153320e+00 -3.796065747737884521e-01
1.078000000000000000e+03 7.803729248046875000e+01 8.606091499328613281e+00 -8.817654103040695190e-03 7.766157627105712891e+00 2.327201843261718750e+00 -2.235131263732910156e-01
1.079000000000000000e+03 7.934849548339843750e+01 9.840310096740722656e+00 -1.916318084113299847e-03 7.660161495208740234e+00 2.297473669052124023e+00 -8.891907334327697754e-02
1.080000000000000000e+03 7.933876037597656250e+01 -1.944656372070312500e+01 -5.330906715244054794e-04 9.378871917724609375e+00 2.813501596450805664e+00 -2.064487338066101074e-02
1.081000000000000000e+03 7.934603881835937500e+01 -1.387177944183349609e+01 -1.368912286125123501e-03 9.252714157104492188e+00 2.775403499603271484e+00 -2.811708487570285797e-02
1.082000000000000000e+03 7.934918212890625000e+01 -6.903631687164306641e+00 -1.588468789122998714e-03 8.998409271240234375e+00 2.699046134948730469e+00 -4.214707016944885254e-02
1.083000000000000000e+03 7.804740142822265625e+01 2.054798752069473267e-01 -9.337729774415493011e-03 8.470684051513671875e+00 2.538403749465942383e+00 -1.528593003749847412e-01
1.084000000000000000e+03 7.934655761718750000e+01 1.470083832740783691e+00 -2.245297189801931381e-03 8.479269027709960938e+00 2.543107032775878906e+00 -6.533833593130111694e-02
1.085000000000000000e+03 7.670623016357421875e+01 7.330109596252441406e+00 -2.299703843891620636e-02 7.855450153350830078e+00 2.349735975265502930e+00 -3.321986794471740723e-01
1.086000000000000000e+03 7.793436431884765625e+01 2.940699958801269531e+01 1.418148912489414215e-02 5.329712390899658203e+00 1.603168249130249023e+00 -2.267162352800369263e-01
1.087000000000000000e+03 7.865898895263671875e+01 4.035831069946289062e+01 2.377055957913398743e-02 4.556850433349609375e+00 1.374186277389526367e+00 9.496195614337921143e-02
1.088000000000000000e+03 7.458213043212890625e+01 3.760512542724609375e+01 1.487473845481872559e-01 5.498515129089355469e+00 1.694178700447082520e+00 -2.339190393686294556e-01
1.089000000000000000e+03 7.804715728759765625e+01 1.000108051300048828e+01 -7.431437261402606964e-03 7.623129844665527344e+00 2.284709453582763672e+00 -2.343525439500808716e-01
1.090000000000000000e+03 7.675160217285156250e+01 2.828355133533477783e-01 -2.225095964968204498e-02 8.373868942260742188e+00 2.505485296249389648e+00 -2.369645237922668457e-01
1.091000000000000000e+03 7.803546142578125000e+01 3.004048585891723633e+00 -9.621187113225460052e-03 8.265607833862304688e+00 2.476796150207519531e+00 -1.771632283926010132e-01
1.092000000000000000e+03 7.675395202636718750e+01 -1.125979065895080566e+00 -2.200770378112792969e-02 8.457829475402832031e+00 2.530746698379516602e+00 -2.190392464399337769e-01
1.093000000000000000e+03 7.934811401367187500e+01 -2.718888998031616211e+00 -1.635661930777132511e-03 8.773415565490722656e+00 2.631533861160278320e+00 -5.306887626647949219e-02
1.094000000000000000e+03 7.804975891113281250e+01 -6.798363208770751953e+00 -7.100125309079885483e-03 8.858041763305664062e+00 2.655282258987426758e+00 -1.009010076522827148e-01
1.095000000000000000e+03 7.804844665527343750e+01 -5.405061721801757812e+00 -7.567889057099819183e-03 8.794049263000488281e+00 2.635944604873657227e+00 -1.100047603249549866e-01
1.096000000000000000e+03 7.934787750244140625e+01 -9.689510345458984375e+00 -1.277816598303616047e-03 9.115873336791992188e+00 2.734378576278686523e+00 -3.605240210890769958e-02
1.097000000000000000e+03 7.804670715332031250e+01 -1.237113952636718750e+01 -5.271142814308404922e-03 9.060266494750976562e+00 2.716498374938964844e+00 -7.007925957441329956e-02
1.098000000000000000e+03 7.934140014648437500e+01 -1.665837097167968750e+01 -1.118038315325975418e-03 9.322206497192382812e+00 2.796326637268066406e+00 -2.381209842860698700e-02
1.099000000000000000e+03 7.802116394042968750e+01 -2.072398948669433594e+01 -3.677598433569073677e-03 9.242981910705566406e+00 2.771791219711303711e+00 -4.083761572837829590e-02
1.100000000000000000e+03 7.801863861083984375e+01 -1.933629417419433594e+01 -3.309217980131506920e-03 9.219343185424804688e+00 2.764810085296630859e+00 -4.371026903390884399e-02
1.101000000000000000e+03 1.305142307281494141e+01 -3.010418319702148438e+01 3.898456227034330368e-03 4.022544599138200283e-04 1.290213200263679028e-03 -2.257043961435556412e-04
1.102000000000000000e+03 2.212756919860839844e+01 1.473265767097473145e+00 -1.320452895015478134e-02 2.344365835189819336e+00 6.993483901023864746e-01 2.466724961996078491e-01
1.103000000000000000e+03 2.343975639343261719e+01 1.480575919151306152e+00 -7.575097959488630295e-03 2.528774261474609375e+00 7.563596963882446289e-01 3.451008498668670654e-01
1.104000000000000000e+03 2.019029998779296875e+01 -1.395600605010986328e+01 6.460328400135040283e-02 2.965520143508911133e+00 9.090370535850524902e-01 1.707550138235092163e-01
1.105000000000000000e+03 1.382041740417480469e+01 -3.875626373291015625e+01 -1.096786707639694214e-01 3.190632164478302002e-02 -2.333170548081398010e-02 -5.282634124159812927e-02
1.106000000000000000e+03 1.987082290649414062e+01 -1.816813278198242188e+01 -2.378629520535469055e-02 2.553545236587524414e+00 7.589277029037475586e-01 1.569079160690307617e-01
1.107000000000000000e+03 1.124044036865234375e+01 -3.220227813720703125e+01 -9.678618051111698151e-03 -3.095623804256320000e-03 -3.832272486761212349e-03 8.562167175114154816e-03
1.108000000000000000e+03 2.040587425231933594e+01 -5.517552852630615234e+00 -2.366924285888671875e-02 2.357205390930175781e+00 7.000608444213867188e-01 1.222963333129882812e-01
1.109000000000000000e+03 2.206148910522460938e+01 7.998585700988769531e-02 -2.520372346043586731e-02 2.431392192840576172e+00 7.218565344810485840e-01 2.699616551399230957e-01
1.110000000000000000e+03 2.171296691894531250e+01 -8.326724052429199219e+00 5.674485117197036743e-03 2.764569520950317383e+00 8.310732245445251465e-01 1.833042651414871216e-01
1.111000000000000000e+03 2.137784385681152344e+01 -1.962977600097656250e+01 -4.738211259245872498e-02 2.868660449981689453e+00 8.463835120201110840e-01 1.479449719190597534e-01
1.112000000000000000e+03 2.180609321594238281e+01 -5.526249408721923828e+00 -4.964144527912139893e-02 2.653205633163452148e+00 7.810692787170410156e-01 1.946899294853210449e-01
1.113000000000000000e+03 1.971412849426269531e+01 -3.363029098510742188e+01 1.267039030790328979e-01 3.170703172683715820e+00 9.892221093177795410e-01 1.279392689466476440e-01
1.114000000000000000e+03 2.149238967895507812e+01 -1.538506889343261719e+01 3.671851009130477905e-02 2.910620927810668945e+00 8.842018842697143555e-01 1.239674687385559082e-01
1.115000000000000000e+03 2.154689407348632812e+01 -1.396975326538085938e+01 6.531638652086257935e-02 2.886094093322753906e+00 8.854231238365173340e-01 1.657500863075256348e-01
1.116000000000000000e+03 2.187269973754882812e+01 -4.124910354614257812e+00 -2.212186716496944427e-02 2.601454496383666992e+00 7.737998366355895996e-01 1.809718459844589233e-01
1.117000000000000000e+03 2.233620834350585938e+01 7.154451370239257812e+00 4.521729890257120132e-03 1.826201796531677246e+00 5.492170453071594238e-01 3.046911954879760742e-01
1.118000000000000000e+03 2.482292747497558594e+01 -2.262156295776367188e+01 -4.990483820438385010e-02 3.306298971176147461e+00 9.769182205200195312e-01 1.259458512067794800e-01
1.119000000000000000e+03 1.193465328216552734e+01 -2.734937095642089844e+01 -3.887410275638103485e-03 -1.174347475171089172e-03 -1.518527278676629066e-03 -2.446440157655160874e-05
1.120000000000000000e+03 2.219979858398437500e+01 2.881211280822753906e+00 3.675432875752449036e-02 2.241736412048339844e+00 6.835471987724304199e-01 2.583215832710266113e-01
1.121000000000000000e+03 1.448720169067382812e+01 -2.482974052429199219e+01 -5.409193225204944611e-03 7.174168713390827179e-04 -1.407532952725887299e-03 -4.721095610875636339e-04
1.122000000000000000e+03 1.208400249481201172e+01 -2.493589019775390625e+01 -3.216673852875828743e-03 -9.702535462565720081e-04 -1.256078248843550682e-03 -8.082532440312206745e-04
1.123000000000000000e+03 2.126338386535644531e+01 -2.669781494140625000e+01 5.006474442780017853e-03 2.934137582778930664e+00 8.817432522773742676e-01 7.733815908432006836e-02
1.124000000000000000e+03 2.100272369384765625e+01 2.682741165161132812e+01 9.795999154448509216e-03 -9.563581347465515137e-01 -2.839686274528503418e-01 -2.710592932999134064e-02
1.125000000000000000e+03 2.536036109924316406e+01 3.361486816406250000e+01 -2.378109097480773926e-01 1.760499551892280579e-02 -6.606177240610122681e-02 -2.934091091156005859e-01
1.126000000000000000e+03 2.107305335998535156e+01 1.135621547698974609e+01 -5.175023688934743404e-04 8.772268891334533691e-01 2.630128264427185059e-01 1.106391847133636475e-01
1.127000000000000000e+03 2.096901321411132812e+01 3.099735641479492188e+01 1.850676373578608036e-03 -4.986482560634613037e-01 -1.490392684936523438e-01 -7.543046027421951294e-02
1.128000000000000000e+03 1.483021545410156250e+01 -2.151931285858154297e+00 -3.614578163251280785e-04 -9.554150165058672428e-05 -1.370997924823313951e-04 -4.242207069182768464e-05
1.129000000000000000e+03 2.167402458190917969e+01 -9.734648704528808594e+00 2.691763453185558319e-02 2.805516958236694336e+00 8.497303724288940430e-01 1.536228656768798828e-01
1.130000000000000000e+03 2.175451278686523438e+01 -6.924633502960205078e+00 -3.039885684847831726e-02 2.697554111480712891e+00 8.001465797424316406e-01 1.905454993247985840e-01
1.131000000000000000e+03 2.235285758972167969e+01 9.991327285766601562e+00 -5.772201810032129288e-03 1.413545727729797363e+00 4.223320782184600830e-01 3.129532635211944580e-01
1.132000000000000000e+03 2.351811408996582031e+01 1.710971069335937500e+01 2.806111611425876617e-02 7.134705185890197754e-01 2.224594950675964355e-01 4.820224344730377197e-01
1.133000000000000000e+03 2.103374099731445312e+01 2.261263847351074219e+01 9.945002384483814240e-03 -8.913792967796325684e-01 -2.644302845001220703e-01 5.064380913972854614e-02
1.134000000000000000e+03 2.333968162536621094e+01 2.555885314941406250e+01 1.312396675348281860e-01 -2.304821163415908813e-01 -2.977273613214492798e-02 2.548242174088954926e-02
1.135000000000000000e+03 2.104663467407226562e+01 1.979903411865234375e+01 5.748770199716091156e-03 -5.721647143363952637e-01 -1.699247956275939941e-01 8.810440450906753540e-02
1.136000000000000000e+03 2.226409149169921875e+01 1.985886192321777344e+01 2.775797620415687561e-02 -1.039645150303840637e-01 -2.286196127533912659e-02 2.488308846950531006e-01
1.137000000000000000e+03 2.346277999877929688e+01 1.991905021667480469e+01 6.829223781824111938e-02 3.223491609096527100e-01 1.171924248337745667e-01 3.976887762546539307e-01
1.138000000000000000e+03 2.229514312744140625e+01 1.704573822021484375e+01 1.044671516865491867e-02 3.044070005416870117e-01 9.445611387491226196e-02 3.053416013717651367e-01
1.139000000000000000e+03 2.228013038635253906e+01 1.845251655578613281e+01 1.909725740551948547e-02 9.261472523212432861e-02 3.351359441876411438e-02 2.834633290767669678e-01
1.140000000000000000e+03 2.210226058959960938e+01 2.826807212829589844e+01 4.218503460288047791e-02 -5.520290732383728027e-01 -1.529532074928283691e-01 -1.377820968627929688e-01
1.141000000000000000e+03 2.337268257141113281e+01 2.414501953125000000e+01 1.293779462575912476e-01 -1.378984004259109497e-01 -2.556134015321731567e-03 1.401845216751098633e-01
1.142000000000000000e+03 2.232611656188964844e+01 1.422904109954833984e+01 -1.376074855215847492e-03 7.515506148338317871e-01 2.250523716211318970e-01 3.246806859970092773e-01
1.143000000000000000e+03 1.325926494598388672e+01 -1.466246128082275391e+01 -2.152475994080305099e-03 -2.426256542094051838e-04 -7.185305003076791763e-04 4.404366191010922194e-04
1.144000000000000000e+03 1.360572052001953125e+01 -7.946788787841796875e+00 1.436984515748918056e-03 1.244647864950820804e-04 4.684347950387746096e-04 -1.903650700114667416e-04
1.145000000000000000e+03 1.461302947998046875e+01 -7.934534549713134766e+00 -1.656327396631240845e-03 -4.959733632858842611e-05 -5.117774126119911671e-04 5.432630496216006577e-05
1.146000000000000000e+03 1.176620769500732422e+01 -3.487804889678955078e+00 9.952657856047153473e-04 8.982397412182763219e-05 3.255269548390060663e-04 -4.600245447363704443e-04
1.147000000000000000e+03 1.343046951293945312e+01 -1.196636390686035156e+01 -1.909113023430109024e-03 -1.423028297722339630e-04 -6.154247676022350788e-04 3.093159466516226530e-04
1.148000000000000000e+03 1.455272102355957031e+01 -1.209229373931884766e+01 2.210319275036454201e-03 7.443038339260965586e-05 6.854249513708055019e-04 -2.529369085095822811e-04
1.149000000000000000e+03 1.365445804595947266e+01 -5.332671642303466797e+00 1.159455976448953152e-03 1.045628523570485413e-04 3.792056522797793150e-04 -1.131197277572937310e-04
1.150000000000000000e+03 1.462749862670898438e+01 -5.192354679107666016e+00 -1.208134344778954983e-03 -7.334705151151865721e-05 -3.844444290734827518e-04 -8.437442011199891567e-05
1.151000000000000000e+03 1.449426364898681641e+01 -1.486898994445800781e+01 2.558153122663497925e-03 1.642490824451670051e-04 8.167206542566418648e-04 -4.180305695626884699e-04
1.152000000000000000e+03 1.432975006103515625e+01 -1.905444335937500000e+01 -3.464813344180583954e-03 2.078690886264666915e-05 -1.033207983709871769e-03 7.131798774935305119e-04
1.153000000000000000e+03 2.206562995910644531e+01 2.963732147216796875e+01 2.683161199092864990e-02 -4.706558585166931152e-01 -1.331472843885421753e-01 -1.849120557308197021e-01
1.154000000000000000e+03 2.321966171264648438e+01 2.832839775085449219e+01 1.000499501824378967e-01 -3.033959269523620605e-01 -6.100378930568695068e-02 -1.765214353799819946e-01
1.155000000000000000e+03 1.371479153633117676e+00 -4.009103012084960938e+01 7.122319657355546951e-03 -1.712415553629398346e-02 -3.000550437718629837e-03 -6.338240345939993858e-04
1.156000000000000000e+03 6.977836489677429199e-01 3.739871978759765625e+01 -2.919078338891267776e-03 -1.042709773173555732e-04 -9.070048108696937561e-04 8.025923161767423153e-04
1.157000000000000000e+03 6.742836833000183105e-01 3.325417327880859375e+01 1.313708140514791012e-03 7.671435741940513253e-05 4.171267501078546047e-04 -1.075152540579438210e-04
1.158000000000000000e+03 2.315613746643066406e+00 3.812543487548828125e+01 -2.268048701807856560e-03 -5.183189641684293747e-04 -8.359103230759501457e-04 1.084578456357121468e-03
1.159000000000000000e+03 6.398963928222656250e-01 2.622957420349121094e+01 -1.733570592477917671e-03 -1.042580606736009941e-05 -5.231989198364317417e-04 1.008043273031944409e-05
1.160000000000000000e+03 1.889280438423156738e+00 2.900768470764160156e+01 1.870284555479884148e-03 -1.482915831729769707e-04 5.165978800505399704e-04 3.748077433556318283e-04
1.161000000000000000e+03 7.730214595794677734e-01 -3.599618530273437500e+01 -6.495817564427852631e-03 -9.474750608205795288e-03 -4.791170358657836914e-03 -3.284818259999155998e-03
1.162000000000000000e+03 2.132979631423950195e+00 -3.300350570678710938e+01 4.284959752112627029e-03 -2.754794899374246597e-03 4.590494791045784950e-04 -1.837202929891645908e-03
1.163000000000000000e+03 3.076739072799682617e+00 2.763142013549804688e+01 2.018907107412815094e-03 -2.774235908873379230e-04 5.224450142122805119e-04 4.541656526271253824e-04
1.164000000000000000e+03 3.305665016174316406e+00 2.489903831481933594e+01 1.857541617937386036e-03 4.540534064290113747e-05 5.708840908482670784e-04 1.421308988938108087e-04
1.165000000000000000e+03 2.066515445709228516e+00 3.315056228637695312e+01 -1.439366606064140797e-03 -3.617567708715796471e-04 -5.403370014391839504e-04 -5.242250699666328728e-05
1.166000000000000000e+03 3.221424818038940430e+00 3.914208602905273438e+01 1.692546298727393150e-03 1.871460881375242025e-05 5.133782397024333477e-04 -9.835092350840568542e-04
1.167000000000000000e+03 2.008366823196411133e+00 -3.025488853454589844e+01 3.636973211541771889e-03 -3.894160035997629166e-04 9.742671973071992397e-04 -5.214291159063577652e-04
1.168000000000000000e+03 1.956938505172729492e+00 -2.747273063659667969e+01 3.489842405542731285e-03 1.987764408113434911e-04 1.106585725210607052e-03 2.013453631661832333e-04
1.169000000000000000e+03 2.377820014953613281e+00 -3.698326873779296875e+01 -5.774475168436765671e-03 -9.775782003998756409e-03 -4.665077198296785355e-03 -7.934241555631160736e-03
1.170000000000000000e+03 1.994333148002624512e+00 -2.181167793273925781e+01 2.641737461090087891e-03 3.507988003548234701e-04 8.977609104476869106e-04 4.936151672154664993e-04
1.171000000000000000e+03 6.351664066314697266e-01 1.916381645202636719e+01 1.484139123931527138e-03 -3.249249630243866704e-06 4.442669451236724854e-04 2.451169348205439746e-05
1.172000000000000000e+03 6.167505383491516113e-01 1.350349521636962891e+01 1.253296737559139729e-03 -3.520716063576401211e-06 3.749328316189348698e-04 -3.786858724197372794e-05
1.173000000000000000e+03 5.610862970352172852e-01 7.835863113403320312e+00 7.953536696732044220e-04 1.084282212104881182e-05 2.418589428998529911e-04 -7.512185402447357774e-05
1.174000000000000000e+03 3.649670362472534180e+00 -3.915279769897460938e+01 -2.196917776018381119e-03 -1.096272002905607224e-02 -3.947891294956207275e-03 -8.156190626323223114e-03
1.175000000000000000e+03 3.914504528045654297e+00 -3.553400802612304688e+01 -7.645823527127504349e-03 -4.714050330221652985e-03 -3.707962110638618469e-03 -7.362044416368007660e-03
1.176000000000000000e+03 2.220100164413452148e+00 -3.437306213378906250e+01 -6.007135380059480667e-03 -5.083164200186729431e-03 -3.327089827507734299e-03 -5.004248581826686859e-03
1.177000000000000000e+03 2.062704801559448242e+00 -3.163339042663574219e+01 -5.285638384521007538e-03 -1.842339057475328445e-03 -2.138393232598900795e-03 -2.946389140561223030e-03
1.178000000000000000e+03 3.243237733840942383e+00 -2.738756561279296875e+01 -4.552355967462062836e-03 -5.715271254302933812e-05 -1.382852555252611637e-03 -6.077059078961610794e-04
1.179000000000000000e+03 2.006087541580200195e+00 -2.323312950134277344e+01 -2.837382722645998001e-03 1.722587912809103727e-04 -7.995371706783771515e-04 -2.459675888530910015e-04
1.180000000000000000e+03 1.965171337127685547e+00 -2.607119750976562500e+01 -3.549268934875726700e-03 3.377446264494210482e-04 -9.634573361836373806e-04 -3.549887624103575945e-04
1.181000000000000000e+03 3.242685317993164062e+00 -2.024891281127929688e+01 2.816363936290144920e-03 8.286040247185155749e-05 8.697673329152166843e-04 4.777204012498259544e-04
1.182000000000000000e+03 6.394727230072021484e-01 -1.911101722717285156e+01 -2.073303563520312309e-03 1.712032972136512399e-04 -5.706300726160407066e-04 -1.544083352200686932e-04
1.183000000000000000e+03 1.911004662513732910e+00 -1.898190116882324219e+01 2.325015608221292496e-03 1.237240358022972941e-04 7.346218917518854141e-04 3.443404566496610641e-04
1.184000000000000000e+03 1.866586565971374512e+00 -1.618874931335449219e+01 1.921201008372008801e-03 1.044793170876801014e-04 6.077041034586727619e-04 3.494884294923394918e-04
1.185000000000000000e+03 6.030287742614746094e-01 -1.206852149963378906e+01 1.263604965060949326e-03 4.181567783234640956e-05 3.916261775884777308e-04 9.067239443538710475e-05
1.186000000000000000e+03 1.814020991325378418e+00 -1.198870563507080078e+01 -1.343980897217988968e-03 -1.050885548465885222e-04 -4.347208305262029171e-04 -1.337926660198718309e-04
1.187000000000000000e+03 4.620972156524658203e+00 -4.124188423156738281e+00 5.058756869402714074e-05 -5.067492602393031120e-04 -1.368485100101679564e-04 -3.363834694027900696e-04
1.188000000000000000e+03 3.662402391433715820e+00 -2.773721933364868164e+00 2.829807053785771132e-04 9.907728963298723102e-05 1.146173963206820190e-04 2.089851186610758305e-04
1.189000000000000000e+03 2.716078996658325195e+00 -4.168998241424560547e+00 6.495792185887694359e-04 1.646278687985613942e-04 2.442621334921568632e-04 -4.107157874386757612e-04
1.190000000000000000e+03 1.378764629364013672e+00 -3.568452358245849609e+00 -7.703809533268213272e-04 5.028853775002062321e-05 -2.160277363145723939e-04 -8.342175715370103717e-05
1.191000000000000000e+03 4.759180843830108643e-01 5.031942367553710938e+00 7.985626580193638802e-04 7.419318717438727617e-05 2.618267608340829611e-04 9.102110925596207380e-05
1.192000000000000000e+03 2.436940670013427734e+00 4.442577838897705078e+00 -1.071650476660579443e-04 -9.706792297947686166e-06 -3.506155189825221896e-05 -3.466447524260729551e-04
1.193000000000000000e+03 1.753755211830139160e+00 1.063507175445556641e+01 -1.085839234292507172e-03 1.722180422802921385e-05 -3.205852408427745104e-04 1.200645710923708975e-04
1.194000000000000000e+03 5.882398486137390137e-01 1.067135429382324219e+01 1.048390520736575127e-03 -4.104942490812391043e-06 3.132856800220906734e-04 -6.340373511193320155e-05
1.195000000000000000e+03 1.847387194633483887e+00 1.347404193878173828e+01 -1.292645814828574657e-03 2.617186692077666521e-05 -3.799421829171478748e-04 7.190644100774079561e-05
1.196000000000000000e+03 1.920513272285461426e+00 2.057410240173339844e+01 1.607388257980346680e-03 -2.899347236962057650e-05 4.735184484161436558e-04 1.516462507424876094e-04
1.197000000000000000e+03 1.898380637168884277e+00 1.914753150939941406e+01 -1.616535708308219910e-03 4.110727968509308994e-05 -4.726285405922681093e-04 -9.812897042138502002e-05
1.198000000000000000e+03 1.964549183845520020e+00 2.482777976989746094e+01 -1.735637313686311245e-03 -7.065819954732432961e-05 -5.418886430561542511e-04 -4.466901373234577477e-05
1.199000000000000000e+03 3.792794036865234375e+01 3.218013000488281250e+01 4.456880569458007812e+00 2.255829572677612305e+00 2.013813018798828125e+00 3.806139707565307617e+00
1.200000000000000000e+03 3.733698272705078125e+01 3.266633987426757812e+01 2.984586715698242188e+00 5.295516252517700195e-01 1.054241538047790527e+00 1.842505455017089844e+00
1.201000000000000000e+03 3.792557525634765625e+01 3.188681793212890625e+01 4.430319309234619141e+00 2.974103689193725586e+00 2.221326828002929688e+00 4.261190891265869141e+00
1.202000000000000000e+03 3.814046096801757812e+01 3.210809326171875000e+01 4.787109851837158203e+00 3.179839372634887695e+00 2.390084743499755859e+00 4.512943744659423828e+00
1.203000000000000000e+03 3.771482849121093750e+01 3.261925506591796875e+01 3.553029060363769531e+00 8.539879322052001953e-01 1.322105050086975098e+00 2.390013694763183594e+00
1.204000000000000000e+03 3.857624053955078125e+01 3.166744422912597656e+01 4.539647579193115234e+00 6.006725788116455078e+00 3.163912057876586914e+00 5.819985866546630859e+00
1.205000000000000000e+03 3.878407669067382812e+01 3.630902481079101562e+01 8.007587790489196777e-01 6.138865470886230469e+00 2.081887245178222656e+00 -3.866565704345703125e+00
1.206000000000000000e+03 3.966999435424804688e+01 3.770594024658203125e+01 -6.202324032783508301e-01 1.052637672424316406e+01 2.971843242645263672e+00 -2.112127780914306641e+00
1.207000000000000000e+03 3.852667617797851562e+01 3.573555374145507812e+01 1.052806258201599121e+00 3.844541311264038086e+00 1.469204306602478027e+00 -3.350018262863159180e+00
1.208000000000000000e+03 4.004185867309570312e+01 3.668871688842773438e+01 -8.202862143516540527e-01 1.331094837188720703e+01 3.747198581695556641e+00 -2.764269113540649414e+00
1.209000000000000000e+03 3.942953872680664062e+01 3.631226730346679688e+01 1.269415766000747681e-01 9.887637138366699219e+00 3.004373550415039062e+00 -3.527251720428466797e+00
1.210000000000000000e+03 3.480970001220703125e+01 3.183325576782226562e+01 1.407946109771728516e+00 4.912663698196411133e-01 5.697637200355529785e-01 8.506729602813720703e-01
1.211000000000000000e+03 3.248549652099609375e+01 3.283488464355468750e+01 -1.806614100933074951e-01 1.488978266716003418e-01 -9.529076516628265381e-03 -2.137168869376182556e-02
1.212000000000000000e+03 3.360890960693359375e+01 3.206154251098632812e+01 6.864255070686340332e-01 2.910501360893249512e-01 2.932426929473876953e-01 3.162304162979125977e-01
1.213000000000000000e+03 4.102005767822265625e+01 3.858042144775390625e+01 -1.271113276481628418e+00 1.342128086090087891e+01 3.645050287246704102e+00 -8.742080926895141602e-01
1.214000000000000000e+03 4.055922317504882812e+01 3.128383636474609375e+01 2.043532609939575195e+00 1.584150886535644531e+01 5.365512371063232422e+00 4.004391670227050781e+00
1.215000000000000000e+03 4.012997817993164062e+01 3.148885154724121094e+01 2.551537513732910156e+00 1.515855312347412109e+01 5.313026905059814453e+00 4.815929412841796875e+00
1.216000000000000000e+03 3.422649002075195312e+01 3.195893096923828125e+01 1.034832000732421875e+00 3.523178398609161377e-01 4.161449372768402100e-01 5.374295115470886230e-01
1.217000000000000000e+03 2.679123306274414062e+01 3.354621124267578125e+01 -3.294481635093688965e-01 7.220768183469772339e-02 -7.717213779687881470e-02 -3.005271852016448975e-01
1.218000000000000000e+03 1.935725212097167969e+01 3.904023742675781250e+01 8.775185793638229370e-03 -6.502707838080823421e-04 2.437474438920617104e-03 8.982635335996747017e-04
1.219000000000000000e+03 2.145487403869628906e+01 3.917828750610351562e+01 -3.059174166992306709e-03 -2.416266873478889465e-02 -8.166552521288394928e-03 1.601874269545078278e-02
1.220000000000000000e+03 1.386372852325439453e+01 2.697056293487548828e+00 -4.412419220898300409e-04 1.691788784228265285e-04 -8.161890582414343953e-05 -8.732936839805915952e-05
1.221000000000000000e+03 3.801746368408203125e+00 2.762180805206298828e+00 3.660271177068352699e-04 1.441554049961268902e-04 1.530547597212716937e-04 -7.274228119058534503e-05
1.222000000000000000e+03 6.006422996520996094e+00 2.659523963928222656e+00 -2.435533970128744841e-04 -1.926116237882524729e-04 -1.308495120611041784e-04 6.618761835852637887e-05
1.223000000000000000e+03 5.978964805603027344e+00 3.450598716735839844e+00 3.011555527336895466e-04 2.170005755033344030e-04 1.554468326503410935e-04 -5.453975245472975075e-05
1.224000000000000000e+03 6.697644710540771484e+00 3.429968595504760742e+00 -3.089621604885905981e-04 -2.139637363143265247e-04 -1.568777661304920912e-04 5.464921559905633330e-05
1.225000000000000000e+03 8.900753021240234375e+00 3.380075931549072266e+00 3.073210245929658413e-04 1.561871031299233437e-04 1.390524412272498012e-04 9.121389302890747786e-05
1.226000000000000000e+03 6.730083942413330078e+00 2.645225048065185547e+00 2.390945446677505970e-04 1.916977780638262630e-04 1.292376982746645808e-04 -5.040233736508525908e-05
1.227000000000000000e+03 7.416169166564941406e+00 3.411039590835571289e+00 2.566167095210403204e-04 2.253724815091118217e-04 1.445967500330880284e-04 -3.585037484299391508e-05
1.228000000000000000e+03 4.490345001220703125e+00 3.580972671508789062e+00 3.132637357339262962e-04 1.979842782020568848e-04 1.533744070911780000e-04 -1.521584781585261226e-04
1.229000000000000000e+03 4.531792640686035156e+00 2.731881856918334961e+00 -2.772675361484289169e-04 -1.707383780740201473e-04 -1.344017655355855823e-04 1.183032727567479014e-04
1.230000000000000000e+03 2.442280054092407227e+00 2.679637908935546875e+00 3.894310502801090479e-04 1.706981129245832562e-04 1.680387504165992141e-04 -1.019005867419764400e-05
1.231000000000000000e+03 1.113431167602539062e+01 2.516124486923217773e+00 3.393182414583861828e-04 -4.747459570353385061e-06 1.003712313831783831e-04 -9.207907714881002903e-05
1.232000000000000000e+03 1.120123004913330078e+01 3.242929458618164062e+00 -5.023014964535832405e-04 8.129687194013968110e-05 -1.263013837160542607e-04 7.464574446203187108e-05
1.233000000000000000e+03 2.668324661254882812e+01 3.278398895263671875e+01 -1.866788417100906372e-01 7.964833080768585205e-02 -3.210915252566337585e-02 -3.371254503726959229e-01
1.234000000000000000e+03 2.377760696411132812e+01 3.351942062377929688e+01 -1.295336633920669556e-01 -6.678519397974014282e-02 -5.889565497636795044e-02 -2.580766081809997559e-01
1.235000000000000000e+03 2.456464767456054688e+01 3.278190994262695312e+01 -1.194286569952964783e-01 -3.390952944755554199e-02 -4.600145667791366577e-02 -3.180617392063140869e-01
1.236000000000000000e+03 3.016585922241210938e+01 3.249540710449218750e+01 -1.127288416028022766e-01 1.811960637569427490e-01 2.054016664624214172e-02 -2.030494809150695801e-01
1.237000000000000000e+03 3.087643623352050781e+01 3.241912841796875000e+01 -3.541652485728263855e-02 1.987875998020172119e-01 4.901132360100746155e-02 -1.408860385417938232e-01
1.238000000000000000e+03 2.203196716308593750e+01 3.222768402099609375e+01 -1.687492243945598602e-02 -2.551419734954833984e-01 -8.160506933927536011e-02 -2.020420283079147339e-01
1.239000000000000000e+03 2.436790275573730469e+01 3.200448989868164062e+01 -4.894076660275459290e-02 -7.724857330322265625e-02 -3.785680234432220459e-02 -3.288380503654479980e-01
1.240000000000000000e+03 2.807421493530273438e+01 3.271219253540039062e+01 -2.021396607160568237e-01 1.321782320737838745e-01 -2.098842710256576538e-02 -3.067851364612579346e-01
1.241000000000000000e+03 2.876388168334960938e+01 3.264219284057617188e+01 -1.862600892782211304e-01 1.453287303447723389e-01 -1.227941084653139114e-02 -2.819628417491912842e-01
1.242000000000000000e+03 2.946113204956054688e+01 3.256882476806640625e+01 -1.567312926054000854e-01 1.659484952688217163e-01 2.765162847936153412e-03 -2.489861547946929932e-01
1.243000000000000000e+03 3.158628082275390625e+01 3.233761596679687500e+01 7.345847040414810181e-02 2.045148015022277832e-01 8.339197933673858643e-02 -6.511297821998596191e-02
1.244000000000000000e+03 1.256108093261718750e+01 2.796426534652709961e+00 -8.501164120389148593e-05 -3.493051190162077546e-05 -3.598264447646215558e-05 1.607392478035762906e-04
1.245000000000000000e+03 9.502267837524414062e+00 -3.420686006546020508e+00 -3.258385695517063141e-04 -3.311013570055365562e-04 -1.970819721464067698e-04 1.657119282754138112e-04
1.246000000000000000e+03 1.362899684906005859e+01 -4.088069438934326172e+00 -1.039682654663920403e-03 -1.548095024190843105e-04 -3.583476354833692312e-04 1.534563634777441621e-04
1.247000000000000000e+03 9.419686317443847656e+00 -4.194984912872314453e+00 3.728041774593293667e-04 3.343470452819019556e-04 2.121453726431354880e-04 -1.281998411286622286e-04
1.248000000000000000e+03 1.365067863464355469e+01 -2.991543292999267578e+00 9.822538122534751892e-04 7.919991185190156102e-05 3.184360975865274668e-04 -2.146993938367813826e-04
1.249000000000000000e+03 1.243342113494873047e+01 -2.669163942337036133e+00 6.320449756458401680e-04 -6.530524842673912644e-05 1.700219145277515054e-04 4.816021464648656547e-05
1.250000000000000000e+03 1.292769622802734375e+01 3.216349124908447266e+00 -2.921123086707666516e-05 -1.561384706292301416e-04 -5.560490899370051920e-05 -3.113871789537370205e-04
1.251000000000000000e+03 1.353307723999023438e+01 4.227386951446533203e+00 -7.132770260795950890e-04 -4.566234565572813153e-06 -2.153529785573482513e-04 -3.242058301111683249e-05
1.252000000000000000e+03 6.530299663543701172e+00 -3.377525329589843750e+00 -5.483258864842355251e-04 -1.901801879284903407e-04 -2.215518179582431912e-04 -6.166763341752812266e-05
1.253000000000000000e+03 2.686992883682250977e+00 -7.758904933929443359e+00 -1.153031713329255581e-03 -5.284874350763857365e-05 -3.617641632445156574e-04 -6.798548838560236618e-06
1.254000000000000000e+03 7.890091896057128906e+00 -4.981563568115234375e+00 -6.360274855978786945e-04 -3.300179087091237307e-04 -2.898136153817176819e-04 -9.243056410923600197e-05
1.255000000000000000e+03 5.827136039733886719e+00 -3.359214067459106445e+00 5.241543403826653957e-04 1.954341278178617358e-04 2.158765419153496623e-04 3.618014488893095404e-06
1.256000000000000000e+03 5.812777042388916016e+00 -2.602875471115112305e+00 -3.566732921171933413e-04 -2.341625804547220469e-04 -1.772507675923407078e-04 -3.579392796382308006e-05
1.257000000000000000e+03 2.213752508163452148e+00 -3.306158781051635742e+00 2.337317855563014746e-04 -2.228652738267555833e-05 6.343358109006658196e-05 1.685160532360896468e-04
1.258000000000000000e+03 4.301966667175292969e+00 -5.164410591125488281e+00 -5.015949136577546597e-04 -1.902969233924522996e-04 -2.075675583910197020e-04 -6.931459647603332996e-04
1.259000000000000000e+03 1.500459432601928711e+00 -5.021069049835205078e+00 9.151672129519283772e-04 3.528134038788266480e-05 2.851345634553581476e-04 2.705444057937711477e-05
1.260000000000000000e+03 8.741206169128417969e+00 -3.400317192077636719e+00 3.882309247273951769e-04 2.970637287944555283e-04 2.055883960565552115e-04 -6.272127939155325294e-05
1.261000000000000000e+03 4.128995132446289062e+01 3.109223937988281250e+01 2.128488063812255859e+00 1.653720283508300781e+01 5.599707603454589844e+00 1.264744758605957031e+00
1.262000000000000000e+03 2.709849929809570312e+01 4.170356750488281250e+01 3.231287598609924316e-01 -3.330317139625549316e-01 -2.970883157104253769e-03 5.243910849094390869e-02
1.263000000000000000e+03 2.785395431518554688e+01 3.970162963867187500e+01 4.266332089900970459e-02 -2.447444349527359009e-01 -6.062433496117591858e-02 2.581922709941864014e-01
1.264000000000000000e+03 2.293144989013671875e+01 3.339344406127929688e+01 -8.354349434375762939e-02 -1.112153604626655579e-01 -5.842765420675277710e-02 -2.213639765977859497e-01
1.265000000000000000e+03 2.050563621520996094e+01 4.133984756469726562e+01 1.982442475855350494e-02 -7.172237336635589600e-02 -1.556938327848911285e-02 -7.858951576054096222e-03
1.266000000000000000e+03 2.311956405639648438e+01 3.978290939331054688e+01 1.620708964765071869e-02 -6.455542147159576416e-02 -1.450450066477060318e-02 7.050533592700958252e-02
1.267000000000000000e+03 1.908639526367187500e+01 3.810686874389648438e+01 1.643042825162410736e-02 1.362810749560594559e-02 9.017560631036758423e-03 2.336303936317563057e-03
1.268000000000000000e+03 1.888965606689453125e+01 3.770968246459960938e+01 3.907193988561630249e-02 1.808042638003826141e-02 1.714571006596088409e-02 -5.177927669137716293e-03
1.269000000000000000e+03 4.310532379150390625e+01 3.900063705444335938e+01 -6.573922634124755859e-01 1.368307971954345703e+01 3.907706260681152344e+00 5.225581526756286621e-01
1.270000000000000000e+03 1.869774246215820312e+01 4.011378097534179688e+01 -7.748736068606376648e-03 -1.156591717153787613e-02 -5.794396158307790756e-03 3.543981583788990974e-03
1.271000000000000000e+03 4.230609512329101562e+01 3.593596649169921875e+01 2.196817159652709961e+00 1.674726867675781250e+01 5.683225631713867188e+00 2.522591352462768555e+00
1.272000000000000000e+03 4.175879287719726562e+01 3.142020034790039062e+01 3.071085214614868164e+00 1.622547149658203125e+01 5.788967132568359375e+00 3.352550864219665527e-01
1.273000000000000000e+03 4.457205200195312500e+01 3.402826309204101562e+01 5.468697071075439453e+00 1.214709091186523438e+01 5.284736633300781250e+00 1.139897823333740234e+00
1.274000000000000000e+03 4.377030181884765625e+01 3.467470932006835938e+01 5.188921928405761719e+00 1.356074810028076172e+01 5.624900817871093750e+00 2.360146999359130859e+00
1.275000000000000000e+03 1.148895072937011719e+01 1.643050003051757812e+01 -1.111185760237276554e-03 -1.295787951676174998e-04 -3.722293768078088760e-04 3.327580925542861223e-04
1.276000000000000000e+03 1.232327938079833984e+01 1.041786766052246094e+01 -7.802172913216054440e-04 -1.881227944977581501e-04 -2.905020373873412609e-04 -1.758003636496141553e-04
1.277000000000000000e+03 3.514495468139648438e+01 3.768920898437500000e+01 9.441400319337844849e-02 3.473881483078002930e-01 1.325406432151794434e-01 -2.495427429676055908e-01
1.278000000000000000e+03 1.248252773284912109e+01 2.694863510131835938e+01 -2.602395368739962578e-03 -7.165062124840915203e-04 -9.956705616787075996e-04 -8.868100703693926334e-04
1.279000000000000000e+03 2.300505065917968750e+01 -1.113049411773681641e+01 2.714000269770622253e-02 2.995241165161132812e+00 9.067143201828002930e-01 2.092295140027999878e-01
1.280000000000000000e+03 3.371232223510742188e+01 3.864007568359375000e+01 3.682616651058197021e-01 6.397556662559509277e-01 3.024052083492279053e-01 1.381217986345291138e-01
1.281000000000000000e+03 2.341182899475097656e+01 8.422841131687164307e-02 -1.383047457784414291e-02 2.598041534423828125e+00 7.752633690834045410e-01 3.333407938480377197e-01
1.282000000000000000e+03 2.454395484924316406e+01 -6.893153667449951172e+00 -4.107461124658584595e-02 3.061201095581054688e+00 9.060379862785339355e-01 2.857145965099334717e-01
1.283000000000000000e+03 2.313857460021972656e+01 -6.920904636383056641e+00 -3.628265857696533203e-02 2.889086484909057617e+00 8.558411598205566406e-01 2.473524212837219238e-01
1.284000000000000000e+03 2.295356178283691406e+01 -1.821499633789062500e+01 -4.929328337311744690e-02 3.074729919433593750e+00 9.076310396194458008e-01 1.357657611370086670e-01
1.285000000000000000e+03 2.200588226318359375e+01 -1.314059615135192871e+00 1.423465739935636520e-02 2.453316688537597656e+00 7.402653694152832031e-01 2.681660950183868408e-01
1.286000000000000000e+03 2.337911415100097656e+01 -1.302501797676086426e+00 -1.944875530898571014e-02 2.667525768280029297e+00 7.944231033325195312e-01 3.086900115013122559e-01
1.287000000000000000e+03 1.163665676116943359e+01 3.126155853271484375e+01 -3.066762117668986320e-03 2.995814662426710129e-03 -2.128419328073505312e-05 -2.147457795217633247e-03
1.288000000000000000e+03 1.419578647613525391e+01 3.316047668457031250e+01 3.661510534584522247e-03 2.626816509291529655e-03 1.886498183012008667e-03 -1.637952052988111973e-03
1.289000000000000000e+03 1.324394130706787109e+01 2.167003440856933594e+01 2.257127547636628151e-03 1.483527303207665682e-04 7.216440862976014614e-04 1.088620047084987164e-04
1.290000000000000000e+03 1.182231426239013672e+01 1.774978256225585938e+01 1.510194619186222553e-03 7.400228787446394563e-05 4.752590612042695284e-04 -1.017941685859113932e-04
1.291000000000000000e+03 2.293949890136718750e+01 -1.678091430664062500e+01 -1.740150712430477142e-02 3.062479972839355469e+00 9.135235548019409180e-01 1.242071688175201416e-01
1.292000000000000000e+03 1.161540126800537109e+01 1.422335052490234375e+01 7.083584787324070930e-04 1.567753351991996169e-04 2.595401601865887642e-04 6.044398178346455097e-04
1.293000000000000000e+03 1.358565711975097656e+01 6.523688793182373047e+00 -6.799384718760848045e-04 -4.344431363278999925e-05 -2.170148363802582026e-04 -1.336713012278778479e-05
1.294000000000000000e+03 1.053009223937988281e+01 4.907797813415527344e+00 6.358614191412925720e-04 7.703848677920177579e-05 2.138699637725949287e-04 2.092869544867426157e-04
1.295000000000000000e+03 1.095979785919189453e+01 1.266530323028564453e+01 4.471326828934252262e-04 5.166803603060543537e-04 2.891439071390777826e-04 3.968738601543009281e-04
1.296000000000000000e+03 1.358821868896484375e+01 5.305256366729736328e+00 6.336155347526073456e-04 1.206575325340963900e-05 1.937043853104114532e-04 6.192441560415318236e-06
1.297000000000000000e+03 8.902945518493652344e+00 4.146283626556396484e+00 -3.352318308316171169e-04 -2.003175468416884542e-04 -1.606648147571831942e-04 -1.618574169697239995e-04
1.298000000000000000e+03 7.613568782806396484e+00 -3.467717742919921875e+01 -8.830585516989231110e-03 1.139566767960786819e-02 7.695247768424451351e-04 -4.839392378926277161e-03
1.299000000000000000e+03 1.185980606079101562e+01 2.039814376831054688e+01 1.953288447111845016e-03 9.892280650092288852e-05 6.156634190119802952e-04 1.353606930933892727e-04
1.300000000000000000e+03 7.496008300781250000e+01 -3.291786193847656250e+01 -2.351205982267856598e-02 8.976053237915039062e+00 2.685762166976928711e+00 -3.487110882997512817e-02
1.301000000000000000e+03 7.686965179443359375e+01 -3.579103469848632812e+01 -1.345657650381326675e-02 9.241363525390625000e+00 2.768372058868408203e+00 5.574701819568872452e-03
1.302000000000000000e+03 7.546783447265625000e+01 -2.197040557861328125e+01 -1.779603771865367889e-02 8.964925765991210938e+00 2.684138774871826172e+00 -7.023650407791137695e-02
1.303000000000000000e+03 7.795822143554687500e+01 -2.904038429260253906e+01 -5.772595177404582500e-04 9.329291343688964844e+00 2.798614263534545898e+00 -2.249158360064029694e-02
1.304000000000000000e+03 7.801428985595703125e+01 -3.575455474853515625e+01 -1.014707703143358231e-02 9.369499206542968750e+00 2.807805538177490234e+00 1.254420448094606400e-02
1.305000000000000000e+03 7.550352478027343750e+01 1.437823104858398438e+01 -2.393689379096031189e-02 7.226540088653564453e+00 2.160780906677246094e+00 -5.323013067245483398e-01
1.306000000000000000e+03 7.679969787597656250e+01 1.563858890533447266e+01 -9.818986058235168457e-03 7.037425518035888672e+00 2.108281850814819336e+00 -4.110193252563476562e-01
1.307000000000000000e+03 7.758284759521484375e+01 3.442412185668945312e+01 3.875441849231719971e-02 4.996130943298339844e+00 1.510465621948242188e+00 -1.345349550247192383e-01
1.308000000000000000e+03 7.540155029296875000e+01 3.185803222656250000e+01 8.410641551017761230e-02 5.631828784942626953e+00 1.714780569076538086e+00 -3.903642594814300537e-01
1.309000000000000000e+03 7.801963806152343750e+01 -2.210837936401367188e+01 -4.405858926475048065e-03 9.263423919677734375e+00 2.777705430984497070e+00 -3.514530137181282043e-02
1.310000000000000000e+03 7.672436523437500000e+01 -2.340778923034667969e+01 -7.850612513720989227e-03 9.126963615417480469e+00 2.735733985900878906e+00 -4.632691293954849243e-02
1.311000000000000000e+03 7.654587554931640625e+01 -3.024733734130859375e+01 -5.467290990054607391e-03 9.164570808410644531e+00 2.747731208801269531e+00 -3.011503443121910095e-02
1.312000000000000000e+03 7.797836303710937500e+01 -2.767434692382812500e+01 -2.204659162089228630e-03 9.320996284484863281e+00 2.795637607574462891e+00 -2.510207146406173706e-02
1.313000000000000000e+03 7.658426666259765625e+01 -2.889493370056152344e+01 -5.671025253832340240e-03 9.159743309020996094e+00 2.746221780776977539e+00 -3.281689062714576721e-02
1.314000000000000000e+03 7.795841217041015625e+01 -3.451201629638671875e+01 -4.248595330864191055e-03 9.366368293762207031e+00 2.808635711669921875e+00 1.150526455603539944e-03
1.315000000000000000e+03 7.662978363037109375e+01 -2.755372619628906250e+01 -1.447103917598724365e-03 9.155829429626464844e+00 2.746314764022827148e+00 -3.440428897738456726e-02
1.316000000000000000e+03 7.670246124267578125e+01 -2.480758857727050781e+01 -5.199457984417676926e-03 9.137728691101074219e+00 2.739758729934692383e+00 -4.282356053590774536e-02
1.317000000000000000e+03 7.537745666503906250e+01 -2.610147476196289062e+01 -1.075356081128120422e-02 8.994454383850097656e+00 2.695110321044921875e+00 -5.178482457995414734e-02
1.318000000000000000e+03 7.646579742431640625e+01 -3.304251098632812500e+01 -2.101941592991352081e-02 9.184458732604980469e+00 2.749031782150268555e+00 -2.241414040327072144e-02
1.319000000000000000e+03 7.508656311035156250e+01 -3.145572280883789062e+01 -1.355495117604732513e-02 8.991964340209960938e+00 2.693522930145263672e+00 -3.250271081924438477e-02
1.320000000000000000e+03 7.649775695800781250e+01 -3.163003921508789062e+01 -1.636579819023609161e-02 9.163871765136718750e+00 2.744251966476440430e+00 -2.581237442791461945e-02
1.321000000000000000e+03 7.806823730468750000e+01 2.233739662170410156e+01 1.529470901004970074e-03 6.134207248687744141e+00 1.840721130371093750e+00 -2.737980484962463379e-01
1.322000000000000000e+03 7.681477355957031250e+01 1.967280197143554688e+01 2.540202345699071884e-03 6.589669227600097656e+00 1.977662920951843262e+00 -4.261825680732727051e-01
1.323000000000000000e+03 7.541213226318359375e+01 2.230366134643554688e+01 2.311642281711101532e-03 6.465716838836669922e+00 1.940408587455749512e+00 -5.600156784057617188e-01
1.324000000000000000e+03 7.679222106933593750e+01 2.100850868225097656e+01 -3.666069824248552322e-04 6.444525718688964844e+00 1.933247685432434082e+00 -4.250028133392333984e-01
1.325000000000000000e+03 7.678678131103515625e+01 1.291208171844482422e+01 -1.570398360490798950e-02 7.327975749969482422e+00 2.193681478500366211e+00 -3.914252221584320068e-01
1.326000000000000000e+03 7.539383697509765625e+01 8.830386161804199219e+00 -4.128105565905570984e-02 7.716292858123779297e+00 2.302503585815429688e+00 -4.620359241962432861e-01
1.327000000000000000e+03 7.679455566406250000e+01 1.428660964965820312e+01 -1.242341566830873489e-02 7.184358119964599609e+00 2.151580333709716797e+00 -4.030233621597290039e-01
1.328000000000000000e+03 7.674870300292968750e+01 2.367295646667480469e+01 1.125580724328756332e-02 6.157110691070556641e+00 1.850509881973266602e+00 -4.252118170261383057e-01
1.329000000000000000e+03 7.798503875732421875e+01 2.649760627746582031e+01 1.018766500055789948e-02 5.642146587371826172e+00 1.695700287818908691e+00 -2.625913321971893311e-01
1.330000000000000000e+03 7.672671508789062500e+01 -2.201655006408691406e+01 -9.876310825347900391e-03 9.108912467956542969e+00 2.729711055755615234e+00 -5.448292940855026245e-02
1.331000000000000000e+03 7.665628814697265625e+01 2.645682716369628906e+01 2.621672861278057098e-02 5.879194736480712891e+00 1.771623492240905762e+00 -4.056591391563415527e-01
1.332000000000000000e+03 7.410124969482421875e+01 -1.637938880920410156e+01 -3.014062531292438507e-02 8.731175422668457031e+00 2.610310316085815430e+00 -1.297086924314498901e-01
1.333000000000000000e+03 7.671154785156250000e+01 -2.064134979248046875e+01 -8.496693335473537445e-03 9.088652610778808594e+00 2.724046945571899414e+00 -5.988642945885658264e-02
1.334000000000000000e+03 7.547203826904296875e+01 -8.132038116455078125e+00 -2.996222861111164093e-02 8.664359092712402344e+00 2.590318918228149414e+00 -1.872174888849258423e-01
1.335000000000000000e+03 7.803692626953125000e+01 -1.515269660949707031e+01 -4.696798045188188553e-03 9.134454727172851562e+00 2.738927364349365234e+00 -5.816390365362167358e-02
1.336000000000000000e+03 7.544944763183593750e+01 -2.528110980987548828e+00 -3.909230604767799377e-02 8.437118530273437500e+00 2.519407749176025391e+00 -2.667177617549896240e-01
1.337000000000000000e+03 7.804998016357421875e+01 -8.186912536621093750e+00 -6.599908228963613510e-03 8.916203498840332031e+00 2.672881126403808594e+00 -9.233540296554565430e-02
1.338000000000000000e+03 7.802796936035156250e+01 5.809366703033447266e+00 -9.538833983242511749e-03 8.030532836914062500e+00 2.406298160552978516e+00 -2.013555914163589478e-01
1.339000000000000000e+03 7.672445678710937500e+01 3.094644308090209961e+00 -2.312191389501094818e-02 8.185482025146484375e+00 2.448708057403564453e+00 -2.753656804561614990e-01
1.340000000000000000e+03 7.558827209472656250e+01 3.511222076416015625e+01 9.447668492794036865e-02 5.379840850830078125e+00 1.642295241355895996e+00 -2.768210470676422119e-01
1.341000000000000000e+03 7.803008270263671875e+01 7.208564758300781250e+00 -8.163894526660442352e-03 7.901764392852783203e+00 2.368080139160156250e+00 -2.130967229604721069e-01
1.342000000000000000e+03 7.670165252685546875e+01 5.923405647277832031e+00 -2.265247888863086700e-02 7.970339775085449219e+00 2.384306192398071289e+00 -3.145730197429656982e-01
1.343000000000000000e+03 7.804815673828125000e+01 -1.199279904365539551e+00 -8.440702222287654877e-03 8.562393188476562500e+00 2.566185712814331055e+00 -1.413644850254058838e-01
1.344000000000000000e+03 7.674992370605468750e+01 -2.540149211883544922e+00 -2.089830115437507629e-02 8.535402297973632812e+00 2.554351091384887695e+00 -2.018808722496032715e-01
1.345000000000000000e+03 7.676165008544921875e+01 -9.517598152160644531e+00 -1.526077371090650558e-02 8.833820343017578125e+00 2.645567655563354492e+00 -1.294102668762207031e-01
1.346000000000000000e+03 7.671995544433593750e+01 -1.646743774414062500e+01 -1.062322780489921570e-02 9.016356468200683594e+00 2.701719760894775391e+00 -8.094009757041931152e-02
1.347000000000000000e+03 7.652327728271484375e+01 3.265730285644531250e+01 6.616248190402984619e-02 5.385798454284667969e+00 1.635588288307189941e+00 -2.985115349292755127e-01
1.348000000000000000e+03 7.409519195556640625e+01 3.559556198120117188e+01 1.696520149707794189e-01 5.722034454345703125e+00 1.767505884170532227e+00 -3.046833574771881104e-01
1.349000000000000000e+03 7.720796966552734375e+01 3.142047309875488281e+01 3.088451921939849854e-02 5.320976257324218750e+00 1.605558276176452637e+00 -2.611024677753448486e-01
1.350000000000000000e+03 7.681523132324218750e+01 1.832395172119140625e+01 -4.516201559454202652e-03 6.745410919189453125e+00 2.022268295288085938e+00 -4.251126050949096680e-01
1.351000000000000000e+03 7.674760437011718750e+01 1.013171768188476562e+01 -2.076375670731067657e-02 7.604544162750244141e+00 2.275134086608886719e+00 -3.642865419387817383e-01
1.352000000000000000e+03 7.804421997070312500e+01 -1.376406955718994141e+01 -5.110715515911579132e-03 9.099597930908203125e+00 2.728346109390258789e+00 -6.380981951951980591e-02
1.353000000000000000e+03 7.674011230468750000e+01 -1.507515621185302734e+01 -1.158833038061857224e-02 8.987569808959960938e+00 2.692794561386108398e+00 -8.911255002021789551e-02
1.354000000000000000e+03 7.675765991210937500e+01 -8.127696037292480469e+00 -1.664180308580398560e-02 8.784279823303222656e+00 2.630291461944580078e+00 -1.420945376157760620e-01
1.355000000000000000e+03 7.804203033447265625e+01 1.601226329803466797e+00 -8.820151910185813904e-03 8.372199058532714844e+00 2.509013652801513672e+00 -1.647763401269912720e-01
1.356000000000000000e+03 7.670962524414062500e+01 4.512195587158203125e+00 -2.386065386235713959e-02 8.080829620361328125e+00 2.417090892791748047e+00 -2.955351471900939941e-01
1.357000000000000000e+03 7.544142913818359375e+01 -5.353973865509033203e+00 -3.517174720764160156e-02 8.560026168823242188e+00 2.557456254959106445e+00 -2.246199995279312134e-01
1.358000000000000000e+03 7.675219726562500000e+01 -6.741259098052978516e+00 -1.740738563239574432e-02 8.730547904968261719e+00 2.613942146301269531e+00 -1.555225700139999390e-01
1.359000000000000000e+03 7.674691772460937500e+01 -3.947109460830688477e+00 -2.007893100380897522e-02 8.606133460998535156e+00 2.575816392898559570e+00 -1.855998039245605469e-01
1.360000000000000000e+03 7.675597381591796875e+01 -1.369239425659179688e+01 -1.162383612245321274e-02 8.955531120300292969e+00 2.683172225952148438e+00 -9.752869606018066406e-02
1.361000000000000000e+03 7.676327514648437500e+01 -1.090897464752197266e+01 -1.431320328265428543e-02 8.878761291503906250e+00 2.659334421157836914e+00 -1.178727820515632629e-01
1.362000000000000000e+03 7.550008392333984375e+01 -1.089743137359619141e+01 -2.536605857312679291e-02 8.751195907592773438e+00 2.617748975753784180e+00 -1.539970487356185913e-01
1.363000000000000000e+03 7.669834899902343750e+01 -1.926008796691894531e+01 -8.025426417589187622e-03 9.066052436828613281e+00 2.717408180236816406e+00 -6.740565598011016846e-02
1.364000000000000000e+03 2.230947685241699219e+01 5.731385231018066406e+00 3.078039921820163727e-02 1.995129346847534180e+00 6.077728867530822754e-01 3.091342151165008545e-01
1.365000000000000000e+03 2.363087844848632812e+01 1.003335094451904297e+01 -1.825397275388240814e-02 1.714424133300781250e+00 5.088510513305664062e-01 4.895995557308197021e-01
1.366000000000000000e+03 2.289587211608886719e+01 -2.681086540222167969e+01 -2.396339550614356995e-02 3.118415355682373047e+00 9.283356070518493652e-01 1.010360196232795715e-01
1.367000000000000000e+03 2.135835647583007812e+01 -2.247736740112304688e+01 -2.135295793414115906e-02 2.861443519592285156e+00 8.520271778106689453e-01 7.952569425106048584e-02
1.368000000000000000e+03 2.204255104064941406e+01 3.097805786132812500e+01 6.023857276886701584e-03 -3.618111908435821533e-01 -1.067362055182456970e-01 -2.062998712062835693e-01
1.369000000000000000e+03 2.526573753356933594e+01 3.277527236938476562e+01 -1.406008601188659668e-01 -2.487946767359972000e-04 -4.225489497184753418e-02 -3.325501382350921631e-01
1.370000000000000000e+03 2.360396575927734375e+01 1.287543487548828125e+01 -1.096076704561710358e-02 1.330070495605468750e+00 3.957329392433166504e-01 5.097398161888122559e-01
1.371000000000000000e+03 1.202780723571777344e+01 -2.611425971984863281e+01 3.241355763748288155e-03 6.653640302829444408e-04 1.172015909105539322e-03 6.940400635357946157e-05
1.372000000000000000e+03 2.515851974487304688e+01 3.191749191284179688e+01 -4.715124145150184631e-02 -2.084256336092948914e-02 -2.039814181625843048e-02 -3.467555940151214600e-01
1.373000000000000000e+03 2.214296531677246094e+01 2.688546562194824219e+01 4.968963935971260071e-02 -5.893808007240295410e-01 -1.619073599576950073e-01 -7.476846128702163696e-02
1.374000000000000000e+03 2.329088211059570312e+01 2.695783996582031250e+01 1.214886233210563660e-01 -2.842850089073181152e-01 -4.883892089128494263e-02 -8.323892205953598022e-02
1.375000000000000000e+03 1.363887405395507812e+01 -6.625842094421386719e+00 -1.294701825827360153e-03 -1.149405652540735900e-04 -4.228927136864513159e-04 1.416994491592049599e-04
1.376000000000000000e+03 2.217895698547363281e+01 2.549004745483398438e+01 5.363912880420684814e-02 -5.790566802024841309e-01 -1.576252579689025879e-01 -2.205284778028726578e-03
1.377000000000000000e+03 2.455114364624023438e+01 2.278100967407226562e+01 1.945006698369979858e-01 3.519379496574401855e-01 1.639315932989120483e-01 3.516390919685363770e-01
1.378000000000000000e+03 2.122954750061035156e+01 -2.809501457214355469e+01 -1.141120772808790207e-02 2.963451623916625977e+00 8.856121301651000977e-01 7.070998847484588623e-02
1.379000000000000000e+03 2.222599220275878906e+01 2.267350959777832031e+01 4.688181355595588684e-02 -4.194318950176239014e-01 -1.117650270462036133e-01 1.431827545166015625e-01
1.380000000000000000e+03 2.340262031555175781e+01 2.273268890380859375e+01 1.111916974186897278e-01 -8.656333200633525848e-03 3.076061047613620758e-02 2.424978315830230713e-01
1.381000000000000000e+03 2.343302345275878906e+01 2.132465744018554688e+01 9.055287390947341919e-02 1.444107145071029663e-01 7.048907130956649780e-02 3.278428018093109131e-01
1.382000000000000000e+03 2.224552345275878906e+01 2.126548385620117188e+01 3.701668232679367065e-02 -2.765944302082061768e-01 -7.187332212924957275e-02 2.024399042129516602e-01
1.383000000000000000e+03 2.463440322875976562e+01 1.997771835327148438e+01 1.199148669838905334e-01 7.120439410209655762e-01 2.495876550674438477e-01 5.406097769737243652e-01
1.384000000000000000e+03 1.315546226501464844e+01 -1.600973892211914062e+01 2.303057583048939705e-03 4.146222490817308426e-04 8.153039379976689816e-04 -6.527547957375645638e-04
1.385000000000000000e+03 1.146109104156494141e+01 -1.827262878417968750e+01 -1.689670374616980553e-03 -6.863697781227529049e-04 -7.128120632842183113e-04 5.778242484666407108e-04
1.386000000000000000e+03 1.186778068542480469e+01 -1.571642875671386719e+01 -1.836085226386785507e-03 -5.239542224444448948e-04 -7.080118521116673946e-04 4.598163068294525146e-04
1.387000000000000000e+03 1.250560665130615234e+01 -9.238486289978027344e+00 1.492238021455705166e-03 1.672695070737972856e-04 4.978522774763405323e-04 -3.060107410419732332e-04
1.388000000000000000e+03 1.355816078186035156e+01 -9.279987335205078125e+00 -1.618652371689677238e-03 -1.272786757908761501e-04 -5.237793084233999252e-04 2.343694213777780533e-04
1.389000000000000000e+03 1.229701805114746094e+01 -1.181299495697021484e+01 1.700066728517413139e-03 2.170395309804007411e-04 5.751318531110882759e-04 -3.488498623482882977e-04
1.390000000000000000e+03 2.357903861999511719e+01 1.429083633422851562e+01 3.501012979540973902e-04 1.126950860023498535e+00 3.381902873516082764e-01 5.109211206436157227e-01
1.391000000000000000e+03 2.354860687255859375e+01 1.570216083526611328e+01 1.112450100481510162e-02 9.201485514640808105e-01 2.793819308280944824e-01 5.009754300117492676e-01
1.392000000000000000e+03 2.233867454528808594e+01 1.281847953796386719e+01 -3.425998147577047348e-03 9.765352606773376465e-01 2.919327914714813232e-01 3.245670497417449951e-01
1.393000000000000000e+03 2.362216186523437500e+01 1.145700740814208984e+01 -1.481001172214746475e-02 1.527228951454162598e+00 4.537256956100463867e-01 5.024439096450805664e-01
1.394000000000000000e+03 1.113116741180419922e+01 -1.947038650512695312e+01 1.706202048808336258e-03 1.077546039596199989e-04 5.441869725473225117e-04 -1.019418123178184032e-03
1.395000000000000000e+03 1.206819248199462891e+01 -2.386573410034179688e+01 3.103296039626002312e-03 1.296173781156539917e-03 1.319840899668633938e-03 9.292747126892209053e-04
1.396000000000000000e+03 2.234961509704589844e+01 8.573600769042968750e+00 -6.141282152384519577e-03 1.620593547821044922e+00 4.843356907367706299e-01 3.044094741344451904e-01
1.397000000000000000e+03 2.360444450378417969e+01 7.174171447753906250e+00 6.567636155523359776e-04 2.049872875213623047e+00 6.151588559150695801e-01 4.607623517513275146e-01
1.398000000000000000e+03 2.319563293457031250e+01 -5.520893096923828125e+00 -4.118064045906066895e-02 2.840345621109008789e+00 8.397495150566101074e-01 2.446945160627365112e-01
1.399000000000000000e+03 2.326282310485839844e+01 -4.112570762634277344e+00 -2.749541960656642914e-02 2.776540517807006836e+00 8.247135281562805176e-01 2.614658474922180176e-01
1.400000000000000000e+03 3.252981185913085938e+00 3.026386642456054688e+01 2.262045163661241531e-03 -5.603746831184253097e-05 6.618023035116493702e-04 6.285750423558056355e-04
1.401000000000000000e+03 1.879310250282287598e+00 2.761864852905273438e+01 -1.897726324386894703e-03 1.368452358292415738e-04 -5.282643251121044159e-04 -2.044598513748496771e-04
1.402000000000000000e+03 5.085428237915039062e+00 3.301648330688476562e+01 -1.976869301870465279e-03 -3.206245892215520144e-04 -6.892482051625847816e-04 -5.050146719440817833e-04
1.403000000000000000e+03 3.376315355300903320e+00 3.593778991699218750e+01 1.065476681105792522e-03 6.404788582585752010e-04 5.117866676300764084e-04 -8.250704559031873941e-05
1.404000000000000000e+03 3.097834825515747070e+00 2.896022605895996094e+01 -2.139272866770625114e-03 2.623260952532291412e-04 -5.630840314552187920e-04 -4.765382618643343449e-04
1.405000000000000000e+03 2.051731586456298828e+00 3.454278182983398438e+01 1.472891424782574177e-03 4.588408628478646278e-04 5.795196630060672760e-04 -3.524865023791790009e-04
1.406000000000000000e+03 3.516601800918579102e+00 3.454164886474609375e+01 -1.294729765504598618e-03 -6.056535057723522186e-04 -5.701149930246174335e-04 -1.649719633860513568e-04
1.407000000000000000e+03 4.535617828369140625e+00 2.998274230957031250e+01 -2.674659481272101402e-03 2.646512584760785103e-04 -7.230024784803390503e-04 -2.882310218410566449e-05
1.408000000000000000e+03 3.450315237045288086e+00 3.161296653747558594e+01 -1.710285781882703304e-03 -3.934078267775475979e-04 -6.311080651357769966e-04 -5.292712012305855751e-04
1.409000000000000000e+03 3.777282714843750000e+00 -3.695369720458984375e+01 1.551289111375808716e-03 -6.482504308223724365e-03 -1.479364465922117233e-03 -1.013631373643875122e-02
1.410000000000000000e+03 3.677962303161621094e+00 -3.413458251953125000e+01 4.024859983474016190e-03 -2.674371469765901566e-03 4.051464493386447430e-04 -4.240677226334810257e-03
1.411000000000000000e+03 3.347150325775146484e+00 -3.010627174377441406e+01 -5.729823838919401169e-03 -8.968599722720682621e-04 -1.988005125895142555e-03 -2.217252738773822784e-03
1.412000000000000000e+03 1.971956253051757812e+00 -2.886772537231445312e+01 -4.347758833318948746e-03 -2.313589502591639757e-04 -1.373735372908413410e-03 -1.036192523315548897e-03
1.413000000000000000e+03 1.961516857147216797e+00 2.200522232055664062e+01 -1.633591949939727783e-03 -4.805981370736844838e-05 -5.044955178163945675e-04 -1.375707652186974883e-04
1.414000000000000000e+03 3.363255023956298828e+00 2.346106338500976562e+01 -1.665692310780286789e-03 -2.759175549726933241e-04 -5.824829568155109882e-04 -2.098420227412134409e-04
1.415000000000000000e+03 3.154832839965820312e+00 -1.883892631530761719e+01 -2.561642322689294815e-03 8.144538878696039319e-05 -7.440590998157858849e-04 -3.493667754810303450e-04
1.416000000000000000e+03 3.036866188049316406e+00 -1.189124965667724609e+01 1.375122577883303165e-03 2.270669210702180862e-04 4.806568322237581015e-04 2.041824918705970049e-04
1.417000000000000000e+03 1.693971991539001465e+00 -9.200091361999511719e+00 -1.174059696495532990e-03 -6.131517875473946333e-05 -3.706124552991241217e-04 -1.959153451025485992e-05
1.418000000000000000e+03 3.152752161026000977e+00 1.773541259765625000e+01 -1.708891708403825760e-03 7.612235640408471227e-05 -4.898307961411774158e-04 -1.056933979270979762e-04
1.419000000000000000e+03 2.984409809112548828e+00 1.200860118865966797e+01 -1.249924884177744389e-03 6.093957199482247233e-05 -3.566955856513231993e-04 1.866727689048275352e-04
1.420000000000000000e+03 1.857691168785095215e+00 -1.479401969909667969e+01 -1.676312997005879879e-03 -5.957909161224961281e-05 -5.207676440477371216e-04 -2.459242241457104683e-04
1.421000000000000000e+03 3.077289581298828125e+00 -1.330275249481201172e+01 -1.510874601081013680e-03 -2.036380901699885726e-04 -5.143538000993430614e-04 -2.676856820471584797e-04
1.422000000000000000e+03 4.600783824920654297e+00 5.218156814575195312e+00 -5.862924444954842329e-05 3.392431535758078098e-04 8.418416837230324745e-05 -3.549925459083169699e-04
1.423000000000000000e+03 2.752042055130004883e+00 7.789341449737548828e+00 8.769674459472298622e-04 6.724405830027535558e-05 2.832634490914642811e-04 -1.133370678871870041e-04
1.424000000000000000e+03 1.873773097991943359e+00 1.489909648895263672e+01 1.392333302646875381e-03 -3.010203545272815973e-05 4.086693807039409876e-04 -3.340317562106065452e-05
1.425000000000000000e+03 3.134322166442871094e+00 1.631824111938476562e+01 1.614914042875170708e-03 -1.293259701924398541e-04 4.456764145288616419e-04 1.353983770968625322e-05
1.426000000000000000e+03 2.815594911575317383e+00 9.192737579345703125e+00 -9.820427512750029564e-04 -1.919791429827455431e-05 -3.003721940331161022e-04 1.743134198477491736e-04
1.427000000000000000e+03 5.783741950988769531e+00 -4.153492927551269531e+00 -7.503263768739998341e-04 -1.080296788131818175e-04 -2.575068210717290640e-04 -1.873085238912608474e-05
1.428000000000000000e+03 2.489123106002807617e+00 -5.148670196533203125e+00 -9.066737839020788670e-04 -1.412773708580061793e-04 -3.143853391520678997e-04 1.216016244143247604e-04
1.429000000000000000e+03 1.534400343894958496e+00 -6.448379516601562500e+00 -1.071081729605793953e-03 -4.943995918438304216e-06 -3.228077257517725229e-04 -1.482622792536858469e-06
1.430000000000000000e+03 3.274961948394775391e+00 -2.875330543518066406e+01 3.320928663015365601e-03 2.094605224556289613e-05 1.002562465146183968e-03 -3.741022956091910601e-04
1.431000000000000000e+03 3.341913461685180664e+00 -2.168700027465820312e+01 -2.770531689748167992e-03 -2.794768079183995724e-04 -9.150025434792041779e-04 -1.828829699661582708e-04
1.432000000000000000e+03 2.317281961441040039e+00 -3.571617126464843750e+01 4.758001770824193954e-03 -5.604065489023923874e-03 -2.538191620260477066e-04 -3.218787256628274918e-03
1.433000000000000000e+03 3.366517782211303711e+00 -2.314157104492187500e+01 3.050596686080098152e-03 1.125345806940458715e-04 9.489393560215830803e-04 6.903533358126878738e-04
1.434000000000000000e+03 3.095346927642822266e+00 -1.608545303344726562e+01 -1.987235387787222862e-03 -8.606158371549099684e-05 -6.219890783540904522e-04 -3.985746589023619890e-04
1.435000000000000000e+03 3.272110462188720703e+00 2.200213050842285156e+01 1.824743347242474556e-03 2.268509706482291222e-05 5.542285507544875145e-04 3.243061946704983711e-04
1.436000000000000000e+03 2.958481073379516602e+00 -1.048501396179199219e+01 -1.260410994291305542e-03 -1.880571508081629872e-04 -4.345404740888625383e-04 -9.913335088640451431e-05
1.437000000000000000e+03 2.836537361145019531e+00 -9.105042457580566406e+00 1.211212831549346447e-03 1.256418909179046750e-04 4.010564298368990421e-04 4.923568121739663184e-05
1.438000000000000000e+03 3.548941373825073242e+00 -3.278656005859375000e+01 -7.166381459683179855e-03 -1.876930589787662029e-03 -2.712993649765849113e-03 -5.745677743107080460e-03
1.439000000000000000e+03 5.395769596099853516e+00 -3.505488586425781250e+01 2.651959424838423729e-03 1.433019177056849003e-03 1.225493615493178368e-03 -6.378321908414363861e-03
1.440000000000000000e+03 1.988770484924316406e+00 -2.465660095214843750e+01 3.076069289818406105e-03 2.869891468435525894e-04 1.008917577564716339e-03 5.668894154950976372e-04
1.441000000000000000e+03 4.614272117614746094e+00 -2.460399246215820312e+01 3.469754243269562721e-03 -4.957179189659655094e-04 8.922109263949096203e-04 2.744866942521184683e-04
1.442000000000000000e+03 3.258549213409423828e+00 -2.600642013549804688e+01 3.510131733492016792e-03 -1.970286248251795769e-04 9.939309675246477127e-04 3.486608620733022690e-04
1.443000000000000000e+03 3.091628789901733398e+00 -1.470270061492919922e+01 1.772369607351720333e-03 1.825643266784027219e-04 5.864801933057606220e-04 4.190635227132588625e-04
1.444000000000000000e+03 2.898139476776123047e+00 1.059784507751464844e+01 1.112588564865291119e-03 -2.040715662587899715e-05 3.276544157415628433e-04 -2.045998116955161095e-04
1.445000000000000000e+03 3.076826095581054688e+00 1.343690586090087891e+01 1.354610663838684559e-03 -7.199186802608892322e-05 3.847856423817574978e-04 -1.365364296361804008e-04
1.446000000000000000e+03 3.144830226898193359e+00 1.913809394836425781e+01 1.774801174178719521e-03 -7.114971231203526258e-05 5.110954516567289829e-04 1.325307093793526292e-04
1.447000000000000000e+03 2.347500801086425781e+01 2.895287513732910156e+00 1.341927982866764069e-02 2.425646543502807617e+00 7.317197322845458984e-01 3.617030978202819824e-01
1.448000000000000000e+03 2.304753494262695312e+01 -9.720678329467773438e+00 3.175915626343339682e-04 2.973555803298950195e+00 8.921620249748229980e-01 2.136349678039550781e-01
1.449000000000000000e+03 1.119236278533935547e+01 3.223915863037109375e+01 2.890821313485503197e-03 -1.977896550670266151e-03 2.738774346653372049e-04 2.219719113782048225e-03
1.450000000000000000e+03 1.375604724884033203e+01 2.959428024291992188e+01 3.695091465488076210e-03 2.219598854935611598e-06 1.109193312004208565e-03 1.156323007307946682e-03
1.451000000000000000e+03 1.204365634918212891e+01 2.315272140502929688e+01 2.316490979865193367e-03 1.237379619851708412e-04 7.320686709135770798e-04 1.656770473346114159e-04
1.452000000000000000e+03 1.576333904266357422e+01 3.699636459350585938e+01 -1.900697825476527214e-03 -4.166828468441963196e-03 -1.820257864892482758e-03 3.471071133390069008e-03
1.453000000000000000e+03 2.294504928588867188e+01 -1.536119842529296875e+01 1.191343273967504501e-02 3.038699626922607422e+00 9.151839613914489746e-01 1.470480859279632568e-01
1.454000000000000000e+03 2.297249794006347656e+01 -1.254067611694335938e+01 3.456734120845794678e-02 3.015368461608886719e+00 9.149807095527648926e-01 1.800297498703002930e-01
1.455000000000000000e+03 1.151257801055908203e+01 -3.524656295776367188e+01 -2.684172242879867554e-02 4.938715137541294098e-03 -6.570902187377214432e-03 1.739619066938757896e-03
1.456000000000000000e+03 9.543837547302246094e+00 -3.777322006225585938e+01 -2.126397006213665009e-02 2.693752944469451904e-02 1.702068373560905457e-03 -3.479558974504470825e-02
1.457000000000000000e+03 2.356772804260253906e+01 5.744738578796386719e+00 2.001577056944370270e-02 2.188631057739257812e+00 6.625940203666687012e-01 4.339432716369628906e-01
1.458000000000000000e+03 2.332894134521484375e+01 -2.701895713806152344e+00 -1.956635341048240662e-02 2.720853567123413086e+00 8.103861212730407715e-01 2.897865772247314453e-01
1.459000000000000000e+03 2.299197006225585938e+01 -1.965561485290527344e+01 -4.008210822939872742e-02 3.062161207199096680e+00 9.066237211227416992e-01 1.356487125158309937e-01
1.460000000000000000e+03 1.251886749267578125e+01 2.812766838073730469e+01 2.719572978094220161e-03 5.035766516812145710e-04 9.669448481872677803e-04 1.150983502157032490e-03
1.461000000000000000e+03 1.125165271759033203e+01 2.695505523681640625e+01 1.836369512602686882e-03 1.148193725384771824e-03 8.953689830377697945e-04 4.407647647894918919e-04
1.462000000000000000e+03 3.310400390625000000e+01 3.797850036621093750e+01 -4.138837382197380066e-02 2.540156710892915726e-03 -1.165446545928716660e-02 5.029203295707702637e-01
1.463000000000000000e+03 3.456238555908203125e+01 3.811002349853515625e+01 3.578146100044250488e-01 5.968232154846191406e-01 2.863913476467132568e-01 -5.633593350648880005e-02
1.464000000000000000e+03 2.137552070617675781e+01 -2.105270767211914062e+01 -8.999004028737545013e-03 2.833279132843017578e+00 8.472840785980224609e-01 1.295813471078872681e-01
1.465000000000000000e+03 2.282850456237792969e+01 -2.821152496337890625e+01 2.059583552181720734e-02 3.129894018173217773e+00 9.451469182968139648e-01 1.052748113870620728e-01
1.466000000000000000e+03 2.462246704101562500e+01 -2.696099281311035156e+01 -4.092121031135320663e-03 3.311705350875854492e+00 9.922839403152465820e-01 1.162584051489830017e-01
1.467000000000000000e+03 2.129650497436523438e+01 -2.529648590087890625e+01 -3.367174044251441956e-02 2.907047510147094727e+00 8.620127439498901367e-01 8.635904639959335327e-02
1.468000000000000000e+03 2.119059181213378906e+01 -2.948296356201171875e+01 2.976012416183948517e-02 3.001604080200195312e+00 9.094092845916748047e-01 8.642649650573730469e-02
1.469000000000000000e+03 2.546766853332519531e+01 3.953356170654296875e+01 -4.076396580785512924e-03 -1.278722733259201050e-01 -3.958459943532943726e-02 1.409525424242019653e-01
1.470000000000000000e+03 1.514651298522949219e+01 -4.038674545288085938e+01 1.296436786651611328e-01 7.057382166385650635e-02 6.006525084376335144e-02 -3.921347856521606445e-02
1.471000000000000000e+03 2.155330085754394531e+01 -3.507186889648437500e+01 2.554934322834014893e-01 2.931070089340209961e+00 9.559690952301025391e-01 1.560984998941421509e-01
1.472000000000000000e+03 5.099531173706054688e+00 -4.054727172851562500e+01 1.142501551657915115e-02 -1.814074255526065826e-02 -2.014718251302838326e-03 -5.036429036408662796e-03
1.473000000000000000e+03 8.053955078125000000e+00 -4.145172882080078125e+01 2.454950101673603058e-02 -8.965949527919292450e-03 4.675065632909536362e-03 -1.335671823471784592e-02
1.474000000000000000e+03 3.836318969726562500e+01 3.203442382812500000e+01 5.097281932830810547e+00 4.124027729034423828e+00 2.766392946243286133e+00 5.202996730804443359e+00
1.475000000000000000e+03 3.751190185546875000e+01 3.225494384765625000e+01 3.482631444931030273e+00 1.346454381942749023e+00 1.448725700378417969e+00 2.721061944961547852e+00
1.476000000000000000e+03 3.723052215576171875e+01 3.168307495117187500e+01 3.647106409072875977e+00 1.970840334892272949e+00 1.685384035110473633e+00 3.142314434051513672e+00
1.477000000000000000e+03 3.770849609375000000e+01 3.222357177734375000e+01 4.039835929870605469e+00 1.793071746826171875e+00 1.749872207641601562e+00 3.302554845809936523e+00
1.478000000000000000e+03 3.606052398681640625e+01 3.241839218139648438e+01 1.563294887542724609e+00 3.946501910686492920e-01 5.873835086822509766e-01 1.047541737556457520e+00
1.479000000000000000e+03 3.915436553955078125e+01 3.166826629638671875e+01 4.248744964599609375e+00 9.351296424865722656e+00 4.080012321472167969e+00 6.801704883575439453e+00
1.480000000000000000e+03 3.844611740112304688e+01 3.627611160278320312e+01 8.017954826354980469e-01 4.918508529663085938e+00 1.716091275215148926e+00 -3.212686300277709961e+00
1.481000000000000000e+03 3.971221542358398438e+01 3.110848617553710938e+01 2.443608045578002930e+00 1.246811866760253906e+01 4.473517894744873047e+00 5.535267829895019531e+00
1.482000000000000000e+03 3.456738662719726562e+01 3.129734992980957031e+01 1.690704703330993652e+00 6.865541934967041016e-01 7.131776809692382812e-01 1.002100706100463867e+00
1.483000000000000000e+03 3.804141616821289062e+01 3.157643127441406250e+01 4.348408222198486328e+00 3.996873140335083008e+00 2.503584384918212891e+00 4.776324272155761719e+00
1.484000000000000000e+03 3.623169708251953125e+01 3.184881973266601562e+01 2.558497190475463867e+00 9.232935309410095215e-01 1.044537186622619629e+00 1.771597385406494141e+00
1.485000000000000000e+03 3.295907211303710938e+01 3.215684890747070312e+01 4.307966530323028564e-01 2.432523518800735474e-01 2.022147029638290405e-01 1.618638038635253906e-01
1.486000000000000000e+03 3.380578994750976562e+01 3.088408279418945312e+01 1.530679941177368164e+00 6.918128132820129395e-01 6.667478680610656738e-01 8.585740923881530762e-01
1.487000000000000000e+03 2.661169052124023438e+01 3.202571487426757812e+01 -4.889988526701927185e-02 8.264734596014022827e-02 1.012423913925886154e-02 -3.474925458431243896e-01
1.488000000000000000e+03 3.838741683959960938e+01 3.689382934570312500e+01 6.754682064056396484e-01 5.262561798095703125e+00 1.781409025192260742e+00 -3.161705493927001953e+00
1.489000000000000000e+03 2.728531646728515625e+01 3.203821563720703125e+01 -4.402260854840278625e-02 1.273920089006423950e-01 2.501081861555576324e-02 -3.278803825378417969e-01
1.490000000000000000e+03 8.138708114624023438e+00 4.171242237091064453e+00 2.292435965500771999e-04 2.590270305518060923e-04 1.464811793994158506e-04 6.798599497415125370e-05
1.491000000000000000e+03 1.042566108703613281e+01 3.328204631805419922e+00 4.890761920250952244e-04 -1.389587941957870498e-05 1.425540976924821734e-04 5.420401066658087075e-05
1.492000000000000000e+03 2.510486412048339844e+01 3.095967864990234375e+01 5.402585119009017944e-02 -1.960962824523448944e-02 1.032486744225025177e-02 -3.333770930767059326e-01
1.493000000000000000e+03 5.240037918090820312e+00 4.294913291931152344e+00 2.986781182698905468e-04 2.446625148877501488e-04 1.630021870369091630e-04 -8.863716357154771686e-05
1.494000000000000000e+03 5.243888854980468750e+00 3.496451616287231445e+00 -2.767400874290615320e-04 -2.166659396607428789e-04 -1.480218052165582776e-04 9.336217044619843364e-05
1.495000000000000000e+03 3.087230443954467773e+00 5.173482894897460938e+00 6.376553792506456375e-04 1.031942156259901822e-04 2.222548791905865073e-04 1.867333485279232264e-04
1.496000000000000000e+03 2.959068775177001953e+00 3.645612955093383789e+00 2.967036271002143621e-04 3.547364030964672565e-04 1.954320032382383943e-04 1.518976787338033319e-04
1.497000000000000000e+03 1.480334877967834473e+00 4.897267341613769531e+00 -4.015085869468748569e-04 -8.001589594641700387e-05 -1.444573426852002740e-04 2.140868455171585083e-04
1.498000000000000000e+03 1.655233979225158691e+00 3.303922414779663086e+00 5.996701656840741634e-04 1.244183931703446433e-05 1.836336014093831182e-04 1.289380452362820506e-04
1.499000000000000000e+03 3.000030899047851562e+01 3.182600402832031250e+01 1.576587110757827759e-01 2.334491908550262451e-01 1.173323690891265869e-01 -1.687603741884231567e-01
1.500000000000000000e+03 3.070442771911621094e+01 3.177731323242187500e+01 2.543314397335052490e-01 2.555958032608032227e-01 1.529781669378280640e-01 -9.468988329172134399e-02
1.501000000000000000e+03 3.228269577026367188e+01 3.224961853027343750e+01 2.281254976987838745e-01 2.254244834184646606e-01 1.360649913549423218e-01 3.161656856536865234e-02
1.502000000000000000e+03 9.677703857421875000e+00 4.134993076324462891e+00 4.731661174446344376e-04 1.128712756326422095e-04 1.758112193783745170e-04 1.908716803882271051e-04
1.503000000000000000e+03 1.001686859130859375e+01 -5.070414543151855469e+00 3.622865478973835707e-04 2.204111515311524272e-04 1.748093200149014592e-04 -2.451241307426244020e-04
1.504000000000000000e+03 1.018133735656738281e+01 -4.274240493774414062e+00 -2.769732673186808825e-04 -4.101658705621957779e-04 -2.061417471850290895e-04 2.756968024186789989e-04
1.505000000000000000e+03 2.861311912536621094e+01 3.192203712463378906e+01 2.800134569406509399e-02 1.758061647415161133e-01 6.114225089550018311e-02 -2.741882205009460449e-01
1.506000000000000000e+03 3.339998626708984375e+01 3.150702095031738281e+01 1.023289918899536133e+00 4.128987193107604980e-01 4.308565855026245117e-01 4.637625813484191895e-01
1.507000000000000000e+03 1.176855278015136719e+01 -4.415443897247314453e+00 -9.077319409698247910e-04 -1.913731539389118552e-04 -3.297315270174294710e-04 4.477670590858906507e-04
1.508000000000000000e+03 1.101687908172607422e+01 -3.494166612625122070e+00 -5.612321547232568264e-04 -2.769124694168567657e-04 -2.514433872420340776e-04 4.726811312139034271e-04
1.509000000000000000e+03 2.794246292114257812e+01 3.198636627197265625e+01 -1.089718379080295563e-02 1.505875736474990845e-01 4.190711677074432373e-02 -3.032643795013427734e-01
1.510000000000000000e+03 3.140477371215820312e+01 3.171436309814453125e+01 3.895973563194274902e-01 2.866277992725372314e-01 2.028675526380538940e-01 6.289438344538211823e-03
1.511000000000000000e+03 7.257134914398193359e+00 -3.387228488922119141e+00 5.010821041651070118e-04 2.346808469155803323e-04 2.207288780482485890e-04 5.324662561179138720e-05
1.512000000000000000e+03 1.194758510589599609e+01 3.073273658752441406e+00 3.263529797550290823e-04 -2.544943345128558576e-05 9.027106716530397534e-05 -2.173387765651568770e-04
1.513000000000000000e+03 1.222012805938720703e+01 3.735739231109619141e+00 -5.652896943502128124e-04 1.352740364382043481e-04 -1.290047075599431992e-04 2.127913030562922359e-04
1.514000000000000000e+03 8.916674613952636719e+00 4.909485340118408203e+00 3.752152260858565569e-04 2.240866306237876415e-04 1.797905570128932595e-04 2.259127650177106261e-04
1.515000000000000000e+03 4.494254589080810547e+00 -3.414762735366821289e+00 1.928203564602881670e-04 3.249091096222400665e-04 1.553188340039923787e-04 2.356260374654084444e-04
1.516000000000000000e+03 6.411627769470214844e+00 -5.030043125152587891e+00 -5.313807632774114609e-04 -3.986231749877333641e-04 -2.790011931210756302e-04 -2.485275326762348413e-04
1.517000000000000000e+03 4.042138576507568359e+00 -4.318149089813232422e+00 4.123310209251940250e-04 2.623024338390678167e-04 2.023900451604276896e-04 7.096778717823326588e-04
1.518000000000000000e+03 7.993864536285400391e+00 -3.391653299331665039e+00 -4.521687515079975128e-04 -2.688494860194623470e-04 -2.163054741686210036e-04 -7.227981313917553052e-06
1.519000000000000000e+03 3.772423744201660156e+00 -7.634385585784912109e+00 1.136056031100451946e-03 6.259553629206493497e-05 3.595954913180321455e-04 1.494418102083727717e-04
1.520000000000000000e+03 3.390665292739868164e+00 -4.415607452392578125e+00 -1.053667743690311909e-03 3.328225648147054017e-05 -3.061156603507697582e-04 -6.165968952700495720e-04
1.521000000000000000e+03 3.565789699554443359e+00 -6.394427299499511719e+00 -9.604752995073795319e-04 -8.930775948101654649e-05 -3.149349067825824022e-04 -1.865851663751527667e-04
1.522000000000000000e+03 2.546337366104125977e+00 -6.445877075195312500e+00 1.089761382900178432e-03 3.231308801332488656e-05 3.366223536431789398e-04 -2.954511182906571776e-05
1.523000000000000000e+03 3.208952713012695312e+01 3.164356613159179688e+01 5.646788477897644043e-01 3.071430623531341553e-01 2.615465819835662842e-01 1.260883063077926636e-01
1.524000000000000000e+03 1.267291355133056641e+01 -4.271576404571533203e+00 1.023868331685662270e-03 1.275841641472652555e-04 3.454357502050697803e-04 -1.145690912380814552e-04
1.525000000000000000e+03 1.132492637634277344e+01 3.989829063415527344e+00 6.717399228364229202e-04 -8.450772293144837022e-05 1.761696621542796493e-04 2.615688026708085090e-05
1.526000000000000000e+03 1.356559085845947266e+01 3.388160705566406250e+00 8.288891986012458801e-04 -8.116369281196966767e-05 2.243176422780379653e-04 8.567761688027530909e-05
1.527000000000000000e+03 2.386959457397460938e+01 3.257189178466796875e+01 -7.597973197698593140e-02 -9.328451752662658691e-02 -5.077927559614181519e-02 -3.064698576927185059e-01
1.528000000000000000e+03 2.311770820617675781e+01 3.102444267272949219e+01 1.198812760412693024e-02 -2.279070019721984863e-01 -6.477566063404083252e-02 -2.860765457153320312e-01
1.529000000000000000e+03 1.252024745941162109e+01 -3.364103555679321289e+00 -1.292185392230749130e-03 1.030816201819106936e-04 -3.567311214283108711e-04 -4.293489837436936796e-05
1.530000000000000000e+03 3.600362014770507812e+01 3.952383804321289062e+01 7.136818170547485352e-01 2.862487077713012695e+00 1.072850704193115234e+00 -1.030862092971801758e+00
1.531000000000000000e+03 4.341450881958007812e+01 3.104119682312011719e+01 3.229398012161254883e+00 1.362281227111816406e+01 5.055663108825683594e+00 -5.882053971290588379e-01
1.532000000000000000e+03 4.238086700439453125e+01 3.166281890869140625e+01 3.900828838348388672e+00 1.567590999603271484e+01 5.873021602630615234e+00 -4.671483337879180908e-01
1.533000000000000000e+03 2.302926445007324219e+01 3.229071426391601562e+01 -4.262576252222061157e-02 -1.704191118478775024e-01 -6.391346454620361328e-02 -2.699662744998931885e-01
1.534000000000000000e+03 1.216481113433837891e+01 -1.311483287811279297e+01 -1.789060072042047977e-03 -2.582615124993026257e-04 -6.141964695416390896e-04 3.401353606022894382e-04
1.535000000000000000e+03 1.202076244354248047e+01 -1.441568088531494141e+01 1.874357927590608597e-03 4.051904834341257811e-04 6.838645203970372677e-04 -4.500260110944509506e-04
1.536000000000000000e+03 1.261685657501220703e+01 -6.688839435577392578e+00 1.164122717455029488e-03 1.859292533481493592e-04 4.050155985169112682e-04 -2.320282656000927091e-04
1.537000000000000000e+03 1.257354927062988281e+01 -7.959621429443359375e+00 -1.315167173743247986e-03 -1.698610285529866815e-04 -4.455084563232958317e-04 2.792606246657669544e-04
1.538000000000000000e+03 1.248642158508300781e+01 7.885149002075195312e+00 -6.975022261030972004e-04 -8.898764644982293248e-05 -2.359469654038548470e-04 -9.896027768263593316e-05
1.539000000000000000e+03 3.900270462036132812e+01 3.686963272094726562e+01 4.403357207775115967e-01 7.098645687103271484e+00 2.261694431304931641e+00 -3.289347171783447266e+00
1.540000000000000000e+03 2.619796752929687500e+01 4.047691345214843750e+01 1.732458472251892090e-01 -3.065217435359954834e-01 -3.998276963829994202e-02 2.189587801694869995e-01
1.541000000000000000e+03 1.791049766540527344e+01 4.160452651977539062e+01 -6.988568697124719620e-03 1.713939826004207134e-03 -1.582388649694621563e-03 -1.311157085001468658e-02
1.542000000000000000e+03 2.478220367431640625e+01 1.306431144475936890e-01 -3.558927401900291443e-02 2.811692476272583008e+00 8.328309059143066406e-01 3.997614085674285889e-01
1.543000000000000000e+03 4.148683929443359375e+01 3.723013687133789062e+01 -7.853230237960815430e-01 1.536908435821533203e+01 4.375128269195556641e+00 -6.386782228946685791e-02
1.544000000000000000e+03 2.475191497802734375e+01 -2.667491674423217773e+00 -4.474118724465370178e-02 2.934782028198242188e+00 8.670122623443603516e-01 3.509091436862945557e-01
1.545000000000000000e+03 2.458101463317871094e+01 -1.814632034301757812e+01 -3.617794439196586609e-02 3.258174419403076172e+00 9.665989279747009277e-01 1.383104622364044189e-01
1.546000000000000000e+03 2.472464179992675781e+01 -1.961416625976562500e+01 -5.756250023841857910e-02 3.287394523620605469e+00 9.689496159553527832e-01 1.337183862924575806e-01
1.547000000000000000e+03 2.472943687438964844e+01 2.933068037033081055e+00 -1.490507554262876511e-02 2.626484155654907227e+00 7.834737300872802734e-01 4.642148911952972412e-01
1.548000000000000000e+03 2.448820114135742188e+01 -1.669876289367675781e+01 -3.067529574036598206e-02 3.235133171081542969e+00 9.613373875617980957e-01 1.502505242824554443e-01
1.549000000000000000e+03 2.309018516540527344e+01 -8.318467140197753906e+00 -9.576139971613883972e-03 2.915498971939086914e+00 8.717768788337707520e-01 2.298073321580886841e-01
1.550000000000000000e+03 2.460079574584960938e+01 -5.498188495635986328e+00 -4.970160499215126038e-02 3.025997161865234375e+00 8.928886651992797852e-01 3.052998483180999756e-01
1.551000000000000000e+03 1.335012817382812500e+01 -1.331573963165283203e+01 2.051487099379301071e-03 2.179095608880743384e-04 6.808189791627228260e-04 -3.970480174757540226e-04
1.552000000000000000e+03 2.439520263671875000e+01 -1.248743820190429688e+01 1.368889864534139633e-02 3.169289588928222656e+00 9.548935294151306152e-01 2.102415412664413452e-01
1.553000000000000000e+03 1.113191986083984375e+01 2.581607055664062500e+01 -2.093320246785879135e-03 -7.653421489521861076e-04 -8.575987303629517555e-04 1.906261604744940996e-05
1.554000000000000000e+03 5.170700073242187500e+00 1.050607776641845703e+01 8.495234069414436817e-04 1.714252866804599762e-04 3.062846080865710974e-04 -3.882198070641607046e-04
1.555000000000000000e+03 1.241919517517089844e+01 9.142724037170410156e+00 7.415281143039464951e-04 1.241320132976397872e-04 2.596980484668165445e-04 1.193981734104454517e-04
1.556000000000000000e+03 1.005032920837402344e+01 1.942651748657226562e+01 -1.023370496113784611e-04 -7.816987344995141029e-04 -2.652107214089483023e-04 -8.830789010971784592e-05
1.557000000000000000e+03 1.077059936523437500e+01 1.525800704956054688e+01 2.282995701534673572e-04 1.775852615537587553e-05 7.381742761936038733e-05 -8.029088494367897511e-04
1.558000000000000000e+03 7.550962066650390625e+01 1.301257419586181641e+01 -2.870660647749900818e-02 7.355269908905029297e+00 2.197968959808349609e+00 -5.176562070846557617e-01
1.559000000000000000e+03 7.545797729492187500e+01 -1.110236406326293945e+00 -4.014312848448753357e-02 8.367711067199707031e+00 2.498270273208618164e+00 -2.890367805957794189e-01
1.560000000000000000e+03 7.414119720458984375e+01 -2.566321849822998047e+00 -6.159379333257675171e-02 8.349339485168457031e+00 2.486323595046997070e+00 -3.242734372615814209e-01
1.561000000000000000e+03 7.548943328857421875e+01 -9.511876106262207031e+00 -2.874509431421756744e-02 8.710331916809082031e+00 2.604476213455200195e+00 -1.700414121150970459e-01
1.562000000000000000e+03 7.412330627441406250e+01 -5.416309356689453125e+00 -5.512265861034393311e-02 8.458085060119628906e+00 2.520888566970825195e+00 -2.730704843997955322e-01
1.563000000000000000e+03 7.674792480468750000e+01 -5.350181102752685547e+00 -1.878998242318630219e-02 8.671237945556640625e+00 2.595734357833862305e+00 -1.699676662683486938e-01
1.564000000000000000e+03 7.544111633300781250e+01 -3.945259094238281250e+00 -3.700076788663864136e-02 8.501232147216796875e+00 2.539269447326660156e+00 -2.451907694339752197e-01
1.565000000000000000e+03 7.674002838134765625e+01 1.682681918144226074e+00 -2.321119979023933411e-02 8.283381462097167969e+00 2.478051185607910156e+00 -2.558619379997253418e-01
1.566000000000000000e+03 7.543717956542968750e+01 1.703761816024780273e+00 -4.214195162057876587e-02 8.210568428039550781e+00 2.450527906417846680e+00 -3.373696208000183105e-01
1.567000000000000000e+03 7.534416198730468750e+01 5.988517761230468750e+00 -4.405932873487472534e-02 7.927993774414062500e+00 2.365180253982543945e+00 -4.176737666130065918e-01
1.568000000000000000e+03 7.423326873779296875e+01 -9.568202018737792969e+00 -4.366205632686614990e-02 8.594810485839843750e+00 2.565344572067260742e+00 -2.066252529621124268e-01
1.569000000000000000e+03 7.541260528564453125e+01 -1.641587066650390625e+01 -2.038834802806377411e-02 8.871951103210449219e+00 2.655468702316284180e+00 -1.076936870813369751e-01
1.570000000000000000e+03 7.540846252441406250e+01 3.126314878463745117e+00 -4.376913234591484070e-02 8.121649742126464844e+00 2.423364162445068359e+00 -3.639670312404632568e-01
1.571000000000000000e+03 7.545507812500000000e+01 2.988924980163574219e-01 -4.158295691013336182e-02 8.292170524597167969e+00 2.475176334381103516e+00 -3.126142919063568115e-01
1.572000000000000000e+03 7.537139129638671875e+01 4.558609485626220703e+00 -4.392354190349578857e-02 8.026634216308593750e+00 2.394813299179077148e+00 -3.910993337631225586e-01
1.573000000000000000e+03 7.409125518798828125e+01 3.090809106826782227e+00 -6.883124262094497681e-02 8.073510169982910156e+00 2.401403665542602539e+00 -4.402500092983245850e-01
1.574000000000000000e+03 7.157888793945312500e+01 3.548623657226562500e+01 3.030836284160614014e-01 6.231588363647460938e+00 1.960401535034179688e+00 -4.056582748889923096e-01
1.575000000000000000e+03 7.466910552978515625e+01 3.414944839477539062e+01 1.526334434747695923e-01 5.735841274261474609e+00 1.766542315483093262e+00 -3.671045601367950439e-01
1.576000000000000000e+03 7.499079132080078125e+01 3.065815353393554688e+01 1.043196246027946472e-01 5.827486038208007812e+00 1.779541730880737305e+00 -4.686846733093261719e-01
1.577000000000000000e+03 7.619328308105468750e+01 3.077662467956542969e+01 5.906816944479942322e-02 5.539862632751464844e+00 1.679679274559020996e+00 -3.520935773849487305e-01
1.578000000000000000e+03 7.549953460693359375e+01 -1.228398704528808594e+01 -2.390248514711856842e-02 8.788663864135742188e+00 2.629428386688232422e+00 -1.409070789813995361e-01
1.579000000000000000e+03 7.676329803466796875e+01 -1.230518150329589844e+01 -1.306434068828821182e-02 8.919657707214355469e+00 2.671977996826171875e+00 -1.066136509180068970e-01
1.580000000000000000e+03 7.548220062255859375e+01 -1.365764427185058594e+01 -2.158442139625549316e-02 8.820876121520996094e+00 2.639787435531616211e+00 -1.276559233665466309e-01
1.581000000000000000e+03 7.536337280273437500e+01 -1.922986412048339844e+01 -1.441428158432245255e-02 8.914968490600585938e+00 2.670166254043579102e+00 -8.689507842063903809e-02
1.582000000000000000e+03 7.548418426513671875e+01 -2.333806228637695312e+01 -1.570281758904457092e-02 8.980641365051269531e+00 2.689481735229492188e+00 -6.075266748666763306e-02
1.583000000000000000e+03 7.672356414794921875e+01 8.733038902282714844e+00 -2.137787640094757080e-02 7.733189105987548828e+00 2.313543319702148438e+00 -3.494866788387298584e-01
1.584000000000000000e+03 7.535207366943359375e+01 7.413988590240478516e+00 -4.224845021963119507e-02 7.823881626129150391e+00 2.334490060806274414e+00 -4.417806565761566162e-01
1.585000000000000000e+03 7.548943328857421875e+01 1.572114276885986328e+01 -1.872565969824790955e-02 7.100754737854003906e+00 2.124608755111694336e+00 -5.464201569557189941e-01
1.586000000000000000e+03 7.537351989746093750e+01 -1.781933021545410156e+01 -1.770277135074138641e-02 8.895024299621582031e+00 2.663196563720703125e+00 -9.703655540943145752e-02
1.587000000000000000e+03 7.540465545654296875e+01 -2.061594200134277344e+01 -1.455027610063552856e-02 8.938956260681152344e+00 2.677321672439575195e+00 -8.084747195243835449e-02
1.588000000000000000e+03 7.670182037353515625e+01 -1.786460876464843750e+01 -8.889109827578067780e-03 9.041355133056640625e+00 2.709739923477172852e+00 -7.298213988542556763e-02
1.589000000000000000e+03 7.545217895507812500e+01 -1.503078746795654297e+01 -1.960400864481925964e-02 8.847395896911621094e+00 2.648337364196777344e+00 -1.176442578434944153e-01
1.590000000000000000e+03 7.544779205322265625e+01 1.023497200012207031e+01 -3.840298950672149658e-02 7.601853370666503906e+00 2.269035100936889648e+00 -4.821277856826782227e-01
1.591000000000000000e+03 7.403944396972656250e+01 8.916656494140625000e+00 -6.678568571805953979e-02 7.711775779724121094e+00 2.293496847152709961e+00 -5.651842951774597168e-01
1.592000000000000000e+03 7.515854644775390625e+01 -3.008982276916503906e+01 -1.736817695200443268e-02 8.994557380676269531e+00 2.693156719207763672e+00 -3.739398345351219177e-02
1.593000000000000000e+03 7.433068084716796875e+01 -2.329039955139160156e+01 -2.086517401039600372e-02 8.848916053771972656e+00 2.648415088653564453e+00 -7.536116242408752441e-02
1.594000000000000000e+03 7.680675506591796875e+01 1.698052406311035156e+01 -8.554363623261451721e-03 6.893818855285644531e+00 2.065579414367675781e+00 -4.168804585933685303e-01
1.595000000000000000e+03 7.549438476562500000e+01 1.705213165283203125e+01 -1.252300292253494263e-02 6.969262123107910156e+00 2.087021827697753906e+00 -5.530619621276855469e-01
1.596000000000000000e+03 7.548457336425781250e+01 2.099937248229980469e+01 1.044099498540163040e-02 6.578354358673095703e+00 1.976638555526733398e+00 -5.655528903007507324e-01
1.597000000000000000e+03 7.554800415039062500e+01 1.970108604431152344e+01 -7.245161104947328568e-04 6.719078063964843750e+00 2.015506029129028320e+00 -5.644277930259704590e-01
1.598000000000000000e+03 7.413492584228515625e+01 1.713198661804199219e+01 -1.985090598464012146e-02 7.061042308807373047e+00 2.112357378005981445e+00 -6.797461509704589844e-01
1.599000000000000000e+03 7.413346099853515625e+01 -2.601356697082519531e+01 -1.712421700358390808e-02 8.857933998107910156e+00 2.652242898941040039e+00 -5.638206005096435547e-02
1.600000000000000000e+03 7.667231750488281250e+01 -2.619398880004882812e+01 -6.232553161680698395e-03 9.150737762451171875e+00 2.743351459503173828e+00 -3.843136504292488098e-02
1.601000000000000000e+03 7.543757629394531250e+01 -2.473027610778808594e+01 -7.364681456238031387e-03 8.991988182067871094e+00 2.695387125015258789e+00 -5.392122641205787659e-02
1.602000000000000000e+03 7.373738861083984375e+01 2.759973907470703125e+01 9.184820950031280518e-02 6.281297206878662109e+00 1.911943554878234863e+00 -6.337690949440002441e-01
1.603000000000000000e+03 7.424171447753906250e+01 2.486074066162109375e+01 4.851870983839035034e-02 6.393432617187500000e+00 1.932585358619689941e+00 -6.492400169372558594e-01
1.604000000000000000e+03 7.532389068603515625e+01 2.635280799865722656e+01 4.654879868030548096e-02 6.104860782623291016e+00 1.845422863960266113e+00 -5.374919176101684570e-01
1.605000000000000000e+03 7.517610168457031250e+01 2.777698326110839844e+01 5.915009602904319763e-02 6.012091636657714844e+00 1.821372509002685547e+00 -5.240405201911926270e-01
1.606000000000000000e+03 7.648991394042968750e+01 2.937900543212890625e+01 5.014064535498619080e-02 5.604727268218994141e+00 1.696460366249084473e+00 -3.660251796245574951e-01
1.607000000000000000e+03 7.505071258544921875e+01 2.923981857299804688e+01 9.346549212932586670e-02 5.929930210113525391e+00 1.807018756866455078e+00 -5.091913938522338867e-01
1.608000000000000000e+03 7.380319213867187500e+01 -3.000006484985351562e+01 -1.601484045386314392e-02 8.833566665649414062e+00 2.645265579223632812e+00 -4.374688863754272461e-02
1.609000000000000000e+03 7.274237060546875000e+01 -3.611130142211914062e+01 -1.707578450441360474e-02 8.743552207946777344e+00 2.617943048477172852e+00 -3.144946321845054626e-02
1.610000000000000000e+03 7.517700958251953125e+01 -2.875510787963867188e+01 -1.457055623177438974e-04 8.994352340698242188e+00 2.698261976242065430e+00 -4.206509143114089966e-02
1.611000000000000000e+03 7.653851318359375000e+01 -3.445837402343750000e+01 -1.851964369416236877e-02 9.209762573242187500e+00 2.757372856140136719e+00 -1.780852908268570900e-03
1.612000000000000000e+03 7.497447967529296875e+01 -3.456408309936523438e+01 -2.840684540569782257e-02 9.017601013183593750e+00 2.696758270263671875e+00 -3.800028935074806213e-02
1.613000000000000000e+03 2.490121269226074219e+01 1.151356410980224609e+01 -3.057882189750671387e-02 1.865162491798400879e+00 5.503751039505004883e-01 6.614541411399841309e-01
1.614000000000000000e+03 1.275329113006591797e+01 -2.234627151489257812e+01 3.866195213049650192e-03 6.687422865070402622e-04 1.360481255687773228e-03 1.410540542565286160e-03
1.615000000000000000e+03 1.253609943389892578e+01 -2.008704376220703125e+01 -1.924394862726330757e-03 -1.567226863699033856e-04 -6.243352545425295830e-04 1.143977046012878418e-03
1.616000000000000000e+03 2.295669174194335938e+01 -1.394891262054443359e+01 2.956655435264110565e-02 3.045693159103393555e+00 9.225779175758361816e-01 1.669128537178039551e-01
1.617000000000000000e+03 2.441160774230957031e+01 -1.388261413574218750e+01 8.783625438809394836e-03 3.182408809661865234e+00 9.573577046394348145e-01 1.825212538242340088e-01
1.618000000000000000e+03 2.491557693481445312e+01 1.007689189910888672e+01 -3.385671600699424744e-02 2.031027793884277344e+00 5.991513133049011230e-01 6.423795223236083984e-01
1.619000000000000000e+03 2.486917877197265625e+01 1.294113826751708984e+01 -1.744609326124191284e-02 1.688770413398742676e+00 5.013973116874694824e-01 6.733278632164001465e-01
1.620000000000000000e+03 5.879795551300048828e+00 -2.475484848022460938e+01 -3.098861314356327057e-03 -3.788771573454141617e-04 -1.043321564793586731e-03 2.067439199890941381e-04
1.621000000000000000e+03 1.181579780578613281e+01 -2.860067176818847656e+01 2.913102041929960251e-03 3.431847144383937120e-04 9.768860181793570518e-04 5.631748936139047146e-04
1.622000000000000000e+03 2.566391754150390625e+01 2.281188011169433594e+01 2.907832264900207520e-01 6.829097867012023926e-01 2.921079099178314209e-01 4.800138473510742188e-01
1.623000000000000000e+03 2.459244918823242188e+01 2.137809944152832031e+01 1.598621159791946411e-01 5.270202159881591797e-01 2.060647010803222656e-01 4.586673080921173096e-01
1.624000000000000000e+03 2.482318496704101562e+01 1.436254596710205078e+01 -2.188040874898433685e-03 1.501434683799743652e+00 4.497739970684051514e-01 6.746654510498046875e-01
1.625000000000000000e+03 2.349078559875488281e+01 1.851474380493164062e+01 4.620649293065071106e-02 5.126740336418151855e-01 1.676641553640365601e-01 4.470835328102111816e-01
1.626000000000000000e+03 2.467727279663085938e+01 1.858002090454101562e+01 8.249401301145553589e-02 9.087129831314086914e-01 2.973620891571044922e-01 6.024058461189270020e-01
1.627000000000000000e+03 2.472218513488769531e+01 1.718132972717285156e+01 4.797872900962829590e-02 1.105885148048400879e+00 3.461591601371765137e-01 6.403200030326843262e-01
1.628000000000000000e+03 9.135426521301269531e+00 -1.633595848083496094e+01 1.614150009118020535e-03 6.127029191702604294e-04 6.680558435618877411e-04 -1.824204664444550872e-04
1.629000000000000000e+03 1.017293739318847656e+01 -1.785700035095214844e+01 1.741701504215598106e-03 5.651308456435799599e-04 6.920496816746890545e-04 -4.807853838428854942e-04
1.630000000000000000e+03 2.314935684204101562e+01 2.967677116394042969e+01 6.810419261455535889e-02 -2.848291397094726562e-01 -6.501749157905578613e-02 -2.500028312206268311e-01
1.631000000000000000e+03 2.362543678283691406e+01 8.604180335998535156e+00 -1.298812776803970337e-02 1.894153714179992676e+00 5.643497109413146973e-01 4.762411713600158691e-01
1.632000000000000000e+03 2.490723800659179688e+01 8.632331848144531250e+00 -3.103033453226089478e-02 2.177314996719360352e+00 6.438854336738586426e-01 6.175972819328308105e-01
1.633000000000000000e+03 2.444765853881835938e+01 2.704306221008300781e+01 2.171076387166976929e-01 -2.847217209637165070e-02 5.659063905477523804e-02 -5.734016373753547668e-02
1.634000000000000000e+03 2.451602935791015625e+01 2.419192314147949219e+01 2.227015048265457153e-01 2.012313753366470337e-01 1.271798610687255859e-01 2.305249720811843872e-01
1.635000000000000000e+03 2.449009132385253906e+01 2.561881065368652344e+01 2.406382113695144653e-01 6.989235430955886841e-02 9.315916895866394043e-02 8.888858556747436523e-02
1.636000000000000000e+03 8.718185424804687500e+00 -7.536592006683349609e+00 5.401422968134284019e-04 -5.964469528407789767e-05 1.441492786398157477e-04 2.706405648496001959e-04
1.637000000000000000e+03 2.433964729309082031e+01 2.841925239562988281e+01 1.809761822223663330e-01 -9.364894032478332520e-02 2.619817107915878296e-02 -1.793688088655471802e-01
1.638000000000000000e+03 2.616485977172851562e+01 3.014647674560546875e+01 1.959939002990722656e-01 9.675396978855133057e-02 8.782435953617095947e-02 -2.707046568393707275e-01
1.639000000000000000e+03 2.487658500671386719e+01 7.190197944641113281e+00 -2.064546011388301849e-02 2.309844493865966797e+00 6.867597699165344238e-01 5.847555398941040039e-01
1.640000000000000000e+03 3.109451293945312500e+00 -1.745761108398437500e+01 2.365061314776539803e-03 4.624709617928601801e-05 7.233925280161201954e-04 5.836225464008748531e-04
1.641000000000000000e+03 4.319972991943359375e+00 -1.462770938873291016e+01 -1.735090278089046478e-03 -2.791259612422436476e-04 -6.042648456059396267e-04 -4.129756125621497631e-04
1.642000000000000000e+03 4.558568477630615234e+00 2.192391967773437500e+01 -2.139338059350848198e-03 6.445418694056570530e-05 -6.224651588127017021e-04 -1.280197466257959604e-04
1.643000000000000000e+03 3.162599086761474609e+00 2.055988502502441406e+01 -1.855018897913396358e-03 1.302327000303193927e-04 -5.174358375370502472e-04 -1.843992649810388684e-04
1.644000000000000000e+03 4.303041458129882812e+00 -1.734047889709472656e+01 -2.318284008651971817e-03 -1.640758273424580693e-04 -7.447079406119883060e-04 -6.674137548543512821e-04
1.645000000000000000e+03 4.305680274963378906e+00 -1.599897193908691406e+01 2.103850245475769043e-03 2.005090354941785336e-04 6.913077668286859989e-04 6.435778923332691193e-04
1.646000000000000000e+03 5.400103092193603516e+00 2.689059829711914062e+01 1.605440775165334344e-04 -1.654069055803120136e-04 -1.458847918911487795e-06 -1.498471596278250217e-03
1.647000000000000000e+03 6.012032508850097656e+00 2.586972045898437500e+01 7.012326477706665173e-06 -3.117816813755780458e-04 -9.143080387730151415e-05 9.590974659658968449e-04
1.648000000000000000e+03 4.191430568695068359e+00 2.889573860168457031e+01 1.714539946988224983e-03 -2.251695332233794034e-05 5.076068919152021408e-04 2.619101142045110464e-04
1.649000000000000000e+03 4.562332630157470703e+00 -2.865536308288574219e+01 -5.993817001581192017e-03 -4.274831153452396393e-04 -1.926390104927122593e-03 -1.091464655473828316e-03
1.650000000000000000e+03 3.312368154525756836e+00 -2.459116172790527344e+01 -3.527126973494887352e-03 1.511702575953677297e-04 -1.012786990031599998e-03 -3.019385330844670534e-04
1.651000000000000000e+03 4.780929565429687500e+00 -2.309638023376464844e+01 -3.408144460991024971e-03 -1.020041672745719552e-04 -1.053044572472572327e-03 -1.276173134101554751e-04
1.652000000000000000e+03 4.448890686035156250e+00 1.775292396545410156e+01 1.819534692913293839e-03 -1.248786575160920620e-04 5.083968280814588070e-04 1.618624519323930144e-04
1.653000000000000000e+03 4.379176139831542969e+00 1.916878128051757812e+01 -1.915984787046909332e-03 1.024130178848281503e-04 -5.440715467557311058e-04 -2.729085972532629967e-04
1.654000000000000000e+03 4.359200954437255859e+00 1.631970977783203125e+01 -1.851684181019663811e-03 2.974897797685116529e-04 -4.662583232857286930e-04 -6.222527736099436879e-05
1.655000000000000000e+03 4.733578681945800781e+00 -2.154045104980468750e+01 3.434276906773447990e-03 1.435661542927846313e-04 1.073352992534637451e-03 6.635751924477517605e-04
1.656000000000000000e+03 4.349156856536865234e+00 -1.867975997924804688e+01 2.824875060468912125e-03 3.199439788659219630e-06 8.484223508276045322e-04 1.006023958325386047e-03
1.657000000000000000e+03 3.162610292434692383e+00 2.628239059448242188e+01 -1.981510315090417862e-03 2.162965247407555580e-04 -5.295641021803021431e-04 -3.170008712913841009e-04
1.658000000000000000e+03 4.713072299957275391e+00 2.511377906799316406e+01 -2.036052756011486053e-03 2.224998024757951498e-04 -5.440659006126224995e-04 -6.498731672763824463e-04
1.659000000000000000e+03 4.851952552795410156e+00 2.351757431030273438e+01 1.970603829249739647e-03 3.557023301254957914e-04 6.978918681852519512e-04 2.163419121643528342e-04
1.660000000000000000e+03 1.014949989318847656e+01 -2.335360908508300781e+01 6.417001713998615742e-04 6.515149725601077080e-04 3.879645373672246933e-04 -1.602444681338965893e-03
1.661000000000000000e+03 4.519639968872070312e+00 -2.599843025207519531e+01 -4.427190870046615601e-03 7.420757174259051681e-05 -1.305895042605698109e-03 -2.079493860946968198e-04
1.662000000000000000e+03 3.124321222305297852e+00 1.488065338134765625e+01 -1.486771507188677788e-03 8.509716280968859792e-05 -4.205022996757179499e-04 7.712021033512428403e-05
1.663000000000000000e+03 4.138370513916015625e+00 1.193881320953369141e+01 1.255074748769402504e-03 -3.355367516633123159e-05 3.664563118945807219e-04 -4.545348347164690495e-04
1.664000000000000000e+03 4.328202247619628906e+00 1.337150669097900391e+01 -1.458259299397468567e-03 1.987399446079507470e-04 -3.778557875193655491e-04 3.798563848249614239e-04
1.665000000000000000e+03 4.185609340667724609e+00 -1.034414863586425781e+01 1.242457772605121136e-03 3.035578702110797167e-04 4.638046957552433014e-04 1.464066444896161556e-04
1.666000000000000000e+03 4.004967689514160156e+00 -8.953345298767089844e+00 -1.220367732457816601e-03 -1.618627575226128101e-04 -4.146691353525966406e-04 -8.587729826103895903e-05
1.667000000000000000e+03 4.320047855377197266e+00 -1.322030162811279297e+01 1.577851595357060432e-03 3.044286277145147324e-04 5.646840436384081841e-04 3.634886234067380428e-04
1.668000000000000000e+03 4.832543373107910156e+00 3.624594116210937500e+01 -5.959836998954415321e-04 -8.694201242178678513e-04 -4.396211588755249977e-04 -1.029431936331093311e-03
1.669000000000000000e+03 3.443458557128906250e+00 -3.145130729675292969e+01 2.751470077782869339e-03 -1.961649541044607759e-04 7.665915181860327721e-04 -1.684663817286491394e-03
1.670000000000000000e+03 4.686408042907714844e+00 -2.995630455017089844e+01 2.398018026724457741e-03 8.171684457920491695e-04 9.645559475757181644e-04 -9.901009034365415573e-04
1.671000000000000000e+03 4.281208038330078125e+00 -1.178410243988037109e+01 -1.336236367933452129e-03 -3.249185101594775915e-04 -4.983464605174958706e-04 -2.334433811483904719e-04
1.672000000000000000e+03 5.557863235473632812e+00 -6.019392013549804688e+00 -8.323997026309370995e-04 -1.869413099484518170e-04 -3.058022994082421064e-04 -4.869576077908277512e-04
1.673000000000000000e+03 4.025785923004150391e+00 1.055374431610107422e+01 -9.813500801101326942e-04 -8.164146856870502234e-05 -3.188974515069276094e-04 3.376716631464660168e-04
1.674000000000000000e+03 3.545266866683959961e+00 3.307169342041015625e+01 1.475240220315754414e-03 5.304434453137218952e-04 6.017051055096089840e-04 2.316108875675126910e-04
1.675000000000000000e+03 5.044098377227783203e+00 3.466188812255859375e+01 1.677992637269198895e-03 5.389236612245440483e-04 6.650749128311872482e-04 8.149924688041210175e-04
1.676000000000000000e+03 6.309507846832275391e+00 -3.394915008544921875e+01 -5.316573195159435272e-03 1.722218585200607777e-03 -1.078306348063051701e-03 -8.428598754107952118e-03
1.677000000000000000e+03 4.968482017517089844e+00 -3.259883117675781250e+01 7.665071170777082443e-04 1.397830783389508724e-03 6.493013352155685425e-04 -2.900123596191406250e-03
1.678000000000000000e+03 3.427014350891113281e+00 -5.288022994995117188e+00 8.496764348819851875e-04 1.185245855594985187e-04 2.904603024944663048e-04 3.078247245866805315e-04
1.679000000000000000e+03 3.872347116470336914e+00 5.422286510467529297e+00 -6.042349268682301044e-04 -1.399380998918786645e-04 -2.232519182143732905e-04 6.053389515727758408e-04
1.680000000000000000e+03 5.901606082916259766e+00 5.103926181793212891e+00 4.873261495959013700e-04 1.970229495782405138e-04 2.053047355730086565e-04 -1.671672944212332368e-04
1.681000000000000000e+03 6.443778514862060547e+00 -3.610734939575195312e+01 -9.311905130743980408e-03 3.021306823939085007e-03 -1.887179445475339890e-03 -1.739977858960628510e-02
1.682000000000000000e+03 5.964806079864501953e+00 3.851942062377929688e+01 2.153859968530014157e-04 -7.628785679116845131e-04 -1.642477727727964520e-04 -1.901734038256108761e-03
1.683000000000000000e+03 3.089797496795654297e+00 3.718799209594726562e+01 -2.853226324077695608e-04 -2.134189999196678400e-04 -1.496224867878481746e-04 -1.240290148416534066e-04
1.684000000000000000e+03 2.303008460998535156e+01 -2.255142974853515625e+01 -3.103638254106044769e-02 3.087779045104980469e+00 9.170228242874145508e-01 1.248220652341842651e-01
1.685000000000000000e+03 1.120709705352783203e+01 3.891535186767578125e+01 -3.540550125762820244e-03 1.270907348953187466e-03 -6.808928446844220161e-04 -2.331413561478257179e-03
1.686000000000000000e+03 2.444208145141601562e+01 -1.528241443634033203e+01 -8.641155436635017395e-03 3.217412710189819336e+00 9.626314640045166016e-01 1.611354798078536987e-01
1.687000000000000000e+03 4.541111373901367188e+01 3.097471618652343750e+01 3.259584903717041016e+00 1.175998020172119141e+01 4.505869388580322266e+00 -6.854833364486694336e-01
1.688000000000000000e+03 2.352011108398437500e+01 4.317650794982910156e+00 2.607491239905357361e-02 2.310076475143432617e+00 7.008454203605651855e-01 4.001354575157165527e-01
1.689000000000000000e+03 2.473328781127929688e+01 1.523869276046752930e+00 -2.293884567916393280e-02 2.725020885467529297e+00 8.106245994567871094e-01 4.281805157661437988e-01
1.690000000000000000e+03 2.482741546630859375e+01 5.757499694824218750e+00 -1.070671621710062027e-02 2.422338247299194336e+00 7.234894633293151855e-01 5.458996295928955078e-01
1.691000000000000000e+03 1.259630870819091797e+01 3.620693206787109375e+01 -3.875735215842723846e-03 -5.983539158478379250e-04 -1.342226751148700714e-03 9.736923384480178356e-04
1.692000000000000000e+03 7.761698722839355469e+00 2.861491584777832031e+01 -1.018069917336106300e-03 -1.458762795664370060e-03 -7.430497789755463600e-04 1.006810110993683338e-03
1.693000000000000000e+03 2.441133308410644531e+01 -1.108488368988037109e+01 2.172704553231596947e-03 3.148251056671142578e+00 9.451271295547485352e-01 2.272580116987228394e-01
1.694000000000000000e+03 2.265171432495117188e+01 -3.095200538635253906e+01 6.959570944309234619e-02 3.144314050674438477e+00 9.641728997230529785e-01 1.440483480691909790e-01
1.695000000000000000e+03 2.275334739685058594e+01 -2.960394477844238281e+01 1.361269690096378326e-02 3.126453638076782227e+00 9.420199394226074219e-01 1.013370454311370850e-01
1.696000000000000000e+03 2.467284965515136719e+01 -4.088748931884765625e+00 -4.967087134718894958e-02 2.983980417251586914e+00 8.802928328514099121e-01 3.256778419017791748e-01
1.697000000000000000e+03 2.210760498046875000e+01 4.068515777587890625e+01 2.190804481506347656e-02 -8.337857574224472046e-02 -1.844115927815437317e-02 5.522138625383377075e-02
1.698000000000000000e+03 2.153676605224609375e+01 3.993914794921875000e+01 1.590466313064098358e-02 -7.113247364759445190e-02 -1.656834222376346588e-02 3.729259595274925232e-02
1.699000000000000000e+03 1.201219844818115234e+01 1.294939804077148438e+01 -8.469567983411252499e-04 -2.392382884863764048e-04 -3.258585347793996334e-04 -5.319626070559024811e-04
1.700000000000000000e+03 1.139414882659912109e+01 2.798362350463867188e+01 -2.230355516076087952e-03 -7.731294608674943447e-04 -9.010454523377120495e-04 -1.102404203265905380e-03
1.701000000000000000e+03 6.212800979614257812e+00 1.025125598907470703e+01 -2.286608360009267926e-04 -3.314875648356974125e-04 -1.680445275269448757e-04 3.287857107352465391e-04
1.702000000000000000e+03 7.220674037933349609e+00 1.842272186279296875e+01 -1.201012055389583111e-03 5.050884647062048316e-05 -3.451509692240506411e-04 1.264231250388547778e-04
1.703000000000000000e+03 2.083438873291015625e+01 -3.838354110717773438e+01 -8.532874286174774170e-02 2.527241706848144531e+00 7.325739264488220215e-01 -1.414231359958648682e-01
1.704000000000000000e+03 2.361197471618652344e+01 -3.892245864868164062e+01 -1.130914613604545593e-01 3.047442674636840820e+00 8.803053498268127441e-01 -7.207306474447250366e-02
1.705000000000000000e+03 2.302740859985351562e+01 -2.110007286071777344e+01 -5.103477463126182556e-02 3.082878351211547852e+00 9.095530509948730469e-01 1.223926097154617310e-01
1.706000000000000000e+03 9.989767074584960938e+00 -3.442440795898437500e+01 -1.707882061600685120e-02 1.118618622422218323e-02 -1.767790410667657852e-03 8.765889331698417664e-03
1.707000000000000000e+03 1.217555522918701172e+01 -3.391218566894531250e+01 -1.904848031699657440e-02 -1.396545907482504845e-03 -6.133507471531629562e-03 1.713556237518787384e-02
1.708000000000000000e+03 2.472782707214355469e+01 -2.554767799377441406e+01 -3.535470366477966309e-02 3.307223558425903320e+00 9.815606474876403809e-01 1.149317622184753418e-01
1.709000000000000000e+03 1.222801303863525391e+01 2.445865440368652344e+01 -2.428928390145301819e-03 -2.847527794074267149e-04 -8.141043945215642452e-04 -2.578493731562048197e-04
1.710000000000000000e+03 3.311363983154296875e+01 4.158628082275390625e+01 1.141196966171264648e+00 1.465474963188171387e-01 3.863233327865600586e-01 2.744186520576477051e-01
1.711000000000000000e+03 3.861637496948242188e+01 3.202099990844726562e+01 5.268959522247314453e+00 5.289712429046630859e+00 3.167601585388183594e+00 5.986557006835937500e+00
1.712000000000000000e+03 3.667673873901367188e+01 3.209283447265625000e+01 2.737644910812377930e+00 8.977806568145751953e-01 1.090627670288085938e+00 1.954779028892517090e+00
1.713000000000000000e+03 3.939258193969726562e+01 3.116415405273437500e+01 2.888787269592285156e+00 1.118797969818115234e+01 4.223030090332031250e+00 6.168269157409667969e+00
1.714000000000000000e+03 3.536091995239257812e+01 3.167956924438476562e+01 1.873796820640563965e+00 6.834110617637634277e-01 7.671623826026916504e-01 1.224160552024841309e+00
1.715000000000000000e+03 3.997330856323242188e+01 3.053972434997558594e+01 1.805260419845581055e+00 1.255307579040527344e+01 4.307500839233398438e+00 4.592798709869384766e+00
1.716000000000000000e+03 3.400513458251953125e+01 3.142139244079589844e+01 1.321172475814819336e+00 5.338445901870727539e-01 5.565051436424255371e-01 7.083940505981445312e-01
1.717000000000000000e+03 3.506595993041992188e+01 3.111724853515625000e+01 2.104866981506347656e+00 9.748476743698120117e-01 9.239143729209899902e-01 1.433606624603271484e+00
1.718000000000000000e+03 3.321166229248046875e+01 3.093019294738769531e+01 1.274303913116455078e+00 5.915583968162536621e-01 5.597587227821350098e-01 6.263488531112670898e-01
1.719000000000000000e+03 4.006235504150390625e+01 3.100362586975097656e+01 1.870972156524658203e+00 1.385473537445068359e+01 4.717712402343750000e+00 4.906552314758300781e+00
1.720000000000000000e+03 2.718511581420898438e+01 3.133321762084960938e+01 1.025801673531532288e-01 1.481121033430099487e-01 7.520768046379089355e-02 -3.030180931091308594e-01
1.721000000000000000e+03 2.930275154113769531e+01 3.186870193481445312e+01 7.987116277217864990e-02 2.035291194915771484e-01 8.502008765935897827e-02 -2.286425381898880005e-01
1.722000000000000000e+03 3.768152713775634766e+00 4.584959030151367188e+00 5.166271002963185310e-04 -1.045881872414611280e-04 1.236116804648190737e-04 -5.394864128902554512e-04
1.723000000000000000e+03 4.516339778900146484e+00 4.407514095306396484e+00 -3.080958558712154627e-04 -2.091579081024974585e-04 -1.551761379232630134e-04 2.595587284304201603e-04
1.724000000000000000e+03 6.671397209167480469e+00 4.261445045471191406e+00 3.753464552573859692e-04 2.350049908272922039e-04 1.831054396461695433e-04 -8.358974446309730411e-05
1.725000000000000000e+03 3.275679016113281250e+01 3.157467269897460938e+01 7.686722874641418457e-01 3.634794950485229492e-01 3.396455347537994385e-01 2.714460492134094238e-01
1.726000000000000000e+03 2.420710182189941406e+01 2.973060226440429688e+01 1.181865483522415161e-01 -1.270725280046463013e-01 -2.665795618668198586e-03 -2.740304768085479736e-01
1.727000000000000000e+03 5.231323242187500000e+00 5.049263477325439453e+00 -5.114809609949588776e-04 -1.235984673257917166e-04 -1.905238168546929955e-04 5.006942228646948934e-05
1.728000000000000000e+03 8.905327796936035156e+00 5.662086963653564453e+00 -3.772317722905427217e-04 -2.501399721950292587e-04 -1.882115175249055028e-04 -2.003276749746873975e-04
1.729000000000000000e+03 7.391725063323974609e+00 4.225069046020507812e+00 -2.379746874794363976e-04 -2.786861732602119446e-04 -1.549982553115114570e-04 5.625893754768185318e-05
1.730000000000000000e+03 8.162114143371582031e+00 4.936931610107421875e+00 -2.468129678163677454e-04 -2.721357159316539764e-04 -1.556845963932573795e-04 -1.518531062174588442e-04
1.731000000000000000e+03 2.985402107238769531e+01 3.112169837951660156e+01 3.809326291084289551e-01 2.936693131923675537e-01 2.023805975914001465e-01 -1.062116846442222595e-01
1.732000000000000000e+03 3.054461669921875000e+01 3.111254310607910156e+01 5.031622648239135742e-01 3.437521159648895264e-01 2.540743052959442139e-01 -3.942424431443214417e-03
1.733000000000000000e+03 8.670800209045410156e+00 -4.168456554412841797e+00 -4.627172311302274466e-04 -3.124062204733490944e-04 -2.325370442122220993e-04 3.435165854170918465e-05
1.734000000000000000e+03 2.777756309509277344e+01 3.122692680358886719e+01 1.457411497831344604e-01 1.737643629312515259e-01 9.585165232419967651e-02 -2.769860029220581055e-01
1.735000000000000000e+03 2.915727996826171875e+01 3.112095069885253906e+01 3.058838248252868652e-01 2.540192306041717529e-01 1.679709106683731079e-01 -1.676919609308242798e-01
1.736000000000000000e+03 3.122578811645507812e+01 3.105985069274902344e+01 6.604642868041992188e-01 3.686597645282745361e-01 3.087372183799743652e-01 1.042485088109970093e-01
1.737000000000000000e+03 7.937212467193603516e+00 -4.175677776336669922e+00 5.360860377550125122e-04 3.045629709959030151e-04 2.521947026252746582e-04 2.938487159553915262e-05
1.738000000000000000e+03 1.144315147399902344e+01 -9.196320533752441406e+00 -1.372763887047767639e-03 -1.973335747607052326e-04 -4.710292269010096788e-04 2.751470019575208426e-04
1.739000000000000000e+03 2.845343971252441406e+01 3.115968704223632812e+01 2.179939001798629761e-01 2.204267382621765137e-01 1.315261870622634888e-01 -2.249363213777542114e-01
1.740000000000000000e+03 7.164781093597412109e+00 -5.014858245849609375e+00 6.417083204723894596e-04 3.470475785434246063e-04 2.966267638839781284e-04 3.656220769698848017e-06
1.741000000000000000e+03 5.167460441589355469e+00 -4.068801879882812500e+00 4.549209261313080788e-04 2.773961750790476799e-04 2.196951245423406363e-04 -1.276841649087145925e-04
1.742000000000000000e+03 7.209886074066162109e+00 -4.186819076538085938e+00 -5.591508233919739723e-04 -2.796351618599146605e-04 -2.516357926651835442e-04 -8.862711547408252954e-05
1.743000000000000000e+03 8.194977760314941406e+00 -6.726219177246093750e+00 -9.227998671121895313e-04 2.746274403762072325e-04 -1.944517425727099180e-04 -3.969044773839414120e-04
1.744000000000000000e+03 1.252495765686035156e+01 6.678036689758300781e+00 6.619290215894579887e-04 6.272225436987355351e-05 2.173953835153952241e-04 7.666811870876699686e-05
1.745000000000000000e+03 6.481993675231933594e+00 -4.187139987945556641e+00 6.396697717718780041e-04 1.952332240762189031e-04 2.504709118511527777e-04 1.454831508453935385e-04
1.746000000000000000e+03 7.130694866180419922e+00 -5.889328956604003906e+00 -5.416147178038954735e-04 -5.210740491747856140e-04 -3.188066184520721436e-04 2.378474309807643294e-04
1.747000000000000000e+03 5.609403133392333984e+00 -5.019788265228271484e+00 1.035872264765202999e-03 4.079954669578000903e-05 3.230015572626143694e-04 2.853493206202983856e-04
1.748000000000000000e+03 3.190210723876953125e+01 3.100218391418457031e+01 8.259491920471191406e-01 4.296896159648895264e-01 3.766916394233703613e-01 2.386830151081085205e-01
1.749000000000000000e+03 1.266052341461181641e+01 -5.452901363372802734e+00 -1.069884048774838448e-03 -1.497852790635079145e-04 -3.659007779788225889e-04 1.600098185008391738e-04
1.750000000000000000e+03 4.044918060302734375e+01 3.086593055725097656e+01 1.811111807823181152e+00 1.435056304931640625e+01 4.848502635955810547e+00 3.894380331039428711e+00
1.751000000000000000e+03 4.271432113647460938e+01 3.100969886779785156e+01 3.112869739532470703e+00 1.461087989807128906e+01 5.317124843597412109e+00 -2.706829011440277100e-01
1.752000000000000000e+03 1.245161533355712891e+01 4.542120456695556641e+00 6.706170388497412205e-04 1.004788282443769276e-05 2.041994739556685090e-04 -2.030361883953446522e-06
1.753000000000000000e+03 1.042179107666015625e+01 7.947206497192382812e+00 -6.692204624414443970e-04 -1.470146817155182362e-04 -2.448705490678548813e-04 -1.915562024805694818e-04
1.754000000000000000e+03 4.216354751586914062e+01 3.078174591064453125e+01 2.420184850692749023e+00 1.510782623291015625e+01 5.258403301239013672e+00 2.790777385234832764e-01
1.755000000000000000e+03 4.418806838989257812e+01 3.214829254150390625e+01 4.869238853454589844e+00 1.254503154754638672e+01 5.224280834197998047e+00 -3.203205466270446777e-01
1.756000000000000000e+03 2.590555572509765625e+01 3.195887374877929688e+01 -4.693518951535224915e-02 3.556642681360244751e-02 -3.410628298297524452e-03 -3.484634757041931152e-01
1.757000000000000000e+03 3.800102233886718750e+01 3.763737869262695312e+01 5.979703664779663086e-01 5.093719959259033203e+00 1.707507133483886719e+00 -2.652193546295166016e+00
1.758000000000000000e+03 1.144117641448974609e+01 4.796679019927978516e+00 -6.822468712925910950e-04 -2.179111470468342304e-05 -2.112114016199484468e-04 -1.101362940971739590e-04
1.759000000000000000e+03 2.480285835266113281e+01 -1.255639076232910156e+00 -4.026059061288833618e-02 2.872386932373046875e+00 8.496378660202026367e-01 3.808005154132843018e-01
1.760000000000000000e+03 2.619697761535644531e+01 2.750580906867980957e-01 -6.488877534866333008e-02 3.044662714004516602e+00 8.939321637153625488e-01 4.806505143642425537e-01
1.761000000000000000e+03 2.761762619018554688e+00 6.376893997192382812e+00 -7.633666391484439373e-04 -1.851147535489872098e-04 -2.845444250851869583e-04 1.463223270548041910e-05
1.762000000000000000e+03 2.624605751037597656e+01 -1.794200325012207031e+01 -5.499841272830963135e-02 3.455352544784545898e+00 1.020106196403503418e+00 1.564468145370483398e-01
1.763000000000000000e+03 2.607386970520019531e+01 -1.652082061767578125e+01 -3.955564275383949280e-02 3.413933992385864258e+00 1.012313485145568848e+00 1.692660003900527954e-01
1.764000000000000000e+03 2.611299324035644531e+01 -4.064751148223876953e+00 -7.323224097490310669e-02 3.193999528884887695e+00 9.362301826477050781e-01 3.754361271858215332e-01
1.765000000000000000e+03 2.449520301818847656e+01 -8.282671928405761719e+00 -3.347005695104598999e-02 3.102528810501098633e+00 9.207175970077514648e-01 2.726542353630065918e-01
1.766000000000000000e+03 1.059238529205322266e+01 -1.540061187744140625e+01 1.651869504712522030e-03 5.816107732243835926e-04 6.700441008433699608e-04 -3.593608562368899584e-04
1.767000000000000000e+03 1.121809101104736328e+01 1.036299610137939453e+01 6.978276069276034832e-04 2.189737424487248063e-04 2.750404237303882837e-04 1.031749561661854386e-04
1.768000000000000000e+03 9.681848526000976562e+00 5.761481761932373047e+00 4.532252205535769463e-04 2.240573521703481674e-04 2.031847689067944884e-04 2.832070167642086744e-04
1.769000000000000000e+03 1.026715564727783203e+01 1.700645637512207031e+01 8.155530085787177086e-04 2.195562119595706463e-04 3.105327486991882324e-04 -1.385412761010229588e-04
1.770000000000000000e+03 1.097747802734375000e+01 2.462830543518066406e+01 2.189153805375099182e-03 1.849476684583351016e-04 7.122304523363709450e-04 2.225426942459307611e-05
1.771000000000000000e+03 1.116661453247070312e+01 -1.164287948608398438e+01 -1.495759235695004463e-03 -2.289557887706905603e-04 -5.174145335331559181e-04 3.219451464246958494e-04
1.772000000000000000e+03 1.098478889465332031e+01 -1.289087200164794922e+01 1.630087383091449738e-03 2.817243221215903759e-04 5.735435406677424908e-04 -3.381413407623767853e-04
1.773000000000000000e+03 6.227434635162353516e+00 -3.110369682312011719e+01 6.837973487563431263e-04 2.521332819014787674e-03 9.615390445105731487e-04 -8.478453964926302433e-04
1.774000000000000000e+03 1.527941989898681641e+01 4.031396865844726562e+01 -1.155129354447126389e-02 5.032640416175127029e-03 -1.955595798790454865e-03 2.425100246910005808e-04
1.775000000000000000e+03 2.584776687622070312e+01 -1.099830341339111328e+01 -1.932886429131031036e-02 3.317701101303100586e+00 9.895117282867431641e-01 2.587364315986633301e-01
1.776000000000000000e+03 2.445070457458496094e+01 -9.678868293762207031e+00 -7.324169855564832687e-03 3.119168996810913086e+00 9.335534572601318359e-01 2.560404241085052490e-01
1.777000000000000000e+03 7.372640228271484375e+01 -3.118760490417480469e+01 -2.398968487977981567e-02 8.828042030334472656e+00 2.641215562820434570e+00 -3.895757719874382019e-02
1.778000000000000000e+03 7.527363586425781250e+01 -2.743356513977050781e+01 -1.079540234059095383e-02 8.995841979980468750e+00 2.695514202117919922e+00 -4.269366711378097534e-02
1.779000000000000000e+03 2.598290824890136719e+01 -6.843381404876708984e+00 -6.297646462917327881e-02 3.257064819335937500e+00 9.582265019416809082e-01 3.282926678657531738e-01
1.780000000000000000e+03 7.391633605957031250e+01 2.225858497619628906e+01 1.567479595541954041e-02 6.653079032897949219e+00 2.000626087188720703e+00 -6.977683901786804199e-01
1.781000000000000000e+03 7.544409942626953125e+01 2.362947463989257812e+01 2.200959995388984680e-02 6.354409217834472656e+00 1.912925601005554199e+00 -5.580778717994689941e-01
1.782000000000000000e+03 7.420003509521484375e+01 -2.466695022583007812e+01 -1.580802910029888153e-02 8.856125831604003906e+00 2.652095317840576172e+00 -6.834901869297027588e-02
1.783000000000000000e+03 2.030573844909667969e+01 4.023642349243164062e+01 3.566819475963711739e-03 -2.268948964774608612e-02 -5.736801307648420334e-03 3.641872899606823921e-03
1.784000000000000000e+03 7.425324249267578125e+01 -2.199868965148925781e+01 -2.747557684779167175e-02 8.823266029357910156e+00 2.638737201690673828e+00 -8.386347442865371704e-02
1.785000000000000000e+03 7.549101257324218750e+01 1.162817192077636719e+01 -3.465703874826431274e-02 7.480494499206542969e+00 2.233751296997070312e+00 -4.993246495723724365e-01
1.786000000000000000e+03 7.420291137695312500e+01 1.443048000335693359e+01 -3.810260817408561707e-02 7.284657478332519531e+00 2.173966407775878906e+00 -6.507617235183715820e-01
1.787000000000000000e+03 7.394082641601562500e+01 7.470924377441406250e+00 -6.934694945812225342e-02 7.808188438415527344e+00 2.321652412414550781e+00 -5.393499135971069336e-01
1.788000000000000000e+03 7.402373504638671875e+01 -1.779423141479492188e+01 -2.870113961398601532e-02 8.744265556335449219e+00 2.614669322967529297e+00 -1.201302334666252136e-01
1.789000000000000000e+03 7.401106262207031250e+01 4.536550045013427734e+00 -7.130045443773269653e-02 7.987104415893554688e+00 2.374741077423095703e+00 -4.768095612525939941e-01
1.790000000000000000e+03 7.416908264160156250e+01 -1.500092506408691406e+01 -3.317864239215850830e-02 8.716568946838378906e+00 2.605017185211181641e+00 -1.428005099296569824e-01
1.791000000000000000e+03 7.426184082031250000e+01 -1.093785095214843750e+01 -4.184852167963981628e-02 8.635790824890136719e+00 2.578182697296142578e+00 -1.864835470914840698e-01
1.792000000000000000e+03 7.397394561767578125e+01 2.614736938476562500e+01 6.098461896181106567e-02 6.337093830108642578e+00 1.919423580169677734e+00 -6.459726691246032715e-01
1.793000000000000000e+03 7.544220733642578125e+01 2.497244453430175781e+01 3.134407475590705872e-02 6.220447540283203125e+00 1.875537514686584473e+00 -5.456938147544860840e-01
1.794000000000000000e+03 7.545294189453125000e+01 -6.747701168060302734e+00 -3.225911408662796021e-02 8.613742828369140625e+00 2.574445247650146484e+00 -2.050736695528030396e-01
1.795000000000000000e+03 7.418782806396484375e+01 -8.196716308593750000e+00 -4.654108360409736633e-02 8.552483558654785156e+00 2.551782608032226562e+00 -2.255994826555252075e-01
1.796000000000000000e+03 7.415684509277343750e+01 -1.142880320549011230e+00 -6.340866535902023315e-02 8.287874221801757812e+00 2.467339754104614258e+00 -3.511128723621368408e-01
1.797000000000000000e+03 7.413734436035156250e+01 1.665228605270385742e+00 -6.650695204734802246e-02 8.151186943054199219e+00 2.425403833389282227e+00 -4.078587591648101807e-01
1.798000000000000000e+03 7.415155792236328125e+01 1.032922649383544922e+01 -6.036028638482093811e-02 7.607833385467529297e+00 2.264241933822631836e+00 -5.854408740997314453e-01
1.799000000000000000e+03 7.412545776367187500e+01 -3.993876934051513672e+00 -5.902289226651191711e-02 8.405598640441894531e+00 2.503972768783569336e+00 -2.979671955108642578e-01
1.800000000000000000e+03 7.425383758544921875e+01 -1.230029201507568359e+01 -3.514266386628150940e-02 8.665998458862304688e+00 2.589256763458251953e+00 -1.678927093744277954e-01
1.801000000000000000e+03 7.398880004882812500e+01 -1.925698089599609375e+01 -2.381643094122409821e-02 8.768692016601562500e+00 2.623462677001953125e+00 -1.095272302627563477e-01
1.802000000000000000e+03 7.552613830566406250e+01 1.837800025939941406e+01 -1.137549895793199539e-02 6.845001697540283203e+00 2.050087928771972656e+00 -5.540701746940612793e-01
1.803000000000000000e+03 7.413845825195312500e+01 1.577892112731933594e+01 -2.976731583476066589e-02 7.170554161071777344e+00 2.142235994338989258e+00 -6.681175827980041504e-01
1.804000000000000000e+03 7.358470153808593750e+01 2.917977333068847656e+01 1.201979890465736389e-01 6.211894512176513672e+00 1.899627804756164551e+00 -6.001418828964233398e-01
1.805000000000000000e+03 7.393302917480468750e+01 6.002638339996337891e+00 -6.996125727891921997e-02 7.895977973937988281e+00 2.347805023193359375e+00 -5.113198757171630859e-01
1.806000000000000000e+03 7.388298034667968750e+01 3.271381759643554688e+01 1.588431745767593384e-01 5.916415691375732422e+00 1.822577714920043945e+00 -4.422797560691833496e-01
1.807000000000000000e+03 7.424369049072265625e+01 1.307749843597412109e+01 -4.777222126722335815e-02 7.394584178924560547e+00 2.204043626785278320e+00 -6.253656744956970215e-01
1.808000000000000000e+03 7.422623443603515625e+01 1.171006488800048828e+01 -5.299866199493408203e-02 7.502145290374755859e+00 2.234744071960449219e+00 -6.046618819236755371e-01
1.809000000000000000e+03 7.416650390625000000e+01 2.087328529357910156e+01 1.329409051686525345e-02 6.745935440063476562e+00 2.027768850326538086e+00 -6.895954608917236328e-01
1.810000000000000000e+03 7.422132110595703125e+01 1.847050476074218750e+01 -9.260321035981178284e-03 6.933629989624023438e+00 2.077311038970947266e+00 -6.761181354522705078e-01
1.811000000000000000e+03 7.310695648193359375e+01 -3.432364273071289062e+01 -3.154931962490081787e-02 8.763739585876464844e+00 2.619657039642333984e+00 -3.383209928870201111e-02
1.812000000000000000e+03 7.354489135742187500e+01 3.088178062438964844e+01 1.629903912544250488e-01 6.120747089385986328e+00 1.885121226310729980e+00 -5.490077137947082520e-01
1.813000000000000000e+03 6.691174983978271484e+00 -1.597768878936767578e+01 1.966522773727774620e-03 4.060505889356136322e-04 7.117720087990164757e-04 3.775172808673232794e-04
1.814000000000000000e+03 6.449279308319091797e+00 -3.253634643554687500e+01 -1.158201042562723160e-02 1.907577738165855408e-03 -2.902329666540026665e-03 -4.637074191123247147e-03
1.815000000000000000e+03 6.025092124938964844e+00 -2.978009605407714844e+01 -7.878263480961322784e-03 -6.954764830879867077e-04 -2.572122029960155487e-03 -1.867510029114782810e-03
1.816000000000000000e+03 1.183183860778808594e+01 -2.128883743286132812e+01 -7.965333061292767525e-04 -1.712545417831279337e-05 -2.440976386424154043e-04 -2.608450362458825111e-03
1.817000000000000000e+03 1.025159645080566406e+01 3.064396476745605469e+01 2.810172038152813911e-03 -2.237817505374550819e-03 1.717063569230958819e-04 1.968641299754381180e-03
1.818000000000000000e+03 2.891415596008300781e+01 8.693592071533203125e+00 -1.528382301330566406e-01 3.176977634429931641e+00 9.072418212890625000e-01 9.128977060317993164e-01
1.819000000000000000e+03 5.744562625885009766e+00 -2.606110000610351562e+01 3.119615372270345688e-03 -5.212643300183117390e-04 7.795052952133119106e-04 3.386706230230629444e-04
1.820000000000000000e+03 4.197137355804443359e+00 2.771260452270507812e+01 -1.371188205666840076e-03 -1.908911071950569749e-04 -4.686237953137606382e-04 -8.639174047857522964e-04
1.821000000000000000e+03 6.097872734069824219e+00 2.777901649475097656e+01 -2.000783104449510574e-03 -4.137134528718888760e-04 -7.243489963002502918e-04 3.079666639678180218e-04
1.822000000000000000e+03 2.571908187866210938e+01 2.142454147338867188e+01 2.343962043523788452e-01 8.797423839569091797e-01 3.342415690422058105e-01 5.957246422767639160e-01
1.823000000000000000e+03 2.583821868896484375e+01 1.865332031250000000e+01 1.214242652058601379e-01 1.283228158950805664e+00 4.213957488536834717e-01 7.487062215805053711e-01
1.824000000000000000e+03 2.619871520996093750e+01 1.158565235137939453e+01 -4.975029826164245605e-02 2.218682765960693359e+00 6.506797671318054199e-01 8.005308508872985840e-01
1.825000000000000000e+03 2.882813262939453125e+01 7.155674934387207031e+00 -1.519166380167007446e-01 3.230688571929931641e+00 9.236315488815307617e-01 8.554586768150329590e-01
1.826000000000000000e+03 1.446382236480712891e+01 -2.895864677429199219e+01 5.181326530873775482e-03 1.724901958368718624e-03 2.071868395432829857e-03 -4.420835175551474094e-04
1.827000000000000000e+03 2.477108764648437500e+01 1.577621936798095703e+01 2.220472320914268494e-02 1.304107666015625000e+00 3.978937268257141113e-01 6.658125519752502441e-01
1.828000000000000000e+03 2.918392944335937500e+01 1.898821640014648438e+01 2.234422713518142700e-01 2.383892059326171875e+00 7.822003364562988281e-01 1.177358865737915039e+00
1.829000000000000000e+03 1.072462940216064453e+01 2.340328025817871094e+01 -1.930595492012798786e-03 -2.439235395286232233e-04 -6.523557240143418312e-04 -8.993558003567159176e-05
1.830000000000000000e+03 6.770799636840820312e+00 -1.014365005493164062e+01 1.215153024531900883e-03 4.681824357248842716e-04 5.050006438978016376e-04 3.656223270809277892e-05
1.831000000000000000e+03 5.474702358245849609e+00 -1.015942955017089844e+01 -1.306286081671714783e-03 -3.507254587020725012e-04 -4.971034941263496876e-04 -1.907034602481871843e-04
1.832000000000000000e+03 2.616041374206542969e+01 7.198571205139160156e+00 -5.659852176904678345e-02 2.593622922897338867e+00 7.611073255538940430e-01 6.918194293975830078e-01
1.833000000000000000e+03 2.687749862670898438e+01 3.067218589782714844e+01 1.921607702970504761e-01 1.498163044452667236e-01 1.025931239128112793e-01 -2.717398703098297119e-01
1.834000000000000000e+03 2.562408447265625000e+01 2.713645362854003906e+01 3.472264111042022705e-01 2.050506174564361572e-01 1.656831055879592896e-01 9.201139211654663086e-03
1.835000000000000000e+03 2.605836677551269531e+01 1.445598506927490234e+01 -2.297173021361231804e-03 1.872895002365112305e+00 5.611793398857116699e-01 8.233228325843811035e-01
1.836000000000000000e+03 2.547829246520996094e+01 2.858221817016601562e+01 2.830951213836669922e-01 8.618728816509246826e-02 1.107847243547439575e-01 -1.534257233142852783e-01
1.837000000000000000e+03 2.716461753845214844e+01 2.820300674438476562e+01 5.012376904487609863e-01 3.629491031169891357e-01 2.592560350894927979e-01 2.191124483942985535e-02
1.838000000000000000e+03 6.140425205230712891e+00 -2.336716651916503906e+01 1.926311990246176720e-03 -4.474584129638969898e-04 4.436560848262161016e-04 -3.209741844329982996e-04
1.839000000000000000e+03 8.895916938781738281e+00 2.547033309936523438e+01 4.892713623121380806e-04 1.942712697200477123e-04 2.050627954304218292e-04 3.491958864287880715e-07
1.840000000000000000e+03 6.380685329437255859e+00 2.342675209045410156e+01 -1.774468109942972660e-03 -6.966164801269769669e-04 -7.413253770209848881e-04 2.315048186574131250e-04
1.841000000000000000e+03 5.466914653778076172e+00 -1.725090789794921875e+01 2.315404824912548065e-03 2.985351893585175276e-04 7.841820479370653629e-04 8.697148878127336502e-04
1.842000000000000000e+03 5.500320434570312500e+00 -1.595302867889404297e+01 -1.951818121597170830e-03 -3.820465062744915485e-04 -7.001594058237969875e-04 -5.324633675627410412e-04
1.843000000000000000e+03 5.549378395080566406e+00 -1.459365749359130859e+01 1.824926817789673805e-03 3.240480436943471432e-04 6.446924526244401932e-04 4.744696198031306267e-04
1.844000000000000000e+03 8.004450798034667969e+00 1.573784255981445312e+01 5.157807026989758015e-05 -7.477975304936990142e-05 -6.960505288589047268e-06 5.088320467621088028e-04
1.845000000000000000e+03 4.300967216491699219e+00 2.053027153015136719e+01 2.016668673604726791e-03 -1.412008423358201981e-04 5.626403144560754299e-04 2.168734063161537051e-04
1.846000000000000000e+03 4.487287521362304688e+00 -2.006420898437500000e+01 -3.056190907955169678e-03 -3.191210635122843087e-05 -9.264309192076325417e-04 -7.138419896364212036e-04
1.847000000000000000e+03 6.576015949249267578e+00 -1.839049720764160156e+01 2.074939897283911705e-03 6.196383037604391575e-04 8.083734428510069847e-04 8.561175200156867504e-04
1.848000000000000000e+03 5.711839199066162109e+00 -2.732123374938964844e+01 -5.623673554509878159e-03 8.231362880906090140e-05 -1.662408001720905304e-03 -5.455169593915343285e-04
1.849000000000000000e+03 4.397117614746093750e+00 1.486613273620605469e+01 1.714098732918500900e-03 -2.564645255915820599e-04 4.372902621980756521e-04 -9.178300388157367706e-05
1.850000000000000000e+03 5.208380699157714844e+00 2.789303207397460938e+01 6.185577367432415485e-04 9.119807509705424309e-04 4.591615579556673765e-04 1.487915636971592903e-03
1.851000000000000000e+03 4.353769302368164062e+00 2.646681785583496094e+01 1.595990383066236973e-03 -1.866242237156257033e-04 4.228098550811409950e-04 1.190146547742187977e-03
1.852000000000000000e+03 4.500256061553955078e+00 -2.734000015258789062e+01 3.434125566855072975e-03 -2.448483428452163935e-04 9.567831875756382942e-04 -5.544232408283278346e-05
1.853000000000000000e+03 6.959674358367919922e+00 -2.621954536437988281e+01 -3.500320482999086380e-03 -6.479196017608046532e-04 -1.244471990503370762e-03 -5.555176758207380772e-04
1.854000000000000000e+03 3.081331825256347656e+01 2.787801170349121094e+01 1.160316348075866699e+00 1.073076963424682617e+00 6.700179576873779297e-01 7.544084787368774414e-01
1.855000000000000000e+03 8.018041610717773438e+00 -1.142159080505371094e+01 6.512685795314610004e-04 8.799099596217274666e-04 4.593535850290209055e-04 2.840113593265414238e-04
1.856000000000000000e+03 6.628425121307373047e+00 3.112927627563476562e+01 -2.511863363906741142e-03 -1.306332560488954186e-04 -7.927489932626485825e-04 -6.352522177621722221e-04
1.857000000000000000e+03 4.970405578613281250e+00 3.133988380432128906e+01 2.043418586254119873e-03 5.090541671961545944e-04 7.657418609596788883e-04 3.200457722414284945e-04
1.858000000000000000e+03 6.359939098358154297e+00 2.210029792785644531e+01 2.207614714279770851e-03 2.214909327449277043e-04 7.287316839210689068e-04 1.657000539125874639e-04
1.859000000000000000e+03 6.184469223022460938e+00 1.880653953552246094e+01 9.706765413284301758e-04 -1.822048652684316039e-04 2.365414984524250031e-04 -7.183563429862260818e-04
1.860000000000000000e+03 6.322373390197753906e+00 2.114363670349121094e+01 -1.378591754473745823e-03 1.329842925770208240e-04 -3.736822400242090225e-04 -3.694375918712466955e-04
1.861000000000000000e+03 6.077150344848632812e+00 -2.108246040344238281e+01 -2.121889963746070862e-03 -9.925510967150330544e-04 -9.343323181383311749e-04 -1.369325793348252773e-03
1.862000000000000000e+03 5.487337589263916016e+00 -1.851128578186035156e+01 -2.292053773999214172e-03 -5.453909398056566715e-04 -8.512334316037595272e-04 -1.104609691537916660e-03
1.863000000000000000e+03 6.638805866241455078e+00 3.484902954101562500e+01 -1.881541102193295956e-03 -2.725269878283143044e-04 -6.462204037234187126e-04 -1.724956440739333630e-03
1.864000000000000000e+03 5.473782062530517578e+00 1.304428863525390625e+01 6.454112008213996887e-04 -5.881439938093535602e-05 1.759790466167032719e-04 -7.030187989585101604e-04
1.865000000000000000e+03 6.265504360198974609e+00 1.405066108703613281e+01 3.390554047655314207e-04 -6.163348734844475985e-05 8.322657959070056677e-05 7.587497239001095295e-04
1.866000000000000000e+03 5.825036048889160156e+00 -2.854637908935546875e+01 3.024691483005881310e-03 6.812174106016755104e-04 1.111772609874606133e-03 -1.691469660727307200e-04
1.867000000000000000e+03 9.623255729675292969e+00 -3.266992187500000000e+01 -8.110869675874710083e-03 5.341804120689630508e-03 -8.307196549139916897e-04 6.330327596515417099e-03
1.868000000000000000e+03 1.014950752258300781e+01 1.026939773559570312e+01 -7.514262106269598007e-04 -1.716996484901756048e-04 -2.769377606455236673e-04 -1.271428627660498023e-04
1.869000000000000000e+03 3.895993947982788086e+00 9.161873817443847656e+00 8.680704049766063690e-04 8.229612285504117608e-05 2.851099416147917509e-04 -2.418707008473575115e-04
1.870000000000000000e+03 5.551430225372314453e+00 -1.168943214416503906e+01 1.448025577701628208e-03 3.732868935912847519e-04 5.463937413878738880e-04 2.136443072231486440e-04
1.871000000000000000e+03 4.837203502655029297e+00 -7.417507648468017578e+00 -1.032038009725511074e-03 -9.036223491420969367e-05 -3.367200552020221949e-04 -4.554929328151047230e-04
1.872000000000000000e+03 4.932711124420166016e+00 9.086586952209472656e+00 -7.868494139984250069e-04 -1.664861192693933845e-04 -2.860006643459200859e-04 3.919756854884326458e-04
1.873000000000000000e+03 3.787676811218261719e+00 7.802536964416503906e+00 -8.022311958484351635e-04 -1.101011366699822247e-04 -2.736996975727379322e-04 2.387825952610000968e-04
1.874000000000000000e+03 7.406607151031494141e+00 -2.384021759033203125e+01 -2.340684412047266960e-03 -1.642658608034253120e-04 -7.514851167798042297e-04 2.525425225030630827e-04
1.875000000000000000e+03 1.093909931182861328e+01 -2.480955886840820312e+01 1.840114011429250240e-03 9.935030248016119003e-04 8.500851108692586422e-04 -3.334952052682638168e-04
1.876000000000000000e+03 1.078456497192382812e+01 -2.594593620300292969e+01 -2.790093189105391502e-03 -1.470000832341611385e-03 -1.278028241358697414e-03 1.564786507515236735e-04
1.877000000000000000e+03 1.058325862884521484e+01 1.355355262756347656e+01 -3.642415103968232870e-04 8.432791946688666940e-05 -8.397407509619370103e-05 -6.120229954831302166e-04
1.878000000000000000e+03 4.580370426177978516e+00 -6.209420680999755859e+00 7.912903674878180027e-04 1.923946547321975231e-04 2.951055066660046577e-04 5.119392881169915199e-04
1.879000000000000000e+03 2.603746986389160156e+01 -5.462741374969482422e+00 -6.781157106161117554e-02 3.223516464233398438e+00 9.467114806175231934e-01 3.502109348773956299e-01
1.880000000000000000e+03 2.585486793518066406e+01 -1.238606643676757812e+01 -1.629191264510154724e-02 3.338666677474975586e+00 9.967124462127685547e-01 2.267555147409439087e-01
1.881000000000000000e+03 2.588244247436523438e+01 -9.604876518249511719e+00 -3.773202374577522278e-02 3.302909612655639648e+00 9.795532822608947754e-01 2.809723615646362305e-01
1.882000000000000000e+03 2.250053977966308594e+01 4.179228591918945312e+01 2.417815104126930237e-02 -1.045901924371719360e-01 -2.412361279129981995e-02 3.413668274879455566e-02
1.883000000000000000e+03 1.029027557373046875e+01 -2.958930397033691406e+01 4.623330023605376482e-04 1.595024485141038895e-03 6.172072608023881912e-04 2.151468070223927498e-03
1.884000000000000000e+03 2.476959800720214844e+01 4.339684486389160156e+00 -5.645602941513061523e-03 2.524837732315063477e+00 7.557576298713684082e-01 5.007050633430480957e-01
1.885000000000000000e+03 2.593356704711914062e+01 -8.218923568725585938e+00 -4.628801345825195312e-02 3.275899887084960938e+00 9.688835740089416504e-01 3.064895570278167725e-01
1.886000000000000000e+03 1.184103298187255859e+01 2.179028320312500000e+01 -2.116527874022722244e-03 -2.148573694285005331e-04 -6.994155701249837875e-04 -1.669373305048793554e-04
1.887000000000000000e+03 1.071658325195312500e+01 2.014926910400390625e+01 -7.880813209339976311e-04 -1.703906164038926363e-04 -2.875415957532823086e-04 -5.149922217242419720e-04
1.888000000000000000e+03 2.481551933288574219e+01 -2.110528755187988281e+01 -4.444065690040588379e-02 3.293750047683715820e+00 9.747928380966186523e-01 1.378013193607330322e-01
1.889000000000000000e+03 2.300109481811523438e+01 -2.398990249633789062e+01 -3.472009301185607910e-02 3.089436531066894531e+00 9.164149165153503418e-01 1.043000668287277222e-01
1.890000000000000000e+03 1.107553005218505859e+01 1.155820751190185547e+01 -5.827956483699381351e-04 -4.262256552465260029e-04 -3.027064085472375154e-04 -1.559616939630359411e-04
1.891000000000000000e+03 9.692858695983886719e+00 2.884891128540039062e+01 1.230391790159046650e-04 -1.479556784033775330e-03 -4.069553106091916561e-04 1.487370347604155540e-03
1.892000000000000000e+03 1.067027473449707031e+01 1.807158470153808594e+01 -1.010208623483777046e-03 -3.713744808919727802e-04 -4.144749254919588566e-04 -9.338705422123894095e-05
1.893000000000000000e+03 1.090681743621826172e+01 1.912426757812500000e+01 1.263354555703699589e-03 4.066020483151078224e-04 5.009869928471744061e-04 5.124224117025732994e-04
1.894000000000000000e+03 1.168247127532958984e+01 -2.983611679077148438e+01 -4.981194622814655304e-03 -3.542028833180665970e-03 -2.556967083364725113e-03 1.927446806803345680e-03
1.895000000000000000e+03 2.621526145935058594e+01 -2.637546300888061523e+00 -7.426664233207702637e-02 3.163575172424316406e+00 9.267925620079040527e-01 4.094944298267364502e-01
1.896000000000000000e+03 2.608929061889648438e+01 5.761039257049560547e+00 -4.843778908252716064e-02 2.683680057525634766e+00 7.905727028846740723e-01 6.392292976379394531e-01
1.897000000000000000e+03 3.982157516479492188e+01 4.029065704345703125e+01 -6.922107934951782227e-01 9.716521263122558594e+00 2.707293033599853516e+00 -8.074907064437866211e-01
1.898000000000000000e+03 2.596936035156250000e+01 1.636482596397399902e+00 -5.550326779484748840e-02 2.922057151794433594e+00 8.599661588668823242e-01 5.093264579772949219e-01
1.899000000000000000e+03 2.590185737609863281e+01 -1.376705169677734375e+01 -1.557995192706584930e-02 3.365431308746337891e+00 1.004955410957336426e+00 2.037058919668197632e-01
1.900000000000000000e+03 3.698992919921875000e+01 4.141324615478515625e+01 4.678408503532409668e-01 4.978306293487548828e+00 1.633844256401062012e+00 -5.141951441764831543e-01
1.901000000000000000e+03 3.737124633789062500e+01 3.854737472534179688e+01 7.173998355865478516e-01 4.047303676605224609e+00 1.429411053657531738e+00 -1.650572538375854492e+00
1.902000000000000000e+03 2.436556053161621094e+01 -2.981843566894531250e+01 4.978964850306510925e-02 3.289392232894897461e+00 1.001754522323608398e+00 1.126958876848220825e-01
1.903000000000000000e+03 1.125539684295654297e+01 2.884206962585449219e+01 2.153931185603141785e-03 -5.855241906829178333e-04 4.705220926553010941e-04 1.302202465012669563e-03
1.904000000000000000e+03 8.217823028564453125e+00 2.432776641845703125e+01 -1.014127163216471672e-03 -6.495890556834638119e-04 -4.991148598492145538e-04 -1.170340983662754297e-04
1.905000000000000000e+03 6.656095504760742188e+00 3.304612350463867188e+01 2.652825322002172470e-03 -5.758304541814140975e-05 7.785726338624954224e-04 1.263326033949851990e-03
1.906000000000000000e+03 7.224516296386718750e+01 4.101709365844726562e+01 2.117412835359573364e-01 5.984811305999755859e+00 1.858965754508972168e+00 -8.173193037509918213e-02
1.907000000000000000e+03 3.823148345947265625e+01 3.138757705688476562e+01 4.142353534698486328e+00 4.955185890197753906e+00 2.729261875152587891e+00 5.127624511718750000e+00
1.908000000000000000e+03 3.906976318359375000e+01 3.071764183044433594e+01 2.788056135177612305e+00 9.531393051147460938e+00 3.695834875106811523e+00 5.680670738220214844e+00
1.909000000000000000e+03 3.479626846313476562e+01 3.061304664611816406e+01 2.101389884948730469e+00 1.175054430961608887e+00 9.829332828521728516e-01 1.525209307670593262e+00
1.910000000000000000e+03 4.039151382446289062e+01 3.036722755432128906e+01 1.386014223098754883e+00 1.347668266296386719e+01 4.458808898925781250e+00 4.042376041412353516e+00
1.911000000000000000e+03 3.433903884887695312e+01 3.078814697265625000e+01 1.829722523689270020e+00 9.109033346176147461e-01 8.221877813339233398e-01 1.186258554458618164e+00
1.912000000000000000e+03 4.168444824218750000e+01 3.052676582336425781e+01 1.685891270637512207e+00 1.504913330078125000e+01 5.020507335662841797e+00 1.206702589988708496e+00
1.913000000000000000e+03 6.045197486877441406e+00 6.963114738464355469e+00 -3.244972613174468279e-04 -1.361756585538387299e-04 -1.382018672302365303e-04 4.561645619105547667e-05
1.914000000000000000e+03 3.257040405273437500e+01 3.096051979064941406e+01 1.033167958259582520e+00 4.967242777347564697e-01 4.589676856994628906e-01 4.187909960746765137e-01
1.915000000000000000e+03 3.306596374511718750e+01 3.030872344970703125e+01 1.447008848190307617e+00 7.780773639678955078e-01 6.675258278846740723e-01 7.989986538887023926e-01
1.916000000000000000e+03 8.224699020385742188e+00 5.610992431640625000e+00 4.339514707680791616e-04 1.551500026835128665e-04 1.767304347595199943e-04 1.684626768110319972e-04
1.917000000000000000e+03 9.697935104370117188e+00 4.926638603210449219e+00 -5.004236591048538685e-04 -1.631047198316082358e-04 -1.990585151361301541e-04 -2.529880730435252190e-04
1.918000000000000000e+03 7.177902698516845703e+00 6.476338386535644531e+00 -3.706348070409148932e-04 -2.967210020869970322e-04 -2.002067340072244406e-04 2.141827862942591310e-04
1.919000000000000000e+03 2.661223793029785156e+01 3.129152870178222656e+01 6.643338501453399658e-02 1.017318665981292725e-01 5.044957622885704041e-02 -3.277190625667572021e-01
1.920000000000000000e+03 2.751018905639648438e+01 3.040584373474121094e+01 2.811580002307891846e-01 2.125394642353057861e-01 1.481092423200607300e-01 -2.154191136360168457e-01
1.921000000000000000e+03 5.711161136627197266e+00 5.931248664855957031e+00 -6.233118474483489990e-04 -1.566449209349229932e-04 -2.339870407013222575e-04 4.545969131868332624e-04
1.922000000000000000e+03 6.641464233398437500e+00 5.182926177978515625e+00 -3.775051445700228214e-04 -3.279201919212937355e-04 -2.116276009473949671e-04 1.148808223661035299e-04
1.923000000000000000e+03 6.451696395874023438e+00 6.154679298400878906e+00 4.519964277278631926e-04 2.822625974658876657e-04 2.202776959165930748e-04 -2.183602045988664031e-04
1.924000000000000000e+03 9.302773475646972656e+00 -4.933845996856689453e+00 -4.758567956741899252e-04 -2.992691879626363516e-04 -2.325377863598987460e-04 2.468616585247218609e-04
1.925000000000000000e+03 8.601134300231933594e+00 -4.921723842620849609e+00 4.874450387433171272e-04 4.029542033094912767e-04 2.671197871677577496e-04 -3.583191573852673173e-05
1.926000000000000000e+03 7.406990051269531250e+00 5.098907947540283203e+00 1.295853726333007216e-04 3.533102571964263916e-04 1.448686962248757482e-04 -3.302758705103769898e-05
1.927000000000000000e+03 1.054139232635498047e+01 5.802572727203369141e+00 -6.277574575506150723e-04 -1.170453688246197999e-04 -2.234408602816984057e-04 -2.229072415502741933e-04
1.928000000000000000e+03 2.977315902709960938e+01 3.036838531494140625e+01 5.863459706306457520e-01 3.967680633068084717e-01 2.949342131614685059e-01 5.308276508003473282e-03
1.929000000000000000e+03 3.040185165405273438e+01 3.043293952941894531e+01 7.137838006019592285e-01 4.246441125869750977e-01 3.415283858776092529e-01 1.042338982224464417e-01
1.930000000000000000e+03 2.880735778808593750e+01 2.943562316894531250e+01 6.138307452201843262e-01 4.012400507926940918e-01 3.045212328433990479e-01 2.114950306713581085e-02
1.931000000000000000e+03 2.905012512207031250e+01 3.028976821899414062e+01 4.977549016475677490e-01 3.233732879161834717e-01 2.463384568691253662e-01 -6.925301998853683472e-02
1.932000000000000000e+03 6.712744712829589844e+00 -6.607891559600830078e+00 -2.535960229579359293e-04 -2.472896812832914293e-05 -8.349749987246468663e-05 -5.018626106902956963e-04
1.933000000000000000e+03 9.570536613464355469e+00 8.041874885559082031e+00 5.414184997789561749e-04 2.646983775775879622e-04 2.418350632069632411e-04 1.268043124582618475e-04
1.934000000000000000e+03 7.272494792938232422e+00 -7.356762409210205078e+00 7.003090577200055122e-04 -1.938392524607479572e-04 1.519409270258620381e-04 3.192087751813232899e-04
1.935000000000000000e+03 8.872625350952148438e+00 -6.181072235107421875e+00 4.043194931000471115e-04 -6.027120398357510567e-04 -5.951776984147727489e-05 6.442387821152806282e-04
1.936000000000000000e+03 3.366099548339843750e+01 3.033548927307128906e+01 1.686359643936157227e+00 9.324688911437988281e-01 7.856485843658447266e-01 1.058547496795654297e+00
1.937000000000000000e+03 2.592645263671875000e+01 3.108785629272460938e+01 6.321966648101806641e-02 3.783870860934257507e-02 3.031751327216625214e-02 -3.314460813999176025e-01
1.938000000000000000e+03 2.521723365783691406e+01 2.984871673583984375e+01 1.630308777093887329e-01 -2.036811783909797668e-04 4.884815961122512817e-02 -2.792991101741790771e-01
1.939000000000000000e+03 3.172368431091308594e+01 3.030305290222167969e+01 1.026327252388000488e+00 5.907161831855773926e-01 4.851130247116088867e-01 3.919571936130523682e-01
1.940000000000000000e+03 3.241284942626953125e+01 3.029077529907226562e+01 1.246281743049621582e+00 6.808765530586242676e-01 5.781474709510803223e-01 5.959480404853820801e-01
1.941000000000000000e+03 1.148035144805908203e+01 6.785315036773681641e+00 -6.282204412855207920e-04 -1.057866393239237368e-04 -2.202021278208121657e-04 -1.239548291778191924e-04
1.942000000000000000e+03 1.252399253845214844e+01 5.550475597381591797e+00 -6.491613457910716534e-04 -3.617309994297102094e-05 -2.056003286270424724e-04 -4.254618397681042552e-05
1.943000000000000000e+03 4.577107238769531250e+01 3.356569671630859375e+01 4.476484775543212891e+00 1.159495162963867188e+01 4.821431159973144531e+00 6.133948564529418945e-01
1.944000000000000000e+03 4.314075851440429688e+01 3.042935562133789062e+01 2.310883760452270508e+00 1.362193870544433594e+01 4.779846668243408203e+00 -2.923005819320678711e-01
1.945000000000000000e+03 4.430313110351562500e+01 3.660269927978515625e+01 2.120867252349853516e+00 1.365343475341796875e+01 4.732290744781494141e+00 2.137649774551391602e+00
1.946000000000000000e+03 4.538828277587890625e+01 3.220427703857421875e+01 4.186822414398193359e+00 1.171233844757080078e+01 4.769748210906982422e+00 -1.691564172506332397e-01
1.947000000000000000e+03 8.052613258361816406e+00 1.223272609710693359e+01 3.882429737132042646e-04 -1.084153627743944526e-04 8.394828182645142078e-05 4.231536586303263903e-04
1.948000000000000000e+03 1.165570163726806641e+01 -5.522654056549072266e+00 9.554772404953837395e-04 1.847431703936308622e-04 3.420661087147891521e-04 -3.501825849525630474e-04
1.949000000000000000e+03 4.711983203887939453e+00 6.612121582031250000e+00 -8.646399364806711674e-04 -8.825191616779193282e-05 -2.858675434254109859e-04 4.739405703730881214e-04
1.950000000000000000e+03 2.661629676818847656e+01 -1.943116950988769531e+01 -5.154300853610038757e-02 3.512531518936157227e+00 1.038296580314636230e+00 1.540582180023193359e-01
1.951000000000000000e+03 4.940553188323974609e+00 -4.730109691619873047e+00 -5.961799179203808308e-04 1.847945386543869972e-04 -1.234156225109472871e-04 3.026442136615514755e-04
1.952000000000000000e+03 8.542915344238281250e+00 7.071021556854248047e+00 -2.561513392720371485e-04 -2.716558519750833511e-04 -1.583421544637531042e-04 -1.219492769450880587e-04
1.953000000000000000e+03 2.705146598815917969e+01 1.822833180427551270e+00 -8.286040276288986206e-02 3.095211029052734375e+00 9.037052392959594727e-01 5.568773150444030762e-01
1.954000000000000000e+03 1.131632518768310547e+01 -1.040689086914062500e+01 1.443760003894567490e-03 2.284272632095962763e-04 5.016562063246965408e-04 -3.324580029584467411e-04
1.955000000000000000e+03 9.225882530212402344e+00 -9.059477806091308594e+00 -1.103251590393483639e-03 -2.781189105007797480e-04 -4.144111589994281530e-04 -3.310336251161061227e-05
1.956000000000000000e+03 9.202544212341308594e+00 1.753971481323242188e+01 -5.611387896351516247e-04 -3.521839680615812540e-04 -2.739968185778707266e-04 3.266458952566608787e-05
1.957000000000000000e+03 8.907759666442871094e+00 1.501416778564453125e+01 -2.680221950868144631e-05 1.614667271496728063e-04 4.039935083710588515e-05 -5.850214511156082153e-04
1.958000000000000000e+03 7.509920120239257812e+00 2.193534851074218750e+01 -1.451691496185958385e-03 -6.393505027517676353e-04 -6.273126346059143543e-04 5.136546678841114044e-04
1.959000000000000000e+03 9.066592216491699219e+00 2.264836883544921875e+01 -1.244009705260396004e-03 -6.491255480796098709e-04 -5.679405876435339451e-04 -3.998115516878897324e-06
1.960000000000000000e+03 6.269409179687500000e+00 1.224732112884521484e+01 2.985123719554394484e-04 1.529692381154745817e-04 1.354444830212742090e-04 2.020948159042745829e-04
1.961000000000000000e+03 2.747416687011718750e+01 -6.777623653411865234e+00 -8.451459556818008423e-02 3.457157611846923828e+00 1.011792898178100586e+00 3.627904355525970459e-01
1.962000000000000000e+03 2.758684158325195312e+01 -4.049159049987792969e+00 -1.021585464477539062e-01 3.415824651718139648e+00 9.940998554229736328e-01 4.201399981975555420e-01
1.963000000000000000e+03 1.078525161743164062e+01 -1.414092445373535156e+01 -1.596290967427194118e-03 -4.457162285689264536e-04 -6.126021617092192173e-04 2.641768660396337509e-04
1.964000000000000000e+03 7.174331665039062500e+01 -3.176633453369140625e+01 -2.562650293111801147e-02 8.608819007873535156e+00 2.574957847595214844e+00 -4.524029046297073364e-02
1.965000000000000000e+03 1.048742580413818359e+01 2.818541908264160156e+01 9.761186665855348110e-04 1.370492042042315006e-03 7.039831834845244884e-04 -7.148438016884028912e-04
1.966000000000000000e+03 7.333423614501953125e+01 -2.326411247253417969e+01 -1.962858438491821289e-02 8.751214981079101562e+00 2.619475841522216797e+00 -9.203077107667922974e-02
1.967000000000000000e+03 7.261069488525390625e+01 2.575627708435058594e+01 8.323838561773300171e-02 6.585843563079833984e+00 2.000724554061889648e+00 -7.540252804756164551e-01
1.968000000000000000e+03 7.130341339111328125e+01 1.761438751220703125e+01 -3.576441481709480286e-02 7.249639034271240234e+00 2.164162397384643555e+00 -8.972177505493164062e-01
1.969000000000000000e+03 7.272822570800781250e+01 1.579032421112060547e+01 -4.682362452149391174e-02 7.265125751495361328e+00 2.165490627288818359e+00 -7.818486690521240234e-01
1.970000000000000000e+03 7.390158843994140625e+01 -2.725082969665527344e+01 -1.664956286549568176e-02 8.833230972290039062e+00 2.644974470138549805e+00 -5.532122775912284851e-02
1.971000000000000000e+03 7.299226379394531250e+01 -2.643412208557128906e+01 -2.183097228407859802e-02 8.726736068725585938e+00 2.611471414566040039e+00 -7.103908807039260864e-02
1.972000000000000000e+03 7.278852081298828125e+01 -1.633307838439941406e+01 -4.534728452563285828e-02 8.598773002624511719e+00 2.566027641296386719e+00 -1.499772071838378906e-01
1.973000000000000000e+03 7.265188598632812500e+01 -1.775433158874511719e+01 -3.689698129892349243e-02 8.605458259582519531e+00 2.570568323135375977e+00 -1.387032866477966309e-01
1.974000000000000000e+03 7.131256866455078125e+01 9.310550689697265625e+00 -1.245186328887939453e-01 7.714039802551269531e+00 2.276856184005737305e+00 -7.324662208557128906e-01
1.975000000000000000e+03 7.267019653320312500e+01 9.043291091918945312e+00 -9.488996863365173340e-02 7.709511756896972656e+00 2.284386634826660156e+00 -6.557194590568542480e-01
1.976000000000000000e+03 7.299176788330078125e+01 -9.692639350891113281e+00 -6.018259003758430481e-02 8.490631103515625000e+00 2.529134511947631836e+00 -2.325013875961303711e-01
1.977000000000000000e+03 7.305861663818359375e+01 -1.102375030517578125e+01 -5.657163634896278381e-02 8.521735191345214844e+00 2.539548873901367188e+00 -2.150846123695373535e-01
1.978000000000000000e+03 7.283078002929687500e+01 -2.636250972747802734e+00 -8.828558772802352905e-02 8.268395423889160156e+00 2.454033136367797852e+00 -3.739545643329620361e-01
1.979000000000000000e+03 7.286351776123046875e+01 1.885837167501449585e-01 -9.161043167114257812e-02 8.161421775817871094e+00 2.420943498611450195e+00 -4.341515898704528809e-01
1.980000000000000000e+03 7.133322906494140625e+01 4.166821956634521484e+00 -1.322071254253387451e-01 7.946120738983154297e+00 2.344174146652221680e+00 -5.943328142166137695e-01
1.981000000000000000e+03 7.284455108642578125e+01 1.575343012809753418e+00 -9.470522403717041016e-02 8.101831436157226562e+00 2.402137994766235352e+00 -4.672229290008544922e-01
1.982000000000000000e+03 7.279684448242187500e+01 -4.083345413208007812e+00 -8.504255115985870361e-02 8.317482948303222656e+00 2.469732284545898438e+00 -3.437092304229736328e-01
1.983000000000000000e+03 7.414523315429687500e+01 -6.814367771148681641e+00 -5.191367119550704956e-02 8.508099555969238281e+00 2.536855697631835938e+00 -2.487420737743377686e-01
1.984000000000000000e+03 7.099517059326171875e+01 5.562501907348632812e+00 -1.440611630678176880e-01 7.880481243133544922e+00 2.320925951004028320e+00 -6.525123715400695801e-01
1.985000000000000000e+03 7.421643066406250000e+01 -1.364350414276123047e+01 -3.271427378058433533e-02 8.691561698913574219e+00 2.597654342651367188e+00 -1.578655838966369629e-01
1.986000000000000000e+03 7.407583618164062500e+01 -2.068517494201660156e+01 -2.406825125217437744e-02 8.796629905700683594e+00 2.631768465042114258e+00 -9.515947103500366211e-02
1.987000000000000000e+03 8.430625915527343750e+00 3.692896270751953125e+01 -1.957532949745655060e-03 -8.716207958059385419e-06 -5.898747476749122143e-04 -2.285622991621494293e-03
1.988000000000000000e+03 7.224405670166015625e+01 2.732978439331054688e+01 1.208301261067390442e-01 6.534858226776123047e+00 1.996706485748291016e+00 -7.395148873329162598e-01
1.989000000000000000e+03 1.135183811187744141e+01 9.139273643493652344e+00 -6.947908550500869751e-04 -1.406581286573782563e-04 -2.506346791051328182e-04 -1.465759560232982039e-04
1.990000000000000000e+03 2.676329231262207031e+01 2.701171112060546875e+01 4.934309720993041992e-01 4.284000992774963379e-01 2.765493094921112061e-01 1.334505528211593628e-01
1.991000000000000000e+03 2.561099433898925781e+01 2.564450645446777344e+01 3.600377440452575684e-01 3.460785448551177979e-01 2.118348926305770874e-01 1.885099858045578003e-01
1.992000000000000000e+03 8.728811264038085938e+00 -1.864319610595703125e+01 1.916604815050959587e-03 2.199851005570963025e-04 6.409769412130117416e-04 -5.148714408278465271e-04
1.993000000000000000e+03 1.039790916442871094e+01 -1.665046310424804688e+01 -1.525413477793335915e-03 -7.445232477039098740e-04 -6.809810292907059193e-04 2.978132397402077913e-04
1.994000000000000000e+03 2.833167266845703125e+01 1.616675376892089844e+01 3.613026812672615051e-02 2.408572435379028320e+00 7.334107756614685059e-01 1.078646183013916016e+00
1.995000000000000000e+03 2.697285842895507812e+01 1.874014091491699219e+01 1.614239811897277832e-01 1.652139186859130859e+00 5.440689325332641602e-01 8.930706381797790527e-01
1.996000000000000000e+03 9.507161140441894531e+00 -2.005027770996093750e+01 1.833689399063587189e-03 -7.799925515428185463e-04 3.161090426146984100e-04 -1.198649290017783642e-03
1.997000000000000000e+03 2.743165779113769531e+01 1.315930461883544922e+01 -4.908482357859611511e-02 2.435099124908447266e+00 7.158042788505554199e-01 9.481388926506042480e-01
1.998000000000000000e+03 2.753801727294921875e+01 1.168963241577148438e+01 -7.924927771091461182e-02 2.589885473251342773e+00 7.531908750534057617e-01 9.258710145950317383e-01
1.999000000000000000e+03 2.620633888244628906e+01 8.658833503723144531e+00 -5.956939980387687683e-02 2.488854646682739258e+00 7.287855744361877441e-01 7.367859482765197754e-01
2.000000000000000000e+03 2.614100837707519531e+01 1.302718544006347656e+01 -3.220011666417121887e-02 2.056302070617675781e+00 6.072305440902709961e-01 8.187389373779296875e-01
2.001000000000000000e+03 9.850740432739257812e+00 2.097879981994628906e+01 -7.858172757551074028e-04 -2.263955248054116964e-04 -3.036638372577726841e-04 6.664940156042575836e-04
2.002000000000000000e+03 6.321521282196044922e+00 -8.136552810668945312e+00 -5.011771572753787041e-04 -7.948939310153946280e-05 -1.741999731166288257e-04 -3.357932728249579668e-04
2.003000000000000000e+03 5.215946197509765625e+00 -8.705667495727539062e+00 1.252577640116214752e-03 1.326424826402217150e-04 4.155660571996122599e-04 2.956331300083547831e-04
2.004000000000000000e+03 2.597616958618164062e+01 1.586923217773437500e+01 2.888239733874797821e-02 1.683049917221069336e+00 5.135796666145324707e-01 8.127162456512451172e-01
2.005000000000000000e+03 2.728296279907226562e+01 1.459381389617919922e+01 -9.903391823172569275e-03 2.251747369766235352e+00 6.725531816482543945e-01 9.570601582527160645e-01
2.006000000000000000e+03 2.654215431213378906e+01 2.906590461730957031e+01 3.543845713138580322e-01 2.001117169857025146e-01 1.663488894701004028e-01 -1.461793929338455200e-01
2.007000000000000000e+03 6.614565849304199219e+00 -1.722661399841308594e+01 -1.912363688461482525e-03 -6.419871933758258820e-04 -7.663052529096603394e-04 -5.280925543047487736e-04
2.008000000000000000e+03 7.848637104034423828e+00 -2.765355873107910156e+01 -2.701727906242012978e-03 3.149450058117508888e-04 -7.160348468460142612e-04 -2.328935079276561737e-04
2.009000000000000000e+03 7.642191410064697266e+00 -1.842811012268066406e+01 -1.627994235605001450e-03 -7.909890264272689819e-04 -7.256949902512133121e-04 -2.042815822278498672e-06
2.010000000000000000e+03 6.984686851501464844e+00 2.714644813537597656e+01 6.779751856811344624e-04 1.131773227825760841e-03 5.429245065897703171e-04 -1.002157456241548061e-03
2.011000000000000000e+03 5.751698970794677734e+00 1.758394813537597656e+01 -1.395483966916799545e-03 -3.321491385577246547e-05 -4.286096664145588875e-04 1.872862339951097965e-04
2.012000000000000000e+03 5.516064643859863281e+00 1.627985000610351562e+01 1.656818552874028683e-03 -3.001304867211729288e-04 4.070064169354736805e-04 -3.992920755990780890e-05
2.013000000000000000e+03 1.083626461029052734e+01 -2.227886390686035156e+01 1.690124394372105598e-03 -7.602553232572972775e-04 2.789607096929103136e-04 1.867946470156311989e-03
2.014000000000000000e+03 1.169816493988037109e+01 -2.299672508239746094e+01 -2.556795720010995865e-03 -9.706564742373302579e-05 -7.961584487929940224e-04 -1.591881969943642616e-03
2.015000000000000000e+03 6.781002521514892578e+00 1.982650756835937500e+01 -8.655536221340298653e-04 -9.154918370768427849e-05 -2.871308242902159691e-04 5.576566327363252640e-04
2.016000000000000000e+03 5.987989425659179688e+00 2.024209213256835938e+01 3.523678169585764408e-04 3.495524579193443060e-04 2.105760795529931784e-04 1.262631558347493410e-04
2.017000000000000000e+03 6.429291725158691406e+00 1.577662849426269531e+01 1.000832053250633180e-04 3.364603253430686891e-05 4.011877172160893679e-05 2.063561842078343034e-04
2.018000000000000000e+03 7.203754425048828125e+00 1.490048694610595703e+01 -2.671591646503657103e-04 1.176350488094612956e-04 -4.485723547986708581e-05 -4.993274342268705368e-04
2.019000000000000000e+03 5.643794059753417969e+00 -1.977948760986328125e+01 2.500763162970542908e-03 4.035970487166196108e-04 8.713080896995961666e-04 1.726210350170731544e-03
2.020000000000000000e+03 8.434080123901367188e+00 -1.970817375183105469e+01 -1.840391894802451134e-03 1.198219615616835654e-04 -5.161709850654006004e-04 1.253238180652260780e-03
2.021000000000000000e+03 2.757519531250000000e+01 -1.492655086517333984e+01 -4.673089832067489624e-02 3.583783626556396484e+00 1.061115860939025879e+00 1.977707594633102417e-01
2.022000000000000000e+03 2.734833145141601562e+01 -9.506045341491699219e+00 -6.111476197838783264e-02 3.488920450210571289e+00 1.028341650962829590e+00 3.088020384311676025e-01
2.023000000000000000e+03 2.681215286254882812e+01 2.146435928344726562e+01 3.115945160388946533e-01 1.223337411880493164e+00 4.604795873165130615e-01 7.423899173736572266e-01
2.024000000000000000e+03 1.114325809478759766e+01 -2.378433609008789062e+01 -5.053445347584784031e-04 -1.451455871574580669e-03 -5.870400927960872650e-04 3.846138424705713987e-04
2.025000000000000000e+03 5.572770118713378906e+00 1.508934402465820312e+01 -1.298300805501639843e-03 1.673525985097512603e-04 -3.392844810150563717e-04 -3.531406982801854610e-04
2.026000000000000000e+03 6.784912109375000000e+00 -1.463302326202392578e+01 -1.737771322950720787e-03 -4.253762890584766865e-04 -6.489442894235253334e-04 -2.242229966213926673e-04
2.027000000000000000e+03 2.562518501281738281e+01 2.421272659301757812e+01 3.263486027717590332e-01 5.022173523902893066e-01 2.485697865486145020e-01 3.391509950160980225e-01
2.028000000000000000e+03 1.061975383758544922e+01 -2.714332389831542969e+01 2.390792360529303551e-03 1.734903344186022878e-04 7.692847866564989090e-04 1.832531997933983803e-04
2.029000000000000000e+03 8.691312789916992188e+00 8.795681953430175781e+00 1.069016143446788192e-04 4.750027146656066179e-04 1.745712943375110626e-04 1.815940777305513620e-04
2.030000000000000000e+03 5.458987236022949219e+00 6.718789577484130859e+00 5.119396373629570007e-04 2.781264192890375853e-04 2.370198199059814215e-04 -6.459344294853508472e-04
2.031000000000000000e+03 5.953848838806152344e+00 8.066450119018554688e+00 -8.352684089913964272e-04 -7.822953193681314588e-05 -2.740493800956755877e-04 6.684168329229578376e-05
2.032000000000000000e+03 2.674481964111328125e+01 2.282661437988281250e+01 3.850823938846588135e-01 1.000576019287109375e+00 4.156975150108337402e-01 6.264965534210205078e-01
2.033000000000000000e+03 9.955151557922363281e+00 1.267010498046875000e+01 -5.374280735850334167e-04 -3.652323212008923292e-04 -2.707981038838624954e-04 2.844721020665019751e-04
2.034000000000000000e+03 5.262283325195312500e+00 1.184059619903564453e+01 -1.146030961535871029e-03 -9.983680502045899630e-05 -3.737603256013244390e-04 5.871292087249457836e-04
2.035000000000000000e+03 5.583557128906250000e+00 -1.316836166381835938e+01 -1.508643734268844128e-03 -4.224185249768197536e-04 -5.793186719529330730e-04 -3.047402424272149801e-04
2.036000000000000000e+03 6.895187854766845703e+00 -1.317053508758544922e+01 1.666576834395527840e-03 3.782296844292432070e-04 6.134419236332178116e-04 2.506473974790424109e-04
2.037000000000000000e+03 7.636320114135742188e+00 9.152455329895019531e+00 3.826030297204852104e-05 1.873908186098560691e-04 6.769533501937985420e-05 -1.350020102108828723e-05
2.038000000000000000e+03 5.833546638488769531e+00 -7.077421188354492188e+00 7.130532176233828068e-04 1.419275649823248386e-04 2.564942406024783850e-04 5.496485391631722450e-04
2.039000000000000000e+03 2.831611824035644531e+01 -1.877111816406250000e+01 -6.813133507966995239e-02 3.709850072860717773e+00 1.092515707015991211e+00 1.567985713481903076e-01
2.040000000000000000e+03 2.747207832336425781e+01 7.191653728485107422e+00 -1.011340245604515076e-01 2.902975559234619141e+00 8.405524492263793945e-01 7.781988382339477539e-01
2.041000000000000000e+03 2.597699165344238281e+01 -1.514149570465087891e+01 -2.735318243503570557e-02 3.380524158477783203e+00 1.005951285362243652e+00 1.846469491720199585e-01
2.042000000000000000e+03 2.737326622009277344e+01 7.928251028060913086e-01 -9.881311655044555664e-02 3.220439910888671875e+00 9.364880323410034180e-01 5.407083034515380859e-01
2.043000000000000000e+03 2.865408706665039062e+01 5.663750648498535156e+00 -1.448376029729843140e-01 3.271236419677734375e+00 9.379196166992187500e-01 7.853333950042724609e-01
2.044000000000000000e+03 9.673008918762207031e+00 1.598334121704101562e+01 -4.362241015769541264e-04 -4.417178206495009363e-05 -1.441187632735818624e-04 4.791136598214507103e-04
2.045000000000000000e+03 1.007072353363037109e+01 -3.180552482604980469e+01 -6.588949821889400482e-03 4.929854068905115128e-03 -4.977287026122212410e-04 2.712632063776254654e-03
2.046000000000000000e+03 1.075159549713134766e+01 -3.331637573242187500e+01 -1.344776991754770279e-02 2.778404857963323593e-03 -3.200809704139828682e-03 1.612443476915359497e-03
2.047000000000000000e+03 2.706404876708984375e+01 1.737344169616699219e+01 9.340080618858337402e-02 1.851749897003173828e+00 5.835452079772949219e-01 9.332054853439331055e-01
2.048000000000000000e+03 1.078194618225097656e+01 2.966902732849121094e+01 -2.396012656390666962e-03 1.966201933100819588e-03 -1.289432402700185776e-04 -1.740716630592942238e-03
2.049000000000000000e+03 2.680473709106445312e+01 -2.104388427734375000e+01 -6.678565591573715210e-02 3.545949459075927734e+00 1.043749213218688965e+00 1.401198357343673706e-01
2.050000000000000000e+03 2.479567909240722656e+01 -2.411119461059570312e+01 -3.281922638416290283e-02 3.317506074905395508e+00 9.854061007499694824e-01 1.295835673809051514e-01
2.051000000000000000e+03 2.710779953002929688e+01 3.031023025512695312e+00 -8.513999730348587036e-02 3.060589551925659180e+00 8.926348686218261719e-01 6.031684279441833496e-01
2.052000000000000000e+03 1.041026020050048828e+01 2.213052368164062500e+01 1.460675499401986599e-03 4.754469555336982012e-04 5.808367277495563030e-04 -1.566880528116598725e-04
2.053000000000000000e+03 2.577677345275878906e+01 2.003819847106933594e+01 1.777561753988265991e-01 1.084166288375854492e+00 3.785767257213592529e-01 6.849646568298339844e-01
2.054000000000000000e+03 2.416514396667480469e+01 -3.123798370361328125e+01 6.547313183546066284e-02 3.222313165664672852e+00 9.863358736038208008e-01 9.526776522397994995e-02
2.055000000000000000e+03 2.450157737731933594e+01 -2.838138771057128906e+01 -2.458904171362519264e-03 3.296387434005737305e+00 9.881786108016967773e-01 1.057832762598991394e-01
2.056000000000000000e+03 2.648254013061523438e+01 -2.717638587951660156e+01 -2.256681211292743683e-02 3.500658988952636719e+00 1.043427705764770508e+00 1.179851740598678589e-01
2.057000000000000000e+03 1.169213008880615234e+01 3.464559555053710938e+01 4.354692529886960983e-03 3.702933900058269501e-04 1.417495775967836380e-03 -3.753081255126744509e-04
2.058000000000000000e+03 1.156486701965332031e+01 -6.746171474456787109e+00 -1.185433473438024521e-03 -1.967598509509116411e-04 -4.146580176893621683e-04 3.289702581241726875e-04
2.059000000000000000e+03 9.520018577575683594e+00 -6.387361526489257812e+00 1.300311647355556488e-03 1.252365618711337447e-04 4.276644904166460037e-04 -9.107083897106349468e-04
2.060000000000000000e+03 1.000233936309814453e+01 2.711302375793457031e+01 -1.807749271392822266e-03 -1.253350288607180119e-03 -9.183298680000007153e-04 2.749604173004627228e-04
2.061000000000000000e+03 7.310776519775390625e+01 -2.222397422790527344e+01 -3.649977967143058777e-02 8.697429656982421875e+00 2.598278999328613281e+00 -9.944074600934982300e-02
2.062000000000000000e+03 7.289283752441406250e+01 -1.497666549682617188e+01 -4.860797151923179626e-02 8.582229614257812500e+00 2.560086488723754883e+00 -1.674669384956359863e-01
2.063000000000000000e+03 8.998762130737304688e+00 -3.562786865234375000e+01 -2.502134069800376892e-02 1.470537018030881882e-02 -3.094791201874613762e-03 -1.194487232714891434e-02
2.064000000000000000e+03 7.289220428466796875e+01 -8.331900596618652344e+00 -6.855940818786621094e-02 8.451580047607421875e+00 2.514906167984008789e+00 -2.598965764045715332e-01
2.065000000000000000e+03 2.632584953308105469e+01 -1.159993171691894531e+00 -7.608060538768768311e-02 3.124827861785888672e+00 9.146241545677185059e-01 4.470485448837280273e-01
2.066000000000000000e+03 1.058681678771972656e+01 3.682089233398437500e+01 4.274046514183282852e-03 -5.873806076124310493e-04 1.105999806895852089e-03 7.822081679478287697e-04
2.067000000000000000e+03 1.009724521636962891e+01 3.499343872070312500e+01 -3.218352794647216797e-03 3.793293726630508900e-04 -8.517070673406124115e-04 -1.321842544712126255e-03
2.068000000000000000e+03 8.339574813842773438e+00 3.903605651855468750e+01 1.298485556617379189e-03 4.036973696202039719e-04 5.106548778712749481e-04 1.785539323464035988e-03
2.069000000000000000e+03 7.415769958496093750e+01 2.638545036315917969e-01 -6.457396596670150757e-02 8.222170829772949219e+00 2.447279214859008789e+00 -3.785647451877593994e-01
2.070000000000000000e+03 7.242655181884765625e+01 7.532938957214355469e+00 -1.036968603730201721e-01 7.798583507537841797e+00 2.308465957641601562e+00 -6.333587169647216797e-01
2.071000000000000000e+03 7.435038757324218750e+01 1.972361183166503906e+01 -7.574310526251792908e-03 6.823929786682128906e+00 2.044906616210937500e+00 -6.637933254241943359e-01
2.072000000000000000e+03 1.005716514587402344e+01 -1.146412372589111328e+01 1.327206147834658623e-03 2.504027215763926506e-04 4.732826491817831993e-04 -4.448414838407188654e-04
2.073000000000000000e+03 9.537813186645507812e+00 -1.382998943328857422e+01 1.513246446847915649e-03 3.934835258405655622e-04 5.720189656130969524e-04 -1.540920347906649113e-04
2.074000000000000000e+03 3.760136032104492188e+01 3.176277923583984375e+01 4.076011657714843750e+00 2.520318269729614258e+00 1.978899002075195312e+00 3.719954013824462891e+00
2.075000000000000000e+03 3.936781311035156250e+01 3.075139236450195312e+01 2.505520820617675781e+00 1.041391086578369141e+01 3.875829458236694336e+00 5.578609943389892578e+00
2.076000000000000000e+03 3.581777191162109375e+01 3.140358924865722656e+01 2.413963556289672852e+00 1.044902920722961426e+00 1.037660002708435059e+00 1.733651399612426758e+00
2.077000000000000000e+03 3.415822982788085938e+01 3.031747055053710938e+01 1.876277446746826172e+00 1.062490344047546387e+00 8.816303610801696777e-01 1.276790499687194824e+00
2.078000000000000000e+03 4.089757537841796875e+01 3.023317337036132812e+01 1.130550026893615723e+00 1.447772216796875000e+01 4.682481765747070312e+00 2.667650222778320312e+00
2.079000000000000000e+03 8.783349037170410156e+00 6.389671802520751953e+00 3.605856327340006828e-04 2.346604742342606187e-04 1.785738277249038219e-04 9.557857993058860302e-05
2.080000000000000000e+03 5.506655693054199219e+00 7.512768268585205078e+00 2.383771607128437608e-05 -1.819708559196442366e-04 -4.743994213640689850e-05 3.344403812661767006e-04
2.081000000000000000e+03 2.741071510314941406e+01 2.956773376464843750e+01 4.027426838874816895e-01 2.641327381134033203e-01 2.000626325607299805e-01 -1.361902803182601929e-01
2.082000000000000000e+03 7.628541469573974609e+00 5.816165447235107422e+00 1.772598625393584371e-04 -9.691705054137855768e-05 2.410284287179820240e-05 -3.651479346444830298e-05
2.083000000000000000e+03 2.828301811218261719e+01 3.036665725708007812e+01 3.888682723045349121e-01 2.763009369373321533e-01 1.995507627725601196e-01 -1.452450454235076904e-01
2.084000000000000000e+03 2.777040863037109375e+01 2.897480010986328125e+01 5.168402791023254395e-01 3.443659842014312744e-01 2.583618760108947754e-01 -3.112250007688999176e-02
2.085000000000000000e+03 1.047475910186767578e+01 6.822744369506835938e+00 6.179760093800723553e-04 1.482798834331333637e-04 2.298767649335786700e-04 1.953506143763661385e-04
2.086000000000000000e+03 2.949018859863281250e+01 2.904358100891113281e+01 7.707083225250244141e-01 5.644944310188293457e-01 4.005608260631561279e-01 1.966277211904525757e-01
2.087000000000000000e+03 7.891166210174560547e+00 -5.864511013031005859e+00 7.900202181190252304e-04 2.914558863267302513e-04 3.244428080506622791e-04 1.425218797521665692e-04
2.088000000000000000e+03 6.405587673187255859e+00 -5.873889446258544922e+00 2.910307375714182854e-04 5.351893487386405468e-04 2.478660317137837410e-04 3.644943353720009327e-04
2.089000000000000000e+03 2.837332916259765625e+01 2.864920043945312500e+01 6.343646645545959473e-01 4.726568162441253662e-01 3.321064412593841553e-01 1.061506494879722595e-01
2.090000000000000000e+03 3.007345771789550781e+01 2.976219177246093750e+01 7.812511324882507324e-01 5.101326107978820801e-01 3.874151110649108887e-01 1.718184798955917358e-01
2.091000000000000000e+03 3.103288459777832031e+01 3.034514808654785156e+01 8.389252424240112305e-01 4.785589575767517090e-01 3.952452540397644043e-01 2.093999534845352173e-01
2.092000000000000000e+03 8.101875305175781250e+00 -9.072175025939941406e+00 1.120407483540475368e-03 3.676132764667272568e-04 4.464062512852251530e-04 5.372234154492616653e-04
2.093000000000000000e+03 3.157041740417480469e+01 2.954303741455078125e+01 1.174210309982299805e+00 7.788737416267395020e-01 5.859252214431762695e-01 5.738996863365173340e-01
2.094000000000000000e+03 1.049691390991210938e+01 -8.027388572692871094e+00 -1.303136814385652542e-03 -8.212753891712054610e-05 -4.155793285463005304e-04 1.102820897358469665e-04
2.095000000000000000e+03 9.163989067077636719e+00 -5.594857692718505859e+00 3.458658175077289343e-04 5.155904800631105900e-04 2.584368921816349030e-04 -7.556478958576917648e-04
2.096000000000000000e+03 3.300733947753906250e+01 2.961742591857910156e+01 1.604540586471557617e+00 1.054303050041198730e+00 7.976530790328979492e-01 1.037052273750305176e+00
2.097000000000000000e+03 3.230833816528320312e+01 2.953949928283691406e+01 1.394167542457580566e+00 9.172232747077941895e-01 6.934172511100769043e-01 8.044551610946655273e-01
2.098000000000000000e+03 1.149438381195068359e+01 5.727926731109619141e+00 6.341735715977847576e-04 7.111937156878411770e-05 2.115878887707367539e-04 1.104320690501481295e-04
2.099000000000000000e+03 1.143343734741210938e+01 7.933865547180175781e+00 6.511283572763204575e-04 1.278350391658023000e-04 2.336890174774453044e-04 1.504870888311415911e-04
2.100000000000000000e+03 3.362424087524414062e+01 2.976819229125976562e+01 1.779461979866027832e+00 1.176652908325195312e+00 8.868344426155090332e-01 1.247062802314758301e+00
2.101000000000000000e+03 4.204577636718750000e+01 2.935709190368652344e+01 9.324119091033935547e-01 1.333192920684814453e+01 4.279302120208740234e+00 1.111571192741394043e+00
2.102000000000000000e+03 4.560235977172851562e+01 2.980047988891601562e+01 2.146482467651367188e+00 1.160919475555419922e+01 4.126703262329101562e+00 -7.467548251152038574e-01
2.103000000000000000e+03 4.434941101074218750e+01 3.098074722290039062e+01 3.237237691879272461e+00 1.255349159240722656e+01 4.737218856811523438e+00 -7.078515291213989258e-01
2.104000000000000000e+03 8.744018554687500000e+00 1.118139648437500000e+01 -5.585313774645328522e-04 -2.046692097792401910e-04 -2.289601688971742988e-04 -2.065204753307625651e-04
2.105000000000000000e+03 7.178697109222412109e+00 1.315211200714111328e+01 -1.497153571108356118e-04 -5.673531268257647753e-05 -6.193519948283210397e-05 -5.171758239157497883e-04
2.106000000000000000e+03 9.815351486206054688e+00 1.428305435180664062e+01 2.157432900276035070e-04 -3.034857218153774738e-04 -2.632272844493854791e-05 6.966739310882985592e-04
2.107000000000000000e+03 7.796226978302001953e+00 1.715540504455566406e+01 -2.629247901495546103e-04 -3.658539790194481611e-04 -1.886336249299347401e-04 1.311286450800253078e-05
2.108000000000000000e+03 8.040397644042968750e+00 -1.480210113525390625e+01 1.559193711727857590e-03 4.693331138696521521e-04 6.085580680519342422e-04 -6.966195360291749239e-05
2.109000000000000000e+03 9.013820648193359375e+00 -1.129386425018310547e+01 -7.443784270435571671e-04 -6.238150526769459248e-04 -4.104580439161509275e-04 4.309824726078659296e-04
2.110000000000000000e+03 1.034987258911132812e+01 9.101353645324707031e+00 6.947970250621438026e-04 1.676393294474110007e-04 2.587308990769088268e-04 1.723086606943979859e-04
2.111000000000000000e+03 4.194836807250976562e+01 3.000484848022460938e+01 1.320529460906982422e+00 1.414956855773925781e+01 4.641029357910156250e+00 9.655689597129821777e-01
2.112000000000000000e+03 2.787143135070800781e+01 -1.225015521049499512e+00 -1.125253736972808838e-01 3.376738309860229492e+00 9.792638421058654785e-01 5.024907588958740234e-01
2.113000000000000000e+03 2.993811035156250000e+01 5.495399475097656250e+00 -2.000913023948669434e-01 3.574275016784667969e+00 1.012255072593688965e+00 8.220358490943908691e-01
2.114000000000000000e+03 4.747013092041015625e+00 7.769079685211181641e+00 7.283171289600431919e-04 1.397916057612746954e-04 2.604326291475445032e-04 -4.247848992235958576e-04
2.115000000000000000e+03 7.291783905029296875e+01 1.441026687622070312e+01 -5.933693423867225647e-02 7.353915214538574219e+00 2.188373565673828125e+00 -7.441135644912719727e-01
2.116000000000000000e+03 5.858705043792724609e+00 9.029867172241210938e+00 5.717911990359425545e-04 3.718312946148216724e-04 2.830867597367614508e-04 -3.165015077684074640e-04
2.117000000000000000e+03 9.897753715515136719e+00 1.149014854431152344e+01 8.061067201197147369e-04 3.172239521518349648e-04 3.369991900399327278e-04 -9.134031279245391488e-05
2.118000000000000000e+03 1.153503704071044922e+01 -7.983549594879150391e+00 1.324686687439680099e-03 1.556807837914675474e-04 4.441102209966629744e-04 -2.843161055352538824e-04
2.119000000000000000e+03 1.021746158599853516e+01 -1.029323482513427734e+01 -1.128670061007142067e-03 -3.838366828858852386e-04 -4.537520289886742830e-04 2.956928219646215439e-04
2.120000000000000000e+03 6.888180255889892578e+00 1.740619277954101562e+01 1.195209217257797718e-03 3.099965688306838274e-04 4.515617329161614180e-04 3.625381796155124903e-04
2.121000000000000000e+03 9.636075973510742188e+00 1.849596405029296875e+01 5.659086746163666248e-04 5.256277509033679962e-04 3.274609334766864777e-04 8.046215953072533011e-05
2.122000000000000000e+03 6.612280845642089844e+00 8.909076690673828125e+00 1.332216779701411724e-04 -5.611517117358744144e-04 -1.283790188608691096e-04 1.530448935227468610e-04
2.123000000000000000e+03 7.266363525390625000e+01 -2.095707130432128906e+01 -3.307285532355308533e-02 8.633441925048828125e+00 2.580110788345336914e+00 -1.098198592662811279e-01
2.124000000000000000e+03 7.024789428710937500e+01 -2.561941528320312500e+01 -4.091204330325126648e-02 8.416085243225097656e+00 2.512551784515380859e+00 -8.855807036161422729e-02
2.125000000000000000e+03 4.554987335205078125e+01 3.842683410644531250e+01 7.300806045532226562e-01 1.278034210205078125e+01 4.053126811981201172e+00 1.612060666084289551e+00
2.126000000000000000e+03 7.278303527832031250e+01 2.980286359786987305e+00 -9.737999737262725830e-02 8.035198211669921875e+00 2.381345510482788086e+00 -5.033925771713256836e-01
2.127000000000000000e+03 7.017237854003906250e+01 -4.189643383026123047e+00 -1.441648602485656738e-01 8.149753570556640625e+00 2.401676654815673828e+00 -4.125425815582275391e-01
2.128000000000000000e+03 9.466429710388183594e+00 -8.006570816040039062e+00 1.221066107973456383e-03 -8.041250112000852823e-05 3.421960864216089249e-04 -2.507364260964095592e-04
2.129000000000000000e+03 9.815696716308593750e+00 2.488236236572265625e+01 -1.985894283279776573e-03 9.475541446590796113e-05 -5.673416308127343655e-04 -2.310186828253790736e-04
2.130000000000000000e+03 3.079882621765136719e+01 -1.813251876831054688e+01 -9.249098598957061768e-02 4.000052452087402344e+00 1.172268509864807129e+00 1.778895556926727295e-01
2.131000000000000000e+03 2.782723426818847656e+01 -1.756961059570312500e+01 -5.934894457459449768e-02 3.618487834930419922e+00 1.067741632461547852e+00 1.753435581922531128e-01
2.132000000000000000e+03 6.855787754058837891e+00 -1.163931083679199219e+01 -1.410610624589025974e-03 -4.488445410970598459e-04 -5.578365526162087917e-04 -1.430461852578446269e-04
2.133000000000000000e+03 7.414014434814453125e+01 2.367361450195312500e+01 3.029677271842956543e-02 6.519872188568115234e+00 1.965050697326660156e+00 -6.734077334403991699e-01
2.134000000000000000e+03 7.243119049072265625e+01 5.946682453155517578e+00 -1.063973456621170044e-01 7.879698753356933594e+00 2.331990480422973633e+00 -5.965494513511657715e-01
2.135000000000000000e+03 7.024645233154296875e+01 2.612321376800537109e+00 -1.626041382551193237e-01 7.977645397186279297e+00 2.344512224197387695e+00 -5.923180580139160156e-01
2.136000000000000000e+03 7.140219116210937500e+01 -2.426530075073242188e+01 -4.056993126869201660e-02 8.528697967529296875e+00 2.546438217163085938e+00 -9.488739818334579468e-02
2.137000000000000000e+03 7.316451263427734375e+01 -2.442379760742187500e+01 -3.127781301736831665e-02 8.735160827636718750e+00 2.611165046691894531e+00 -8.201134949922561646e-02
2.138000000000000000e+03 7.281028747558593750e+01 -6.944318294525146484e+00 -7.419691234827041626e-02 8.404814720153808594e+00 2.499185323715209961e+00 -2.875967025756835938e-01
2.139000000000000000e+03 9.882573127746582031e+00 -1.899029922485351562e+01 -1.661591813899576664e-03 -2.419382653897628188e-04 -5.710590048693120480e-04 5.720986519008874893e-04
2.140000000000000000e+03 9.011361122131347656e+00 -2.194323730468750000e+01 4.096633754670619965e-03 -5.932736676186323166e-04 1.051008119247853756e-03 -1.830328023061156273e-03
2.141000000000000000e+03 7.145700073242187500e+01 -1.620120429992675781e+01 -6.061948463320732117e-02 8.461996078491210938e+00 2.520413160324096680e+00 -1.715183854103088379e-01
2.142000000000000000e+03 7.301010131835937500e+01 1.309912586212158203e+01 -6.547478586435317993e-02 7.437426567077636719e+00 2.211585521697998047e+00 -7.176629304885864258e-01
2.143000000000000000e+03 7.162818908691406250e+01 1.062435245513916016e+01 -1.119481772184371948e-01 7.639741420745849609e+00 2.258337974548339844e+00 -7.497875690460205078e-01
2.144000000000000000e+03 7.175144958496093750e+01 -9.918669700622558594e+00 -7.811940461397171021e-02 8.394579887390136719e+00 2.494938135147094727e+00 -2.559886276721954346e-01
2.145000000000000000e+03 7.153553771972656250e+01 -2.704965591430664062e+00 -1.160363405942916870e-01 8.192830085754394531e+00 2.423038005828857422e+00 -4.151887297630310059e-01
2.146000000000000000e+03 7.328270721435546875e+01 2.008681488037109375e+01 4.497205838561058044e-03 6.884640216827392578e+00 2.066741228103637695e+00 -7.606371641159057617e-01
2.147000000000000000e+03 7.166777801513671875e+01 1.906705665588378906e+01 -8.609758689999580383e-03 7.117917060852050781e+00 2.132792234420776367e+00 -8.763674497604370117e-01
2.148000000000000000e+03 2.755992889404296875e+01 1.018838977813720703e+01 -9.215002506971359253e-02 2.721575975418090820e+00 7.888278365135192871e-01 8.884336352348327637e-01
2.149000000000000000e+03 7.009428501129150391e+00 2.496151542663574219e+01 1.118386629968881607e-03 5.675318534485995770e-04 5.057755624875426292e-04 -7.479576161131262779e-04
2.150000000000000000e+03 3.038395881652832031e+01 1.184342002868652344e+01 -1.696498095989227295e-01 3.424125194549560547e+00 9.763425588607788086e-01 1.124880433082580566e+00
2.151000000000000000e+03 2.688717460632324219e+01 2.010212898254394531e+01 2.325462996959686279e-01 1.437845349311828613e+00 5.011174678802490234e-01 8.302080035209655762e-01
2.152000000000000000e+03 2.952805519104003906e+01 2.699458503723144531e+01 9.246336817741394043e-01 9.887129664421081543e-01 5.740039944648742676e-01 6.050213575363159180e-01
2.153000000000000000e+03 2.797255325317382812e+01 2.017547035217285156e+01 2.865033745765686035e-01 1.793680191040039062e+00 6.240550875663757324e-01 9.798460006713867188e-01
2.154000000000000000e+03 3.045291900634765625e+01 1.794638824462890625e+01 1.307170838117599487e-01 2.978077888488769531e+00 9.326384663581848145e-01 1.322872281074523926e+00
2.155000000000000000e+03 7.293474578857421875e+01 -1.363762187957763672e+01 -4.316352680325508118e-02 8.571309089660644531e+00 2.558443784713745117e+00 -1.778306514024734497e-01
2.156000000000000000e+03 7.139072895050048828e+00 -2.502811050415039062e+01 1.854215282946825027e-03 -5.939263064647093415e-05 5.384467658586800098e-04 1.493395975558087230e-04
2.157000000000000000e+03 6.838430881500244141e+00 -2.732621574401855469e+01 2.847130410373210907e-03 -7.857639575377106667e-04 6.184099474921822548e-04 1.170149189420044422e-03
2.158000000000000000e+03 8.678501129150390625e+00 1.660485458374023438e+01 2.693033020477741957e-04 2.069529873551800847e-04 1.428768882760778069e-04 -2.942955761682242155e-04
2.159000000000000000e+03 2.868312644958496094e+01 2.764276313781738281e+01 7.527002096176147461e-01 6.813068389892578125e-01 4.302021265029907227e-01 3.149556815624237061e-01
2.160000000000000000e+03 7.701478481292724609e+00 1.942436599731445312e+01 9.219485800713300705e-04 1.706592593109235168e-04 3.277823561802506447e-04 -5.160210421308875084e-04
2.161000000000000000e+03 7.062162399291992188e+00 -2.031246376037597656e+01 9.594780858606100082e-04 2.753509761532768607e-05 2.961039717774838209e-04 1.535761984996497631e-03
2.162000000000000000e+03 7.898809432983398438e+00 -1.610333251953125000e+01 -1.583596458658576012e-03 -6.583062349818646908e-04 -6.725708371959626675e-04 -7.578764780191704631e-05
2.163000000000000000e+03 2.847552871704101562e+01 1.480507278442382812e+01 -1.530868187546730042e-02 2.595245599746704102e+00 7.739810943603515625e-01 1.090125322341918945e+00
2.164000000000000000e+03 3.063316917419433594e+01 -3.923920869827270508e+00 -1.813393831253051758e-01 3.901241779327392578e+00 1.115970730781555176e+00 4.847667813301086426e-01
2.165000000000000000e+03 7.143544769287109375e+01 1.550602149963378906e+01 -6.675882637500762939e-02 7.360179424285888672e+00 2.188026189804077148e+00 -8.568547368049621582e-01
2.166000000000000000e+03 7.182739257812500000e+01 1.186286067962646484e+01 -9.909282624721527100e-02 7.565211772918701172e+00 2.239835739135742188e+00 -7.685264945030212402e-01
2.167000000000000000e+03 9.957450866699218750e+00 -2.153445625305175781e+01 -1.394406426697969437e-03 -4.499487404245883226e-04 -5.533065414056181908e-04 -1.654061605222523212e-03
2.168000000000000000e+03 9.812877655029296875e+00 -2.451790618896484375e+01 -1.750315073877573013e-03 -1.434858655557036400e-03 -9.555520955473184586e-04 8.660221355967223644e-04
2.169000000000000000e+03 8.949728965759277344e+00 -1.752799797058105469e+01 -1.588641549460589886e-03 -7.269397028721868992e-04 -6.946743815205991268e-04 1.295890979235991836e-04
2.170000000000000000e+03 1.027135372161865234e+01 -6.119923591613769531e+00 -9.944270132109522820e-04 1.491751172579824924e-04 -2.535755629651248455e-04 -2.703003410715609789e-04
2.171000000000000000e+03 9.555301666259765625e+00 -7.128378391265869141e+00 -1.404273672960698605e-03 5.295731170917861164e-05 -4.053949087392538786e-04 6.314560887403786182e-04
2.172000000000000000e+03 2.875796318054199219e+01 1.338658618927001953e+01 -7.859286665916442871e-02 2.848485708236694336e+00 8.309679031372070312e-01 1.077520608901977539e+00
2.173000000000000000e+03 7.089448928833007812e+00 -8.914929389953613281e+00 -6.155309383757412434e-04 -2.220706810476258397e-04 -2.512804931029677391e-04 3.236792399547994137e-04
2.174000000000000000e+03 7.025750637054443359e+00 9.747564315795898438e+00 2.625821434776298702e-05 8.778960182098671794e-05 3.421434666961431503e-05 -1.727018752717413008e-05
2.175000000000000000e+03 2.779689025878906250e+01 2.282966041564941406e+01 4.770931601524353027e-01 1.324941039085388184e+00 5.406102538108825684e-01 7.886818051338195801e-01
2.176000000000000000e+03 7.055747032165527344e+00 -2.834898567199707031e+01 -7.091864477843046188e-03 -1.007816637866199017e-03 -2.429904416203498840e-03 -1.066159340552985668e-03
2.177000000000000000e+03 2.752412033081054688e+01 -5.415433883666992188e+00 -9.566009789705276489e-02 3.440156698226928711e+00 1.003348946571350098e+00 3.882546126842498779e-01
2.178000000000000000e+03 2.736389923095703125e+01 5.739067077636718750e+00 -9.299508482217788696e-02 2.964205265045166016e+00 8.613630533218383789e-01 7.208154201507568359e-01
2.179000000000000000e+03 7.206188201904296875e+01 2.060066795349121094e+01 1.554265245795249939e-02 6.966113090515136719e+00 2.094496726989746094e+00 -8.451864719390869141e-01
2.180000000000000000e+03 8.252808570861816406e+00 3.320364761352539062e+01 -2.301230560988187790e-03 2.186616329709067941e-04 -6.247707060538232327e-04 -1.776502351276576519e-03
2.181000000000000000e+03 8.848448753356933594e+00 2.986657905578613281e+01 -7.593655609525740147e-04 1.328231068328022957e-03 1.706596376607194543e-04 -1.806493964977562428e-03
2.182000000000000000e+03 3.044605636596679688e+01 -9.448074340820312500e+00 -1.279643476009368896e-01 3.922150373458862305e+00 1.138255834579467773e+00 3.400701284408569336e-01
2.183000000000000000e+03 2.897791481018066406e+01 -8.059397697448730469e+00 -1.053715795278549194e-01 3.690548896789550781e+00 1.075553178787231445e+00 3.597004115581512451e-01
2.184000000000000000e+03 7.118459320068359375e+01 -1.919934463500976562e+01 -5.253950506448745728e-02 8.471453666687011719e+00 2.525674343109130859e+00 -1.415964365005493164e-01
2.185000000000000000e+03 2.723205375671386719e+01 4.344363689422607422e+00 -8.748103678226470947e-02 3.017559528350830078e+00 8.790235519409179688e-01 6.605215072631835938e-01
2.186000000000000000e+03 7.757867336273193359e+00 1.052423095703125000e+01 1.802924089133739471e-04 1.390053512295708060e-04 9.578932804288342595e-05 1.795717107597738504e-04
2.187000000000000000e+03 6.992749214172363281e+00 1.134043788909912109e+01 -2.985103346873074770e-04 1.328522630501538515e-04 -4.969742076355032623e-05 -3.723108675330877304e-04
2.188000000000000000e+03 7.197472381591796875e+01 -2.886217880249023438e+01 -1.994047313928604126e-02 8.629680633544921875e+00 2.582921981811523438e+00 -5.923162028193473816e-02
2.189000000000000000e+03 7.074542236328125000e+01 2.731539154052734375e+01 1.611729115247726440e-01 6.731370449066162109e+00 2.067762851715087891e+00 -8.143267631530761719e-01
2.190000000000000000e+03 7.092605590820312500e+01 2.382999992370605469e+01 7.763904333114624023e-02 6.904088497161865234e+00 2.094518184661865234e+00 -8.853697180747985840e-01
2.191000000000000000e+03 2.732188415527343750e+01 -1.223907375335693359e+01 -4.417110234498977661e-02 3.527745723724365234e+00 1.045072436332702637e+00 2.523826062679290771e-01
2.192000000000000000e+03 2.931270980834960938e+01 -1.421126127243041992e+00 -1.585991233587265015e-01 3.646651506423950195e+00 1.046415686607360840e+00 5.378928184509277344e-01
2.193000000000000000e+03 8.842815399169921875e+00 2.767242813110351562e+01 6.496786372736096382e-04 1.671601785346865654e-03 6.963841151446104050e-04 -7.579773082397878170e-04
2.194000000000000000e+03 1.043686389923095703e+01 -2.836938667297363281e+01 -4.609788302332162857e-03 -1.861830009147524834e-03 -1.941485446877777576e-03 5.340484785847365856e-04
2.195000000000000000e+03 8.883794784545898438e+00 -3.068949127197265625e+01 -1.436911872588098049e-03 4.679579753428697586e-03 9.728003642521798611e-04 2.768631093204021454e-03
2.196000000000000000e+03 7.156404113769531250e+01 1.451924443244934082e+00 -1.260827779769897461e-01 8.058815956115722656e+00 2.379819869995117188e+00 -5.154349207878112793e-01
2.197000000000000000e+03 7.156793975830078125e+01 -1.286235928535461426e+00 -1.183770745992660522e-01 8.152085304260253906e+00 2.410112619400024414e+00 -4.463860988616943359e-01
2.198000000000000000e+03 7.285694122314453125e+01 -1.208784937858581543e+00 -8.943847566843032837e-02 8.216413497924804688e+00 2.438092708587646484e+00 -4.039356410503387451e-01
2.199000000000000000e+03 2.797256469726562500e+01 1.761539459228515625e+00 -1.192204803228378296e-01 3.313416242599487305e+00 9.582587480545043945e-01 6.023554205894470215e-01
2.200000000000000000e+03 2.844906044006347656e+01 4.252817153930664062e+00 -1.373880356550216675e-01 3.287621259689331055e+00 9.450699687004089355e-01 7.158957123756408691e-01
2.201000000000000000e+03 7.138458251953125000e+01 -5.674793720245361328e+00 -1.067485287785530090e-01 8.268064498901367188e+00 2.448394775390625000e+00 -3.499926626682281494e-01
2.202000000000000000e+03 7.157086181640625000e+01 -8.560848236083984375e+00 -9.562073647975921631e-02 8.347427368164062500e+00 2.475542068481445312e+00 -2.871314585208892822e-01
2.203000000000000000e+03 1.220059776306152344e+01 3.288044357299804688e+01 1.854558475315570831e-03 1.621781266294419765e-03 1.042901887558400631e-03 -1.486773951910436153e-03
2.204000000000000000e+03 1.118063259124755859e+01 3.332331848144531250e+01 -3.527539316564798355e-03 1.858789619291201234e-04 -1.002498087473213673e-03 -4.843746137339621782e-04
2.205000000000000000e+03 2.834655380249023438e+01 1.570988744497299194e-01 -1.283743977546691895e-01 3.409963846206665039e+00 9.844768643379211426e-01 5.589267015457153320e-01
2.206000000000000000e+03 6.475269317626953125e+00 3.665032577514648438e+01 1.220618840306997299e-03 7.728071068413555622e-04 5.980277783237397671e-04 1.766348141245543957e-03
2.207000000000000000e+03 7.183217620849609375e+01 1.306766986846923828e+01 -8.751428127288818359e-02 7.490689277648925781e+00 2.220952510833740234e+00 -7.961710691452026367e-01
2.208000000000000000e+03 7.165732574462890625e+01 -1.497635555267333984e+01 -6.113152951002120972e-02 8.470557212829589844e+00 2.522827625274658203e+00 -1.809376180171966553e-01
2.209000000000000000e+03 2.815461730957031250e+01 -2.903825187683105469e+01 -6.641451735049486160e-03 3.661087512969970703e+00 1.096333861351013184e+00 9.596627205610275269e-02
2.210000000000000000e+03 6.924942016601562500e+01 -2.124001502990722656e+01 -6.213957443833351135e-02 8.297215461730957031e+00 2.470522642135620117e+00 -1.313001364469528198e-01
2.211000000000000000e+03 2.602513313293457031e+01 -3.011832237243652344e+01 1.890898309648036957e-02 3.456354618072509766e+00 1.042579054832458496e+00 8.691365271806716919e-02
2.212000000000000000e+03 2.626508522033691406e+01 -2.863224601745605469e+01 9.147059172391891479e-03 3.493933916091918945e+00 1.050924301147460938e+00 1.162430718541145325e-01
2.213000000000000000e+03 7.013545989990234375e+01 -2.912349128723144531e+01 -3.223918005824089050e-02 8.430968284606933594e+00 2.519618749618530273e+00 -6.651507318019866943e-02
2.214000000000000000e+03 7.365030670166015625e+01 -2.862192153930664062e+01 -9.776899591088294983e-03 8.822107315063476562e+00 2.643698930740356445e+00 -4.787443578243255615e-02
2.215000000000000000e+03 7.062371826171875000e+01 2.879283905029296875e+01 2.186553031206130981e-01 6.661741733551025391e+00 2.064119100570678711e+00 -7.646218538284301758e-01
2.216000000000000000e+03 9.815833091735839844e+00 -1.263409423828125000e+01 -1.515281968750059605e-03 -1.707675983197987080e-04 -5.058148526586592197e-04 2.992705558426678181e-04
2.217000000000000000e+03 9.316942214965820312e+00 -1.508416271209716797e+01 -1.366816344670951366e-03 -6.410472560673952103e-04 -6.023590685799717903e-04 1.167554073617793620e-04
2.218000000000000000e+03 2.742289924621582031e+01 -1.359004974365234375e+01 -4.685775935649871826e-02 3.551962614059448242e+00 1.051531434059143066e+00 2.221970260143280029e-01
2.219000000000000000e+03 8.199020385742187500e+00 2.046845245361328125e+01 -9.001409052871167660e-04 -3.302356635686010122e-04 -3.691129677463322878e-04 6.337398663163185120e-04
2.220000000000000000e+03 7.988191127777099609e+00 2.632859992980957031e+01 -5.574167007580399513e-04 -1.002316595986485481e-03 -4.679199773818254471e-04 8.170622168108820915e-04
2.221000000000000000e+03 9.436520576477050781e+00 2.379898834228515625e+01 1.346266362816095352e-03 5.123953451402485371e-04 5.575984832830727100e-04 2.103877632180228829e-04
2.222000000000000000e+03 7.772320747375488281e+00 2.309754943847656250e+01 1.067914650775492191e-03 9.773364290595054626e-04 6.135753355920314789e-04 -1.084375035134144127e-04
2.223000000000000000e+03 7.575596809387207031e+00 -3.087481307983398438e+01 -1.076592132449150085e-02 -9.839093399932608008e-05 -3.259293735027313232e-03 -3.106861840933561325e-03
2.224000000000000000e+03 2.283693313598632812e+01 -3.334255981445312500e+01 1.427236944437026978e-01 3.109322071075439453e+00 9.756137132644653320e-01 1.446354389190673828e-01
2.225000000000000000e+03 7.169470214843750000e+01 3.302732467651367188e+01 2.619044780731201172e-01 6.302995204925537109e+00 1.969469904899597168e+00 -5.351344943046569824e-01
2.226000000000000000e+03 2.666840934753417969e+01 -2.573731994628906250e+01 -2.279555052518844604e-02 3.521726369857788086e+00 1.049679279327392578e+00 1.264265328645706177e-01
2.227000000000000000e+03 1.131609439849853516e+01 -3.773910903930664062e+01 -6.179972738027572632e-02 3.259174525737762451e-02 -8.762394078075885773e-03 -1.757911220192909241e-02
2.228000000000000000e+03 7.868865489959716797e+00 -3.227156066894531250e+01 -2.727515762671828270e-03 7.822635583579540253e-03 1.528535969555377960e-03 1.482947729527950287e-03
2.229000000000000000e+03 1.260702896118164062e+01 -3.265590286254882812e+01 6.178592448122799397e-04 -4.853399936109781265e-03 -1.270662178285419941e-03 3.471036674454808235e-03
2.230000000000000000e+03 3.722975158691406250e+01 3.205155563354492188e+01 3.408730268478393555e+00 1.441541075706481934e+00 1.455081462860107422e+00 2.667068481445312500e+00
2.231000000000000000e+03 3.876946640014648438e+01 3.119524765014648438e+01 3.755301952362060547e+00 7.767696857452392578e+00 3.456899642944335938e+00 5.982416152954101562e+00
2.232000000000000000e+03 3.752650070190429688e+01 3.205191802978515625e+01 3.985030174255371094e+00 1.854291200637817383e+00 1.751796364784240723e+00 3.260397911071777344e+00
2.233000000000000000e+03 3.834569168090820312e+01 3.062839698791503906e+01 3.272932767868041992e+00 6.552639007568359375e+00 2.947671413421630859e+00 5.149766445159912109e+00
2.234000000000000000e+03 3.735039138793945312e+01 3.123584365844726562e+01 3.678392648696899414e+00 2.963085174560546875e+00 1.992443323135375977e+00 3.727620124816894531e+00
2.235000000000000000e+03 3.414767456054687500e+01 2.988197517395019531e+01 1.974573731422424316e+00 1.338656306266784668e+00 9.939690232276916504e-01 1.492848515510559082e+00
2.236000000000000000e+03 4.023836517333984375e+01 2.984656333923339844e+01 1.172205328941345215e+00 1.241389083862304688e+01 4.075829029083251953e+00 3.801006555557250977e+00
2.237000000000000000e+03 3.978599929809570312e+01 3.009311485290527344e+01 1.615865945816040039e+00 1.140096282958984375e+01 3.905048847198486328e+00 4.640554904937744141e+00
2.238000000000000000e+03 4.142770385742187500e+01 3.006915283203125000e+01 1.184222459793090820e+00 1.427693939208984375e+01 4.638348579406738281e+00 1.832598090171813965e+00
2.239000000000000000e+03 2.811827468872070312e+01 2.961902236938476562e+01 4.812927246093750000e-01 3.097485601902008057e-01 2.373123914003372192e-01 -8.550979197025299072e-02
2.240000000000000000e+03 7.872253894805908203e+00 -8.163754463195800781e+00 -8.334877202287316322e-04 2.156397968064993620e-04 -1.853543799370527267e-04 -6.418065750040113926e-04
2.241000000000000000e+03 2.774371719360351562e+01 2.550069999694824219e+01 6.091959476470947266e-01 8.504737019538879395e-01 4.379009008407592773e-01 4.719169437885284424e-01
2.242000000000000000e+03 3.489113616943359375e+01 2.988547325134277344e+01 2.260301828384399414e+00 1.680734395980834961e+00 1.182310819625854492e+00 1.921913862228393555e+00
2.243000000000000000e+03 2.872971153259277344e+01 2.667739105224609375e+01 7.922052741050720215e-01 8.826942443847656250e-01 5.024698376655578613e-01 4.865226447582244873e-01
2.244000000000000000e+03 2.893745803833007812e+01 2.834867668151855469e+01 7.422648072242736816e-01 6.113828420639038086e-01 4.060942828655242920e-01 2.427671998739242554e-01
2.245000000000000000e+03 3.079125213623046875e+01 2.954262542724609375e+01 9.595844149589538574e-01 6.527033448219299316e-01 4.836863279342651367e-01 3.623797297477722168e-01
2.246000000000000000e+03 3.143366622924804688e+01 2.798647499084472656e+01 1.290230870246887207e+00 1.195074200630187988e+00 7.455915212631225586e-01 9.077765941619873047e-01
2.247000000000000000e+03 9.562033653259277344e+00 6.659002304077148438e+00 -3.135634760838001966e-04 -2.839001826941967010e-04 -1.792390976333990693e-04 -2.614622353576123714e-04
2.248000000000000000e+03 3.314950180053710938e+01 2.896838569641113281e+01 1.666418313980102539e+00 1.386780500411987305e+00 9.159596562385559082e-01 1.286408066749572754e+00
2.249000000000000000e+03 3.147101402282714844e+01 2.875537490844726562e+01 1.257823348045349121e+00 9.581526517868041992e-01 6.647927761077880859e-01 7.338300347328186035e-01
2.250000000000000000e+03 3.271259689331054688e+01 2.855100822448730469e+01 1.568439364433288574e+00 1.359964013099670410e+00 8.785210251808166504e-01 1.195726871490478516e+00
2.251000000000000000e+03 7.157807159423828125e+01 9.253759682178497314e-02 -1.217215210199356079e-01 8.107742309570312500e+00 2.395806312561035156e+00 -4.800719320774078369e-01
2.252000000000000000e+03 7.027962493896484375e+01 -2.742734670639038086e+00 -1.466848999261856079e-01 8.125808715820312500e+00 2.393737077713012695e+00 -4.463409781455993652e-01
2.253000000000000000e+03 1.076638507843017578e+01 -5.351855278015136719e+00 -1.598145172465592623e-04 -3.939840826205909252e-04 -1.661395799601450562e-04 4.446112143341451883e-04
2.254000000000000000e+03 4.376123809814453125e+01 2.871232223510742188e+01 1.080708265304565430e+00 1.227604579925537109e+01 4.007026195526123047e+00 -4.018304497003555298e-02
2.255000000000000000e+03 8.320881843566894531e+00 9.659961700439453125e+00 -1.325194753007963300e-04 -3.481338208075612783e-04 -1.441959902876988053e-04 -1.176311125163920224e-04
2.256000000000000000e+03 9.173131942749023438e+00 1.005214309692382812e+01 4.890047130174934864e-04 2.842408721335232258e-04 2.319736813660711050e-04 2.574546087998896837e-04
2.257000000000000000e+03 6.988858795166015625e+01 -5.789974689483642578e+00 -1.389792114496231079e-01 8.166086196899414062e+00 2.408132076263427734e+00 -3.805314600467681885e-01
2.258000000000000000e+03 7.146355438232421875e+01 -4.174386024475097656e+00 -1.155699044466018677e-01 8.231259346008300781e+00 2.434706926345825195e+00 -3.822708129882812500e-01
2.259000000000000000e+03 7.009223175048828125e+01 3.848067998886108398e+00 -1.674000024795532227e-01 7.931947708129882812e+00 2.329364299774169922e+00 -6.368451714515686035e-01
2.260000000000000000e+03 8.906883239746093750e+00 8.015377044677734375e+00 3.475667426755535416e-06 -5.402235547080636024e-04 -1.610243634786456823e-04 -3.233405295759439468e-04
2.261000000000000000e+03 1.052819442749023438e+01 -6.933818817138671875e+00 1.256968593224883080e-03 1.245504390681162477e-04 4.144557169638574123e-04 -1.844341750256717205e-04
2.262000000000000000e+03 1.036153793334960938e+01 -9.148857116699218750e+00 1.188593218103051186e-03 2.882336557377129793e-04 4.430480476003140211e-04 -1.224450243171304464e-04
2.263000000000000000e+03 2.808483505249023438e+01 1.884791183471679688e+01 1.932641565799713135e-01 2.013242483139038086e+00 6.619520187377929688e-01 1.034719347953796387e+00
2.264000000000000000e+03 2.787573242187500000e+01 2.150235557556152344e+01 3.809015154838562012e-01 1.558096408843994141e+00 5.816993713378906250e-01 8.968644142150878906e-01
2.265000000000000000e+03 7.667607307434082031e+00 7.493287563323974609e+00 -5.922928903601132333e-05 -4.788314108736813068e-04 -1.614182110643014312e-04 2.763266638794448227e-05
2.266000000000000000e+03 8.127338409423828125e+00 6.181408405303955078e+00 -5.056809168308973312e-04 -7.653910870430991054e-05 -1.746659982018172741e-04 7.131202437449246645e-05
2.267000000000000000e+03 2.881830406188964844e+01 2.283018302917480469e+01 5.577340126037597656e-01 1.647117972373962402e+00 6.614555716514587402e-01 9.607924818992614746e-01
2.268000000000000000e+03 7.052681732177734375e+01 -1.030897045135498047e+01 -9.693765640258789062e-02 8.296808242797851562e+00 2.459961175918579102e+00 -2.807708084583282471e-01
2.269000000000000000e+03 7.090368652343750000e+01 -1.161874198913574219e+01 -8.703816682100296021e-02 8.354669570922851562e+00 2.480289459228515625e+00 -2.473888993263244629e-01
2.270000000000000000e+03 7.037941741943359375e+01 -2.328737640380859375e+01 -4.904204607009887695e-02 8.414666175842285156e+00 2.509687423706054688e+00 -1.051391586661338806e-01
2.271000000000000000e+03 6.964299011230468750e+01 -1.781473922729492188e+01 -7.288680225610733032e-02 8.307533264160156250e+00 2.470393896102905273e+00 -1.697027087211608887e-01
2.272000000000000000e+03 6.994146728515625000e+01 -1.929104042053222656e+01 -6.791390478610992432e-02 8.346735000610351562e+00 2.483646392822265625e+00 -1.470315009355545044e-01
2.273000000000000000e+03 7.149771881103515625e+01 2.805597305297851562e+00 -1.295099109411239624e-01 8.005059242248535156e+00 2.362664699554443359e+00 -5.546206831932067871e-01
2.274000000000000000e+03 2.895455360412597656e+01 1.184605979919433594e+01 -1.211935058236122131e-01 3.013358831405639648e+00 8.676496148109436035e-01 1.039754152297973633e+00
2.275000000000000000e+03 7.042849731445312500e+01 1.094908046722412109e+01 -1.364184767007827759e-01 7.653387069702148438e+00 2.255090475082397461e+00 -8.183359503746032715e-01
2.276000000000000000e+03 7.090841674804687500e+01 7.894999980926513672e+00 -1.404345184564590454e-01 7.787078380584716797e+00 2.293993234634399414e+00 -7.137387394905090332e-01
2.277000000000000000e+03 7.037947845458984375e+01 1.946020317077636719e+01 -4.173332708887755871e-04 7.209290981292724609e+00 2.162662029266357422e+00 -9.617820382118225098e-01
2.278000000000000000e+03 6.916582489013671875e+01 -1.616756057739257812e+01 -8.861708641052246094e-02 8.251907348632812500e+00 2.448987007141113281e+00 -1.931762695312500000e-01
2.279000000000000000e+03 7.177157592773437500e+01 -1.229670333862304688e+01 -7.521784305572509766e-02 8.434936523437500000e+00 2.507915496826171875e+00 -2.201936691999435425e-01
2.280000000000000000e+03 7.166616821289062500e+01 1.426937294006347656e+01 -7.530786097049713135e-02 7.413892269134521484e+00 2.201575279235839844e+00 -8.245581388473510742e-01
2.281000000000000000e+03 7.077514648437500000e+01 1.199900531768798828e+01 -1.212705224752426147e-01 7.594267368316650391e+00 2.241899013519287109e+00 -8.262945413589477539e-01
2.282000000000000000e+03 2.906772232055664062e+01 -5.344579696655273438e+00 -1.311498135328292847e-01 3.674097061157226562e+00 1.062884092330932617e+00 4.223420321941375732e-01
2.283000000000000000e+03 2.963345909118652344e+01 -1.296554207801818848e-01 -1.738189011812210083e-01 3.667851924896240234e+00 1.048209905624389648e+00 5.874964594841003418e-01
2.284000000000000000e+03 2.820270538330078125e+01 1.751271820068359375e+01 1.144956722855567932e-01 2.225586175918579102e+00 7.020245790481567383e-01 1.067865490913391113e+00
2.285000000000000000e+03 3.172360038757324219e+01 1.173697376251220703e+01 -2.341040223836898804e-01 3.865980863571166992e+00 1.089563131332397461e+00 1.181041598320007324e+00
2.286000000000000000e+03 3.031069183349609375e+01 1.030288314819335938e+01 -1.970596313476562500e-01 3.483699083328247070e+00 9.859918355941772461e-01 1.053740382194519043e+00
2.287000000000000000e+03 2.893510818481445312e+01 1.025308322906494141e+01 -1.416644006967544556e-01 3.113263130187988281e+00 8.914796113967895508e-01 9.773620963096618652e-01
2.288000000000000000e+03 9.098623275756835938e+00 -2.101128196716308594e+01 -2.023829612880945206e-03 7.488203700631856918e-04 -3.825027670245617628e-04 1.704181311652064323e-03
2.289000000000000000e+03 9.105124473571777344e+00 -1.020613861083984375e+01 9.309711749665439129e-04 5.628114449791610241e-04 4.481347859837114811e-04 7.076675046846503392e-06
2.290000000000000000e+03 7.973150730133056641e+00 -1.020369434356689453e+01 -8.649306837469339371e-04 -7.019745535217225552e-04 -4.700715653598308563e-04 -4.104934923816472292e-04
2.291000000000000000e+03 8.066760063171386719e+00 1.406780147552490234e+01 1.333866675850003958e-04 -1.295079273404553533e-04 1.163621732302999590e-06 5.612087552435696125e-04
2.292000000000000000e+03 2.903570747375488281e+01 -6.696318149566650391e+00 -1.191067323088645935e-01 3.690813541412353516e+00 1.071512103080749512e+00 3.867577314376831055e-01
2.293000000000000000e+03 2.959411430358886719e+01 1.507579517364501953e+01 -3.339248895645141602e-02 2.942786216735839844e+00 8.728181123733520508e-01 1.175722002983093262e+00
2.294000000000000000e+03 7.217019081115722656e+00 2.086220741271972656e+01 1.303596072830259800e-03 1.406670489814132452e-04 4.332789394538849592e-04 -4.768735670950263739e-04
2.295000000000000000e+03 8.958957672119140625e+00 -2.302200317382812500e+01 -2.598707564175128937e-03 -3.485895576886832714e-04 -8.841890958137810230e-04 1.329798717051744461e-03
2.296000000000000000e+03 7.497344017028808594e+00 -1.943985176086425781e+01 1.216795761138200760e-03 6.133909337222576141e-04 5.490559851750731468e-04 -8.525651646777987480e-04
2.297000000000000000e+03 6.633414745330810547e+00 -1.945764732360839844e+01 -1.369447680190205574e-03 -1.498220022767782211e-03 -8.603003225289285183e-04 -1.212211558595299721e-03
2.298000000000000000e+03 8.010727882385253906e+00 -2.077286720275878906e+01 2.261962974444031715e-03 -6.308575393632054329e-04 4.893316072411835194e-04 -1.954081002622842789e-03
2.299000000000000000e+03 8.238039016723632812e+00 -1.342547512054443359e+01 -1.241138787008821964e-03 -4.331306845415383577e-04 -5.022808327339589596e-04 1.225677260663360357e-04
2.300000000000000000e+03 2.774775505065917969e+01 2.416605567932128906e+01 5.660841464996337891e-01 1.076474547386169434e+00 4.927676022052764893e-01 6.475483775138854980e-01
2.301000000000000000e+03 9.574203491210937500e+00 -2.567403221130371094e+01 1.843490754254162312e-03 4.561370005831122398e-04 6.898883148096501827e-04 -2.354085008846595883e-04
2.302000000000000000e+03 8.147586822509765625e+00 -2.651245307922363281e+01 9.897865820676088333e-04 5.005667335353791714e-04 4.471059946808964014e-04 4.660004051402211189e-04
2.303000000000000000e+03 8.376871109008789062e+00 -2.534977912902832031e+01 -2.519943052902817726e-03 -1.185343018732964993e-03 -1.111585879698395729e-03 2.463644195813685656e-04
2.304000000000000000e+03 7.760682582855224609e+00 -2.279116058349609375e+01 2.662027953192591667e-03 -1.259646262042224407e-03 4.207145248074084520e-04 -1.301083597354590893e-03
2.305000000000000000e+03 8.644441604614257812e+00 -2.419117546081542969e+01 2.288071205839514732e-03 -3.365314041730016470e-04 5.854619666934013367e-04 -7.406407967209815979e-04
2.306000000000000000e+03 9.863805770874023438e+00 3.187143707275390625e+01 -2.697818214073777199e-03 1.285542035475373268e-03 -4.236828535795211792e-04 -1.500106649473309517e-03
2.307000000000000000e+03 2.891957473754882812e+01 2.155184936523437500e+01 4.469383060932159424e-01 1.908048868179321289e+00 7.064961791038513184e-01 1.062392830848693848e+00
2.308000000000000000e+03 2.955259323120117188e+01 -1.966726684570312500e+01 -7.807539403438568115e-02 3.835954189300537109e+00 1.127363681793212891e+00 1.549500674009323120e-01
2.309000000000000000e+03 3.059102249145507812e+01 -2.407810020446777344e+01 -6.161214411258697510e-02 3.954641819000244141e+00 1.167908906936645508e+00 1.279294192790985107e-01
2.310000000000000000e+03 3.041971778869628906e+01 -2.161864852905273438e+01 -7.787462323904037476e-02 3.950612783432006836e+00 1.161821484565734863e+00 1.366318315267562866e-01
2.311000000000000000e+03 6.976820373535156250e+01 5.014587879180908203e+00 -1.839141249656677246e-01 7.898174285888671875e+00 2.314277887344360352e+00 -6.808111071586608887e-01
2.312000000000000000e+03 8.669748306274414062e+00 -1.226860523223876953e+01 1.028449274599552155e-03 -5.212393443798646331e-05 2.928976318798959255e-04 -6.581765483133494854e-04
2.313000000000000000e+03 7.321699523925781250e+01 2.439009475708007812e+01 4.527882114052772522e-02 6.590728282928466797e+00 1.990802049636840820e+00 -7.311869263648986816e-01
2.314000000000000000e+03 7.018014526367187500e+01 2.583753013610839844e+01 1.326690316200256348e-01 6.863730907440185547e+00 2.098920106887817383e+00 -8.760937452316284180e-01
2.315000000000000000e+03 3.025679588317871094e+01 7.062463760375976562e+00 -2.164977788925170898e-01 3.604138612747192383e+00 1.016292214393615723e+00 9.063780307769775391e-01
2.316000000000000000e+03 2.895321083068847656e+01 -1.331334877014160156e+01 -7.648784667253494263e-02 3.751801013946533203e+00 1.102593898773193359e+00 2.418909519910812378e-01
2.317000000000000000e+03 2.729924392700195312e+01 -1.087577342987060547e+01 -5.326580628752708435e-02 3.506484270095825195e+00 1.035965561866760254e+00 2.773785591125488281e-01
2.318000000000000000e+03 7.075793457031250000e+01 1.295772266387939453e+01 -1.111200973391532898e-01 7.544851779937744141e+00 2.230119466781616211e+00 -8.521779179573059082e-01
2.319000000000000000e+03 7.061035156250000000e+01 2.091328430175781250e+01 2.841409109532833099e-02 7.090921878814697266e+00 2.135800838470458984e+00 -9.405043721199035645e-01
2.320000000000000000e+03 2.876782989501953125e+01 -2.120599937438964844e+01 -6.198801845312118530e-02 3.754096746444702148e+00 1.107632637023925781e+00 1.482532471418380737e-01
2.321000000000000000e+03 2.674061584472656250e+01 -2.426736068725585938e+01 -4.916843399405479431e-02 3.528265476226806641e+00 1.043729066848754883e+00 1.194814369082450867e-01
2.322000000000000000e+03 3.036878585815429688e+01 8.709869384765625000e+00 -2.131729125976562500e-01 3.575802803039550781e+00 1.008788943290710449e+00 9.826722145080566406e-01
2.323000000000000000e+03 7.232073974609375000e+01 2.225610733032226562e+01 3.452315926551818848e-02 6.819726467132568359e+00 2.056274890899658203e+00 -8.122587203979492188e-01
2.324000000000000000e+03 6.568972015380859375e+01 3.392821884155273438e+01 6.033474802970886230e-01 7.278657913208007812e+00 2.364601612091064453e+00 -6.524538397789001465e-01
2.325000000000000000e+03 7.245924377441406250e+01 -2.303578567504882812e+01 -3.031081706285476685e-02 8.625944137573242188e+00 2.578689813613891602e+00 -9.775865077972412109e-02
2.326000000000000000e+03 2.823068046569824219e+01 2.944705724716186523e+00 -1.287598758935928345e-01 3.299756526947021484e+00 9.512989521026611328e-01 6.545447111129760742e-01
2.327000000000000000e+03 2.964884948730468750e+01 4.063629627227783203e+00 -1.857353150844573975e-01 3.550759792327880859e+00 1.009507417678833008e+00 7.534016966819763184e-01
2.328000000000000000e+03 3.079827308654785156e+01 1.322863674163818359e+01 -1.529277712106704712e-01 3.470627307891845703e+00 9.953098893165588379e-01 1.205821394920349121e+00
2.329000000000000000e+03 2.988301086425781250e+01 1.393510341644287109e+01 -9.417777508497238159e-02 3.147035360336303711e+00 9.158572554588317871e-01 1.167203068733215332e+00
2.330000000000000000e+03 7.052536773681640625e+01 -2.037340927124023438e+01 -5.082163959741592407e-02 8.419142723083496094e+00 2.510496377944946289e+00 -1.306957304477691650e-01
2.331000000000000000e+03 9.031574249267578125e+00 -3.181419372558593750e+01 -1.257780473679304123e-02 -1.406711875461041927e-03 -4.195354878902435303e-03 -8.838287321850657463e-04
2.332000000000000000e+03 7.001076507568359375e+01 1.815959167480468750e+01 -3.763119131326675415e-02 7.324767112731933594e+00 2.186140775680541992e+00 -9.787397384643554688e-01
2.333000000000000000e+03 7.021501159667968750e+01 1.527453899383544922e+01 -9.441813826560974121e-02 7.469388008117675781e+00 2.212491035461425781e+00 -9.269580245018005371e-01
2.334000000000000000e+03 2.924819564819335938e+01 -1.460878467559814453e+01 -8.009993284940719604e-02 3.797808408737182617e+00 1.115312576293945312e+00 2.190576493740081787e-01
2.335000000000000000e+03 6.805634307861328125e+01 -1.851273536682128906e+01 -9.477059543132781982e-02 8.156751632690429688e+00 2.418594360351562500e+00 -1.685928553342819214e-01
2.336000000000000000e+03 7.009071350097656250e+01 -3.104171562194824219e+01 -3.985102102160453796e-02 8.434570312500000000e+00 2.518415689468383789e+00 -5.152114108204841614e-02
2.337000000000000000e+03 7.155925750732421875e+01 -1.361877632141113281e+01 -6.504720449447631836e-02 8.444120407104492188e+00 2.513721942901611328e+00 -2.044045180082321167e-01
2.338000000000000000e+03 8.346914291381835938e+00 3.501923751831054688e+01 2.747215097770094872e-03 -7.827133958926424384e-05 8.006831048987805843e-04 1.819182769395411015e-03
2.339000000000000000e+03 6.872240447998046875e+01 1.031766414642333984e+01 -1.864729076623916626e-01 7.725926876068115234e+00 2.261836051940917969e+00 -8.759906888008117676e-01
2.340000000000000000e+03 7.141722869873046875e+01 -7.143067359924316406e+00 -9.995494037866592407e-02 8.306682586669921875e+00 2.462018489837646484e+00 -3.198270797729492188e-01
2.341000000000000000e+03 9.344140052795410156e+00 -2.685976791381835938e+01 -3.127699252218008041e-03 -1.599360373802483082e-03 -1.418117899447679520e-03 5.648534861393272877e-04
2.342000000000000000e+03 7.400066375732421875e+00 -2.952392196655273438e+01 1.354009495116770267e-03 2.782586263492703438e-03 1.240978715941309929e-03 1.339480746537446976e-03
2.343000000000000000e+03 7.168556976318359375e+01 -2.707575416564941406e+01 -3.355596959590911865e-02 8.584979057312011719e+00 2.565426826477050781e+00 -7.061654329299926758e-02
2.344000000000000000e+03 7.012042236328125000e+01 -2.723034286499023438e+01 -4.248783364892005920e-02 8.409871101379394531e+00 2.510215044021606445e+00 -8.368912339210510254e-02
2.345000000000000000e+03 6.903556060791015625e+01 -2.531929969787597656e+01 -4.981661960482597351e-02 8.283944129943847656e+00 2.470238208770751953e+00 -9.679768234491348267e-02
2.346000000000000000e+03 6.946092987060546875e+01 2.803199958801269531e+01 2.334055751562118530e-01 6.878005504608154297e+00 2.133423328399658203e+00 -8.597489595413208008e-01
2.347000000000000000e+03 2.933914566040039062e+01 2.722396850585937500e+00 -1.674438863992691040e-01 3.531210184097290039e+00 1.009129881858825684e+00 6.924484968185424805e-01
2.348000000000000000e+03 2.773237228393554688e+01 -3.045041275024414062e+01 1.416263636201620102e-02 3.637745141983032227e+00 1.095572352409362793e+00 9.973368048667907715e-02
2.349000000000000000e+03 2.576628494262695312e+01 -3.168952751159667969e+01 6.716962903738021851e-02 3.422295331954956055e+00 1.046839475631713867e+00 7.097366452217102051e-02
2.350000000000000000e+03 2.904490280151367188e+01 2.027178382873535156e+01 3.296189606189727783e-01 2.151161670684814453e+00 7.442342042922973633e-01 1.131961703300476074e+00
2.351000000000000000e+03 6.840728759765625000e+01 -3.411731338500976562e+01 -4.779803380370140076e-02 8.251532554626464844e+00 2.461120367050170898e+00 -5.476617068052291870e-02
2.352000000000000000e+03 8.978691101074218750e+00 1.323116683959960938e+01 -5.473235796671360731e-05 2.693068236112594604e-04 6.437234696932137012e-05 -4.422031342983245850e-04
2.353000000000000000e+03 6.684413909912109375e+01 2.781400108337402344e+01 3.312344253063201904e-01 7.236831665039062500e+00 2.270419836044311523e+00 -9.660798907279968262e-01
2.354000000000000000e+03 6.857254791259765625e+01 2.665747451782226562e+01 2.106355130672454834e-01 7.046989440917968750e+00 2.177287578582763672e+00 -9.375461935997009277e-01
2.355000000000000000e+03 4.767386245727539062e+01 3.149286460876464844e+01 2.775803565979003906e+00 1.060070133209228516e+01 4.012951374053955078e+00 -4.336259663105010986e-01
2.356000000000000000e+03 4.989360427856445312e+01 3.380506134033203125e+01 2.543549537658691406e+00 1.012024974822998047e+01 3.799139738082885742e+00 1.548675075173377991e-02
2.357000000000000000e+03 2.891225242614746094e+01 -2.599068260192871094e+01 -5.358901247382164001e-02 3.783806562423706055e+00 1.119065284729003906e+00 1.136667132377624512e-01
2.358000000000000000e+03 7.904688835144042969e+00 -3.704446029663085938e+01 -3.897527698427438736e-03 1.471330597996711731e-02 3.244733437895774841e-03 -1.685281842947006226e-02
2.359000000000000000e+03 6.728293418884277344e+00 -3.870684432983398438e+01 5.466200876981019974e-03 -3.505473025143146515e-03 5.882183322682976723e-04 -2.380113489925861359e-02
2.360000000000000000e+03 8.665476799011230469e+00 2.153719711303710938e+01 1.144438050687313080e-03 4.478006740100681782e-04 4.776716232299804688e-04 -3.426702169235795736e-04
2.361000000000000000e+03 3.872329711914062500e+01 3.069709396362304688e+01 3.118277788162231445e+00 7.820326328277587891e+00 3.281581163406372070e+00 5.536398410797119141e+00
2.362000000000000000e+03 3.647267913818359375e+01 3.140147399902343750e+01 2.981088399887084961e+00 1.533631563186645508e+00 1.354416012763977051e+00 2.405378818511962891e+00
2.363000000000000000e+03 3.838738250732421875e+01 3.013242912292480469e+01 2.735477209091186523e+00 7.012080192565917969e+00 2.924267292022705078e+00 4.930280208587646484e+00
2.364000000000000000e+03 3.956590652465820312e+01 2.962521553039550781e+01 1.527846217155456543e+00 1.047461318969726562e+01 3.600737810134887695e+00 4.382567882537841797e+00
2.365000000000000000e+03 3.519943237304687500e+01 3.036881256103515625e+01 2.382887125015258789e+00 1.539389371871948242e+00 1.176682949066162109e+00 1.928890705108642578e+00
2.366000000000000000e+03 3.591719055175781250e+01 3.056102561950683594e+01 2.721574068069458008e+00 1.872170805931091309e+00 1.378123402595520020e+00 2.421385288238525391e+00
2.367000000000000000e+03 3.452853393554687500e+01 3.015065193176269531e+01 2.091589689254760742e+00 1.358760595321655273e+00 1.035105109214782715e+00 1.597753763198852539e+00
2.368000000000000000e+03 3.823202133178710938e+01 3.106094551086425781e+01 3.857813596725463867e+00 5.674305438995361328e+00 2.859635829925537109e+00 5.275042533874511719e+00
2.369000000000000000e+03 3.440592193603515625e+01 2.904003906250000000e+01 2.033235073089599609e+00 1.933639883995056152e+00 1.190062522888183594e+00 1.898823380470275879e+00
2.370000000000000000e+03 3.372807312011718750e+01 2.918784523010253906e+01 1.845256447792053223e+00 1.488603353500366211e+00 1.000157952308654785e+00 1.486721277236938477e+00
2.371000000000000000e+03 4.075872802734375000e+01 2.956863212585449219e+01 8.388807177543640137e-01 1.278399276733398438e+01 4.086862087249755859e+00 2.977871656417846680e+00
2.372000000000000000e+03 2.779060363769531250e+01 2.675185585021972656e+01 6.475262045860290527e-01 6.796936392784118652e-01 3.981659412384033203e-01 3.139650225639343262e-01
2.373000000000000000e+03 2.875715827941894531e+01 2.411839866638183594e+01 6.702993512153625488e-01 1.394202351570129395e+00 6.193504929542541504e-01 8.392790555953979492e-01
2.374000000000000000e+03 2.993344688415527344e+01 2.833947372436523438e+01 9.401943683624267578e-01 7.836731076240539551e-01 5.171602368354797363e-01 4.336000978946685791e-01
2.375000000000000000e+03 3.141603279113769531e+01 2.726397705078125000e+01 1.253017783164978027e+00 1.411044836044311523e+00 7.992188334465026855e-01 1.026311039924621582e+00
2.376000000000000000e+03 3.070258712768554688e+01 2.868201255798339844e+01 1.076601386070251465e+00 8.424240946769714355e-01 5.757076144218444824e-01 5.422582030296325684e-01
2.377000000000000000e+03 3.216464233398437500e+01 2.873993301391601562e+01 1.430087447166442871e+00 1.160011529922485352e+00 7.770296931266784668e-01 9.727113246917724609e-01
2.378000000000000000e+03 4.469378280639648438e+01 2.871875000000000000e+01 1.258016347885131836e+00 1.187216663360595703e+01 3.939054965972900391e+00 -4.051294028759002686e-01
2.379000000000000000e+03 4.574520492553710938e+01 2.862269020080566406e+01 1.435973525047302246e+00 1.140502548217773438e+01 3.852299928665161133e+00 -6.969610452651977539e-01
2.380000000000000000e+03 4.452161788940429688e+01 2.981825447082519531e+01 2.092778921127319336e+00 1.232632732391357422e+01 4.325731754302978516e+00 -5.882736444473266602e-01
2.381000000000000000e+03 6.784746551513671875e+01 2.390413284301757812e+00 -2.400415986776351929e-01 7.927404403686523438e+00 2.306208848953247070e+00 -6.488065719604492188e-01
2.382000000000000000e+03 6.905912780761718750e+01 1.251790285110473633e+00 -1.948934942483901978e-01 7.982141971588134766e+00 2.336174488067626953e+00 -5.844878554344177246e-01
2.383000000000000000e+03 6.926862335205078125e+01 -1.080247020721435547e+01 -1.243791356682777405e-01 8.201993942260742188e+00 2.423284292221069336e+00 -2.835173606872558594e-01
2.384000000000000000e+03 6.969298553466796875e+01 -1.231941318511962891e+01 -1.040492355823516846e-01 8.257307052612304688e+00 2.445977449417114258e+00 -2.492606043815612793e-01
2.385000000000000000e+03 9.226585388183593750e+00 7.391319274902343750e+00 -8.331117714988067746e-05 2.906292211264371872e-04 6.219541683094576001e-05 3.686712589114904404e-04
2.386000000000000000e+03 6.993572235107421875e+01 1.246472263336181641e+01 -1.355441808700561523e-01 7.604470729827880859e+00 2.240678071975708008e+00 -8.809411525726318359e-01
2.387000000000000000e+03 6.931125640869140625e+01 1.150512981414794922e+01 -1.602300256490707397e-01 7.666119575500488281e+00 2.251766920089721680e+00 -8.835703134536743164e-01
2.388000000000000000e+03 3.028641510009765625e+01 1.917192459106445312e+01 2.424277216196060181e-01 2.769925117492675781e+00 9.037058353424072266e-01 1.319869756698608398e+00
2.389000000000000000e+03 2.933004379272460938e+01 1.769679260253906250e+01 1.256754100322723389e-01 2.594631195068359375e+00 8.160920143127441406e-01 1.199705481529235840e+00
2.390000000000000000e+03 6.860549163818359375e+01 -1.999487876892089844e+01 -7.310437411069869995e-02 8.223657608032226562e+00 2.445166110992431641e+00 -1.491785943508148193e-01
2.391000000000000000e+03 3.166382408142089844e+01 1.041693782806396484e+01 -2.587596178054809570e-01 3.864584445953369141e+00 1.081747412681579590e+00 1.109040260314941406e+00
2.392000000000000000e+03 2.951505470275878906e+01 1.637363052368164062e+01 3.485472500324249268e-02 2.810805320739746094e+00 8.536980152130126953e-01 1.201974511146545410e+00
2.393000000000000000e+03 3.066445159912109375e+01 1.673295021057128906e+01 2.919455990195274353e-02 3.191976785659790039e+00 9.663513898849487305e-01 1.316550612449645996e+00
2.394000000000000000e+03 2.981199264526367188e+01 2.284696578979492188e+01 6.363257765769958496e-01 1.991538643836975098e+00 7.883593440055847168e-01 1.148614287376403809e+00
2.395000000000000000e+03 6.912394714355468750e+01 1.977102088928222656e+01 6.020886357873678207e-03 7.311595439910888672e+00 2.195284843444824219e+00 -1.033422470092773438e+00
2.396000000000000000e+03 6.823635101318359375e+01 1.767251014709472656e+01 -7.241273671388626099e-02 7.480870246887207031e+00 2.222537279129028320e+00 -1.044084787368774414e+00
2.397000000000000000e+03 6.786956024169921875e+01 -2.463468551635742188e+01 -6.392168253660202026e-02 8.156644821166992188e+00 2.427816867828369141e+00 -1.026128455996513367e-01
2.398000000000000000e+03 6.881379699707031250e+01 -2.329580307006835938e+01 -6.357191503047943115e-02 8.258399009704589844e+00 2.458448171615600586e+00 -1.156186684966087341e-01
2.399000000000000000e+03 7.856517314910888672e+00 -2.181742477416992188e+01 -3.515867982059717178e-03 -1.764522748999297619e-04 -1.107696094550192356e-03 1.842244062572717667e-03
2.400000000000000000e+03 2.798644828796386719e+01 2.780813217163085938e+01 6.449023485183715820e-01 5.613052248954772949e-01 3.618622720241546631e-01 1.943238675594329834e-01
2.401000000000000000e+03 6.917701721191406250e+01 6.073816776275634766e+00 -1.988153457641601562e-01 7.862409114837646484e+00 2.299078226089477539e+00 -7.287522554397583008e-01
2.402000000000000000e+03 1.151376247406005859e+01 -3.103955650329589844e+01 -1.398175954818725586e-04 3.886090125888586044e-04 7.463742804247885942e-05 2.410604152828454971e-03
2.403000000000000000e+03 7.024877166748046875e+01 -8.896714210510253906e+00 -1.127253398299217224e-01 8.247028350830078125e+00 2.440290927886962891e+00 -3.051791787147521973e-01
2.404000000000000000e+03 3.043503952026367188e+01 -1.284973621368408203e+01 -1.081198006868362427e-01 3.931605577468872070e+00 1.147045731544494629e+00 2.621644437313079834e-01
2.405000000000000000e+03 7.769701480865478516e+00 -1.731330680847167969e+01 1.881426898762583733e-03 5.244826315902173519e-04 7.217728416435420513e-04 1.382086484227329493e-04
2.406000000000000000e+03 6.891261291503906250e+01 1.568664646148681641e+01 -1.082165017724037170e-01 7.518591880798339844e+00 2.223112583160400391e+00 -9.854354262351989746e-01
2.407000000000000000e+03 7.069818878173828125e+01 1.640508842468261719e+01 -6.787236034870147705e-02 7.361768245697021484e+00 2.188168764114379883e+00 -9.148748517036437988e-01
2.408000000000000000e+03 8.212091445922851562e+00 1.803046417236328125e+01 6.524220807477831841e-04 3.027277998626232147e-04 2.865449641831219196e-04 5.473493274621432647e-06
2.409000000000000000e+03 6.807199859619140625e+01 8.975282669067382812e+00 -2.195926755666732788e-01 7.783308982849121094e+00 2.269114971160888672e+00 -8.542984724044799805e-01
2.410000000000000000e+03 6.998121643066406250e+01 9.744181632995605469e+00 -1.588987708091735840e-01 7.720237255096435547e+00 2.268401622772216797e+00 -8.090425133705139160e-01
2.411000000000000000e+03 2.971702384948730469e+01 2.405711936950683594e+01 7.513942718505859375e-01 1.703776359558105469e+00 7.365511655807495117e-01 1.030772566795349121e+00
2.412000000000000000e+03 9.031768798828125000e+00 -2.810971832275390625e+01 1.201631617732346058e-03 1.927879493450745940e-04 4.183258570265024900e-04 6.592027493752539158e-04
2.413000000000000000e+03 7.023097229003906250e+01 6.699924468994140625e+00 -1.583691984415054321e-01 7.835728645324707031e+00 2.303207874298095703e+00 -7.088140845298767090e-01
2.414000000000000000e+03 2.909420204162597656e+01 -4.020992755889892578e+00 -1.401548087596893311e-01 3.653285026550292969e+00 1.053938984870910645e+00 4.566653966903686523e-01
2.415000000000000000e+03 3.150102806091308594e+01 -1.537984943389892578e+01 -1.174494475126266479e-01 4.085704326629638672e+00 1.190476417541503906e+00 2.178561091423034668e-01
2.416000000000000000e+03 2.935600280761718750e+01 -1.749625396728515625e+01 -8.371355384588241577e-02 3.847004652023315430e+00 1.128987312316894531e+00 1.767774522304534912e-01
2.417000000000000000e+03 6.842202758789062500e+01 -8.121200561523437500e+00 -1.595011204481124878e-01 8.099686622619628906e+00 2.382055759429931641e+00 -3.524806201457977295e-01
2.418000000000000000e+03 3.182301712036132812e+01 9.022402763366699219e+00 -2.774404883384704590e-01 3.951977968215942383e+00 1.102361202239990234e+00 1.037889838218688965e+00
2.419000000000000000e+03 3.137219238281250000e+01 1.437453937530517578e+01 -1.230408698320388794e-01 3.641304492950439453e+00 1.055479049682617188e+00 1.302335143089294434e+00
2.420000000000000000e+03 6.852700805664062500e+01 -2.700242614746093750e+01 -5.042311176657676697e-02 8.226107597351074219e+00 2.452705383300781250e+00 -8.350292593240737915e-02
2.421000000000000000e+03 7.077643585205078125e+01 2.241808509826660156e+01 5.967680737376213074e-02 6.999687194824218750e+00 2.117809295654296875e+00 -9.226821660995483398e-01
2.422000000000000000e+03 7.146904754638671875e+01 2.499616432189941406e+01 9.430400282144546509e-02 6.751148700714111328e+00 2.053635835647583008e+00 -8.257749676704406738e-01
2.423000000000000000e+03 3.120155715942382812e+01 5.190352916717529297e+00 -2.532142698764801025e-01 3.857795715332031250e+00 1.081374406814575195e+00 8.438077569007873535e-01
2.424000000000000000e+03 4.874936294555664062e+01 3.326127243041992188e+01 2.809516668319702148e+00 1.048081016540527344e+01 3.987097978591918945e+00 -5.984710995107889175e-03
2.425000000000000000e+03 3.161685562133789062e+01 6.660757541656494141e+00 -2.760895192623138428e-01 3.942304372787475586e+00 1.099864482879638672e+00 9.249105453491210938e-01
2.426000000000000000e+03 6.854222869873046875e+01 3.503757095336914062e+01 4.778008759021759033e-01 6.791941642761230469e+00 2.180922746658325195e+00 -5.264557600021362305e-01
2.427000000000000000e+03 7.000395965576171875e+01 3.044315528869628906e+01 2.708643376827239990e-01 6.681476593017578125e+00 2.085702180862426758e+00 -7.188854813575744629e-01
2.428000000000000000e+03 3.092957878112792969e+01 -1.403994274139404297e+01 -1.089669838547706604e-01 4.011422157287597656e+00 1.170736551284790039e+00 2.460377812385559082e-01
2.429000000000000000e+03 2.954331588745117188e+01 -1.600771713256835938e+01 -7.872211933135986328e-02 3.849988698959350586e+00 1.131379961967468262e+00 1.979591846466064453e-01
2.430000000000000000e+03 3.248488616943359375e+01 4.801415443420410156e+00 -3.163690268993377686e-01 4.182482719421386719e+00 1.159834027290344238e+00 8.491380810737609863e-01
2.431000000000000000e+03 6.830229187011718750e+01 2.942411994934082031e+01 3.336802721023559570e-01 6.982697010040283203e+00 2.194913148880004883e+00 -8.409979343414306641e-01
2.432000000000000000e+03 3.164697074890136719e+01 -3.561991119384765625e+01 -8.471097052097320557e-02 4.086822032928466797e+00 1.200633287429809570e+00 -1.910281181335449219e-02
2.433000000000000000e+03 4.920328903198242188e+01 3.549058151245117188e+01 2.355819463729858398e+00 1.073246479034423828e+01 3.926485300064086914e+00 4.989617168903350830e-01
2.434000000000000000e+03 7.029985046386718750e+01 8.561670780181884766e-03 -1.565684527158737183e-01 8.058199882507324219e+00 2.370489597320556641e+00 -5.169824957847595215e-01
2.435000000000000000e+03 2.886968612670898438e+01 -2.440201950073242188e+01 -5.064709484577178955e-02 3.786563634872436523e+00 1.120774984359741211e+00 1.372609585523605347e-01
2.436000000000000000e+03 6.811705017089843750e+01 -2.908122825622558594e+01 -4.986739531159400940e-02 8.175448417663574219e+00 2.437674283981323242e+00 -7.392955571413040161e-02
2.437000000000000000e+03 7.172976684570312500e+01 3.816008758544921875e+01 2.677984535694122314e-01 6.100464820861816406e+00 1.910478949546813965e+00 -2.487670332193374634e-01
2.438000000000000000e+03 3.465590667724609375e+01 2.941833877563476562e+01 2.146632909774780273e+00 1.837960720062255859e+00 1.195378065109252930e+00 1.928366422653198242e+00
2.439000000000000000e+03 3.549655532836914062e+01 3.086653137207031250e+01 2.410223960876464844e+00 1.298683524131774902e+00 1.112672328948974609e+00 1.856492519378662109e+00
2.440000000000000000e+03 3.317954635620117188e+01 2.836368942260742188e+01 1.710768103599548340e+00 1.676772117614746094e+00 1.016262054443359375e+00 1.480586051940917969e+00
2.441000000000000000e+03 3.401561737060546875e+01 2.868130111694335938e+01 1.894664168357849121e+00 1.898127794265747070e+00 1.137837648391723633e+00 1.779644727706909180e+00
2.442000000000000000e+03 3.914026260375976562e+01 3.024386978149414062e+01 2.227549076080322266e+00 9.494334220886230469e+00 3.516565084457397461e+00 5.151034355163574219e+00
2.443000000000000000e+03 3.558973693847656250e+01 3.008398437500000000e+01 2.546982049942016602e+00 2.036130666732788086e+00 1.374933838844299316e+00 2.345400333404541016e+00
2.444000000000000000e+03 3.914991378784179688e+01 2.975756645202636719e+01 1.901396393775939941e+00 9.475502014160156250e+00 3.413069486618041992e+00 4.750474452972412109e+00
2.445000000000000000e+03 4.000159454345703125e+01 2.936124992370605469e+01 1.078864693641662598e+00 1.130168533325195312e+01 3.714164972305297852e+00 3.884531974792480469e+00
2.446000000000000000e+03 3.657952117919921875e+01 3.095657920837402344e+01 3.151846408843994141e+00 2.180231332778930664e+00 1.599623322486877441e+00 2.865551710128784180e+00
2.447000000000000000e+03 4.136626815795898438e+01 2.938444900512695312e+01 7.298185825347900391e-01 1.325025558471679688e+01 4.194022178649902344e+00 2.056759595870971680e+00
2.448000000000000000e+03 3.018144607543945312e+01 2.754101181030273438e+01 1.056348323822021484e+00 1.035348892211914062e+00 6.275091767311096191e-01 6.741554737091064453e-01
2.449000000000000000e+03 3.190803718566894531e+01 2.722702980041503906e+01 1.340136885643005371e+00 1.598749160766601562e+00 8.816658258438110352e-01 1.199400663375854492e+00
2.450000000000000000e+03 3.200086975097656250e+01 2.796257019042968750e+01 1.394937396049499512e+00 1.375214457511901855e+00 8.310455679893493652e-01 1.081464648246765137e+00
2.451000000000000000e+03 2.877032661437988281e+01 2.543960952758789062e+01 7.601816654205322266e-01 1.126845359802246094e+00 5.661081075668334961e-01 6.717134714126586914e-01
2.452000000000000000e+03 4.210846710205078125e+01 2.860497283935546875e+01 5.442163348197937012e-01 1.259090900421142578e+01 3.940537691116333008e+00 1.239803075790405273e+00
2.453000000000000000e+03 2.928385353088378906e+01 2.783062362670898438e+01 8.291538357734680176e-01 7.456536889076232910e-01 4.724422693252563477e-01 3.749398589134216309e-01
2.454000000000000000e+03 6.775164031982421875e+01 -9.537322044372558594e+00 -1.655502170324325562e-01 8.059232711791992188e+00 2.368104696273803711e+00 -3.226464986801147461e-01
2.455000000000000000e+03 6.790325164794921875e+01 -1.121872615814208984e+01 -1.461116224527359009e-01 8.090754508972167969e+00 2.383392810821533203e+00 -2.873185575008392334e-01
2.456000000000000000e+03 4.306116104125976562e+01 2.777704238891601562e+01 4.310641586780548096e-01 1.187795639038085938e+01 3.692706108093261719e+00 6.347545385360717773e-01
2.457000000000000000e+03 2.972868537902832031e+01 2.527467727661132812e+01 8.832469582557678223e-01 1.427721261978149414e+00 6.932904720306396484e-01 8.971043229103088379e-01
2.458000000000000000e+03 9.463443756103515625e+00 9.008926391601562500e+00 -5.222992040216922760e-04 -2.991644432768225670e-04 -2.464391000103205442e-04 -1.974797778530046344e-04
2.459000000000000000e+03 6.824032592773437500e+01 1.230679798126220703e+01 -1.799689531326293945e-01 7.685769557952880859e+00 2.251740217208862305e+00 -9.473798871040344238e-01
2.460000000000000000e+03 6.947553253173828125e+01 8.455077171325683594e+00 -1.835452169179916382e-01 7.778371334075927734e+00 2.278447866439819336e+00 -7.940992712974548340e-01
2.461000000000000000e+03 4.139312744140625000e+01 2.865023612976074219e+01 4.759825468063354492e-01 1.232174110412597656e+01 3.839317083358764648e+00 2.104547739028930664e+00
2.462000000000000000e+03 7.030172729492187500e+01 1.330729246139526367e+00 -1.599843204021453857e-01 8.018715858459472656e+00 2.357619524002075195e+00 -5.560063719749450684e-01
2.463000000000000000e+03 6.547705841064453125e+01 -4.528868675231933594e+00 -2.625542283058166504e-01 7.888308048248291016e+00 2.287726163864135742e+00 -4.577054679393768311e-01
2.464000000000000000e+03 3.175360488891601562e+01 1.712022209167480469e+01 3.351718932390213013e-02 3.588555574417114258e+00 1.086621761322021484e+00 1.443307518959045410e+00
2.465000000000000000e+03 3.158736419677734375e+01 1.822828102111816406e+01 1.205146685242652893e-01 3.409319639205932617e+00 1.058950304985046387e+00 1.451754927635192871e+00
2.466000000000000000e+03 6.719203948974609375e+01 -2.579666852951049805e+00 -2.274975180625915527e-01 7.966924190521240234e+00 2.321828126907348633e+00 -5.016022920608520508e-01
2.467000000000000000e+03 6.847644042968750000e+01 -5.448093891143798828e+00 -1.723774969577789307e-01 8.078922271728515625e+00 2.371963500976562500e+00 -4.107122123241424561e-01
2.468000000000000000e+03 3.296134567260742188e+01 1.064225959777832031e+01 -3.260953426361083984e-01 4.276097297668457031e+00 1.185000538825988770e+00 1.138579368591308594e+00
2.469000000000000000e+03 6.501036071777343750e+01 1.817317581176757812e+01 -9.613414853811264038e-02 7.733070850372314453e+00 2.291081190109252930e+00 -1.151636362075805664e+00
2.470000000000000000e+03 6.946951293945312500e+01 1.696944999694824219e+01 -7.025700807571411133e-02 7.418676376342773438e+00 2.204525947570800781e+00 -9.858186244964599609e-01
2.471000000000000000e+03 3.052322578430175781e+01 1.488703632354736328e+01 -6.943242251873016357e-02 3.319553136825561523e+00 9.750362634658813477e-01 1.264831542968750000e+00
2.472000000000000000e+03 3.190933418273925781e+01 1.616169166564941406e+01 -5.434814840555191040e-02 3.703552484512329102e+00 1.094761252403259277e+00 1.412404656410217285e+00
2.473000000000000000e+03 3.314342498779296875e+01 9.549084663391113281e+00 -3.463429212570190430e-01 4.348291397094726562e+00 1.200584530830383301e+00 1.092046141624450684e+00
2.474000000000000000e+03 3.011847114562988281e+01 2.040428924560546875e+01 3.680286705493927002e-01 2.533725261688232422e+00 8.705261945724487305e-01 1.290101170539855957e+00
2.475000000000000000e+03 2.995496749877929688e+01 2.163164520263671875e+01 4.978152215480804443e-01 2.269374370574951172e+00 8.301568627357482910e-01 1.235179901123046875e+00
2.476000000000000000e+03 3.412145233154296875e+01 2.779766082763671875e+01 1.807058930397033691e+00 2.425018310546875000e+00 1.269623160362243652e+00 2.028180122375488281e+00
2.477000000000000000e+03 8.665271759033203125e+00 1.897970390319824219e+01 -5.575541290454566479e-04 -4.688707995228469372e-04 -3.079274611081928015e-04 1.932303857756778598e-04
2.478000000000000000e+03 6.126837539672851562e+01 -2.288486099243164062e+01 -1.447067558765411377e-01 7.489194393157958984e+00 2.203346252441406250e+00 -1.222493797540664673e-01
2.479000000000000000e+03 3.109209060668945312e+01 1.577381801605224609e+01 -4.032915458083152771e-02 3.423113346099853516e+00 1.014835238456726074e+00 1.327235817909240723e+00
2.480000000000000000e+03 6.919192504882812500e+01 1.339639759063720703e+01 -1.392197161912918091e-01 7.596218109130859375e+00 2.237099409103393555e+00 -9.357329010963439941e-01
2.481000000000000000e+03 3.141040992736816406e+01 1.939683723449707031e+01 2.498395442962646484e-01 3.199105739593505859e+00 1.034683585166931152e+00 1.468097567558288574e+00
2.482000000000000000e+03 3.242179107666015625e+01 7.859010696411132812e+00 -3.129499554634094238e-01 4.122500419616699219e+00 1.142865180969238281e+00 9.882219433784484863e-01
2.483000000000000000e+03 3.058588218688964844e+01 -2.705669164657592773e+00 -1.887401938438415527e-01 3.887882709503173828e+00 1.109742760658264160e+00 5.156565904617309570e-01
2.484000000000000000e+03 2.894052505493164062e+01 1.436324596405029297e+00 -1.484157741069793701e-01 3.487693786621093750e+00 1.001783370971679688e+00 6.326525211334228516e-01
2.485000000000000000e+03 3.065279388427734375e+01 -5.226345539093017578e+00 -1.743350178003311157e-01 3.920482635498046875e+00 1.123844265937805176e+00 4.502633810043334961e-01
2.486000000000000000e+03 6.794198989868164062e+00 -2.219387245178222656e+01 1.002640696242451668e-03 5.314459558576345444e-04 4.602260014507919550e-04 1.644399715587496758e-03
2.487000000000000000e+03 6.990428924560546875e+01 -2.230321311950683594e+01 -6.046320870518684387e-02 8.354819297790527344e+00 2.488306760787963867e+00 -1.175776422023773193e-01
2.488000000000000000e+03 3.086039924621582031e+01 3.783648252487182617e+00 -2.329556196928024292e-01 3.817566633224487305e+00 1.075383305549621582e+00 7.757818698883056641e-01
2.489000000000000000e+03 3.183259201049804688e+01 2.653363418579101562e+01 1.255435228347778320e+00 1.812447309494018555e+00 9.203647971153259277e-01 1.289661645889282227e+00
2.490000000000000000e+03 4.825762939453125000e+01 2.975514030456542969e+01 2.110420703887939453e+00 1.040086460113525391e+01 3.753385543823242188e+00 -8.689981102943420410e-01
2.491000000000000000e+03 4.964364242553710938e+01 3.249129867553710938e+01 2.440265417098999023e+00 1.008788108825683594e+01 3.758443832397460938e+00 -2.815408408641815186e-01
2.492000000000000000e+03 4.770351409912109375e+01 3.712824249267578125e+01 1.735322237014770508e+00 1.190903282165527344e+01 4.093306541442871094e+00 1.324407696723937988e+00
2.493000000000000000e+03 4.648236465454101562e+01 3.520312118530273438e+01 3.280113220214843750e+00 1.163550567626953125e+01 4.474685668945312500e+00 1.488808989524841309e+00
2.494000000000000000e+03 6.760090637207031250e+01 2.119078063964843750e+01 4.895425587892532349e-02 7.413584232330322266e+00 2.238761663436889648e+00 -1.096849918365478516e+00
2.495000000000000000e+03 6.903152465820312500e+01 2.460292577743530273e+00 -2.001066207885742188e-01 7.952514171600341797e+00 2.325722217559814453e+00 -6.248691082000732422e-01
2.496000000000000000e+03 7.028353881835937500e+01 -1.353450179100036621e+00 -1.486585885286331177e-01 8.093616485595703125e+00 2.383487462997436523e+00 -4.812070131301879883e-01
2.497000000000000000e+03 6.902967071533203125e+01 -2.882170677185058594e-02 -1.931091994047164917e-01 8.008186340332031250e+00 2.344523191452026367e+00 -5.495554208755493164e-01
2.498000000000000000e+03 3.284270095825195312e+01 6.089580535888671875e+00 -3.371743559837341309e-01 4.273060321807861328e+00 1.180765867233276367e+00 9.069815278053283691e-01
2.499000000000000000e+03 3.233280563354492188e+01 1.410854053497314453e+01 -1.917889714241027832e-01 3.962713241577148438e+00 1.131277203559875488e+00 1.309884071350097656e+00
2.500000000000000000e+03 3.179029655456542969e+01 1.531974983215332031e+01 -1.041171923279762268e-01 3.737060070037841797e+00 1.089882850646972656e+00 1.357231497764587402e+00
2.501000000000000000e+03 3.329544067382812500e+01 7.129533767700195312e+00 -3.602168858051300049e-01 4.365473270416259766e+00 1.201576948165893555e+00 9.529601335525512695e-01
2.502000000000000000e+03 3.049125671386718750e+01 2.439231634140014648e+00 -2.109559029340744019e-01 3.767932415008544922e+00 1.067093014717102051e+00 7.112389206886291504e-01
2.503000000000000000e+03 3.213523483276367188e+01 3.432123184204101562e+00 -2.859634459018707275e-01 4.103531837463378906e+00 1.145270586013793945e+00 7.771863341331481934e-01
2.504000000000000000e+03 8.845466613769531250e+00 -2.942303466796875000e+01 -7.038584444671869278e-03 -1.846180879510939121e-03 -2.665429608896374702e-03 3.198382910341024399e-04
2.505000000000000000e+03 6.960205841064453125e+01 -2.403772544860839844e+01 -5.218761414289474487e-02 8.330630302429199219e+00 2.483532667160034180e+00 -1.036394685506820679e-01
2.506000000000000000e+03 5.232557773590087891e+00 2.048550987243652344e+01 -1.417806372046470642e-03 -3.172291908413171768e-04 -5.205106572248041630e-04 -4.785279161296784878e-04
2.507000000000000000e+03 6.954645538330078125e+01 2.432373237609863281e+01 1.182088553905487061e-01 7.036535739898681641e+00 2.146423339843750000e+00 -9.498602151870727539e-01
2.508000000000000000e+03 4.737297058105468750e+01 3.057828330993652344e+01 2.539085626602172852e+00 1.073765945434570312e+01 3.983023405075073242e+00 -7.032351493835449219e-01
2.509000000000000000e+03 4.641715240478515625e+01 3.091363716125488281e+01 2.985605955123901367e+00 1.122411727905273438e+01 4.262917041778564453e+00 -6.149603724479675293e-01
2.510000000000000000e+03 3.103235816955566406e+01 -2.034691429138183594e+01 -8.288057893514633179e-02 4.027595996856689453e+00 1.183414697647094727e+00 1.498282104730606079e-01
2.511000000000000000e+03 6.924270629882812500e+01 2.273112869262695312e+01 9.011819958686828613e-02 7.146432876586914062e+00 2.170965194702148438e+00 -9.951988458633422852e-01
2.512000000000000000e+03 6.900694274902343750e+01 7.186115264892578125e+00 -1.967384666204452515e-01 7.819121360778808594e+00 2.286714792251586914e+00 -7.699723243713378906e-01
2.513000000000000000e+03 6.741002655029296875e+01 -6.933666229248046875e+00 -1.903634071350097656e-01 8.021779060363769531e+00 2.349424839019775391e+00 -3.827466070652008057e-01
2.514000000000000000e+03 6.991110229492187500e+01 -7.406156063079833984e+00 -1.380685716867446899e-01 8.193995475769042969e+00 2.416778087615966797e+00 -3.449438810348510742e-01
2.515000000000000000e+03 3.595940017700195312e+01 2.976225471496582031e+01 2.618295431137084961e+00 2.620615243911743164e+00 1.571673274040222168e+00 2.773832321166992188e+00
2.516000000000000000e+03 3.786221694946289062e+01 3.095330810546875000e+01 3.735510826110839844e+00 4.628003120422363281e+00 2.509054183959960938e+00 4.641655921936035156e+00
2.517000000000000000e+03 3.366569137573242188e+01 2.815976524353027344e+01 1.768301844596862793e+00 1.979044795036315918e+00 1.124203920364379883e+00 1.717044472694396973e+00
2.518000000000000000e+03 3.691906738281250000e+01 3.003068351745605469e+01 2.958182573318481445e+00 3.698243141174316406e+00 1.996927738189697266e+00 3.610632658004760742e+00
2.519000000000000000e+03 3.875988769531250000e+01 3.020783996582031250e+01 2.502947330474853516e+00 8.295078277587890625e+00 3.239407539367675781e+00 5.075672626495361328e+00
2.520000000000000000e+03 3.710825347900390625e+01 3.064602279663085938e+01 3.342090368270874023e+00 3.318108558654785156e+00 1.998059630393981934e+00 3.675152540206909180e+00
2.521000000000000000e+03 3.971871185302734375e+01 2.892787361145019531e+01 1.089868903160095215e+00 1.033213901519775391e+01 3.426602363586425781e+00 3.816565036773681641e+00
2.522000000000000000e+03 3.529439926147460938e+01 2.961555862426757812e+01 2.377410411834716797e+00 2.172296047210693359e+00 1.364911913871765137e+00 2.304986000061035156e+00
2.523000000000000000e+03 3.503036499023437500e+01 2.916002464294433594e+01 2.234557867050170898e+00 2.246814966201782227e+00 1.344411969184875488e+00 2.244522809982299805e+00
2.524000000000000000e+03 3.475008010864257812e+01 2.871989440917968750e+01 2.056062459945678711e+00 2.320401906967163086e+00 1.312939286231994629e+00 2.165992021560668945e+00
2.525000000000000000e+03 4.164946365356445312e+01 2.747449874877929688e+01 1.955328434705734253e-01 1.127615451812744141e+01 3.441506385803222656e+00 1.771688699722290039e+00
2.526000000000000000e+03 4.472660827636718750e+01 2.770056152343750000e+01 7.696333527565002441e-01 1.150695610046386719e+01 3.682976961135864258e+00 -2.293048799037933350e-01
2.527000000000000000e+03 3.935741806030273438e+01 2.915945434570312500e+01 1.381709337234497070e+00 9.654742240905761719e+00 3.310935497283935547e+00 4.208703994750976562e+00
2.528000000000000000e+03 4.080137252807617188e+01 2.847915458679199219e+01 5.219147801399230957e-01 1.164586830139160156e+01 3.650335073471069336e+00 2.617261171340942383e+00
2.529000000000000000e+03 3.001688575744628906e+01 2.628202056884765625e+01 9.722784161567687988e-01 1.272793292999267578e+00 6.735215187072753906e-01 8.222952485084533691e-01
2.530000000000000000e+03 3.092496490478515625e+01 2.722373962402343750e+01 1.193096280097961426e+00 1.277276396751403809e+00 7.411117553710937500e-01 9.094456434249877930e-01
2.531000000000000000e+03 3.297966766357421875e+01 2.771717834472656250e+01 1.588368296623229980e+00 1.847240090370178223e+00 1.030682563781738281e+00 1.528931021690368652e+00
2.532000000000000000e+03 3.067929649353027344e+01 2.595767974853515625e+01 1.055137872695922852e+00 1.586743593215942383e+00 7.925644516944885254e-01 1.055266261100769043e+00
2.533000000000000000e+03 3.250994873046875000e+01 2.785248947143554688e+01 1.505787491798400879e+00 1.574099302291870117e+00 9.239660501480102539e-01 1.296500921249389648e+00
2.534000000000000000e+03 3.063280677795410156e+01 2.402791976928710938e+01 8.395376801490783691e-01 2.041005849838256836e+00 8.641630411148071289e-01 1.241176486015319824e+00
2.535000000000000000e+03 3.120763206481933594e+01 2.058540916442871094e+01 3.946701288223266602e-01 2.944118976593017578e+00 1.001636743545532227e+00 1.458005189895629883e+00
2.536000000000000000e+03 4.384996032714843750e+01 2.781167221069335938e+01 6.166253685951232910e-01 1.179691886901855469e+01 3.724063158035278320e+00 1.382931470870971680e-01
2.537000000000000000e+03 3.133792304992675781e+01 2.505624008178710938e+01 1.043130397796630859e+00 2.066976070404052734e+00 9.330319166183471680e-01 1.339541196823120117e+00
2.538000000000000000e+03 3.380433273315429688e+01 1.619182205200195312e+01 -1.669036149978637695e-01 4.430574417114257812e+00 1.279101252555847168e+00 1.493860483169555664e+00
2.539000000000000000e+03 3.274926757812500000e+01 1.847579574584960938e+01 1.094465851783752441e-01 3.860031604766845703e+00 1.190843462944030762e+00 1.585983753204345703e+00
2.540000000000000000e+03 3.401877975463867188e+01 7.741275310516357422e+00 -4.037022888660430908e-01 4.558575153350830078e+00 1.246461868286132812e+00 9.870876669883728027e-01
2.541000000000000000e+03 3.311923599243164062e+01 1.289904785156250000e+01 -2.776608467102050781e-01 4.276004314422607422e+00 1.199502944946289062e+00 1.273701548576354980e+00
2.542000000000000000e+03 3.197591209411621094e+01 1.297229862213134766e+01 -2.231944799423217773e-01 3.904139280319213867e+00 1.104283452033996582e+00 1.242569684982299805e+00
2.543000000000000000e+03 3.283470916748046875e+01 1.731688308715820312e+01 -2.634928561747074127e-03 3.997029066085815430e+00 1.198318243026733398e+00 1.537315607070922852e+00
2.544000000000000000e+03 6.892956542968750000e+01 3.595880746841430664e+00 -2.057550549507141113e-01 7.924137115478515625e+00 2.315514564514160156e+00 -6.627902984619140625e-01
2.545000000000000000e+03 3.353474807739257812e+01 8.572877883911132812e+00 -3.736034631729125977e-01 4.445859909057617188e+00 1.221676945686340332e+00 1.044631838798522949e+00
2.546000000000000000e+03 3.532078552246093750e+01 1.025783157348632812e+01 -4.617988765239715576e-01 4.970640659332275391e+00 1.352652549743652344e+00 1.120024085044860840e+00
2.547000000000000000e+03 3.224595642089843750e+01 -5.053892135620117188e+00 -2.185868918895721436e-01 4.191524982452392578e+00 1.191881418228149414e+00 4.590641260147094727e-01
2.548000000000000000e+03 3.221595764160156250e+01 -3.666633129119873047e+00 -2.397114485502243042e-01 4.182323455810546875e+00 1.182783603668212891e+00 5.036146640777587891e-01
2.549000000000000000e+03 3.064973449707031250e+01 -8.007612228393554688e+00 -1.475679278373718262e-01 3.951157331466674805e+00 1.141076803207397461e+00 3.706420063972473145e-01
2.550000000000000000e+03 3.064498710632324219e+01 -6.585678577423095703e+00 -1.617019474506378174e-01 3.940232515335083008e+00 1.133559226989746094e+00 4.142777621746063232e-01
2.551000000000000000e+03 6.752804565429687500e+01 1.102710437774658203e+01 -2.154804319143295288e-01 7.747011184692382812e+00 2.259459257125854492e+00 -9.297893047332763672e-01
2.552000000000000000e+03 6.594097900390625000e+01 9.042532920837402344e+00 -2.862267792224884033e-01 7.827658176422119141e+00 2.262429475784301758e+00 -8.911530375480651855e-01
2.553000000000000000e+03 6.862474822998046875e+01 -1.452315330505371094e+01 -1.085533052682876587e-01 8.179536819458007812e+00 2.421294927597045898e+00 -2.243798375129699707e-01
2.554000000000000000e+03 6.899781799316406250e+01 -9.361492156982421875e+00 -1.268790513277053833e-01 8.170771598815917969e+00 2.413167953491210938e+00 -3.165466487407684326e-01
2.555000000000000000e+03 3.078884887695312500e+01 2.291505813598632812e+01 6.949020028114318848e-01 2.356268644332885742e+00 9.153512120246887207e-01 1.346766829490661621e+00
2.556000000000000000e+03 3.342518615722656250e+01 2.755138587951660156e+01 1.639393568038940430e+00 2.144632101058959961e+00 1.135207653045654297e+00 1.725893497467041016e+00
2.557000000000000000e+03 3.006659889221191406e+01 1.147568225860595703e+00 -1.930209249258041382e-01 3.710426330566406250e+00 1.055221676826477051e+00 6.465006470680236816e-01
2.558000000000000000e+03 3.172764396667480469e+01 2.095781087875366211e+00 -2.648232877254486084e-01 4.027455329895019531e+00 1.128789663314819336e+00 7.149070501327514648e-01
2.559000000000000000e+03 3.181164741516113281e+01 -1.532415866851806641e+00 -2.426029145717620850e-01 4.069376945495605469e+00 1.148032307624816895e+00 5.853431224822998047e-01
2.560000000000000000e+03 3.006408691406250000e+01 -1.071645641326904297e+01 -1.129481792449951172e-01 3.883598089218139648e+00 1.131194949150085449e+00 3.085070252418518066e-01
2.561000000000000000e+03 3.005935096740722656e+01 -1.177639579772949219e+01 -1.095992550253868103e-01 3.882600545883178711e+00 1.131900310516357422e+00 2.820799946784973145e-01
2.562000000000000000e+03 3.265200042724609375e+01 1.516355609893798828e+01 -1.552458852529525757e-01 4.032538890838623047e+00 1.163187861442565918e+00 1.391159892082214355e+00
2.563000000000000000e+03 6.760552978515625000e+01 1.647409248352050781e+01 -1.094089820981025696e-01 7.579387187957763672e+00 2.240993499755859375e+00 -1.060281395912170410e+00
2.564000000000000000e+03 6.604425048828125000e+01 2.131745719909667969e+01 6.424493342638015747e-02 7.557334423065185547e+00 2.286473751068115234e+00 -1.150674223899841309e+00
2.565000000000000000e+03 6.884932708740234375e+01 1.869528198242187500e+01 -3.359628096222877502e-02 7.397169589996337891e+00 2.209072113037109375e+00 -1.038011908531188965e+00
2.566000000000000000e+03 3.178405952453613281e+01 -1.211899375915527344e+01 -1.421403735876083374e-01 4.109372615814208984e+00 1.190169692039489746e+00 2.921147942543029785e-01
2.567000000000000000e+03 3.336934661865234375e+01 -1.422083663940429688e+01 -1.556906253099441528e-01 4.343544483184814453e+00 1.256356239318847656e+00 2.423189580440521240e-01
2.568000000000000000e+03 6.647138214111328125e+01 -1.939114952087402344e+01 -1.050613895058631897e-01 8.009195327758789062e+00 2.371240139007568359e+00 -1.694596558809280396e-01
2.569000000000000000e+03 6.717966461181640625e+01 -2.096035194396972656e+01 -8.692914992570877075e-02 8.084707260131835938e+00 2.399333238601684570e+00 -1.430915892124176025e-01
2.570000000000000000e+03 3.677437973022460938e+01 5.542965412139892578e+00 -5.251286029815673828e-01 5.184782505035400391e+00 1.397896170616149902e+00 8.242764472961425781e-01
2.571000000000000000e+03 3.381844329833984375e+01 4.463486671447753906e+00 -3.769843280315399170e-01 4.504014968872070312e+00 1.238109111785888672e+00 8.273692131042480469e-01
2.572000000000000000e+03 5.094245147705078125e+01 3.167975616455078125e+01 2.042398452758789062e+00 9.691722869873046875e+00 3.520236492156982422e+00 -5.790788531303405762e-01
2.573000000000000000e+03 5.168992614746093750e+01 3.373050689697265625e+01 2.089968681335449219e+00 9.705244064331054688e+00 3.538563728332519531e+00 -2.015956789255142212e-01
2.574000000000000000e+03 4.782566070556640625e+01 3.428509521484375000e+01 3.047288417816162109e+00 1.097298526763916016e+01 4.206082344055175781e+00 6.053597331047058105e-01
2.575000000000000000e+03 6.792734527587890625e+01 2.493607902526855469e+01 1.730143427848815918e-01 7.186900615692138672e+00 2.207974433898925781e+00 -1.008917927742004395e+00
2.576000000000000000e+03 6.764793395996093750e+01 2.305634880065917969e+01 1.370998620986938477e-01 7.319352149963378906e+00 2.236935615539550781e+00 -1.077399611473083496e+00
2.577000000000000000e+03 3.235496520996093750e+01 -1.672899818420410156e+01 -1.205414384603500366e-01 4.198197364807128906e+00 1.223296761512756348e+00 2.024313807487487793e-01
2.578000000000000000e+03 9.183790206909179688e+00 1.997476577758789062e+01 3.665406256914138794e-04 5.953014479018747807e-04 2.885526337195187807e-04 -4.943092353641986847e-04
2.579000000000000000e+03 6.674974822998046875e+01 -2.357036018371582031e+01 -8.054748922586441040e-02 8.048986434936523438e+00 2.390531778335571289e+00 -1.152866855263710022e-01
2.580000000000000000e+03 5.990780258178710938e+01 2.489964485168457031e+01 4.007568657398223877e-01 8.215280532836914062e+00 2.584811210632324219e+00 -1.215097904205322266e+00
2.581000000000000000e+03 6.606924438476562500e+01 2.562020874023437500e+01 2.671867907047271729e-01 7.407802104949951172e+00 2.302496671676635742e+00 -1.067268133163452148e+00
2.582000000000000000e+03 3.139627075195312500e+01 -2.662149429321289062e+01 -5.498181283473968506e-02 4.038182735443115234e+00 1.194960236549377441e+00 1.174786314368247986e-01
2.583000000000000000e+03 3.184544944763183594e+01 -2.208160018920898438e+01 -8.069542050361633301e-02 4.142024040222167969e+00 1.218398571014404297e+00 1.289143413305282593e-01
2.584000000000000000e+03 6.902053070068359375e+01 -4.029054641723632812e+00 -1.663940250873565674e-01 8.090164184570312500e+00 2.377130985260009766e+00 -4.367505908012390137e-01
2.585000000000000000e+03 6.638737487792968750e+01 -3.641081809997558594e+00 -2.426086813211441040e-01 7.933252334594726562e+00 2.307193040847778320e+00 -4.780591726303100586e-01
2.586000000000000000e+03 6.782625579833984375e+01 1.251093029975891113e+00 -2.360485941171646118e-01 7.948287487030029297e+00 2.313671827316284180e+00 -6.084857583045959473e-01
2.587000000000000000e+03 3.629360961914062500e+01 3.017964744567871094e+01 2.868428468704223633e+00 2.638181447982788086e+00 1.651982903480529785e+00 2.949070453643798828e+00
2.588000000000000000e+03 3.697585296630859375e+01 3.109895324707031250e+01 3.424738168716430664e+00 2.579244613647460938e+00 1.801194787025451660e+00 3.337126255035400391e+00
2.589000000000000000e+03 3.515023040771484375e+01 2.839092445373535156e+01 2.073229074478149414e+00 2.845988512039184570e+00 1.475765347480773926e+00 2.472342967987060547e+00
2.590000000000000000e+03 3.762252807617187500e+01 3.039387893676757812e+01 3.230021953582763672e+00 4.699946403503417969e+00 2.378990650177001953e+00 4.326523303985595703e+00
2.591000000000000000e+03 4.005892181396484375e+01 2.858818244934082031e+01 7.891062498092651367e-01 1.056060218811035156e+01 3.404912471771240234e+00 3.414217233657836914e+00
2.592000000000000000e+03 3.442987823486328125e+01 2.827925491333007812e+01 1.928676605224609375e+00 2.391884565353393555e+00 1.296168327331542969e+00 2.088785648345947266e+00
2.593000000000000000e+03 4.096479415893554688e+01 2.785752296447753906e+01 3.283652663230895996e-01 1.123104667663574219e+01 3.467823743820190430e+00 2.351377248764038086e+00
2.594000000000000000e+03 4.145244598388671875e+01 2.796715927124023438e+01 3.182771205902099609e-01 1.167439174652099609e+01 3.597800731658935547e+00 1.952219128608703613e+00
2.595000000000000000e+03 3.284653854370117188e+01 2.706069755554199219e+01 1.488317728042602539e+00 2.045182466506958008e+00 1.060050010681152344e+00 1.581076741218566895e+00
2.596000000000000000e+03 3.192028427124023438e+01 2.530838203430175781e+01 1.120037078857421875e+00 2.240859985351562500e+00 1.008269071578979492e+00 1.476528644561767578e+00
2.597000000000000000e+03 3.135264205932617188e+01 2.657604598999023438e+01 1.189187765121459961e+00 1.614381432533264160e+00 8.410707116127014160e-01 1.135287165641784668e+00
2.598000000000000000e+03 3.231688308715820312e+01 2.645986557006835938e+01 1.310230731964111328e+00 2.054709672927856445e+00 1.009482145309448242e+00 1.469094395637512207e+00
2.599000000000000000e+03 3.221686935424804688e+01 2.582346153259277344e+01 1.221576690673828125e+00 2.234547853469848633e+00 1.036837339401245117e+00 1.525531530380249023e+00
2.600000000000000000e+03 4.200381088256835938e+01 2.711157989501953125e+01 9.001386910676956177e-02 1.116760540008544922e+01 3.377285957336425781e+00 1.552290797233581543e+00
2.601000000000000000e+03 4.573636245727539062e+01 2.742836380004882812e+01 7.789468765258789062e-01 1.109790611267089844e+01 3.563055753707885742e+00 -4.836925864219665527e-01
2.602000000000000000e+03 4.678327560424804688e+01 2.836979293823242188e+01 1.396229386329650879e+00 1.091174888610839844e+01 3.692393541336059570e+00 -7.787349224090576172e-01
2.603000000000000000e+03 4.243993377685546875e+01 2.749738693237304688e+01 2.341249436140060425e-01 1.171555519104003906e+01 3.584903955459594727e+00 1.182718992233276367e+00
2.604000000000000000e+03 4.384368515014648438e+01 2.697694015502929688e+01 2.858905494213104248e-01 1.134568023681640625e+01 3.489471435546875000e+00 3.467623591423034668e-01
2.605000000000000000e+03 3.058123970031738281e+01 2.507160377502441406e+01 9.660303592681884766e-01 1.777585268020629883e+00 8.230847120285034180e-01 1.138752341270446777e+00
2.606000000000000000e+03 3.476330947875976562e+01 2.493996810913085938e+01 1.094610095024108887e+00 3.953312397003173828e+00 1.514376759529113770e+00 2.306898593902587891e+00
2.607000000000000000e+03 3.230867004394531250e+01 2.082001304626464844e+01 4.085895717144012451e-01 3.412474155426025391e+00 1.146319150924682617e+00 1.628295183181762695e+00
2.608000000000000000e+03 6.733579254150390625e+01 1.330126571655273438e+01 -1.897277683019638062e-01 7.698983192443847656e+00 2.252776622772216797e+00 -9.934186339378356934e-01
2.609000000000000000e+03 7.036820983886718750e+01 1.403873825073242188e+01 -1.065662801265716553e-01 7.509976387023925781e+00 2.221023082733154297e+00 -8.985433578491210938e-01
2.610000000000000000e+03 3.099683761596679688e+01 2.176732635498046875e+01 5.443459749221801758e-01 2.662491321563720703e+00 9.620512127876281738e-01 1.413505554199218750e+00
2.611000000000000000e+03 3.063303756713867188e+01 -1.520410776138305664e+00 -2.043518722057342529e-01 3.879122734069824219e+00 1.102431178092956543e+00 5.578925609588623047e-01
2.612000000000000000e+03 3.086497306823730469e+01 -3.207141458988189697e-01 -2.188142687082290649e-01 3.900731086730957031e+00 1.104575037956237793e+00 6.102065443992614746e-01
2.613000000000000000e+03 3.396176147460937500e+01 1.867326354980468750e+01 5.211078375577926636e-02 4.403154850006103516e+00 1.336579799652099609e+00 1.693660140037536621e+00
2.614000000000000000e+03 3.205901718139648438e+01 2.198679542541503906e+01 5.795407295227050781e-01 3.088843584060668945e+00 1.100515365600585938e+00 1.606479525566101074e+00
2.615000000000000000e+03 3.483855438232421875e+01 1.612423706054687500e+01 -2.381419688463211060e-01 4.825974464416503906e+00 1.376349806785583496e+00 1.496730685234069824e+00
2.616000000000000000e+03 3.430467605590820312e+01 9.948481559753417969e+00 -4.021599590778350830e-01 4.671499252319335938e+00 1.280801773071289062e+00 1.117961168289184570e+00
2.617000000000000000e+03 3.415025711059570312e+01 1.089735984802246094e+01 -3.835852742195129395e-01 4.626757621765136719e+00 1.272951602935791016e+00 1.169807314872741699e+00
2.618000000000000000e+03 3.497884750366210938e+01 8.102811813354492188e+00 -4.563239216804504395e-01 4.824811458587646484e+00 1.310546278953552246e+00 1.002101302146911621e+00
2.619000000000000000e+03 3.459755706787109375e+01 9.036747932434082031e+00 -4.301259219646453857e-01 4.740016460418701172e+00 1.292967081069946289e+00 1.060168862342834473e+00
2.620000000000000000e+03 3.336504745483398438e+01 1.399158668518066406e+01 -2.569015622138977051e-01 4.331431388854980469e+00 1.222358942031860352e+00 1.341050148010253906e+00
2.621000000000000000e+03 3.361856460571289062e+01 1.507005786895751953e+01 -2.216854691505432129e-01 4.390049457550048828e+00 1.250509262084960938e+00 1.410070300102233887e+00
2.622000000000000000e+03 2.885764884948730469e+01 -9.419330596923828125e+00 -9.692178666591644287e-02 3.696805715560913086e+00 1.079965233802795410e+00 3.297775983810424805e-01
2.623000000000000000e+03 6.625112915039062500e+01 1.290632247924804688e+01 -2.215027958154678345e-01 7.757173538208007812e+00 2.260701179504394531e+00 -1.011325359344482422e+00
2.624000000000000000e+03 6.623884582519531250e+01 1.152812385559082031e+01 -2.515233159065246582e-01 7.787271499633789062e+00 2.260724544525146484e+00 -9.727523922920227051e-01
2.625000000000000000e+03 6.781101989746093750e+01 4.537704944610595703e+00 -2.437310367822647095e-01 7.890723228454589844e+00 2.294097661972045898e+00 -7.148160934448242188e-01
2.626000000000000000e+03 6.780141448974609375e+01 3.493600130081176758e+00 -2.377818673849105835e-01 7.906713485717773438e+00 2.300679445266723633e+00 -6.819273829460144043e-01
2.627000000000000000e+03 3.412553405761718750e+01 1.188832283020019531e+01 -3.712563514709472656e-01 4.616484642028808594e+00 1.273568511009216309e+00 1.216512560844421387e+00
2.628000000000000000e+03 2.872909545898437500e+01 -1.075211238861083984e+01 -8.120106905698776245e-02 3.698822498321533203e+00 1.085286378860473633e+00 3.014839291572570801e-01
2.629000000000000000e+03 3.342459106445312500e+01 -1.798670196533203125e+01 -1.323929280042648315e-01 4.333384037017822266e+00 1.260297298431396484e+00 1.774556189775466919e-01
2.630000000000000000e+03 3.243821716308593750e+01 4.453570544719696045e-01 -2.804547548294067383e-01 4.207571506500244141e+00 1.178135037422180176e+00 6.445035934448242188e-01
2.631000000000000000e+03 6.626948547363281250e+01 -9.719899177551269531e+00 -1.935338973999023438e-01 7.956808090209960938e+00 2.328982353210449219e+00 -3.322888612747192383e-01
2.632000000000000000e+03 6.667453765869140625e+01 -1.339434432983398438e+01 -1.505795717239379883e-01 8.005532264709472656e+00 2.356485843658447266e+00 -2.571355104446411133e-01
2.633000000000000000e+03 6.565422821044921875e+01 1.601063728332519531e+01 -1.605060845613479614e-01 7.730304718017578125e+00 2.270939588546752930e+00 -1.103617310523986816e+00
2.634000000000000000e+03 5.126562881469726562e+01 3.642501068115234375e+01 1.906172752380371094e+00 1.012269783020019531e+01 3.608661174774169922e+00 3.148654699325561523e-01
2.635000000000000000e+03 3.390159988403320312e+01 -6.310678482055664062e+00 -2.540603578090667725e-01 4.464910507202148438e+00 1.263255000114440918e+00 4.190509021282196045e-01
2.636000000000000000e+03 3.380889511108398438e+01 -3.462282419204711914e+00 -2.899795174598693848e-01 4.445314884185791016e+00 1.246600627899169922e+00 5.173699259757995605e-01
2.637000000000000000e+03 6.588369750976562500e+01 -7.989910125732421875e+00 -2.142006903886795044e-01 7.926891326904296875e+00 2.313807249069213867e+00 -3.684331476688385010e-01
2.638000000000000000e+03 6.734545898437500000e+01 -4.582189559936523438e+00 -2.121599465608596802e-01 7.987410545349121094e+00 2.332575082778930664e+00 -4.478443562984466553e-01
2.639000000000000000e+03 6.907089233398437500e+01 -2.788160562515258789e+00 -1.796474903821945190e-01 8.064506530761718750e+00 2.365457773208618164e+00 -4.704242944717407227e-01
2.640000000000000000e+03 6.896154785156250000e+01 -1.432950615882873535e+00 -1.856006830930709839e-01 8.035566329956054688e+00 2.354989767074584961e+00 -5.079021453857421875e-01
2.641000000000000000e+03 6.697110748291015625e+01 1.524214076995849609e+01 -1.572835892438888550e-01 7.664602756500244141e+00 2.252195835113525391e+00 -1.055469632148742676e+00
2.642000000000000000e+03 6.753182983398437500e+01 -1.688122558593750000e+01 -1.074983254075050354e-01 8.097949981689453125e+00 2.397135734558105469e+00 -1.971966624259948730e-01
2.643000000000000000e+03 3.248327255249023438e+01 -1.312122726440429688e+01 -1.479856222867965698e-01 4.227178096771240234e+00 1.223757743835449219e+00 2.602714598178863525e-01
2.644000000000000000e+03 5.204167556762695312e+01 3.001598358154296875e+01 1.647694826126098633e+00 9.397822380065917969e+00 3.313655138015747070e+00 -8.366618752479553223e-01
2.645000000000000000e+03 7.121472167968750000e+01 -2.152861404418945312e+01 -4.608730226755142212e-02 8.492791175842285156e+00 2.534011125564575195e+00 -1.186339035630226135e-01
2.646000000000000000e+03 6.797844696044921875e+01 -2.227514648437500000e+01 -7.558237016201019287e-02 8.167101860046386719e+00 2.427455902099609375e+00 -1.247196942567825317e-01
2.647000000000000000e+03 3.567634963989257812e+01 2.931787490844726562e+01 2.434827804565429688e+00 2.697170972824096680e+00 1.539599657058715820e+00 2.646161317825317383e+00
2.648000000000000000e+03 3.900621795654296875e+01 2.930693817138671875e+01 1.669709920883178711e+00 8.929444313049316406e+00 3.179746150970458984e+00 4.403327941894531250e+00
2.649000000000000000e+03 3.845290756225585938e+01 2.968480300903320312e+01 2.314771175384521484e+00 7.438887596130371094e+00 2.926097631454467773e+00 4.655192852020263672e+00
2.650000000000000000e+03 3.669497680664062500e+01 3.047152137756347656e+01 3.080987453460693359e+00 2.860934734344482422e+00 1.782576680183410645e+00 3.261076211929321289e+00
2.651000000000000000e+03 3.456279754638671875e+01 2.741179466247558594e+01 1.766879081726074219e+00 2.907063245773315430e+00 1.402182698249816895e+00 2.272055387496948242e+00
2.652000000000000000e+03 3.878226470947265625e+01 2.978218650817871094e+01 2.209851503372192383e+00 8.298788070678710938e+00 3.152591943740844727e+00 4.831631183624267578e+00
2.653000000000000000e+03 3.531604766845703125e+01 2.754152297973632812e+01 1.834272742271423340e+00 3.473047018051147461e+00 1.592195987701416016e+00 2.624453783035278320e+00
2.654000000000000000e+03 4.032954788208007812e+01 2.813740921020507812e+01 5.487262010574340820e-01 1.065967655181884766e+01 3.362520933151245117e+00 3.041688919067382812e+00
2.655000000000000000e+03 4.085573577880859375e+01 2.728235626220703125e+01 2.192977666854858398e-01 1.068703556060791016e+01 3.271899938583374023e+00 2.339067697525024414e+00
2.656000000000000000e+03 3.239028930664062500e+01 2.714721488952636719e+01 1.420787692070007324e+00 1.829207777976989746e+00 9.749986529350280762e-01 1.394041299819946289e+00
2.657000000000000000e+03 3.127464866638183594e+01 2.586361694335937500e+01 1.119639635086059570e+00 1.793355703353881836e+00 8.738985657691955566e-01 1.222474455833435059e+00
2.658000000000000000e+03 3.325537490844726562e+01 2.699192810058593750e+01 1.514159440994262695e+00 2.267620086669921875e+00 1.134533882141113281e+00 1.735803127288818359e+00
2.659000000000000000e+03 3.606190490722656250e+01 2.902688789367675781e+01 2.390744924545288086e+00 3.320803880691528320e+00 1.713464617729187012e+00 3.004650115966796875e+00
2.660000000000000000e+03 4.307221603393554688e+01 2.645667648315429688e+01 2.597217634320259094e-02 1.101953029632568359e+01 3.313650846481323242e+00 8.281264305114746094e-01
2.661000000000000000e+03 4.046006393432617188e+01 2.900595855712890625e+01 7.480388283729553223e-01 1.178942394256591797e+01 3.761238813400268555e+00 3.122987270355224609e+00
2.662000000000000000e+03 3.221186828613281250e+01 2.417934417724609375e+01 9.459635019302368164e-01 2.662887096405029297e+00 1.082655191421508789e+00 1.591896533966064453e+00
2.663000000000000000e+03 3.047211837768554688e+01 2.692818069458007812e+01 1.091727614402770996e+00 1.224067926406860352e+00 6.947386264801025391e-01 8.338015675544738770e-01
2.664000000000000000e+03 3.417424774169921875e+01 2.453158378601074219e+01 1.030251622200012207e+00 3.646476745605468750e+00 1.403018474578857422e+00 2.123856782913208008e+00
2.665000000000000000e+03 3.385015106201171875e+01 2.728556442260742188e+01 1.658158302307128906e+00 2.498956203460693359e+00 1.247134327888488770e+00 1.960988402366638184e+00
2.666000000000000000e+03 4.319959640502929688e+01 2.705345535278320312e+01 2.008933573961257935e-01 1.138022327423095703e+01 3.474334955215454102e+00 6.621447205543518066e-01
2.667000000000000000e+03 4.441459655761718750e+01 2.591344642639160156e+01 3.885423764586448669e-02 1.077519893646240234e+01 3.244215726852416992e+00 2.536951005458831787e-01
2.668000000000000000e+03 4.916928100585937500e+01 2.706162071228027344e+01 9.649257063865661621e-01 1.004903697967529297e+01 3.304188728332519531e+00 -9.496245980262756348e-01
2.669000000000000000e+03 4.677453994750976562e+01 2.727073860168457031e+01 8.834698200225830078e-01 1.081972122192382812e+01 3.510957241058349609e+00 -6.906563043594360352e-01
2.670000000000000000e+03 3.408969879150390625e+01 5.768997192382812500e+00 -3.983000814914703369e-01 4.568384170532226562e+00 1.251025319099426270e+00 8.851166367530822754e-01
2.671000000000000000e+03 3.555857467651367188e+01 9.416273117065429688e+00 -4.797894358634948730e-01 5.015529632568359375e+00 1.360721945762634277e+00 1.062371850013732910e+00
2.672000000000000000e+03 3.197257041931152344e+01 -5.052407979965209961e-01 -2.527631819248199463e-01 4.079637527465820312e+00 1.148062229156494141e+00 6.050505042076110840e-01
2.673000000000000000e+03 3.148814201354980469e+01 2.410687637329101562e+01 9.127222299575805664e-01 2.358802556991577148e+00 9.814574122428894043e-01 1.444867610931396484e+00
2.674000000000000000e+03 3.174438285827636719e+01 2.308176994323730469e+01 7.519775629043579102e-01 2.752978324890136719e+00 1.051486849784851074e+00 1.551281094551086426e+00
2.675000000000000000e+03 3.300275421142578125e+01 2.468594932556152344e+01 1.049851775169372559e+00 2.963093519210815430e+00 1.203883647918701172e+00 1.821656346321105957e+00
2.676000000000000000e+03 3.256371688842773438e+01 1.965290260314941406e+01 2.359384298324584961e-01 3.666136980056762695e+00 1.170622706413269043e+00 1.608909487724304199e+00
2.677000000000000000e+03 3.520084381103515625e+01 1.859788894653320312e+01 -6.054610013961791992e-02 4.977972507476806641e+00 1.475227832794189453e+00 1.742756366729736328e+00
2.678000000000000000e+03 3.391190719604492188e+01 1.738436698913574219e+01 -7.640032470226287842e-02 4.458746910095214844e+00 1.314703941345214844e+00 1.586560726165771484e+00
2.679000000000000000e+03 3.691556167602539062e+01 1.036962509155273438e+01 -5.577642917633056641e-01 5.443803787231445312e+00 1.465811848640441895e+00 1.059744238853454590e+00
2.680000000000000000e+03 3.421672439575195312e+01 1.290905094146728516e+01 -3.527148365974426270e-01 4.651521682739257812e+00 1.289642095565795898e+00 1.284319877624511719e+00
2.681000000000000000e+03 3.442970275878906250e+01 1.393677711486816406e+01 -3.193988800048828125e-01 4.710466861724853516e+00 1.317320346832275391e+00 1.360313773155212402e+00
2.682000000000000000e+03 3.619199752807617188e+01 1.047302627563476562e+01 -5.081930756568908691e-01 5.226154327392578125e+00 1.415388464927673340e+00 1.110832571983337402e+00
2.683000000000000000e+03 3.522684097290039062e+01 -1.316713714599609375e+01 -1.966034471988677979e-01 4.593928813934326172e+00 1.319197654724121094e+00 2.514902651309967041e-01
2.684000000000000000e+03 3.325548553466796875e+01 -1.048186874389648438e+01 -1.844959706068038940e-01 4.343839645385742188e+00 1.247803092002868652e+00 3.066383004188537598e-01
2.685000000000000000e+03 6.550421142578125000e+01 -2.712648153305053711e+00 -2.709189057350158691e-01 7.886357784271240234e+00 2.284631729125976562e+00 -5.072882771492004395e-01
2.686000000000000000e+03 3.427147293090820312e+01 -3.942872881889343262e-01 -3.435086607933044434e-01 4.550100803375244141e+00 1.261977553367614746e+00 6.155747175216674805e-01
2.687000000000000000e+03 6.638381958007812500e+01 1.410195827484130859e+01 -1.938986629247665405e-01 7.721165657043457031e+00 2.258180141448974609e+00 -1.040188789367675781e+00
2.688000000000000000e+03 6.754653930664062500e+01 7.477814674377441406e+00 -2.448951601982116699e-01 7.830240249633789062e+00 2.275603532791137695e+00 -8.176327347755432129e-01
2.689000000000000000e+03 6.693872070312500000e+01 9.693229675292968750e+00 -2.532097995281219482e-01 7.801181793212890625e+00 2.264391660690307617e+00 -8.989623188972473145e-01
2.690000000000000000e+03 3.516717910766601562e+01 4.229498863220214844e+00 -4.369083046913146973e-01 4.804646968841552734e+00 1.310321569442749023e+00 7.954913973808288574e-01
2.691000000000000000e+03 6.821103668212890625e+01 5.476878166198730469e+00 -2.274109423160552979e-01 7.873198509216308594e+00 2.293736219406127930e+00 -7.362616658210754395e-01
2.692000000000000000e+03 6.711388397216796875e+01 6.014915466308593750e+00 -2.624900341033935547e-01 7.860560894012451172e+00 2.279421329498291016e+00 -7.726873755455017090e-01
2.693000000000000000e+03 3.225372695922851562e+01 -7.744561672210693359e+00 -1.909713000059127808e-01 4.193773269653320312e+00 1.200840592384338379e+00 3.843536972999572754e-01
2.694000000000000000e+03 3.224868774414062500e+01 -6.417007446289062500e+00 -2.091169804334640503e-01 4.176554679870605469e+00 1.190231204032897949e+00 4.185832142829895020e-01
2.695000000000000000e+03 3.380032730102539062e+01 -4.896609783172607422e+00 -2.750172913074493408e-01 4.450423717498779297e+00 1.252621889114379883e+00 4.648234844207763672e-01
2.696000000000000000e+03 6.478787231445312500e+01 1.039412307739257812e+01 -3.089471757411956787e-01 7.841091632843017578e+00 2.259643316268920898e+00 -9.493916630744934082e-01
2.697000000000000000e+03 6.467031097412109375e+01 -3.446736097335815430e+00 -2.908759713172912598e-01 7.846055030822753906e+00 2.266553640365600586e+00 -4.868382215499877930e-01
2.698000000000000000e+03 3.693493652343750000e+01 1.732253837585449219e+01 -3.549147546291351318e-01 5.788643836975097656e+00 1.630118727684020996e+00 1.594710230827331543e+00
2.699000000000000000e+03 6.357461929321289062e+01 -1.645363235473632812e+01 -1.712405085563659668e-01 7.735682010650634766e+00 2.269332408905029297e+00 -2.083672881126403809e-01
2.700000000000000000e+03 7.051826477050781250e+01 -1.540482807159423828e+01 -7.205007225275039673e-02 8.369682312011718750e+00 2.489289760589599609e+00 -1.940683126449584961e-01
2.701000000000000000e+03 6.462333679199218750e+01 -1.022854614257812500e+01 -2.219387292861938477e-01 7.829035282135009766e+00 2.282129049301147461e+00 -3.218325376510620117e-01
2.702000000000000000e+03 6.570786285400390625e+01 1.958612632751464844e+01 -2.665997855365276337e-02 7.643955707550048828e+00 2.285188674926757812e+00 -1.154884815216064453e+00
2.703000000000000000e+03 6.506197357177734375e+01 1.463379764556884766e+01 -2.161965817213058472e-01 7.790858268737792969e+00 2.272398471832275391e+00 -1.079448819160461426e+00
2.704000000000000000e+03 6.480023956298828125e+01 -1.202751636505126953e+01 -1.969011873006820679e-01 7.845940113067626953e+00 2.294711589813232422e+00 -2.867611348628997803e-01
2.705000000000000000e+03 3.204706573486328125e+01 -1.910166740417480469e+01 -1.128173172473907471e-01 4.173938274383544922e+00 1.218336224555969238e+00 1.679231226444244385e-01
2.706000000000000000e+03 5.030366516113281250e+01 2.912676239013671875e+01 1.641260266304016113e+00 9.823841094970703125e+00 3.439530611038208008e+00 -9.382437467575073242e-01
2.707000000000000000e+03 4.949506759643554688e+01 3.053315162658691406e+01 2.083045005798339844e+00 1.002445983886718750e+01 3.632251501083374023e+00 -7.318634986877441406e-01
2.708000000000000000e+03 6.637720489501953125e+01 -5.686651706695556641e+00 -2.326049804687500000e-01 7.942927837371826172e+00 2.313096761703491211e+00 -4.244369566440582275e-01
2.709000000000000000e+03 6.343308258056640625e+01 2.122100830078125000e+01 5.147722736001014709e-02 7.823745727539062500e+00 2.362566947937011719e+00 -1.212386846542358398e+00
2.710000000000000000e+03 2.766604042053222656e+01 -3.386573028564453125e+01 1.626332104206085205e-02 3.576886653900146484e+00 1.077944993972778320e+00 1.557167712599039078e-02
2.711000000000000000e+03 2.759876060485839844e+01 -3.192517852783203125e+01 2.821461111307144165e-02 3.614060401916503906e+00 1.092682480812072754e+00 5.455392226576805115e-02
2.712000000000000000e+03 3.060131454467773438e+01 -2.816781425476074219e+01 -4.388542473316192627e-02 3.977869033813476562e+00 1.180195093154907227e+00 9.754568338394165039e-02
2.713000000000000000e+03 3.274094772338867188e+01 -2.371455574035644531e+01 -6.843232363462448120e-02 4.250643730163574219e+00 1.254663467407226562e+00 1.086491793394088745e-01
2.714000000000000000e+03 3.831668090820312500e+01 2.865144348144531250e+01 1.741413235664367676e+00 7.273538112640380859e+00 2.704485416412353516e+00 4.089339256286621094e+00
2.715000000000000000e+03 3.791212081909179688e+01 2.976423454284667969e+01 2.687474012374877930e+00 6.062110424041748047e+00 2.624875307083129883e+00 4.519070148468017578e+00
2.716000000000000000e+03 3.743680191040039062e+01 2.984884452819824219e+01 2.864228963851928711e+00 4.858283519744873047e+00 2.316753625869750977e+00 4.112261772155761719e+00
2.717000000000000000e+03 3.658696365356445312e+01 2.977741813659667969e+01 2.788178443908691406e+00 3.467583894729614258e+00 1.876728773117065430e+00 3.371815919876098633e+00
2.718000000000000000e+03 3.662308883666992188e+01 2.918632507324218750e+01 2.497982740402221680e+00 4.015122413635253906e+00 1.953931570053100586e+00 3.412955045700073242e+00
2.719000000000000000e+03 3.629965209960937500e+01 2.944007492065429688e+01 2.615164279937744141e+00 3.306834936141967773e+00 1.776599764823913574e+00 3.136048793792724609e+00
2.720000000000000000e+03 3.911964416503906250e+01 2.874254798889160156e+01 1.347247481346130371e+00 8.993521690368652344e+00 3.102230787277221680e+00 4.017719268798828125e+00
2.721000000000000000e+03 3.467141342163085938e+01 2.650340461730957031e+01 1.537797808647155762e+00 3.356269598007202148e+00 1.468220233917236328e+00 2.347578287124633789e+00
2.722000000000000000e+03 3.239928436279296875e+01 2.492624092102050781e+01 1.078138351440429688e+00 2.563654422760009766e+00 1.092537879943847656e+00 1.625645637512207031e+00
2.723000000000000000e+03 3.177489852905273438e+01 2.589067459106445312e+01 1.163738608360290527e+00 1.977455496788024902e+00 9.423582553863525391e-01 1.342708706855773926e+00
2.724000000000000000e+03 4.011051559448242188e+01 2.724978065490722656e+01 4.080687761306762695e-01 9.810894012451171875e+00 3.065688848495483398e+00 2.892960309982299805e+00
2.725000000000000000e+03 3.426097869873046875e+01 2.693038558959960938e+01 1.630899667739868164e+00 2.911041975021362305e+00 1.362582564353942871e+00 2.195105552673339844e+00
2.726000000000000000e+03 3.541840362548828125e+01 2.886077308654785156e+01 2.226348400115966797e+00 2.782151699066162109e+00 1.502550005912780762e+00 2.570450067520141602e+00
2.727000000000000000e+03 3.583689117431640625e+01 2.856471824645996094e+01 2.203695297241210938e+00 3.386276960372924805e+00 1.676991701126098633e+00 2.880301237106323242e+00
2.728000000000000000e+03 3.281530761718750000e+01 2.636761093139648438e+01 1.369971513748168945e+00 2.330672025680541992e+00 1.110193133354187012e+00 1.676478266716003418e+00
2.729000000000000000e+03 3.521686172485351562e+01 1.203148078918457031e+01 -4.245518147945404053e-01 4.942527294158935547e+00 1.355392694473266602e+00 1.233833789825439453e+00
2.730000000000000000e+03 3.584848022460937500e+01 1.485118865966796875e+01 -3.868323862552642822e-01 5.228138923645019531e+00 1.452391982078552246e+00 1.406390786170959473e+00
2.731000000000000000e+03 3.279150009155273438e+01 2.403149414062500000e+01 9.614826440811157227e-01 3.049393892288208008e+00 1.203262925148010254e+00 1.805890440940856934e+00
2.732000000000000000e+03 3.311941909790039062e+01 2.219656372070312500e+01 6.036677360534667969e-01 3.547310352325439453e+00 1.245293378829956055e+00 1.803107619285583496e+00
2.733000000000000000e+03 4.369153976440429688e+01 2.621178245544433594e+01 1.819574460387229919e-02 1.091454601287841797e+01 3.279822587966918945e+00 5.274471640586853027e-01
2.734000000000000000e+03 4.462510681152343750e+01 2.677219390869140625e+01 3.524188101291656494e-01 1.112882995605468750e+01 3.444374561309814453e+00 -6.749416934326291084e-04
2.735000000000000000e+03 3.339122772216796875e+01 2.111562347412109375e+01 4.047680795192718506e-01 3.870781660079956055e+00 1.282664895057678223e+00 1.801431536674499512e+00
2.736000000000000000e+03 3.423017883300781250e+01 6.871270656585693359e+00 -4.079602956771850586e-01 4.610800743103027344e+00 1.260852217674255371e+00 9.354982376098632812e-01
2.737000000000000000e+03 6.489277648925781250e+01 1.315556144714355469e+01 -2.613893449306488037e-01 7.825285911560058594e+00 2.269169092178344727e+00 -1.039337515830993652e+00
2.738000000000000000e+03 6.620899963378906250e+01 -1.941170573234558105e+00 -2.612003684043884277e-01 7.913708686828613281e+00 2.295752525329589844e+00 -5.273285508155822754e-01
2.739000000000000000e+03 6.372187423706054688e+01 -4.110027313232421875e+00 -3.120572865009307861e-01 7.795086860656738281e+00 2.244908809661865234e+00 -4.663595855236053467e-01
2.740000000000000000e+03 3.720777511596679688e+01 1.120088863372802734e+01 -5.732839107513427734e-01 5.561525821685791016e+00 1.496472597122192383e+00 1.105062723159790039e+00
2.741000000000000000e+03 3.534987258911132812e+01 7.022146701812744141e+00 -4.701647460460662842e-01 4.894281387329101562e+00 1.327234983444213867e+00 9.265993833541870117e-01
2.742000000000000000e+03 3.594205093383789062e+01 8.548993110656738281e+00 -5.062623620033264160e-01 5.069602489471435547e+00 1.369002103805541992e+00 9.942068457603454590e-01
2.743000000000000000e+03 3.467041015625000000e+01 1.499240970611572266e+01 -2.913483977317810059e-01 4.765516757965087891e+00 1.342250585556030273e+00 1.428864598274230957e+00
2.744000000000000000e+03 6.441844177246093750e+01 -5.261576175689697266e+00 -2.880888581275939941e-01 7.829606533050537109e+00 2.262455224990844727e+00 -4.372671842575073242e-01
2.745000000000000000e+03 3.629151153564453125e+01 1.815535545349121094e+01 -2.096570134162902832e-01 5.522452831268310547e+00 1.593838691711425781e+00 1.706690073013305664e+00
2.746000000000000000e+03 3.497392272949218750e+01 1.732354736328125000e+01 -1.688418239355087280e-01 4.886472702026367188e+00 1.415289163589477539e+00 1.593206524848937988e+00
2.747000000000000000e+03 3.336835861206054688e+01 2.377373313903808594e+01 9.159050583839416504e-01 3.340937614440917969e+00 1.277052760124206543e+00 1.916067361831665039e+00
2.748000000000000000e+03 3.376169204711914062e+01 1.995520782470703125e+01 2.106090635061264038e-01 4.209208011627197266e+00 1.325945138931274414e+00 1.765730261802673340e+00
2.749000000000000000e+03 3.360467529296875000e+01 2.680020523071289062e+01 1.531887412071228027e+00 2.588228702545166016e+00 1.236034870147705078e+00 1.925705909729003906e+00
2.750000000000000000e+03 6.571969604492187500e+01 6.241491317749023438e+00 -3.096293807029724121e-01 7.857015132904052734e+00 2.264215707778930664e+00 -8.000163435935974121e-01
2.751000000000000000e+03 6.874179840087890625e+01 4.620934963226318359e+00 -2.062047272920608521e-01 7.896580219268798828e+00 2.307112693786621094e+00 -6.931579709053039551e-01
2.752000000000000000e+03 3.282137680053710938e+01 -1.724426269531250000e+00 -2.766647040843963623e-01 4.286935806274414062e+00 1.203081250190734863e+00 5.727235078811645508e-01
2.753000000000000000e+03 3.598881530761718750e+01 1.006160378456115723e+00 -4.274239540100097656e-01 4.905029296875000000e+00 1.343281626701354980e+00 6.407201290130615234e-01
2.754000000000000000e+03 3.623394775390625000e+01 1.126804637908935547e+01 -5.091770291328430176e-01 5.263309955596923828e+00 1.426239967346191406e+00 1.155174016952514648e+00
2.755000000000000000e+03 3.627172851562500000e+01 1.219277858734130859e+01 -4.982980787754058838e-01 5.326323986053466797e+00 1.448407769203186035e+00 1.221345186233520508e+00
2.756000000000000000e+03 6.705247497558593750e+01 -1.516073322296142578e+01 -1.271399855613708496e-01 8.049607276916503906e+00 2.376740217208862305e+00 -2.248267233371734619e-01
2.757000000000000000e+03 3.347774505615234375e+01 3.055116891860961914e+00 -3.508704304695129395e-01 4.419750213623046875e+00 1.220663905143737793e+00 7.654114961624145508e-01
2.758000000000000000e+03 3.193239784240722656e+01 -9.922890663146972656e+00 -1.590488106012344360e-01 4.150911808013916016e+00 1.197558999061584473e+00 3.238409757614135742e-01
2.759000000000000000e+03 6.463613891601562500e+01 9.105287551879882812e+00 -3.312850296497344971e-01 7.854470252990722656e+00 2.256955623626708984e+00 -9.032871723175048828e-01
2.760000000000000000e+03 4.619467544555664062e+01 2.562941169738769531e+01 2.108242213726043701e-01 1.049062442779541016e+01 3.210434675216674805e+00 -3.442085981369018555e-01
2.761000000000000000e+03 3.698151397705078125e+01 -2.214492559432983398e+00 -4.180828630924224854e-01 5.031715869903564453e+00 1.384089946746826172e+00 5.104144811630249023e-01
2.762000000000000000e+03 4.783528518676757812e+01 2.710025596618652344e+01 9.303989410400390625e-01 1.034422683715820312e+01 3.382387876510620117e+00 -8.556398153305053711e-01
2.763000000000000000e+03 5.248354339599609375e+01 2.783915328979492188e+01 1.082400679588317871e+00 9.301100730895996094e+00 3.115050315856933594e+00 -1.058734893798828125e+00
2.764000000000000000e+03 4.551666259765625000e+01 2.643365478515625000e+01 4.214825332164764404e-01 1.087193298339843750e+01 3.388024568557739258e+00 -2.790380418300628662e-01
2.765000000000000000e+03 6.370801925659179688e+01 1.908203506469726562e+01 -6.670057028532028198e-02 7.822457313537597656e+00 2.326727151870727539e+00 -1.187688350677490234e+00
2.766000000000000000e+03 6.502402496337890625e+01 -1.390749168395996094e+01 -1.730234175920486450e-01 7.866638183593750000e+00 2.308084487915039062e+00 -2.521515786647796631e-01
2.767000000000000000e+03 6.585791778564453125e+01 -1.765490913391113281e+01 -1.290580779314041138e-01 7.948687553405761719e+00 2.345888853073120117e+00 -1.905446946620941162e-01
2.768000000000000000e+03 3.591041183471679688e+01 -1.458588123321533203e+01 -1.953065097332000732e-01 4.667345046997070312e+00 1.341611623764038086e+00 2.126853615045547485e-01
2.769000000000000000e+03 3.458753204345703125e+01 -1.031536102294921875e+01 -2.187549769878387451e-01 4.515359401702880859e+00 1.288981318473815918e+00 3.140060305595397949e-01
2.770000000000000000e+03 3.114454269409179688e+01 -1.113464927673339844e+01 -1.351560354232788086e-01 4.024385929107666016e+00 1.166769027709960938e+00 3.010045289993286133e-01
2.771000000000000000e+03 3.481308364868164062e+01 -1.167373943328857422e+01 -2.054514586925506592e-01 4.551521301269531250e+00 1.303820967674255371e+00 2.894277870655059814e-01
2.772000000000000000e+03 3.760745620727539062e+01 2.953757667541503906e+01 2.574239969253540039e+00 5.521620273590087891e+00 2.428758144378662109e+00 4.208534240722656250e+00
2.773000000000000000e+03 3.729813003540039062e+01 2.928451347351074219e+01 2.479402542114257812e+00 5.026899337768554688e+00 2.251890659332275391e+00 3.902767419815063477e+00
2.774000000000000000e+03 3.683093643188476562e+01 2.944733810424804688e+01 2.653406381607055664e+00 4.101107120513916016e+00 2.026354074478149414e+00 3.593036890029907227e+00
2.775000000000000000e+03 3.827228164672851562e+01 2.816970634460449219e+01 1.455088853836059570e+00 7.253520965576171875e+00 2.612582921981811523e+00 3.825806856155395508e+00
2.776000000000000000e+03 3.943088912963867188e+01 2.854503822326660156e+01 1.053083181381225586e+00 9.453106880187988281e+00 3.151857137680053711e+00 3.802845716476440430e+00
2.777000000000000000e+03 3.970196151733398438e+01 2.824530410766601562e+01 8.220059871673583984e-01 9.842199325561523438e+00 3.199261426925659180e+00 3.512473344802856445e+00
2.778000000000000000e+03 3.647767639160156250e+01 2.878555297851562500e+01 2.312749385833740234e+00 4.003735065460205078e+00 1.894945263862609863e+00 3.293365478515625000e+00
2.779000000000000000e+03 3.431465530395507812e+01 2.609449195861816406e+01 1.420387983322143555e+00 3.270146608352661133e+00 1.407160401344299316e+00 2.228435277938842773e+00
2.780000000000000000e+03 3.991240310668945312e+01 2.781549835205078125e+01 6.450182795524597168e-01 9.820824623107910156e+00 3.139753103256225586e+00 3.217689752578735352e+00
2.781000000000000000e+03 3.270653152465820312e+01 2.563797378540039062e+01 1.246891021728515625e+00 2.491026401519775391e+00 1.121375203132629395e+00 1.694327592849731445e+00
2.782000000000000000e+03 4.129194641113281250e+01 2.697962188720703125e+01 1.085084378719329834e-01 1.069474411010742188e+01 3.240975856781005859e+00 2.001390218734741211e+00
2.783000000000000000e+03 4.221312332153320312e+01 2.662873458862304688e+01 3.152463585138320923e-03 1.098594665527343750e+01 3.296729803085327148e+00 1.397303223609924316e+00
2.784000000000000000e+03 4.046797180175781250e+01 2.672031211853027344e+01 1.888656020164489746e-01 9.850028038024902344e+00 3.011668205261230469e+00 2.519147396087646484e+00
2.785000000000000000e+03 4.340528488159179688e+01 2.551351928710937500e+01 -1.363680213689804077e-01 1.058493900299072266e+01 3.134571075439453125e+00 7.091234922409057617e-01
2.786000000000000000e+03 3.327797317504882812e+01 2.644744300842285156e+01 1.438570380210876465e+00 2.517412424087524414e+00 1.186794877052307129e+00 1.825665354728698730e+00
2.787000000000000000e+03 3.814212799072265625e+01 1.616271972656250000e+01 -5.088723301887512207e-01 6.137433052062988281e+00 1.688568234443664551e+00 1.393054604530334473e+00
2.788000000000000000e+03 3.551136398315429688e+01 1.380336380004882812e+01 -4.060729742050170898e-01 5.102127552032470703e+00 1.408816337585449219e+00 1.336097359657287598e+00
2.789000000000000000e+03 3.485334396362304688e+01 2.744381189346313477e+00 -4.067256450653076172e-01 4.705328941345214844e+00 1.289581060409545898e+00 7.366895079612731934e-01
2.790000000000000000e+03 4.865999603271484375e+01 2.196044921875000000e+01 -3.128338456153869629e-01 9.422174453735351562e+00 2.732802152633666992e+00 -5.282676815986633301e-01
2.791000000000000000e+03 3.380167770385742188e+01 2.329634284973144531e+01 7.675718665122985840e-01 3.733554124832153320e+00 1.350337862968444824e+00 1.982080101966857910e+00
2.792000000000000000e+03 3.407120513916015625e+01 2.248633575439453125e+01 6.018550992012023926e-01 4.062798976898193359e+00 1.399396300315856934e+00 2.003443717956542969e+00
2.793000000000000000e+03 3.959644317626953125e+01 2.704296302795410156e+01 5.284940004348754883e-01 9.042353630065917969e+00 2.871254205703735352e+00 3.047847747802734375e+00
2.794000000000000000e+03 6.222230148315429688e+01 -3.471705436706542969e+00 -3.627297580242156982e-01 7.713945388793945312e+00 2.205364704132080078e+00 -4.653906822204589844e-01
2.795000000000000000e+03 6.326031112670898438e+01 -5.857530117034912109e+00 -3.070027530193328857e-01 7.752173423767089844e+00 2.233551263809204102e+00 -4.150020778179168701e-01
2.796000000000000000e+03 3.380401611328125000e+01 2.505460739135742188e+01 1.167295813560485840e+00 3.300997018814086914e+00 1.340487837791442871e+00 2.069052457809448242e+00
2.797000000000000000e+03 3.449904251098632812e+01 1.199923992156982422e+00 -3.742687702178955078e-01 4.607779502868652344e+00 1.270053267478942871e+00 6.763985753059387207e-01
2.798000000000000000e+03 3.624177551269531250e+01 2.533423900604248047e+00 -4.649638235569000244e-01 4.992350578308105469e+00 1.358216047286987305e+00 6.955120563507080078e-01
2.799000000000000000e+03 4.408612823486328125e+01 2.512280464172363281e+01 -1.896134465932846069e-01 1.046373271942138672e+01 3.082235813140869141e+00 4.530654847621917725e-01
2.800000000000000000e+03 4.526811981201171875e+01 2.553433799743652344e+01 2.299105189740657806e-02 1.053409862518310547e+01 3.167126893997192383e+00 -2.342723496258258820e-02
2.801000000000000000e+03 3.736906051635742188e+01 1.225834751129150391e+01 -5.659730434417724609e-01 5.646123409271240234e+00 1.524045228958129883e+00 1.153471231460571289e+00
2.802000000000000000e+03 6.554682922363281250e+01 -1.120745658874511719e+00 -2.873781025409698486e-01 7.882212162017822266e+00 2.278450250625610352e+00 -5.529527068138122559e-01
2.803000000000000000e+03 6.642022705078125000e+01 2.218958735466003418e-01 -2.742724418640136719e-01 7.913314819335937500e+00 2.291712760925292969e+00 -5.939505696296691895e-01
2.804000000000000000e+03 7.010993194580078125e+01 -1.390147018432617188e+01 -8.867989480495452881e-02 8.310832977294921875e+00 2.466645956039428711e+00 -2.216924726963043213e-01
2.805000000000000000e+03 6.821565246582031250e+01 -1.287586212158203125e+01 -1.261658072471618652e-01 8.131969451904296875e+00 2.401741027832031250e+00 -2.549687027931213379e-01
2.806000000000000000e+03 3.637908935546875000e+01 9.808759689331054688e+00 -5.292241573333740234e-01 5.249142646789550781e+00 1.415975570678710938e+00 1.052895426750183105e+00
2.807000000000000000e+03 3.818784713745117188e+01 1.085116767883300781e+01 -6.259360909461975098e-01 5.809866428375244141e+00 1.555179119110107422e+00 1.023530840873718262e+00
2.808000000000000000e+03 6.546961212158203125e+01 4.806210517883300781e+00 -3.206438422203063965e-01 7.866832733154296875e+00 2.263856649398803711e+00 -7.481009960174560547e-01
2.809000000000000000e+03 6.360844039916992188e+01 1.542873954772949219e+01 -2.295774668455123901e-01 7.872478008270263672e+00 2.292870044708251953e+00 -1.114844322204589844e+00
2.810000000000000000e+03 3.552201843261718750e+01 -2.041781902313232422e+00 -3.626039028167724609e-01 4.763414382934570312e+00 1.320243239402770996e+00 5.372895598411560059e-01
2.811000000000000000e+03 3.300933837890625000e+01 -4.645573794841766357e-01 -2.976142764091491699e-01 4.320529460906982422e+00 1.206874608993530273e+00 6.185884475708007812e-01
2.812000000000000000e+03 6.598677825927734375e+01 7.708648204803466797e+00 -2.966192662715911865e-01 7.842738628387451172e+00 2.263835668563842773e+00 -8.487681150436401367e-01
2.813000000000000000e+03 6.336933517456054688e+01 9.332425117492675781e+00 -3.746443092823028564e-01 7.881721496582031250e+00 2.252123117446899414e+00 -9.134070873260498047e-01
2.814000000000000000e+03 3.642733001708984375e+01 7.579095363616943359e+00 -5.261540412902832031e-01 5.173832416534423828e+00 1.394303560256958008e+00 9.230594635009765625e-01
2.815000000000000000e+03 6.300711059570312500e+01 -1.060957336425781250e+01 -2.477750927209854126e-01 7.702098369598388672e+00 2.236297130584716797e+00 -3.089920282363891602e-01
2.816000000000000000e+03 3.829020690917968750e+01 1.519230556488037109e+01 -5.675444006919860840e-01 6.137980937957763672e+00 1.671131014823913574e+00 1.303676962852478027e+00
2.817000000000000000e+03 3.532835006713867188e+01 -3.446685075759887695e+00 -3.345830738544464111e-01 4.704187393188476562e+00 1.310881257057189941e+00 4.919843077659606934e-01
2.818000000000000000e+03 3.546421051025390625e+01 -5.937849044799804688e+00 -3.009207248687744141e-01 4.702570915222167969e+00 1.320495128631591797e+00 4.196218848228454590e-01
2.819000000000000000e+03 6.068216705322265625e+01 1.361950111389160156e+01 -3.878239691257476807e-01 8.026412963867187500e+00 2.291576623916625977e+00 -1.034830689430236816e+00
2.820000000000000000e+03 6.600179290771484375e+01 2.333076858520507812e+01 1.647583395242691040e-01 7.497735977172851562e+00 2.298748254776000977e+00 -1.133241534233093262e+00
2.821000000000000000e+03 6.432110595703125000e+01 6.368117809295654297e+00 -3.592925369739532471e-01 7.859535694122314453e+00 2.250072956085205078e+00 -8.098593950271606445e-01
2.822000000000000000e+03 3.658909988403320312e+01 -1.095877456665039062e+01 -2.555187642574310303e-01 4.822419166564941406e+00 1.370070099830627441e+00 2.812218666076660156e-01
2.823000000000000000e+03 3.284531402587890625e+01 -8.745605468750000000e+00 -1.957305669784545898e-01 4.290393352508544922e+00 1.228398799896240234e+00 3.550774157047271729e-01
2.824000000000000000e+03 3.509207153320312500e+01 -1.701309204101562500e+01 -1.653457283973693848e-01 4.551807403564453125e+00 1.315938472747802734e+00 1.922323852777481079e-01
2.825000000000000000e+03 6.286494445800781250e+01 -9.027902603149414062e+00 -2.701690793037414551e-01 7.702560424804687500e+00 2.229717254638671875e+00 -3.366518020629882812e-01
2.826000000000000000e+03 6.386162567138671875e+01 -7.170829296112060547e+00 -2.712071537971496582e-01 7.785181999206542969e+00 2.254192352294921875e+00 -3.852004706859588623e-01
2.827000000000000000e+03 6.326544570922851562e+01 -1.438717174530029297e+01 -1.984984278678894043e-01 7.712001323699951172e+00 2.254050731658935547e+00 -2.426978051662445068e-01
2.828000000000000000e+03 6.776213836669921875e+01 4.233884066343307495e-02 -2.255551815032958984e-01 7.964425563812255859e+00 2.321660995483398438e+00 -5.729665160179138184e-01
2.829000000000000000e+03 3.910349273681640625e+01 2.788944435119628906e+01 9.497417807579040527e-01 8.731986999511718750e+00 2.904518604278564453e+00 3.576941967010498047e+00
2.830000000000000000e+03 3.792134094238281250e+01 2.811187553405761719e+01 1.588087558746337891e+00 6.642776966094970703e+00 2.469259262084960938e+00 3.748253822326660156e+00
2.831000000000000000e+03 3.887919235229492188e+01 2.832606697082519531e+01 1.250200986862182617e+00 8.389965057373046875e+00 2.892049789428710938e+00 3.862135648727416992e+00
2.832000000000000000e+03 3.848887634277343750e+01 2.904066276550292969e+01 1.861705899238586426e+00 7.672943115234375000e+00 2.860394716262817383e+00 4.290129661560058594e+00
2.833000000000000000e+03 3.696363449096679688e+01 2.911229896545410156e+01 2.450920104980468750e+00 4.595059871673583984e+00 2.113794088363647461e+00 3.689774036407470703e+00
2.834000000000000000e+03 3.559059143066406250e+01 2.806934165954589844e+01 2.017867803573608398e+00 3.436070680618286133e+00 1.636181473731994629e+00 2.768438100814819336e+00
2.835000000000000000e+03 3.549172973632812500e+01 2.655582809448242188e+01 1.488970994949340820e+00 4.072884082794189453e+00 1.668556571006774902e+00 2.660649299621582031e+00
2.836000000000000000e+03 3.579639053344726562e+01 2.720296669006347656e+01 1.703245043754577637e+00 4.109066009521484375e+00 1.743693232536315918e+00 2.858002662658691406e+00
2.837000000000000000e+03 3.501288223266601562e+01 2.699841117858886719e+01 1.663729310035705566e+00 3.432663917541503906e+00 1.528917908668518066e+00 2.488886356353759766e+00
2.838000000000000000e+03 3.445264434814453125e+01 2.376270294189453125e+01 8.369829058647155762e-01 4.017725467681884766e+00 1.456412553787231445e+00 2.161370992660522461e+00
2.839000000000000000e+03 3.951805114746093750e+01 2.759938240051269531e+01 7.336811423301696777e-01 9.261594772338867188e+00 2.998582839965820312e+00 3.355812788009643555e+00
2.840000000000000000e+03 3.776668548583984375e+01 2.929209136962890625e+01 2.370229721069335938e+00 5.886521339416503906e+00 2.477025270462036133e+00 4.166818141937255859e+00
2.841000000000000000e+03 3.359386825561523438e+01 2.443131446838378906e+01 1.019284605979919434e+00 3.334600925445556641e+00 1.306165695190429688e+00 1.986924767494201660e+00
2.842000000000000000e+03 3.325463485717773438e+01 2.537535858154296875e+01 1.214955091476440430e+00 2.860352754592895508e+00 1.222592353820800781e+00 1.866505503654479980e+00
2.843000000000000000e+03 4.490277099609375000e+01 2.462818717956542969e+01 -1.758587509393692017e-01 1.029421615600585938e+01 3.035507202148437500e+00 1.830049455165863037e-01
2.844000000000000000e+03 3.558394622802734375e+01 1.975666618347167969e+01 2.655321173369884491e-02 5.114512920379638672e+00 1.542319893836975098e+00 1.861737608909606934e+00
2.845000000000000000e+03 3.439860534667968750e+01 2.154594993591308594e+01 4.083508849143981934e-01 4.339154243469238281e+00 1.424251556396484375e+00 1.950944066047668457e+00
2.846000000000000000e+03 3.596311569213867188e+01 2.550162315368652344e+01 1.118993401527404785e+00 4.790227890014648438e+00 1.772766351699829102e+00 2.683810472488403320e+00
2.847000000000000000e+03 3.359082412719726562e+01 2.597375106811523438e+01 1.346647620201110840e+00 2.845664978027343750e+00 1.257693767547607422e+00 1.955865144729614258e+00
2.848000000000000000e+03 3.597745895385742188e+01 1.717968750000000000e+01 -2.629649639129638672e-01 5.287823200225830078e+00 1.507457494735717773e+00 1.609484314918518066e+00
2.849000000000000000e+03 3.456174087524414062e+01 2.561106109619140625e+01 1.248746037483215332e+00 3.627209424972534180e+00 1.462786674499511719e+00 2.272179126739501953e+00
2.850000000000000000e+03 4.159785842895507812e+01 2.600694084167480469e+01 -9.734337031841278076e-02 1.030655670166015625e+01 3.062763929367065430e+00 1.748247623443603516e+00
2.851000000000000000e+03 4.362483215332031250e+01 2.441073417663574219e+01 -3.027459681034088135e-01 1.011955261230468750e+01 2.945041894912719727e+00 6.700264215469360352e-01
2.852000000000000000e+03 3.483441543579101562e+01 2.052196884155273438e+01 1.950710117816925049e-01 4.699968814849853516e+00 1.468511939048767090e+00 1.896288871765136719e+00
2.853000000000000000e+03 3.762240600585937500e+01 2.385600328445434570e+00 -5.166454315185546875e-01 5.261055946350097656e+00 1.423323154449462891e+00 6.515864729881286621e-01
2.854000000000000000e+03 3.902936935424804688e+01 1.452961063385009766e+01 -6.434070467948913574e-01 6.302674293518066406e+00 1.697780251502990723e+00 1.208973050117492676e+00
2.855000000000000000e+03 3.733435821533203125e+01 1.350452804565429688e+01 -5.376935601234436035e-01 5.695407390594482422e+00 1.547314167022705078e+00 1.241538047790527344e+00
2.856000000000000000e+03 6.212184143066406250e+01 9.661417961120605469e+00 -4.184850752353668213e-01 7.912256240844726562e+00 2.248131275177001953e+00 -9.134339690208435059e-01
2.857000000000000000e+03 6.440145874023437500e+01 2.023044586181640625e+01 -8.488602004945278168e-03 7.747608184814453125e+00 2.321735858917236328e+00 -1.186014056205749512e+00
2.858000000000000000e+03 3.758011245727539062e+01 9.886386871337890625e+00 -6.020581126213073730e-01 5.592730522155761719e+00 1.497201800346374512e+00 1.009092450141906738e+00
2.859000000000000000e+03 3.735558700561523438e+01 8.380855560302734375e+00 -5.847681164741516113e-01 5.459485530853271484e+00 1.462415218353271484e+00 9.307322502136230469e-01
2.860000000000000000e+03 3.683013916015625000e+01 9.143898963928222656e+00 -5.572764277458190918e-01 5.351369380950927734e+00 1.438227772712707520e+00 9.887882471084594727e-01
2.861000000000000000e+03 6.389874267578125000e+01 -2.420913457870483398e+00 -3.219764828681945801e-01 7.811067581176757812e+00 2.246727466583251953e+00 -5.147919654846191406e-01
2.862000000000000000e+03 4.560284042358398438e+01 2.378337478637695312e+01 -2.676691114902496338e-01 1.000651931762695312e+01 2.921655178070068359e+00 2.175222150981426239e-02
2.863000000000000000e+03 3.651304244995117188e+01 4.041759967803955078e+00 -4.941764175891876221e-01 5.084819793701171875e+00 1.377193093299865723e+00 7.582207322120666504e-01
2.864000000000000000e+03 3.717767715454101562e+01 6.806055068969726562e+00 -5.495486259460449219e-01 5.308785915374755859e+00 1.427771210670471191e+00 8.600466251373291016e-01
2.865000000000000000e+03 3.732155609130859375e+01 -7.188066244125366211e-01 -4.497608244419097900e-01 5.109037399291992188e+00 1.397783041000366211e+00 5.491945147514343262e-01
2.866000000000000000e+03 6.663800811767578125e+01 3.488476514816284180e+00 -2.779003679752349854e-01 7.894377708435058594e+00 2.284943103790283203e+00 -6.955666542053222656e-01
2.867000000000000000e+03 6.451049041748046875e+01 7.782684803009033203e+00 -3.493229150772094727e-01 7.860927104949951172e+00 2.253481388092041016e+00 -8.605269789695739746e-01
2.868000000000000000e+03 6.673563385009765625e+01 4.710289001464843750e+00 -2.779133915901184082e-01 7.881887435913085938e+00 2.281192302703857422e+00 -7.333889007568359375e-01
2.869000000000000000e+03 3.522609329223632812e+01 -4.745599746704101562e+00 -3.185913264751434326e-01 4.658234119415283203e+00 1.301892876625061035e+00 4.651634395122528076e-01
2.870000000000000000e+03 3.676667785644531250e+01 -3.547621488571166992e+00 -3.740834593772888184e-01 4.950721263885498047e+00 1.372991323471069336e+00 4.579467475414276123e-01
2.871000000000000000e+03 6.259783172607421875e+01 -7.629323482513427734e+00 -2.974901497364044189e-01 7.691757202148437500e+00 2.218280076980590820e+00 -3.650762140750885010e-01
2.872000000000000000e+03 6.313006591796875000e+01 -3.110476970672607422e+00 -3.399513065814971924e-01 7.771877288818359375e+00 2.229577779769897461e+00 -4.885639548301696777e-01
2.873000000000000000e+03 6.165005111694335938e+01 -1.706858444213867188e+01 -1.907365471124649048e-01 7.555669307708740234e+00 2.209479808807373047e+00 -1.958941221237182617e-01
2.874000000000000000e+03 3.503832244873046875e+01 -8.330259323120117188e+00 -2.593743801116943359e-01 4.608965873718261719e+00 1.304877400398254395e+00 3.619229197502136230e-01
2.875000000000000000e+03 6.161059188842773438e+01 1.888475418090820312e+01 -1.041254624724388123e-01 8.026780128479003906e+00 2.376796245574951172e+00 -1.212891817092895508e+00
2.876000000000000000e+03 5.271765899658203125e+01 2.405895233154296875e+01 3.002079725265502930e-01 9.146699905395507812e+00 2.834072351455688477e+00 -1.089967131614685059e+00
2.877000000000000000e+03 3.716819763183593750e+01 1.483688163757324219e+01 -4.978496730327606201e-01 5.724791049957275391e+00 1.568082451820373535e+00 1.351597309112548828e+00
2.878000000000000000e+03 6.220037841796875000e+01 -1.939719009399414062e+01 -1.605785191059112549e-01 7.597936153411865234e+00 2.231207370758056641e+00 -1.654494553804397583e-01
2.879000000000000000e+03 6.482898712158203125e+01 -2.040986251831054688e+01 -1.210042536258697510e-01 7.853064060211181641e+00 2.319617986679077148e+00 -1.568093001842498779e-01
2.880000000000000000e+03 6.361811065673828125e+01 1.062184047698974609e+01 -3.476518690586090088e-01 7.878631591796875000e+00 2.259294033050537109e+00 -9.625274538993835449e-01
2.881000000000000000e+03 6.316534042358398438e+01 7.972814559936523438e+00 -3.952119350433349609e-01 7.876832962036132812e+00 2.244486331939697266e+00 -8.616656661033630371e-01
2.882000000000000000e+03 3.707076644897460938e+01 -1.233111381530761719e+01 -2.468196153640747070e-01 4.887290954589843750e+00 1.392141461372375488e+00 2.393854111433029175e-01
2.883000000000000000e+03 6.411486053466796875e+01 4.848372936248779297e+00 -3.712950050830841064e-01 7.855131149291992188e+00 2.245150804519653320e+00 -7.521795630455017090e-01
2.884000000000000000e+03 6.506451416015625000e+01 8.103130012750625610e-02 -3.150505721569061279e-01 7.862777233123779297e+00 2.264317989349365234e+00 -5.892404317855834961e-01
2.885000000000000000e+03 3.880578994750976562e+01 2.739993095397949219e+01 9.442728161811828613e-01 8.017191886901855469e+00 2.688439607620239258e+00 3.435196399688720703e+00
2.886000000000000000e+03 3.752538299560546875e+01 2.351008796691894531e+01 3.194511830806732178e-01 6.318305015563964844e+00 1.991326808929443359e+00 2.440900802612304688e+00
2.887000000000000000e+03 3.833378219604492188e+01 2.779265785217285156e+01 1.288375854492187500e+00 7.427230834960937500e+00 2.614681959152221680e+00 3.683066368103027344e+00
2.888000000000000000e+03 3.603506469726562500e+01 2.625266647338867188e+01 1.331693649291992188e+00 4.667362213134765625e+00 1.799716711044311523e+00 2.800878763198852539e+00
2.889000000000000000e+03 3.948947906494140625e+01 2.634457969665527344e+01 3.983874619007110596e-01 8.687238693237304688e+00 2.725687980651855469e+00 2.887970447540283203e+00
2.890000000000000000e+03 3.778750991821289062e+01 2.874402427673339844e+01 2.041394948959350586e+00 6.405562877655029297e+00 2.534087419509887695e+00 4.103875637054443359e+00
2.891000000000000000e+03 3.731744384765625000e+01 2.785300064086914062e+01 1.694511532783508301e+00 5.755232810974121094e+00 2.234923362731933594e+00 3.553476572036743164e+00
2.892000000000000000e+03 3.507248687744140625e+01 2.598584175109863281e+01 1.334913372993469238e+00 3.927184581756591797e+00 1.578629374504089355e+00 2.478410959243774414e+00
2.893000000000000000e+03 3.558697509765625000e+01 2.458188247680664062e+01 9.012292623519897461e-01 4.743981361389160156e+00 1.693563103675842285e+00 2.486236095428466797e+00
2.894000000000000000e+03 3.680277252197265625e+01 2.809085273742675781e+01 1.943283677101135254e+00 4.898051738739013672e+00 2.052400588989257812e+00 3.418493747711181641e+00
2.895000000000000000e+03 4.173822021484375000e+01 2.667144584655761719e+01 4.266786202788352966e-02 1.071971988677978516e+01 3.228716373443603516e+00 1.673161029815673828e+00
2.896000000000000000e+03 4.099886322021484375e+01 2.632094764709472656e+01 2.731532044708728790e-02 1.003986167907714844e+01 3.020153045654296875e+00 2.092695951461791992e+00
2.897000000000000000e+03 3.406123352050781250e+01 2.561786651611328125e+01 1.268490195274353027e+00 3.270948648452758789e+00 1.361831665039062500e+00 2.122882604598999023e+00
2.898000000000000000e+03 3.629518508911132812e+01 2.830306625366210938e+01 2.113266706466674805e+00 4.073486804962158203e+00 1.856026053428649902e+00 3.185945749282836914e+00
2.899000000000000000e+03 4.280918121337890625e+01 2.587005805969238281e+01 -1.077711805701255798e-01 1.066309642791748047e+01 3.166597604751586914e+00 9.976546764373779297e-01
2.900000000000000000e+03 3.488521194458007812e+01 2.297825431823730469e+01 6.127697825431823730e-01 4.491611003875732422e+00 1.531314253807067871e+00 2.163659572601318359e+00
2.901000000000000000e+03 4.008803558349609375e+01 2.604438781738281250e+01 1.750998795032501221e-01 9.169169425964355469e+00 2.803280591964721680e+00 2.542815923690795898e+00
2.902000000000000000e+03 3.544510269165039062e+01 2.356116485595703125e+01 6.648544669151306152e-01 4.797854423522949219e+00 1.638812661170959473e+00 2.306830406188964844e+00
2.903000000000000000e+03 3.693732833862304688e+01 1.899558639526367188e+01 -2.017593979835510254e-01 5.795466899871826172e+00 1.678112268447875977e+00 1.781076669692993164e+00
2.904000000000000000e+03 3.620235824584960938e+01 2.053653907775878906e+01 6.830128282308578491e-02 5.417597293853759766e+00 1.645769596099853516e+00 1.983176827430725098e+00
2.905000000000000000e+03 4.427619552612304688e+01 2.394043159484863281e+01 -3.592317700386047363e-01 9.973123550415039062e+00 2.884167671203613281e+00 4.813013672828674316e-01
2.906000000000000000e+03 4.667932510375976562e+01 2.437077903747558594e+01 -6.330929696559906006e-02 1.011624526977539062e+01 3.015880823135375977e+00 -3.174453079700469971e-01
2.907000000000000000e+03 3.790422439575195312e+01 1.779343795776367188e+01 -4.032692909240722656e-01 6.165712833404541016e+00 1.728733062744140625e+00 1.566028952598571777e+00
2.908000000000000000e+03 3.773041152954101562e+01 1.872650909423828125e+01 -3.370034694671630859e-01 6.141885280609130859e+00 1.741464495658874512e+00 1.656956315040588379e+00
2.909000000000000000e+03 4.837213897705078125e+01 2.344054794311523438e+01 -8.995609730482101440e-02 9.715519905090332031e+00 2.887669324874877930e+00 -5.938825011253356934e-01
2.910000000000000000e+03 3.854174423217773438e+01 1.209419345855712891e+01 -6.418271660804748535e-01 5.975357055664062500e+00 1.600058913230895996e+00 1.076580524444580078e+00
2.911000000000000000e+03 3.868217849731445312e+01 1.343293380737304688e+01 -6.320492029190063477e-01 6.144759178161621094e+00 1.653813004493713379e+00 1.165460824966430664e+00
2.912000000000000000e+03 6.276619338989257812e+01 4.988692760467529297e+00 -4.179695844650268555e-01 7.846820354461669922e+00 2.228655099868774414e+00 -7.472591400146484375e-01
2.913000000000000000e+03 6.144871902465820312e+01 -7.925637245178222656e+00 -3.150295317173004150e-01 7.609419822692871094e+00 2.188317060470581055e+00 -3.452447354793548584e-01
2.914000000000000000e+03 6.211491394042968750e+01 -6.388047218322753906e+00 -3.243366777896881104e-01 7.673183917999267578e+00 2.204654216766357422e+00 -3.904161751270294189e-01
2.915000000000000000e+03 6.437806701660156250e+01 1.533548116683959961e+00 -3.508383333683013916e-01 7.848846435546875000e+00 2.249402523040771484e+00 -6.378189325332641602e-01
2.916000000000000000e+03 6.389931106567382812e+01 -5.861485600471496582e-01 -3.413452506065368652e-01 7.818598270416259766e+00 2.243175983428955078e+00 -5.676127076148986816e-01
2.917000000000000000e+03 6.240879821777343750e+01 -2.444392442703247070e+00 -3.722697198390960693e-01 7.737486362457275391e+00 2.209564924240112305e+00 -4.978600740432739258e-01
2.918000000000000000e+03 3.802131652832031250e+01 -3.045018196105957031e+00 -4.329639673233032227e-01 5.179811954498291016e+00 1.424054384231567383e+00 4.559714794158935547e-01
2.919000000000000000e+03 3.744389724731445312e+01 8.780324459075927734e-01 -4.803772866725921631e-01 5.184039115905761719e+00 1.411098480224609375e+00 5.992287993431091309e-01
2.920000000000000000e+03 4.301045989990234375e+01 2.487632560729980469e+01 -2.883419096469879150e-01 1.014896869659423828e+01 2.958188056945800781e+00 9.382436871528625488e-01
2.921000000000000000e+03 3.827548980712890625e+01 9.146493911743164062e+00 -6.372044086456298828e-01 5.718790054321289062e+00 1.524475693702697754e+00 9.385930895805358887e-01
2.922000000000000000e+03 3.886397933959960938e+01 8.559904098510742188e-01 -5.300943851470947266e-01 5.438027858734130859e+00 1.472380042076110840e+00 5.512219667434692383e-01
2.923000000000000000e+03 3.785613250732421875e+01 3.869579553604125977e+00 -5.529095530509948730e-01 5.369261264801025391e+00 1.444905519485473633e+00 7.007336616516113281e-01
2.924000000000000000e+03 3.814620971679687500e+01 5.362773895263671875e+00 -5.891212821006774902e-01 5.513546466827392578e+00 1.477327585220336914e+00 7.503027319908142090e-01
2.925000000000000000e+03 3.919907379150390625e+01 1.769718170166015625e+01 -5.354027152061462402e-01 6.685884952545166016e+00 1.845144748687744141e+00 1.460142374038696289e+00
2.926000000000000000e+03 3.851237869262695312e+01 1.892309761047363281e+01 -4.065099656581878662e-01 6.507111072540283203e+00 1.830180406570434570e+00 1.620071530342102051e+00
2.927000000000000000e+03 6.398511886596679688e+01 3.180247545242309570e+00 -3.684654533863067627e-01 7.844917774200439453e+00 2.242935657501220703e+00 -6.899982094764709473e-01
2.928000000000000000e+03 6.289827346801757812e+01 6.353126764297485352e-01 -3.892720639705657959e-01 7.794602394104003906e+00 2.221599102020263672e+00 -5.974919795989990234e-01
2.929000000000000000e+03 6.540027618408203125e+01 3.392932415008544922e+00 -3.203726410865783691e-01 7.872900485992431641e+00 2.265758275985717773e+00 -7.002496719360351562e-01
2.930000000000000000e+03 6.059201431274414062e+01 8.486774444580078125e+00 -4.930002987384796143e-01 7.915151596069335938e+00 2.226645469665527344e+00 -8.354356884956359863e-01
2.931000000000000000e+03 6.144818496704101562e+01 -9.206762313842773438e+00 -2.970986664295196533e-01 7.594795703887939453e+00 2.189309120178222656e+00 -3.232170045375823975e-01
2.932000000000000000e+03 3.650529098510742188e+01 -4.893037796020507812e+00 -3.540270924568176270e-01 4.895912647247314453e+00 1.362565636634826660e+00 4.316002130508422852e-01
2.933000000000000000e+03 3.770483398437500000e+01 -5.669601440429687500e+00 -3.707965612411499023e-01 5.065058231353759766e+00 1.408278465270996094e+00 3.924489319324493408e-01
2.934000000000000000e+03 6.137440490722656250e+01 -1.263563823699951172e+01 -2.507769763469696045e-01 7.553094387054443359e+00 2.190695285797119141e+00 -2.609678804874420166e-01
2.935000000000000000e+03 6.024794006347656250e+01 1.995752525329589844e+01 -5.630673095583915710e-02 8.173563957214355469e+00 2.435177087783813477e+00 -1.220555305480957031e+00
2.936000000000000000e+03 6.083186340332031250e+01 1.743000984191894531e+01 -2.142044752836227417e-01 8.090208053588867188e+00 2.362801074981689453e+00 -1.168239474296569824e+00
2.937000000000000000e+03 6.431427001953125000e+01 2.335294914245605469e+01 1.831472814083099365e-01 7.675331592559814453e+00 2.357543706893920898e+00 -1.178337574005126953e+00
2.938000000000000000e+03 6.310473632812500000e+01 -1.241176795959472656e+01 -2.250120490789413452e-01 7.701901435852050781e+00 2.243066787719726562e+00 -2.773462533950805664e-01
2.939000000000000000e+03 6.143263244628906250e+01 -1.475362682342529297e+01 -2.267054021358489990e-01 7.540893554687500000e+00 2.194256544113159180e+00 -2.277601063251495361e-01
2.940000000000000000e+03 4.794357681274414062e+01 2.494084930419921875e+01 2.359823882579803467e-01 1.006019592285156250e+01 3.088853597640991211e+00 -6.718884706497192383e-01
2.941000000000000000e+03 5.076740264892578125e+01 2.743585395812988281e+01 1.071786522865295410e+00 9.645595550537109375e+00 3.215214490890502930e+00 -1.021145582199096680e+00
2.942000000000000000e+03 3.918065643310546875e+01 -2.112799406051635742e+00 -4.827866256237030029e-01 5.389458656311035156e+00 1.472001671791076660e+00 4.490413069725036621e-01
2.943000000000000000e+03 3.884895324707031250e+01 -6.691086292266845703e-01 -4.953872859477996826e-01 5.379451274871826172e+00 1.465219140052795410e+00 4.966583549976348877e-01
2.944000000000000000e+03 3.784546661376953125e+01 -1.690396690368652344e+01 -2.024090290069580078e-01 4.909839153289794922e+00 1.412229061126708984e+00 1.528963893651962280e-01
2.945000000000000000e+03 3.662630081176757812e+01 -1.600965690612792969e+01 -1.845920085906982422e-01 4.744995117187500000e+00 1.368120908737182617e+00 1.840726584196090698e-01
2.946000000000000000e+03 3.505683517456054688e+01 2.421289825439453125e+01 8.858473896980285645e-01 4.361769676208496094e+00 1.574285149574279785e+00 2.311174392700195312e+00
2.947000000000000000e+03 3.695294189453125000e+01 2.864868354797363281e+01 2.190819978713989258e+00 4.879200458526611328e+00 2.121006250381469727e+00 3.596438407897949219e+00
2.948000000000000000e+03 4.069701385498046875e+01 2.561064529418945312e+01 -2.059973217546939850e-02 9.468384742736816406e+00 2.834335565567016602e+00 2.154521703720092773e+00
2.949000000000000000e+03 3.536762619018554688e+01 2.531010437011718750e+01 1.138890862464904785e+00 4.345132350921630859e+00 1.645206928253173828e+00 2.517328023910522461e+00
2.950000000000000000e+03 3.677768707275390625e+01 2.671377372741699219e+01 1.351323366165161133e+00 5.314249992370605469e+00 1.999671936035156250e+00 3.095447301864624023e+00
2.951000000000000000e+03 3.909201431274414062e+01 2.709697914123535156e+01 7.291635274887084961e-01 8.333071708679199219e+00 2.718670606613159180e+00 3.278872013092041016e+00
2.952000000000000000e+03 3.921466064453125000e+01 2.562301826477050781e+01 3.300494253635406494e-01 8.142493247985839844e+00 2.541762828826904297e+00 2.733814239501953125e+00
2.953000000000000000e+03 3.783340835571289062e+01 2.771618080139160156e+01 1.453307867050170898e+00 6.566274166107177734e+00 2.405874729156494141e+00 3.604942560195922852e+00
2.954000000000000000e+03 3.655392456054687500e+01 2.752509117126464844e+01 1.733641862869262695e+00 4.808463573455810547e+00 1.962631702423095703e+00 3.218127250671386719e+00
2.955000000000000000e+03 3.758620834350585938e+01 2.828392982482910156e+01 1.844040036201477051e+00 6.033592700958251953e+00 2.363289833068847656e+00 3.782052755355834961e+00
2.956000000000000000e+03 3.915168380737304688e+01 2.751743125915527344e+01 8.719738721847534180e-01 8.637002944946289062e+00 2.852693080902099609e+00 3.424704313278198242e+00
2.957000000000000000e+03 3.918968582153320312e+01 2.821500968933105469e+01 1.070921897888183594e+00 8.936935424804687500e+00 3.002357244491577148e+00 3.679579257965087891e+00
2.958000000000000000e+03 3.607556533813476562e+01 2.481404304504394531e+01 9.028671979904174805e-01 5.003414154052734375e+00 1.771884322166442871e+00 2.607143640518188477e+00
2.959000000000000000e+03 3.945711135864257812e+01 2.463813018798828125e+01 8.945511281490325928e-02 8.111610412597656250e+00 2.460319757461547852e+00 2.409683465957641602e+00
2.960000000000000000e+03 3.572451400756835938e+01 2.124384117126464844e+01 2.090265601873397827e-01 5.220280170440673828e+00 1.628792047500610352e+00 2.055216550827026367e+00
2.961000000000000000e+03 3.618078994750976562e+01 2.262685585021972656e+01 3.900506496429443359e-01 5.391128063201904297e+00 1.734353542327880859e+00 2.269173383712768555e+00
2.962000000000000000e+03 3.857516098022460938e+01 1.704623031616210938e+01 -5.107799172401428223e-01 6.363693714141845703e+00 1.755874156951904297e+00 1.442572951316833496e+00
2.963000000000000000e+03 3.897200775146484375e+01 1.583160305023193359e+01 -6.061215400695800781e-01 6.524217128753662109e+00 1.775428771972656250e+00 1.301409482955932617e+00
2.964000000000000000e+03 4.127728271484375000e+01 1.448345756530761719e+01 -7.796528339385986328e-01 6.996168613433837891e+00 1.864954710006713867e+00 9.456788897514343262e-01
2.965000000000000000e+03 3.877853393554687500e+01 1.827335548400878906e+01 -4.692873358726501465e-01 6.607100486755371094e+00 1.841343998908996582e+00 1.549298167228698730e+00
2.966000000000000000e+03 4.469528961181640625e+01 2.324369621276855469e+01 -4.379273056983947754e-01 9.763394355773925781e+00 2.797640085220336914e+00 3.870539367198944092e-01
2.967000000000000000e+03 4.601431274414062500e+01 2.260807800292968750e+01 -4.233588576316833496e-01 9.679486274719238281e+00 2.776838302612304688e+00 1.403589500114321709e-03
2.968000000000000000e+03 6.297953796386718750e+01 6.529363155364990234e+00 -4.095957279205322266e-01 7.865450859069824219e+00 2.236756563186645508e+00 -8.071463108062744141e-01
2.969000000000000000e+03 3.904144287109375000e+01 1.010711193084716797e+01 -6.704761385917663574e-01 5.973587512969970703e+00 1.590933442115783691e+00 9.282871484756469727e-01
2.970000000000000000e+03 3.788335800170898438e+01 7.590992450714111328e+00 -6.044287681579589844e-01 5.552229881286621094e+00 1.484340310096740723e+00 8.872538208961486816e-01
2.971000000000000000e+03 3.876963424682617188e+01 8.173071861267089844e+00 -6.508919596672058105e-01 5.780631542205810547e+00 1.538921952247619629e+00 8.689811825752258301e-01
2.972000000000000000e+03 4.244644165039062500e+01 3.529682382941246033e-02 -6.192802190780639648e-01 6.040107250213623047e+00 1.626248121261596680e+00 3.636145591735839844e-01
2.973000000000000000e+03 4.037767410278320312e+01 2.204161405563354492e+00 -6.108192205429077148e-01 5.773902416229248047e+00 1.548924922943115234e+00 5.311456918716430664e-01
2.974000000000000000e+03 4.006838989257812500e+01 -3.069509267807006836e+00 -4.846272766590118408e-01 5.514893054962158203e+00 1.509079694747924805e+00 3.960625231266021729e-01
2.975000000000000000e+03 4.041786956787109375e+01 -1.805444598197937012e+00 -5.238500237464904785e-01 5.615422725677490234e+00 1.527471899986267090e+00 4.134019315242767334e-01
2.976000000000000000e+03 4.309841537475585938e+01 2.369285583496093750e+01 -4.403840303421020508e-01 9.662767410278320312e+00 2.766715049743652344e+00 9.477713108062744141e-01
2.977000000000000000e+03 6.188795471191406250e+01 -7.150037884712219238e-01 -4.105783104896545410e-01 7.739324092864990234e+00 2.198623895645141602e+00 -5.395283102989196777e-01
2.978000000000000000e+03 6.301586532592773438e+01 -1.494652271270751953e+00 -3.609149754047393799e-01 7.779083728790283203e+00 2.225450515747070312e+00 -5.360190272331237793e-01
2.979000000000000000e+03 6.260263824462890625e+01 -4.638943672180175781e+00 -3.422999978065490723e-01 7.723419666290283203e+00 2.214335918426513672e+00 -4.397135972976684570e-01
2.980000000000000000e+03 6.248590087890625000e+01 3.318217039108276367e+00 -4.176096320152282715e-01 7.817195415496826172e+00 2.219875812530517578e+00 -6.797495484352111816e-01
2.981000000000000000e+03 6.179705429077148438e+01 1.763576030731201172e+00 -4.344787597656250000e-01 7.778463363647460938e+00 2.203195333480834961e+00 -6.179038882255554199e-01
2.982000000000000000e+03 6.187543487548828125e+01 8.225074768066406250e+00 -4.422074258327484131e-01 7.896380901336669922e+00 2.236252069473266602e+00 -8.567516207695007324e-01
2.983000000000000000e+03 6.247487258911132812e+01 1.099771595001220703e+01 -3.862851858139038086e-01 7.922421455383300781e+00 2.260840892791748047e+00 -9.695559740066528320e-01
2.984000000000000000e+03 6.148636245727539062e+01 5.255515575408935547e+00 -4.623793959617614746e-01 7.836769580841064453e+00 2.212317228317260742e+00 -7.347227334976196289e-01
2.985000000000000000e+03 3.434652709960937500e+01 -1.933689117431640625e+01 -1.356302350759506226e-01 4.446754455566406250e+00 1.293337225914001465e+00 1.731027364730834961e-01
2.986000000000000000e+03 3.898665237426757812e+01 2.283607482910156250e+00 -5.640246272087097168e-01 5.520418643951416016e+00 1.486918210983276367e+00 5.959710478782653809e-01
2.987000000000000000e+03 6.117320251464843750e+01 2.162840652465820312e+01 9.325119853019714355e-02 8.071561813354492188e+00 2.449443817138671875e+00 -1.241740465164184570e+00
2.988000000000000000e+03 3.818725204467773438e+01 -1.101242637634277344e+01 -2.876347005367279053e-01 5.038511753082275391e+00 1.425263166427612305e+00 2.596642076969146729e-01
2.989000000000000000e+03 3.905878067016601562e+01 -9.302685737609863281e+00 -3.338156342506408691e-01 5.206383705139160156e+00 1.461770415306091309e+00 2.764357030391693115e-01
2.990000000000000000e+03 6.275598144531250000e+01 1.411437034606933594e+01 -2.980119884014129639e-01 7.925087451934814453e+00 2.288122653961181641e+00 -1.078945755958557129e+00
2.991000000000000000e+03 6.219527435302734375e+01 1.645070457458496094e+01 -2.244891673326492310e-01 7.973456382751464844e+00 2.324690341949462891e+00 -1.153238534927368164e+00
2.992000000000000000e+03 6.246482467651367188e+01 2.021660041809082031e+01 -1.294537354260683060e-02 7.921831607818603516e+00 2.372665882110595703e+00 -1.219195604324340820e+00
2.993000000000000000e+03 6.420008087158203125e+01 -2.351345443725585938e+01 -1.081581786274909973e-01 7.788970947265625000e+00 2.304243803024291992e+00 -1.185884550213813782e-01
2.994000000000000000e+03 6.309250259399414062e+01 -2.156857109069824219e+01 -1.366803497076034546e-01 7.675194263458251953e+00 2.261554241180419922e+00 -1.436170190572738647e-01
2.995000000000000000e+03 5.939065933227539062e+01 -7.112687587738037109e+00 -3.756226599216461182e-01 7.469277381896972656e+00 2.128096342086791992e+00 -3.330121636390686035e-01
2.996000000000000000e+03 5.101731872558593750e+01 2.568293190002441406e+01 6.094151139259338379e-01 9.525098800659179688e+00 3.040354251861572266e+00 -1.048182487487792969e+00
2.997000000000000000e+03 5.963776779174804688e+01 -1.263539218902587891e+01 -2.783520817756652832e-01 7.410683631896972656e+00 2.139699459075927734e+00 -2.397418022155761719e-01
2.998000000000000000e+03 6.139981460571289062e+01 -1.077810573577880859e+01 -2.752466499805450439e-01 7.576171398162841797e+00 2.190277338027954102e+00 -2.910705506801605225e-01
2.999000000000000000e+03 4.022316741943359375e+01 -4.414459764957427979e-01 -5.449624061584472656e-01 5.654957294464111328e+00 1.532998442649841309e+00 4.524037539958953857e-01
3.000000000000000000e+03 5.859989929199218750e+01 2.971522331237792969e+01 9.402775764465332031e-01 8.379916191101074219e+00 2.796058177947998047e+00 -9.349055886268615723e-01
3.001000000000000000e+03 5.645816421508789062e+01 3.036618232727050781e+01 1.213465690612792969e+00 8.680079460144042969e+00 2.968063592910766602e+00 -8.684232234954833984e-01
3.002000000000000000e+03 3.770475006103515625e+01 2.626477050781250000e+01 9.534011483192443848e-01 6.581444740295410156e+00 2.260453701019287109e+00 3.138998746871948242e+00
3.003000000000000000e+03 3.748241806030273438e+01 2.698856735229492188e+01 1.284401178359985352e+00 6.150907039642333984e+00 2.230592489242553711e+00 3.340710639953613281e+00
3.004000000000000000e+03 3.838305282592773438e+01 2.727215385437011719e+01 1.056735277175903320e+00 7.438775062561035156e+00 2.548653125762939453e+00 3.463799476623535156e+00
3.005000000000000000e+03 3.787925720214843750e+01 2.676953697204589844e+01 1.042860388755798340e+00 6.748542308807373047e+00 2.337420701980590820e+00 3.269023418426513672e+00
3.006000000000000000e+03 3.653251647949218750e+01 2.548056793212890625e+01 1.026023507118225098e+00 5.363495349884033203e+00 1.916855692863464355e+00 2.812957525253295898e+00
3.007000000000000000e+03 3.585825347900390625e+01 2.399771881103515625e+01 7.407082915306091309e-01 5.027406692504882812e+00 1.730434536933898926e+00 2.460079908370971680e+00
3.008000000000000000e+03 3.658641052246093750e+01 2.611345291137695312e+01 1.191229224205017090e+00 5.305012226104736328e+00 1.948872447013854980e+00 2.935602903366088867e+00
3.009000000000000000e+03 3.977318191528320312e+01 2.530376434326171875e+01 1.281127184629440308e-01 8.540834426879882812e+00 2.600684165954589844e+00 2.493132591247558594e+00
3.010000000000000000e+03 3.706280517578125000e+01 2.598904991149902344e+01 1.082484602928161621e+00 5.786217689514160156e+00 2.060610771179199219e+00 3.028126955032348633e+00
3.011000000000000000e+03 3.890479660034179688e+01 2.653254699707031250e+01 6.593915224075317383e-01 8.004723548889160156e+00 2.599234580993652344e+00 3.124161005020141602e+00
3.012000000000000000e+03 3.771259689331054688e+01 1.955721092224121094e+01 -2.351794838905334473e-01 6.245838165283203125e+00 1.803197622299194336e+00 1.815454840660095215e+00
3.013000000000000000e+03 3.743238067626953125e+01 2.035051345825195312e+01 -1.491826325654983521e-01 6.157940387725830078e+00 1.802627444267272949e+00 1.900030732154846191e+00
3.014000000000000000e+03 3.893351364135742188e+01 2.495343399047851562e+01 2.833187282085418701e-01 7.675256729125976562e+00 2.387572526931762695e+00 2.625970125198364258e+00
3.015000000000000000e+03 3.954371643066406250e+01 1.873723220825195312e+01 -5.268098711967468262e-01 6.999962806701660156e+00 1.941945910453796387e+00 1.492457032203674316e+00
3.016000000000000000e+03 4.269580459594726562e+01 2.284645843505859375e+01 -4.998655617237091064e-01 9.304481506347656250e+00 2.641384840011596680e+00 1.065698146820068359e+00
3.017000000000000000e+03 4.104923629760742188e+01 2.437534332275390625e+01 -2.447040528059005737e-01 9.122124671936035156e+00 2.663226366043090820e+00 1.800448060035705566e+00
3.018000000000000000e+03 4.245429229736328125e+01 2.535486602783203125e+01 -2.091627120971679688e-01 1.024946212768554688e+01 3.012089967727661133e+00 1.243544697761535645e+00
3.019000000000000000e+03 3.699745559692382812e+01 2.110520935058593750e+01 2.697636187076568604e-02 5.908027648925781250e+00 1.780501246452331543e+00 2.024041175842285156e+00
3.020000000000000000e+03 3.655707931518554688e+01 2.183660697937011719e+01 1.963394731283187866e-01 5.635228633880615234e+00 1.749470472335815430e+00 2.162142992019653320e+00
3.021000000000000000e+03 3.973980712890625000e+01 1.528680610656738281e+01 -6.681923270225524902e-01 6.677852630615234375e+00 1.802898049354553223e+00 1.181443095207214355e+00
3.022000000000000000e+03 3.945802307128906250e+01 1.659322547912597656e+01 -6.210591197013854980e-01 6.710679531097412109e+00 1.826886177062988281e+00 1.316794753074645996e+00
3.023000000000000000e+03 4.100634002685546875e+01 9.666601181030273438e+00 -7.597635388374328613e-01 6.384355068206787109e+00 1.687377452850341797e+00 7.464011907577514648e-01
3.024000000000000000e+03 4.713568878173828125e+01 2.303239059448242188e+01 -2.638489007949829102e-01 9.751047134399414062e+00 2.846159458160400391e+00 -3.114820122718811035e-01
3.025000000000000000e+03 4.108793640136718750e+01 5.725803375244140625e+00 -7.050480842590332031e-01 6.121407508850097656e+00 1.624907851219177246e+00 5.987170338630676270e-01
3.026000000000000000e+03 4.495145416259765625e+01 2.222412490844726562e+01 -5.286113023757934570e-01 9.509084701538085938e+00 2.694142103195190430e+00 3.347321152687072754e-01
3.027000000000000000e+03 6.107814025878906250e+01 3.779354333877563477e+00 -4.779400527477264404e-01 7.793253421783447266e+00 2.194594144821166992e+00 -6.674818396568298340e-01
3.028000000000000000e+03 4.941016006469726562e+01 2.540962219238281250e+01 4.721064865589141846e-01 9.837325096130371094e+00 3.092829465866088867e+00 -8.945415019989013672e-01
3.029000000000000000e+03 4.008349990844726562e+01 1.444034290313720703e+01 -7.221434116363525391e-01 6.679692268371582031e+00 1.787264704704284668e+00 1.086570024490356445e+00
3.030000000000000000e+03 6.062296295166015625e+01 -4.267518043518066406e+00 -3.942096829414367676e-01 7.616569519042968750e+00 2.166707992553710938e+00 -4.199610650539398193e-01
3.031000000000000000e+03 6.109798812866210938e+01 -6.936997890472412109e+00 -3.442706167697906494e-01 7.596385955810546875e+00 2.175634622573852539e+00 -3.646869659423828125e-01
3.032000000000000000e+03 3.978335571289062500e+01 8.276688575744628906e+00 -7.044423818588256836e-01 6.052001476287841797e+00 1.604267716407775879e+00 7.820386290550231934e-01
3.033000000000000000e+03 6.138185882568359375e+01 -2.063856363296508789e+00 -4.007336199283599854e-01 7.695291042327880859e+00 2.188367128372192383e+00 -4.928973615169525146e-01
3.034000000000000000e+03 6.191223144531250000e+01 1.288265419006347656e+01 -3.653426170349121094e-01 7.964945793151855469e+00 2.279881000518798828e+00 -1.027884721755981445e+00
3.035000000000000000e+03 5.880423355102539062e+01 1.256848144531250000e+01 -4.950607419013977051e-01 8.078844070434570312e+00 2.275135040283203125e+00 -9.380239248275756836e-01
3.036000000000000000e+03 4.011194992065429688e+01 -5.297965526580810547e+00 -4.333507716655731201e-01 5.432075023651123047e+00 1.499617338180541992e+00 3.364064097404479980e-01
3.037000000000000000e+03 6.170386886596679688e+01 6.742149353027343750e+00 -4.586275517940521240e-01 7.870728015899658203e+00 2.223630189895629883e+00 -7.939967513084411621e-01
3.038000000000000000e+03 6.430747222900390625e+01 1.684256553649902344e+01 -1.565974056720733643e-01 7.808006763458251953e+00 2.295422792434692383e+00 -1.143581748008728027e+00
3.039000000000000000e+03 5.948889160156250000e+01 1.835296058654785156e+01 -1.938665807247161865e-01 8.210649490356445312e+00 2.405035018920898438e+00 -1.171821236610412598e+00
3.040000000000000000e+03 5.875199508666992188e+01 1.677473640441894531e+01 -3.169840574264526367e-01 8.226443290710449219e+00 2.372837781906127930e+00 -1.104072451591491699e+00
3.041000000000000000e+03 4.973487854003906250e+01 2.377378654479980469e+01 8.264750242233276367e-02 9.578195571899414062e+00 2.898252964019775391e+00 -8.257560133934020996e-01
3.042000000000000000e+03 5.812900543212890625e+01 1.917514801025390625e+01 -1.702689081430435181e-01 8.346142768859863281e+00 2.452762126922607422e+00 -1.163267135620117188e+00
3.043000000000000000e+03 5.382217025756835938e+01 1.640524864196777344e+01 -5.517540574073791504e-01 8.472531318664550781e+00 2.376233100891113281e+00 -8.137978911399841309e-01
3.044000000000000000e+03 6.257956695556640625e+01 2.286780738830566406e+01 1.733734756708145142e-01 7.901154518127441406e+00 2.422358512878417969e+00 -1.224779367446899414e+00
3.045000000000000000e+03 5.957057952880859375e+01 -1.490648937225341797e+01 -2.524991035461425781e-01 7.371287822723388672e+00 2.135636568069458008e+00 -2.055353373289108276e-01
3.046000000000000000e+03 6.012564086914062500e+01 -2.037071990966796875e+01 -1.779857575893402100e-01 7.379384994506835938e+00 2.160419940948486328e+00 -1.470697969198226929e-01
3.047000000000000000e+03 3.514332199096679688e+01 -2.089954376220703125e+01 -1.303558498620986938e-01 4.547969341278076172e+00 1.325284004211425781e+00 1.392794698476791382e-01
3.048000000000000000e+03 5.794210815429687500e+01 2.533674812316894531e+01 4.977541863918304443e-01 8.476478576660156250e+00 2.692270040512084961e+00 -1.197574019432067871e+00
3.049000000000000000e+03 3.705599975585937500e+01 2.728247451782226562e+01 1.512850642204284668e+00 5.518347740173339844e+00 2.109359502792358398e+00 3.301254987716674805e+00
3.050000000000000000e+03 3.818093490600585938e+01 2.605310821533203125e+01 7.508249282836914062e-01 7.120822429656982422e+00 2.361494302749633789e+00 3.054104328155517578e+00
3.051000000000000000e+03 3.868421173095703125e+01 2.585366439819335938e+01 5.522699952125549316e-01 7.613665580749511719e+00 2.449780702590942383e+00 2.939256906509399414e+00
3.052000000000000000e+03 3.836409378051757812e+01 2.667918205261230469e+01 8.706630468368530273e-01 7.347180843353271484e+00 2.465353250503540039e+00 3.249811887741088867e+00
3.053000000000000000e+03 3.826926040649414062e+01 2.101938438415527344e+01 -1.746570765972137451e-01 6.650762557983398438e+00 1.942831635475158691e+00 1.945714354515075684e+00
3.054000000000000000e+03 3.655266189575195312e+01 2.482194328308105469e+01 8.146027922630310059e-01 5.436870098114013672e+00 1.875441908836364746e+00 2.661094665527343750e+00
3.055000000000000000e+03 3.664232254028320312e+01 2.376188087463378906e+01 5.216131806373596191e-01 5.651057243347167969e+00 1.851801156997680664e+00 2.455972194671630859e+00
3.056000000000000000e+03 3.893180084228515625e+01 2.043136978149414062e+01 -3.243282139301300049e-01 6.919121742248535156e+00 1.978438138961791992e+00 1.778819322586059570e+00
3.057000000000000000e+03 4.387530517578125000e+01 2.324901771545410156e+01 -4.650980532169342041e-01 9.660129547119140625e+00 2.758509635925292969e+00 6.379328966140747070e-01
3.058000000000000000e+03 4.251355361938476562e+01 2.426619338989257812e+01 -3.525024354457855225e-01 9.740580558776855469e+00 2.816423416137695312e+00 1.149311661720275879e+00
3.059000000000000000e+03 4.201385879516601562e+01 2.481837272644042969e+01 -2.739008069038391113e-01 9.865749359130859375e+00 2.877554416656494141e+00 1.445592761039733887e+00
3.060000000000000000e+03 4.136151504516601562e+01 2.521359062194824219e+01 -1.740666925907135010e-01 9.780265808105468750e+00 2.881859779357910156e+00 1.747610569000244141e+00
3.061000000000000000e+03 4.743232345581054688e+01 2.166211318969726562e+01 -4.469784200191497803e-01 9.430143356323242188e+00 2.694949388504028320e+00 -2.703156173229217529e-01
3.062000000000000000e+03 6.031313323974609375e+01 5.545136451721191406e+00 -5.051330327987670898e-01 7.825022697448730469e+00 2.195966958999633789e+00 -7.131755948066711426e-01
3.063000000000000000e+03 3.729030227661132812e+01 2.238152122497558594e+01 1.673209667205810547e-01 6.150864124298095703e+00 1.895455479621887207e+00 2.232743740081787109e+00
3.064000000000000000e+03 4.107844161987304688e+01 1.321471500396728516e+01 -7.821322679519653320e-01 6.801754474639892578e+00 1.805886745452880859e+00 9.003542661666870117e-01
3.065000000000000000e+03 4.247676849365234375e+01 2.187596321105957031e+01 -5.882733464241027832e-01 8.842372894287109375e+00 2.476229906082153320e+00 1.122021317481994629e+00
3.066000000000000000e+03 5.978714752197265625e+01 -1.067830276489257812e+01 -3.072245717048645020e-01 7.445773601531982422e+00 2.141564846038818359e+00 -2.760296463966369629e-01
3.067000000000000000e+03 5.386647415161132812e+01 -1.377783203125000000e+01 -3.295072615146636963e-01 6.843394279479980469e+00 1.954166173934936523e+00 -1.203281506896018982e-01
3.068000000000000000e+03 6.060251235961914062e+01 2.385343790054321289e+00 -4.861797690391540527e-01 7.757892131805419922e+00 2.181513786315917969e+00 -6.156798601150512695e-01
3.069000000000000000e+03 5.930613327026367188e+01 8.462866783142089844e+00 -5.408484935760498047e-01 7.920219421386718750e+00 2.213811159133911133e+00 -7.952589988708496094e-01
3.070000000000000000e+03 6.049227142333984375e+01 6.935477256774902344e+00 -5.040175914764404297e-01 7.869513988494873047e+00 2.209648847579956055e+00 -7.706452012062072754e-01
3.071000000000000000e+03 6.041962814331054688e+01 -7.774207115173339844e+00 -3.423976004123687744e-01 7.533413887023925781e+00 2.157305002212524414e+00 -3.352620005607604980e-01
3.072000000000000000e+03 4.222488021850585938e+01 1.300738716125488281e+01 -8.295949697494506836e-01 7.051561355590820312e+00 1.866590023040771484e+00 7.617356181144714355e-01
3.073000000000000000e+03 4.089480590820312500e+01 1.201461696624755859e+01 -7.697800993919372559e-01 6.650664329528808594e+00 1.764265298843383789e+00 8.569230437278747559e-01
3.074000000000000000e+03 5.995758438110351562e+01 4.300246715545654297e+00 -5.187709927558898926e-01 7.786185741424560547e+00 2.180224418640136719e+00 -6.591085195541381836e-01
3.075000000000000000e+03 5.271256637573242188e+01 2.240254974365234375e+01 9.854088537395000458e-03 9.045043945312500000e+00 2.716469287872314453e+00 -1.023373007774353027e+00
3.076000000000000000e+03 5.119362640380859375e+01 2.398254394531250000e+01 2.246319949626922607e-01 9.377175331115722656e+00 2.880542039871215820e+00 -9.864442348480224609e-01
3.077000000000000000e+03 6.572010803222656250e+01 -2.213549423217773438e+01 -1.006278321146965027e-01 7.940685272216796875e+00 2.352017164230346680e+00 -1.349183171987533569e-01
3.078000000000000000e+03 6.134101867675781250e+01 1.153033924102783203e+01 -4.167315959930419922e-01 7.967616558074951172e+00 2.265265464782714844e+00 -9.746272563934326172e-01
3.079000000000000000e+03 6.384636688232421875e+01 1.182744407653808594e+01 -3.177201449871063232e-01 7.866698265075683594e+00 2.264693498611450195e+00 -1.000855803489685059e+00
3.080000000000000000e+03 6.141824722290039062e+01 1.505949592590332031e+01 -3.109750449657440186e-01 8.016243934631347656e+00 2.311580657958984375e+00 -1.100409030914306641e+00
3.081000000000000000e+03 6.291429519653320312e+01 1.218053436279296875e+01 -3.447663486003875732e-01 7.916241168975830078e+00 2.271442413330078125e+00 -1.019183635711669922e+00
3.082000000000000000e+03 6.367556762695312500e+01 1.300915336608886719e+01 -2.962505817413330078e-01 7.876324176788330078e+00 2.274022102355957031e+00 -1.044608592987060547e+00
3.083000000000000000e+03 5.787654113769531250e+01 -1.239656925201416016e+01 -3.156611621379852295e-01 7.258841514587402344e+00 2.082954168319702148e+00 -2.152981460094451904e-01
3.084000000000000000e+03 5.870927047729492188e+01 1.102238941192626953e+01 -5.414748787879943848e-01 8.023780822753906250e+00 2.244691610336303711e+00 -8.708145618438720703e-01
3.085000000000000000e+03 4.763099670410156250e+01 2.028123855590820312e+01 -5.862393379211425781e-01 9.142964363098144531e+00 2.567017555236816406e+00 -2.194895297288894653e-01
3.086000000000000000e+03 5.791279220581054688e+01 1.517626476287841797e+01 -4.382556378841400146e-01 8.214341163635253906e+00 2.332825660705566406e+00 -1.007858753204345703e+00
3.087000000000000000e+03 5.956405639648437500e+01 -1.757471656799316406e+01 -2.116291075944900513e-01 7.339835166931152344e+00 2.138461828231811523e+00 -1.723071634769439697e-01
3.088000000000000000e+03 6.258255767822265625e+01 -2.509700393676757812e+01 -1.086612716317176819e-01 7.618662357330322266e+00 2.253000259399414062e+00 -1.054646074771881104e-01
3.089000000000000000e+03 4.137835311889648438e+01 -1.329689884185791016e+01 -3.077783882617950439e-01 5.443456172943115234e+00 1.540703296661376953e+00 1.653983891010284424e-01
3.090000000000000000e+03 3.761065673828125000e+01 -8.243659973144531250e+00 -3.197858631610870361e-01 4.993978500366210938e+00 1.402257680892944336e+00 3.230154216289520264e-01
3.091000000000000000e+03 4.369658279418945312e+01 -4.388964176177978516e+00 -5.256735682487487793e-01 6.000698089599609375e+00 1.642507314682006836e+00 2.258947938680648804e-01
3.092000000000000000e+03 4.538960647583007812e+01 -1.206990838050842285e+00 -6.278941631317138672e-01 6.379185676574707031e+00 1.725387454032897949e+00 1.843418329954147339e-01
3.093000000000000000e+03 4.048172760009765625e+01 3.528186559677124023e+00 -6.389129757881164551e-01 5.862365245819091797e+00 1.567035675048828125e+00 5.651782155036926270e-01
3.094000000000000000e+03 4.231300735473632812e+01 -2.522028684616088867e+00 -5.498167872428894043e-01 5.882712364196777344e+00 1.599868655204772949e+00 3.210381865501403809e-01
3.095000000000000000e+03 6.514570617675781250e+01 2.972343826293945312e+01 4.914498329162597656e-01 7.414680957794189453e+00 2.371839284896850586e+00 -9.239660501480102539e-01
3.096000000000000000e+03 6.150761032104492188e+01 2.720697784423828125e+01 5.512456297874450684e-01 7.986597537994384766e+00 2.561352968215942383e+00 -1.128357648849487305e+00
3.097000000000000000e+03 3.724507141113281250e+01 2.649585151672363281e+01 1.177142858505249023e+00 5.894894123077392578e+00 2.121611118316650391e+00 3.148133277893066406e+00
3.098000000000000000e+03 3.706109619140625000e+01 2.546335029602050781e+01 8.962550163269042969e-01 5.867636680603027344e+00 2.029167652130126953e+00 2.866743326187133789e+00
3.099000000000000000e+03 3.790339279174804688e+01 2.541262626647949219e+01 6.531814336776733398e-01 6.779397010803222656e+00 2.229773521423339844e+00 2.893033504486083984e+00
3.100000000000000000e+03 3.775102615356445312e+01 2.171831703186035156e+01 -1.925683207809925079e-02 6.380818843841552734e+00 1.908468604087829590e+00 2.093435764312744141e+00
3.101000000000000000e+03 4.037627792358398438e+01 2.487419128417968750e+01 -6.963286548852920532e-02 8.926613807678222656e+00 2.657094478607177734e+00 2.174895763397216797e+00
3.102000000000000000e+03 3.601320266723632812e+01 2.339775848388671875e+01 5.452142953872680664e-01 5.166909694671630859e+00 1.713637113571166992e+00 2.339258193969726562e+00
3.103000000000000000e+03 3.763441848754882812e+01 2.469542884826660156e+01 5.479840636253356934e-01 6.484504699707031250e+00 2.109746694564819336e+00 2.685891389846801758e+00
3.104000000000000000e+03 4.182476425170898438e+01 2.403619766235351562e+01 -3.491326868534088135e-01 9.402233123779296875e+00 2.715930223464965820e+00 1.467733383178710938e+00
3.105000000000000000e+03 4.228081512451171875e+01 2.084635353088378906e+01 -6.262860298156738281e-01 8.484724998474121094e+00 2.357531785964965820e+00 1.112637162208557129e+00
3.106000000000000000e+03 4.352639770507812500e+01 2.250119209289550781e+01 -5.439306497573852539e-01 9.363444328308105469e+00 2.645853996276855469e+00 7.663784027099609375e-01
3.107000000000000000e+03 4.627857971191406250e+01 2.135067749023437500e+01 -5.568796992301940918e-01 9.360331535339355469e+00 2.641035556793212891e+00 1.558886282145977020e-02
3.108000000000000000e+03 5.927283859252929688e+01 1.429996585845947266e+01 -4.214780628681182861e-01 8.119256019592285156e+00 2.309333324432373047e+00 -1.022154211997985840e+00
3.109000000000000000e+03 3.953984069824218750e+01 2.118761634826660156e+01 -3.414471745491027832e-01 7.386184692382812500e+00 2.113421201705932617e+00 1.795616984367370605e+00
3.110000000000000000e+03 5.920149993896484375e+01 5.742931842803955078e+00 -5.517504811286926270e-01 7.816285133361816406e+00 2.179360389709472656e+00 -6.828259229660034180e-01
3.111000000000000000e+03 4.192063140869140625e+01 1.091099071502685547e+01 -8.093358874320983887e-01 6.753980636596679688e+00 1.783393383026123047e+00 6.959953904151916504e-01
3.112000000000000000e+03 4.161196517944335938e+01 8.731699943542480469e+00 -7.794474363327026367e-01 6.457648277282714844e+00 1.703460335731506348e+00 6.626922488212585449e-01
3.113000000000000000e+03 4.198149871826171875e+01 9.832581520080566406e+00 -8.100824356079101562e-01 6.686824798583984375e+00 1.763022661209106445e+00 6.639146804809570312e-01
3.114000000000000000e+03 3.822389602661132812e+01 6.659195899963378906e+00 -6.095390915870666504e-01 5.587872505187988281e+00 1.493499994277954102e+00 8.041421771049499512e-01
3.115000000000000000e+03 3.922608184814453125e+01 7.211751937866210938e+00 -6.611404418945312500e-01 5.839549541473388672e+00 1.553522706031799316e+00 7.604853510856628418e-01
3.116000000000000000e+03 5.802199935913085938e+01 3.551138877868652344e+00 -5.703595876693725586e-01 7.709882259368896484e+00 2.141856908798217773e+00 -5.709416866302490234e-01
3.117000000000000000e+03 3.851360702514648438e+01 1.964445495605468750e+01 -3.285125195980072021e-01 6.609275341033935547e+00 1.884228825569152832e+00 1.724388599395751953e+00
3.118000000000000000e+03 3.911168670654296875e+01 1.930266189575195312e+01 -4.505964517593383789e-01 6.932050228118896484e+00 1.944436192512512207e+00 1.613047957420349121e+00
3.119000000000000000e+03 4.420488357543945312e+01 1.967693138122558594e+01 -7.500764727592468262e-01 8.704298973083496094e+00 2.386266708374023438e+00 5.885360836982727051e-01
3.120000000000000000e+03 5.806512069702148438e+01 8.155165672302246094e+00 -5.912351608276367188e-01 7.901647090911865234e+00 2.193123579025268555e+00 -7.306697368621826172e-01
3.121000000000000000e+03 4.178714752197265625e+01 1.713799858093261719e+01 -7.575307488441467285e-01 7.533694744110107422e+00 2.032849073410034180e+00 1.018087148666381836e+00
3.122000000000000000e+03 4.275769424438476562e+01 1.142004871368408203e+01 -8.473610877990722656e-01 6.982874393463134766e+00 1.840654015541076660e+00 6.406005024909973145e-01
3.123000000000000000e+03 6.012294387817382812e+01 -1.913966655731201172e+00 -4.328683316707611084e-01 7.632373332977294922e+00 2.159851551055908203e+00 -4.727606475353240967e-01
3.124000000000000000e+03 5.950724411010742188e+01 -5.041373252868652344e+00 -4.020376205444335938e-01 7.524316310882568359e+00 2.136683702468872070e+00 -3.799161612987518311e-01
3.125000000000000000e+03 5.417529296875000000e+01 2.227656555175781250e+01 5.078164115548133850e-02 8.865340232849121094e+00 2.674836635589599609e+00 -1.105620861053466797e+00
3.126000000000000000e+03 5.429568862915039062e+01 2.399039649963378906e+01 3.218154609203338623e-01 8.911845207214355469e+00 2.770098209381103516e+00 -1.149133324623107910e+00
3.127000000000000000e+03 5.767021560668945312e+01 2.334987449645996094e+01 2.587496936321258545e-01 8.485033988952636719e+00 2.623135089874267578e+00 -1.219063401222229004e+00
3.128000000000000000e+03 5.370154953002929688e+01 1.932189178466796875e+01 -3.329245746135711670e-01 8.731464385986328125e+00 2.519562005996704102e+00 -9.473865032196044922e-01
3.129000000000000000e+03 4.375111007690429688e+01 -2.850367784500122070e+00 -5.641212463378906250e-01 6.071616172790527344e+00 1.652248501777648926e+00 2.469864040613174438e-01
3.130000000000000000e+03 5.813541030883789062e+01 -1.029068470001220703e+01 -3.372974097728729248e-01 7.321619987487792969e+00 2.095296859741210938e+00 -2.556275725364685059e-01
3.131000000000000000e+03 6.034740447998046875e+01 -6.057604312896728516e+00 -3.710165023803710938e-01 7.560402870178222656e+00 2.156816005706787109e+00 -3.732258677482604980e-01
3.132000000000000000e+03 5.951760864257812500e+01 2.274860763549804688e+01 1.832649558782577515e-01 8.254443168640136719e+00 2.531312465667724609e+00 -1.237767815589904785e+00
3.133000000000000000e+03 6.195887756347656250e+01 2.503980827331542969e+01 3.577169477939605713e-01 7.945999622344970703e+00 2.491114854812622070e+00 -1.191507458686828613e+00
3.134000000000000000e+03 4.050350189208984375e+01 2.253239250183105469e+01 -3.471575081348419189e-01 8.200201034545898438e+00 2.355912923812866211e+00 1.775989413261413574e+00
3.135000000000000000e+03 3.842000198364257812e+01 2.517730903625488281e+01 4.565724432468414307e-01 7.263888359069824219e+00 2.316138267517089844e+00 2.768465042114257812e+00
3.136000000000000000e+03 3.868946456909179688e+01 2.432507514953613281e+01 2.250631153583526611e-01 7.363526821136474609e+00 2.276576995849609375e+00 2.510893821716308594e+00
3.137000000000000000e+03 3.746212768554687500e+01 2.573672866821289062e+01 8.618264794349670410e-01 6.285861492156982422e+00 2.144306421279907227e+00 2.950672388076782227e+00
3.138000000000000000e+03 3.893510437011718750e+01 2.176378059387207031e+01 -1.991372555494308472e-01 7.141480445861816406e+00 2.082703113555908203e+00 1.976017475128173828e+00
3.139000000000000000e+03 4.403627777099609375e+01 2.185623168945312500e+01 -5.979569554328918457e-01 9.270966529846191406e+00 2.601902723312377930e+00 6.261223554611206055e-01
3.140000000000000000e+03 3.692434310913085938e+01 2.306295585632324219e+01 3.501976430416107178e-01 5.889933586120605469e+00 1.872039318084716797e+00 2.375036954879760742e+00
3.141000000000000000e+03 4.530875396728515625e+01 1.983095741271972656e+01 -7.212232947349548340e-01 8.912380218505859375e+00 2.457347154617309570e+00 3.066919147968292236e-01
3.142000000000000000e+03 4.519034194946289062e+01 2.105973815917968750e+01 -6.387266516685485840e-01 9.196709632873535156e+00 2.567394971847534180e+00 3.068111240863800049e-01
3.143000000000000000e+03 4.331990051269531250e+01 1.254646301269531250e+01 -8.613870143890380859e-01 7.219919204711914062e+00 1.907559752464294434e+00 5.949632525444030762e-01
3.144000000000000000e+03 4.191036605834960938e+01 1.190850257873535156e+01 -8.158292770385742188e-01 6.851696014404296875e+00 1.810760021209716797e+00 7.515246272087097168e-01
3.145000000000000000e+03 4.589771270751953125e+01 1.251267623901367188e+01 -8.973138332366943359e-01 7.669454097747802734e+00 2.031641960144042969e+00 2.511559128761291504e-01
3.146000000000000000e+03 4.036329269409179688e+01 1.926807022094726562e+01 -5.737902522087097168e-01 7.457286357879638672e+00 2.065048933029174805e+00 1.406095385551452637e+00
3.147000000000000000e+03 3.986510467529296875e+01 1.808762550354003906e+01 -5.746977925300598145e-01 7.030767917633056641e+00 1.936821103096008301e+00 1.398099184036254883e+00
3.148000000000000000e+03 4.181530761718750000e+01 2.306440162658691406e+01 -4.484542310237884521e-01 9.032681465148925781e+00 2.575268268585205078e+00 1.397106885910034180e+00
3.149000000000000000e+03 3.967360687255859375e+01 1.991721343994140625e+01 -4.626927971839904785e-01 7.264398097991943359e+00 2.040511608123779297e+00 1.590173482894897461e+00
3.150000000000000000e+03 4.644616699218750000e+01 2.004644775390625000e+01 -6.724364161491394043e-01 9.058218955993652344e+00 2.515734910964965820e+00 4.197859019041061401e-02
3.151000000000000000e+03 4.913238525390625000e+01 1.771251106262207031e+01 -7.057633996009826660e-01 8.724776268005371094e+00 2.405704021453857422e+00 -3.399533033370971680e-01
3.152000000000000000e+03 4.152910614013671875e+01 1.581991291046142578e+01 -7.704431414604187012e-01 7.249143123626708984e+00 1.943609952926635742e+00 9.829328060150146484e-01
3.153000000000000000e+03 4.170771408081054688e+01 2.205286788940429688e+01 -5.126755833625793457e-01 8.613313674926757812e+00 2.430191516876220703e+00 1.331806659698486328e+00
3.154000000000000000e+03 4.255800628662109375e+01 1.428051567077636719e+01 -8.391879796981811523e-01 7.314368247985839844e+00 1.942554116249084473e+00 7.615258097648620605e-01
3.155000000000000000e+03 4.186794662475585938e+01 1.844556427001953125e+01 -7.142646312713623047e-01 7.813191890716552734e+00 2.129678249359130859e+00 1.072550535202026367e+00
3.156000000000000000e+03 4.417031097412109375e+01 2.083268928527832031e+01 -6.803593039512634277e-01 9.014229774475097656e+00 2.500161170959472656e+00 5.841401815414428711e-01
3.157000000000000000e+03 5.974522018432617188e+01 1.066533184051513672e+01 -5.025462508201599121e-01 7.991033077239990234e+00 2.246546030044555664e+00 -8.949259519577026367e-01
3.158000000000000000e+03 5.616856002807617188e+01 5.877092838287353516e+00 -6.495853662490844727e-01 7.756259918212890625e+00 2.132002353668212891e+00 -5.635196566581726074e-01
3.159000000000000000e+03 5.769615554809570312e+01 1.260521411895751953e+00 -5.559760332107543945e-01 7.606544971466064453e+00 2.115170717239379883e+00 -4.895544350147247314e-01
3.160000000000000000e+03 5.913765335083007812e+01 3.634024143218994141e+00 -5.395222902297973633e-01 7.752264976501464844e+00 2.163822889328002930e+00 -6.172453165054321289e-01
3.161000000000000000e+03 5.896435928344726562e+01 9.795994758605957031e+00 -5.400676131248474121e-01 7.964888095855712891e+00 2.227446079254150391e+00 -8.309998512268066406e-01
3.162000000000000000e+03 5.779658126831054688e+01 9.454530715942382812e+00 -5.900596976280212402e-01 7.955298423767089844e+00 2.209571599960327148e+00 -7.687696218490600586e-01
3.163000000000000000e+03 5.012360382080078125e+01 2.071044921875000000e+01 -3.809180855751037598e-01 9.133089065551757812e+00 2.625651359558105469e+00 -6.604366302490234375e-01
3.164000000000000000e+03 4.995502853393554688e+01 2.221164512634277344e+01 -1.834406703710556030e-01 9.344589233398437500e+00 2.748344659805297852e+00 -7.346513867378234863e-01
3.165000000000000000e+03 4.384324264526367188e+01 1.393297576904296875e+01 -8.768097758293151855e-01 7.531415939331054688e+00 1.996381878852844238e+00 5.535153150558471680e-01
3.166000000000000000e+03 6.014884185791015625e+01 1.211824989318847656e+01 -4.470204412937164307e-01 8.019691467285156250e+00 2.271801233291625977e+00 -9.708358645439147949e-01
3.167000000000000000e+03 5.265841674804687500e+01 2.090575027465820312e+01 -2.097923159599304199e-01 8.934615135192871094e+00 2.617446899414062500e+00 -9.444458484649658203e-01
3.168000000000000000e+03 5.137721633911132812e+01 2.088042831420898438e+01 -2.829072475433349609e-01 9.047887802124023438e+00 2.629494190216064453e+00 -8.141401410102844238e-01
3.169000000000000000e+03 4.094371032714843750e+01 7.620256900787353516e+00 -7.408901453018188477e-01 6.254836559295654297e+00 1.654183864593505859e+00 6.734333634376525879e-01
3.170000000000000000e+03 4.268787384033203125e+01 8.431956291198730469e+00 -8.006066083908081055e-01 6.602986812591552734e+00 1.740714073181152344e+00 5.670046806335449219e-01
3.171000000000000000e+03 5.492458724975585938e+01 1.890615844726562500e+01 -3.166275620460510254e-01 8.599298477172851562e+00 2.484801292419433594e+00 -1.012008309364318848e+00
3.172000000000000000e+03 5.265369415283203125e+01 2.586270141601562500e+01 6.636245846748352051e-01 9.214689254760742188e+00 2.963494300842285156e+00 -1.106760859489440918e+00
3.173000000000000000e+03 5.442021560668945312e+01 -9.157387733459472656e+00 -4.146424829959869385e-01 7.024805068969726562e+00 1.983048796653747559e+00 -1.809039413928985596e-01
3.174000000000000000e+03 6.010084915161132812e+01 -3.260859727859497070e+00 -4.211293756961822510e-01 7.604611873626708984e+00 2.155044794082641602e+00 -4.375086724758148193e-01
3.175000000000000000e+03 6.417335510253906250e+01 -2.699814605712890625e+01 -8.912356942892074585e-02 7.785667896270751953e+00 2.308963298797607422e+00 -8.633439987897872925e-02
3.176000000000000000e+03 5.338862228393554688e+01 -1.604775619506835938e+01 -2.926349937915802002e-01 6.748023033142089844e+00 1.936616420745849609e+00 -9.332031756639480591e-02
3.177000000000000000e+03 4.009887695312500000e+01 6.444666385650634766e+00 -6.811900734901428223e-01 5.954266548156738281e+00 1.581922888755798340e+00 6.862094402313232422e-01
3.178000000000000000e+03 5.863446426391601562e+01 -8.518060684204101562e+00 -3.629969358444213867e-01 7.387905120849609375e+00 2.107472419738769531e+00 -2.917213141918182373e-01
3.179000000000000000e+03 5.584931945800781250e+01 1.499297809600830078e+01 -5.306871533393859863e-01 8.298355102539062500e+00 2.330300331115722656e+00 -8.952716588973999023e-01
3.180000000000000000e+03 5.803875350952148438e+01 -2.183858108520507812e+01 -1.823205649852752686e-01 7.159546852111816406e+00 2.093167781829833984e+00 -1.182833760976791382e-01
3.181000000000000000e+03 6.079944229125976562e+01 -2.689986991882324219e+01 -1.195308342576026917e-01 7.439650058746337891e+00 2.196035861968994141e+00 -8.752573281526565552e-02
3.182000000000000000e+03 4.391194534301757812e+01 -1.215317845344543457e+00 -6.083094477653503418e-01 6.186423778533935547e+00 1.673434257507324219e+00 2.638618946075439453e-01
3.183000000000000000e+03 4.076567459106445312e+01 1.834457206726074219e+01 -6.516463160514831543e-01 7.441045284271240234e+00 2.036819696426391602e+00 1.270256400108337402e+00
3.184000000000000000e+03 3.839885330200195312e+01 2.240357398986816406e+01 -2.157918363809585571e-02 6.869353294372558594e+00 2.054332256317138672e+00 2.142504453659057617e+00
3.185000000000000000e+03 3.900536346435546875e+01 2.302195930480957031e+01 -6.062027439475059509e-02 7.355890274047851562e+00 2.188580989837646484e+00 2.196999311447143555e+00
3.186000000000000000e+03 4.000493621826171875e+01 2.419641685485839844e+01 -9.132134169340133667e-02 8.402617454528808594e+00 2.493388891220092773e+00 2.178040027618408203e+00
3.187000000000000000e+03 3.816597366333007812e+01 2.444701766967773438e+01 3.682653605937957764e-01 6.969838142395019531e+00 2.201431035995483398e+00 2.628627061843872070e+00
3.188000000000000000e+03 4.070583343505859375e+01 2.143631553649902344e+01 -4.725084006786346436e-01 8.033667564392089844e+00 2.268347740173339844e+00 1.558732032775878906e+00
3.189000000000000000e+03 3.955665588378906250e+01 2.358155822753906250e+01 -8.125889301300048828e-02 7.935188293457031250e+00 2.356178760528564453e+00 2.168382644653320312e+00
3.190000000000000000e+03 4.420423507690429688e+01 1.841012191772460938e+01 -7.975024580955505371e-01 8.406864166259765625e+00 2.282808542251586914e+00 5.726496577262878418e-01
3.191000000000000000e+03 4.145018005371093750e+01 2.108531761169433594e+01 -5.752986669540405273e-01 8.273863792419433594e+00 2.309569597244262695e+00 1.325645446777343750e+00
3.192000000000000000e+03 4.024281692504882812e+01 2.064691352844238281e+01 -4.851479530334472656e-01 7.619202136993408203e+00 2.140216350555419922e+00 1.589629292488098145e+00
3.193000000000000000e+03 4.294815444946289062e+01 9.548225402832031250e+00 -8.273786306381225586e-01 6.784735202789306641e+00 1.787206888198852539e+00 5.759952068328857422e-01
3.194000000000000000e+03 4.103386306762695312e+01 2.297064590454101562e+01 -3.826611042022705078e-01 8.659375190734863281e+00 2.483014345169067383e+00 1.651649355888366699e+00
3.195000000000000000e+03 4.104495620727539062e+01 2.008192062377929688e+01 -5.945913791656494141e-01 7.861724853515625000e+00 2.180140018463134766e+00 1.346065759658813477e+00
3.196000000000000000e+03 4.311360549926757812e+01 1.962723922729492188e+01 -7.281411886215209961e-01 8.435338020324707031e+00 2.312159061431884766e+00 8.474504947662353516e-01
3.197000000000000000e+03 4.060193252563476562e+01 2.365577697753906250e+01 -2.541376650333404541e-01 8.636685371398925781e+00 2.514764308929443359e+00 1.867419242858886719e+00
3.198000000000000000e+03 4.902751159667968750e+01 1.908156967163085938e+01 -6.160418391227722168e-01 8.922880172729492188e+00 2.492051362991333008e+00 -3.949829041957855225e-01
3.199000000000000000e+03 3.788713073730468750e+01 2.294546890258789062e+01 1.325656026601791382e-01 6.598453521728515625e+00 2.019305706024169922e+00 2.310194730758666992e+00
3.200000000000000000e+03 3.950630187988281250e+01 2.242932319641113281e+01 -2.170789390802383423e-01 7.585961818695068359e+00 2.210664749145507812e+00 1.979210257530212402e+00
3.201000000000000000e+03 4.777465057373046875e+01 1.890488433837890625e+01 -6.953407526016235352e-01 8.883346557617187500e+00 2.456401824951171875e+00 -1.745925992727279663e-01
3.202000000000000000e+03 5.724018096923828125e+01 2.152814292907714844e+01 2.937041036784648895e-02 8.493196487426757812e+00 2.556770086288452148e+00 -1.195493459701538086e+00
3.203000000000000000e+03 5.593894195556640625e+01 2.376021766662597656e+01 3.047484755516052246e-01 8.700572967529296875e+00 2.701596498489379883e+00 -1.189904570579528809e+00
3.204000000000000000e+03 4.368796157836914062e+01 1.056915950775146484e+01 -8.557461500167846680e-01 7.064745903015136719e+00 1.862699866294860840e+00 5.065869688987731934e-01
3.205000000000000000e+03 5.440851974487304688e+01 1.758907127380371094e+01 -4.504107832908630371e-01 8.549510955810546875e+00 2.429730176925659180e+00 -9.149153232574462891e-01
3.206000000000000000e+03 5.892434310913085938e+01 -3.486000597476959229e-01 -5.007152557373046875e-01 7.611758708953857422e+00 2.133312940597534180e+00 -4.828442931175231934e-01
3.207000000000000000e+03 5.725278472900390625e+01 -1.820323944091796875e+00 -5.098349452018737793e-01 7.474563121795654297e+00 2.089418411254882812e+00 -3.976750373840332031e-01
3.208000000000000000e+03 5.659603118896484375e+01 9.064114570617675781e+00 -6.410143971443176270e-01 7.933319568634033203e+00 2.187691688537597656e+00 -6.928603649139404297e-01
3.209000000000000000e+03 3.945695114135742188e+01 5.128362178802490234e+00 -6.309511065483093262e-01 5.750990867614746094e+00 1.536011934280395508e+00 6.686052083969116211e-01
3.210000000000000000e+03 4.060100555419921875e+01 4.758023262023925781e+00 -6.674253940582275391e-01 5.959234714508056641e+00 1.587542772293090820e+00 5.958847999572753906e-01
3.211000000000000000e+03 4.536925125122070312e+01 1.852617835998535156e+01 -7.957220673561096191e-01 8.624294281005859375e+00 2.348571538925170898e+00 3.237378299236297607e-01
3.212000000000000000e+03 4.281467819213867188e+01 1.565915393829345703e+01 -8.333172798156738281e-01 7.552217006683349609e+00 2.015669822692871094e+00 7.715547680854797363e-01
3.213000000000000000e+03 5.610249328613281250e+01 2.570639610290527344e+01 5.872798562049865723e-01 8.702255249023437500e+00 2.786860466003417969e+00 -1.177502989768981934e+00
3.214000000000000000e+03 5.880068588256835938e+01 -3.707256317138671875e+00 -4.425820410251617432e-01 7.513758182525634766e+00 2.121352910995483398e+00 -3.951963782310485840e-01
3.215000000000000000e+03 5.831717681884765625e+01 -6.116399288177490234e+00 -4.099635183811187744e-01 7.423107624053955078e+00 2.103943109512329102e+00 -3.317106962203979492e-01
3.216000000000000000e+03 5.746339797973632812e+01 1.761352729797363281e+01 -3.150514364242553711e-01 8.341600418090820312e+00 2.407964468002319336e+00 -1.084486126899719238e+00
3.217000000000000000e+03 5.674052047729492188e+01 1.985811424255371094e+01 -1.553842276334762573e-01 8.488314628601074219e+00 2.499879121780395508e+00 -1.137435555458068848e+00
3.218000000000000000e+03 4.130942535400390625e+01 -3.879354476928710938e+00 -4.941946268081665039e-01 5.677922248840332031e+00 1.555118203163146973e+00 3.294764757156372070e-01
3.219000000000000000e+03 4.537767791748046875e+01 -2.920989274978637695e+00 -5.798659324645996094e-01 6.299246788024902344e+00 1.715814232826232910e+00 1.629232466220855713e-01
3.220000000000000000e+03 4.527691650390625000e+01 5.365279316902160645e-01 -6.718253493309020996e-01 6.477171421051025391e+00 1.741603851318359375e+00 2.101327180862426758e-01
3.221000000000000000e+03 5.989823532104492188e+01 2.700458335876464844e+01 6.203711628913879395e-01 8.210876464843750000e+00 2.649374246597290039e+00 -1.123695254325866699e+00
3.222000000000000000e+03 5.622586441040039062e+01 2.788195419311523438e+01 9.058474302291870117e-01 8.718587875366210938e+00 2.887330770492553711e+00 -1.087721943855285645e+00
3.223000000000000000e+03 3.916888427734375000e+01 3.693429231643676758e+00 -5.994209647178649902e-01 5.613906383514404297e+00 1.504345655441284180e+00 6.380106806755065918e-01
3.224000000000000000e+03 4.024475860595703125e+01 8.873139023780822754e-01 -5.770827531814575195e-01 5.701234817504882812e+00 1.537245512008666992e+00 4.916572868824005127e-01
3.225000000000000000e+03 5.488874435424804688e+01 -1.858927154541015625e+01 -2.488432377576828003e-01 6.869924545288085938e+00 1.986324429512023926e+00 -1.085299327969551086e-01
3.226000000000000000e+03 5.605391311645507812e+01 -1.196979045867919922e+01 -3.412792086601257324e-01 7.096118927001953125e+00 2.026451826095581055e+00 -1.860407143831253052e-01
3.227000000000000000e+03 3.912446212768554688e+01 2.405488777160644531e+01 6.762236356735229492e-02 7.688805580139160156e+00 2.326928377151489258e+00 2.361195325851440430e+00
3.228000000000000000e+03 4.201947402954101562e+01 1.971069145202636719e+01 -6.762134432792663574e-01 8.114994049072265625e+00 2.231634140014648438e+00 1.119779825210571289e+00
3.229000000000000000e+03 4.005986785888671875e+01 2.189053344726562500e+01 -3.473216295242309570e-01 7.793076992034912109e+00 2.233726739883422852e+00 1.796890497207641602e+00
3.230000000000000000e+03 4.319951248168945312e+01 2.075064468383789062e+01 -6.756414175033569336e-01 8.734052658081054688e+00 2.417523384094238281e+00 8.827828168869018555e-01
3.231000000000000000e+03 4.003960037231445312e+01 2.305427169799804688e+01 -2.346607744693756104e-01 8.038372039794921875e+00 2.341113328933715820e+00 1.957277059555053711e+00
3.232000000000000000e+03 4.102876663208007812e+01 2.220678138732910156e+01 -4.614126980304718018e-01 8.439700126647949219e+00 2.393486261367797852e+00 1.546285033226013184e+00
3.233000000000000000e+03 5.689062500000000000e+01 7.751110076904296875e+00 -6.348435282707214355e-01 7.866294860839843750e+00 2.169435262680053711e+00 -6.598564982414245605e-01
3.234000000000000000e+03 5.824740982055664062e+01 6.953258037567138672e+00 -5.835029482841491699e-01 7.858684062957763672e+00 2.182554244995117188e+00 -6.987760663032531738e-01
3.235000000000000000e+03 5.755804824829101562e+01 1.083834743499755859e+01 -5.805569887161254883e-01 8.024491310119628906e+00 2.233180284500122070e+00 -8.173607587814331055e-01
3.236000000000000000e+03 4.655752182006835938e+01 1.870618629455566406e+01 -7.504986524581909180e-01 8.780601501464843750e+00 2.409030914306640625e+00 6.652601063251495361e-02
3.237000000000000000e+03 4.789699935913085938e+01 1.755237388610839844e+01 -7.628147006034851074e-01 8.654428482055664062e+00 2.367484092712402344e+00 -1.443089842796325684e-01
3.238000000000000000e+03 4.407184982299804688e+01 7.669034957885742188e+00 -8.232569694519042969e-01 6.818939208984375000e+00 1.798704624176025391e+00 4.210341870784759521e-01
3.239000000000000000e+03 4.308470535278320312e+01 7.144037723541259766e+00 -8.009360432624816895e-01 6.605684280395507812e+00 1.741424560546875000e+00 5.041934251785278320e-01
3.240000000000000000e+03 4.414642333984375000e+01 1.549658107757568359e+01 -8.709923028945922852e-01 7.835788249969482422e+00 2.089438915252685547e+00 5.375938415527343750e-01
3.241000000000000000e+03 5.679522323608398438e+01 1.390024471282958984e+01 -5.326841473579406738e-01 8.199932098388671875e+00 2.300174474716186523e+00 -9.029427766799926758e-01
3.242000000000000000e+03 5.599679565429687500e+01 1.181609344482421875e+01 -6.322163343429565430e-01 8.106431007385253906e+00 2.242264270782470703e+00 -7.691534757614135742e-01
3.243000000000000000e+03 5.256486511230468750e+01 1.961047172546386719e+01 -3.547978699207305908e-01 8.838065147399902344e+00 2.544980287551879883e+00 -8.720178008079528809e-01
3.244000000000000000e+03 5.150978851318359375e+01 1.950381660461425781e+01 -4.344943463802337646e-01 8.883994102478027344e+00 2.534849882125854492e+00 -7.478191852569580078e-01
3.245000000000000000e+03 4.498939514160156250e+01 1.324081897735595703e+01 -8.962129950523376465e-01 7.653710842132568359e+00 2.027249336242675781e+00 3.843171596527099609e-01
3.246000000000000000e+03 4.550744247436523438e+01 1.561921977996826172e+01 -8.814969658851623535e-01 8.076073646545410156e+00 2.158373117446899414e+00 3.213368356227874756e-01
3.247000000000000000e+03 4.304067230224609375e+01 1.838728332519531250e+01 -7.776532769203186035e-01 8.152767181396484375e+00 2.212534189224243164e+00 8.287434577941894531e-01
3.248000000000000000e+03 5.568548965454101562e+01 2.199118232727050781e+01 5.615083128213882446e-02 8.679110527038574219e+00 2.620578527450561523e+00 -1.154859781265258789e+00
3.249000000000000000e+03 4.508226776123046875e+01 2.290656566619873047e+00 -7.164700031280517578e-01 6.572387695312500000e+00 1.756775379180908203e+00 2.358089387416839600e-01
3.250000000000000000e+03 5.713315963745117188e+01 -7.595288753509521484e+00 -4.085087478160858154e-01 7.288648605346679688e+00 2.064042091369628906e+00 -2.716667354106903076e-01
3.251000000000000000e+03 4.134738159179687500e+01 -6.288314819335937500e+00 -4.411162137985229492e-01 5.594164848327636719e+00 1.545914530754089355e+00 2.870362102985382080e-01
3.252000000000000000e+03 4.528662872314453125e+01 -4.580419063568115234e+00 -5.439064502716064453e-01 6.208855152130126953e+00 1.699484705924987793e+00 1.591422110795974731e-01
3.253000000000000000e+03 5.865802383422851562e+01 -2.024502515792846680e+00 -4.753503799438476562e-01 7.545112609863281250e+00 2.120928764343261719e+00 -4.290788769721984863e-01
3.254000000000000000e+03 5.636263656616210938e+01 -3.268621921539306641e+00 -5.020256042480468750e-01 7.362988948822021484e+00 2.058289051055908203e+00 -3.355734050273895264e-01
3.255000000000000000e+03 4.267175292968750000e+01 -1.248842954635620117e+00 -5.872521996498107910e-01 6.038412570953369141e+00 1.635348081588745117e+00 3.226692080497741699e-01
3.256000000000000000e+03 4.187575912475585938e+01 2.074147939682006836e+00 -6.532388925552368164e-01 6.046813488006591797e+00 1.618072271347045898e+00 4.397639930248260498e-01
3.257000000000000000e+03 4.559180068969726562e+01 1.125161552429199219e+01 -8.999310731887817383e-01 7.468672275543212891e+00 1.970622420310974121e+00 2.939018905162811279e-01
3.258000000000000000e+03 4.650919342041015625e+01 1.325438404083251953e+01 -8.965707421302795410e-01 7.841569423675537109e+00 2.083499670028686523e+00 1.679869294166564941e-01
3.259000000000000000e+03 5.734151077270507812e+01 -4.687065601348876953e+00 -4.534636437892913818e-01 7.396250247955322266e+00 2.082835912704467773e+00 -3.385145366191864014e-01
3.260000000000000000e+03 5.586969757080078125e+01 -6.034559726715087891e+00 -4.568212628364562988e-01 7.230101585388183594e+00 2.031984090805053711e+00 -2.617071866989135742e-01
3.261000000000000000e+03 5.032826995849609375e+01 1.922126579284667969e+01 -5.263935327529907227e-01 8.912624359130859375e+00 2.515869379043579102e+00 -5.951631665229797363e-01
3.262000000000000000e+03 4.360836410522460938e+01 8.772845268249511719e+00 -8.375920653343200684e-01 6.855125904083251953e+00 1.805260181427001953e+00 4.761272370815277100e-01
3.263000000000000000e+03 5.141004562377929688e+01 -1.529948043823242188e+01 -3.157321512699127197e-01 6.569057941436767578e+00 1.875997781753540039e+00 -6.217218935489654541e-02
3.264000000000000000e+03 4.496237182617187500e+01 8.018557548522949219e+00 -8.411664366722106934e-01 7.046737194061279297e+00 1.861671209335327148e+00 3.005668818950653076e-01
3.265000000000000000e+03 5.534812164306640625e+01 2.037582778930664062e+01 -1.510616838932037354e-01 8.648487091064453125e+00 2.549227714538574219e+00 -1.095839142799377441e+00
3.266000000000000000e+03 3.810084915161132812e+01 2.364579391479492188e+01 2.237103134393692017e-01 6.786031723022460938e+00 2.102922677993774414e+00 2.426935672760009766e+00
3.267000000000000000e+03 4.681987762451171875e+01 1.597862911224365234e+01 -8.516871333122253418e-01 8.308172225952148438e+00 2.236945629119873047e+00 8.418826013803482056e-02
3.268000000000000000e+03 4.296474075317382812e+01 1.705290412902832031e+01 -8.085711002349853516e-01 7.842998504638671875e+00 2.110328197479248047e+00 7.944327592849731445e-01
3.269000000000000000e+03 4.165786361694335938e+01 4.765487670898437500e+00 -7.069960236549377441e-01 6.178472995758056641e+00 1.641443133354187012e+00 5.274868607521057129e-01
3.270000000000000000e+03 4.490015792846679688e+01 6.710934162139892578e+00 -8.219994902610778809e-01 6.871404647827148438e+00 1.814821481704711914e+00 3.100114464759826660e-01
3.271000000000000000e+03 4.277839660644531250e+01 5.181901931762695312e+00 -7.412265539169311523e-01 6.403523921966552734e+00 1.698689222335815430e+00 4.549953937530517578e-01
3.272000000000000000e+03 4.591752624511718750e+01 1.425241088867187500e+01 -8.972896337509155273e-01 7.917687892913818359e+00 2.106119394302368164e+00 2.616027593612670898e-01
3.273000000000000000e+03 5.418844604492187500e+01 -6.822972774505615234e+00 -4.634284377098083496e-01 7.074411392211914062e+00 1.983294844627380371e+00 -2.023436874151229858e-01
3.274000000000000000e+03 4.665834045410156250e+01 1.733940124511718750e+01 -8.175247907638549805e-01 8.520030021667480469e+00 2.310751676559448242e+00 8.811404556035995483e-02
3.275000000000000000e+03 4.418635177612304688e+01 1.702914047241210938e+01 -8.455805778503417969e-01 8.130612373352050781e+00 2.185509681701660156e+00 5.580047369003295898e-01
3.276000000000000000e+03 4.685589218139648438e+01 9.762833595275878906e+00 -8.873908519744873047e-01 7.473579883575439453e+00 1.975856661796569824e+00 1.427260339260101318e-01
3.277000000000000000e+03 4.565572738647460938e+01 9.718374252319335938e+00 -8.875020146369934082e-01 7.299792289733886719e+00 1.923686981201171875e+00 2.811089456081390381e-01
3.278000000000000000e+03 5.661316680908203125e+01 4.492468833923339844e+00 -6.242603063583374023e-01 7.698346614837646484e+00 2.122225999832153320e+00 -5.409662127494812012e-01
3.279000000000000000e+03 5.786812210083007812e+01 4.711865425109863281e+00 -5.850725173950195312e-01 7.756512165069580078e+00 2.151431798934936523e+00 -6.089680194854736328e-01
3.280000000000000000e+03 4.452635955810546875e+01 9.399521827697753906e+00 -8.646513223648071289e-01 7.089784622192382812e+00 1.867540001869201660e+00 3.803530335426330566e-01
3.281000000000000000e+03 4.884560012817382812e+01 -1.578897762298583984e+01 -3.075105845928192139e-01 6.283801555633544922e+00 1.792887330055236816e+00 -1.032133400440216064e-02
3.282000000000000000e+03 5.385779571533203125e+01 -1.986939239501953125e+01 -2.243534326553344727e-01 6.724329471588134766e+00 1.949992775917053223e+00 -8.217857778072357178e-02
3.283000000000000000e+03 5.226551818847656250e+01 1.457268714904785156e+01 -7.110550999641418457e-01 8.350144386291503906e+00 2.291726827621459961e+00 -5.862656235694885254e-01
3.284000000000000000e+03 6.044690322875976562e+01 -3.698511421680450439e-01 -4.561854004859924316e-01 7.684590816497802734e+00 2.168521642684936523e+00 -5.243800878524780273e-01
3.285000000000000000e+03 5.502057266235351562e+01 -4.238069057464599609e+00 -5.095911622047424316e-01 7.222826004028320312e+00 2.013970375061035156e+00 -2.669039964675903320e-01
3.286000000000000000e+03 4.477270126342773438e+01 4.110316276550292969e+00 -7.624527215957641602e-01 6.647209167480468750e+00 1.765426993370056152e+00 2.902902662754058838e-01
3.287000000000000000e+03 5.813293075561523438e+01 2.746917152404785156e+01 7.558538317680358887e-01 8.432698249816894531e+00 2.756565570831298828e+00 -1.116237759590148926e+00
3.288000000000000000e+03 4.678365707397460938e+01 -6.592881202697753906e+00 -5.022385120391845703e-01 6.300042629241943359e+00 1.739341259002685547e+00 8.109317719936370850e-02
3.289000000000000000e+03 4.700262451171875000e+01 -3.024188280105590820e+00 -5.913282036781311035e-01 6.489323616027832031e+00 1.769398689270019531e+00 8.701395243406295776e-02
3.290000000000000000e+03 4.943501663208007812e+01 1.515153121948242188e+01 -8.006337881088256836e-01 8.345948219299316406e+00 2.263594388961791992e+00 -2.822508811950683594e-01
3.291000000000000000e+03 5.493869400024414062e+01 1.408529758453369141e+01 -6.030512452125549316e-01 8.260050773620605469e+00 2.297099828720092773e+00 -7.965912818908691406e-01
3.292000000000000000e+03 5.327235412597656250e+01 1.808647155761718750e+01 -4.700505733489990234e-01 8.641736984252929688e+00 2.451505899429321289e+00 -8.462012410163879395e-01
3.293000000000000000e+03 4.158900070190429688e+01 7.857412695884704590e-01 -6.078918576240539551e-01 5.939537048339843750e+00 1.599493622779846191e+00 4.212502837181091309e-01
3.294000000000000000e+03 5.631835556030273438e+01 1.043223762512207031e+01 -6.379589438438415527e-01 8.015920639038085938e+00 2.213388442993164062e+00 -7.339925765991210938e-01
3.295000000000000000e+03 5.569984054565429688e+01 7.240321159362792969e+00 -6.761333346366882324e-01 7.817807674407958984e+00 2.142502307891845703e+00 -5.784224867820739746e-01
3.296000000000000000e+03 4.696468734741210938e+01 -1.227021217346191406e+00 -6.390957832336425781e-01 6.585816383361816406e+00 1.784016132354736328e+00 9.598460793495178223e-02
3.297000000000000000e+03 5.552926635742187500e+01 1.307176971435546875e+01 -6.175608634948730469e-01 8.187862396240234375e+00 2.271090269088745117e+00 -7.926534414291381836e-01
3.298000000000000000e+03 5.736510848999023438e+01 1.242173957824707031e+01 -5.552271604537963867e-01 8.115389823913574219e+00 2.268048763275146484e+00 -8.781179785728454590e-01
3.299000000000000000e+03 4.238632965087890625e+01 -4.949925899505615234e+00 -4.892069697380065918e-01 5.795796394348144531e+00 1.591976881027221680e+00 2.719282507896423340e-01
3.300000000000000000e+03 4.502309417724609375e+01 -6.246280670166015625e+00 -4.905277192592620850e-01 6.095492839813232422e+00 1.681489467620849609e+00 1.507786214351654053e-01
3.301000000000000000e+03 4.684917068481445312e+01 5.738722681999206543e-01 -6.839858889579772949e-01 6.676136970520019531e+00 1.797645330429077148e+00 1.101271137595176697e-01
3.302000000000000000e+03 5.295949554443359375e+01 -2.249190711975097656e+01 -2.045469135046005249e-01 6.605852603912353516e+00 1.920391678810119629e+00 -6.386016309261322021e-02
3.303000000000000000e+03 3.867471313476562500e+01 2.367597579956054688e+01 1.019641458988189697e-01 7.275089263916015625e+00 2.213115930557250977e+00 2.371619462966918945e+00
3.304000000000000000e+03 4.676270675659179688e+01 1.113548278808593750e+01 -8.904252648353576660e-01 7.596360683441162109e+00 2.011780500411987305e+00 1.361127048730850220e-01
3.305000000000000000e+03 4.674984359741210938e+01 1.231001949310302734e+01 -8.922564387321472168e-01 7.737761020660400391e+00 2.053651332855224609e+00 1.338422596454620361e-01
3.306000000000000000e+03 4.326292037963867188e+01 3.706712484359741211e+00 -7.244569659233093262e-01 6.375431537628173828e+00 1.695292472839355469e+00 3.921315670013427734e-01
3.307000000000000000e+03 4.922669982910156250e+01 1.640447425842285156e+01 -7.587175369262695312e-01 8.530495643615722656e+00 2.331533432006835938e+00 -3.098311722278594971e-01
3.308000000000000000e+03 4.184751129150390625e+01 3.503823995590209961e+00 -6.846055388450622559e-01 6.137338161468505859e+00 1.635819792747497559e+00 4.782349765300750732e-01
3.309000000000000000e+03 4.347554016113281250e+01 2.089083909988403320e+00 -6.871019601821899414e-01 6.311594486236572266e+00 1.687347769737243652e+00 3.464398086071014404e-01
3.310000000000000000e+03 4.627522277832031250e+01 6.359586238861083984e+00 -8.277276158332824707e-01 7.033221244812011719e+00 1.861648082733154297e+00 1.901138275861740112e-01
3.311000000000000000e+03 4.402582931518554688e+01 5.748819828033447266e+00 -7.869232892990112305e-01 6.659141540527343750e+00 1.761665463447570801e+00 3.729071319103240967e-01
3.312000000000000000e+03 5.727555847167968750e+01 6.530282497406005859e+00 -6.185212135314941406e-01 7.815943241119384766e+00 2.159226655960083008e+00 -6.362851262092590332e-01
3.313000000000000000e+03 4.541543960571289062e+01 1.713218879699707031e+01 -8.419755101203918457e-01 8.341465950012207031e+00 2.249847173690795898e+00 3.300541639328002930e-01
3.314000000000000000e+03 5.536566925048828125e+01 8.593793869018554688e+00 -6.879866719245910645e-01 7.890349864959716797e+00 2.160709142684936523e+00 -6.038882136344909668e-01
3.315000000000000000e+03 5.910015487670898438e+01 1.109826564788818359e+00 -5.055913329124450684e-01 7.661963462829589844e+00 2.146911621093750000e+00 -5.315921306610107422e-01
3.316000000000000000e+03 5.591205215454101562e+01 2.594994544982910156e+00 -6.232080459594726562e-01 7.579713344573974609e+00 2.086951494216918945e+00 -4.520067870616912842e-01
3.317000000000000000e+03 3.891513442993164062e+01 -6.732144832611083984e+00 -3.870229125022888184e-01 5.247224330902099609e+00 1.458060503005981445e+00 3.375179469585418701e-01
3.318000000000000000e+03 3.637054824829101562e+01 -7.059205532073974609e+00 -3.070146739482879639e-01 4.805571079254150391e+00 1.349566936492919922e+00 3.778299093246459961e-01
3.319000000000000000e+03 5.276108932495117188e+01 1.693803024291992188e+01 -5.689595937728881836e-01 8.565167427062988281e+00 2.398862361907958984e+00 -7.461463809013366699e-01
3.320000000000000000e+03 5.248976516723632812e+01 2.465917348861694336e+00 -6.939324736595153809e-01 7.351010322570800781e+00 1.997123360633850098e+00 -2.564959526062011719e-01
3.321000000000000000e+03 5.506360626220703125e+01 9.938292503356933594e+00 -6.942607760429382324e-01 7.973094940185546875e+00 2.183650255203247070e+00 -6.295790672302246094e-01
3.322000000000000000e+03 4.969382476806640625e+01 1.385201930999755859e+01 -8.301437497138977051e-01 8.186391830444335938e+00 2.206874370574951172e+00 -2.695318758487701416e-01
3.323000000000000000e+03 4.790754318237304688e+01 1.120398330688476562e+01 -8.794112205505371094e-01 7.729077339172363281e+00 2.054899930953979492e+00 2.252231352031230927e-03
3.324000000000000000e+03 4.864744567871093750e+01 -3.107311964035034180e+00 -5.911306142807006836e-01 6.678948879241943359e+00 1.826345443725585938e+00 3.245318774133920670e-03
3.325000000000000000e+03 4.997574996948242188e+01 6.037908196449279785e-01 -6.813730001449584961e-01 7.015783786773681641e+00 1.900323152542114258e+00 -7.782299071550369263e-02
3.326000000000000000e+03 5.549242782592773438e+01 -2.196166515350341797e+00 -5.494825839996337891e-01 7.339765548706054688e+00 2.037084817886352539e+00 -3.209960162639617920e-01
3.327000000000000000e+03 5.234310531616210938e+01 -6.965793132781982422e+00 -4.802395999431610107e-01 6.890723705291748047e+00 1.923145174980163574e+00 -1.335384249687194824e-01
3.328000000000000000e+03 4.349802780151367188e+01 -5.777944087982177734e+00 -4.819759726524353027e-01 5.914219856262207031e+00 1.629673123359680176e+00 2.053714096546173096e-01
3.329000000000000000e+03 4.026525115966796875e+01 -7.749388694763183594e+00 -3.918313980102539062e-01 5.393491268157958984e+00 1.500498056411743164e+00 2.870736122131347656e-01
3.330000000000000000e+03 5.315586471557617188e+01 -2.997079610824584961e+00 -5.668852329254150391e-01 7.135978221893310547e+00 1.970727920532226562e+00 -2.139919400215148926e-01
3.331000000000000000e+03 5.142099761962890625e+01 7.529305458068847656e+00 -8.001015782356262207e-01 7.643687248229980469e+00 2.053075790405273438e+00 -2.747439146041870117e-01
3.332000000000000000e+03 4.647876739501953125e+01 -1.786688232421875000e+01 -2.691100239753723145e-01 5.967030048370361328e+00 1.709375977516174316e+00 3.210924193263053894e-02
3.333000000000000000e+03 5.048642349243164062e+01 1.192595100402832031e+01 -8.314709067344665527e-01 8.028118133544921875e+00 2.158994197845458984e+00 -3.012733459472656250e-01
3.334000000000000000e+03 4.743803787231445312e+01 1.358699703216552734e+01 -8.967023491859436035e-01 7.989516258239746094e+00 2.127844095230102539e+00 5.065512284636497498e-02
3.335000000000000000e+03 4.669194412231445312e+01 2.403835058212280273e+00 -7.279532551765441895e-01 6.770943164825439453e+00 1.812896966934204102e+00 1.315733343362808228e-01
3.336000000000000000e+03 4.710684204101562500e+01 1.472174263000488281e+01 -8.828946352005004883e-01 8.146936416625976562e+00 2.179212570190429688e+00 7.444724440574645996e-02
3.337000000000000000e+03 4.708573913574218750e+01 8.294863700866699219e+00 -8.680571913719177246e-01 7.313558578491210938e+00 1.933650493621826172e+00 1.280235350131988525e-01
3.338000000000000000e+03 5.148266220092773438e+01 8.969039916992187500e+00 -8.077445030212402344e-01 7.784778594970703125e+00 2.093110322952270508e+00 -3.212764561176300049e-01
3.339000000000000000e+03 5.518194198608398438e+01 -1.133775353431701660e+00 -5.709083676338195801e-01 7.363622188568115234e+00 2.037814140319824219e+00 -3.298282623291015625e-01
3.340000000000000000e+03 5.383182907104492188e+01 9.467423439025878906e+00 -7.382651567459106445e-01 7.908778667449951172e+00 2.151154041290283203e+00 -5.247741341590881348e-01
3.341000000000000000e+03 5.409859848022460938e+01 8.115075111389160156e+00 -7.297002673149108887e-01 7.820945739746093750e+00 2.127373695373535156e+00 -5.029303431510925293e-01
3.342000000000000000e+03 5.432183837890625000e+01 1.247507572174072266e+01 -6.929408907890319824e-01 8.158103942871093750e+00 2.239548921585083008e+00 -6.720780730247497559e-01
3.343000000000000000e+03 4.766698837280273438e+01 1.245145225524902344e+01 -8.881829380989074707e-01 7.860022068023681641e+00 2.091551780700683594e+00 1.936673000454902649e-02
3.344000000000000000e+03 4.759861755371093750e+01 6.786095619201660156e+00 -8.268045783042907715e-01 7.218934059143066406e+00 1.917638897895812988e+00 6.215152889490127563e-02
3.345000000000000000e+03 5.757939910888671875e+01 -2.166006267070770264e-01 -5.313994288444519043e-01 7.547044754028320312e+00 2.104693651199340820e+00 -4.452072381973266602e-01
3.346000000000000000e+03 5.440581512451171875e+01 -2.685101270675659180e+00 -5.491403937339782715e-01 7.241171836853027344e+00 2.007609367370605469e+00 -2.718507349491119385e-01
3.347000000000000000e+03 5.411825561523437500e+01 1.471364879608154297e+01 -6.179587244987487793e-01 8.332081794738769531e+00 2.314236879348754883e+00 -7.558940649032592773e-01
3.348000000000000000e+03 5.703763198852539062e+01 3.197539329528808594e+00 -5.945734977722167969e-01 7.650565624237060547e+00 2.116797685623168945e+00 -5.195624828338623047e-01
3.349000000000000000e+03 5.053784179687500000e+01 1.540524673461914062e+01 -7.482565641403198242e-01 8.416817665100097656e+00 2.300568342208862305e+00 -4.335251748561859131e-01
3.350000000000000000e+03 5.392798614501953125e+01 1.362600040435791016e+01 -6.740607619285583496e-01 8.257618904113769531e+00 2.275067567825317383e+00 -6.935968399047851562e-01
3.351000000000000000e+03 5.215763092041015625e+01 1.857895660400390625e+01 -4.908722639083862305e-01 8.758703231811523438e+00 2.480349302291870117e+00 -7.632867097854614258e-01
3.352000000000000000e+03 5.482941055297851562e+01 5.303044319152832031e+00 -6.867959499359130859e-01 7.670874595642089844e+00 2.095223665237426758e+00 -4.669726490974426270e-01
3.353000000000000000e+03 5.633597183227539062e+01 1.258240699768066406e+00 -5.921856164932250977e-01 7.536500453948974609e+00 2.083294391632080078e+00 -4.380689859390258789e-01
3.354000000000000000e+03 5.441487884521484375e+01 6.714810371398925781e+00 -7.100031375885009766e-01 7.741967678070068359e+00 2.109589338302612305e+00 -4.863626360893249512e-01
3.355000000000000000e+03 5.039559555053710938e+01 1.777321815490722656e+01 -6.348233819007873535e-01 8.721006393432617188e+00 2.425854921340942383e+00 -5.248176455497741699e-01
3.356000000000000000e+03 4.805311584472656250e+01 1.623429679870605469e+01 -8.128935098648071289e-01 8.448209762573242188e+00 2.290594816207885742e+00 -1.140271723270416260e-01
3.357000000000000000e+03 5.025556182861328125e+01 -3.148015022277832031e+00 -5.836076736450195312e-01 6.843939304351806641e+00 1.878099441528320312e+00 -7.685337215662002563e-02
3.358000000000000000e+03 4.857103347778320312e+01 -1.247668147087097168e+00 -6.432514786720275879e-01 6.763112068176269531e+00 1.835958123207092285e+00 8.090547285974025726e-03
3.359000000000000000e+03 5.162676620483398438e+01 1.747594642639160156e+01 -5.864130854606628418e-01 8.657810211181640625e+00 2.421418905258178711e+00 -6.597850322723388672e-01
3.360000000000000000e+03 5.125868225097656250e+01 1.619948768615722656e+01 -6.912125945091247559e-01 8.516588211059570312e+00 2.347612857818603516e+00 -5.497596263885498047e-01
3.361000000000000000e+03 5.290980911254882812e+01 -1.316993117332458496e+00 -6.060144901275634766e-01 7.194617271423339844e+00 1.976580858230590820e+00 -2.325036823749542236e-01
3.362000000000000000e+03 5.615080642700195312e+01 -1.301609158515930176e+00 -5.420130491256713867e-01 7.410187721252441406e+00 2.060452461242675781e+00 -3.694400787353515625e-01
3.363000000000000000e+03 5.204490280151367188e+01 -5.004204273223876953e+00 -5.248196721076965332e-01 6.944540977478027344e+00 1.925916433334350586e+00 -1.433628052473068237e-01
3.364000000000000000e+03 4.864741897583007812e+01 -6.806837081909179688e+00 -4.991513490676879883e-01 6.507162570953369141e+00 1.802403330802917480e+00 2.602774417027831078e-03
3.365000000000000000e+03 5.419315338134765625e+01 -1.151581859588623047e+01 -3.620747327804565430e-01 6.936115264892578125e+00 1.972212195396423340e+00 -1.522677540779113770e-01
3.366000000000000000e+03 4.450693130493164062e+01 -7.987195491790771484e+00 -4.473519623279571533e-01 5.963883876800537109e+00 1.654959559440612793e+00 1.475199013948440552e-01
3.367000000000000000e+03 4.891885757446289062e+01 1.163334465026855469e+01 -8.635427355766296387e-01 7.849528789520263672e+00 2.095795869827270508e+00 -1.164812296628952026e-01
3.368000000000000000e+03 5.011496353149414062e+01 7.805007934570312500e+00 -8.319414258003234863e-01 7.585597038269042969e+00 2.026096820831298828e+00 -1.668059825897216797e-01
3.369000000000000000e+03 5.124069595336914062e+01 1.336315870285034180e+00 -6.967847943305969238e-01 7.199315071105957031e+00 1.950759053230285645e+00 -1.652080118656158447e-01
3.370000000000000000e+03 5.515557861328125000e+01 9.309509992599487305e-01 -6.188476085662841797e-01 7.446107387542724609e+00 2.048177957534790039e+00 -3.699379861354827881e-01
3.371000000000000000e+03 5.225271987915039062e+01 1.576452732086181641e+01 -6.643182039260864258e-01 8.466464042663574219e+00 2.340643882751464844e+00 -6.340089440345764160e-01
3.372000000000000000e+03 4.860895919799804688e+01 1.265310764312744141e+01 -8.766393065452575684e-01 7.968186378479003906e+00 2.127464056015014648e+00 -8.785870671272277832e-02
3.373000000000000000e+03 4.805084609985351562e+01 9.830833435058593750e+00 -8.720608949661254883e-01 7.586349487304687500e+00 2.014286518096923828e+00 6.693091127090156078e-04
3.374000000000000000e+03 4.843240356445312500e+01 5.708082318305969238e-01 -6.840844750404357910e-01 6.855657577514648438e+00 1.851471900939941406e+00 1.345437485724687576e-02
3.375000000000000000e+03 5.244505691528320312e+01 1.038194370269775391e+01 -7.797901630401611328e-01 7.937784194946289062e+00 2.147398233413696289e+00 -4.405330121517181396e-01
3.376000000000000000e+03 5.472620010375976562e+01 1.124746513366699219e+01 -6.938837170600891113e-01 8.061874389648437500e+00 2.210397005081176758e+00 -6.547313332557678223e-01
3.377000000000000000e+03 4.827870559692382812e+01 1.497889804840087891e+01 -8.411949872970581055e-01 8.260909080505371094e+00 2.225914239883422852e+00 -1.124367415904998779e-01
3.378000000000000000e+03 4.858894348144531250e+01 -8.615264892578125000e+00 -4.550856053829193115e-01 6.446402549743652344e+00 1.797395110130310059e+00 1.988623291254043579e-03
3.379000000000000000e+03 5.340088272094726562e+01 4.714283943176269531e+00 -7.179025411605834961e-01 7.563427925109863281e+00 2.053657770156860352e+00 -3.645249903202056885e-01
3.380000000000000000e+03 5.529154586791992188e+01 -4.858513176441192627e-02 -5.893144011497497559e-01 7.402658939361572266e+00 2.044003248214721680e+00 -3.546831309795379639e-01
3.381000000000000000e+03 4.649854278564453125e+01 4.376348495483398438e+00 -7.845342755317687988e-01 6.902313232421875000e+00 1.835333585739135742e+00 1.572581976652145386e-01
3.382000000000000000e+03 5.793287277221679688e+01 2.510160446166992188e+00 -5.686525702476501465e-01 7.659390926361083984e+00 2.127221345901489258e+00 -5.313968658447265625e-01
3.383000000000000000e+03 4.998406219482421875e+01 2.211328983306884766e+00 -7.294964790344238281e-01 7.142461776733398438e+00 1.923889636993408203e+00 -9.388227015733718872e-02
3.384000000000000000e+03 5.166131591796875000e+01 -1.341937541961669922e+00 -6.287919282913208008e-01 7.078703403472900391e+00 1.934973478317260742e+00 -1.541581302881240845e-01
3.385000000000000000e+03 5.635694122314453125e+01 -9.617550849914550781e+00 -3.811868727207183838e-01 7.179101467132568359e+00 2.039374351501464844e+00 -2.240202724933624268e-01
3.386000000000000000e+03 4.652449417114257812e+01 -8.428343772888183594e+00 -4.515539407730102539e-01 6.193827629089355469e+00 1.722682118415832520e+00 7.878104597330093384e-02
3.387000000000000000e+03 4.061078262329101562e+01 -1.019098663330078125e+01 -3.429636657238006592e-01 5.405019283294677734e+00 1.518616676330566406e+00 2.228162437677383423e-01
3.388000000000000000e+03 4.472880172729492188e+01 -1.350309085845947266e+01 -3.417553305625915527e-01 5.849229812622070312e+00 1.652242302894592285e+00 9.981367737054824829e-02
3.389000000000000000e+03 5.320011520385742188e+01 1.527529907226562500e+01 -6.344299912452697754e-01 8.395238876342773438e+00 2.328242778778076172e+00 -7.132166624069213867e-01
3.390000000000000000e+03 5.208176803588867188e+01 1.157419967651367188e+01 -7.859182357788085938e-01 8.038943290710449219e+00 2.175907611846923828e+00 -4.473310112953186035e-01
3.391000000000000000e+03 5.098706817626953125e+01 1.413975620269775391e+01 -7.785160541534423828e-01 8.271199226379394531e+00 2.247805118560791016e+00 -4.273865520954132080e-01
3.392000000000000000e+03 4.958012390136718750e+01 1.257892799377441406e+01 -8.503209352493286133e-01 8.041707992553710938e+00 2.157415866851806641e+00 -2.310204654932022095e-01
3.393000000000000000e+03 5.030177688598632812e+01 1.649734115600585938e+01 -7.202197313308715820e-01 8.558820724487304688e+00 2.351580381393432617e+00 -4.444721639156341553e-01
3.394000000000000000e+03 5.006653213500976562e+01 5.579093933105468750e+00 -7.982224822044372559e-01 7.383903026580810547e+00 1.975704193115234375e+00 -1.331790387630462646e-01
3.395000000000000000e+03 5.432579421997070312e+01 1.775029152631759644e-01 -6.223850250244140625e-01 7.348893165588378906e+00 2.017952442169189453e+00 -3.078014254570007324e-01
3.396000000000000000e+03 5.302212142944335938e+01 6.238963127136230469e+00 -7.469813227653503418e-01 7.640749454498291016e+00 2.068130493164062500e+00 -3.745182156562805176e-01
3.397000000000000000e+03 5.278553390502929688e+01 7.726645946502685547e+00 -7.644185423851013184e-01 7.736486911773681641e+00 2.091620445251464844e+00 -3.976867496967315674e-01
3.398000000000000000e+03 5.038856887817382812e+01 -5.040618896484375000e+00 -5.383862853050231934e-01 6.771233558654785156e+00 1.869854211807250977e+00 -7.152541726827621460e-02
3.399000000000000000e+03 4.850189590454101562e+01 1.378422737121582031e+01 -8.716853260993957520e-01 8.103784561157226562e+00 2.169629573822021484e+00 -1.054847538471221924e-01
3.400000000000000000e+03 4.834206390380859375e+01 2.360474586486816406e+00 -7.374398112297058105e-01 6.972507476806640625e+00 1.870520353317260742e+00 2.162227407097816467e-02
3.401000000000000000e+03 5.394042587280273438e+01 3.264051675796508789e+00 -6.808753013610839844e-01 7.506174087524414062e+00 2.047589540481567383e+00 -3.609423339366912842e-01
3.402000000000000000e+03 5.531999206542968750e+01 3.928385972976684570e+00 -6.573746204376220703e-01 7.620590686798095703e+00 2.088964700698852539e+00 -4.580027759075164795e-01
3.403000000000000000e+03 5.263528060913085938e+01 9.112119674682617188e+00 -7.746996879577636719e-01 7.836420059204101562e+00 2.118516206741333008e+00 -4.192979633808135986e-01
3.404000000000000000e+03 4.902909088134765625e+01 8.368372917175292969e+00 -8.555729985237121582e-01 7.544044017791748047e+00 2.006541252136230469e+00 -7.048080861568450928e-02
3.405000000000000000e+03 4.357659912109375000e+01 -9.650112152099609375e+00 -4.009464979171752930e-01 5.800280094146728516e+00 1.619800090789794922e+00 1.580566167831420898e-01
3.406000000000000000e+03 5.017906570434570312e+01 -1.255210304260253906e+01 -3.688277602195739746e-01 6.497881889343261719e+00 1.838716268539428711e+00 -4.149672761559486389e-02
3.407000000000000000e+03 5.019173812866210938e+01 -1.206862211227416992e+00 -6.422863006591796875e-01 6.942278385162353516e+00 1.889997601509094238e+00 -8.047097921371459961e-02
3.408000000000000000e+03 5.353648757934570312e+01 1.076530933380126953e+01 -7.439728975296020508e-01 8.002465248107910156e+00 2.177547693252563477e+00 -5.423794388771057129e-01
3.409000000000000000e+03 4.312489318847656250e+01 -1.321015357971191406e+01 -3.278804719448089600e-01 5.657073020935058594e+00 1.598757743835449219e+00 1.324027329683303833e-01
3.410000000000000000e+03 3.967166900634765625e+01 -1.524847698211669922e+01 -2.515830993652343750e-01 5.174224853515625000e+00 1.476792573928833008e+00 1.655908226966857910e-01
3.411000000000000000e+03 4.808461761474609375e+01 8.521633148193359375e+00 -8.622016310691833496e-01 7.453982830047607422e+00 1.977534294128417969e+00 3.008711850270628929e-03
3.412000000000000000e+03 4.852240371704101562e+01 7.495398044586181641e+00 -8.447680473327636719e-01 7.425331115722656250e+00 1.974169015884399414e+00 -2.726547792553901672e-02
3.413000000000000000e+03 5.232113265991210938e+01 -1.110685825347900391e+01 -3.888504803180694580e-01 6.764358520507812500e+00 1.912652373313903809e+00 -1.033605784177780151e-01
3.414000000000000000e+03 5.359482192993164062e+01 -4.780829906463623047e+00 -5.197477936744689941e-01 7.094552516937255859e+00 1.972441315650939941e+00 -2.040864378213882446e-01
3.415000000000000000e+03 5.053744506835937500e+01 -8.828365325927734375e+00 -4.485974907875061035e-01 6.645939826965332031e+00 1.859202742576599121e+00 -6.076967343688011169e-02
3.416000000000000000e+03 4.855066299438476562e+01 -1.036627388000488281e+01 -4.168268442153930664e-01 6.382677078247070312e+00 1.789755105972290039e+00 5.567371379584074020e-03
3.417000000000000000e+03 5.315716171264648438e+01 1.202438831329345703e+01 -7.426593899726867676e-01 8.101657867431640625e+00 2.207699537277221680e+00 -5.560573935508728027e-01
3.418000000000000000e+03 5.062206268310546875e+01 1.027256584167480469e+01 -8.380870819091796875e-01 7.854807853698730469e+00 2.105016231536865234e+00 -2.675638198852539062e-01
3.419000000000000000e+03 4.923716354370117188e+01 9.602377891540527344e+00 -8.546212315559387207e-01 7.673976421356201172e+00 2.045806646347045898e+00 -1.185748875141143799e-01
3.420000000000000000e+03 5.148281860351562500e+01 1.013248920440673828e+01 -8.072818517684936523e-01 7.883325099945068359e+00 2.122812986373901367e+00 -3.517287373542785645e-01
3.421000000000000000e+03 5.117811584472656250e+01 1.105181694030761719e+01 -8.181656002998352051e-01 7.960579872131347656e+00 2.142724275588989258e+00 -3.503603637218475342e-01
3.422000000000000000e+03 4.834963607788085938e+01 4.193138599395751953e+00 -7.851545214653015137e-01 7.106290340423583984e+00 1.896340727806091309e+00 2.206996642053127289e-02
3.423000000000000000e+03 5.340697097778320312e+01 1.068962574005126953e+00 -6.553187370300292969e-01 7.338620662689208984e+00 2.004990577697753906e+00 -2.821620106697082520e-01
3.424000000000000000e+03 5.459471511840820312e+01 1.983731150627136230e+00 -6.442034244537353516e-01 7.467850208282470703e+00 2.047094106674194336e+00 -3.666665256023406982e-01
3.425000000000000000e+03 5.226317596435546875e+01 2.816266007721424103e-02 -6.518030166625976562e-01 7.200481891632080078e+00 1.964603662490844727e+00 -2.080489248037338257e-01
3.426000000000000000e+03 5.177002716064453125e+01 -3.140273571014404297e+00 -5.827749371528625488e-01 6.996448516845703125e+00 1.924102067947387695e+00 -1.416338384151458740e-01
3.427000000000000000e+03 5.036534118652343750e+01 9.153226852416992188e+00 -8.313819169998168945e-01 7.737026214599609375e+00 2.071693420410156250e+00 -2.236027121543884277e-01
3.428000000000000000e+03 5.015841293334960938e+01 3.919435977935791016e+00 -7.577049732208251953e-01 7.269299030303955078e+00 1.953478217124938965e+00 -1.267263740301132202e-01
3.429000000000000000e+03 4.844432067871093750e+01 -1.201465797424316406e+01 -3.837580382823944092e-01 6.308498859405517578e+00 1.777422189712524414e+00 8.553520776331424713e-03
3.430000000000000000e+03 4.656727981567382812e+01 -1.023575878143310547e+01 -4.099113643169403076e-01 6.147971630096435547e+00 1.721418023109436035e+00 6.417888402938842773e-02
3.431000000000000000e+03 5.150192260742187500e+01 1.277336788177490234e+01 -7.914133071899414062e-01 8.146478652954101562e+00 2.206519603729248047e+00 -4.290696084499359131e-01
3.432000000000000000e+03 3.955957412719726562e+01 -1.727078056335449219e+01 -2.181103974580764771e-01 5.151109218597412109e+00 1.479899644851684570e+00 1.348726749420166016e-01
3.433000000000000000e+03 5.273810958862304688e+01 1.331224536895751953e+01 -7.327143549919128418e-01 8.225396156311035156e+00 2.247804641723632812e+00 -5.755581259727478027e-01
3.434000000000000000e+03 4.136963272094726562e+01 -1.153033638000488281e+01 -3.352608978748321533e-01 5.479146957397460938e+00 1.543165922164916992e+00 1.886324286460876465e-01
3.435000000000000000e+03 5.152758407592773438e+01 5.889623165130615234e+00 -7.811214923858642578e-01 7.519603252410888672e+00 2.021544456481933594e+00 -2.496642023324966431e-01
3.436000000000000000e+03 4.946438980102539062e+01 6.693462848663330078e+00 -8.232462406158447266e-01 7.434339046478271484e+00 1.983327865600585938e+00 -9.560570120811462402e-02
3.437000000000000000e+03 4.866444396972656250e+01 5.713839530944824219e+00 -8.090159893035888672e-01 7.242997169494628906e+00 1.930194377899169922e+00 -1.133759412914514542e-02
3.438000000000000000e+03 5.185322189331054688e+01 4.135295867919921875e+00 -7.367835044860839844e-01 7.405630588531494141e+00 2.000653982162475586e+00 -2.416127920150756836e-01
3.439000000000000000e+03 5.050649261474609375e+01 -6.935525417327880859e+00 -4.927035868167877197e-01 6.712132453918457031e+00 1.865828752517700195e+00 -6.673536449670791626e-02
3.440000000000000000e+03 4.808218383789062500e+01 -1.349640560150146484e+01 -3.484255075454711914e-01 6.236871719360351562e+00 1.766533851623535156e+00 1.216584444046020508e-02
3.441000000000000000e+03 4.665961456298828125e+01 -1.293301486968994141e+01 -3.563199937343597412e-01 6.079877376556396484e+00 1.717067241668701172e+00 4.252720996737480164e-02
3.442000000000000000e+03 3.973870086669921875e+01 -1.162516784667968750e+01 -3.102894127368927002e-01 5.236762523651123047e+00 1.477941870689392090e+00 2.264269888401031494e-01
3.443000000000000000e+03 5.409368133544921875e+01 -1.150376319885253906e+00 -5.962013602256774902e-01 7.280878543853759766e+00 2.005403041839599609e+00 -2.797493636608123779e-01
3.444000000000000000e+03 4.134539413452148438e+01 -1.517826747894287109e+01 -2.773283421993255615e-01 5.397576808929443359e+00 1.536074519157409668e+00 1.505042612552642822e-01
3.445000000000000000e+03 4.573822402954101562e+01 -1.526228046417236328e+01 -3.147547543048858643e-01 5.935483932495117188e+00 1.686218738555908203e+00 6.247347220778465271e-02
3.446000000000000000e+03 4.174011611938476562e+01 -1.921466064453125000e+01 -2.172897905111312866e-01 5.387979507446289062e+00 1.551206827163696289e+00 9.870843589305877686e-02
3.447000000000000000e+03 4.684650421142578125e+01 -1.175392246246337891e+01 -3.824296593666076660e-01 6.137916088104248047e+00 1.726645946502685547e+00 4.774668067693710327e-02
3.448000000000000000e+03 4.966482543945312500e+01 -1.429596328735351562e+01 -3.363995254039764404e-01 6.388542175292968750e+00 1.815642833709716797e+00 -2.404350601136684418e-02
3.449000000000000000e+03 6.484845733642578125e+01 -3.090406036376953125e+01 -6.558764725923538208e-02 7.863027572631835938e+00 2.339231967926025391e+00 -5.259479209780693054e-02
3.450000000000000000e+03 3.805436325073242188e+01 -1.536275863647460938e+01 -2.184867858886718750e-01 4.979622840881347656e+00 1.428340792655944824e+00 1.799720376729965210e-01
3.451000000000000000e+03 3.894531631469726562e+01 -1.932347297668457031e+01 -1.886857151985168457e-01 5.055210113525390625e+00 1.459957361221313477e+00 1.068158969283103943e-01
3.452000000000000000e+03 5.653106689453125000e+01 -1.979043388366699219e+01 -2.166182398796081543e-01 7.031826496124267578e+00 2.044562578201293945e+00 -1.201788932085037231e-01
3.453000000000000000e+03 5.745212936401367188e+01 -1.737595939636230469e+01 -2.371316999197006226e-01 7.148163795471191406e+00 2.073309659957885742e+00 -1.534439176321029663e-01
3.454000000000000000e+03 5.030318069458007812e+01 -1.710469436645507812e+01 -2.856332957744598389e-01 6.417424201965332031e+00 1.839537262916564941e+00 -4.153399541974067688e-02
3.455000000000000000e+03 7.030028533935546875e+01 -3.795187759399414062e+01 -2.641046606004238129e-02 8.480226516723632812e+00 2.536144733428955078e+00 -1.808270998299121857e-02
3.456000000000000000e+03 7.115658569335937500e+01 -3.358427047729492188e+01 -3.303981572389602661e-02 8.535071372985839844e+00 2.550609350204467773e+00 -3.072880767285823822e-02
3.457000000000000000e+03 3.219861221313476562e+01 -2.945173454284667969e+01 -5.216811224818229675e-02 4.138138294219970703e+00 1.225791096687316895e+00 6.899151206016540527e-02
3.458000000000000000e+03 3.018329811096191406e+01 -2.285742759704589844e+01 -6.177053228020668030e-02 3.908609151840209961e+00 1.154051542282104492e+00 1.375952363014221191e-01
3.459000000000000000e+03 2.862928962707519531e+01 -2.280492019653320312e+01 -6.795468181371688843e-02 3.743351459503173828e+00 1.102619051933288574e+00 1.405134052038192749e-01
3.460000000000000000e+03 5.696469497680664062e+01 3.322202682495117188e+01 1.324941754341125488e+00 8.679378509521484375e+00 3.001296043395996094e+00 -5.712286233901977539e-01
3.461000000000000000e+03 5.416429519653320312e+01 3.355770492553710938e+01 1.682984232902526855e+00 9.156886100769042969e+00 3.251961231231689453e+00 -4.275012314319610596e-01
3.462000000000000000e+03 2.779524612426757812e+01 -3.882194519042968750e+01 -1.442063599824905396e-01 3.609960079193115234e+00 1.039726138114929199e+00 -6.918253749608993530e-02
3.463000000000000000e+03 2.772809982299804688e+01 -3.627732849121093750e+01 -3.378142416477203369e-02 3.565920829772949219e+00 1.059641838073730469e+00 -3.278159722685813904e-02
3.464000000000000000e+03 3.196115112304687500e+01 -2.507186174392700195e+00 -2.367794662714004517e-01 4.136269092559814453e+00 1.169846892356872559e+00 5.482527613639831543e-01
3.465000000000000000e+03 4.044569396972656250e+01 -2.041194915771484375e+01 -1.938693821430206299e-01 5.235380172729492188e+00 1.512453317642211914e+00 9.950200468301773071e-02
3.466000000000000000e+03 3.732362747192382812e+01 -1.852233314514160156e+01 -1.712549477815628052e-01 4.820394039154052734e+00 1.394741773605346680e+00 1.493144482374191284e-01
3.467000000000000000e+03 3.434706878662109375e+01 -2.360613441467285156e+01 -1.029430478811264038e-01 4.460227966308593750e+00 1.307185530662536621e+00 1.073149442672729492e-01
3.468000000000000000e+03 4.678643417358398438e+01 -1.583928966522216797e+01 -3.057375550270080566e-01 6.058353900909423828e+00 1.725784897804260254e+00 2.785585261881351471e-02
3.469000000000000000e+03 5.956695556640625000e+01 3.213394165039062500e+01 1.045947194099426270e+00 8.311699867248535156e+00 2.807294130325317383e+00 -7.648153305053710938e-01
3.470000000000000000e+03 4.501074218750000000e+01 -1.844041252136230469e+01 -2.556790709495544434e-01 5.779784679412841797e+00 1.657231688499450684e+00 5.626361817121505737e-02
3.471000000000000000e+03 4.584562301635742188e+01 -1.647141838073730469e+01 -2.864738702774047852e-01 5.916765213012695312e+00 1.689087390899658203e+00 5.253491550683975220e-02
3.472000000000000000e+03 6.169067001342773438e+01 3.038999748229980469e+01 7.611108422279357910e-01 7.923285484313964844e+00 2.605318784713745117e+00 -9.327588677406311035e-01
3.473000000000000000e+03 7.564279937744140625e+01 -3.628626632690429688e+01 -2.506883814930915833e-02 9.124500274658203125e+00 2.729829311370849609e+00 -1.159517560154199600e-02
3.474000000000000000e+03 7.037747955322265625e+01 -3.551749038696289062e+01 -2.895437367260456085e-02 8.452071189880371094e+00 2.526935100555419922e+00 -2.580163069069385529e-02
3.475000000000000000e+03 5.595433807373046875e+01 -2.358063125610351562e+01 -1.768443137407302856e-01 6.924471855163574219e+00 2.024288177490234375e+00 -8.849389851093292236e-02
3.476000000000000000e+03 6.341705703735351562e+01 3.225155639648437500e+01 7.006919980049133301e-01 7.621147632598876953e+00 2.496551752090454102e+00 -7.827656865119934082e-01
3.477000000000000000e+03 6.928791046142578125e+01 3.251556777954101562e+01 3.547379672527313232e-01 6.739579677581787109e+00 2.128295183181762695e+00 -6.518067121505737305e-01
3.478000000000000000e+03 2.900814819335937500e+01 4.071874618530273438e+01 4.850781559944152832e-01 -4.701361060142517090e-01 4.482611082494258881e-03 1.418221890926361084e-01
3.479000000000000000e+03 6.605835723876953125e+01 -2.847121238708496094e+01 -6.390518695116043091e-02 7.971552371978759766e+00 2.372294187545776367e+00 -6.652481108903884888e-02
3.480000000000000000e+03 4.981160736083984375e+01 3.930390548706054688e+01 1.107916474342346191e+00 1.136076354980468750e+01 3.740604162216186523e+00 5.209802985191345215e-01
3.481000000000000000e+03 5.879815292358398438e+01 -3.412288665771484375e+01 -8.834308385848999023e-02 7.195932388305664062e+00 2.132276773452758789e+00 -4.160286486148834229e-02
3.482000000000000000e+03 5.558305740356445312e+01 -3.610541152954101562e+01 -1.022756695747375488e-01 6.858340740203857422e+00 2.026819467544555664e+00 -2.403905242681503296e-02
3.483000000000000000e+03 2.761834144592285156e+01 -4.129554367065429688e+01 -1.688390225172042847e-01 3.656142950057983398e+00 1.046191215515136719e+00 -2.872309461236000061e-02
3.484000000000000000e+03 4.192574691772460938e+01 -3.722918701171875000e+01 -1.176467463374137878e-01 5.286418914794921875e+00 1.550631642341613770e+00 3.066905075684189796e-03
3.485000000000000000e+03 3.696607589721679688e+01 -3.756536102294921875e+01 -1.086140051484107971e-01 4.726687431335449219e+00 1.385421991348266602e+00 3.966668155044317245e-03
3.486000000000000000e+03 6.637660980224609375e+01 -3.462691497802734375e+01 -5.852743610739707947e-02 8.015946388244628906e+00 2.387225627899169922e+00 -3.445081412792205811e-02
3.487000000000000000e+03 7.158796691894531250e+01 -4.093180465698242188e+01 -9.276523254811763763e-03 8.635202407836914062e+00 2.587777853012084961e+00 -7.426649332046508789e-03
3.488000000000000000e+03 6.654835510253906250e+01 -3.752675628662109375e+01 -4.062664881348609924e-02 8.052638053894042969e+00 2.403603553771972656e+00 -2.958902530372142792e-02
3.489000000000000000e+03 5.775654983520507812e+01 3.656891632080078125e+01 1.276199698448181152e+00 8.712693214416503906e+00 2.996667861938476562e+00 -3.032015264034271240e-01
3.490000000000000000e+03 5.321978378295898438e+01 4.053431701660156250e+01 1.197316646575927734e+00 1.024452304840087891e+01 3.432552099227905273e+00 8.687872439622879028e-02
3.491000000000000000e+03 6.111159515380859375e+01 3.487261581420898438e+01 9.928146600723266602e-01 8.044843673706054688e+00 2.711297273635864258e+00 -5.645085573196411133e-01
3.492000000000000000e+03 6.397686386108398438e+01 3.699519348144531250e+01 8.125448226928710938e-01 7.601217269897460938e+00 2.524128675460815430e+00 -4.094995558261871338e-01
3.493000000000000000e+03 7.864422321319580078e+00 4.132555007934570312e+01 -3.049004008062183857e-04 9.082146425498649478e-05 -6.422367732739076018e-05 -2.267132746055722237e-03
3.494000000000000000e+03 3.396475219726562500e+01 -2.769970321655273438e+01 -8.450204133987426758e-02 4.373433113098144531e+00 1.286679267883300781e+00 6.770855188369750977e-02
3.495000000000000000e+03 3.330025482177734375e+01 -2.256513595581054688e+01 -1.006974577903747559e-01 4.355444908142089844e+00 1.276424169540405273e+00 1.331502646207809448e-01
3.496000000000000000e+03 3.613049697875976562e+01 -2.267059516906738281e+01 -1.312508583068847656e-01 4.649011611938476562e+00 1.355328202247619629e+00 1.192446500062942505e-01
3.497000000000000000e+03 3.218994903564453125e+01 -2.505501365661621094e+01 -7.404886931180953979e-02 4.124945163726806641e+00 1.215268969535827637e+00 1.102163344621658325e-01
3.498000000000000000e+03 3.469489288330078125e+01 -2.553626251220703125e+01 -8.692342042922973633e-02 4.483231067657470703e+00 1.318892240524291992e+00 8.376395702362060547e-02
3.499000000000000000e+03 4.341772460937500000e+01 -1.883686828613281250e+01 -2.408897131681442261e-01 5.589324951171875000e+00 1.604530572891235352e+00 8.274343609809875488e-02
3.500000000000000000e+03 3.369278335571289062e+01 -3.158446311950683594e+01 -7.551813870668411255e-02 4.318687915802001953e+00 1.272950887680053711e+00 3.475753962993621826e-02
3.501000000000000000e+03 4.731248474121093750e+01 -1.951357460021972656e+01 -2.490547001361846924e-01 6.031417846679687500e+00 1.734708905220031738e+00 1.653199084103107452e-02
3.502000000000000000e+03 4.748241424560546875e+01 -1.477787685394287109e+01 -3.221489787101745605e-01 6.140500545501708984e+00 1.745505571365356445e+00 1.450827997177839279e-02
3.503000000000000000e+03 5.488742446899414062e+01 -2.147642707824707031e+01 -2.044830173254013062e-01 6.826737403869628906e+00 1.986676216125488281e+00 -9.299008548259735107e-02
3.504000000000000000e+03 5.719050979614257812e+01 -2.614039421081542969e+01 -1.455252766609191895e-01 7.030848503112792969e+00 2.065597057342529297e+00 -8.106415718793869019e-02
3.505000000000000000e+03 4.776878356933593750e+01 -1.697948074340820312e+01 -2.846705615520477295e-01 6.136880397796630859e+00 1.755663037300109863e+00 6.352943368256092072e-03
3.506000000000000000e+03 6.327190399169921875e+01 2.819405937194824219e+01 5.141935944557189941e-01 7.686787128448486328e+00 2.460294246673583984e+00 -1.039038300514221191e+00
3.507000000000000000e+03 6.706460571289062500e+01 3.138889312744140625e+01 4.348399043083190918e-01 7.091462135314941406e+00 2.257890462875366211e+00 -7.717587947845458984e-01
3.508000000000000000e+03 6.951560974121093750e+01 -3.261439514160156250e+01 -3.933581709861755371e-02 8.365549087524414062e+00 2.497864007949829102e+00 -4.924575239419937134e-02
3.509000000000000000e+03 3.741936874389648438e+01 -2.478663825988769531e+01 -1.247136220335960388e-01 4.795579910278320312e+00 1.401259779930114746e+00 7.626654952764511108e-02
3.510000000000000000e+03 6.352450180053710938e+01 -3.350920867919921875e+01 -6.329571455717086792e-02 7.700820922851562500e+00 2.291257619857788086e+00 -4.635375365614891052e-02
3.511000000000000000e+03 5.877177047729492188e+01 -2.885869407653808594e+01 -1.210409030318260193e-01 7.208207607269287109e+00 2.126150131225585938e+00 -8.158240467309951782e-02
3.512000000000000000e+03 4.563566207885742188e+01 -2.030586242675781250e+01 -2.364432662725448608e-01 5.833218574523925781e+00 1.679032564163208008e+00 3.831744939088821411e-02
3.513000000000000000e+03 4.961515045166015625e+01 -2.350463104248046875e+01 -1.969800293445587158e-01 6.242816448211669922e+00 1.813750863075256348e+00 -1.821276731789112091e-02
3.514000000000000000e+03 5.356903457641601562e+01 -2.487865829467773438e+01 -1.746296435594558716e-01 6.652106285095214844e+00 1.943242907524108887e+00 -6.282253563404083252e-02
3.515000000000000000e+03 5.482400512695312500e+01 -2.771827316284179688e+01 -1.468051820993423462e-01 6.767437934875488281e+00 1.986189842224121094e+00 -5.841003730893135071e-02
3.516000000000000000e+03 4.166974639892578125e+01 -2.339160156250000000e+01 -1.696311086416244507e-01 5.343228340148925781e+00 1.552079200744628906e+00 6.353430449962615967e-02
3.517000000000000000e+03 3.939735412597656250e+01 -2.266691207885742188e+01 -1.581782400608062744e-01 5.064594745635986328e+00 1.471925020217895508e+00 6.811339408159255981e-02
3.518000000000000000e+03 5.645581436157226562e+01 -3.077339744567871094e+01 -1.208771765232086182e-01 6.918682575225830078e+00 2.039341688156127930e+00 -5.486037209630012512e-02
3.519000000000000000e+03 4.381536102294921875e+01 -2.083858680725097656e+01 -2.177206277847290039e-01 5.602074623107910156e+00 1.615306258201599121e+00 5.757289379835128784e-02
3.520000000000000000e+03 3.632822036743164062e+01 -2.954496192932128906e+01 -9.511046856641769409e-02 4.619596958160400391e+00 1.357345938682556152e+00 5.334172025322914124e-02
3.521000000000000000e+03 3.872241210937500000e+01 -3.212765884399414062e+01 -1.075548455119132996e-01 4.932256221771240234e+00 1.447410464286804199e+00 1.630180701613426208e-02
3.522000000000000000e+03 4.639373397827148438e+01 -2.237743949890136719e+01 -2.046944499015808105e-01 5.899208545684814453e+00 1.708354234695434570e+00 2.432622015476226807e-02
3.523000000000000000e+03 5.242270660400390625e+01 -2.068942070007324219e+01 -2.175400108098983765e-01 6.601999759674072266e+00 1.915338039398193359e+00 -5.746890231966972351e-02
3.524000000000000000e+03 4.192075347900390625e+01 -2.606227302551269531e+01 -1.534306854009628296e-01 5.350657463073730469e+00 1.559167981147766113e+00 5.138273537158966064e-02
3.525000000000000000e+03 4.554117202758789062e+01 -2.799802780151367188e+01 -1.552230119705200195e-01 5.739587783813476562e+00 1.675309419631958008e+00 1.726980134844779968e-02
3.526000000000000000e+03 4.928462219238281250e+01 -3.016926574707031250e+01 -1.508356034755706787e-01 6.159761428833007812e+00 1.802677631378173828e+00 -1.761085353791713715e-02
3.527000000000000000e+03 4.283915710449218750e+01 -2.852404403686523438e+01 -1.340404450893402100e-01 5.424054622650146484e+00 1.587004303932189941e+00 3.288831189274787903e-02
3.528000000000000000e+03 3.893294525146484375e+01 -2.733943557739257812e+01 -1.179094761610031128e-01 4.974388599395751953e+00 1.456943750381469727e+00 3.651969134807586670e-02
3.529000000000000000e+03 5.097668075561523438e+01 -2.607411956787109375e+01 -1.731633096933364868e-01 6.369510650634765625e+00 1.858904242515563965e+00 -3.347002714872360229e-02
3.530000000000000000e+03 5.367278289794921875e+01 -3.235068893432617188e+01 -1.218986809253692627e-01 6.634587764739990234e+00 1.953806757926940918e+00 -3.367591649293899536e-02
3.531000000000000000e+03 4.477854537963867188e+01 -2.544747734069824219e+01 -1.646127849817276001e-01 5.692254543304443359e+00 1.658292412757873535e+00 2.991328760981559753e-02
3.532000000000000000e+03 4.610466766357421875e+01 -3.083876037597656250e+01 -1.363468021154403687e-01 5.771076679229736328e+00 1.690418958663940430e+00 -4.585636779665946960e-03
3.533000000000000000e+03 5.027036666870117188e+01 -3.342922973632812500e+01 -1.186107769608497620e-01 6.265199661254882812e+00 1.843976616859436035e+00 -1.648551784455776215e-02
3.534000000000000000e+03 4.832099914550781250e+01 -2.722447204589843750e+01 -1.640083044767379761e-01 6.052295684814453125e+00 1.766486167907714844e+00 -1.169115584343671799e-02
3.535000000000000000e+03 5.130579376220703125e+01 -3.696292877197265625e+01 -1.068771034479141235e-01 6.362371444702148438e+00 1.876648306846618652e+00 -2.106993645429611206e-02
3.536000000000000000e+03 3.852019119262695312e+01 3.597451782226562500e+01 9.675508737564086914e-01 4.345095634460449219e+00 1.593793988227844238e+00 -3.452986478805541992e+00
3.537000000000000000e+03 3.916263198852539062e+01 3.597124099731445312e+01 7.816490530967712402e-01 7.299123764038085938e+00 2.424231767654418945e+00 -4.097997665405273438e+00
3.538000000000000000e+03 3.974837112426757812e+01 3.565862655639648438e+01 1.215302422642707825e-01 1.312221813201904297e+01 3.973124265670776367e+00 -4.516192436218261719e+00
3.539000000000000000e+03 3.975126647949218750e+01 3.157076644897460938e+01 2.811356544494628906e+00 1.429175758361816406e+01 5.130934238433837891e+00 6.335109710693359375e+00
3.540000000000000000e+03 3.886425781250000000e+01 3.204315948486328125e+01 5.450722694396972656e+00 6.786347389221191406e+00 3.671121120452880859e+00 6.687982082366943359e+00
3.541000000000000000e+03 3.826551818847656250e+01 3.243141555786132812e+01 5.114813327789306641e+00 2.686969280242919922e+00 2.340534687042236328e+00 4.341063499450683594e+00
3.542000000000000000e+03 3.805873489379882812e+01 3.248382568359375000e+01 4.604816436767578125e+00 1.796299338340759277e+00 1.920334815979003906e+00 3.515139102935791016e+00
3.543000000000000000e+03 3.752996063232421875e+01 3.264318084716796875e+01 3.230916261672973633e+00 7.087066769599914551e-01 1.181886911392211914e+00 2.117805004119873047e+00
3.544000000000000000e+03 3.752786254882812500e+01 3.244876480102539062e+01 3.579949140548706055e+00 9.910081028938293457e-01 1.371287226676940918e+00 2.425544738769531250e+00
3.545000000000000000e+03 3.714104080200195312e+01 3.267192077636718750e+01 2.599880456924438477e+00 5.702277421951293945e-01 9.510324597358703613e-01 1.595214247703552246e+00
3.546000000000000000e+03 3.699159622192382812e+01 3.227026367187500000e+01 2.902920246124267578e+00 8.280918002128601074e-01 1.119303584098815918e+00 2.012570619583129883e+00
3.547000000000000000e+03 3.718309402465820312e+01 3.241667556762695312e+01 3.040196180343627930e+00 8.291578888893127441e-01 1.160806298255920410e+00 2.061684846878051758e+00
3.548000000000000000e+03 1.271041393280029297e+00 2.704077005386352539e+00 -9.521689207758754492e-05 1.554608024889603257e-04 1.807317494240123779e-05 4.436116796568967402e-06
3.549000000000000000e+03 4.314242172241210938e+01 3.539564514160156250e+01 3.835012674331665039e+00 1.492222118377685547e+01 5.627170085906982422e+00 3.157423019409179688e+00
3.550000000000000000e+03 4.140398406982421875e+01 3.621511459350585938e+01 2.044013589620590210e-01 1.754033660888671875e+01 5.323421478271484375e+00 1.029865384101867676e+00
3.551000000000000000e+03 2.280360460281372070e+00 3.533973217010498047e+00 -3.843580780085176229e-04 -2.466520818416029215e-04 -1.893030421342700720e-04 3.545745275914669037e-04
3.552000000000000000e+03 1.045766925811767578e+01 -3.649473190307617188e+01 -2.921897545456886292e-02 1.930000260472297668e-02 -2.975692041218280792e-03 6.923971697688102722e-03
3.553000000000000000e+03 3.684635162353515625e+01 3.158821868896484375e+01 3.265184402465820312e+00 1.628113508224487305e+00 1.467989444732666016e+00 2.641932249069213867e+00
3.554000000000000000e+03 3.032107162475585938e+01 3.916691970825195312e+01 2.340185940265655518e-01 -4.044476151466369629e-01 -5.112871155142784119e-02 5.211199522018432617e-01
3.555000000000000000e+03 3.191045761108398438e+01 3.815844345092773438e+01 1.374138146638870239e-01 -3.490858674049377441e-01 -6.350161880254745483e-02 8.821337223052978516e-01
3.556000000000000000e+03 2.690436744689941406e+01 3.894964981079101562e+01 -3.268610313534736633e-02 -2.016501873731613159e-01 -7.030088454484939575e-02 2.527688145637512207e-01
3.557000000000000000e+03 3.540289688110351562e+01 3.838587951660156250e+01 6.261645555496215820e-01 1.002184391021728516e+00 4.885046780109405518e-01 -4.717102348804473877e-01
3.558000000000000000e+03 3.382846450805664062e+01 3.990859985351562500e+01 8.823032975196838379e-01 1.092068076133728027e+00 5.923113822937011719e-01 3.204422891139984131e-01
3.559000000000000000e+03 4.285968017578125000e+01 3.723895263671875000e+01 2.155622392892837524e-01 1.494562053680419922e+01 4.548354625701904297e+00 1.596022248268127441e+00
3.560000000000000000e+03 1.063103771209716797e+01 -2.056274986267089844e+01 -4.501533985603600740e-04 2.873858029488474131e-04 -4.883028304902836680e-05 1.412304234690964222e-03
3.561000000000000000e+03 3.872548294067382812e+01 3.600717544555664062e+01 8.423702120780944824e-01 5.059841156005859375e+00 1.770663380622863770e+00 -3.604055643081665039e+00
3.562000000000000000e+03 3.754306030273437500e+01 3.689029312133789062e+01 5.997409224510192871e-01 3.018342494964599609e+00 1.085425019264221191e+00 -1.960779905319213867e+00
3.563000000000000000e+03 1.391851425170898438e+01 3.522489929199218750e+01 2.402233425527811050e-03 3.369432874023914337e-03 1.731499796733260155e-03 -1.006491016596555710e-03
3.564000000000000000e+03 4.086176681518554688e+01 3.084834671020507812e+01 1.449694633483886719e+00 1.592654895782470703e+01 5.212872982025146484e+00 3.079483747482299805e+00
3.565000000000000000e+03 2.696657180786132812e+01 3.976275253295898438e+01 2.447396330535411835e-02 -2.813074290752410889e-01 -7.705003768205642700e-02 2.921487689018249512e-01
3.566000000000000000e+03 2.002842426300048828e+00 3.588686370849609375e+01 -1.539414050057530403e-03 -4.926315159536898136e-04 -6.096136639825999737e-04 6.146683590486645699e-04
3.567000000000000000e+03 2.947988033294677734e+00 -2.963169336318969727e+00 -3.365746233612298965e-04 6.040764856152236462e-05 -8.285009243991225958e-05 -1.299429422942921519e-04
3.568000000000000000e+03 3.893225860595703125e+01 3.604804229736328125e+01 8.556692004203796387e-01 6.377915382385253906e+00 2.170075416564941406e+00 -4.038911819458007812e+00
3.569000000000000000e+03 3.861769485473632812e+01 3.865758132934570312e+01 1.343156844377517700e-01 6.537919044494628906e+00 2.001670360565185547e+00 -1.875826597213745117e+00
3.570000000000000000e+03 3.886241912841796875e+01 3.167188644409179688e+01 4.499199390411376953e+00 7.483015060424804688e+00 3.594664335250854492e+00 6.522053718566894531e+00
3.571000000000000000e+03 3.848344039916992188e+01 3.128802680969238281e+01 4.040693283081054688e+00 6.255733489990234375e+00 3.088927984237670898e+00 5.657341480255126953e+00
3.572000000000000000e+03 3.731973648071289062e+01 3.227875137329101562e+01 3.317972660064697266e+00 1.030707716941833496e+00 1.304604053497314453e+00 2.391367197036743164e+00
3.573000000000000000e+03 3.831042480468750000e+01 3.169285392761230469e+01 4.568635463714599609e+00 4.564912319183349609e+00 2.740064382553100586e+00 5.261043071746826172e+00
3.574000000000000000e+03 2.295574378967285156e+01 -2.540658569335937500e+01 -1.709790341556072235e-02 3.118741512298583984e+00 9.304931163787841797e-01 1.051932051777839661e-01
3.575000000000000000e+03 3.618849563598632812e+01 3.104857635498046875e+01 2.881129741668701172e+00 1.693757295608520508e+00 1.372466087341308594e+00 2.402744054794311523e+00
3.576000000000000000e+03 3.964642333984375000e+01 3.069884872436523438e+01 2.041588306427001953e+00 1.184643936157226562e+01 4.166408538818359375e+00 5.289066314697265625e+00
3.577000000000000000e+03 7.619107055664062500e+01 3.879285812377929688e+01 1.469172090291976929e-01 5.151251792907714844e+00 1.589450716972351074e+00 -1.119704619050025940e-01
3.578000000000000000e+03 3.772052001953125000e+01 3.137523269653320312e+01 3.994274139404296875e+00 3.529683113098144531e+00 2.257187128067016602e+00 4.281649589538574219e+00
3.579000000000000000e+03 5.032761096954345703e+00 -3.387306213378906250e+01 -9.535066783428192139e-03 2.341195213375613093e-04 -2.790284110233187675e-03 -9.343051351606845856e-03
3.580000000000000000e+03 4.497291564941406250e+01 3.536289596557617188e+01 3.368284463882446289e+00 1.256623554229736328e+01 4.780355930328369141e+00 1.992311835289001465e+00
3.581000000000000000e+03 9.813996315002441406e+00 3.334952926635742188e+01 3.231036243960261345e-03 -4.647051391657441854e-04 8.298993343487381935e-04 1.523392158560454845e-03
3.582000000000000000e+03 3.908776473999023438e+01 3.118285751342773438e+01 3.398104667663574219e+00 9.203781127929687500e+00 3.780565977096557617e+00 6.239433288574218750e+00
3.583000000000000000e+03 3.241480255126953125e+01 3.765301132202148438e+01 -5.070559382438659668e-01 4.255658015608787537e-02 -1.393498033285140991e-01 7.704232335090637207e-01
3.584000000000000000e+03 3.241480827331542969e+00 -3.733455181121826172e+00 6.092762923799455166e-04 -2.192271640524268150e-04 1.170147443190217018e-04 5.737604224123060703e-04
3.585000000000000000e+03 5.150297641754150391e+00 -3.353194236755371094e+00 -3.359209513291716576e-04 -2.851159079000353813e-04 -1.863110519479960203e-04 -3.182680302415974438e-05
3.586000000000000000e+03 4.835730552673339844e+00 -3.127612304687500000e+01 -7.625340018421411514e-03 -5.925269215367734432e-04 -2.465360099449753761e-03 -3.628915874287486076e-03
3.587000000000000000e+03 1.095337390899658203e+01 -4.381368637084960938e+00 4.620989784598350525e-04 4.018706385977566242e-04 2.591908851172775030e-04 -5.188461509533226490e-04
3.588000000000000000e+03 3.947020721435546875e+01 3.038411521911621094e+01 2.060023784637451172e+00 1.080105590820312500e+01 3.858324050903320312e+00 5.032693862915039062e+00
3.589000000000000000e+03 4.251234436035156250e+01 3.015468597412109375e+01 1.674331188201904297e+00 1.392046260833740234e+01 4.678438186645507812e+00 3.699369132518768311e-01
3.590000000000000000e+03 4.356805038452148438e+01 2.966957092285156250e+01 1.740214347839355469e+00 1.285365486145019531e+01 4.378160953521728516e+00 -2.170024067163467407e-01
3.591000000000000000e+03 2.379294395446777344e+01 -3.252742767333984375e+01 1.209567114710807800e-01 3.177926778793334961e+00 9.896650314331054688e-01 1.161321029067039490e-01
3.592000000000000000e+03 9.895823478698730469e+00 2.593915939331054688e+01 2.332093892619013786e-03 5.123496521264314651e-04 8.533330983482301235e-04 -3.225537075195461512e-04
3.593000000000000000e+03 3.748812103271484375e+01 3.080471992492675781e+01 3.545468568801879883e+00 3.838221788406372070e+00 2.215107202529907227e+00 4.143673896789550781e+00
3.594000000000000000e+03 4.656684875488281250e+01 3.191253280639648438e+01 3.465353250503540039e+00 1.114532756805419922e+01 4.383204460144042969e+00 -3.011107146739959717e-01
3.595000000000000000e+03 7.610486602783203125e+01 3.393140411376953125e+01 1.194382980465888977e-01 5.349601745605468750e+00 1.640712022781372070e+00 -2.920444607734680176e-01
3.596000000000000000e+03 4.873674392700195312e+01 3.161357498168945312e+01 2.489736080169677734e+00 1.029211807250976562e+01 3.834556341171264648e+00 -5.046581625938415527e-01
3.597000000000000000e+03 4.662330627441406250e+01 2.997668838500976562e+01 2.300714731216430664e+00 1.108346462249755859e+01 4.015253543853759766e+00 -8.216933012008666992e-01
3.598000000000000000e+03 8.315864562988281250e+00 3.138779258728027344e+01 1.948132994584739208e-03 -1.853542198659852147e-04 5.288336542434990406e-04 1.337721245363354683e-03
3.599000000000000000e+03 8.676170349121093750e+00 -3.350460815429687500e+01 -1.791444607079029083e-02 5.139191169291734695e-03 -3.832576330751180649e-03 -5.092829000204801559e-03
3.600000000000000000e+03 3.794645071029663086e+00 6.513768672943115234e+00 6.637858459725975990e-04 1.912520383484661579e-04 2.565113536547869444e-04 -3.598156035877764225e-04
3.601000000000000000e+03 7.176374912261962891e+00 1.648809051513671875e+01 -5.342169315554201603e-04 -1.441333097318420187e-05 -1.645890733925625682e-04 -4.961459781043231487e-04
3.602000000000000000e+03 2.255267333984375000e+01 -3.219330978393554688e+01 8.127180486917495728e-02 3.104280710220336914e+00 9.556657671928405762e-01 1.339493989944458008e-01
3.603000000000000000e+03 2.525367927551269531e+01 -3.343056106567382812e+01 6.195004656910896301e-02 3.294438362121582031e+00 1.006916522979736328e+00 3.504410758614540100e-02
3.604000000000000000e+03 3.069878768920898438e+01 -3.307985305786132812e+01 -2.914184518158435822e-02 3.959205150604248047e+00 1.179018974304199219e+00 1.564489118754863739e-02
3.605000000000000000e+03 4.800458145141601562e+01 3.240644454956054688e+01 2.962451696395874023e+00 1.062210273742675781e+01 4.075366497039794922e+00 -1.239985600113868713e-01
3.606000000000000000e+03 6.836881256103515625e+01 -3.114964485168457031e+01 -4.710588231682777405e-02 8.200526237487792969e+00 2.446026086807250977e+00 -6.586551666259765625e-02
3.607000000000000000e+03 3.726906204223632812e+01 3.022704505920410156e+01 3.092485427856445312e+00 4.064773082733154297e+00 2.147177696228027344e+00 3.949836015701293945e+00
3.608000000000000000e+03 3.797565078735351562e+01 3.051951599121093750e+01 3.294616460800170898e+00 5.494946002960205078e+00 2.636868715286254883e+00 4.780128955841064453e+00
3.609000000000000000e+03 3.804346084594726562e+01 3.009326744079589844e+01 2.862583398818969727e+00 6.117060661315917969e+00 2.693893194198608398e+00 4.674088001251220703e+00
3.610000000000000000e+03 4.302022552490234375e+01 -3.090707397460937500e+01 -1.220230981707572937e-01 5.429310321807861328e+00 1.592186093330383301e+00 1.864855363965034485e-02
3.611000000000000000e+03 4.999873638153076172e+00 5.741412162780761719e+00 1.168146263808012009e-03 -2.466027799528092146e-04 2.764630480669438839e-04 -1.894427696242928505e-04
3.612000000000000000e+03 4.199610519409179688e+01 2.792737770080566406e+01 3.181332051753997803e-01 1.189308834075927734e+01 3.663366556167602539e+00 1.465247392654418945e+00
3.613000000000000000e+03 3.774217605590820312e+01 3.002679634094238281e+01 2.920665740966796875e+00 5.305167198181152344e+00 2.467749834060668945e+00 4.427739143371582031e+00
3.614000000000000000e+03 9.740496635437011719e+00 -5.754274845123291016e+00 -6.829240592196583748e-04 1.393228594679385424e-04 -1.630803599255159497e-04 7.315356633625924587e-04
3.615000000000000000e+03 7.865921497344970703e+00 6.794783592224121094e+00 2.293921716045588255e-04 2.968061307910829782e-04 1.578594819875434041e-04 -1.731862867018207908e-04
3.616000000000000000e+03 3.880736160278320312e+01 2.889426803588867188e+01 1.586943149566650391e+00 8.423454284667968750e+00 3.003119230270385742e+00 4.211801052093505859e+00
3.617000000000000000e+03 4.054391479492187500e+01 2.763733100891113281e+01 3.643495440483093262e-01 1.060583305358886719e+01 3.291054725646972656e+00 2.687290430068969727e+00
3.618000000000000000e+03 3.712323379516601562e+01 2.964538764953613281e+01 2.755309820175170898e+00 4.367938041687011719e+00 2.136974334716796875e+00 3.831091642379760742e+00
3.619000000000000000e+03 3.606380844116210938e+01 2.777626991271972656e+01 1.902121424674987793e+00 4.115633964538574219e+00 1.805326700210571289e+00 3.025307655334472656e+00
3.620000000000000000e+03 4.723419189453125000e+01 2.619654273986816406e+01 5.053427815437316895e-01 1.042656707763671875e+01 3.279572725296020508e+00 -6.522092223167419434e-01
3.621000000000000000e+03 6.913024902343750000e+01 2.115894889831542969e+01 4.559981450438499451e-02 7.239912509918212891e+00 2.185653686523437500e+00 -1.024454593658447266e+00
3.622000000000000000e+03 3.018609809875488281e+01 -2.972221374511718750e+01 -1.823783479630947113e-02 3.918359756469726562e+00 1.170036554336547852e+00 6.420810520648956299e-02
3.623000000000000000e+03 5.119709396362304688e+01 -2.195746421813964844e+01 -2.057807296514511108e-01 6.448368072509765625e+00 1.872776269912719727e+00 -4.363473504781723022e-02
3.624000000000000000e+03 5.546914100646972656e+00 2.155336952209472656e+01 9.685130789875984192e-04 -3.670348451123572886e-05 2.795428736135363579e-04 4.061110303155146539e-05
3.625000000000000000e+03 5.402374744415283203e+00 1.949822425842285156e+01 8.285968215204775333e-04 1.739853614708408713e-04 3.007746418006718159e-04 6.656927289441227913e-04
3.626000000000000000e+03 3.867197036743164062e+01 2.942362022399902344e+01 2.001177310943603516e+00 8.056969642639160156e+00 3.017444133758544922e+00 4.561322212219238281e+00
3.627000000000000000e+03 3.810221481323242188e+01 2.947856521606445312e+01 2.342219829559326172e+00 6.615218639373779297e+00 2.687231540679931641e+00 4.435156822204589844e+00
3.628000000000000000e+03 5.149977111816406250e+01 -1.887062835693359375e+01 -2.560234963893890381e-01 6.534819126129150391e+00 1.883638739585876465e+00 -5.832661688327789307e-02
3.629000000000000000e+03 7.024328231811523438e+00 7.332414627075195312e+00 3.057493886444717646e-04 4.380464670248329639e-04 2.231387625215575099e-04 -1.890653948066756129e-04
3.630000000000000000e+03 6.466165065765380859e+00 2.924854850769042969e+01 2.513261046260595322e-03 5.937585956417024136e-04 9.321059333160519600e-04 1.943248207680881023e-04
3.631000000000000000e+03 5.211346149444580078e+00 2.911423110961914062e+01 2.360113576287403703e-04 -1.185400760732591152e-03 -2.848168078344315290e-04 -7.299130083993077278e-04
3.632000000000000000e+03 3.423274993896484375e+01 2.943305587768554688e+01 2.016345977783203125e+00 1.595985531806945801e+00 1.083699464797973633e+00 1.679539442062377930e+00
3.633000000000000000e+03 3.486105346679687500e+01 2.790536308288574219e+01 1.919707894325256348e+00 2.870064020156860352e+00 1.436931610107421875e+00 2.372517824172973633e+00
3.634000000000000000e+03 5.322032546997070312e+01 -1.817172431945800781e+01 -2.627569735050201416e-01 6.693705558776855469e+00 1.929284572601318359e+00 -7.630357891321182251e-02
3.635000000000000000e+03 6.514697551727294922e+00 8.149949073791503906e+00 -2.138677155016921461e-05 6.366177112795412540e-04 1.845692750066518784e-04 -7.435309235006570816e-04
3.636000000000000000e+03 8.036684036254882812e+00 8.468100547790527344e+00 4.773133696289733052e-05 -4.851593112107366323e-04 -1.312283857259899378e-04 -1.039559574564918876e-04
3.637000000000000000e+03 6.419856071472167969e+00 7.495739936828613281e+00 1.370198442600667477e-04 -2.760383067652583122e-04 -4.170554166194051504e-05 3.736384969670325518e-04
3.638000000000000000e+03 3.628925323486328125e+01 2.693066787719726562e+01 1.535164475440979004e+00 4.721807956695556641e+00 1.877091765403747559e+00 3.000835657119750977e+00
3.639000000000000000e+03 3.230809783935546875e+01 -2.099402809143066406e+01 -1.066651493310928345e-01 4.202822208404541016e+00 1.228847146034240723e+00 1.435167938470840454e-01
3.640000000000000000e+03 3.363829803466796875e+01 -2.132388496398925781e+01 -1.115515530109405518e-01 4.376214504241943359e+00 1.279398918151855469e+00 1.479249000549316406e-01
3.641000000000000000e+03 3.140085983276367188e+01 -2.316760826110839844e+01 -6.576903164386749268e-02 4.081831455230712891e+00 1.204818725585937500e+00 1.196202486753463745e-01
3.642000000000000000e+03 7.252107238769531250e+01 -2.525468444824218750e+01 -2.761135995388031006e-02 8.659918785095214844e+00 2.589692354202270508e+00 -7.962509989738464355e-02
3.643000000000000000e+03 7.231412506103515625e+01 -2.421475601196289062e+01 -3.955085948109626770e-02 8.609661102294921875e+00 2.571033000946044922e+00 -8.610277622938156128e-02
3.644000000000000000e+03 6.795835113525390625e+01 1.961873626708984375e+01 -8.734343573451042175e-03 7.438746452331542969e+00 2.229003667831420898e+00 -1.083124995231628418e+00
3.645000000000000000e+03 4.883672714233398438e+01 -1.844895172119140625e+01 -2.609726488590240479e-01 6.227396488189697266e+00 1.789927124977111816e+00 -1.332539226859807968e-02
3.646000000000000000e+03 6.295075607299804688e+01 1.781611442565917969e+01 -1.414799392223358154e-01 7.901226043701171875e+00 2.327923774719238281e+00 -1.177282094955444336e+00
3.647000000000000000e+03 8.292821884155273438e+00 7.752421855926513672e+00 3.074149935855530202e-05 4.598134255502372980e-04 1.471664727432653308e-04 1.941144000738859177e-04
3.648000000000000000e+03 7.179200172424316406e+00 8.622303962707519531e+00 -9.904598846333101392e-05 1.690167700871825218e-04 2.099123594234697521e-05 -1.018038019537925720e-04
3.649000000000000000e+03 7.505186080932617188e+00 8.151592254638671875e+00 2.724836485867854208e-05 4.420014738570898771e-04 1.407749514328315854e-04 3.657668639789335430e-05
3.650000000000000000e+03 8.595968246459960938e+00 -5.630637168884277344e+00 -4.137332434765994549e-04 -5.357339396141469479e-04 -2.848401491064578295e-04 -5.787751433672383428e-06
3.651000000000000000e+03 3.857639312744140625e+01 2.847667121887207031e+01 1.492663860321044922e+00 7.829173088073730469e+00 2.796550989151000977e+00 3.956676006317138672e+00
3.652000000000000000e+03 4.269164276123046875e+01 2.688031959533691406e+01 8.205007761716842651e-02 1.118968486785888672e+01 3.381520509719848633e+00 9.906424880027770996e-01
3.653000000000000000e+03 5.579593276977539062e+01 -1.430128765106201172e+01 -2.983198463916778564e-01 7.026401042938232422e+00 2.018424272537231445e+00 -1.606051921844482422e-01
3.654000000000000000e+03 3.814597702026367188e+01 2.909167480468750000e+01 2.078606128692626953e+00 6.966136455535888672e+00 2.713422775268554688e+00 4.337076187133789062e+00
3.655000000000000000e+03 4.222282409667968750e+01 2.596198463439941406e+01 -1.146232262253761292e-01 1.053120136260986328e+01 3.124973535537719727e+00 1.348763823509216309e+00
3.656000000000000000e+03 3.781495285034179688e+01 2.903354835510253906e+01 2.156072854995727539e+00 6.151834964752197266e+00 2.492372274398803711e+00 4.104416370391845703e+00
3.657000000000000000e+03 3.806238555908203125e+01 2.875472831726074219e+01 1.902124166488647461e+00 6.862321376800537109e+00 2.629333734512329102e+00 4.130564212799072266e+00
3.658000000000000000e+03 3.875682449340820312e+01 2.787563323974609375e+01 1.160954713821411133e+00 8.009328842163085938e+00 2.751085042953491211e+00 3.654253959655761719e+00
3.659000000000000000e+03 7.026587486267089844e+00 8.049451828002929688e+00 -1.777293509803712368e-04 -4.562643880490213633e-04 -1.901981158880516887e-04 4.025535890832543373e-04
3.660000000000000000e+03 3.939635467529296875e+01 2.799087715148925781e+01 8.877445459365844727e-01 9.186576843261718750e+00 3.022296428680419922e+00 3.543698072433471680e+00
3.661000000000000000e+03 3.788135910034179688e+01 2.851904869079589844e+01 1.865262746810913086e+00 6.566543579101562500e+00 2.529541969299316406e+00 3.993093729019165039e+00
3.662000000000000000e+03 3.652764511108398438e+01 -1.991062736511230469e+01 -1.506950557231903076e-01 4.719151973724365234e+00 1.370537042617797852e+00 1.376685798168182373e-01
3.663000000000000000e+03 3.126378440856933594e+01 8.643149733543395996e-01 -2.335467487573623657e-01 3.957610130310058594e+00 1.117218971252441406e+00 6.595907807350158691e-01
3.664000000000000000e+03 3.751966094970703125e+01 2.905219650268554688e+01 2.278187751770019531e+00 5.530131816864013672e+00 2.342495918273925781e+00 3.962812185287475586e+00
3.665000000000000000e+03 7.044882965087890625e+01 -2.432324600219726562e+01 -4.374850913882255554e-02 8.434510231018066406e+00 2.517228603363037109e+00 -9.542810916900634766e-02
3.666000000000000000e+03 5.199157714843750000e+01 -1.319034671783447266e+01 -3.495369553565979004e-01 6.680101394653320312e+00 1.899169445037841797e+00 -8.396747708320617676e-02
3.667000000000000000e+03 3.809472274780273438e+01 2.836972045898437500e+01 1.700623154640197754e+00 6.901556015014648438e+00 2.580653667449951172e+00 3.935200452804565430e+00
3.668000000000000000e+03 3.371868896484375000e+01 -7.658419132232666016e+00 -2.378033399581909180e-01 4.438534259796142578e+00 1.260219335556030273e+00 3.916475772857666016e-01
3.669000000000000000e+03 5.555368423461914062e+01 1.697717094421386719e+01 -4.394471943378448486e-01 8.437825202941894531e+00 2.399513244628906250e+00 -9.633096456527709961e-01
3.670000000000000000e+03 5.618449020385742188e+01 1.833926582336425781e+01 -3.113194406032562256e-01 8.475382804870605469e+00 2.449218988418579102e+00 -1.056814193725585938e+00
3.671000000000000000e+03 6.821038818359375000e+01 1.440096473693847656e+01 -1.436550915241241455e-01 7.611327648162841797e+00 2.240301847457885742e+00 -9.906194210052490234e-01
3.672000000000000000e+03 3.742250061035156250e+01 2.865688514709472656e+01 2.107827901840209961e+00 5.595355987548828125e+00 2.310955047607421875e+00 3.832183361053466797e+00
3.673000000000000000e+03 3.392876815795898438e+01 -9.417239189147949219e+00 -2.138617336750030518e-01 4.426392555236816406e+00 1.263759255409240723e+00 3.366242945194244385e-01
3.674000000000000000e+03 3.394778442382812500e+01 2.645756530761718750e+01 1.515076518058776855e+00 2.901377439498901367e+00 1.324936270713806152e+00 2.086502790451049805e+00
3.675000000000000000e+03 4.297355270385742188e+01 -1.509813117980957031e+01 -2.919732034206390381e-01 5.603062629699707031e+00 1.593326807022094727e+00 1.100311428308486938e-01
3.676000000000000000e+03 3.771709442138671875e+01 -1.375975513458251953e+01 -2.415863126516342163e-01 4.936073303222656250e+00 1.408346056938171387e+00 2.067406624555587769e-01
3.677000000000000000e+03 3.787384033203125000e+01 2.723879051208496094e+01 1.248454570770263672e+00 6.659387111663818359e+00 2.372352361679077148e+00 3.437178611755371094e+00
3.678000000000000000e+03 5.671456527709960938e+01 1.618482589721679688e+01 -4.372393488883972168e-01 8.332842826843261719e+00 2.368681192398071289e+00 -9.937037229537963867e-01
3.679000000000000000e+03 5.485068511962890625e+01 1.578827095031738281e+01 -5.381234884262084961e-01 8.397600173950195312e+00 2.357842922210693359e+00 -8.636392951011657715e-01
3.680000000000000000e+03 4.613093566894531250e+01 -1.407422924041748047e+01 -3.305639624595642090e-01 6.019499778747558594e+00 1.706680655479431152e+00 5.144234001636505127e-02
3.681000000000000000e+03 4.456481933593750000e+01 -1.673748779296875000e+01 -2.724233567714691162e-01 5.762367248535156250e+00 1.646983146667480469e+00 7.345388084650039673e-02
3.682000000000000000e+03 3.087552261352539062e+01 2.664405441284179688e+01 1.109809041023254395e+00 1.435067772865295410e+00 7.634630203247070312e-01 9.853758811950683594e-01
3.683000000000000000e+03 4.445627975463867188e+01 -1.511441040039062500e+01 -3.027520775794982910e-01 5.780549526214599609e+00 1.643339276313781738e+00 9.405337274074554443e-02
3.684000000000000000e+03 3.709268951416015625e+01 2.481249046325683594e+01 7.183243632316589355e-01 5.936048507690429688e+00 1.996311902999877930e+00 2.731829166412353516e+00
3.685000000000000000e+03 3.632498168945312500e+01 2.430659103393554688e+01 7.395681142807006836e-01 5.318515777587890625e+00 1.817425131797790527e+00 2.561221599578857422e+00
3.686000000000000000e+03 3.723165130615234375e+01 2.415196800231933594e+01 4.989355504512786865e-01 6.086809158325195312e+00 1.975723385810852051e+00 2.574322462081909180e+00
3.687000000000000000e+03 4.326095962524414062e+01 2.171941184997558594e+01 -6.129170060157775879e-01 9.035222053527832031e+00 2.526691436767578125e+00 8.698420524597167969e-01
3.688000000000000000e+03 3.245248031616210938e+01 2.345438766479492188e+01 8.207036852836608887e-01 2.988915920257568359e+00 1.142885923385620117e+00 1.696145534515380859e+00
3.689000000000000000e+03 3.958964157104492188e+01 -1.338246059417724609e+01 -2.784179747104644775e-01 5.194456100463867188e+00 1.474811434745788574e+00 2.067218720912933350e-01
3.690000000000000000e+03 6.811483764648437500e+01 -3.402832984924316406e+00 -1.965091377496719360e-01 8.027081489562988281e+00 2.349171638488769531e+00 -4.717807769775390625e-01
3.691000000000000000e+03 4.310301589965820312e+01 -1.133739185333251953e+01 -3.609286546707153320e-01 5.683359146118164062e+00 1.596729159355163574e+00 1.554654240608215332e-01
3.692000000000000000e+03 3.308948898315429688e+01 2.309707832336425781e+01 7.431654334068298340e-01 3.357013225555419922e+00 1.230053544044494629e+00 1.811777472496032715e+00
3.693000000000000000e+03 4.478004455566406250e+01 -1.083342361450195312e+01 -3.901112377643585205e-01 5.929721832275390625e+00 1.661883234977722168e+00 1.137754395604133606e-01
3.694000000000000000e+03 4.552193832397460938e+01 -1.220306587219238281e+01 -3.655952513217926025e-01 5.973800659179687500e+00 1.682461619377136230e+00 8.518462628126144409e-02
3.695000000000000000e+03 4.441684341430664062e+01 1.180475330352783203e+01 -8.878068923950195312e-01 7.335458755493164062e+00 1.934295535087585449e+00 4.529258906841278076e-01
3.696000000000000000e+03 5.637070083618164062e+01 -6.471474468708038330e-02 -5.606381893157958984e-01 7.476417064666748047e+00 2.074733734130859375e+00 -4.036722779273986816e-01
3.697000000000000000e+03 3.531680679321289062e+01 2.211702919006347656e+01 4.042824804782867432e-01 4.867308616638183594e+00 1.581477403640747070e+00 2.114202499389648438e+00
3.698000000000000000e+03 6.650529479980468750e+01 -9.966718554496765137e-01 -2.632309794425964355e-01 7.919778347015380859e+00 2.296964168548583984e+00 -5.517579913139343262e-01
3.699000000000000000e+03 6.656648254394531250e+01 1.380943179130554199e+00 -2.801072895526885986e-01 7.909262180328369141e+00 2.288746595382690430e+00 -6.294267773628234863e-01
3.700000000000000000e+03 4.072840499877929688e+01 1.723763275146484375e+01 -6.935896873474121094e-01 7.250217914581298828e+00 1.966988444328308105e+00 1.177471518516540527e+00
3.701000000000000000e+03 3.983955001831054688e+01 1.736427688598632812e+01 -6.174302101135253906e-01 6.914292335510253906e+00 1.889058589935302734e+00 1.338674783706665039e+00
3.702000000000000000e+03 4.970943450927734375e+01 1.082617950439453125e+01 -8.568595051765441895e-01 7.829278945922851562e+00 2.091725826263427734e+00 -1.790213137865066528e-01
3.703000000000000000e+03 4.158871078491210938e+01 -1.551604151725769043e+00 -5.486333966255187988e-01 5.792644977569580078e+00 1.573203444480895996e+00 3.751574754714965820e-01
3.704000000000000000e+03 4.140446090698242188e+01 -3.222103118896484375e-01 -5.757080912590026855e-01 5.814919471740722656e+00 1.571763396263122559e+00 4.050340652465820312e-01
3.705000000000000000e+03 3.651920318603515625e+01 1.979638862609863281e+01 -9.701282531023025513e-02 5.586659908294677734e+00 1.646894216537475586e+00 1.835147380828857422e+00
3.706000000000000000e+03 3.522800064086914062e+01 1.292977619171142578e+01 -4.133300781250000000e-01 4.952295303344726562e+00 1.361689448356628418e+00 1.269152045249938965e+00
3.707000000000000000e+03 3.616544723510742188e+01 1.318776702880859375e+01 -4.699775278568267822e-01 5.299120903015136719e+00 1.448742985725402832e+00 1.295978188514709473e+00
3.708000000000000000e+03 3.708744430541992188e+01 1.613514137268066406e+01 -4.293258190155029297e-01 5.782827854156494141e+00 1.606050610542297363e+00 1.491149187088012695e+00
3.709000000000000000e+03 3.593838500976562500e+01 1.605721092224121094e+01 -3.252446055412292480e-01 5.287187576293945312e+00 1.488582968711853027e+00 1.508855104446411133e+00
3.710000000000000000e+03 3.986711883544921875e+01 1.073838233947753906e+01 -7.231276631355285645e-01 6.248767375946044922e+00 1.657691836357116699e+00 9.085382819175720215e-01
3.711000000000000000e+03 3.997349548339843750e+01 9.533849716186523438e+00 -7.198033332824707031e-01 6.166335582733154297e+00 1.633959650993347168e+00 8.223168253898620605e-01
3.712000000000000000e+03 5.925177764892578125e+01 2.467760562896728516e+00 -5.243530869483947754e-01 7.714285850524902344e+00 2.156979799270629883e+00 -5.816774368286132812e-01
3.713000000000000000e+03 6.053267669677734375e+01 1.078218817710876465e+00 -4.609140753746032715e-01 7.717229366302490234e+00 2.176894664764404297e+00 -5.646352171897888184e-01
3.714000000000000000e+03 1.426702117919921875e+01 1.252673983573913574e+00 -2.054569195024669170e-04 -4.794474989466834813e-06 -6.307541480055078864e-05 -1.534112234367057681e-04
3.715000000000000000e+03 1.462149238586425781e+01 1.164639949798583984e+00 4.474633024074137211e-04 1.064777006831718609e-05 1.374333223793655634e-04 -6.914533150848001242e-05
3.716000000000000000e+03 1.332876110076904297e+01 1.093653082847595215e+00 -6.632979784626513720e-05 -1.221465499838814139e-04 -5.654290362144820392e-05 -6.973554991418495774e-05
3.717000000000000000e+03 1.406522464752197266e+01 3.572364747524261475e-01 -5.561343277804553509e-05 -7.621010445291176438e-05 -3.954706335207447410e-05 -1.105121646105544642e-05
3.718000000000000000e+03 1.336003494262695312e+01 3.511472940444946289e-01 2.686645711946766824e-05 1.234259252669289708e-04 4.508771235123276711e-05 2.976711766677908599e-05
3.719000000000000000e+03 1.476313018798828125e+01 5.016638040542602539e-01 2.455132744216825813e-05 3.901103627867996693e-05 1.906870966195128858e-05 1.759554652380757034e-05
3.720000000000000000e+03 1.414069938659667969e+01 9.322270154953002930e-01 2.771456784103065729e-04 -7.948062557261437178e-05 5.929951294092461467e-05 1.156118669314309955e-04
3.721000000000000000e+03 1.384797477722167969e+01 1.187353014945983887e+00 5.662512194248847663e-05 7.430213736370205879e-05 3.927818033844232559e-05 6.879302236484363675e-05
3.722000000000000000e+03 1.112969017028808594e+01 3.708996772766113281e-01 -3.725941496668383479e-05 -1.197369565488770604e-04 -4.709891072707250714e-05 1.789107227523345500e-05
3.723000000000000000e+03 1.113907623291015625e+01 1.110847473144531250e+00 1.187584348372183740e-04 8.375543256988748908e-05 6.075415876694023609e-05 -5.088378748041577637e-05
3.724000000000000000e+03 1.263169097900390625e+01 3.451149165630340576e-01 -2.811939884850289673e-05 -1.506747066741809249e-04 -5.363823220250196755e-05 -4.850776349485386163e-06
3.725000000000000000e+03 1.037880802154541016e+01 3.837110698223114014e-01 4.155719216214492917e-05 9.143287024926394224e-05 3.989701872342266142e-05 -1.484337371948640794e-05
3.726000000000000000e+03 1.188065242767333984e+01 3.580341637134552002e-01 3.095803549513220787e-05 1.456195022910833359e-04 5.297326060826890171e-05 -1.097174663300393149e-05
3.727000000000000000e+03 1.264514160156250000e+01 1.084993243217468262e+00 6.006586045259609818e-05 1.209469119203276932e-04 5.430383316706866026e-05 4.916706984658958390e-06
3.728000000000000000e+03 1.038616180419921875e+01 1.123693704605102539e+00 -1.298597489949315786e-04 -7.107666897354647517e-05 -6.028092684573493898e-05 3.629265120252966881e-05
3.729000000000000000e+03 1.189207077026367188e+01 1.097947120666503906e+00 -8.486976003041490912e-05 -1.082479793694801629e-04 -5.793532181996852160e-05 4.255930616636760533e-05
3.730000000000000000e+03 9.625078201293945312e+00 3.871397972106933594e-01 -4.333035030867904425e-05 -7.487767288694158196e-05 -3.546240623109042645e-05 4.991282366972882301e-06
3.731000000000000000e+03 8.868724822998046875e+00 3.828192353248596191e-01 4.131388413952663541e-05 7.226489833556115627e-05 3.407363328733481467e-05 1.636609454180870671e-06
3.732000000000000000e+03 9.644926071166992188e+00 1.127139806747436523e+00 1.341143361059948802e-04 6.933997065061703324e-05 6.103629129938781261e-05 -1.563701698614750057e-05
3.733000000000000000e+03 8.112174034118652344e+00 3.804100155830383301e-01 -4.044728848384693265e-05 -7.297292904695495963e-05 -3.402606307645328343e-05 -3.422165264055365697e-06
3.734000000000000000e+03 7.356014251708984375e+00 3.793691694736480713e-01 3.878556890413165092e-05 6.915393169037997723e-05 3.238184945075772703e-05 1.122777121054241434e-06
3.735000000000000000e+03 5.843623161315917969e+00 3.767499327659606934e-01 3.695315535878762603e-05 3.271675814175978303e-05 2.090097405016422272e-05 -1.175902434624731541e-05
3.736000000000000000e+03 5.088051319122314453e+00 3.757717311382293701e-01 -2.820493136823642999e-05 -2.888369010634050937e-07 -8.548130608687642962e-06 2.474042230460327119e-05
3.737000000000000000e+03 3.576755046844482422e+00 3.680583238601684570e-01 -4.135408380534499884e-05 5.663152842316776514e-05 4.583233021548949182e-06 2.884611603803932667e-05
3.738000000000000000e+03 2.822042465209960938e+00 3.613462746143341064e-01 6.009329808875918388e-05 -5.055764631833881140e-05 2.860695985873462632e-06 -1.260228782484773546e-05
3.739000000000000000e+03 2.068703651428222656e+00 3.577998280525207520e-01 -4.666721724788658321e-05 2.771429899439681321e-05 -5.685876203642692417e-06 4.257027740095509216e-06
3.740000000000000000e+03 2.358754634857177734e+00 1.097799897193908691e+00 1.478884805692359805e-04 -2.593290673758019693e-06 4.358855585451237857e-05 2.481531373632606119e-05
3.741000000000000000e+03 1.327708005905151367e+00 3.658417165279388428e-01 6.470100288424873725e-06 -2.947558459709398448e-05 -6.901645519974408671e-06 -3.541327532730065286e-05
3.742000000000000000e+03 1.644779324531555176e+00 1.105841755867004395e+00 -8.194761903723701835e-05 -5.875877104699611664e-05 -4.221191557007841766e-05 -1.807158332667313516e-05
3.743000000000000000e+03 6.509408354759216309e-01 3.937322795391082764e-01 1.421583583578467369e-04 1.210314803756773472e-04 7.895695307524874806e-05 1.583178382134065032e-04
3.744000000000000000e+03 3.482567369937896729e-01 9.569563269615173340e-01 -2.237223670817911625e-04 -1.407794625265523791e-04 -1.093505488825030625e-04 -4.851345875067636371e-05
3.745000000000000000e+03 3.085073232650756836e+00 1.101346254348754883e+00 -1.689325581537559628e-04 2.198109541495796293e-05 -4.408544191392138600e-05 -3.756699697987642139e-07
3.746000000000000000e+03 3.812765598297119141e+00 1.108058333396911621e+00 1.460666389903053641e-04 -9.677280104369856417e-06 4.091680966666899621e-05 -3.722130713867954910e-05
3.747000000000000000e+03 4.332499980926513672e+00 3.732680678367614746e-01 3.758106686291284859e-05 -3.542205013218335807e-05 6.477051783804199658e-07 -3.257942807977087796e-05
3.748000000000000000e+03 5.998572826385498047e+00 1.116749882698059082e+00 -9.836191020440310240e-05 -5.064190190751105547e-05 -4.470114436117000878e-05 3.665569965960457921e-05
3.749000000000000000e+03 6.600036144256591797e+00 3.784387111663818359e-01 -3.714020203915424645e-05 -5.556788164540193975e-05 -2.781242437777109444e-05 4.574188551487168297e-06
3.750000000000000000e+03 8.186062812805175781e+00 1.120409965515136719e+00 1.118340514949522913e-04 7.288422784768044949e-05 5.541548307519406080e-05 -2.222297780463122763e-06
3.751000000000000000e+03 8.915593147277832031e+00 1.122819185256958008e+00 -1.218239849549718201e-04 -7.053942681523039937e-05 -5.770902134827338159e-05 2.177145233872579411e-06
3.752000000000000000e+03 7.456923484802246094e+00 1.119369149208068848e+00 -1.059818896465003490e-04 -7.063416705932468176e-05 -5.298481846693903208e-05 1.173957934952341020e-05
3.753000000000000000e+03 6.727965354919433594e+00 1.118438720703125000e+00 1.033801163430325687e-04 6.390363705577328801e-05 5.018512820242904127e-05 -2.228943958471063524e-05
3.754000000000000000e+03 5.270021438598632812e+00 1.115771770477294922e+00 9.585109364707022905e-05 3.618935443228110671e-05 3.961213587899692357e-05 -4.558972068480215967e-05
3.755000000000000000e+03 4.541490077972412109e+00 1.113268017768859863e+00 -1.069026693585328758e-04 -1.713773963274434209e-05 -3.721212124219164252e-05 5.298308678902685642e-05
3.756000000000000000e+03 9.950323700904846191e-01 1.133732318878173828e+00 -4.493457163334824145e-05 1.926228578668087721e-04 4.430648550624027848e-05 -5.793687887489795685e-05
3.757000000000000000e+03 7.951600551605224609e+00 -3.791473805904388428e-01 -8.325714588863775134e-05 -4.213247157167643309e-04 -1.513745664851740003e-04 6.396607204806059599e-05
3.758000000000000000e+03 8.812386512756347656e+00 -1.121279358863830566e+00 -1.969918230315670371e-04 -2.737215254455804825e-04 -1.412140118191018701e-04 1.077883789548650384e-04
3.759000000000000000e+03 9.587816238403320312e+00 -3.863115906715393066e-01 -7.653403008589521050e-05 -2.856136416085064411e-04 -1.086443007807247341e-04 6.157439202070236206e-05
3.760000000000000000e+03 7.132064342498779297e+00 -3.779651820659637451e-01 8.524196891812607646e-05 4.461539501789957285e-04 1.594187779119238257e-04 -7.106714474502950907e-05
3.761000000000000000e+03 6.306247234344482422e+00 -3.772793114185333252e-01 -7.295280374819412827e-05 -4.421774065122008324e-04 -1.545390696264803410e-04 6.339505489449948072e-05
3.762000000000000000e+03 5.442752361297607422e+00 -3.835102021694183350e-01 2.273245081596542150e-05 3.847050247713923454e-04 1.222312421305105090e-04 -2.871577407859149389e-06
3.763000000000000000e+03 4.552286148071289062e+00 -3.399353623390197754e-01 -6.907306669745594263e-05 -3.568796382751315832e-04 -1.277858100365847349e-04 -4.560644811135716736e-05
3.764000000000000000e+03 4.371328830718994141e+00 -8.708365559577941895e-01 3.583662910386919975e-04 1.487689296482130885e-04 1.521405647508800030e-04 1.470090937800705433e-04
3.765000000000000000e+03 2.785328388214111328e+00 -7.796061038970947266e-01 2.521991846151649952e-04 -1.269635831704363227e-04 3.757067679543979466e-05 4.025074013043195009e-04
3.766000000000000000e+03 1.180722951889038086e+00 -3.608860373497009277e-01 -3.782058192882686853e-04 1.045317549142055213e-04 -8.210221858462318778e-05 -5.501352643477730453e-05
3.767000000000000000e+03 4.099212884902954102e-01 -5.526853203773498535e-01 -7.575882136734435335e-06 -1.068117999238893390e-04 -3.431630466366186738e-05 -6.009460776112973690e-05
3.768000000000000000e+03 7.477942705154418945e-01 -1.100885987281799316e+00 1.026390818879008293e-03 8.988407353172078729e-05 3.348824393469840288e-04 1.379438181174919009e-04
3.769000000000000000e+03 9.597747802734375000e+00 -1.126311540603637695e+00 1.941726513905450702e-04 2.410483139101415873e-04 1.305662881350144744e-04 -1.454454322811216116e-04
3.770000000000000000e+03 8.026608467102050781e+00 -1.119147419929504395e+00 2.028761082328855991e-04 2.858646330423653126e-04 1.466222311137244105e-04 -7.830190588720142841e-05
3.771000000000000000e+03 7.239610195159912109e+00 -1.117965221405029297e+00 -2.105000312440097332e-04 -2.764922974165529013e-04 -1.460977073293179274e-04 5.104371666675433517e-05
3.772000000000000000e+03 6.446331024169921875e+00 -1.117279291152954102e+00 1.772083342075347900e-04 2.478098904248327017e-04 1.275054673897102475e-04 -2.950158341263886541e-05
3.773000000000000000e+03 5.615375041961669922e+00 -1.123510241508483887e+00 -1.000725387712009251e-04 -1.999092201003804803e-04 -8.999452256830409169e-05 1.140184485848294571e-05
3.774000000000000000e+03 4.879715442657470703e+00 -1.221276640892028809e+00 -3.602661308832466602e-05 7.325981277972459793e-05 1.116996008931891993e-05 -1.181002298835664988e-04
3.775000000000000000e+03 4.223337173461914062e+00 -1.290901184082031250e+00 -2.966045285575091839e-04 2.460598079778719693e-05 -8.159956632880493999e-05 -2.688019594643265009e-05
3.776000000000000000e+03 3.489140987396240234e+00 -1.263193726539611816e+00 3.122990310657769442e-04 2.914170727308373898e-05 1.024322191369719803e-04 2.952186914626508951e-04
3.777000000000000000e+03 2.723763942718505859e+00 -1.258556365966796875e+00 -1.910328865051269531e-04 -1.882918295450508595e-04 -1.137974104494787753e-04 -5.015740753151476383e-04
3.778000000000000000e+03 1.357383847236633301e+00 -1.202877521514892578e+00 -1.191321876831352711e-03 -2.569199714343994856e-04 -4.344725748524069786e-04 -7.629779429407790303e-05
3.779000000000000000e+03 8.769917488098144531e+00 -3.812793791294097900e-01 7.195868238341063261e-05 3.688032156787812710e-04 1.322285679634660482e-04 -6.221936200745403767e-05
3.780000000000000000e+03 3.581377506256103516e+00 -7.854385375976562500e-01 -2.998482086695730686e-04 -8.235059794969856739e-05 -1.146596405305899680e-04 -2.404966653557494283e-04
3.781000000000000000e+03 3.695749998092651367e+00 -2.822447717189788818e-01 9.300517558585852385e-05 3.532017290126532316e-04 1.338620786555111408e-04 1.128986841649748385e-04
3.782000000000000000e+03 2.864297151565551758e+00 -2.810497581958770752e-01 -1.645367592573165894e-04 -2.829491277225315571e-04 -1.342457690043374896e-04 -1.350486854789778590e-04
3.783000000000000000e+03 1.994235515594482422e+00 -3.319245874881744385e-01 4.146473293076269329e-05 1.160237661679275334e-04 4.724655082100071013e-05 2.086884342133998871e-04
3.784000000000000000e+03 1.981270551681518555e+00 -1.274680376052856445e+00 3.640374052338302135e-04 3.809335466939955950e-04 2.234912826679646969e-04 4.700826248154044151e-04
3.785000000000000000e+03 1.973554253578186035e+00 -8.466050028800964355e-01 3.611138090491294861e-04 1.767654175637289882e-04 1.613637577975168824e-04 -5.725929513573646545e-04
3.786000000000000000e+03 1.332448291778564453e+01 -3.621845245361328125e-01 1.443618093617260456e-04 -2.004213311010971665e-04 -1.681785761320497841e-05 2.258158747281413525e-05
3.787000000000000000e+03 1.426397991180419922e+01 -1.317608714103698730e+00 -4.247388860676437616e-04 -2.106724277837201953e-04 -1.906233956106007099e-04 -2.258242166135460138e-04
3.788000000000000000e+03 1.327361392974853516e+01 -1.248556852340698242e+00 -1.921064394991844893e-04 -2.628197944432031363e-05 -6.551652768393978477e-05 2.802972448989748955e-04
3.789000000000000000e+03 1.480296707153320312e+01 -1.047354817390441895e+00 3.316860820632427931e-04 2.155047841370105743e-04 1.641572598600760102e-04 1.541713572805747390e-04
3.790000000000000000e+03 1.356446647644042969e+01 -7.579438090324401855e-01 -2.152727829525247216e-04 -7.391556573566049337e-05 -8.675650315126404166e-05 -3.007217310369014740e-04
3.791000000000000000e+03 1.393659019470214844e+01 -3.302382230758666992e-01 3.835751340375281870e-05 1.851170090958476067e-04 6.704236147925257683e-05 9.813311771722510457e-05
3.792000000000000000e+03 1.449034786224365234e+01 -4.399540424346923828e-01 -2.974984818138182163e-04 -2.675932191777974367e-04 -1.695275132078677416e-04 -3.104416246060281992e-04
3.793000000000000000e+03 1.380024147033691406e+01 -1.352263331413269043e+00 5.834073526784777641e-04 -6.611088610952720046e-05 1.551889436086639762e-04 -6.917155405972152948e-05
3.794000000000000000e+03 1.402595424652099609e+01 -9.610455632209777832e-01 5.158770945854485035e-04 1.032272120937705040e-04 1.857312890933826566e-04 3.967167285736650229e-04
3.795000000000000000e+03 1.185737037658691406e+01 -1.162281751632690430e+00 -2.114505914505571127e-04 -4.388064917293377221e-05 -7.659937546122819185e-05 1.301046286243945360e-04
3.796000000000000000e+03 1.112013435363769531e+01 -4.102526009082794189e-01 -7.879450276959687471e-05 -8.806439291220158339e-05 -5.005766797694377601e-05 5.428245640359818935e-05
3.797000000000000000e+03 1.261753940582275391e+01 -4.348734915256500244e-01 -7.771102536935359240e-05 1.468671107431873679e-04 2.074682743113953620e-05 7.491699216188862920e-05
3.798000000000000000e+03 1.037124824523925781e+01 -3.971002995967864990e-01 7.240419654408469796e-05 1.990501186810433865e-04 8.143629383994266391e-05 -6.172020948724821210e-05
3.799000000000000000e+03 1.036389350891113281e+01 -1.137082934379577637e+00 -2.261685731355100870e-04 -1.833399583119899035e-04 -1.228525652550160885e-04 1.752775133354589343e-04
3.800000000000000000e+03 1.260408973693847656e+01 -1.174751639366149902e+00 1.879166957223787904e-04 3.453167664702050388e-05 6.673451571259647608e-05 -1.536992494948208332e-04
3.801000000000000000e+03 1.111074829101562500e+01 -1.150200366973876953e+00 2.399561926722526550e-04 9.191197750624269247e-05 9.956044959835708141e-05 -1.581719989189878106e-04
3.802000000000000000e+03 1.186878871917724609e+01 -4.223687946796417236e-01 5.834444527863524854e-05 -2.112665788445156068e-05 1.116533621825510636e-05 -6.269000732572749257e-05
3.803000000000000000e+03 3.998302841186523438e+01 3.379452896118164062e+01 3.728379821777343750e+01 2.763627052307128906e+00 1.201422786712646484e+01 6.478172302246093750e+00
3.804000000000000000e+03 3.998332595825195312e+01 3.377506637573242188e+01 3.911580276489257812e+01 1.064959239959716797e+01 1.492961788177490234e+01 1.974743843078613281e+01
3.805000000000000000e+03 3.998740768432617188e+01 3.375603103637695312e+01 3.854543685913085938e+01 2.075297927856445312e+01 1.778952407836914062e+01 2.604939460754394531e+01
3.806000000000000000e+03 3.999511718750000000e+01 3.373815155029296875e+01 3.555954360961914062e+01 3.233855056762695312e+01 2.036942863464355469e+01 3.007659530639648438e+01
3.807000000000000000e+03 4.000615692138671875e+01 3.372211837768554688e+01 3.179730987548828125e+01 4.380682373046875000e+01 2.268124008178710938e+01 3.102132034301757812e+01
3.808000000000000000e+03 4.002010726928710938e+01 3.370853805541992188e+01 2.744685554504394531e+01 5.474374008178710938e+01 2.465717887878417969e+01 2.923298072814941406e+01
3.809000000000000000e+03 4.003643798828125000e+01 3.369793701171875000e+01 2.366033363342285156e+01 6.372084426879882812e+01 2.621435356140136719e+01 2.501610946655273438e+01
3.810000000000000000e+03 4.005451583862304688e+01 3.369071578979492188e+01 2.124879455566406250e+01 7.016783142089843750e+01 2.742498779296875000e+01 1.892995262145996094e+01
3.811000000000000000e+03 4.007365417480468750e+01 3.368715286254882812e+01 2.052986335754394531e+01 7.342578125000000000e+01 2.818669319152832031e+01 1.199855899810791016e+01
3.812000000000000000e+03 4.009312057495117188e+01 3.368738555908203125e+01 2.210879325866699219e+01 7.374114990234375000e+01 2.875498199462890625e+01 5.225993156433105469e+00
3.813000000000000000e+03 4.011217117309570312e+01 3.369140243530273438e+01 2.528901290893554688e+01 7.130319976806640625e+01 2.897766304016113281e+01 -6.191052198410034180e-01
3.814000000000000000e+03 4.013007354736328125e+01 3.369905090332031250e+01 2.932500839233398438e+01 6.702637481689453125e+01 2.890541458129882812e+01 -4.612734794616699219e+00
3.815000000000000000e+03 4.014614486694335938e+01 3.371003723144531250e+01 3.442372131347656250e+01 6.211450576782226562e+01 2.896146774291992188e+01 -6.499851703643798828e+00
3.816000000000000000e+03 4.015977096557617188e+01 3.372394561767578125e+01 3.927140426635742188e+01 5.689848327636718750e+01 2.885096549987792969e+01 -6.458625793457031250e+00
3.817000000000000000e+03 4.017042541503906250e+01 3.374023818969726562e+01 4.298155593872070312e+01 5.209401702880859375e+01 2.852267265319824219e+01 -4.827203273773193359e+00
3.818000000000000000e+03 4.017770767211914062e+01 3.375829315185546875e+01 4.601884460449218750e+01 4.952125549316406250e+01 2.866202926635742188e+01 -1.772411704063415527e+00
3.819000000000000000e+03 4.018133163452148438e+01 3.377742004394531250e+01 4.771228408813476562e+01 4.789337158203125000e+01 2.868169784545898438e+01 2.504028320312500000e+00
3.820000000000000000e+03 4.018116760253906250e+01 3.379688644409179688e+01 4.749332809448242188e+01 4.764680480957031250e+01 2.854203987121582031e+01 6.747268199920654297e+00
3.821000000000000000e+03 4.017721557617187500e+01 3.381594848632812500e+01 4.597613906860351562e+01 5.008447265625000000e+01 2.881818389892578125e+01 1.083142089843750000e+01
3.822000000000000000e+03 4.016962432861328125e+01 3.383387756347656250e+01 4.247920989990234375e+01 5.419588470458984375e+01 2.900252723693847656e+01 1.434435749053955078e+01
3.823000000000000000e+03 4.015869140625000000e+01 3.384998703002929688e+01 3.719787597656250000e+01 5.877656555175781250e+01 2.879233169555664062e+01 1.645898056030273438e+01
3.824000000000000000e+03 4.014482879638671875e+01 3.386365509033203125e+01 3.159803199768066406e+01 6.496488952636718750e+01 2.896887779235839844e+01 1.627947425842285156e+01
3.825000000000000000e+03 4.012857437133789062e+01 3.387436676025390625e+01 2.481166076660156250e+01 7.033318328857421875e+01 2.854345321655273438e+01 1.402453041076660156e+01
3.826000000000000000e+03 4.011054229736328125e+01 3.388171005249023438e+01 1.881023025512695312e+01 7.452875518798828125e+01 2.800169372558593750e+01 9.423114776611328125e+00
3.827000000000000000e+03 4.009142684936523438e+01 3.388539886474609375e+01 1.413859844207763672e+01 7.638375854492187500e+01 2.715670776367187500e+01 3.094730615615844727e+00
3.828000000000000000e+03 4.007196044921875000e+01 3.388529586791992188e+01 1.108470916748046875e+01 7.518586730957031250e+01 2.588117408752441406e+01 -4.453735828399658203e+00
3.829000000000000000e+03 4.005288314819335938e+01 3.388140869140625000e+01 1.005612182617187500e+01 7.074862670898437500e+01 2.424142456054687500e+01 -1.174527072906494141e+01
3.830000000000000000e+03 4.003493118286132812e+01 3.387387847900390625e+01 1.115262126922607422e+01 6.309932708740234375e+01 2.227558326721191406e+01 -1.821880149841308594e+01
3.831000000000000000e+03 4.001878738403320312e+01 3.386299896240234375e+01 1.333514022827148438e+01 5.297599792480468750e+01 1.989334106445312500e+01 -2.271609306335449219e+01
3.832000000000000000e+03 4.000506973266601562e+01 3.384918212890625000e+01 1.690914916992187500e+01 4.062141418457031250e+01 1.725916862487792969e+01 -2.474280548095703125e+01
3.833000000000000000e+03 3.999430465698242188e+01 3.383296203613281250e+01 2.040711593627929688e+01 2.785453033447265625e+01 1.447849369049072266e+01 -2.371107292175292969e+01
3.834000000000000000e+03 3.998690414428710938e+01 3.381495666503906250e+01 2.660643768310546875e+01 1.138283443450927734e+01 1.139678192138671875e+01 -1.608533668518066406e+01
