# el_label, x, y, sXX, sYY, sZZ, sXY
1.000000000000000000e+00 2.502277755737304688e+01 3.638607788085937500e+01 -5.475641489028930664e-01 -1.603254556655883789e+00 -6.452456116676330566e-01 -1.360185980796813965e+00
2.000000000000000000e+00 2.482494163513183594e+01 3.636420440673828125e+01 1.000697731971740723e+00 6.833678483963012695e-01 5.052196979522705078e-01 6.562592387199401855e-01
3.000000000000000000e+00 2.462710571289062500e+01 3.634232711791992188e+01 -1.906638890504837036e-01 -2.712607979774475098e-01 -1.385774016380310059e-01 9.776471555233001709e-02
4.000000000000000000e+00 2.442926979064941406e+01 3.632045364379882812e+01 -5.636223554611206055e-01 1.786452233791351318e-01 -1.154931485652923584e-01 1.678233891725540161e-01
5.000000000000000000e+00 2.503484344482421875e+01 3.632892990112304688e+01 8.268464088439941406e+00 -1.379637122154235840e+00 2.066648006439208984e+00 1.832066059112548828e+00
6.000000000000000000e+00 2.484505271911621094e+01 3.626895904541015625e+01 3.150638818740844727e+00 4.005071222782135010e-01 1.065343856811523438e+00 1.249182343482971191e+00
7.000000000000000000e+00 2.465526008605957031e+01 3.620898818969726562e+01 2.759098529815673828e+00 6.439175605773925781e-01 1.020904898643493652e+00 1.546620130538940430e+00
8.000000000000000000e+00 2.446546936035156250e+01 3.614901733398437500e+01 1.786460995674133301e+00 1.780830919742584229e-01 5.893632173538208008e-01 1.043906092643737793e+00
9.000000000000000000e+00 2.505780410766601562e+01 3.627522659301757812e+01 1.081098461151123047e+01 1.849032759666442871e+00 3.798005342483520508e+00 6.303938388824462891e+00
1.000000000000000000e+01 2.488331985473632812e+01 3.617945480346679688e+01 6.478809356689453125e+00 1.309822082519531250e+00 2.336589574813842773e+00 3.676772356033325195e+00
1.100000000000000000e+01 2.470883560180664062e+01 3.608367919921875000e+01 4.249294757843017578e+00 1.530614256858825684e+00 1.733972668647766113e+00 2.903652429580688477e+00
1.200000000000000000e+01 2.453435134887695312e+01 3.598790740966796875e+01 3.619171619415283203e+00 1.372635126113891602e+00 1.497542023658752441e+00 2.637827396392822266e+00
1.300000000000000000e+01 2.509078025817871094e+01 3.622702026367187500e+01 1.133881092071533203e+01 6.354288101196289062e+00 5.307929515838623047e+00 9.538675308227539062e+00
1.400000000000000000e+01 2.493828201293945312e+01 3.609910964965820312e+01 7.162666320800781250e+00 3.997985601425170898e+00 3.348195552825927734e+00 6.228852748870849609e+00
1.500000000000000000e+01 2.478578186035156250e+01 3.597119903564453125e+01 5.541618824005126953e+00 3.408869266510009766e+00 2.685146331787109375e+00 4.884889602661132812e+00
1.600000000000000000e+01 2.463328361511230469e+01 3.584328842163085938e+01 4.255050182342529297e+00 3.003449678421020508e+00 2.177550077438354492e+00 4.076047897338867188e+00
1.700000000000000000e+01 2.513251113891601562e+01 3.618615722656250000e+01 9.730728149414062500e+00 1.165735340118408203e+01 6.416424751281738281e+00 1.140422153472900391e+01
1.800000000000000000e+01 2.500783348083496094e+01 3.603100204467773438e+01 7.012406826019287109e+00 7.675288200378417969e+00 4.406308650970458984e+00 7.971124172210693359e+00
1.900000000000000000e+01 2.488315391540527344e+01 3.587585067749023438e+01 5.258966445922851562e+00 6.138276100158691406e+00 3.419172763824462891e+00 6.411660671234130859e+00
2.000000000000000000e+01 2.475847625732421875e+01 3.572069931030273438e+01 4.437434196472167969e+00 5.507027626037597656e+00 2.983338594436645508e+00 5.502534389495849609e+00
2.100000000000000000e+01 2.518140029907226562e+01 3.615420150756835938e+01 7.866773128509521484e+00 1.700238227844238281e+01 7.460746765136718750e+00 1.157092189788818359e+01
2.200000000000000000e+01 2.508931350708007812e+01 3.597774124145507812e+01 5.691435813903808594e+00 1.170868110656738281e+01 5.220035076141357422e+00 8.597004890441894531e+00
2.300000000000000000e+01 2.499722671508789062e+01 3.580128479003906250e+01 4.624001026153564453e+00 9.446761131286621094e+00 4.221228599548339844e+00 7.147932052612304688e+00
2.400000000000000000e+01 2.490513992309570312e+01 3.562482833862304688e+01 3.656177520751953125e+00 8.178166389465332031e+00 3.550302982330322266e+00 6.188309669494628906e+00
2.500000000000000000e+01 2.523557472229003906e+01 3.613237380981445312e+01 5.868920326232910156e+00 2.168369674682617188e+01 8.265785217285156250e+00 1.016940498352050781e+01
2.600000000000000000e+01 2.517960357666015625e+01 3.594136428833007812e+01 4.474026679992675781e+00 1.555534458160400391e+01 6.008811473846435547e+00 8.142737388610839844e+00
2.700000000000000000e+01 2.512363243103027344e+01 3.575035476684570312e+01 3.467407226562500000e+00 1.274839496612548828e+01 4.864740371704101562e+00 6.838376045227050781e+00
2.800000000000000000e+01 2.506766319274902344e+01 3.555934524536132812e+01 2.795268058776855469e+00 1.103535556793212891e+01 4.149187088012695312e+00 6.076643466949462891e+00
2.900000000000000000e+01 2.529296112060546875e+01 3.612150955200195312e+01 4.794734477996826172e+00 2.517447853088378906e+01 8.990763664245605469e+00 7.752788543701171875e+00
3.000000000000000000e+01 2.527524948120117188e+01 3.592325973510742188e+01 3.442699670791625977e+00 1.870198059082031250e+01 6.643404006958007812e+00 6.653016567230224609e+00
3.100000000000000000e+01 2.525753593444824219e+01 3.572500991821289062e+01 2.577477455139160156e+00 1.565776538848876953e+01 5.470572948455810547e+00 5.793186664581298828e+00
3.200000000000000000e+01 2.523982429504394531e+01 3.552675628662109375e+01 2.026377201080322266e+00 1.372647476196289062e+01 4.725855350494384766e+00 5.122121810913085938e+00
3.300000000000000000e+01 2.535136413574218750e+01 3.612202835083007812e+01 4.705922603607177734e+00 2.716362571716308594e+01 9.560864448547363281e+00 4.788259506225585938e+00
3.400000000000000000e+01 2.537258911132812500e+01 3.592412185668945312e+01 3.141916751861572266e+00 2.092511558532714844e+01 7.220109939575195312e+00 4.625688552856445312e+00
3.500000000000000000e+01 2.539381217956542969e+01 3.572621536254882812e+01 2.164741516113281250e+00 1.771806716918945312e+01 5.964842319488525391e+00 4.132001399993896484e+00
3.600000000000000000e+01 2.541503524780273438e+01 3.552830886840820312e+01 1.682429194450378418e+00 1.583241653442382812e+01 5.254453659057617188e+00 3.768049955368041992e+00
3.700000000000000000e+01 2.540855216979980469e+01 3.613390731811523438e+01 5.763947486877441406e+00 2.777433967590332031e+01 1.006148624420166016e+01 1.990605115890502930e+00
3.800000000000000000e+01 2.546789932250976562e+01 3.594392013549804688e+01 3.573009490966796875e+00 2.199066734313964844e+01 7.669102668762207031e+00 2.382659435272216797e+00
3.900000000000000000e+01 2.552724647521972656e+01 3.575393295288085938e+01 2.512600421905517578e+00 1.890490341186523438e+01 6.425251483917236328e+00 2.298678159713745117e+00
4.000000000000000000e+01 2.558659362792968750e+01 3.556394577026367188e+01 1.863480925559997559e+00 1.684314918518066406e+01 5.611989021301269531e+00 2.154993295669555664e+00
4.100000000000000000e+01 2.546232986450195312e+01 3.615669250488281250e+01 7.588921070098876953e+00 2.719225883483886719e+01 1.043435382843017578e+01 -2.405651956796646118e-01
4.200000000000000000e+01 2.555752944946289062e+01 3.598189544677734375e+01 4.797106266021728516e+00 2.208138656616210938e+01 8.063548088073730469e+00 4.186053872108459473e-01
4.300000000000000000e+01 2.565273094177246094e+01 3.580709457397460938e+01 3.500773668289184570e+00 1.908241462707519531e+01 6.774956226348876953e+00 5.827240347862243652e-01
4.400000000000000000e+01 2.574793052673339844e+01 3.563229751586914062e+01 2.670033216476440430e+00 1.712285804748535156e+01 5.937867641448974609e+00 5.936133861541748047e-01
4.500000000000000000e+01 2.551064300537109375e+01 3.618951034545898438e+01 9.843618392944335938e+00 2.593065643310546875e+01 1.073228168487548828e+01 -1.578594684600830078e+00
4.600000000000000000e+01 2.563805198669433594e+01 3.603659057617187500e+01 6.539101123809814453e+00 2.133166694641113281e+01 8.361229896545410156e+00 -9.730236530303955078e-01
4.700000000000000000e+01 2.576546096801757812e+01 3.588367080688476562e+01 4.983787536621093750e+00 1.856394958496093750e+01 7.064321041107177734e+00 -6.983851194381713867e-01
4.800000000000000000e+01 2.589286994934082031e+01 3.573075103759765625e+01 3.957599639892578125e+00 1.677722167968750000e+01 6.220446586608886719e+00 -5.444043278694152832e-01
4.900000000000000000e+01 2.555164337158203125e+01 3.623110580444335938e+01 1.211539173126220703e+01 2.438700675964355469e+01 1.095071983337402344e+01 -1.978506445884704590e+00
5.000000000000000000e+01 2.570638656616210938e+01 3.610591888427734375e+01 8.472186088562011719e+00 2.012230300903320312e+01 8.578347206115722656e+00 -1.597839713096618652e+00
5.100000000000000000e+01 2.586112785339355469e+01 3.598072814941406250e+01 6.653082847595214844e+00 1.762098884582519531e+01 7.282221317291259766e+00 -1.301699399948120117e+00
5.200000000000000000e+01 2.601587104797363281e+01 3.585554122924804688e+01 5.490704059600830078e+00 1.601571083068847656e+01 6.451924324035644531e+00 -1.119541764259338379e+00
5.300000000000000000e+01 2.558376121520996094e+01 3.627988815307617188e+01 1.399109649658203125e+01 2.290429306030273438e+01 1.106861686706542969e+01 -1.566472887992858887e+00
5.400000000000000000e+01 2.575991439819335938e+01 3.618722152709960938e+01 1.026546573638916016e+01 1.886811447143554688e+01 8.740074157714843750e+00 -1.393306374549865723e+00
5.500000000000000000e+01 2.593606948852539062e+01 3.609455490112304688e+01 8.180672645568847656e+00 1.653598976135253906e+01 7.414998531341552734e+00 -1.201083540916442871e+00
5.600000000000000000e+01 2.611222457885742188e+01 3.600189208984375000e+01 6.875340461730957031e+00 1.512304019927978516e+01 6.599514484405517578e+00 -1.013576865196228027e+00
5.700000000000000000e+01 2.560576629638671875e+01 3.633399200439453125e+01 1.530546760559082031e+01 2.187292480468750000e+01 1.115351772308349609e+01 -5.010746717453002930e-01
5.800000000000000000e+01 2.579659080505371094e+01 3.627739334106445312e+01 1.151337432861328125e+01 1.778963279724121094e+01 8.790902137756347656e+00 -5.334109663963317871e-01
5.900000000000000000e+01 2.598741531372070312e+01 3.622079467773437500e+01 9.308880805969238281e+00 1.573761653900146484e+01 7.513949394226074219e+00 -4.381218254566192627e-01
6.000000000000000000e+01 2.617823982238769531e+01 3.616419601440429688e+01 7.844073295593261719e+00 1.424544715881347656e+01 6.626855850219726562e+00 -3.711831867694854736e-01
6.100000000000000000e+01 2.561681747436523438e+01 3.639134216308593750e+01 1.579839324951171875e+01 2.125029182434082031e+01 1.111460590362548828e+01 9.328334927558898926e-01
6.200000000000000000e+01 2.581501007080078125e+01 3.637297821044921875e+01 1.203762245178222656e+01 1.735698699951171875e+01 8.818383216857910156e+00 7.756904363632202148e-01
6.300000000000000000e+01 2.601320266723632812e+01 3.635461425781250000e+01 9.763210296630859375e+00 1.522577476501464844e+01 7.496695518493652344e+00 7.000125050544738770e-01
6.400000000000000000e+01 2.621139335632324219e+01 3.633625030517578125e+01 8.279930114746093750e+00 1.391668033599853516e+01 6.658983230590820312e+00 6.316496729850769043e-01
6.500000000000000000e+01 2.561649131774902344e+01 3.644974899291992188e+01 1.548375034332275391e+01 2.139138603210449219e+01 1.106254100799560547e+01 2.478355407714843750e+00
6.600000000000000000e+01 2.581446647644042969e+01 3.647032165527343750e+01 1.164888095855712891e+01 1.742330360412597656e+01 8.721654891967773438e+00 2.195839405059814453e+00
6.700000000000000000e+01 2.601244354248046875e+01 3.649089431762695312e+01 9.458261489868164062e+00 1.539808654785156250e+01 7.456904411315917969e+00 1.902995824813842773e+00
6.800000000000000000e+01 2.621041679382324219e+01 3.651146697998046875e+01 8.040217399597167969e+00 1.398773097991943359e+01 6.608384609222412109e+00 1.701588273048400879e+00
6.900000000000000000e+01 2.560480117797851562e+01 3.650697326660156250e+01 1.422843074798583984e+01 2.202956390380859375e+01 1.087739849090576172e+01 3.886445999145507812e+00
7.000000000000000000e+01 2.579498291015625000e+01 3.656569290161132812e+01 1.045965671539306641e+01 1.823537063598632812e+01 8.608508110046386719e+00 3.330558300018310547e+00
7.100000000000000000e+01 2.598516464233398438e+01 3.662441635131835938e+01 8.381259918212890625e+00 1.596745300292968750e+01 7.304613590240478516e+00 2.897832393646240234e+00
7.200000000000000000e+01 2.617534637451171875e+01 3.668313980102539062e+01 7.053637981414794922e+00 1.465686988830566406e+01 6.513152599334716797e+00 2.530180931091308594e+00
7.300000000000000000e+01 2.558219337463378906e+01 3.656082534790039062e+01 1.225544548034667969e+01 2.337098693847656250e+01 1.068793010711669922e+01 4.775502681732177734e+00
7.400000000000000000e+01 2.575730323791503906e+01 3.665544891357421875e+01 8.521763801574707031e+00 1.933863258361816406e+01 8.358119010925292969e+00 3.957785606384277344e+00
7.500000000000000000e+01 2.593241310119628906e+01 3.675007629394531250e+01 6.756557941436767578e+00 1.704193305969238281e+01 7.139547348022460938e+00 3.305397272109985352e+00
7.600000000000000000e+01 2.610752296447753906e+01 3.684469985961914062e+01 5.543220996856689453e+00 1.544415569305419922e+01 6.296213150024414062e+00 3.003272533416748047e+00
7.700000000000000000e+01 2.554953384399414062e+01 3.660924911499023438e+01 9.539844512939453125e+00 2.491277885437011719e+01 1.033578681945800781e+01 4.967088699340820312e+00
7.800000000000000000e+01 2.570287132263183594e+01 3.673615264892578125e+01 6.324404239654541016e+00 2.071007347106933594e+01 8.110342979431152344e+00 3.726944208145141602e+00
7.900000000000000000e+01 2.585620689392089844e+01 3.686305999755859375e+01 4.711918830871582031e+00 1.807653045654296875e+01 6.836534976959228516e+00 3.137160539627075195e+00
8.000000000000000000e+01 2.600954437255859375e+01 3.698996353149414062e+01 3.873629093170166016e+00 1.638540458679199219e+01 6.077709674835205078e+00 2.686244726181030273e+00
8.100000000000000000e+01 2.550807380676269531e+01 3.665038299560546875e+01 6.733629703521728516e+00 2.659117126464843750e+01 9.997440338134765625e+00 4.100545883178710938e+00
8.200000000000000000e+01 2.563376808166503906e+01 3.680471420288085938e+01 3.932583332061767578e+00 2.172102355957031250e+01 7.696082115173339844e+00 2.738205909729003906e+00
8.300000000000000000e+01 2.575946235656738281e+01 3.695904541015625000e+01 2.874284744262695312e+00 1.893436241149902344e+01 6.542594432830810547e+00 2.146735191345214844e+00
8.400000000000000000e+01 2.588515853881835938e+01 3.711337661743164062e+01 2.058629274368286133e+00 1.706773185729980469e+01 5.737908363342285156e+00 1.853873014450073242e+00
8.500000000000000000e+01 2.545939636230468750e+01 3.668265914916992188e+01 3.865512609481811523e+00 2.765463447570800781e+01 9.456044197082519531e+00 2.265270948410034180e+00
8.600000000000000000e+01 2.555263900756835938e+01 3.685850906372070312e+01 2.131916761398315430e+00 2.223285484313964844e+01 7.309431552886962891e+00 9.402457475662231445e-01
8.700000000000000000e+01 2.564588165283203125e+01 3.703435897827148438e+01 1.152239322662353516e+00 1.912863349914550781e+01 6.084261894226074219e+00 6.203160285949707031e-01
8.800000000000000000e+01 2.573912620544433594e+01 3.721020889282226562e+01 8.140365481376647949e-01 1.721627426147460938e+01 5.409093379974365234e+00 4.246427416801452637e-01
8.900000000000000000e+01 2.540536499023437500e+01 3.670484542846679688e+01 1.952347755432128906e+00 2.789726638793945312e+01 8.954884529113769531e+00 -4.944556951522827148e-01
9.000000000000000000e+01 2.546258926391601562e+01 3.689548110961914062e+01 6.850679516792297363e-01 2.170179748535156250e+01 6.716059684753417969e+00 -1.270475745201110840e+00
9.100000000000000000e+01 2.551981353759765625e+01 3.708612060546875000e+01 3.107815682888031006e-01 1.857939529418945312e+01 5.667053222656250000e+00 -1.327270746231079102e+00
9.200000000000000000e+01 2.557703590393066406e+01 3.727675628662109375e+01 -1.703936308622360229e-01 1.654098129272460938e+01 4.911176681518554688e+00 -1.247825860977172852e+00
9.300000000000000000e+01 2.534805107116699219e+01 3.671608352661132812e+01 6.959512233734130859e-01 2.660951805114746094e+01 8.191640853881835938e+00 -3.651497602462768555e+00
9.400000000000000000e+01 2.536706352233886719e+01 3.691421508789062500e+01 4.080662131309509277e-01 2.022539329528808594e+01 6.190037727355957031e+00 -3.606533050537109375e+00
9.500000000000000000e+01 2.538607788085937500e+01 3.711234664916992188e+01 -1.933450996875762939e-01 1.700453186035156250e+01 5.043355941772460938e+00 -3.262924909591674805e+00
9.600000000000000000e+01 2.540509223937988281e+01 3.731047439575195312e+01 -1.933391094207763672e-01 1.505968284606933594e+01 4.459903240203857422e+00 -2.952591180801391602e+00
9.700000000000000000e+01 2.528964424133300781e+01 3.671595001220703125e+01 1.084128260612487793e+00 2.399145317077636719e+01 7.522674560546875000e+00 -6.666111946105957031e+00
9.800000000000000000e+01 2.526972007751464844e+01 3.691399002075195312e+01 4.441971480846405029e-01 1.752293586730957031e+01 5.390140056610107422e+00 -5.599847793579101562e+00
9.900000000000000000e+01 2.524979782104492188e+01 3.711203384399414062e+01 3.790337741374969482e-01 1.465027141571044922e+01 4.508791446685791016e+00 -4.830186367034912109e+00
1.000000000000000000e+02 2.522987365722656250e+01 3.731007385253906250e+01 -9.224857389926910400e-02 1.283647918701171875e+01 3.823269128799438477e+00 -4.310267448425292969e+00
1.010000000000000000e+02 2.523238182067871094e+01 3.670444869995117188e+01 1.895025253295898438e+00 1.975668334960937500e+01 6.495512485504150391e+00 -8.916844367980957031e+00
1.020000000000000000e+02 2.517428207397460938e+01 3.689482116699218750e+01 1.580500245094299316e+00 1.417647171020507812e+01 4.727091789245605469e+00 -6.808700084686279297e+00
1.030000000000000000e+02 2.511618423461914062e+01 3.708519363403320312e+01 8.295827507972717285e-01 1.147713088989257812e+01 3.692014217376708984e+00 -5.793744564056396484e+00
1.040000000000000000e+02 2.505808639526367188e+01 3.727556610107421875e+01 8.798200488090515137e-01 1.011590003967285156e+01 3.298716068267822266e+00 -4.894358158111572266e+00
1.050000000000000000e+02 2.517845344543457031e+01 3.668201828002929688e+01 3.890408754348754883e+00 1.492626285552978516e+01 5.645001411437988281e+00 -9.754162788391113281e+00
1.060000000000000000e+02 2.508440399169921875e+01 3.685743331909179688e+01 2.233216047286987305e+00 1.004557418823242188e+01 3.683636903762817383e+00 -7.137801170349121094e+00
1.070000000000000000e+02 2.499035453796386719e+01 3.703285217285156250e+01 1.916957616806030273e+00 8.258236885070800781e+00 3.052558422088623047e+00 -5.692255973815917969e+00
1.080000000000000000e+02 2.489630317687988281e+01 3.720827102661132812e+01 1.284905314445495605e+00 6.970770359039306641e+00 2.476702690124511719e+00 -4.949788093566894531e+00
1.090000000000000000e+02 2.512992477416992188e+01 3.664951705932617188e+01 4.857666492462158203e+00 9.390837669372558594e+00 4.274551391601562500e+00 -9.214498519897460938e+00
1.100000000000000000e+02 2.500352287292480469e+01 3.680326843261718750e+01 3.276386737823486328e+00 6.352164268493652344e+00 2.888565301895141602e+00 -6.177522659301757812e+00
1.110000000000000000e+02 2.487712097167968750e+01 3.695701980590820312e+01 1.979693770408630371e+00 4.790959835052490234e+00 2.031196117401123047e+00 -4.912836074829101562e+00
1.120000000000000000e+02 2.475071716308593750e+01 3.711077117919921875e+01 1.761894106864929199e+00 4.367279052734375000e+00 1.838751912117004395e+00 -3.965499162673950195e+00
1.130000000000000000e+02 2.508865356445312500e+01 3.660818862915039062e+01 5.740687370300292969e+00 4.912529945373535156e+00 3.195965290069580078e+00 -6.918441295623779297e+00
1.140000000000000000e+02 2.493473625183105469e+01 3.673439025878906250e+01 2.530126094818115234e+00 2.594133138656616211e+00 1.537277817726135254e+00 -4.532679557800292969e+00
1.150000000000000000e+02 2.478081893920898438e+01 3.686058807373046875e+01 1.951930046081542969e+00 2.574559688568115234e+00 1.357946872711181641e+00 -3.180544853210449219e+00
1.160000000000000000e+02 2.462689971923828125e+01 3.698678970336914062e+01 9.782723784446716309e-01 1.847482204437255859e+00 8.477264046669006348e-01 -2.835385322570800781e+00
1.170000000000000000e+02 2.505621528625488281e+01 3.655961608886718750e+01 3.755559444427490234e+00 6.122447848320007324e-01 1.310341238975524902e+00 -3.943552970886230469e+00
1.180000000000000000e+02 2.488067436218261719e+01 3.665343856811523438e+01 1.313882946968078613e+00 7.519775629043579102e-01 6.197581291198730469e-01 -1.967777252197265625e+00
1.190000000000000000e+02 2.470513153076171875e+01 3.674725723266601562e+01 -9.828433394432067871e-02 5.479221343994140625e-01 1.348913460969924927e-01 -1.595364451408386230e+00
1.200000000000000000e+02 2.452958869934082031e+01 3.684107971191406250e+01 -4.017401859164237976e-02 1.241151690483093262e+00 3.602932989597320557e-01 -1.367538928985595703e+00
1.210000000000000000e+02 2.503385734558105469e+01 3.650566101074218750e+01 1.844002753496170044e-01 -1.341940641403198242e+00 -3.472621142864227295e-01 -2.014855854213237762e-02
1.220000000000000000e+02 2.484340667724609375e+01 3.656351089477539062e+01 -2.862887620925903320e+00 -3.838784098625183105e-01 -9.740297794342041016e-01 -3.195981308817863464e-02
1.230000000000000000e+02 2.465295791625976562e+01 3.662135696411132812e+01 -2.110790967941284180e+00 6.653573513031005859e-01 -4.336300492286682129e-01 -5.525939464569091797e-01
1.240000000000000000e+02 2.446250915527343750e+01 3.667920684814453125e+01 -2.396270990371704102e+00 -2.089076787233352661e-01 -7.815536260604858398e-01 -1.977835595607757568e-01
1.250000000000000000e+02 2.502243041992187500e+01 3.644838333129882812e+01 -9.854767799377441406e+00 -1.800658822059631348e+00 -3.496628046035766602e+00 2.126855373382568359e+00
1.260000000000000000e+02 2.482436180114746094e+01 3.646804809570312500e+01 -5.518692970275878906e+00 7.740941643714904785e-01 -1.423379659652709961e+00 -1.412090957164764404e-01
1.270000000000000000e+02 2.462629318237304688e+01 3.648770904541015625e+01 -5.445947170257568359e+00 -4.631563425064086914e-01 -1.772731065750122070e+00 2.549578249454498291e-01
1.280000000000000000e+02 2.442822647094726562e+01 3.650737380981445312e+01 -5.007081508636474609e+00 3.299471437931060791e-01 -1.403140306472778320e+00 1.720669716596603394e-01
1.290000000000000000e+02 2.223523139953613281e+01 3.536742782592773438e+01 1.902985274791717529e-01 2.117156684398651123e-01 1.206042543053627014e-01 -8.158236742019653320e-02
1.300000000000000000e+02 2.105331039428710938e+01 3.505259323120117188e+01 -1.178672630339860916e-02 -2.373395711183547974e-01 -7.473789155483245850e-02 -2.326042652130126953e-01
1.310000000000000000e+02 2.215680122375488281e+01 3.559693908691406250e+01 5.065746977925300598e-02 7.785210013389587402e-02 3.855286911129951477e-02 -1.692021340131759644e-01
1.320000000000000000e+02 2.193935966491699219e+01 3.509622955322265625e+01 3.219202458858489990e-01 2.837739288806915283e-01 1.817082464694976807e-01 -6.638275831937789917e-02
1.330000000000000000e+02 2.145891571044921875e+01 3.591342926025390625e+01 -3.985194265842437744e-01 -4.671249911189079285e-02 -1.335695832967758179e-01 -2.846480607986450195e-01
1.340000000000000000e+02 2.055722999572753906e+01 3.513546752929687500e+01 -1.921282149851322174e-02 -5.139676928520202637e-01 -1.599541604518890381e-01 -9.650909900665283203e-02
1.350000000000000000e+02 2.086863136291503906e+01 3.577120590209960938e+01 -7.729385048151016235e-02 -1.246099919080734253e-01 -6.057115271687507629e-02 -1.684849411249160767e-01
1.360000000000000000e+02 2.227216148376464844e+01 3.518062591552734375e+01 5.667263865470886230e-01 3.453307747840881348e-01 2.736171483993530273e-01 1.156003475189208984e-01
1.370000000000000000e+02 2.209001731872558594e+01 3.623350524902343750e+01 -9.300030469894409180e-01 1.908985525369644165e-02 -2.732739448547363281e-01 -2.107946574687957764e-01
1.380000000000000000e+02 2.216454124450683594e+01 3.584738540649414062e+01 -4.140697121620178223e-01 5.673286691308021545e-02 -1.072010546922683716e-01 -1.690414249897003174e-01
1.390000000000000000e+02 2.190383529663085938e+01 3.601570510864257812e+01 -6.671824455261230469e-01 -8.415871299803256989e-03 -2.026794999837875366e-01 -2.489270716905593872e-01
1.400000000000000000e+02 2.213298606872558594e+01 3.494869613647460938e+01 4.266554415225982666e-01 3.912667334079742432e-01 2.453766614198684692e-01 7.437489926815032959e-02
1.410000000000000000e+02 2.166361808776855469e+01 3.533531188964843750e+01 1.174511760473251343e-01 5.579918250441551208e-02 5.197510868310928345e-02 -2.555162608623504639e-01
1.420000000000000000e+02 2.219528388977050781e+01 3.604760742187500000e+01 -7.095291614532470703e-01 4.745065048336982727e-02 -1.986235529184341431e-01 -2.766880095005035400e-01
1.430000000000000000e+02 2.495684242248535156e+01 3.750175476074218750e+01 5.703578591346740723e-01 8.498906135559082031e+00 2.720779180526733398e+00 -4.303987026214599609e+00
1.440000000000000000e+02 2.485336303710937500e+01 3.777444839477539062e+01 5.958974361419677734e-01 7.429368972778320312e+00 2.407579898834228516e+00 -3.515036344528198242e+00
1.450000000000000000e+02 2.630935859680175781e+01 3.592188644409179688e+01 6.006326198577880859e+00 1.391224479675292969e+01 5.975571155548095703e+00 -8.442636728286743164e-01
1.460000000000000000e+02 2.423262977600097656e+01 3.629743194580078125e+01 -8.452916741371154785e-01 -6.693188846111297607e-02 -2.736670672893524170e-01 8.831307291984558105e-02
1.470000000000000000e+02 2.351692771911621094e+01 3.603421783447265625e+01 -2.708224058151245117e-01 8.122429251670837402e-02 -5.687943473458290100e-02 1.275333613157272339e-01
1.480000000000000000e+02 2.242835426330566406e+01 3.627825927734375000e+01 -1.134525418281555176e+00 -7.776789367198944092e-02 -3.636879920959472656e-01 -9.731359779834747314e-02
1.490000000000000000e+02 2.516747474670410156e+01 3.533357238769531250e+01 1.687244772911071777e+00 1.216385650634765625e+01 4.155330181121826172e+00 4.970601558685302734e+00
1.500000000000000000e+02 2.610641670227050781e+01 3.756818008422851562e+01 5.571674704551696777e-01 1.450124168395996094e+01 4.517522811889648438e+00 9.531329274177551270e-01
1.510000000000000000e+02 2.539338874816894531e+01 3.781430435180664062e+01 -5.108671784400939941e-01 1.229391384124755859e+01 3.534914016723632812e+00 -2.487189531326293945e+00
1.520000000000000000e+02 2.280480384826660156e+01 3.652763366699218750e+01 -3.735172510147094727e+00 -1.207753922790288925e-02 -1.124174952507019043e+00 1.363047957420349121e-02
1.530000000000000000e+02 2.259951210021972656e+01 3.750107574462890625e+01 -8.119202256202697754e-01 2.088739126920700073e-01 -1.809138953685760498e-01 7.823381572961807251e-02
1.540000000000000000e+02 2.293746376037597656e+01 3.753979110717773438e+01 -5.219652652740478516e-01 4.068078696727752686e-01 -3.454722464084625244e-02 -1.769069284200668335e-01
1.550000000000000000e+02 2.431766510009765625e+01 3.697212219238281250e+01 -3.340288698673248291e-01 4.104811549186706543e-01 2.293568849563598633e-02 -1.191158056259155273e+00
1.560000000000000000e+02 2.422291946411132812e+01 3.653359603881835938e+01 -4.683215141296386719e+00 -2.450303584337234497e-01 -1.478473663330078125e+00 2.016354054212570190e-01
1.570000000000000000e+02 2.612195396423339844e+01 3.713381958007812500e+01 3.057513952255249023e+00 1.548026466369628906e+01 5.561333656311035156e+00 2.474972724914550781e+00
1.580000000000000000e+02 2.599860572814941406e+01 3.727652359008789062e+01 1.587698578834533691e+00 1.580457782745361328e+01 5.217682838439941406e+00 1.509376525878906250e+00
1.590000000000000000e+02 2.425176429748535156e+01 3.778050231933593750e+01 9.054944515228271484e-01 3.193850517272949219e+00 1.229803442955017090e+00 -2.547013998031616211e+00
1.600000000000000000e+02 2.403334999084472656e+01 3.627118682861328125e+01 -9.907311201095581055e-01 8.452146500349044800e-02 -2.718628942966461182e-01 5.483098328113555908e-02
1.610000000000000000e+02 2.418691253662109375e+01 3.579573822021484375e+01 2.527045965194702148e+00 1.140841722488403320e+00 1.100366353988647461e+00 2.011310338973999023e+00
1.620000000000000000e+02 2.611260032653808594e+01 3.539623641967773438e+01 2.543295383453369141e+00 1.456429195404052734e+01 5.132276058197021484e+00 -1.815168559551239014e-01
1.630000000000000000e+02 2.245553398132324219e+01 3.586035156250000000e+01 -2.698319554328918457e-01 1.322912573814392090e-01 -4.126220569014549255e-02 -2.097321003675460815e-01
1.640000000000000000e+02 2.244131088256835938e+01 3.606840515136718750e+01 -7.698394656181335449e-01 6.946754455566406250e-02 -2.101115733385086060e-01 -1.873427480459213257e-01
1.650000000000000000e+02 2.255458068847656250e+01 3.501586151123046875e+01 8.550934791564941406e-01 9.962079524993896484e-01 5.553904175758361816e-01 5.977004170417785645e-01
1.660000000000000000e+02 2.276651954650878906e+01 3.503033065795898438e+01 1.049934983253479004e+00 6.566404700279235840e-01 5.119726657867431641e-01 6.615576744079589844e-01
1.670000000000000000e+02 2.262354660034179688e+01 3.627906799316406250e+01 -1.275049924850463867e+00 8.841415494680404663e-02 -3.559907376766204834e-01 -9.113020449876785278e-02
1.680000000000000000e+02 2.522649955749511719e+01 3.502404022216796875e+01 1.077448010444641113e+00 1.142429828643798828e+01 3.750524044036865234e+00 4.257444858551025391e+00
1.690000000000000000e+02 2.530917739868164062e+01 3.521163177490234375e+01 1.328459739685058594e+00 1.270516300201416016e+01 4.210086822509765625e+00 4.044228553771972656e+00
1.700000000000000000e+02 2.499923324584960938e+01 3.523658752441406250e+01 2.071428775787353516e+00 1.001801776885986328e+01 3.626833915710449219e+00 4.988195419311523438e+00
1.710000000000000000e+02 2.419742393493652344e+01 3.501007080078125000e+01 2.432611227035522461e+00 3.685093879699707031e+00 1.835311532020568848e+00 3.353908538818359375e+00
1.720000000000000000e+02 2.297774314880371094e+01 3.504326248168945312e+01 1.212520956993103027e+00 1.027101039886474609e+00 6.718866229057312012e-01 9.280828237533569336e-01
1.730000000000000000e+02 2.574663162231445312e+01 3.771359252929687500e+01 -5.537881255149841309e-01 1.408900737762451172e+01 4.060565948486328125e+00 -8.414766192436218262e-01
1.740000000000000000e+02 2.612358093261718750e+01 3.739174270629882812e+01 1.487663269042968750e+00 1.479209899902343750e+01 4.883928775787353516e+00 1.511136531829833984e+00
1.750000000000000000e+02 2.638127517700195312e+01 3.675862884521484375e+01 6.016364097595214844e+00 1.357132434844970703e+01 5.876306533813476562e+00 2.338123798370361328e+00
1.760000000000000000e+02 2.583461380004882812e+01 3.546690750122070312e+01 2.179841756820678711e+00 1.592111873626708984e+01 5.430288314819335938e+00 6.663126945495605469e-01
1.770000000000000000e+02 2.230023574829101562e+01 3.777520370483398438e+01 -4.866159260272979736e-01 6.183997988700866699e-01 3.953516110777854919e-02 -5.023797508329153061e-03
1.780000000000000000e+02 2.250639533996582031e+01 3.776396560668945312e+01 -4.183988273143768311e-01 1.292531490325927734e-01 -8.674370497465133667e-02 1.254475563764572144e-01
1.790000000000000000e+02 2.443015861511230469e+01 3.716682052612304688e+01 9.750627279281616211e-01 2.163993597030639648e+00 9.417169094085693359e-01 -2.295253038406372070e+00
1.800000000000000000e+02 2.464379692077636719e+01 3.778536605834960938e+01 7.726057767868041992e-01 5.813039779663085938e+00 1.975693583488464355e+00 -3.420383453369140625e+00
1.810000000000000000e+02 2.505158615112304688e+01 3.779244232177734375e+01 -1.085086551029235125e-04 9.361611366271972656e+00 2.808450937271118164e+00 -3.582172155380249023e+00
1.820000000000000000e+02 2.642610359191894531e+01 3.657454681396484375e+01 6.871435642242431641e+00 1.316345596313476562e+01 6.010467529296875000e+00 1.658853530883789062e+00
1.830000000000000000e+02 2.621152305603027344e+01 3.575064468383789062e+01 4.768657207489013672e+00 1.476573276519775391e+01 5.860316753387451172e+00 -9.662753939628601074e-01
1.840000000000000000e+02 2.481363868713378906e+01 3.544780731201171875e+01 3.190482378005981445e+00 7.515199661254882812e+00 3.211704492568969727e+00 5.453093051910400391e+00
1.850000000000000000e+02 2.462887001037597656e+01 3.556439590454101562e+01 3.639890193939208984e+00 4.804886817932128906e+00 2.533433198928833008e+00 4.760626792907714844e+00
1.860000000000000000e+02 2.436379241943359375e+01 3.589490127563476562e+01 2.896871089935302734e+00 1.053978919982910156e+00 1.185255050659179688e+00 2.223398447036743164e+00
1.870000000000000000e+02 2.427899932861328125e+01 3.608769989013671875e+01 1.386724233627319336e+00 4.404567480087280273e-01 5.481542944908142090e-01 9.769735336303710938e-01
1.880000000000000000e+02 2.576607513427734375e+01 3.513457489013671875e+01 1.069795727729797363e+00 1.426063823699951172e+01 4.599130153656005859e+00 1.651051163673400879e+00
1.890000000000000000e+02 2.448153495788574219e+01 3.572338867187500000e+01 3.727596998214721680e+00 2.652884244918823242e+00 1.914144396781921387e+00 3.618468999862670898e+00
1.900000000000000000e+02 2.597202301025390625e+01 3.556608963012695312e+01 3.250368833541870117e+00 1.590565299987792969e+01 5.746806621551513672e+00 -4.204125404357910156e-01
1.910000000000000000e+02 2.622539329528808594e+01 3.725334167480468750e+01 2.383517503738403320e+00 1.473830986022949219e+01 5.136548042297363281e+00 2.134503364562988281e+00
1.920000000000000000e+02 2.631373786926269531e+01 3.693511199951171875e+01 4.809807300567626953e+00 1.438714027404785156e+01 5.759084224700927734e+00 2.594986677169799805e+00
1.930000000000000000e+02 2.459534645080566406e+01 3.730276489257812500e+01 1.322621345520019531e+00 3.606699705123901367e+00 1.478796362876892090e+00 -3.414103269577026367e+00
1.940000000000000000e+02 2.477198028564453125e+01 3.741486740112304688e+01 1.217213392257690430e+00 6.285288333892822266e+00 2.250750541687011719e+00 -4.038141250610351562e+00
1.950000000000000000e+02 2.547116470336914062e+01 3.752980804443359375e+01 -5.710929036140441895e-01 1.401122474670410156e+01 4.032039642333984375e+00 -2.443103551864624023e+00
1.960000000000000000e+02 2.515268516540527344e+01 3.753837585449218750e+01 1.054490879178047180e-01 1.113095569610595703e+01 3.370921373367309570e+00 -3.798206329345703125e+00
1.970000000000000000e+02 2.583737373352050781e+01 3.740180587768554688e+01 3.920662105083465576e-01 1.576607513427734375e+01 4.847442150115966797e+00 3.478559255599975586e-01
1.980000000000000000e+02 2.556553840637207031e+01 3.776929855346679688e+01 -4.137583076953887939e-01 1.296066474914550781e+01 3.764071941375732422e+00 -1.741086363792419434e+00
1.990000000000000000e+02 2.379687118530273438e+01 3.657448577880859375e+01 -4.304265499114990234e+00 -2.080590575933456421e-01 -1.353697299957275391e+00 1.508010327816009521e-01
2.000000000000000000e+02 2.385596466064453125e+01 3.758007049560546875e+01 6.527009606361389160e-01 1.084624648094177246e+00 5.211976766586303711e-01 -1.258378982543945312e+00
2.010000000000000000e+02 2.638379859924316406e+01 3.627586364746093750e+01 7.463300704956054688e+00 1.312039566040039062e+01 6.175108909606933594e+00 4.387581944465637207e-01
2.020000000000000000e+02 2.522742462158203125e+01 3.781893157958984375e+01 -2.007315754890441895e-01 1.077131271362304688e+01 3.171174287796020508e+00 -3.188462734222412109e+00
2.030000000000000000e+02 2.315333175659179688e+01 3.749671554565429688e+01 -4.874275624752044678e-01 1.592384427785873413e-01 -9.845674037933349609e-02 -8.883592486381530762e-02
2.040000000000000000e+02 2.254847145080566406e+01 3.719406127929687500e+01 -1.556470155715942383e+00 1.335590034723281860e-01 -4.268733263015747070e-01 2.315950989723205566e-01
2.050000000000000000e+02 2.369436645507812500e+01 3.760128784179687500e+01 2.611727416515350342e-01 1.246730446815490723e+00 4.523709714412689209e-01 -1.048591017723083496e+00
2.060000000000000000e+02 2.332679939270019531e+01 3.682615280151367188e+01 -2.640507459640502930e+00 4.607928544282913208e-02 -7.783284783363342285e-01 1.218295395374298096e-01
2.070000000000000000e+02 2.385368347167968750e+01 3.779684448242187500e+01 7.031881809234619141e-01 1.949045300483703613e+00 7.956700325012207031e-01 -1.610909700393676758e+00
2.080000000000000000e+02 2.433823966979980469e+01 3.755591583251953125e+01 1.203159928321838379e+00 3.173390626907348633e+00 1.312965154647827148e+00 -2.558498144149780273e+00
2.090000000000000000e+02 2.230564880371093750e+01 3.756082153320312500e+01 -1.049687504768371582e+00 9.221683442592620850e-02 -2.872411906719207764e-01 3.705606758594512939e-01
2.100000000000000000e+02 2.670534133911132812e+01 3.649148178100585938e+01 5.986438751220703125e+00 1.212344169616699219e+01 5.432964324951171875e+00 1.213909745216369629e+00
2.110000000000000000e+02 2.661314582824707031e+01 3.685633468627929688e+01 5.121750354766845703e+00 1.276027774810791016e+01 5.364608287811279297e+00 2.119363307952880859e+00
2.120000000000000000e+02 2.635041427612304688e+01 3.549140548706054688e+01 3.506117820739746094e+00 1.384835815429687500e+01 5.206342697143554688e+00 -7.380682229995727539e-01
2.130000000000000000e+02 2.654532241821289062e+01 3.703329467773437500e+01 4.080444812774658203e+00 1.308388614654541016e+01 5.149299144744873047e+00 2.287720203399658203e+00
2.140000000000000000e+02 2.646533775329589844e+01 3.719952011108398438e+01 3.228517770767211914e+00 1.382212162017822266e+01 5.115191459655761719e+00 2.355845928192138672e+00
2.150000000000000000e+02 2.593152427673339844e+01 3.763523483276367188e+01 5.302502214908599854e-02 1.436768054962158203e+01 4.326211929321289062e+00 6.137388572096824646e-02
2.160000000000000000e+02 2.663596916198730469e+01 3.600202941894531250e+01 5.701574802398681641e+00 1.240486717224121094e+01 5.431932449340820312e+00 -3.984062671661376953e-01
2.170000000000000000e+02 2.644924354553222656e+01 3.565130615234375000e+01 4.338528156280517578e+00 1.326068210601806641e+01 5.279763221740722656e+00 -8.605757355690002441e-01
2.180000000000000000e+02 2.566993141174316406e+01 3.536693191528320312e+01 1.514188051223754883e+00 1.549643898010253906e+01 5.103188037872314453e+00 1.840620636940002441e+00
2.190000000000000000e+02 2.666435432434082031e+01 3.667321014404296875e+01 5.696560382843017578e+00 1.230396175384521484e+01 5.400156497955322266e+00 1.778729915618896484e+00
2.200000000000000000e+02 2.565308380126953125e+01 3.748017883300781250e+01 -2.027269154787063599e-01 1.511950206756591797e+01 4.475032806396484375e+00 -1.169674038887023926e+00
2.210000000000000000e+02 2.612491035461425781e+01 3.524941253662109375e+01 2.082729816436767578e+00 1.413610649108886719e+01 4.865651130676269531e+00 1.188343688845634460e-01
2.220000000000000000e+02 2.531159400939941406e+01 3.763372802734375000e+01 -2.668262422084808350e-01 1.215196990966796875e+01 3.565542936325073242e+00 -3.114395141601562500e+00
2.230000000000000000e+02 2.635640335083007812e+01 3.610868453979492188e+01 6.892647266387939453e+00 1.346047878265380859e+01 6.105937957763671875e+00 -3.569753170013427734e-01
2.240000000000000000e+02 2.660390472412109375e+01 3.625590133666992188e+01 6.315913677215576172e+00 1.232187652587890625e+01 5.591337203979492188e+00 3.304521441459655762e-01
2.250000000000000000e+02 2.322088432312011719e+01 3.624325942993164062e+01 -1.372590303421020508e+00 2.000347152352333069e-02 -4.057760536670684814e-01 2.602532273158431053e-03
2.260000000000000000e+02 2.251247406005859375e+01 3.545180511474609375e+01 4.013525843620300293e-01 2.911161780357360840e-01 2.077406346797943115e-01 9.943661093711853027e-02
2.270000000000000000e+02 2.382260704040527344e+01 3.624094772338867188e+01 -1.097756743431091309e+00 -7.295835018157958984e-02 -3.512144982814788818e-01 6.249580532312393188e-02
2.280000000000000000e+02 2.359260368347167969e+01 3.502939605712890625e+01 1.935740947723388672e+00 1.718765377998352051e+00 1.096351861953735352e+00 1.980111837387084961e+00
2.290000000000000000e+02 2.361636924743652344e+01 3.625194931030273438e+01 -1.202808618545532227e+00 5.140884220600128174e-02 -3.454199135303497314e-01 8.019724488258361816e-02
2.300000000000000000e+02 2.280562019348144531e+01 3.604914474487304688e+01 -7.037292122840881348e-01 7.655166089534759521e-02 -1.881532669067382812e-01 -1.392708569765090942e-01
2.310000000000000000e+02 2.352338027954101562e+01 3.687030029296875000e+01 -2.321012735366821289e+00 -6.846392154693603516e-02 -7.168430089950561523e-01 2.164134532213211060e-01
2.320000000000000000e+02 2.359140205383300781e+01 3.657123565673828125e+01 -4.173308849334716797e+00 1.991771459579467773e-01 -1.192239522933959961e+00 7.234564423561096191e-02
2.330000000000000000e+02 2.231090545654296875e+01 3.737450408935546875e+01 -9.736626148223876953e-01 3.380315005779266357e-02 -2.819578349590301514e-01 3.944071531295776367e-01
2.340000000000000000e+02 2.276273918151855469e+01 3.754963302612304688e+01 -6.410570144653320312e-01 1.133859828114509583e-01 -1.583013236522674561e-01 1.732225567102432251e-01
2.350000000000000000e+02 2.312228775024414062e+01 3.680150985717773438e+01 -2.885897874832153320e+00 -1.249426975846290588e-01 -9.032521843910217285e-01 2.452578991651535034e-01
2.360000000000000000e+02 2.400952911376953125e+01 3.684281921386718750e+01 -1.943302750587463379e+00 -1.394159942865371704e-01 -6.248156428337097168e-01 -1.661438047885894775e-01
2.370000000000000000e+02 2.400961112976074219e+01 3.656105041503906250e+01 -4.461932182312011719e+00 1.673182100057601929e-01 -1.288384199142456055e+00 1.354841440916061401e-01
2.380000000000000000e+02 2.425098037719726562e+01 3.675611114501953125e+01 -2.188060045242309570e+00 3.345777392387390137e-01 -5.560446977615356445e-01 -2.239945679903030396e-01
2.390000000000000000e+02 2.375255584716796875e+01 3.688977432250976562e+01 -2.032369375228881836e+00 3.041809201240539551e-01 -5.184565186500549316e-01 -5.901834741234779358e-02
2.400000000000000000e+02 2.338952445983886719e+01 3.503571701049804688e+01 1.621530175209045410e+00 1.420573115348815918e+00 9.126310348510742188e-01 1.501121044158935547e+00
2.410000000000000000e+02 2.402816009521484375e+01 3.526239395141601562e+01 2.495510339736938477e+00 2.368972539901733398e+00 1.459344863891601562e+00 2.696923494338989258e+00
2.420000000000000000e+02 2.456127548217773438e+01 3.523984146118164062e+01 2.823907613754272461e+00 5.601891994476318359e+00 2.527740001678466797e+00 4.508299827575683594e+00
2.430000000000000000e+02 2.502116394042968750e+01 3.503574371337890625e+01 1.517346143722534180e+00 9.687216758728027344e+00 3.361368894577026367e+00 4.515982627868652344e+00
2.440000000000000000e+02 2.478004646301269531e+01 3.524991607666015625e+01 2.603872060775756836e+00 7.338962078094482422e+00 2.982850313186645508e+00 4.997419834136962891e+00
2.450000000000000000e+02 2.439565849304199219e+01 3.501029205322265625e+01 2.474807739257812500e+00 5.068765640258789062e+00 2.263072013854980469e+00 3.953670263290405273e+00
2.460000000000000000e+02 2.399927902221679688e+01 3.502386093139648438e+01 2.328539848327636719e+00 2.919981241226196289e+00 1.574556350708007812e+00 2.859528541564941406e+00
2.470000000000000000e+02 2.355390739440917969e+01 3.546231842041015625e+01 1.532177686691284180e+00 8.392997384071350098e-01 7.114432454109191895e-01 1.206086874008178711e+00
2.480000000000000000e+02 2.275638198852539062e+01 3.527606582641601562e+01 7.430337667465209961e-01 6.892796158790588379e-01 4.296939969062805176e-01 5.038353800773620605e-01
2.490000000000000000e+02 2.548214912414550781e+01 3.531273269653320312e+01 1.213492155075073242e+00 1.446181869506835938e+01 4.702593326568603516e+00 3.312451124191284180e+00
2.500000000000000000e+02 2.298734855651855469e+01 3.601430511474609375e+01 -5.932950377464294434e-01 5.811220407485961914e-02 -1.605548560619354248e-01 -3.914561495184898376e-02
2.510000000000000000e+02 2.253804206848144531e+01 3.523754119873046875e+01 4.841639399528503418e-01 4.293974637985229492e-01 2.740684151649475098e-01 1.494241058826446533e-01
2.520000000000000000e+02 2.248060417175292969e+01 3.565682983398437500e+01 -4.556374251842498779e-02 1.548116803169250488e-01 3.277438133955001831e-02 -8.484600484371185303e-02
2.530000000000000000e+02 2.298235130310058594e+01 3.532307434082031250e+01 9.309648871421813965e-01 5.355773568153381348e-01 4.399626851081848145e-01 5.962532162666320801e-01
2.540000000000000000e+02 2.239061164855957031e+01 3.674143600463867188e+01 -2.617184877395629883e+00 -2.679882645606994629e-01 -8.655519485473632812e-01 1.706219464540481567e-01
2.550000000000000000e+02 2.237371826171875000e+01 3.695484542846679688e+01 -2.031988143920898438e+00 2.211670875549316406e-01 -5.432463288307189941e-01 3.641499876976013184e-01
2.560000000000000000e+02 2.299787712097167969e+01 3.653533172607421875e+01 -3.830167531967163086e+00 -6.701914966106414795e-02 -1.169156074523925781e+00 1.018308252096176147e-01
2.570000000000000000e+02 2.336070251464843750e+01 3.751385498046875000e+01 -2.548896968364715576e-01 4.830924868583679199e-01 6.846083700656890869e-02 -5.227611660957336426e-01
2.580000000000000000e+02 2.328625679016113281e+01 3.777896881103515625e+01 2.623670399188995361e-01 5.412780642509460449e-01 2.410935461521148682e-01 -4.995445311069488525e-01
2.590000000000000000e+02 2.353294563293457031e+01 3.756433486938476562e+01 1.465079039335250854e-01 6.870856881141662598e-01 2.500780820846557617e-01 -6.181532144546508789e-01
2.600000000000000000e+02 2.366258049011230469e+01 3.780210876464843750e+01 6.403678059577941895e-01 1.171866416931152344e+00 5.436702966690063477e-01 -1.032640933990478516e+00
2.610000000000000000e+02 2.281925010681152344e+01 3.627398300170898438e+01 -1.356286168098449707e+00 -3.532700985670089722e-02 -4.174839556217193604e-01 -3.980218246579170227e-02
2.620000000000000000e+02 2.259078979492187500e+01 3.674307632446289062e+01 -2.932833433151245117e+00 -2.490873634815216064e-02 -8.873226046562194824e-01 6.114443764090538025e-02
2.630000000000000000e+02 2.371241378784179688e+01 3.716228485107421875e+01 -8.765156269073486328e-01 9.961268305778503418e-02 -2.330708801746368408e-01 -4.089370071887969971e-01
2.640000000000000000e+02 2.420943069458007812e+01 3.519503784179687500e+01 2.704960823059082031e+00 3.401949882507324219e+00 1.832073211669921875e+00 3.305608272552490234e+00
2.650000000000000000e+02 2.318610000610351562e+01 3.504616165161132812e+01 1.458572506904602051e+00 1.078004121780395508e+00 7.609730362892150879e-01 1.188391923904418945e+00
2.660000000000000000e+02 2.346461105346679688e+01 3.566951370239257812e+01 1.001288890838623047e+00 5.197521448135375977e-01 4.563123285770416260e-01 7.321585416793823242e-01
2.670000000000000000e+02 2.260793304443359375e+01 3.652806472778320312e+01 -3.691631078720092773e+00 5.865087732672691345e-02 -1.089894056320190430e+00 5.668824166059494019e-02
2.680000000000000000e+02 2.429631423950195312e+01 3.533558273315429688e+01 2.914756774902343750e+00 3.384090423583984375e+00 1.889654159545898438e+00 3.536730051040649414e+00
2.690000000000000000e+02 2.446567535400390625e+01 3.762298965454101562e+01 9.718334078788757324e-01 4.323926925659179688e+00 1.588728070259094238e+00 -2.852113962173461914e+00
2.700000000000000000e+02 2.262401771545410156e+01 3.606829452514648438e+01 -7.375738024711608887e-01 2.498838864266872406e-02 -2.137756198644638062e-01 -1.239849850535392761e-01
2.710000000000000000e+02 2.309250831604003906e+01 3.777435302734375000e+01 4.879869520664215088e-02 7.080276608467102051e-01 2.270479053258895874e-01 -4.944925308227539062e-01
2.720000000000000000e+02 2.245346450805664062e+01 3.742512130737304688e+01 -9.958086013793945312e-01 1.942044496536254883e-01 -2.404812574386596680e-01 3.380637466907501221e-01
2.730000000000000000e+02 2.387746810913085938e+01 3.593957901000976562e+01 8.956911563873291016e-01 2.965073883533477783e-01 3.576595485210418701e-01 7.246293425559997559e-01
2.740000000000000000e+02 2.308587646484375000e+01 3.571162796020507812e+01 4.964747726917266846e-01 2.979643940925598145e-01 2.383317500352859497e-01 3.463793992996215820e-01
2.750000000000000000e+02 2.265681648254394531e+01 3.570137786865234375e+01 1.369191408157348633e-01 2.147539556026458740e-01 1.055019274353981018e-01 -6.155021488666534424e-02
2.760000000000000000e+02 2.280166625976562500e+01 3.691659545898437500e+01 -2.314652204513549805e+00 1.930792331695556641e-01 -6.364718675613403320e-01 2.494211345911026001e-01
2.770000000000000000e+02 2.335268592834472656e+01 3.585891342163085938e+01 2.935439348220825195e-01 1.598789989948272705e-01 1.360268741846084595e-01 2.823437750339508057e-01
2.780000000000000000e+02 2.377343177795410156e+01 3.555610275268554688e+01 1.873636603355407715e+00 1.011657714843750000e+00 8.655883073806762695e-01 1.491168141365051270e+00
2.790000000000000000e+02 2.294224357604980469e+01 3.675770568847656250e+01 -2.972907304763793945e+00 2.717548422515392303e-02 -8.837195038795471191e-01 2.986961789429187775e-02
2.800000000000000000e+02 2.389683341979980469e+01 3.724009323120117188e+01 -3.948557674884796143e-01 5.419618487358093262e-01 4.413182288408279419e-02 -9.659699201583862305e-01
2.810000000000000000e+02 2.319142150878906250e+01 3.725141143798828125e+01 -9.245274066925048828e-01 3.489023447036743164e-01 -1.726875156164169312e-01 4.570822790265083313e-02
2.820000000000000000e+02 2.240856170654296875e+01 3.652809143066406250e+01 -3.742531776428222656e+00 -2.450347691774368286e-01 -1.196269989013671875e+00 -9.928827732801437378e-02
2.830000000000000000e+02 2.407082176208496094e+01 3.708866882324218750e+01 -3.751960694789886475e-01 8.856950998306274414e-01 1.531497091054916382e-01 -7.719969749450683594e-01
2.840000000000000000e+02 2.234882736206054688e+01 3.716853332519531250e+01 -1.748428583145141602e+00 -9.365307539701461792e-02 -5.526244640350341797e-01 3.814054429531097412e-01
2.850000000000000000e+02 2.269932746887207031e+01 3.777907943725585938e+01 -2.295424491167068481e-01 4.033222794532775879e-01 5.213395133614540100e-02 -1.782366484403610229e-01
2.860000000000000000e+02 2.289412879943847656e+01 3.778055572509765625e+01 -1.561962217092514038e-01 2.238437235355377197e-01 2.029424905776977539e-02 -1.059864740818738937e-02
2.870000000000000000e+02 2.347396087646484375e+01 3.779241561889648438e+01 3.002644777297973633e-01 1.084335207939147949e+00 4.153799116611480713e-01 -9.688385128974914551e-01
2.880000000000000000e+02 2.258737182617187500e+01 3.696336364746093750e+01 -2.085501909255981445e+00 -3.061721324920654297e-01 -7.175022363662719727e-01 2.992726564407348633e-01
2.890000000000000000e+02 2.261867713928222656e+01 3.587220764160156250e+01 -3.714016675949096680e-01 8.693838119506835938e-02 -8.533898741006851196e-02 -1.630146503448486328e-01
2.900000000000000000e+02 2.404207229614257812e+01 3.752912902832031250e+01 7.100365161895751953e-01 2.013035297393798828e+00 8.169215321540832520e-01 -1.692302942276000977e+00
2.910000000000000000e+02 2.405440330505371094e+01 3.777495574951171875e+01 9.615315198898315430e-01 2.261330604553222656e+00 9.668586254119873047e-01 -1.860746026039123535e+00
2.920000000000000000e+02 2.422684288024902344e+01 3.739914703369140625e+01 8.190975189208984375e-01 1.803486704826354980e+00 7.867752909660339355e-01 -2.100759983062744141e+00
2.930000000000000000e+02 2.301620101928710938e+01 3.626278305053710938e+01 -1.382529497146606445e+00 3.465739637613296509e-02 -4.043616056442260742e-01 -3.729366138577461243e-02
2.940000000000000000e+02 2.342280387878417969e+01 3.625491333007812500e+01 -1.329021930694580078e+00 1.622574217617511749e-02 -3.938388824462890625e-01 2.456888742744922638e-02
2.950000000000000000e+02 2.272185134887695312e+01 3.550949478149414062e+01 3.934910893440246582e-01 2.909523546695709229e-01 2.053330391645431519e-01 1.402459293603897095e-01
2.960000000000000000e+02 2.444202613830566406e+01 3.780269241333007812e+01 9.844893217086791992e-01 4.250827312469482422e+00 1.570595026016235352e+00 -2.765257358551025391e+00
2.970000000000000000e+02 2.461715698242187500e+01 3.758221817016601562e+01 1.086998820304870605e+00 4.830098152160644531e+00 1.775129079818725586e+00 -3.590870618820190430e+00
2.980000000000000000e+02 2.624905014038085938e+01 3.748534774780273438e+01 1.442117571830749512e+00 1.408710861206054688e+01 4.658768177032470703e+00 1.490445733070373535e+00
2.990000000000000000e+02 2.636622238159179688e+01 3.735225677490234375e+01 2.271588563919067383e+00 1.419502735137939453e+01 4.939984798431396484e+00 2.091926813125610352e+00
3.000000000000000000e+02 2.627359580993652344e+01 3.710560226440429688e+01 3.556295871734619141e+00 1.460744094848632812e+01 5.449120998382568359e+00 2.544382333755493164e+00
3.010000000000000000e+02 2.673554992675781250e+01 3.631977462768554688e+01 6.034983158111572266e+00 1.198245048522949219e+01 5.405230045318603516e+00 5.867735147476196289e-01
3.020000000000000000e+02 2.671621322631835938e+01 3.616119384765625000e+01 5.771996498107910156e+00 1.208685016632080078e+01 5.357654094696044922e+00 8.094435930252075195e-02
3.030000000000000000e+02 2.649475097656250000e+01 3.614152526855468750e+01 6.468905448913574219e+00 1.274973869323730469e+01 5.765593051910400391e+00 -8.959720283746719360e-02
3.040000000000000000e+02 2.654202270507812500e+01 3.582629013061523438e+01 5.183869838714599609e+00 1.285276412963867188e+01 5.410990238189697266e+00 -7.363296151161193848e-01
3.050000000000000000e+02 2.625065994262695312e+01 3.534793090820312500e+01 2.708806276321411133e+00 1.418342971801757812e+01 5.067670822143554688e+00 -4.528059363365173340e-01
3.060000000000000000e+02 2.595513534545898438e+01 3.539229202270507812e+01 2.149677991867065430e+00 1.513364982604980469e+01 5.184998512268066406e+00 3.411202430725097656e-01
3.070000000000000000e+02 2.595590782165527344e+01 3.519343566894531250e+01 1.568966507911682129e+00 1.440086650848388672e+01 4.790949821472167969e+00 7.826371192932128906e-01
3.080000000000000000e+02 2.557918548583984375e+01 3.507431030273437500e+01 8.382513523101806641e-01 1.342316722869873047e+01 4.278425693511962891e+00 2.551458835601806641e+00
3.090000000000000000e+02 2.540396690368652344e+01 3.502743148803710938e+01 8.593245744705200195e-01 1.264646148681640625e+01 4.051735877990722656e+00 3.289240837097167969e+00
3.100000000000000000e+02 2.480367469787597656e+01 3.502843856811523438e+01 1.926709532737731934e+00 7.888491630554199219e+00 2.944560289382934570e+00 4.560513019561767578e+00
3.110000000000000000e+02 2.459708786010742188e+01 3.502255630493164062e+01 2.261567354202270508e+00 6.357895851135253906e+00 2.585839033126831055e+00 4.378571033477783203e+00
3.120000000000000000e+02 2.446486091613769531e+01 3.543713760375976562e+01 3.259862422943115234e+00 4.142152309417724609e+00 2.220604419708251953e+00 4.136581897735595703e+00
3.130000000000000000e+02 2.431830024719238281e+01 3.560855484008789062e+01 3.198691129684448242e+00 2.248676776885986328e+00 1.634210348129272461e+00 3.130716323852539062e+00
3.140000000000000000e+02 2.381414031982421875e+01 3.528989791870117188e+01 2.241228342056274414e+00 1.681147694587707520e+00 1.176712870597839355e+00 2.104568958282470703e+00
3.150000000000000000e+02 2.277814292907714844e+01 3.673213577270507812e+01 -3.094392299652099609e+00 -4.776743054389953613e-02 -9.426478743553161621e-01 2.315967231988906860e-01
3.160000000000000000e+02 2.366557693481445312e+01 3.581964492797851562e+01 9.660909771919250488e-01 3.390347063541412354e-01 3.915376961231231689e-01 7.112346291542053223e-01
3.170000000000000000e+02 2.408746910095214844e+01 3.601921844482421875e+01 1.053778409957885742e+00 2.448125630617141724e-01 3.895772993564605713e-01 8.656308650970458984e-01
3.180000000000000000e+02 2.321806144714355469e+01 3.533823776245117188e+01 1.155578255653381348e+00 7.994285821914672852e-01 5.865020155906677246e-01 8.800300359725952148e-01
3.190000000000000000e+02 2.342381477355957031e+01 3.528725814819335938e+01 1.535974860191345215e+00 9.237094521522521973e-01 7.379052639007568359e-01 1.214632391929626465e+00
3.200000000000000000e+02 2.360601615905761719e+01 3.526181411743164062e+01 1.889172315597534180e+00 1.325606346130371094e+00 9.644336104393005371e-01 1.644829392433166504e+00
3.210000000000000000e+02 2.379722213745117188e+01 3.503139495849609375e+01 2.143235921859741211e+00 2.351929664611816406e+00 1.348549604415893555e+00 2.423149824142456055e+00
3.220000000000000000e+02 2.339095115661621094e+01 3.655995941162109375e+01 -4.052891254425048828e+00 -1.821752786636352539e-01 -1.270519971847534180e+00 1.583859175443649292e-01
3.230000000000000000e+02 2.319157218933105469e+01 3.654858398437500000e+01 -3.907177686691284180e+00 1.006305962800979614e-01 -1.141964077949523926e+00 3.392823040485382080e-02
3.240000000000000000e+02 2.449063873291015625e+01 3.748621749877929688e+01 1.225419044494628906e+00 3.657449483871459961e+00 1.464860558509826660e+00 -3.089043617248535156e+00
3.250000000000000000e+02 2.406870841979980469e+01 3.730688095092773438e+01 3.746048808097839355e-01 1.143785357475280762e+00 4.555170834064483643e-01 -1.349880099296569824e+00
3.260000000000000000e+02 2.500811958312988281e+01 3.539136123657226562e+01 2.340119361877441406e+00 1.018484020233154297e+01 3.757487773895263672e+00 5.531518459320068359e+00
3.270000000000000000e+02 2.614580726623535156e+01 3.557240676879882812e+01 3.610804319381713867e+00 1.488893699645996094e+01 5.549922466278076172e+00 -6.503503322601318359e-01
3.280000000000000000e+02 2.650340080261230469e+01 3.640342712402343750e+01 6.856590270996093750e+00 1.274961280822753906e+01 5.881860733032226562e+00 9.691390991210937500e-01
3.290000000000000000e+02 2.317559051513671875e+01 3.596234893798828125e+01 -2.290304005146026611e-01 1.088028103113174438e-01 -3.606827929615974426e-02 3.271299973130226135e-02
3.300000000000000000e+02 2.292653465270996094e+01 3.578344345092773438e+01 7.486812025308609009e-02 1.460864543914794922e-01 6.628637015819549561e-02 -2.731634769588708878e-03
3.310000000000000000e+02 2.326176643371582031e+01 3.562305450439453125e+01 8.229093551635742188e-01 4.005455672740936279e-01 3.670364618301391602e-01 5.499440431594848633e-01
3.320000000000000000e+02 2.399077796936035156e+01 3.567019653320312500e+01 2.244377136230468750e+00 1.032427310943603516e+00 9.830413460731506348e-01 1.774659156799316406e+00
3.330000000000000000e+02 2.437320518493652344e+01 3.519111251831054688e+01 2.773174524307250977e+00 4.251334667205810547e+00 2.107352733612060547e+00 3.874395370483398438e+00
3.340000000000000000e+02 2.414192199707031250e+01 3.546910858154296875e+01 2.766374826431274414e+00 2.216999769210815430e+00 1.495012402534484863e+00 2.728773593902587891e+00
3.350000000000000000e+02 2.363248443603515625e+01 3.736298370361328125e+01 -1.219878494739532471e-01 6.420490145683288574e-01 1.560183465480804443e-01 -5.354640483856201172e-01
3.360000000000000000e+02 2.377868843078613281e+01 3.743352508544921875e+01 3.585863709449768066e-01 8.740325570106506348e-01 3.697856962680816650e-01 -7.915099859237670898e-01
3.370000000000000000e+02 2.338968467712402344e+01 3.713330841064453125e+01 -1.355767726898193359e+00 -1.271351799368858337e-02 -4.105443656444549561e-01 -1.603533178567886353e-01
3.380000000000000000e+02 2.324513435363769531e+01 3.705246353149414062e+01 -2.015252351760864258e+00 -6.860890984535217285e-02 -6.251583695411682129e-01 9.320089221000671387e-02
3.390000000000000000e+02 2.276795196533203125e+01 3.583524322509765625e+01 -1.610995233058929443e-01 9.778771549463272095e-02 -1.899354159832000732e-02 -2.250534109771251678e-02
3.400000000000000000e+02 2.293491363525390625e+01 3.556913757324218750e+01 5.428369045257568359e-01 4.225329458713531494e-01 2.896109521389007568e-01 3.202592134475708008e-01
3.410000000000000000e+02 2.272430419921875000e+01 3.726781463623046875e+01 -1.313424587249755859e+00 6.832353770732879639e-02 -3.735303282737731934e-01 3.388238251209259033e-01
3.420000000000000000e+02 2.287616729736328125e+01 3.737332534790039062e+01 -9.373962283134460449e-01 1.406020391732454300e-02 -2.770008146762847900e-01 8.197861164808273315e-02
3.430000000000000000e+02 2.350276374816894531e+01 3.726678085327148438e+01 -7.783423662185668945e-01 4.422571957111358643e-01 -1.008255407214164734e-01 -1.116503551602363586e-01
3.440000000000000000e+02 2.300791549682617188e+01 3.720991516113281250e+01 -1.268129348754882812e+00 7.267365604639053345e-02 -3.586367070674896240e-01 1.515803188085556030e-01
3.450000000000000000e+02 2.307019615173339844e+01 3.702262115478515625e+01 -2.048426389694213867e+00 2.444069683551788330e-01 -5.412058234214782715e-01 1.968467831611633301e-01
3.460000000000000000e+02 2.288396835327148438e+01 3.708388900756835938e+01 -1.848539829254150391e+00 -2.080246955156326294e-01 -6.169693470001220703e-01 1.739512979984283447e-01
3.470000000000000000e+02 1.888341712951660156e+01 3.794581222534179688e+01 -1.853859066963195801e+00 -5.450940132141113281e-01 -7.196859121322631836e-01 6.214427351951599121e-01
3.480000000000000000e+02 2.112956047058105469e+01 3.806842422485351562e+01 -8.595631718635559082e-01 2.637518346309661865e-01 -1.787434071302413940e-01 6.147978901863098145e-01
3.490000000000000000e+02 2.240432929992675781e+01 3.846575927734375000e+01 2.304313927888870239e-01 5.833958983421325684e-01 2.441481947898864746e-01 -2.691059410572052002e-01
3.500000000000000000e+02 3.310612106323242188e+01 3.391781616210937500e+01 9.060603976249694824e-01 8.809470176696777344e+00 2.914659023284912109e+00 -2.433940023183822632e-01
3.510000000000000000e+02 4.104865646362304688e+01 2.562803268432617188e+01 -7.108140736818313599e-02 8.255646705627441406e+00 2.455369472503662109e+00 -2.156151682138442993e-01
3.520000000000000000e+02 4.650122833251953125e+01 1.564565849304199219e+01 -1.425867825746536255e-01 7.951929092407226562e+00 2.342802762985229492e+00 -1.103252172470092773e-01
3.530000000000000000e+02 5.629161834716796875e+01 1.145086860656738281e+01 -6.945224106311798096e-02 7.813572406768798828e+00 2.323235988616943359e+00 -1.835140883922576904e-01
3.540000000000000000e+02 6.668065643310546875e+01 6.312140464782714844e+00 -2.924887649714946747e-02 7.750405311584472656e+00 2.316346883773803711e+00 -1.593785285949707031e-01
3.550000000000000000e+02 7.017698669433593750e+01 -4.825804710388183594e+00 -1.535137370228767395e-02 7.821653366088867188e+00 2.341890573501586914e+00 -1.027970910072326660e-01
3.560000000000000000e+02 7.798423767089843750e+01 -9.657506942749023438e+00 -9.805352892726659775e-04 7.949831962585449219e+00 2.384655475616455078e+00 -2.504734322428703308e-02
3.570000000000000000e+02 7.933117675781250000e+01 -5.534365653991699219e+00 -3.406127507332712412e-04 7.918589591979980469e+00 2.375474691390991211e+00 -1.084606163203716278e-02
3.580000000000000000e+02 7.797342681884765625e+01 -2.668224573135375977e+00 -8.699276368133723736e-04 7.865316390991210938e+00 2.359333992004394531e+00 -3.033640421926975250e-02
3.590000000000000000e+02 7.933479309082031250e+01 2.825983762741088867e+00 -1.272549270652234554e-04 7.794321060180664062e+00 2.338258028030395508e+00 -1.324364729225635529e-02
3.600000000000000000e+02 7.273850250244140625e+01 8.328042030334472656e+00 -9.316002950072288513e-03 7.710226058959960938e+00 2.310272932052612305e+00 -1.156746745109558105e-01
3.610000000000000000e+02 6.633334350585937500e+01 1.861720085144042969e+01 -1.682348316535353661e-03 7.677476882934570312e+00 2.302738428115844727e+00 -1.943738758563995361e-01
3.620000000000000000e+02 5.582504653930664062e+01 2.133031845092773438e+01 -2.064517233520746231e-03 7.844359874725341797e+00 2.352688550949096680e+00 -2.365806698799133301e-01
3.630000000000000000e+02 4.999749374389648438e+01 3.063350677490234375e+01 2.331707328557968140e-01 7.953867912292480469e+00 2.456111669540405273e+00 -2.547771036624908447e-01
3.640000000000000000e+02 3.998033905029296875e+01 3.719282913208007812e+01 7.122552990913391113e-01 8.350841522216796875e+00 2.718929052352905273e+00 -1.457966119050979614e-01
3.650000000000000000e+02 3.546931457519531250e+01 3.954138183593750000e+01 8.376120924949645996e-01 8.914375305175781250e+00 2.925595998764038086e+00 1.078101899474859238e-02
3.660000000000000000e+02 2.833507537841796875e+01 2.514489173889160156e+01 -6.242397427558898926e-01 7.865589141845703125e+00 2.172404766082763672e+00 7.418615221977233887e-01
3.670000000000000000e+02 2.737522697448730469e+01 1.765745925903320312e+01 -2.059756070375442505e-01 7.382896423339843750e+00 2.153076171875000000e+00 4.999405741691589355e-01
3.680000000000000000e+02 2.743905448913574219e+01 1.349341201782226562e+01 -8.697620034217834473e-02 7.435849189758300781e+00 2.204661846160888672e+00 3.811689615249633789e-01
3.690000000000000000e+02 2.602083969116210938e+01 2.380058526992797852e+00 7.417696714401245117e-02 7.458519458770751953e+00 2.259809017181396484e+00 1.874431520700454712e-01
3.700000000000000000e+02 2.903239440917968750e+01 -4.114385128021240234e+00 -3.334458917379379272e-02 7.411044120788574219e+00 2.213310003280639648e+00 1.600389033555984497e-01
3.710000000000000000e+02 2.849999618530273438e+01 -9.984354019165039062e+00 -5.370339378714561462e-03 7.292046546936035156e+00 2.186002731323242188e+00 1.617880016565322876e-01
3.720000000000000000e+02 2.904798316955566406e+01 -1.597410964965820312e+01 -1.649054326117038727e-02 7.215876102447509766e+00 2.159815549850463867e+00 1.086618751287460327e-01
3.730000000000000000e+02 2.630782699584960938e+01 -2.637652397155761719e+01 1.074977498501539230e-02 7.001742362976074219e+00 2.103747606277465820e+00 1.805638968944549561e-01
3.740000000000000000e+02 3.279704666137695312e+01 -3.471776199340820312e+01 -1.229426562786102295e-01 7.082117080688476562e+00 2.087752342224121094e+00 -7.277808338403701782e-02
3.750000000000000000e+02 3.264592361450195312e+01 -4.103154373168945312e+01 -2.549779117107391357e-01 7.102698326110839844e+00 2.054316043853759766e+00 -1.502228621393442154e-02
3.760000000000000000e+02 3.283264923095703125e+01 -3.796774673461914062e+01 -1.909675598144531250e-01 7.138850688934326172e+00 2.084364891052246094e+00 -5.546677485108375549e-02
3.770000000000000000e+02 4.240841674804687500e+01 -4.065557861328125000e+01 -1.496853530406951904e-01 7.388721466064453125e+00 2.171710729598999023e+00 -5.742064677178859711e-03
3.780000000000000000e+02 3.751484298706054688e+01 -4.085358428955078125e+01 -1.921378076076507568e-01 7.281513690948486328e+00 2.126812934875488281e+00 -2.434075064957141876e-02
3.790000000000000000e+02 3.452857971191406250e+01 -2.424892997741699219e+01 -4.907688125967979431e-02 7.226839065551757812e+00 2.153328657150268555e+00 4.094376042485237122e-02
3.800000000000000000e+02 3.428350067138671875e+01 -1.543826389312744141e+01 -4.297935217618942261e-02 7.329114913940429688e+00 2.185840606689453125e+00 5.247943848371505737e-02
3.810000000000000000e+02 3.401621246337890625e+01 -1.311664581298828125e+01 -3.655085712671279907e-02 7.352400302886962891e+00 2.194754838943481445e+00 6.588131934404373169e-02
3.820000000000000000e+02 3.562167739868164062e+01 -2.004147768020629883e+00 -3.499534726142883301e-02 7.512247085571289062e+00 2.243175506591796875e+00 8.526535332202911377e-02
3.830000000000000000e+02 3.577841567993164062e+01 2.340407133102416992e+00 -4.024673625826835632e-02 7.566435337066650391e+00 2.257856607437133789e+00 1.172030866146087646e-01
3.840000000000000000e+02 3.382241058349609375e+01 1.108501720428466797e+01 -1.334748566150665283e-01 7.684798717498779297e+00 2.265397071838378906e+00 2.663815319538116455e-01
3.850000000000000000e+02 3.372096252441406250e+01 1.813790321350097656e+01 -3.340784609317779541e-01 7.935486793518066406e+00 2.280422449111938477e+00 3.093058764934539795e-01
3.860000000000000000e+02 3.414242553710937500e+01 2.443794631958007812e+01 -4.219056665897369385e-01 8.375433921813964844e+00 2.386058568954467773e+00 1.203639358282089233e-01
3.870000000000000000e+02 2.664761352539062500e+01 3.529740142822265625e+01 2.926541328430175781e+00 1.267238140106201172e+01 4.679677009582519531e+00 -6.976549029350280762e-01
3.880000000000000000e+02 2.587717247009277344e+01 3.480289077758789062e+01 6.570904850959777832e-01 1.282938861846923828e+01 4.045943737030029297e+00 1.548779010772705078e+00
3.890000000000000000e+02 2.230838394165039062e+01 3.400881576538085938e+01 6.769013404846191406e-01 1.458335041999816895e+00 6.405709385871887207e-01 8.989516496658325195e-01
3.900000000000000000e+02 2.103950500488281250e+01 2.401928138732910156e+01 -1.407586969435214996e-02 5.595586299896240234e+00 1.674453139305114746e+00 1.765792518854141235e-01
3.910000000000000000e+02 2.098972320556640625e+01 2.542645454406738281e+01 -5.996946245431900024e-03 5.135301113128662109e+00 1.538791179656982422e+00 2.010647803544998169e-01
3.920000000000000000e+02 2.105694389343261719e+01 1.692814445495605469e+01 -3.592081135138869286e-03 6.879041671752929688e+00 2.062634944915771484e+00 6.680694967508316040e-02
3.930000000000000000e+02 2.106539344787597656e+01 9.891800880432128906e+00 -3.336605368531309068e-05 7.496121883392333984e+00 2.248826503753662109e+00 5.127554759383201599e-02
3.940000000000000000e+02 2.100484657287597656e+01 4.251821517944335938e+00 1.366495490074157715e-01 8.221284866333007812e+00 2.507380247116088867e+00 3.821396231651306152e-01
3.950000000000000000e+02 2.045639610290527344e+01 -4.114906787872314453e+00 -3.281673789024353027e-02 6.932930946350097656e+00 2.070034265518188477e+00 4.330130219459533691e-01
3.960000000000000000e+02 2.026171302795410156e+01 -1.111188888549804688e+01 2.117555588483810425e-03 7.299359798431396484e+00 2.190443277359008789e+00 2.579145133495330811e-01
3.970000000000000000e+02 2.004490470886230469e+01 -1.531489562988281250e+01 7.840740680694580078e-02 7.228712081909179688e+00 2.192135810852050781e+00 5.751791596412658691e-01
3.980000000000000000e+02 1.963934135437011719e+01 -2.367578697204589844e+01 -8.365753293037414551e-02 6.533229827880859375e+00 1.934871673583984375e+00 1.547031849622726440e-01
3.990000000000000000e+02 2.108592224121093750e+01 -3.449388885498046875e+01 6.145002841949462891e-01 6.985272884368896484e+00 2.279932022094726562e+00 5.915911197662353516e-01
4.000000000000000000e+02 2.353921508789062500e+01 -3.484449768066406250e+01 3.918019533157348633e-01 6.637143135070800781e+00 2.108683586120605469e+00 7.726628333330154419e-02
4.010000000000000000e+02 2.141505050659179688e+01 -3.559412002563476562e+01 7.391387820243835449e-01 6.556189537048339844e+00 2.188598394393920898e+00 2.602141797542572021e-01
4.020000000000000000e+02 2.056317329406738281e+01 -2.722940921783447266e+00 1.038468927145004272e-01 7.408141613006591797e+00 2.253596544265747070e+00 4.398171901702880859e-01
4.030000000000000000e+02 2.033074760437011719e+01 -8.297142028808593750e+00 9.006647393107414246e-03 7.221502304077148438e+00 2.169152736663818359e+00 1.183834895491600037e-01
4.040000000000000000e+02 1.991017913818359375e+01 -1.670082664489746094e+01 9.337281808257102966e-03 6.709222793579101562e+00 2.015568017959594727e+00 5.305421948432922363e-01
4.050000000000000000e+02 1.970633125305175781e+01 -2.087701988220214844e+01 6.502223666757345200e-03 6.718038558959960938e+00 2.017362356185913086e+00 1.797512173652648926e-01
4.060000000000000000e+02 1.967542076110839844e+01 -2.787876319885253906e+01 3.509780764579772949e-02 6.915493011474609375e+00 2.085177183151245117e+00 6.587132066488265991e-02
4.070000000000000000e+02 1.963499641418457031e+01 -3.484799957275390625e+01 2.067861855030059814e-01 8.105335235595703125e+00 2.493636369705200195e+00 6.782301664352416992e-01
4.080000000000000000e+02 1.966361999511718750e+01 -3.624068450927734375e+01 6.576574444770812988e-01 7.280052185058593750e+00 2.381312847137451172e+00 1.136820912361145020e+00
4.090000000000000000e+02 1.667066383361816406e+01 -3.858330154418945312e+01 -4.602232873439788818e-01 -1.036645993590354919e-01 -1.691663563251495361e-01 2.795609831809997559e-01
4.100000000000000000e+02 1.905490875244140625e+01 -3.907401657104492188e+01 -5.682787299156188965e-01 4.434870243072509766e+00 1.159977555274963379e+00 1.152382493019104004e+00
4.110000000000000000e+02 1.463842487335205078e+01 -3.646643066406250000e+01 -1.649430543184280396e-01 -1.464136689901351929e-01 -9.340701997280120850e-02 8.112503588199615479e-02
4.120000000000000000e+02 1.543688964843750000e+01 -3.757349777221679688e+01 -3.992658257484436035e-01 -1.050596162676811218e-01 -1.512976288795471191e-01 1.751596331596374512e-01
4.130000000000000000e+02 1.289447593688964844e+01 -3.155748176574707031e+01 -2.355155162513256073e-02 -1.008465513586997986e-02 -1.009086240082979202e-02 1.309317722916603088e-02
4.140000000000000000e+02 6.304276585578918457e-01 -2.483788108825683594e+01 -8.782769553363323212e-03 1.825076295062899590e-03 -2.087308093905448914e-03 -4.580476961564272642e-04
4.150000000000000000e+02 6.244573593139648438e-01 -3.044060707092285156e+01 -1.584762148559093475e-02 -1.627804827876389027e-03 -5.242627579718828201e-03 -2.159271156415343285e-03
4.160000000000000000e+02 6.437976956367492676e-01 -3.183772277832031250e+01 1.513887662440538406e-02 -5.516708362847566605e-03 2.886650385335087776e-03 -9.692603489384055138e-04
4.170000000000000000e+02 6.751697063446044922e-01 -3.735732650756835938e+01 3.078372031450271606e-02 -3.415238857269287109e-02 -1.010600011795759201e-03 1.112030076910741627e-04
4.180000000000000000e+02 8.958368301391601562e+00 -3.915288162231445312e+01 3.738763555884361267e-02 6.270583719015121460e-02 3.002804145216941833e-02 -7.210725545883178711e-02
4.190000000000000000e+02 1.213799667358398438e+01 -4.139669799804687500e+01 2.483927905559539795e-01 1.234202012419700623e-01 1.115438938140869141e-01 -2.292257733643054962e-02
4.200000000000000000e+02 1.353099155426025391e+01 -3.586761093139648438e+01 -1.141443476080894470e-01 -1.386375445872545242e-02 -3.840243071317672729e-02 7.833147048950195312e-02
4.210000000000000000e+02 1.393701076507568359e+01 -3.450361251831054688e+01 5.334525369107723236e-03 -5.416706204414367676e-02 -1.464976090937852859e-02 3.024585172533988953e-02
4.220000000000000000e+02 1.416329193115234375e+01 -3.312862396240234375e+01 -2.935953997075557709e-02 -1.237888820469379425e-02 -1.252152863889932632e-02 1.043322123587131500e-02
4.230000000000000000e+02 1.316936779022216797e+01 -2.626027679443359375e+01 -1.271001622080802917e-02 -1.522886799648404121e-03 -4.269870929419994354e-03 -1.116269384510815144e-03
4.240000000000000000e+02 1.871703863143920898e+00 -1.770351409912109375e+01 -4.704277962446212769e-03 2.968700755445752293e-05 -1.402377267368137836e-03 -1.282045413972809911e-04
4.250000000000000000e+02 6.398020982742309570e-01 -2.342506980895996094e+01 7.198745384812355042e-03 1.433536875993013382e-03 2.589684678241610527e-03 6.110685062594711781e-04
4.260000000000000000e+02 1.441461563110351562e+01 -3.037156867980957031e+01 -2.164957299828529358e-02 9.253290481865406036e-04 -6.217272952198982239e-03 4.022219218313694000e-03
4.270000000000000000e+02 1.311174297332763672e+01 -2.890667343139648438e+01 -1.604764908552169800e-02 -4.564757458865642548e-03 -6.183722056448459625e-03 5.061710719019174576e-03
4.280000000000000000e+02 1.420719146728515625e+01 -2.200358390808105469e+01 -1.205800659954547882e-02 1.283997436985373497e-03 -3.232202725484967232e-03 -2.107647742377594113e-04
4.290000000000000000e+02 1.452232170104980469e+01 -1.348099040985107422e+01 -6.432334426790475845e-03 -1.717455452308058739e-04 -1.981223933398723602e-03 7.805447676219046116e-04
4.300000000000000000e+02 1.460933876037597656e+01 -6.550242424011230469e+00 4.069830290973186493e-03 1.253205846296623349e-04 1.258545205928385258e-03 -5.821125887450762093e-05
4.310000000000000000e+02 1.460444259643554688e+01 -3.848307847976684570e+00 3.205335699021816254e-03 4.541265952866524458e-04 1.097838743589818478e-03 7.116864435374736786e-04
4.320000000000000000e+02 1.444303512573242188e+01 -2.830489873886108398e+00 -3.279400989413261414e-03 -5.569458007812500000e-04 -1.150903990492224693e-03 -1.368287834338843822e-03
4.330000000000000000e+02 1.031716442108154297e+01 -2.605459451675415039e+00 -1.714414916932582855e-03 7.665612065466120839e-05 -4.913276643492281437e-04 4.074052267242223024e-04
4.340000000000000000e+02 1.348881149291992188e+01 -1.061630439758300781e+01 4.847800824791193008e-03 3.211230505257844925e-04 1.550677116028964520e-03 -6.189907435327768326e-04
4.350000000000000000e+02 1.280162334442138672e+01 -1.869281387329101562e+01 5.590711720287799835e-03 1.781463040970265865e-03 2.211652463302016258e-03 -2.968455664813518524e-03
4.360000000000000000e+02 1.316238784790039062e+01 -2.495199966430664062e+01 1.243227440863847733e-02 2.238638931885361671e-03 4.401274025440216064e-03 1.680145389400422573e-03
4.370000000000000000e+02 1.446697616577148438e+01 -2.622785377502441406e+01 1.497806329280138016e-02 3.244618652388453484e-03 5.466804374009370804e-03 3.670071600936353207e-04
4.380000000000000000e+02 1.107808494567871094e+01 -1.873964667320251465e+00 -9.649752755649387836e-04 -2.945033702417276800e-05 -2.983276790473610163e-04 1.512456656200811267e-04
4.390000000000000000e+02 4.226945400238037109e+00 -1.931307315826416016e+00 5.979481502436101437e-04 5.656813154928386211e-04 3.490888339001685381e-04 2.793793682940304279e-04
4.400000000000000000e+02 1.714856863021850586e+00 -1.069403934478759766e+01 3.258632263168692589e-03 -1.267154584638774395e-04 9.395750239491462708e-04 5.817489000037312508e-05
4.410000000000000000e+02 6.248832941055297852e-01 -1.774404144287109375e+01 3.579443553462624550e-03 3.753628116101026535e-04 1.186441862955689430e-03 1.740082225296646357e-04
4.420000000000000000e+02 2.659196853637695312e+00 -3.765708160400390625e+01 1.423519570380449295e-02 -2.480217814445495605e-02 -3.170094918459653854e-03 -1.029937155544757843e-02
4.430000000000000000e+02 4.049474334716796875e+01 -2.718064880371093750e+01 -8.306756615638732910e-02 7.358316898345947266e+00 2.182574748992919922e+00 -3.300272300839424133e-02
4.440000000000000000e+02 4.212584304809570312e+01 -1.426218414306640625e+01 -5.479615554213523865e-02 7.485153675079345703e+00 2.229107141494750977e+00 -1.780897192656993866e-02
4.450000000000000000e+02 4.139482498168945312e+01 -7.728345394134521484e+00 -5.460361391305923462e-02 7.532191276550292969e+00 2.243276357650756836e+00 -2.381936879828572273e-03
4.460000000000000000e+02 4.010976028442382812e+01 -1.686672806739807129e+00 -5.832187086343765259e-02 7.586176395416259766e+00 2.258356332778930664e+00 3.369768708944320679e-02
4.470000000000000000e+02 4.132891082763671875e+01 2.670054674148559570e+00 -8.274853229522705078e-02 7.664611339569091797e+00 2.274558782577514648e+00 3.469512239098548889e-02
4.480000000000000000e+02 3.977218246459960938e+01 1.257714462280273438e+01 -1.850342154502868652e-01 7.861135005950927734e+00 2.302830219268798828e+00 9.655344486236572266e-02
4.490000000000000000e+02 4.008420181274414062e+01 1.941059684753417969e+01 -2.528638541698455811e-01 8.101142883300781250e+00 2.354483842849731445e+00 3.933891654014587402e-03
4.500000000000000000e+02 4.001205062866210938e+01 2.333728981018066406e+01 -1.979198306798934937e-01 8.237944602966308594e+00 2.412007570266723633e+00 -1.115937009453773499e-01
4.510000000000000000e+02 4.740517425537109375e+01 -4.036364364624023438e+01 -1.212840527296066284e-01 7.513906002044677734e+00 2.217786550521850586e+00 -1.583985611796379089e-02
4.520000000000000000e+02 5.246474838256835938e+01 -4.042655181884765625e+01 -9.574244171380996704e-02 7.608442783355712891e+00 2.253810167312622070e+00 -8.192563429474830627e-03
4.530000000000000000e+02 5.228498840332031250e+01 -2.962643432617187500e+01 -7.714552432298660278e-02 7.616860389709472656e+00 2.261914491653442383e+00 -5.706529319286346436e-02
4.540000000000000000e+02 5.057683944702148438e+01 -2.632603454589843750e+01 -7.436572760343551636e-02 7.577082633972167969e+00 2.250814914703369141e+00 -6.330833584070205688e-02
4.550000000000000000e+02 4.523881530761718750e+01 -1.598051452636718750e+01 -6.056240946054458618e-02 7.526807308197021484e+00 2.239873409271240234e+00 -4.620251804590225220e-02
4.560000000000000000e+02 4.671548461914062500e+01 -8.001727104187011719e+00 -6.128723174333572388e-02 7.604917049407958984e+00 2.263088941574096680e+00 -5.240263789892196655e-02
4.570000000000000000e+02 4.768729782104492188e+01 5.919186115264892578e+00 -1.071939691901206970e-01 7.775868415832519531e+00 2.300602436065673828e+00 -6.376708298921585083e-02
4.580000000000000000e+02 4.613108062744140625e+01 9.854577064514160156e+00 -1.327620148658752441e-01 7.840919494628906250e+00 2.312447309494018555e+00 -5.407078564167022705e-02
4.590000000000000000e+02 5.108214187622070312e+01 1.843972396850585938e+01 -6.653435528278350830e-02 7.925980091094970703e+00 2.357833623886108398e+00 -2.054221779108047485e-01
4.600000000000000000e+02 6.216785049438476562e+01 -4.086640548706054688e+01 -4.923089221119880676e-02 7.796049594879150391e+00 2.324045658111572266e+00 -4.891529679298400879e-03
4.610000000000000000e+02 5.738570785522460938e+01 -4.075752639770507812e+01 -7.081963121891021729e-02 7.707186222076416016e+00 2.290910005569458008e+00 -9.985017590224742889e-03
4.620000000000000000e+02 5.806251525878906250e+01 -2.990252113342285156e+01 -5.530840903520584106e-02 7.712264060974121094e+00 2.297086715698242188e+00 -5.535598471760749817e-02
4.630000000000000000e+02 5.756801223754882812e+01 -2.170035552978515625e+01 -4.821353033185005188e-02 7.713550090789794922e+00 2.299601078033447266e+00 -8.145980536937713623e-02
4.640000000000000000e+02 5.821220016479492188e+01 -1.626856422424316406e+01 -4.661621153354644775e-02 7.722313404083251953e+00 2.302709102630615234e+00 -9.639232605695724487e-02
4.650000000000000000e+02 5.787333679199218750e+01 -8.027138710021972656e+00 -4.942364990711212158e-02 7.731458187103271484e+00 2.304610490798950195e+00 -1.156201437115669250e-01
4.660000000000000000e+02 5.645215606689453125e+01 -4.209538459777832031e+00 -5.808674171566963196e-02 7.732487201690673828e+00 2.302320003509521484e+00 -1.203609630465507507e-01
4.670000000000000000e+02 5.844920349121093750e+01 7.853405475616455078e+00 -6.292976438999176025e-02 7.783052444458007812e+00 2.316036701202392578e+00 -1.741177588701248169e-01
4.680000000000000000e+02 6.614871215820312500e+01 -2.905816650390625000e+01 -2.931654080748558044e-02 7.859341621398925781e+00 2.349007606506347656e+00 -4.991657659411430359e-02
4.690000000000000000e+02 6.691782379150390625e+01 -2.595787429809570312e+01 -2.306421659886837006e-02 7.864926815032958984e+00 2.352558612823486328e+00 -6.104423478245735168e-02
4.700000000000000000e+02 6.550228118896484375e+01 -1.816656684875488281e+01 -2.562151290476322174e-02 7.823903560638427734e+00 2.339484691619873047e+00 -8.439182490110397339e-02
4.710000000000000000e+02 6.387451934814453125e+01 -1.272817325592041016e+01 -3.037823736667633057e-02 7.793152809143066406e+00 2.328832387924194336e+00 -1.040745601058006287e-01
4.720000000000000000e+02 6.411354064941406250e+01 -1.885473489761352539e+00 -3.598903119564056396e-02 7.776253223419189453e+00 2.322079181671142578e+00 -1.374185681343078613e-01
4.730000000000000000e+02 6.519439697265625000e+01 1.976818084716796875e+00 -3.419155627489089966e-02 7.769170761108398438e+00 2.320493698120117188e+00 -1.489298343658447266e-01
4.740000000000000000e+02 6.686620330810546875e+01 -4.082963180541992188e+01 -3.039919026196002960e-02 7.888207912445068359e+00 2.357342720031738281e+00 -6.846860051155090332e-03
4.750000000000000000e+02 7.196273040771484375e+01 -3.093066215515136719e+01 -1.144480053335428238e-02 7.978995800018310547e+00 2.390265464782714844e+00 -3.092928603291511536e-02
4.760000000000000000e+02 6.993171691894531250e+01 -2.434527206420898438e+01 -1.556811016052961349e-02 7.916992187500000000e+00 2.370427370071411133e+00 -5.573094263672828674e-02
4.770000000000000000e+02 7.086495208740234375e+01 -1.786450004577636719e+01 -1.094151102006435394e-02 7.904749870300292969e+00 2.368142366409301758e+00 -6.656315177679061890e-02
4.780000000000000000e+02 7.138168334960937500e+01 -9.798770904541015625e+00 -1.066817250102758408e-02 7.866171360015869141e+00 2.356650829315185547e+00 -8.211512863636016846e-02
4.790000000000000000e+02 7.273546600341796875e+01 -5.721193313598632812e+00 -8.804865181446075439e-03 7.849888801574707031e+00 2.352325201034545898e+00 -8.127257227897644043e-02
4.800000000000000000e+02 7.791379547119140625e+01 -4.159619140625000000e+01 4.286088049411773682e-03 8.139393806457519531e+00 2.443103790283203125e+00 1.182066975161433220e-03
4.810000000000000000e+02 7.792904663085937500e+01 -3.677062988281250000e+01 -3.355671418830752373e-03 8.130290985107421875e+00 2.438080787658691406e+00 1.351608079858124256e-03
4.820000000000000000e+02 7.806217956542968750e+01 -3.039725685119628906e+01 -1.346465433016419411e-03 8.112197875976562500e+00 2.433255434036254883e+00 -9.943102486431598663e-03
4.830000000000000000e+02 7.801857757568359375e+01 -2.354853439331054688e+01 -1.112795900553464890e-03 8.073170661926269531e+00 2.421617507934570312e+00 -1.514625456184148788e-02
4.840000000000000000e+02 7.796468353271484375e+01 -1.662510108947753906e+01 -5.272311973385512829e-04 8.018408775329589844e+00 2.405364513397216797e+00 -2.031270228326320648e-02
4.850000000000000000e+02 7.932555389404296875e+01 -1.250677394866943359e+01 1.007366063277004287e-05 8.002388954162597656e+00 2.400719642639160156e+00 -9.053827263414859772e-03
4.860000000000000000e+02 7.802928924560546875e+01 4.294028759002685547e+00 -9.760431712493300438e-04 7.764093875885009766e+00 2.328935384750366211e+00 -3.557682037353515625e-02
4.870000000000000000e+02 7.934920501708984375e+01 8.388832092285156250e+00 -4.354297925601713359e-05 7.693869590759277344e+00 2.308147907257080078e+00 -1.471595559269189835e-02
4.880000000000000000e+02 7.230287933349609375e+01 1.835290527343750000e+01 -1.642027287743985653e-03 7.592700481414794922e+00 2.277317523956298828e+00 -1.366015076637268066e-01
4.890000000000000000e+02 6.293011856079101562e+01 1.931854629516601562e+01 -1.330651575699448586e-03 7.730171203613281250e+00 2.318652153015136719e+00 -2.167303264141082764e-01
4.900000000000000000e+02 5.692054748535156250e+01 3.297219085693359375e+01 2.120185941457748413e-01 7.768699645996093750e+00 2.394215583801269531e+00 -1.854009330272674561e-01
4.910000000000000000e+02 4.786142730712890625e+01 3.664743041992187500e+01 4.512486755847930908e-01 7.979067802429199219e+00 2.529094934463500977e+00 -1.674461960792541504e-01
4.920000000000000000e+02 3.849273300170898438e+01 4.065490722656250000e+01 8.025146126747131348e-01 8.540997505187988281e+00 2.803053855895996094e+00 -3.973840177059173584e-02
4.930000000000000000e+02 7.802528381347656250e+01 1.120132160186767578e+01 -1.034833025187253952e-03 7.643611431121826172e+00 2.292773008346557617e+00 -4.123525694012641907e-02
4.940000000000000000e+02 7.931465148925781250e+01 1.675396728515625000e+01 3.208329726476222277e-04 7.519445896148681641e+00 2.255929946899414062e+00 -1.711872406303882599e-02
4.950000000000000000e+02 7.260305786132812500e+01 2.506569099426269531e+01 1.356260478496551514e-02 7.505762100219726562e+00 2.255797386169433594e+00 -1.265144199132919312e-01
4.960000000000000000e+02 6.204520034790039062e+01 3.198815345764160156e+01 1.242896839976310730e-01 7.664062500000000000e+00 2.336505651473999023e+00 -1.634706109762191772e-01
4.970000000000000000e+02 5.245234680175781250e+01 3.640816879272460938e+01 3.392737209796905518e-01 7.853634357452392578e+00 2.457872390747070312e+00 -1.507406234741210938e-01
4.980000000000000000e+02 5.250726699829101562e+01 4.052157592773437500e+01 3.969588875770568848e-01 7.837688446044921875e+00 2.470394134521484375e+00 -4.936984181404113770e-02
4.990000000000000000e+02 7.790531921386718750e+01 1.964004135131835938e+01 -4.244436568114906549e-04 7.480018615722656250e+00 2.243878126144409180e+00 -4.676778614521026611e-02
5.000000000000000000e+02 7.930606079101562500e+01 2.373324012756347656e+01 -5.938771064393222332e-04 7.365230560302734375e+00 2.209390878677368164e+00 -1.664023101329803467e-02
5.010000000000000000e+02 7.141435241699218750e+01 3.163901138305664062e+01 4.135799780488014221e-02 7.465806961059570312e+00 2.252149581909179688e+00 -1.047667190432548523e-01
5.020000000000000000e+02 6.245957565307617188e+01 4.051279449462890625e+01 1.776248216629028320e-01 7.627161979675292969e+00 2.341435909271240234e+00 -3.620236739516258240e-02
5.030000000000000000e+02 5.745570373535156250e+01 4.037530517578125000e+01 2.725318074226379395e-01 7.724866867065429688e+00 2.399219512939453125e+00 -4.997956007719039917e-02
5.040000000000000000e+02 7.649915313720703125e+01 2.255675888061523438e+01 1.996317878365516663e-03 7.453432559967041016e+00 2.236628770828247070e+00 -7.263846695423126221e-02
5.050000000000000000e+02 7.924338531494140625e+01 2.939883613586425781e+01 1.660554407862946391e-04 7.251261234283447266e+00 2.175428152084350586e+00 -1.462515909224748611e-02
5.060000000000000000e+02 6.714231109619140625e+01 3.760906982421875000e+01 9.822454303503036499e-02 7.529933452606201172e+00 2.288447380065917969e+00 -6.471656262874603271e-02
5.070000000000000000e+02 7.938459777832031250e+01 3.219742965698242188e+01 1.875141286291182041e-03 7.202116489410400391e+00 2.161197423934936523e+00 -1.213220506906509399e-02
5.080000000000000000e+02 7.910037231445312500e+01 3.740033340454101562e+01 2.955896081402897835e-03 7.171133995056152344e+00 2.152226924896240234e+00 2.634753007441759109e-03
5.090000000000000000e+02 7.088945770263671875e+01 3.757856750488281250e+01 5.307957902550697327e-02 7.429393291473388672e+00 2.244741916656494141e+00 -5.144977197051048279e-02
5.100000000000000000e+02 7.715291595458984375e+01 3.896873855590820312e+01 8.413869887590408325e-03 7.205523490905761719e+00 2.164181232452392578e+00 -3.489485010504722595e-03
5.110000000000000000e+02 1.887800407409667969e+01 3.884686279296875000e+01 -2.742052972316741943e-01 -3.247884213924407959e-01 -1.796981096267700195e-01 9.115821719169616699e-01
5.120000000000000000e+02 1.805808830261230469e+01 3.787531280517578125e+01 -8.943644762039184570e-01 3.178666830062866211e-01 -1.729493439197540283e-01 1.173757836222648621e-01
5.130000000000000000e+02 1.704282379150390625e+01 3.774542617797851562e+01 -3.438654541969299316e-01 -1.174617260694503784e-01 -1.383981555700302124e-01 1.405404955148696899e-01
5.140000000000000000e+02 1.516475200653076172e+01 2.982197952270507812e+01 3.564292937517166138e-02 1.078428514301776886e-02 1.392816472798585892e-02 6.232736166566610336e-03
5.150000000000000000e+02 1.344709110260009766e+01 2.555182266235351562e+01 2.058292366564273834e-02 2.103158738464117050e-03 6.805824581533670425e-03 4.548915661871433258e-03
5.160000000000000000e+02 1.879003047943115234e+00 2.594675445556640625e+01 -6.191431544721126556e-03 1.060305628925561905e-03 -1.539337798021733761e-03 -6.790020270273089409e-04
5.170000000000000000e+02 6.293452978134155273e-01 1.909202575683593750e+01 -5.108623765408992767e-03 -3.068325459025800228e-04 -1.624636817723512650e-03 4.639375256374478340e-04
5.180000000000000000e+02 1.881966352462768555e+00 1.610877990722656250e+01 5.622938275337219238e-03 1.632221537875011563e-04 1.735848141834139824e-03 -1.592860207892954350e-04
5.190000000000000000e+02 6.124866008758544922e-01 1.485037612915039062e+01 4.734496586024761200e-03 -1.749029979691840708e-05 1.415101927705109119e-03 -3.893902176059782505e-04
5.200000000000000000e+02 1.652493596076965332e+00 9.057683944702148438e+00 -4.557755310088396072e-03 -1.488672714913263917e-04 -1.411986770108342171e-03 4.034864250570535660e-04
5.210000000000000000e+02 8.914064407348632812e+00 2.609157562255859375e+00 1.871368265710771084e-03 4.986718995496630669e-04 7.110120495781302452e-04 7.755720871500670910e-04
5.220000000000000000e+02 9.650665283203125000e+00 1.864599108695983887e+00 1.660697511397302151e-03 8.543336298316717148e-05 5.238392623141407967e-04 3.142726200167089701e-04
5.230000000000000000e+02 1.367940616607666016e+01 1.822453856468200684e+00 7.873735739849507809e-04 1.888773404061794281e-04 2.928752801381051540e-04 8.897079969756305218e-04
5.240000000000000000e+02 1.317280673980712891e+01 1.769793987274169922e+00 -2.725869417190551758e-04 -7.010344415903091431e-04 -2.920864208135753870e-04 -4.774255503434687853e-04
5.250000000000000000e+02 1.338521480560302734e+01 1.177939414978027344e+01 7.374532986432313919e-03 5.845442647114396095e-04 2.387723186984658241e-03 1.682542962953448296e-03
5.260000000000000000e+02 1.447824192047119141e+01 2.012033843994140625e+01 -1.715305447578430176e-02 -2.859504311345517635e-04 -5.231701303273439407e-03 -9.716926142573356628e-04
5.270000000000000000e+02 1.459532642364501953e+01 2.287750244140625000e+01 -2.013924345374107361e-02 -2.126476647390518337e-05 -6.048152223229408264e-03 -1.315780333243310452e-03
5.280000000000000000e+02 2.010458707809448242e+00 4.161940002441406250e+01 -5.865246523171663284e-03 2.371444366872310638e-02 5.354758817702531815e-03 -1.852179411798715591e-03
5.290000000000000000e+02 4.408306121826171875e+00 3.746977233886718750e+01 -1.541704405099153519e-03 8.250887040048837662e-04 -2.149847132386639714e-04 -1.331621035933494568e-02
5.300000000000000000e+02 1.242730045318603516e+01 3.500358963012695312e+01 2.599265985190868378e-02 -2.645525336265563965e-02 -1.387780212098732591e-04 -6.606066133826971054e-03
5.310000000000000000e+02 1.333299350738525391e+01 3.678435134887695312e+01 -6.958005577325820923e-02 -1.966661214828491211e-02 -2.677400223910808563e-02 4.574815556406974792e-02
5.320000000000000000e+02 1.479689025878906250e+01 3.774835205078125000e+01 -1.202222704887390137e-01 8.269627392292022705e-02 -1.125779841095209122e-02 3.245558589696884155e-02
5.330000000000000000e+02 6.648616790771484375e-01 3.461677169799804688e+01 7.846712134778499603e-03 1.784467697143554688e-02 7.707416545599699020e-03 -3.076481167227029800e-03
5.340000000000000000e+02 1.910681366920471191e+00 3.016490364074707031e+01 8.060249499976634979e-03 4.934363532811403275e-03 3.898383816704154015e-03 -3.710228949785232544e-03
5.350000000000000000e+02 1.212139511108398438e+01 2.956364440917968750e+01 2.331668883562088013e-02 -6.280755158513784409e-03 5.110780242830514908e-03 6.150612141937017441e-03
5.360000000000000000e+02 6.269815564155578613e-01 2.755214500427246094e+01 -6.016507744789123535e-03 2.883231267333030701e-03 -9.399829432368278503e-04 1.511658629169687629e-04
5.370000000000000000e+02 1.114194631576538086e+00 3.768846273422241211e+00 1.133404904976487160e-03 -1.133740181103348732e-03 -1.005994718639158236e-07 2.528870711103081703e-03
5.380000000000000000e+02 5.227438807487487793e-01 6.385540008544921875e+00 3.889607964083552361e-03 3.868360072374343872e-04 1.282933168113231659e-03 -1.456956670153886080e-04
5.390000000000000000e+02 3.686233282089233398e+00 3.668313980102539062e+00 3.196650650352239609e-03 4.604153509717434645e-04 1.097119762562215328e-03 -2.554835518822073936e-04
5.400000000000000000e+02 1.530154418945312500e+01 3.132107162475585938e+01 -2.650487236678600311e-02 2.158678136765956879e-02 -1.475427299737930298e-03 1.503868866711854935e-02
5.410000000000000000e+02 4.052648925781250000e+01 3.129474067687988281e+01 3.078220784664154053e-01 8.310873985290527344e+00 2.585608959197998047e+00 -3.079155683517456055e-01
5.420000000000000000e+02 4.058460235595703125e+01 3.410828399658203125e+01 5.334936380386352539e-01 8.278911590576171875e+00 2.643721580505371094e+00 -2.647524476051330566e-01
5.430000000000000000e+02 5.686115646362304688e+01 3.645478439331054688e+01 2.486250698566436768e-01 7.747733116149902344e+00 2.398907423019409180e+00 -1.218161135911941528e-01
5.440000000000000000e+02 6.427866363525390625e+01 3.392367935180664062e+01 1.189572736620903015e-01 7.609698772430419922e+00 2.318596839904785156e+00 -1.280076503753662109e-01
5.450000000000000000e+02 6.947525024414062500e+01 2.970212364196777344e+01 4.362625256180763245e-02 7.529162406921386719e+00 2.271836519241333008e+00 -1.328181326389312744e-01
5.460000000000000000e+02 2.665197563171386719e+01 2.478768730163574219e+01 -5.314323902130126953e-01 7.350097179412841797e+00 2.045599460601806641e+00 8.982586264610290527e-01
5.470000000000000000e+02 5.229319381713867188e+01 2.035568618774414062e+01 -3.239213302731513977e-02 7.906643867492675781e+00 2.362275600433349609e+00 -2.268384546041488647e-01
5.480000000000000000e+02 5.166598892211914062e+01 2.391034507751464844e+01 2.967573702335357666e-02 7.933213233947753906e+00 2.388866662979125977e+00 -2.527509629726409912e-01
5.490000000000000000e+02 5.746677017211914062e+01 2.952865409851074219e+01 1.465445607900619507e-01 7.783112049102783203e+00 2.378896951675415039e+00 -2.204766571521759033e-01
5.500000000000000000e+02 6.311236953735351562e+01 2.707281875610351562e+01 6.868457794189453125e-02 7.671071052551269531e+00 2.321926593780517578e+00 -1.970667988061904907e-01
5.510000000000000000e+02 7.381436920166015625e+01 2.558721733093261719e+01 1.293128728866577148e-02 7.467044830322265625e+00 2.243992805480957031e+00 -1.093139350414276123e-01
5.520000000000000000e+02 3.447677612304687500e+01 1.583813381195068359e+01 -2.691484093666076660e-01 7.865740776062011719e+00 2.278977632522583008e+00 2.799263000488281250e-01
5.530000000000000000e+02 2.612093544006347656e+01 1.921517753601074219e+01 -2.032553851604461670e-01 7.188300609588623047e+00 2.095513582229614258e+00 5.429376363754272461e-01
5.540000000000000000e+02 6.006531143188476562e+01 1.513657283782958984e+01 -3.478329256176948547e-02 7.781896591186523438e+00 2.324134111404418945e+00 -2.128604203462600708e-01
5.550000000000000000e+02 6.127137756347656250e+01 1.733529472351074219e+01 -1.972592622041702271e-02 7.762977123260498047e+00 2.322975397109985352e+00 -2.172631621360778809e-01
5.560000000000000000e+02 6.470222473144531250e+01 1.540760707855224609e+01 -1.785367727279663086e-02 7.721589088439941406e+00 2.311120510101318359e+00 -2.003206610679626465e-01
5.570000000000000000e+02 7.198661041259765625e+01 1.997422599792480469e+01 1.456965110264718533e-03 7.578410625457763672e+00 2.273960351943969727e+00 -1.402332633733749390e-01
5.580000000000000000e+02 3.385271835327148438e+01 9.618733406066894531e+00 -9.874183684587478638e-02 7.650802135467529297e+00 2.265618085861206055e+00 2.440655529499053955e-01
5.590000000000000000e+02 2.736878967285156250e+01 9.218631744384765625e+00 2.433055080473423004e-02 7.475254535675048828e+00 2.249875545501708984e+00 3.111442923545837402e-01
5.600000000000000000e+02 4.380475997924804688e+01 1.842230415344238281e+01 -1.739837527275085449e-01 8.046281814575195312e+00 2.361689567565917969e+00 -9.253513067960739136e-02
5.610000000000000000e+02 6.448847198486328125e+01 1.184358024597167969e+01 -3.084538690745830536e-02 7.740769386291503906e+00 2.312977075576782227e+00 -1.891423016786575317e-01
5.620000000000000000e+02 6.651523590087890625e+01 9.715103149414062500e+00 -2.698541060090065002e-02 7.733916759490966797e+00 2.312079429626464844e+00 -1.731249541044235229e-01
5.630000000000000000e+02 7.276486206054687500e+01 1.246388626098632812e+01 -7.161850575357675552e-03 7.660005092620849609e+00 2.295852899551391602e+00 -1.239558905363082886e-01
5.640000000000000000e+02 2.105780601501464844e+01 1.834075546264648438e+01 -7.632738910615444183e-03 6.709626674652099609e+00 2.010598182678222656e+00 7.978270202875137329e-02
5.650000000000000000e+02 3.495328521728515625e+01 3.375149965286254883e+00 -3.498673439025878906e-02 7.564087390899658203e+00 2.258730173110961914e+00 1.402788162231445312e-01
5.660000000000000000e+02 2.600605964660644531e+01 3.769506931304931641e+00 1.030848845839500427e-01 7.470356941223144531e+00 2.272032499313354492e+00 2.112710624933242798e-01
5.670000000000000000e+02 4.116420745849609375e+01 1.298963165283203125e+01 -1.855464577674865723e-01 7.890783786773681641e+00 2.311571121215820312e+00 5.343620851635932922e-02
5.680000000000000000e+02 4.904679489135742188e+01 7.806699275970458984e+00 -1.097652763128280640e-01 7.806568145751953125e+00 2.309040784835815430e+00 -9.090331941843032837e-02
5.690000000000000000e+02 7.174983978271484375e+01 5.646222233772277832e-01 -1.254931464791297913e-02 7.789724349975585938e+00 2.333152532577514648e+00 -1.053474321961402893e-01
5.700000000000000000e+02 7.284250640869140625e+01 4.799293041229248047e+00 -9.770010598003864288e-03 7.748979091644287109e+00 2.321762800216674805e+00 -1.055345162749290466e-01
5.710000000000000000e+02 2.106531524658203125e+01 1.130044555664062500e+01 2.098596887663006783e-03 7.381505966186523438e+00 2.215081453323364258e+00 4.871926456689834595e-02
5.720000000000000000e+02 3.679687118530273438e+01 -8.052168488502502441e-01 -4.396677389740943909e-02 7.546630382537841797e+00 2.250799179077148438e+00 8.003301173448562622e-02
5.730000000000000000e+02 2.733187675476074219e+01 -2.781283140182495117e+00 -3.192936629056930542e-02 7.408401489257812500e+00 2.212941646575927734e+00 1.783481389284133911e-01
5.740000000000000000e+02 4.229217529296875000e+01 4.783710479736328125e+00 -1.010147556662559509e-01 7.714848995208740234e+00 2.284150362014770508e+00 2.573556452989578247e-02
5.750000000000000000e+02 4.780226898193359375e+01 4.046617984771728516e+00 -9.805019199848175049e-02 7.749941825866699219e+00 2.295567512512207031e+00 -6.136422231793403625e-02
5.760000000000000000e+02 3.495103836059570312e+01 -1.059748935699462891e+01 -3.600775822997093201e-02 7.392148017883300781e+00 2.206842184066772461e+00 6.000825017690658569e-02
5.770000000000000000e+02 2.764587974548339844e+01 -1.014813327789306641e+01 9.513081982731819153e-03 7.269001960754394531e+00 2.183554410934448242e+00 1.940201371908187866e-01
5.780000000000000000e+02 3.938918685913085938e+01 -5.311079978942871094e+00 -5.105005577206611633e-02 7.534590244293212891e+00 2.245062112808227539e+00 3.057411126792430878e-02
5.790000000000000000e+02 5.859177017211914062e+01 -4.414530754089355469e+00 -5.209646746516227722e-02 7.746461391448974609e+00 2.308309555053710938e+00 -1.265712082386016846e-01
5.800000000000000000e+02 6.668241882324218750e+01 -4.744966983795166016e+00 -2.700314484536647797e-02 7.797492980957031250e+00 2.331146955490112305e+00 -1.214122846722602844e-01
5.810000000000000000e+02 2.722439002990722656e+01 -1.601868057250976562e+01 -1.941604167222976685e-02 7.164250850677490234e+00 2.143450498580932617e+00 1.212325170636177063e-01
5.820000000000000000e+02 4.284484863281250000e+01 -7.147475242614746094e+00 -5.842878669500350952e-02 7.563602447509765625e+00 2.251552104949951172e+00 -1.277386862784624100e-02
5.830000000000000000e+02 4.735915756225585938e+01 -9.918314933776855469e+00 -6.062922999262809753e-02 7.601176738739013672e+00 2.262164354324340820e+00 -5.858060717582702637e-02
5.840000000000000000e+02 5.997115325927734375e+01 -1.157079887390136719e+01 -4.023038223385810852e-02 7.747511386871337891e+00 2.312184333801269531e+00 -1.091599538922309875e-01
5.850000000000000000e+02 6.330380249023437500e+01 -1.104123783111572266e+01 -3.306988254189491272e-02 7.782853126525878906e+00 2.324934959411621094e+00 -1.099540516734123230e-01
5.860000000000000000e+02 7.269076538085937500e+01 -1.235641574859619141e+01 -8.766231127083301544e-03 7.898766040802001953e+00 2.367000102996826172e+00 -6.848785281181335449e-02
5.870000000000000000e+02 2.151822090148925781e+01 -1.246561241149902344e+01 9.134421497583389282e-02 7.331327438354492188e+00 2.226801633834838867e+00 3.617300689220428467e-01
5.880000000000000000e+02 1.963618087768554688e+01 -2.507751083374023438e+01 5.982652772217988968e-03 6.666673660278320312e+00 2.001796960830688477e+00 8.623590320348739624e-02
5.890000000000000000e+02 3.528702163696289062e+01 -2.664118957519531250e+01 -4.032799974083900452e-02 7.212174892425537109e+00 2.151554107666015625e+00 1.577237434685230255e-02
5.900000000000000000e+02 2.651585769653320312e+01 -2.351461982727050781e+01 -6.306757777929306030e-02 7.038335323333740234e+00 2.092580318450927734e+00 1.709783673286437988e-01
5.910000000000000000e+02 4.040244674682617188e+01 -1.826261138916015625e+01 -5.987013131380081177e-02 7.422808170318603516e+00 2.208881378173828125e+00 -1.129029132425785065e-02
5.920000000000000000e+02 4.635483932495117188e+01 -1.836285209655761719e+01 -6.189988926053047180e-02 7.527297496795654297e+00 2.239619255065917969e+00 -5.370636656880378723e-02
5.930000000000000000e+02 5.900551223754882812e+01 -1.970310401916503906e+01 -4.689487069845199585e-02 7.731860160827636719e+00 2.305489540100097656e+00 -8.761870115995407104e-02
5.940000000000000000e+02 6.699452972412109375e+01 -1.790620994567871094e+01 -2.077208459377288818e-02 7.845709800720214844e+00 2.347481250762939453e+00 -8.277228474617004395e-02
5.950000000000000000e+02 7.225350952148437500e+01 -1.943295288085937500e+01 -8.658460341393947601e-03 7.935078620910644531e+00 2.377926111221313477e+00 -5.658742785453796387e-02
5.960000000000000000e+02 7.933203887939453125e+01 -2.225056266784667969e+01 -4.579922824632376432e-04 8.092866897583007812e+00 2.427722692489624023e+00 -6.405243184417486191e-03
5.970000000000000000e+02 2.118456077575683594e+01 -1.797237586975097656e+01 -1.236104816198348999e-01 6.873101711273193359e+00 2.024847269058227539e+00 2.893103063106536865e-01
5.980000000000000000e+02 1.971433448791503906e+01 -3.066400909423828125e+01 7.326744496822357178e-02 7.188122272491455078e+00 2.178416967391967773e+00 1.107354015111923218e-01
5.990000000000000000e+02 3.301272583007812500e+01 -3.131599044799804688e+01 -3.275750949978828430e-02 7.079283237457275391e+00 2.113957643508911133e+00 -1.813322305679321289e-02
6.000000000000000000e+02 4.436332321166992188e+01 -2.918086051940917969e+01 -9.366766363382339478e-02 7.440103054046630859e+00 2.203930616378784180e+00 -4.859459772706031799e-02
6.010000000000000000e+02 4.906895065307617188e+01 -2.345663261413574219e+01 -6.958429515361785889e-02 7.558028697967529297e+00 2.246533393859863281e+00 -6.318245828151702881e-02
6.020000000000000000e+02 5.956122589111328125e+01 -2.707110023498535156e+01 -5.109254643321037292e-02 7.740865230560302734e+00 2.306931734085083008e+00 -6.338592618703842163e-02
6.030000000000000000e+02 6.621894073486328125e+01 -2.723470115661621094e+01 -2.914164401590824127e-02 7.855009555816650391e+00 2.347760438919067383e+00 -5.770339071750640869e-02
6.040000000000000000e+02 7.286791992187500000e+01 -2.501497840881347656e+01 -9.515328332781791687e-03 7.976197242736816406e+00 2.390004634857177734e+00 -4.217271134257316589e-02
6.050000000000000000e+02 7.935356140136718750e+01 -2.641349601745605469e+01 2.504418953321874142e-04 8.122056961059570312e+00 2.436692237854003906e+00 -5.104174371808767319e-03
6.060000000000000000e+02 2.109030342102050781e+01 -2.488692474365234375e+01 -9.029076993465423584e-02 6.800613880157470703e+00 2.013097047805786133e+00 1.789925992488861084e-01
6.070000000000000000e+02 4.144304275512695312e+01 -3.348548507690429688e+01 -1.166058108210563660e-01 7.362314224243164062e+00 2.173712491989135742e+00 -4.476179927587509155e-02
6.080000000000000000e+02 5.350858688354492188e+01 -3.321513748168945312e+01 -7.650513201951980591e-02 7.634464740753173828e+00 2.267387866973876953e+00 -4.141748696565628052e-02
6.090000000000000000e+02 5.732167053222656250e+01 -3.343322753906250000e+01 -6.732431799173355103e-02 7.699873924255371094e+00 2.289764881134033203e+00 -4.364258423447608948e-02
6.100000000000000000e+02 6.649276733398437500e+01 -3.130799102783203125e+01 -2.941288053989410400e-02 7.869352817535400391e+00 2.351981878280639648e+00 -4.304732009768486023e-02
6.110000000000000000e+02 7.338882446289062500e+01 -3.223841094970703125e+01 -8.341713808476924896e-03 8.012715339660644531e+00 2.401312112808227539e+00 -2.184039168059825897e-02
6.120000000000000000e+02 7.934375762939453125e+01 -3.334564208984375000e+01 -3.592213906813412905e-04 8.155820846557617188e+00 2.446638345718383789e+00 -2.438517753034830093e-03
6.130000000000000000e+02 2.137716865539550781e+01 -3.178672790527343750e+01 2.149171829223632812e-01 7.172440528869628906e+00 2.216207265853881836e+00 3.684358298778533936e-01
6.140000000000000000e+02 1.156791973114013672e+01 -3.130862045288085938e+01 5.334354471415281296e-03 -7.870119065046310425e-03 -7.607294246554374695e-04 5.088469479233026505e-03
6.150000000000000000e+02 1.439897537231445312e+01 -1.764534187316894531e+01 8.176062256097793579e-03 9.423287701793015003e-04 2.735517220571637154e-03 -1.885276637040078640e-03
6.160000000000000000e+02 1.166004371643066406e+01 -1.697061157226562500e+01 4.300647415220737457e-03 2.036537742242217064e-03 1.901155570521950722e-03 -1.733209355734288692e-03
6.170000000000000000e+02 1.457074928283691406e+01 -1.070328998565673828e+01 -5.713950842618942261e-03 -1.200757978949695826e-04 -1.750208088196814060e-03 4.491290892474353313e-04
6.180000000000000000e+02 1.240357017517089844e+01 -1.050024890899658203e+01 -4.194106906652450562e-03 -3.571481793187558651e-04 -1.365376519970595837e-03 6.464156322181224823e-04
6.190000000000000000e+02 5.725027322769165039e-01 -1.068900966644287109e+01 -2.650317735970020294e-03 5.241283361101523042e-05 -7.793714758008718491e-04 -3.964555435231886804e-05
6.200000000000000000e+02 1.336332607269287109e+01 2.417987060546875000e+01 -1.785199157893657684e-02 -4.369356975075788796e-05 -5.368705838918685913e-03 -1.520487014204263687e-03
6.210000000000000000e+02 1.181813621520996094e+01 1.869817161560058594e+01 1.213226746767759323e-02 -6.387253233697265387e-05 3.620518604293465614e-03 2.127416431903839111e-03
6.220000000000000000e+02 1.443695926666259766e+01 1.735132217407226562e+01 -1.354521233588457108e-02 -1.835170405684038997e-04 -4.118619021028280258e-03 -1.010397565551102161e-03
6.230000000000000000e+02 1.299762630462646484e+01 1.592341518402099609e+01 -1.124790962785482407e-02 -5.656186840496957302e-04 -3.544058417901396751e-03 -1.590940519236028194e-03
6.240000000000000000e+02 1.227063369750976562e+01 1.169261455535888672e+01 -5.218810867518186569e-03 -1.829843036830425262e-03 -2.114596078172326088e-03 -2.145717386156320572e-03
6.250000000000000000e+02 1.455616664886474609e+01 1.044032478332519531e+01 7.834080606698989868e-03 1.405609073117375374e-04 2.392392372712492943e-03 2.016191428992897272e-04
6.260000000000000000e+02 1.350108623504638672e+01 9.137543678283691406e+00 5.842005833983421326e-03 5.910724285058677197e-04 1.929923426359891891e-03 5.544549203477799892e-04
6.270000000000000000e+02 2.225383758544921875e+01 3.814800262451171875e+01 -2.813919261097908020e-02 2.588541805744171143e-01 6.921450048685073853e-02 -5.307270213961601257e-02
6.280000000000000000e+02 2.180143547058105469e+01 3.814897537231445312e+01 -4.128579199314117432e-01 6.720551252365112305e-01 7.775916159152984619e-02 1.009241640567779541e-01
6.290000000000000000e+02 2.309701919555664062e+01 3.807144546508789062e+01 4.842921793460845947e-01 6.304798126220703125e-01 3.344315886497497559e-01 -5.514717698097229004e-01
6.300000000000000000e+02 2.367060661315917969e+01 3.802160644531250000e+01 7.014090418815612793e-01 1.787999510765075684e+00 7.468225359916687012e-01 -1.362528800964355469e+00
6.310000000000000000e+02 2.349069404602050781e+01 3.804669189453125000e+01 7.306894063949584961e-01 1.135260701179504395e+00 5.597850084304809570e-01 -1.081376314163208008e+00
6.320000000000000000e+02 2.399409484863281250e+01 3.836487197875976562e+01 9.809957146644592285e-01 3.029385089874267578e+00 1.203114271163940430e+00 -1.784650564193725586e+00
6.330000000000000000e+02 2.484703445434570312e+01 3.805364608764648438e+01 1.509494781494140625e-01 7.445192813873291016e+00 2.278842687606811523e+00 -3.057999372482299805e+00
6.340000000000000000e+02 2.449930763244628906e+01 3.841823959350585938e+01 5.879925489425659180e-01 5.563417434692382812e+00 1.845422983169555664e+00 -2.214909791946411133e+00
6.350000000000000000e+02 2.592578315734863281e+01 3.804294586181640625e+01 -4.682442545890808105e-01 1.294172286987304688e+01 3.742043733596801758e+00 -6.010231971740722656e-01
6.360000000000000000e+02 2.640385627746582031e+01 3.766093063354492188e+01 1.064190626144409180e+00 1.353674793243408203e+01 4.380281925201416016e+00 1.454932689666748047e+00
6.370000000000000000e+02 2.681746673583984375e+01 3.713887786865234375e+01 3.657392501831054688e+00 1.240881061553955078e+01 4.819860935211181641e+00 2.152759313583374023e+00
6.380000000000000000e+02 2.699622917175292969e+01 3.651285171508789062e+01 5.166169166564941406e+00 1.147404670715332031e+01 4.992064952850341797e+00 1.124041199684143066e+00
6.390000000000000000e+02 2.689072036743164062e+01 3.589894104003906250e+01 4.912863254547119141e+00 1.181099700927734375e+01 5.017158031463623047e+00 -4.001388251781463623e-01
6.400000000000000000e+02 2.705350303649902344e+01 3.539559555053710938e+01 3.412202596664428711e+00 1.172362804412841797e+01 4.540749073028564453e+00 -7.021950483322143555e-01
6.410000000000000000e+02 2.629023551940917969e+01 3.498545074462890625e+01 1.490051269531250000e+00 1.324638652801513672e+01 4.420931339263916016e+00 1.013131141662597656e-01
6.420000000000000000e+02 2.394547271728515625e+01 3.475979232788085938e+01 1.883705615997314453e+00 3.387515544891357422e+00 1.581366419792175293e+00 2.832810878753662109e+00
6.430000000000000000e+02 2.126832580566406250e+01 3.409228897094726562e+01 2.588702142238616943e-01 7.843942195177078247e-02 1.011928841471672058e-01 1.094362214207649231e-01
6.440000000000000000e+02 2.090597343444824219e+01 3.248837280273437500e+01 1.028014048933982849e-01 6.127054095268249512e-01 2.146520465612411499e-01 4.456792473793029785e-01
6.450000000000000000e+02 2.099056243896484375e+01 3.101927185058593750e+01 -6.094671413302421570e-02 1.679457664489746094e+00 4.855532646179199219e-01 4.847420752048492432e-01
6.460000000000000000e+02 2.091244316101074219e+01 2.820495796203613281e+01 -3.464374691247940063e-03 3.801585435867309570e+00 1.139436244964599609e+00 2.731655836105346680e-01
6.470000000000000000e+02 2.236401557922363281e+01 2.263977432250976562e+01 -6.680750101804733276e-02 6.172122955322265625e+00 1.831594705581665039e+00 4.201428592205047607e-01
6.480000000000000000e+02 2.107167625427246094e+01 2.117772865295410156e+01 -9.745935909450054169e-03 6.255739212036132812e+00 1.873797893524169922e+00 1.204745247960090637e-01
6.490000000000000000e+02 2.106267547607421875e+01 1.975757408142089844e+01 -9.445965290069580078e-03 6.503803253173828125e+00 1.948307156562805176e+00 9.901242703199386597e-02
6.500000000000000000e+02 2.230638122558593750e+01 1.544792270660400391e+01 -1.396336127072572708e-02 7.073350429534912109e+00 2.117816209793090820e+00 1.699386835098266602e-01
6.510000000000000000e+02 2.105768585205078125e+01 1.552286624908447266e+01 -4.098695237189531326e-03 7.024189472198486328e+00 2.106027364730834961e+00 5.823830142617225647e-02
6.520000000000000000e+02 2.106391525268554688e+01 1.270624637603759766e+01 -2.252215985208749771e-03 7.269273757934570312e+00 2.180106401443481445e+00 4.921377077698707581e-02
6.530000000000000000e+02 2.232499694824218750e+01 9.807525634765625000e+00 1.440785452723503113e-02 7.494917869567871094e+00 2.252797842025756836e+00 1.509350091218948364e-01
6.540000000000000000e+02 2.106248283386230469e+01 8.480993270874023438e+00 1.001601386815309525e-02 7.624030113220214844e+00 2.290213823318481445e+00 6.175622716546058655e-02
6.550000000000000000e+02 2.105607795715332031e+01 7.073642730712890625e+00 1.716667553409934044e-03 7.776663303375244141e+00 2.333513975143432617e+00 7.564506679773330688e-02
6.560000000000000000e+02 2.104671859741210938e+01 5.664145946502685547e+00 7.604469358921051025e-02 8.089215278625488281e+00 2.449578046798706055e+00 1.606689095497131348e-01
6.570000000000000000e+02 2.215244293212890625e+01 2.733878612518310547e+00 1.066785901784896851e-01 7.605381488800048828e+00 2.313617944717407227e+00 2.458487153053283691e-01
6.580000000000000000e+02 2.090754318237304688e+01 2.844995260238647461e+00 1.030253097414970398e-01 7.836170196533203125e+00 2.381758689880371094e+00 5.698934793472290039e-01
6.590000000000000000e+02 2.068702697753906250e+01 6.616507470607757568e-02 -7.891132682561874390e-02 7.031351089477539062e+00 2.085731983184814453e+00 3.704463243484497070e-01
6.600000000000000000e+02 2.037905883789062500e+01 -5.503794193267822266e+00 -7.091401517391204834e-02 6.751028060913085938e+00 2.004034280776977539e+00 2.737393379211425781e-01
6.610000000000000000e+02 2.177926826477050781e+01 -4.123946666717529297e+00 -6.668386608362197876e-02 7.233997344970703125e+00 2.150194168090820312e+00 2.237284332513809204e-01
6.620000000000000000e+02 2.031143188476562500e+01 -9.704500198364257812e+00 7.028475403785705566e-02 7.458235263824462891e+00 2.258556127548217773e+00 2.039713263511657715e-01
6.630000000000000000e+02 2.021504402160644531e+01 -1.251608180999755859e+01 -4.559070293908007443e-05 7.400462150573730469e+00 2.220124959945678711e+00 2.449061870574951172e-01
6.640000000000000000e+02 2.145449066162109375e+01 -1.386033248901367188e+01 1.739184111356735229e-01 7.133679866790771484e+00 2.192279577255249023e+00 3.153308033943176270e-01
6.650000000000000000e+02 1.973219871520996094e+01 -1.947732162475585938e+01 -6.191923096776008606e-02 6.420301437377929688e+00 1.907514572143554688e+00 2.337512075901031494e-01
6.660000000000000000e+02 2.111600875854492188e+01 -1.934302520751953125e+01 -1.319504678249359131e-01 6.821632862091064453e+00 2.006904840469360352e+00 3.143029212951660156e-01
6.670000000000000000e+02 1.967408180236816406e+01 -2.227761268615722656e+01 4.572839289903640747e-02 6.712532043457031250e+00 2.027478218078613281e+00 2.233768701553344727e-01
6.680000000000000000e+02 1.965123939514160156e+01 -2.647903633117675781e+01 -3.289680555462837219e-02 6.796398162841796875e+00 2.029050350189208984e+00 5.614405870437622070e-02
6.690000000000000000e+02 1.970143890380859375e+01 -2.927657508850097656e+01 -3.198805823922157288e-02 7.031550407409667969e+00 2.099868774414062500e+00 6.098332628607749939e-02
6.700000000000000000e+02 1.969764709472656250e+01 -3.204772949218750000e+01 -4.156274721026420593e-02 7.392703056335449219e+00 2.205342054367065430e+00 1.201004981994628906e-01
6.710000000000000000e+02 2.281422615051269531e+01 -3.317497634887695312e+01 4.178511500358581543e-01 6.794858932495117188e+00 2.163812875747680664e+00 2.667649090290069580e-01
6.720000000000000000e+02 1.967090415954589844e+01 -3.344671630859375000e+01 2.241380512714385986e-01 7.908555507659912109e+00 2.439808130264282227e+00 3.419997692108154297e-01
6.730000000000000000e+02 1.434257793426513672e+01 -3.175359725952148438e+01 2.361314930021762848e-02 -8.355128229595720768e-04 6.833290681242942810e-03 -1.420604530721902847e-03
6.740000000000000000e+02 1.446171569824218750e+01 -2.760833930969238281e+01 -1.598083972930908203e-02 2.044004853814840317e-03 -4.181050229817628860e-03 5.177655839361250401e-04
6.750000000000000000e+02 1.314281558990478516e+01 -2.758378982543945312e+01 1.286300271749496460e-02 3.331674262881278992e-03 4.858403000980615616e-03 -1.198121695779263973e-03
6.760000000000000000e+02 1.303680610656738281e+01 -2.365993118286132812e+01 -1.277151890099048615e-02 -4.400823090691119432e-04 -3.963480703532695770e-03 -4.280821885913610458e-03
6.770000000000000000e+02 1.438512134552001953e+01 -2.345434379577636719e+01 1.389901991933584213e-02 1.125480630435049534e-03 4.507350269705057144e-03 6.011438090354204178e-04
6.780000000000000000e+02 1.417293930053710938e+01 -2.050589561462402344e+01 1.069882232695817947e-02 2.005104179261252284e-04 3.269799752160906792e-03 -1.548492233268916607e-03
6.790000000000000000e+02 1.300537586212158203e+01 -1.734196472167968750e+01 -5.899618845432996750e-03 -1.280759111978113651e-03 -2.154113491997122765e-03 2.006917027756571770e-03
6.800000000000000000e+02 1.445255851745605469e+01 -1.625347328186035156e+01 -7.340981159359216690e-03 -2.334371529286727309e-04 -2.272325567901134491e-03 1.369398669339716434e-03
6.810000000000000000e+02 1.459110355377197266e+01 -9.316542625427246094e+00 5.287646781653165817e-03 1.058654088410548866e-04 1.618053764104843140e-03 -3.255359770264476538e-04
6.820000000000000000e+02 1.253702068328857422e+01 -1.936378598213195801e+00 -1.570641470607370138e-04 -3.859097487293183804e-04 -1.628921600058674812e-04 4.048320988658815622e-04
6.830000000000000000e+02 1.305235671997070312e+01 -2.865578889846801758e+00 -3.045625926461070776e-04 -1.024745171889662743e-03 -3.987923264503479004e-04 8.291545091196894646e-04
6.840000000000000000e+02 1.429177284240722656e+01 -2.017870187759399414e+00 1.484691980294883251e-03 6.906647467985749245e-05 4.661275306716561317e-04 1.088776625692844391e-03
6.850000000000000000e+02 1.374698066711425781e+01 -2.029319763183593750e+00 -1.851611072197556496e-03 7.552615443273680285e-06 -5.532175418920814991e-04 4.629460745491087437e-04
6.860000000000000000e+02 1.317976856231689453e+01 -1.993001461029052734e+00 3.454715479165315628e-04 5.936590605415403843e-04 2.817391941789537668e-04 -8.031813777051866055e-04
6.870000000000000000e+02 1.181220054626464844e+01 -1.892353296279907227e+00 5.450775497592985630e-04 1.817935844883322716e-04 2.180613519158214331e-04 -1.383801718475297093e-04
6.880000000000000000e+02 9.592370986938476562e+00 -1.873466968536376953e+00 -1.095251995138823986e-03 -1.586270082043483853e-04 -3.761636908166110516e-04 4.035787715110927820e-04
6.890000000000000000e+02 1.034131145477294922e+01 -1.870040416717529297e+00 1.138783758506178856e-03 4.780102244694717228e-05 3.559754113666713238e-04 -2.935315424110740423e-04
6.900000000000000000e+02 8.831419944763183594e+00 -1.880540966987609863e+00 9.566547232680022717e-04 3.149009426124393940e-04 3.814666997641324997e-04 -4.711711662821471691e-04
6.910000000000000000e+02 7.300862312316894531e+00 -1.891516923904418945e+00 6.560413748957216740e-04 5.995091050863265991e-04 3.766651498153805733e-04 -3.249030851293355227e-04
6.920000000000000000e+02 5.764139175415039062e+00 -1.906262278556823730e+00 5.055425572209060192e-04 7.450263365171849728e-04 3.751706681214272976e-04 5.774537930847145617e-05
6.930000000000000000e+02 3.466222286224365234e+00 -1.946442961692810059e+00 -7.251165225170552731e-04 -3.149105177726596594e-04 -3.120081091765314341e-04 -1.657962857279926538e-04
6.940000000000000000e+02 4.994039535522460938e+00 -1.917642116546630859e+00 -4.582009278237819672e-04 -7.883313228376209736e-04 -3.739596868399530649e-04 -2.517241518944501877e-04
6.950000000000000000e+02 4.240987777709960938e+00 -2.806918144226074219e+00 -7.708715857006609440e-04 -7.239743717946112156e-04 -4.484537930693477392e-04 -5.545862950384616852e-04
6.960000000000000000e+02 2.707871198654174805e+00 -1.973979711532592773e+00 5.293980939313769341e-04 4.045839887112379074e-04 2.801946247927844524e-04 9.877370030153542757e-05
6.970000000000000000e+02 1.951189279556274414e+00 -2.046652078628540039e+00 -5.362671799957752228e-04 -4.744968318846076727e-04 -3.032292006537318230e-04 -2.937780809588730335e-04
6.980000000000000000e+02 1.185797452926635742e+00 -2.136437416076660156e+00 1.121258246712386608e-03 1.824061619117856026e-04 3.910993109457194805e-04 2.549050259403884411e-04
6.990000000000000000e+02 2.058920621871948242e+00 -4.161509704589843750e+01 -5.850949790328741074e-03 -4.595332592725753784e-02 -1.554128248244524002e-02 1.917035318911075592e-03
7.000000000000000000e+02 5.166324138641357422e+00 -3.733391189575195312e+01 1.328504178673028946e-02 -1.964221708476543427e-02 -1.907152822241187096e-03 -2.355429530143737793e-02
7.010000000000000000e+02 9.781399965286254883e-01 -3.861294937133789062e+01 -2.030478231608867645e-02 -4.570876806974411011e-02 -1.980406418442726135e-02 -9.659458883106708527e-03
7.020000000000000000e+02 7.698636054992675781e-01 -3.468678665161132812e+01 1.985985971987247467e-02 -1.791912503540515900e-02 5.822204402647912502e-04 2.813210885506123304e-04
7.030000000000000000e+02 6.896791458129882812e-01 -3.323862838745117188e+01 -1.719451695680618286e-02 -1.267083082348108292e-02 -8.959604427218437195e-03 -5.739979911595582962e-03
7.040000000000000000e+02 6.250336766242980957e-01 -2.904550552368164062e+01 1.433754898607730865e-02 -7.034842565190047026e-05 4.280160181224346161e-03 5.600594449788331985e-04
7.050000000000000000e+02 6.252652406692504883e-01 -2.764693450927734375e+01 -1.266961637884378433e-02 1.258196192793548107e-03 -3.423426067456603050e-03 -1.476289005950093269e-03
7.060000000000000000e+02 6.257109642028808594e-01 -2.624456405639648438e+01 1.039616484194993973e-02 1.842728932388126850e-03 3.671668237075209618e-03 7.049060659483075142e-04
7.070000000000000000e+02 6.494026184082031250e-01 -2.200696945190429688e+01 -5.896115675568580627e-03 1.228590495884418488e-03 -1.400257577188313007e-03 -2.685915096662938595e-04
7.080000000000000000e+02 6.519870758056640625e-01 -2.058671951293945312e+01 4.817788489162921906e-03 8.405226399190723896e-04 1.697493367828428745e-03 5.125704337842762470e-04
7.090000000000000000e+02 1.959507942199707031e+00 -2.059157943725585938e+01 -5.858387798070907593e-03 3.525339707266539335e-04 -1.651756116189062595e-03 -6.149875116534531116e-04
7.100000000000000000e+02 6.059907078742980957e-01 -1.632658576965332031e+01 -3.352461382746696472e-03 2.154006215278059244e-04 -9.411182254552841187e-04 4.329108833189820871e-06
7.110000000000000000e+02 5.914506912231445312e-01 -1.491530609130859375e+01 3.239470068365335464e-03 1.224431325681507587e-04 1.008573919534683228e-03 4.473392255022190511e-05
7.120000000000000000e+02 5.810229778289794922e-01 -1.350777721405029297e+01 -3.096946980804204941e-03 7.050560816423967481e-05 -9.079324081540107727e-04 1.823372986109461635e-05
7.130000000000000000e+02 1.743463635444641113e+00 -1.348579120635986328e+01 3.848467720672488213e-03 8.501285628881305456e-05 1.180044142529368401e-03 8.349325071321800351e-05
7.140000000000000000e+02 5.734791755676269531e-01 -9.272473335266113281e+00 2.339072991162538528e-03 -6.459877567976946011e-06 6.997839082032442093e-04 8.644969057058915496e-05
7.150000000000000000e+02 5.718992352485656738e-01 -7.855088233947753906e+00 -1.999421743676066399e-03 2.492324892955366522e-05 -5.923495045863091946e-04 -1.166329311672598124e-04
7.160000000000000000e+02 5.550624728202819824e-01 -6.433684825897216797e+00 1.648298813961446285e-03 3.215606193407438695e-05 5.041364347562193871e-04 1.194582655443809927e-04
7.170000000000000000e+02 7.336365509033203125e+01 -3.710630798339843750e+01 -1.370041817426681519e-02 8.017351150512695312e+00 2.401095390319824219e+00 -1.630561426281929016e-02
7.180000000000000000e+02 1.166320228576660156e+01 -3.929700469970703125e+01 1.959404721856117249e-02 6.416369974613189697e-02 2.512732334434986115e-02 -1.265418678522109985e-01
7.190000000000000000e+02 7.881075286865234375e+01 4.012863159179687500e+01 1.290165819227695465e-02 7.176232337951660156e+00 2.156740188598632812e+00 6.533898413181304932e-03
7.200000000000000000e+02 7.898272705078125000e+01 3.878305053710937500e+01 -7.043582852929830551e-03 7.170869827270507812e+00 2.149147987365722656e+00 -2.342237392440438271e-03
7.210000000000000000e+02 7.952014923095703125e+01 3.479841995239257812e+01 1.227253233082592487e-03 7.168290615081787109e+00 2.150855302810668945e+00 -1.459829160012304783e-03
7.220000000000000000e+02 7.776548767089843750e+01 3.432539749145507812e+01 1.163962390273809433e-02 7.238510131835937500e+00 2.175045013427734375e+00 -2.674084715545177460e-02
7.230000000000000000e+02 7.950181579589843750e+01 3.350344085693359375e+01 2.264438662678003311e-03 7.179120063781738281e+00 2.154415369033813477e+00 -6.976046599447727203e-03
7.240000000000000000e+02 7.927154541015625000e+01 3.083417892456054688e+01 4.616884980350732803e-04 7.227293014526367188e+00 2.168326377868652344e+00 -1.418944261968135834e-02
7.250000000000000000e+02 7.788551330566406250e+01 2.806203460693359375e+01 1.209425157867372036e-03 7.323399066925048828e+00 2.197382450103759766e+00 -4.055656120181083679e-02
7.260000000000000000e+02 7.929473114013671875e+01 2.652910041809082031e+01 -1.514540403150022030e-03 7.306817531585693359e+00 2.191590785980224609e+00 -1.588007807731628418e-02
7.270000000000000000e+02 7.656970977783203125e+01 2.532346916198730469e+01 3.263723803684115410e-03 7.403728485107421875e+00 2.222097635269165039e+00 -6.716289371252059937e-02
7.280000000000000000e+02 7.930364990234375000e+01 2.512833404541015625e+01 1.400846987962722778e-03 7.335640430450439453e+00 2.201112270355224609e+00 -1.602642424404621124e-02
7.290000000000000000e+02 7.930514526367187500e+01 2.094732093811035156e+01 -5.279498291201889515e-04 7.426605224609375000e+00 2.227823257446289062e+00 -1.726832613348960876e-02
7.300000000000000000e+02 7.930585479736328125e+01 1.955155372619628906e+01 5.265325307846069336e-04 7.457672595977783203e+00 2.237459659576416016e+00 -1.738456822931766510e-02
7.310000000000000000e+02 7.930913543701171875e+01 1.815338134765625000e+01 -5.370199796743690968e-04 7.488629817962646484e+00 2.246427774429321289e+00 -1.724780164659023285e-02
7.320000000000000000e+02 7.932807922363281250e+01 1.395946407318115234e+01 1.896033791126683354e-04 7.580076217651367188e+00 2.274079799652099609e+00 -1.648875512182712555e-02
7.330000000000000000e+02 7.933365631103515625e+01 1.256377696990966797e+01 -5.146397161297500134e-04 7.609611034393310547e+00 2.282728910446166992e+00 -1.606508716940879822e-02
7.340000000000000000e+02 7.933959197998046875e+01 1.117031288146972656e+01 4.144356717006303370e-05 7.638445854187011719e+00 2.291546344757080078e+00 -1.562716625630855560e-02
7.350000000000000000e+02 7.935005187988281250e+01 6.999659538269042969e+00 -2.632077375892549753e-04 7.720352172851562500e+00 2.316026687622070312e+00 -1.431860029697418213e-02
7.360000000000000000e+02 7.934803009033203125e+01 5.609365940093994141e+00 -1.373794511891901493e-04 7.746005058288574219e+00 2.323760271072387695e+00 -1.393616478890180588e-02
7.370000000000000000e+02 7.934209442138671875e+01 4.218424797058105469e+00 -1.870402338681742549e-04 7.770657062530517578e+00 2.331140995025634766e+00 -1.353066600859165192e-02
7.380000000000000000e+02 7.932591247558593750e+01 4.300776124000549316e-02 -1.329403603449463844e-04 7.838844299316406250e+00 2.351613283157348633e+00 -1.250775810331106186e-02
7.390000000000000000e+02 7.932563018798828125e+01 -1.349369645118713379e+00 -2.137513074558228254e-04 7.859922409057617188e+00 2.357912540435791016e+00 -1.209022011607885361e-02
7.400000000000000000e+02 7.798622894287109375e+01 -4.068278789520263672e+00 -1.053324434906244278e-03 7.883644580841064453e+00 2.364777326583862305e+00 -2.903073467314243317e-02
7.410000000000000000e+02 7.932958984375000000e+01 -4.138035297393798828e+00 -9.048416541190817952e-05 7.899744987487792969e+00 2.369896411895751953e+00 -1.126891653984785080e-02
7.420000000000000000e+02 7.932931518554687500e+01 -8.322135925292968750e+00 -3.137549210805445910e-04 7.954105377197265625e+00 2.386137485504150391e+00 -1.012453529983758926e-02
7.430000000000000000e+02 7.797968292236328125e+01 -1.105395698547363281e+01 -5.978309782221913338e-04 7.964761734008789062e+00 2.389249086380004883e+00 -2.402606979012489319e-02
7.440000000000000000e+02 7.932576751708984375e+01 -1.111209774017333984e+01 -3.454938414506614208e-04 7.986932754516601562e+00 2.395976305007934570e+00 -9.437435306608676910e-03
7.450000000000000000e+02 7.932421875000000000e+01 -1.529172897338867188e+01 3.559971446520648897e-05 8.031328201293945312e+00 2.409409046173095703e+00 -8.303754962980747223e-03
7.460000000000000000e+02 7.796237182617187500e+01 -1.802040863037109375e+01 -9.998616296797990799e-04 8.030356407165527344e+00 2.408807039260864258e+00 -1.958516426384449005e-02
7.470000000000000000e+02 7.932189178466796875e+01 -1.808056831359863281e+01 1.912331208586692810e-05 8.057777404785156250e+00 2.417339086532592773e+00 -7.627924904227256775e-03
7.480000000000000000e+02 7.933774566650390625e+01 -2.363817214965820312e+01 1.296777481911703944e-04 8.103296279907226562e+00 2.431027889251708984e+00 -6.044506095349788666e-03
7.490000000000000000e+02 7.804193115234375000e+01 -2.492517662048339844e+01 -6.763793644495308399e-04 8.082634925842285156e+00 2.424587726593017578e+00 -1.396668050438165665e-02
7.500000000000000000e+02 7.934549713134765625e+01 -2.502601051330566406e+01 -6.366736488416790962e-04 8.113030433654785156e+00 2.433717966079711914e+00 -5.500718485563993454e-03
7.510000000000000000e+02 7.935729217529296875e+01 -2.918111801147460938e+01 8.137255645124241710e-05 8.138790130615234375e+00 2.441661357879638672e+00 -4.446348641067743301e-03
7.520000000000000000e+02 7.801629638671875000e+01 -3.178674125671386719e+01 -1.758752157911658287e-03 8.117894172668457031e+00 2.434840679168701172e+00 -8.638532832264900208e-03
7.530000000000000000e+02 7.934112548828125000e+01 -3.196142005920410156e+01 -1.985841372516006231e-04 8.151535987854003906e+00 2.445401430130004883e+00 -2.985392929986119270e-03
7.540000000000000000e+02 7.935804748535156250e+01 -3.606533813476562500e+01 -4.490614446694962680e-05 8.157527923583984375e+00 2.447244882583618164e+00 3.858771742670796812e-05
7.550000000000000000e+02 7.924638366699218750e+01 -3.737394332885742188e+01 -2.345397835597395897e-03 8.152151107788085938e+00 2.444941759109497070e+00 3.345075994729995728e-03
7.560000000000000000e+02 7.898605346679687500e+01 -3.865338516235351562e+01 7.796516874805092812e-04 8.145980834960937500e+00 2.444028377532958984e+00 3.457681043073534966e-03
7.570000000000000000e+02 7.857685089111328125e+01 -3.999236679077148438e+01 -6.845117313787341118e-04 8.141094207763671875e+00 2.442122936248779297e+00 3.961292561143636703e-03
7.580000000000000000e+02 4.867143630981445312e+00 4.030744552612304688e+01 4.859041422605514526e-03 -7.163261529058218002e-03 -6.912660319358110428e-04 -1.066206395626068115e-02
7.590000000000000000e+02 4.767401123046875000e+01 4.061769485473632812e+01 5.271084308624267578e-01 7.969294548034667969e+00 2.548920869827270508e+00 -5.325955525040626526e-02
7.600000000000000000e+02 6.730225372314453125e+01 4.085600280761718750e+01 9.516519308090209961e-02 7.516360282897949219e+00 2.283457756042480469e+00 -2.089722268283367157e-02
7.610000000000000000e+02 1.268561959266662598e+00 2.695962190628051758e+00 4.141912213526666164e-04 -8.144080056808888912e-04 -1.200650440296158195e-04 -2.677107477211393416e-05
7.620000000000000000e+02 3.099666357040405273e+00 2.719786882400512695e+00 2.114606788381934166e-03 1.109994133003056049e-03 9.673802996985614300e-04 2.388519933447241783e-04
7.630000000000000000e+02 5.278310775756835938e+00 2.673044204711914062e+00 -1.417863648384809494e-03 -1.044442877173423767e-03 -7.386919460259377956e-04 3.814180672634392977e-04
7.640000000000000000e+02 1.608726263046264648e+00 6.225740909576416016e+00 -3.621111391112208366e-03 -7.443323847837746143e-04 -1.309633138589560986e-03 3.586879756767302752e-04
7.650000000000000000e+02 5.530928969383239746e-01 9.200894355773925781e+00 4.271809943020343781e-03 4.911036376142874360e-05 1.296275993809103966e-03 -5.321622011251747608e-04
7.660000000000000000e+02 5.797018408775329590e-01 1.202150440216064453e+01 4.644705448299646378e-03 7.776558959449175745e-06 1.395744504407048225e-03 -4.612052580341696739e-04
7.670000000000000000e+02 1.733873009681701660e+00 1.185707378387451172e+01 -5.081617739051580429e-03 -4.126185012864880264e-05 -1.536863856017589569e-03 2.935215889010578394e-04
7.680000000000000000e+02 6.239080429077148438e-01 1.626501274108886719e+01 -4.815056920051574707e-03 -2.833470352925360203e-04 -1.529521192423999310e-03 4.539200162980705500e-04
7.690000000000000000e+02 1.896915078163146973e+00 1.752934074401855469e+01 -5.870639812201261520e-03 -2.285727969137951732e-04 -1.829763757996261120e-03 2.628640795592218637e-04
7.700000000000000000e+02 6.291138529777526855e-01 1.767928504943847656e+01 4.968460649251937866e-03 -8.813877502689138055e-05 1.464096596464514732e-03 -4.498929192777723074e-04
7.710000000000000000e+02 6.273065209388732910e-01 2.191342735290527344e+01 -5.259820260107517242e-03 -1.725822221487760544e-04 -1.629720674827694893e-03 3.964704519603401423e-04
7.720000000000000000e+02 6.279723644256591797e-01 2.332215309143066406e+01 5.441767163574695587e-03 4.534240288194268942e-04 1.768557471223175526e-03 -7.411068654619157314e-04
7.730000000000000000e+02 1.883990406990051270e+00 2.314632797241210938e+01 -6.138322409242391586e-03 8.577472385695728008e-07 -1.841239281930029392e-03 -3.486494242679327726e-04
7.740000000000000000e+02 6.281116008758544922e-01 2.473073005676269531e+01 -5.504087544977664948e-03 6.080471794120967388e-04 -1.468812115490436554e-03 3.914922999683767557e-04
7.750000000000000000e+02 6.306067705154418945e-01 2.896382713317871094e+01 6.483419798314571381e-03 5.091573111712932587e-03 3.472497919574379921e-03 -1.805935055017471313e-03
7.760000000000000000e+02 6.383807063102722168e-01 3.037756919860839844e+01 -6.355383433401584625e-03 7.417071610689163208e-03 3.185064706485718489e-04 -4.763179458677768707e-04
7.770000000000000000e+02 1.948506474494934082e+00 3.158429527282714844e+01 -7.027694024145603180e-03 6.874036043882369995e-03 -4.609733150573447347e-05 -3.621699754148721695e-03
7.780000000000000000e+02 6.496922373771667480e-01 3.179350280761718750e+01 6.692622322589159012e-03 1.073439978063106537e-02 5.228106398135423660e-03 -2.294932492077350616e-03
7.790000000000000000e+02 6.707926392555236816e-01 3.600556182861328125e+01 -1.024013385176658630e-02 1.832738146185874939e-02 2.426174469292163849e-03 1.906788907945156097e-03
7.800000000000000000e+02 2.020433902740478516e+00 3.701522827148437500e+01 -9.120292961597442627e-03 1.337366644293069839e-02 1.276012160815298557e-03 1.847993000410497189e-03
7.810000000000000000e+02 8.918077945709228516e-01 3.870054626464843750e+01 -1.416757516562938690e-02 2.099725231528282166e-02 2.048903144896030426e-03 3.776707453653216362e-03
7.820000000000000000e+02 1.275411844253540039e+00 4.004656219482421875e+01 1.223282981663942337e-02 2.182329818606376648e-02 1.021683868020772934e-02 -2.387853339314460754e-03
7.830000000000000000e+02 1.038546657562255859e+01 1.849663019180297852e+00 -1.768704270943999290e-03 8.514666114933788776e-05 -5.050672916695475578e-04 1.888129008875694126e-05
7.840000000000000000e+02 8.929838180541992188e+00 1.868461012840270996e+00 -1.395752769894897938e-03 -3.479458973743021488e-04 -5.231096292845904827e-04 -4.544745024759322405e-04
7.850000000000000000e+02 8.210895538330078125e+00 1.869305610656738281e+00 1.167373266071081161e-03 5.730629782192409039e-04 5.221308674663305283e-04 4.129715962335467339e-04
7.860000000000000000e+02 8.186127662658691406e+00 2.611145257949829102e+00 -1.507714041508734226e-03 -8.073920034803450108e-04 -6.945318309590220451e-04 -6.523834308609366417e-04
7.870000000000000000e+02 7.492902278900146484e+00 1.870455384254455566e+00 -1.043357769958674908e-03 -7.446435629390180111e-04 -5.364004173316061497e-04 -2.617766731418669224e-04
7.880000000000000000e+02 5.331464767456054688e+00 1.888539314270019531e+00 1.093363971449434757e-03 8.588781347498297691e-04 5.856726202182471752e-04 -3.382354334462434053e-04
7.890000000000000000e+02 4.608532428741455078e+00 1.900440454483032227e+00 -1.313115702942013741e-03 -7.864739163778722286e-04 -6.298768566921353340e-04 3.556322189979255199e-04
7.900000000000000000e+02 3.891668081283569336e+00 1.905137300491333008e+00 1.573486137203872204e-03 7.731427322141826153e-04 7.039886550046503544e-04 -2.232896367786452174e-04
7.910000000000000000e+02 3.186218500137329102e+00 1.896580576896667480e+00 -1.758574275299906731e-03 -7.795731071382761002e-04 -7.614442147314548492e-04 -8.507088932674378157e-05
7.920000000000000000e+02 2.491444587707519531e+00 1.881574511528015137e+00 1.454461482353508472e-03 9.575251024216413498e-04 7.235959637910127640e-04 4.130843444727361202e-04
7.930000000000000000e+02 1.802742838859558105e+00 1.877667546272277832e+00 -7.914927555248141289e-04 -1.225239713676273823e-03 -6.050197407603263855e-04 -3.497075522318482399e-04
7.940000000000000000e+02 1.186357784271240234e+01 1.782832026481628418e+00 -1.396163250319659710e-03 6.490841769846156240e-06 -4.169017483945935965e-04 5.378423957154154778e-04
7.950000000000000000e+02 1.435123062133789062e+01 2.985984086990356445e+00 7.008417742326855659e-04 1.204848522320389748e-03 5.717070889659225941e-04 -1.748037408106029034e-03
7.960000000000000000e+02 1.459180641174316406e+01 3.787855386734008789e+00 -3.222813364118337631e-03 -7.292543887160718441e-04 -1.185620320029556751e-03 1.018581446260213852e-03
7.970000000000000000e+02 1.479278182983398438e+01 2.013093709945678711e+00 2.095741219818592072e-03 3.273710608482360840e-04 7.269336492754518986e-04 3.129660399281419814e-05
7.980000000000000000e+02 1.460748481750488281e+01 6.355296134948730469e+00 -5.235668737441301346e-03 -2.507340104784816504e-04 -1.645920914597809315e-03 6.421147845685482025e-04
7.990000000000000000e+02 1.459461402893066406e+01 7.709628105163574219e+00 6.013144738972187042e-03 1.993292971746996045e-04 1.863742130808532238e-03 -4.178545786999166012e-04
8.000000000000000000e+02 1.457684040069580078e+01 9.073019027709960938e+00 -6.852845195680856705e-03 -2.409430599072948098e-04 -2.128136577084660530e-03 1.115374980145134032e-04
8.010000000000000000e+02 1.452945995330810547e+01 1.181119060516357422e+01 -8.924433030188083649e-03 -1.642811985220760107e-04 -2.726614242419600487e-03 -4.682059225160628557e-04
8.020000000000000000e+02 1.448906898498535156e+01 1.318891811370849609e+01 9.883671067655086517e-03 -2.022733970079571009e-04 2.904419321566820145e-03 4.357727884780615568e-04
8.030000000000000000e+02 1.443680572509765625e+01 1.457201766967773438e+01 -1.072338782250881195e-02 -2.143633173545822501e-04 -3.281325567513704300e-03 -4.362591134849935770e-04
8.040000000000000000e+02 1.441680908203125000e+01 1.596010303497314453e+01 1.179120969027280807e-02 1.227805769303813577e-04 3.574197180569171906e-03 7.460115011781454086e-04
8.050000000000000000e+02 1.317960357666015625e+01 2.007774925231933594e+01 1.488708890974521637e-02 2.658630546648055315e-04 4.545885603874921799e-03 1.700569293461740017e-03
8.060000000000000000e+02 1.452268123626708984e+01 2.149833106994628906e+01 1.879945769906044006e-02 1.788944355212152004e-04 5.693505518138408661e-03 1.301653333939611912e-03
8.070000000000000000e+02 1.478486728668212891e+01 2.563573646545410156e+01 -2.388043142855167389e-02 1.572950277477502823e-03 -6.692244205623865128e-03 -1.407975563779473305e-03
8.080000000000000000e+02 1.328028869628906250e+01 2.280564689636230469e+01 1.722570881247520447e-02 9.991376427933573723e-04 5.467453971505165100e-03 2.662207931280136108e-03
8.090000000000000000e+02 1.488033103942871094e+01 2.702261161804199219e+01 2.719097025692462921e-02 3.894264111295342445e-03 9.325570426881313324e-03 3.712465753778815269e-03
8.100000000000000000e+02 1.501570796966552734e+01 2.841267204284667969e+01 -2.819358743727207184e-02 6.701780017465353012e-03 -6.447541993111371994e-03 8.768051629886031151e-04
8.110000000000000000e+02 1.566547584533691406e+01 3.284317779541015625e+01 3.827957808971405029e-02 2.769010886549949646e-02 1.979090645909309387e-02 1.794909592717885971e-03
8.120000000000000000e+02 1.624575042724609375e+01 3.422350311279296875e+01 -2.390433847904205322e-02 2.655743993818759918e-02 7.959305658005177975e-04 3.608519583940505981e-02
8.130000000000000000e+02 1.557937622070312500e+01 3.628033065795898438e+01 -7.855907082557678223e-02 -4.126629978418350220e-02 -3.594760969281196594e-02 -1.048727799206972122e-02
8.140000000000000000e+02 1.722813606262207031e+01 3.653410720825195312e+01 -9.892912954092025757e-02 7.493665069341659546e-02 -7.197744213044643402e-03 4.316924512386322021e-02
8.150000000000000000e+02 2.568984222412109375e+01 3.808857727050781250e+01 -7.065804004669189453e-01 1.243516063690185547e+01 3.518573999404907227e+00 -1.189218759536743164e+00
8.160000000000000000e+02 2.044977951049804688e+01 3.802667236328125000e+01 -9.438175559043884277e-01 2.496624588966369629e-01 -2.082465291023254395e-01 3.650107383728027344e-01
8.170000000000000000e+02 2.289835166931152344e+01 3.809624481201171875e+01 2.672086060047149658e-01 8.494834899902343750e-01 3.350076079368591309e-01 -4.914131164550781250e-01
8.180000000000000000e+02 2.268899154663085938e+01 3.811315536499023438e+01 1.357516050338745117e-01 3.519678115844726562e-01 1.463158279657363892e-01 -1.989901810884475708e-01
8.190000000000000000e+02 2.445493125915527344e+01 3.808358001708984375e+01 6.743610501289367676e-01 5.119182109832763672e+00 1.738062977790832520e+00 -2.779988765716552734e+00
8.200000000000000000e+02 2.476109886169433594e+01 3.841966629028320312e+01 1.239002496004104614e-02 7.425005912780761719e+00 2.231218814849853516e+00 -2.532095670700073242e+00
8.210000000000000000e+02 2.318170166015625000e+01 3.837210845947265625e+01 5.831120014190673828e-01 1.512149453163146973e+00 6.285784244537353516e-01 -8.316722512245178223e-01
8.220000000000000000e+02 2.336593627929687500e+01 3.833644866943359375e+01 8.856070637702941895e-01 1.435878753662109375e+00 6.964457631111145020e-01 -1.076459288597106934e+00
8.230000000000000000e+02 2.481774330139160156e+01 3.471220397949218750e+01 1.370001196861267090e+00 8.130593299865722656e+00 2.850178241729736328e+00 4.083208560943603516e+00
8.240000000000000000e+02 2.698974609375000000e+01 3.674003982543945312e+01 4.819897174835205078e+00 1.169900035858154297e+01 4.955669403076171875e+00 1.578526854515075684e+00
8.250000000000000000e+02 2.676749229431152344e+01 3.735959625244140625e+01 2.741508245468139648e+00 1.266677093505859375e+01 4.622483730316162109e+00 2.077546119689941406e+00
8.260000000000000000e+02 2.625236320495605469e+01 3.777131652832031250e+01 3.602493107318878174e-01 1.365537357330322266e+01 4.204686641693115234e+00 8.177674412727355957e-01
8.270000000000000000e+02 2.546590232849121094e+01 3.475464248657226562e+01 5.457006096839904785e-01 1.187987804412841797e+01 3.727673530578613281e+00 2.972535610198974609e+00
8.280000000000000000e+02 2.608556747436523438e+01 3.488683319091796875e+01 9.650244712829589844e-01 1.311926555633544922e+01 4.225286960601806641e+00 7.631416916847229004e-01
8.290000000000000000e+02 2.661596107482910156e+01 3.755041122436523438e+01 1.869502305984497070e+00 1.308056735992431641e+01 4.485020637512207031e+00 1.824624657630920410e+00
8.300000000000000000e+02 2.502847290039062500e+01 3.806108856201171875e+01 -2.021689899265766144e-02 8.759095191955566406e+00 2.621663570404052734e+00 -2.977609395980834961e+00
8.310000000000000000e+02 2.546399688720703125e+01 3.810687637329101562e+01 -5.691174864768981934e-01 1.115209293365478516e+01 3.174892663955688477e+00 -2.117955446243286133e+00
8.320000000000000000e+02 2.682107925415039062e+01 3.570569610595703125e+01 4.405157566070556641e+00 1.206264972686767578e+01 4.940342426300048828e+00 -6.719009876251220703e-01
8.330000000000000000e+02 2.713493537902832031e+01 3.559510803222656250e+01 3.850390672683715820e+00 1.146476078033447266e+01 4.594545364379882812e+00 -5.129346251487731934e-01
8.340000000000000000e+02 2.693427467346191406e+01 3.609960556030273438e+01 5.281053543090820312e+00 1.158026409149169922e+01 5.058395385742187500e+00 1.628134585916996002e-02
8.350000000000000000e+02 2.690518951416015625e+01 3.695086288452148438e+01 4.271522521972656250e+00 1.194391536712646484e+01 4.864631175994873047e+00 1.948621749877929688e+00
8.360000000000000000e+02 2.649687194824218750e+01 3.511164093017578125e+01 2.196754932403564453e+00 1.300449275970458984e+01 4.560374259948730469e+00 -4.016499519348144531e-01
8.370000000000000000e+02 2.524618530273437500e+01 3.811564254760742188e+01 -5.206420421600341797e-01 1.029009246826171875e+01 2.930835247039794922e+00 -2.781605005264282227e+00
8.380000000000000000e+02 2.357812500000000000e+01 3.481469726562500000e+01 1.830117583274841309e+00 2.339267492294311523e+00 1.250815510749816895e+00 2.204228401184082031e+00
8.390000000000000000e+02 2.285255813598632812e+01 3.475661468505859375e+01 1.247900247573852539e+00 1.141653895378112793e+00 7.168661952018737793e-01 9.178955554962158203e-01
8.400000000000000000e+02 2.374925231933593750e+01 3.457938003540039062e+01 1.799484372138977051e+00 3.078613281250000000e+00 1.463429331779479980e+00 2.554742813110351562e+00
8.410000000000000000e+02 2.273356437683105469e+01 3.448390579223632812e+01 1.106775641441345215e+00 1.252695679664611816e+00 7.078413963317871094e-01 9.472159743309020996e-01
8.420000000000000000e+02 2.503846359252929688e+01 3.471566390991210938e+01 1.079382181167602539e+00 9.427895545959472656e+00 3.152183294296264648e+00 3.944681167602539062e+00
8.430000000000000000e+02 2.506409263610839844e+01 3.432904434204101562e+01 6.188551187515258789e-01 9.133029937744140625e+00 2.925565719604492188e+00 3.427917003631591797e+00
8.440000000000000000e+02 2.414686393737792969e+01 3.473397827148437500e+01 1.953999519348144531e+00 4.104842185974121094e+00 1.817652463912963867e+00 3.293695211410522461e+00
8.450000000000000000e+02 2.376496887207031250e+01 3.480018997192382812e+01 1.938473224639892578e+00 2.482758760452270508e+00 1.326369524002075195e+00 2.475260972976684570e+00
8.460000000000000000e+02 2.416698074340820312e+01 3.441098022460937500e+01 1.604309439659118652e+00 4.860161781311035156e+00 1.939341306686401367e+00 3.294025182723999023e+00
8.470000000000000000e+02 2.321850776672363281e+01 3.478641891479492188e+01 1.521639227867126465e+00 1.549386978149414062e+00 9.213078618049621582e-01 1.452331781387329102e+00
8.480000000000000000e+02 1.420360946655273438e+01 1.890261173248291016e+00 -8.646966307424008846e-04 -1.151981414295732975e-04 -2.939684200100600719e-04 2.663781633600592613e-04
8.490000000000000000e+02 1.257129096984863281e+01 1.754339933395385742e+00 7.179231615737080574e-04 2.766106044873595238e-04 2.983601298183202744e-04 -3.655045584309846163e-04
8.500000000000000000e+02 1.974757003784179688e+01 3.796887969970703125e+01 -1.625434398651123047e+00 -6.904531717300415039e-01 -6.947662830352783203e-01 7.490515708923339844e-01
8.510000000000000000e+02 2.058710098266601562e+01 3.892499542236328125e+01 -4.383208155632019043e-01 4.565358161926269531e-02 -1.178001686930656433e-01 4.829281866550445557e-01
8.520000000000000000e+02 2.174657440185546875e+01 3.877387237548828125e+01 9.379161149263381958e-02 6.482092738151550293e-01 2.226002663373947144e-01 -1.605099737644195557e-01
8.530000000000000000e+02 6.054444789886474609e+00 1.879179477691650391e+00 -1.006792183034121990e-03 -8.895671926438808441e-04 -5.689077661372721195e-04 1.550329616293311119e-04
8.540000000000000000e+02 9.647270202636718750e+00 2.601576328277587891e+00 -2.332223113626241684e-03 -9.459714055992662907e-05 -7.280461140908300877e-04 -6.738314405083656311e-04
8.550000000000000000e+02 6.774857997894287109e+00 1.873887062072753906e+00 9.865186875686049461e-04 8.424200932495296001e-04 5.486816517077386379e-04 4.650700793717987835e-05
8.560000000000000000e+02 7.462689876556396484e+00 2.615993022918701172e+00 1.306983758695423603e-03 9.989081881940364838e-04 6.917676073499023914e-04 4.107329878024756908e-04
8.570000000000000000e+02 8.168200492858886719e+00 3.362051010131835938e+00 1.703097950667142868e-03 1.077295280992984772e-03 8.341179345734417439e-04 9.018412674777209759e-04
8.580000000000000000e+02 5.979842185974121094e+00 4.216541290283203125e+00 1.365707605145871639e-03 1.655747648328542709e-03 9.064365876838564873e-04 -1.520838704891502857e-04
8.590000000000000000e+02 1.621180534362792969e+00 7.659532070159912109e+00 4.302775021642446518e-03 2.724703517742455006e-04 1.372573664411902428e-03 -3.289323358330875635e-04
8.600000000000000000e+02 3.828334808349609375e-01 3.769523620605468750e+00 4.875959362834692001e-03 8.855625637806952000e-04 1.728456467390060425e-03 1.188685768283903599e-03
8.610000000000000000e+02 2.270887374877929688e+00 3.503618717193603516e+00 2.130300737917423248e-03 1.282722456380724907e-03 1.023906981572508812e-03 -1.736666308715939522e-03
8.620000000000000000e+02 3.838985860347747803e-01 2.092681407928466797e+00 -1.710749580524861813e-03 -9.280077065341174603e-04 -7.916271570138633251e-04 6.126029184088110924e-04
8.630000000000000000e+02 1.113494277000427246e+00 1.929669022560119629e+00 -1.025870806188322604e-04 1.485999324358999729e-03 4.150236782152205706e-04 4.897508188150823116e-05
8.640000000000000000e+02 1.113041687011718750e+01 1.820266842842102051e+00 1.698639593087136745e-03 -9.900242002913728356e-05 4.798911395482718945e-04 -3.418336273171007633e-04
8.650000000000000000e+02 9.654013633728027344e+00 3.353720903396606445e+00 2.953566843643784523e-03 2.024437417276203632e-04 9.468031348660588264e-04 1.181925297714769840e-03
8.660000000000000000e+02 1.173026943206787109e+01 -2.599650382995605469e+00 -1.072790124453604221e-03 -5.423500988399609923e-05 -3.381075512152165174e-04 -7.861133781261742115e-05
8.670000000000000000e+02 1.032699680328369141e+01 -3.366736412048339844e+00 2.346090273931622505e-03 -1.717145059956237674e-04 6.523127085529267788e-04 -6.210434949025511742e-04
8.680000000000000000e+02 1.103228473663330078e+01 -2.585178375244140625e+00 1.603316632099449635e-03 -9.487179340794682503e-05 4.525334516074508429e-04 -1.125040434999391437e-04
8.690000000000000000e+02 1.245389747619628906e+01 2.327585458755493164e+00 -1.242957892827689648e-03 -2.589349460322409868e-04 -4.505678371060639620e-04 7.933725137263536453e-04
8.700000000000000000e+02 1.038846969604492188e+01 2.575594663619995117e+00 2.652126597240567207e-03 -3.035990812350064516e-04 7.045582169666886330e-04 2.278353204019367695e-04
8.710000000000000000e+02 1.293260765075683594e+01 2.369173765182495117e+00 -1.312170061282813549e-04 9.180163615383207798e-04 2.360398066230118275e-04 1.763089676387608051e-04
8.720000000000000000e+02 1.335818004608154297e+01 2.548417091369628906e+00 -9.481625747866928577e-04 -8.777552866376936436e-04 -5.477753584273159504e-04 -1.675213105045258999e-03
8.730000000000000000e+02 8.067013740539550781e+00 -1.886437773704528809e+00 -7.975149201229214668e-04 -4.632596392184495926e-04 -3.782323619816452265e-04 4.243342264089733362e-04
8.740000000000000000e+02 9.581951141357421875e+00 -2.629388570785522461e+00 1.548317028209567070e-03 1.112263707909733057e-04 4.978630458936095238e-04 -6.178196636028587818e-04
8.750000000000000000e+02 7.312302589416503906e+00 -2.675493478775024414e+00 -8.552426588721573353e-04 -6.623055087402462959e-04 -4.552644677460193634e-04 4.703928716480731964e-04
8.760000000000000000e+02 8.073785781860351562e+00 -2.663133859634399414e+00 1.039506518281996250e-03 5.211866227909922600e-04 4.682079306803643703e-04 -5.951009807176887989e-04
8.770000000000000000e+02 8.831888198852539062e+00 -2.648998260498046875e+00 -1.265455735847353935e-03 -3.389795019757002592e-04 -4.813305858988314867e-04 6.576632149517536163e-04
8.780000000000000000e+02 6.533490657806396484e+00 -1.897711515426635742e+00 -5.588125204667448997e-04 -6.861560395918786526e-04 -3.734905621968209743e-04 1.652944629313424230e-04
8.790000000000000000e+02 6.548869132995605469e+00 -2.691723823547363281e+00 6.928489310666918755e-04 7.871096022427082062e-04 4.439875483512878418e-04 -2.877649967558681965e-04
8.800000000000000000e+02 5.007815837860107422e+00 -2.758084774017333984e+00 5.586390034295618534e-04 8.648599032312631607e-04 4.270496719982475042e-04 2.528646728023886681e-04
8.810000000000000000e+02 1.728290796279907227e+00 -7.844045162200927734e+00 2.563840476796030998e-03 3.451064003456849605e-06 7.701874710619449615e-04 2.838207874447107315e-04
8.820000000000000000e+02 3.566683292388916016e+00 -4.835830688476562500e+00 1.283817808143794537e-03 9.437074186280369759e-04 6.682575913146138191e-04 1.177825732156634331e-03
8.830000000000000000e+02 4.518598318099975586e-01 -3.580805301666259766e+00 1.363465446047484875e-03 -2.763676820904947817e-05 4.007485986221581697e-04 4.010831162304384634e-06
8.840000000000000000e+02 3.985823392868041992e-01 -2.189990758895874023e+00 -1.255198265425860882e-03 2.468846787451184355e-06 -3.758188395295292139e-04 -3.016122354893013835e-05
8.850000000000000000e+02 5.157220959663391113e-01 -5.001055240631103516e+00 -1.414828351698815823e-03 -9.047905041370540857e-05 -4.515922337304800749e-04 -3.759374885703437030e-05
8.860000000000000000e+02 2.169505500793457031e+01 3.291016006469726562e+01 2.723482549190521240e-01 1.489102959632873535e+00 5.284353494644165039e-01 8.479745388031005859e-01
8.870000000000000000e+02 2.301035499572753906e+01 -4.122395706176757812e+01 -8.411108851432800293e-01 6.399215698242187500e+00 1.667431473731994629e+00 -1.482536643743515015e-01
8.880000000000000000e+02 1.933462905883789062e+01 -3.759973907470703125e+01 8.086581230163574219e-01 5.891488552093505859e+00 2.010043859481811523e+00 1.325569272041320801e+00
8.890000000000000000e+02 1.337429904937744141e+01 -3.721588516235351562e+01 -1.800534874200820923e-01 3.141085803508758545e-02 -4.459279030561447144e-02 5.400000512599945068e-02
8.900000000000000000e+02 1.208868789672851562e+01 2.547728919982910156e+01 -1.443514972925186157e-02 -8.874898776412010193e-04 -4.596791695803403854e-03 -4.879031330347061157e-04
8.910000000000000000e+02 1.303092861175537109e+01 3.266327667236328125e+01 1.961091160774230957e-02 1.063815504312515259e-02 9.074719622731208801e-03 -1.134191174060106277e-02
8.920000000000000000e+02 1.355455112457275391e+01 3.125761604309082031e+01 2.414350584149360657e-02 -1.330776326358318329e-02 3.250722540542483330e-03 1.223375461995601654e-02
8.930000000000000000e+02 1.351817226409912109e+01 2.693416213989257812e+01 -1.906371116638183594e-02 1.480121631175279617e-03 -5.275077186524868011e-03 -4.981587408110499382e-04
8.940000000000000000e+02 1.678043174743652344e+01 3.544727706909179688e+01 8.129045367240905762e-02 6.320189684629440308e-02 4.334770515561103821e-02 1.697743497788906097e-02
8.950000000000000000e+02 1.477097797393798828e+01 3.525572967529296875e+01 1.146807149052619934e-02 1.868887804448604584e-02 9.047084487974643707e-03 -2.100040949881076813e-02
8.960000000000000000e+02 1.446006107330322266e+01 1.873834037780761719e+01 1.549038290977478027e-02 -2.023261913564056158e-04 4.586417227983474731e-03 9.519249433651566505e-04
8.970000000000000000e+02 1.314892387390136719e+01 1.871745300292968750e+01 -1.369859371334314346e-02 -3.153112265863455832e-05 -4.119037650525569916e-03 -1.507027540355920792e-03
8.980000000000000000e+02 1.469118499755859375e+01 2.425588035583496094e+01 2.242052555084228516e-02 1.160301384516060352e-03 7.074248045682907104e-03 2.298629609867930412e-03
8.990000000000000000e+02 1.357742404937744141e+01 2.832455253601074219e+01 2.515223994851112366e-02 3.751913784071803093e-03 8.671246469020843506e-03 8.810732513666152954e-03
9.000000000000000000e+02 1.309459400177001953e+01 1.734388732910156250e+01 1.284462865442037582e-02 -1.657314860494807363e-04 3.803669009357690811e-03 1.506907399743795395e-03
9.010000000000000000e+02 1.345188426971435547e+01 1.045664596557617188e+01 -6.531355436891317368e-03 -7.923307130113244057e-04 -2.197105903178453445e-03 -1.117272535338997841e-03
9.020000000000000000e+02 1.306486988067626953e+01 1.449346256256103516e+01 9.818832390010356903e-03 -2.128792766598053277e-05 2.939263358712196350e-03 1.845950842835009098e-03
9.030000000000000000e+02 1.461210441589355469e+01 5.027185916900634766e+00 4.352595657110214233e-03 2.825095434673130512e-04 1.390531542710959911e-03 -7.948048296384513378e-04
9.040000000000000000e+02 1.183543872833251953e+01 2.427770376205444336e+00 1.909780316054821014e-03 -8.123897714540362358e-05 5.485623842105269432e-04 -7.480837521143257618e-04
9.050000000000000000e+02 1.045707893371582031e+01 4.102416992187500000e+00 4.352254793047904968e-03 -2.022633998421952128e-04 1.244997372850775719e-03 1.238241093233227730e-03
9.060000000000000000e+02 1.354021167755126953e+01 7.828139305114746094e+00 -5.229892209172248840e-03 -4.662247956730425358e-04 -1.708835130557417870e-03 -2.427587751299142838e-04
9.070000000000000000e+02 1.326872539520263672e+01 1.311779212951660156e+01 -8.483584038913249969e-03 -1.419075997546315193e-04 -2.587647410109639168e-03 -2.145142527297139168e-03
9.080000000000000000e+02 7.852906036376953125e+01 3.371244049072265625e+01 7.559197023510932922e-03 7.216801166534423828e+00 2.167308092117309570e+00 -1.853601820766925812e-02
9.090000000000000000e+02 7.940344238281250000e+01 3.609534454345703125e+01 -4.992685280740261078e-04 7.167294025421142578e+00 2.150038480758666992e+00 -8.447427535429596901e-04
9.100000000000000000e+02 7.935816955566406250e+01 -2.779820442199707031e+01 -4.628368769772350788e-04 8.130690574645996094e+00 2.439068555831909180e+00 -4.862113855779170990e-03
9.110000000000000000e+02 7.726504516601562500e+01 -3.766923522949218750e+01 -2.899328712373971939e-03 8.119606018066406250e+00 2.435012102127075195e+00 2.812112215906381607e-03
9.120000000000000000e+02 7.935942077636718750e+01 -3.471630477905273438e+01 -9.825767483562231064e-04 8.157906532287597656e+00 2.447077035903930664e+00 -8.291001431643962860e-04
9.130000000000000000e+02 7.932789611816406250e+01 -2.086334419250488281e+01 9.493797733739484102e-06 8.081829071044921875e+00 2.424551486968994141e+00 -6.849272642284631729e-03
9.140000000000000000e+02 7.808207702636718750e+01 -2.766817474365234375e+01 -2.268874814035370946e-04 8.099267959594726562e+00 2.429712533950805664e+00 -1.177857909351587296e-02
9.150000000000000000e+02 7.806565093994140625e+01 -2.630135536193847656e+01 -1.029127161018550396e-03 8.091670036315917969e+00 2.427192211151123047e+00 -1.291987020522356033e-02
9.160000000000000000e+02 7.935008239746093750e+01 -3.057003593444824219e+01 -6.025054608471691608e-04 8.145917892456054688e+00 2.443594694137573242e+00 -3.853390691801905632e-03
9.170000000000000000e+02 7.806623840332031250e+01 -3.451896667480468750e+01 -2.057777950540184975e-03 8.128758430480957031e+00 2.438010215759277344e+00 -4.556513857096433640e-03
9.180000000000000000e+02 7.800473785400390625e+01 -3.316792297363281250e+01 -1.944385585375130177e-03 8.122737884521484375e+00 2.436238050460815430e+00 -5.812543909996747971e-03
9.190000000000000000e+02 7.500947570800781250e+01 -3.693722152709960938e+01 -1.034417469054460526e-02 8.074089050292968750e+00 2.419123649597167969e+00 -1.508827134966850281e-02
9.200000000000000000e+02 7.625760650634765625e+01 -3.867016983032226562e+01 4.164033744018524885e-04 8.109361648559570312e+00 2.432933568954467773e+00 -3.833661554381251335e-03
9.210000000000000000e+02 7.798771667480468750e+01 1.399517440795898438e+01 -9.886419866234064102e-04 7.590730667114257812e+00 2.276922702789306641e+00 -4.372971877455711365e-02
9.220000000000000000e+02 7.932156372070312500e+01 1.535588932037353516e+01 -5.480408435687422752e-04 7.549949169158935547e+00 2.264820337295532227e+00 -1.678744703531265259e-02
9.230000000000000000e+02 7.790400695800781250e+01 2.104401016235351562e+01 6.981135229580104351e-04 7.452197551727294922e+00 2.235868692398071289e+00 -4.680614918470382690e-02
9.240000000000000000e+02 7.930559539794921875e+01 2.234027290344238281e+01 8.782767108641564846e-04 7.395720958709716797e+00 2.218979835510253906e+00 -1.707448810338973999e-02
9.250000000000000000e+02 7.777648925781250000e+01 3.125642395019531250e+01 2.560872817412018776e-03 7.275314331054687500e+00 2.183362483978271484e+00 -3.443638607859611511e-02
9.260000000000000000e+02 7.812947082519531250e+01 3.264077377319335938e+01 5.178208928555250168e-03 7.247859001159667969e+00 2.175911188125610352e+00 -2.773084118962287903e-02
9.270000000000000000e+02 7.927239227294921875e+01 2.795010757446289062e+01 1.387608470395207405e-03 7.278131484985351562e+00 2.183855772018432617e+00 -1.632478833198547363e-02
9.280000000000000000e+02 7.792765808105468750e+01 2.521928787231445312e+01 1.064633252099156380e-03 7.370218276977539062e+00 2.211384773254394531e+00 -4.360940307378768921e-02
9.290000000000000000e+02 7.792251586914062500e+01 2.382614707946777344e+01 1.705919741652905941e-03 7.397219181060791016e+00 2.219677448272705078e+00 -4.482194408774375916e-02
9.300000000000000000e+02 7.791873931884765625e+01 1.822721862792968750e+01 1.812765549402683973e-04 7.507842063903808594e+00 2.252406835556030273e+00 -4.646290838718414307e-02
9.310000000000000000e+02 7.796473693847656250e+01 1.540024089813232422e+01 -2.071497146971523762e-04 7.563409805297851562e+00 2.268960952758789062e+00 -4.494678229093551636e-02
9.320000000000000000e+02 7.794043731689453125e+01 1.681143569946289062e+01 -6.426188047043979168e-04 7.535734653472900391e+00 2.260527610778808594e+00 -4.577048867940902710e-02
9.330000000000000000e+02 7.800678253173828125e+01 1.259424495697021484e+01 -5.231729010120034218e-04 7.617471694946289062e+00 2.285084486007690430e+00 -4.251893237233161926e-02
9.340000000000000000e+02 7.671941375732421875e+01 1.120121860504150391e+01 -1.794155337847769260e-03 7.650408744812011719e+00 2.294584512710571289e+00 -6.429492682218551636e-02
9.350000000000000000e+02 7.805611419677734375e+01 8.435586929321289062e+00 -9.805402951315045357e-04 7.693839550018310547e+00 2.307857751846313477e+00 -3.864850848913192749e-02
9.360000000000000000e+02 7.934558105468750000e+01 9.778628349304199219e+00 -4.168576269876211882e-04 7.666532993316650391e+00 2.299834966659545898e+00 -1.515341363847255707e-02
9.370000000000000000e+02 7.933118438720703125e+01 -6.928570747375488281e+00 -1.392460399074479938e-05 7.936696052551269531e+00 2.381004810333251953e+00 -1.044007204473018646e-02
9.380000000000000000e+02 7.796669769287109375e+01 1.227194368839263916e-01 -9.190435521304607391e-04 7.826984405517578125e+00 2.347819566726684570e+00 -3.258783742785453796e-02
9.390000000000000000e+02 7.932881927490234375e+01 1.434005856513977051e+00 -2.168321661883965135e-04 7.817028045654296875e+00 2.345043182373046875e+00 -1.282460987567901611e-02
9.400000000000000000e+02 7.932539367675781250e+01 -1.389933872222900391e+01 -3.826002939604222775e-04 8.017183303833007812e+00 2.405040264129638672e+00 -8.695469237864017487e-03
9.410000000000000000e+02 7.678328704833984375e+01 7.107563495635986328e+00 -2.232880098745226860e-03 7.717095375061035156e+00 2.314458847045898438e+00 -5.843788012862205505e-02
9.420000000000000000e+02 7.775268554687500000e+01 2.963236236572265625e+01 3.759868210181593895e-03 7.299981117248535156e+00 2.191122293472290039e+00 -4.078527167439460754e-02
9.430000000000000000e+02 7.932386779785156250e+01 -1.947348213195800781e+01 -3.879604046232998371e-04 8.070096015930175781e+00 2.420912265777587891e+00 -7.277475204318761826e-03
9.440000000000000000e+02 7.398641967773437500e+01 3.731850433349609375e+01 3.053304180502891541e-02 7.353532314300537109e+00 2.215219497680664062e+00 -4.289258271455764771e-02
9.450000000000000000e+02 7.804305267333984375e+01 9.815582275390625000e+00 -6.832500221207737923e-04 7.669052600860595703e+00 2.300510644912719727e+00 -3.988582640886306763e-02
9.460000000000000000e+02 7.656772613525390625e+01 1.871296316385269165e-01 -2.493716776371002197e-03 7.816495418548583984e+00 2.344200372695922852e+00 -5.179577320814132690e-02
9.470000000000000000e+02 7.800176239013671875e+01 2.903168439865112305e+00 -9.583864011801779270e-04 7.785946846008300781e+00 2.335496425628662109e+00 -3.452688083052635193e-02
9.480000000000000000e+02 7.796564483642578125e+01 -1.270221114158630371e+00 -9.743648115545511246e-04 7.846344470977783203e+00 2.353610992431640625e+00 -3.151487931609153748e-02
9.490000000000000000e+02 7.932719421386718750e+01 -2.743056297302246094e+00 -2.414298214716836810e-04 7.880178451538085938e+00 2.363981008529663086e+00 -1.165767479687929153e-02
9.500000000000000000e+02 7.799116516113281250e+01 -8.259766578674316406e+00 -6.162936333566904068e-04 7.934373855590820312e+00 2.380127191543579102e+00 -2.583002112805843353e-02
9.510000000000000000e+02 7.799469757080078125e+01 -5.470434665679931641e+00 -7.198465755209326744e-04 7.901307106018066406e+00 2.370176315307617188e+00 -2.785441838204860687e-02
9.520000000000000000e+02 7.932697296142578125e+01 -9.717411994934082031e+00 3.255077444919152185e-06 7.970852375030517578e+00 2.391256809234619141e+00 -9.765327908098697662e-03
9.530000000000000000e+02 7.797528076171875000e+01 -1.384062290191650391e+01 -5.919034010730683804e-04 7.992812633514404297e+00 2.397666215896606445e+00 -2.214056812226772308e-02
9.540000000000000000e+02 7.797762298583984375e+01 -1.244998550415039062e+01 -1.022694283165037632e-03 7.979088306427001953e+00 2.393419742584228516e+00 -2.317999303340911865e-02
9.550000000000000000e+02 7.932250213623046875e+01 -1.668639755249023438e+01 -3.508160880301147699e-04 8.044842720031738281e+00 2.413347721099853516e+00 -8.006714284420013428e-03
9.560000000000000000e+02 7.796776580810546875e+01 -1.941278839111328125e+01 -6.113365525379776955e-04 8.041971206665039062e+00 2.412408113479614258e+00 -1.847619190812110901e-02
9.570000000000000000e+02 1.304844951629638672e+01 -3.023079299926757812e+01 1.549933478236198425e-02 -8.789971470832824707e-04 4.386101383715867996e-03 -3.101219888776540756e-03
9.580000000000000000e+02 2.063642501831054688e+01 -1.325667262077331543e+00 5.114009603857994080e-02 7.388263702392578125e+00 2.231821060180664062e+00 3.168040215969085693e-01
9.590000000000000000e+02 2.199870872497558594e+01 -9.424865245819091797e-03 -9.170968085527420044e-02 7.470082283020019531e+00 2.213511705398559570e+00 4.057927429676055908e-01
9.600000000000000000e+02 2.078256988525390625e+01 1.451472759246826172e+00 -1.219333894550800323e-02 7.247182369232177734e+00 2.170496702194213867e+00 5.457364320755004883e-01
9.610000000000000000e+02 2.335825920104980469e+01 1.250094294548034668e+00 -6.447353516705334187e-04 7.521159172058105469e+00 2.256154298782348633e+00 2.483961433172225952e-01
9.620000000000000000e+02 2.016053581237792969e+01 -1.391953372955322266e+01 1.693847328424453735e-01 7.672684192657470703e+00 2.352620601654052734e+00 4.122027456760406494e-01
9.630000000000000000e+02 1.394398975372314453e+01 -3.867484664916992188e+01 -2.460262924432754517e-01 7.217131555080413818e-02 -5.215649306774139404e-02 -1.159097105264663696e-01
9.640000000000000000e+02 1.980037498474121094e+01 -1.808636093139648438e+01 -5.825331062078475952e-02 6.440084934234619141e+00 1.914549469947814941e+00 3.902548253536224365e-01
9.650000000000000000e+02 1.120328521728515625e+01 -3.255909729003906250e+01 -4.132449626922607422e-02 6.135188974440097809e-03 -1.055679190903902054e-02 2.581755258142948151e-02
9.660000000000000000e+02 2.034601974487304688e+01 -6.896944046020507812e+00 -3.993125632405281067e-02 6.936004161834716797e+00 2.068821907043457031e+00 1.496252864599227905e-01
9.670000000000000000e+02 2.193120956420898438e+01 -1.377522468566894531e+00 4.639614373445510864e-02 7.244603157043457031e+00 2.187299728393554688e+00 4.215751588344573975e-01
9.680000000000000000e+02 2.160519218444824219e+01 -9.649636268615722656e+00 8.221797645092010498e-02 7.188348293304443359e+00 2.181169748306274414e+00 2.330197989940643311e-01
9.690000000000000000e+02 2.107712364196777344e+01 -2.072540664672851562e+01 -1.482977811247110367e-02 6.694503784179687500e+00 2.003902196884155273e+00 2.897074222564697266e-01
9.700000000000000000e+02 2.167438507080078125e+01 -6.858222961425781250e+00 -8.269374817609786987e-02 7.146216869354248047e+00 2.119056940078735352e+00 2.974390387535095215e-01
9.710000000000000000e+02 2.120724296569824219e+01 -3.318027114868164062e+01 2.646608650684356689e-01 7.086072921752929688e+00 2.205219984054565430e+00 4.533200860023498535e-01
9.720000000000000000e+02 2.127421760559082031e+01 -1.660851287841796875e+01 -6.350909173488616943e-02 7.020153522491455078e+00 2.086993217468261719e+00 2.717726528644561768e-01
9.730000000000000000e+02 2.136950492858886719e+01 -1.524119663238525391e+01 1.162931099534034729e-01 7.138417720794677734e+00 2.176413297653198242e+00 2.311815172433853149e-01
9.740000000000000000e+02 2.171956634521484375e+01 -5.487226486206054688e+00 -1.410386413335800171e-01 7.186706542968750000e+00 2.113700389862060547e+00 2.905438542366027832e-01
9.750000000000000000e+02 2.227303314208984375e+01 5.562905311584472656e+00 1.659615188837051392e-01 7.743093967437744141e+00 2.372716665267944336e+00 2.996319830417633057e-01
9.760000000000000000e+02 2.385620498657226562e+01 -2.169304275512695312e+01 -1.014115288853645325e-01 6.971475601196289062e+00 2.061019182205200195e+00 1.863655000925064087e-01
9.770000000000000000e+02 1.175154590606689453e+01 -2.754991531372070312e+01 -1.104643288999795914e-02 -7.092276122421026230e-03 -5.441612564027309418e-03 2.225661650300025940e-03
9.780000000000000000e+02 2.207138252258300781e+01 1.352468132972717285e+00 -7.106412202119827271e-02 7.535931110382080078e+00 2.239460229873657227e+00 2.789801657199859619e-01
9.790000000000000000e+02 1.445229434967041016e+01 -2.484689331054687500e+01 -1.475553493946790695e-02 1.721565378829836845e-03 -3.910190891474485397e-03 -1.494563068263232708e-03
9.800000000000000000e+02 1.190904712677001953e+01 -2.502609634399414062e+01 -9.337211959064006805e-03 -3.501656698063015938e-03 -3.851660527288913727e-03 -1.821633544750511646e-03
9.810000000000000000e+02 2.114809226989746094e+01 -2.627057075500488281e+01 5.023183301091194153e-03 6.861519336700439453e+00 2.059962749481201172e+00 1.658330410718917847e-01
9.820000000000000000e+02 2.123887634277343750e+01 -2.764886474609375000e+01 -2.287511900067329407e-02 6.922018051147460938e+00 2.069742918014526367e+00 1.494834870100021362e-01
9.830000000000000000e+02 2.094151687622070312e+01 2.682232093811035156e+01 -2.157936617732048035e-02 4.546921253204345703e+00 1.357602596282958984e+00 2.368944436311721802e-01
9.840000000000000000e+02 2.232650756835937500e+01 1.121947002410888672e+01 -1.005833037197589874e-03 7.394020557403564453e+00 2.217904329299926758e+00 1.419841200113296509e-01
9.850000000000000000e+02 2.458387184143066406e+01 3.468599700927734375e+01 1.631908416748046875e+00 6.687962055206298828e+00 2.495961189270019531e+00 3.958878278732299805e+00
9.860000000000000000e+02 1.483144187927246094e+01 -2.149413108825683594e+00 -1.149837626144289970e-03 -1.764553162502124906e-04 -3.978878958150744438e-04 -1.854558649938553572e-04
9.870000000000000000e+02 2.156689262390136719e+01 -1.106096458435058594e+01 3.090629167854785919e-02 7.342900276184082031e+00 2.212141990661621094e+00 2.201794683933258057e-01
9.880000000000000000e+02 2.163705253601074219e+01 -8.244735717773437500e+00 1.958435773849487305e-02 7.195913791656494141e+00 2.164649486541748047e+00 2.936641275882720947e-01
9.890000000000000000e+02 2.229999351501464844e+01 6.977334022521972656e+00 6.554889678955078125e-02 7.725326061248779297e+00 2.337262630462646484e+00 2.274232357740402222e-01
9.900000000000000000e+02 2.106096267700195312e+01 1.411583232879638672e+01 -8.173041860572993755e-04 7.152190208435058594e+00 2.145411968231201172e+00 5.245519429445266724e-02
9.910000000000000000e+02 2.091639900207519531e+01 2.958420753479003906e+01 -4.039301350712776184e-02 2.872315883636474609e+00 8.495768904685974121e-01 3.398132324218750000e-01
9.920000000000000000e+02 2.355398368835449219e+01 1.674038314819335938e+01 -4.936785623431205750e-02 7.041473388671875000e+00 2.097631692886352539e+00 2.985812425613403320e-01
9.930000000000000000e+02 2.106905174255371094e+01 2.260140228271484375e+01 -1.341307535767555237e-02 5.960173130035400391e+00 1.784027934074401855e+00 1.456978172063827515e-01
9.940000000000000000e+02 2.227377510070800781e+01 2.410480117797851562e+01 -7.605403661727905273e-02 5.868695259094238281e+00 1.737792253494262695e+00 4.872998893260955811e-01
9.950000000000000000e+02 2.231620216369628906e+01 8.388518333435058594e+00 1.920052804052829742e-02 7.595184326171875000e+00 2.284315586090087891e+00 1.655351221561431885e-01
9.960000000000000000e+02 2.231810188293457031e+01 1.970821189880371094e+01 -4.141455143690109253e-02 6.633673667907714844e+00 1.977677702903747559e+00 2.733150720596313477e-01
9.970000000000000000e+02 2.357470130920410156e+01 1.960256195068359375e+01 -8.982741087675094604e-02 6.799493312835693359e+00 2.012899637222290039e+00 4.064771533012390137e-01
9.980000000000000000e+02 2.230239295959472656e+01 1.685227394104003906e+01 -2.190363965928554535e-02 6.946686267852783203e+00 2.077434778213500977e+00 1.937134712934494019e-01
9.990000000000000000e+02 2.186738014221191406e+01 2.819855690002441406e+01 -7.433614134788513184e-02 4.363474845886230469e+00 1.286741495132446289e+00 7.728819251060485840e-01
1.000000000000000000e+03 2.358943557739257812e+01 2.426746559143066406e+01 -2.035224884748458862e-01 6.280995368957519531e+00 1.823241829872131348e+00 7.481003403663635254e-01
1.001000000000000000e+03 2.231458282470703125e+01 1.404236793518066406e+01 -1.122579537332057953e-02 7.187974929809570312e+00 2.153024673461914062e+00 1.538774073123931885e-01
1.002000000000000000e+03 2.232286453247070312e+01 1.262724685668945312e+01 -2.673405222594738007e-03 7.294282913208007812e+00 2.187482833862304688e+00 1.450752615928649902e-01
1.003000000000000000e+03 1.324478816986083984e+01 -1.465400218963623047e+01 -5.553969647735357285e-03 -7.519310456700623035e-04 -1.891770167276263237e-03 1.033649547025561333e-03
1.004000000000000000e+03 1.359280395507812500e+01 -7.942343235015869141e+00 4.251130856573581696e-03 2.272914134664461017e-04 1.343526761047542095e-03 -4.766213533002883196e-04
1.005000000000000000e+03 1.460564327239990234e+01 -7.932213306427001953e+00 -4.720456898212432861e-03 -8.269462705357000232e-05 -1.440945430658757687e-03 2.046902372967451811e-04
1.006000000000000000e+03 1.102669715881347656e+01 -3.307665586471557617e+00 -2.445770427584648132e-03 3.202342486474663019e-04 -6.376608507707715034e-04 5.509810216608457267e-05
1.007000000000000000e+03 1.341747379302978516e+01 -1.196572971343994141e+01 -5.104487761855125427e-03 -3.519000601954758167e-04 -1.636916305869817734e-03 6.435539689846336842e-04
1.008000000000000000e+03 1.454860019683837891e+01 -1.209284877777099609e+01 6.080148741602897644e-03 2.121784054907038808e-04 1.887698075734078884e-03 -6.185611127875745296e-04
1.009000000000000000e+03 1.356245231628417969e+01 -5.274905681610107422e+00 3.220757935196161270e-03 4.632881027646362782e-04 1.105213770642876625e-03 -4.546161799225956202e-04
1.010000000000000000e+03 1.460393047332763672e+01 -5.175593852996826172e+00 -3.497906960546970367e-03 -3.311704203952103853e-04 -1.148723182268440723e-03 -2.516098320484161377e-04
1.011000000000000000e+03 1.449086952209472656e+01 -1.486681652069091797e+01 6.827237550169229507e-03 5.082319839857518673e-04 2.200640738010406494e-03 -1.106413663364946842e-03
1.012000000000000000e+03 1.431552791595458984e+01 -1.905028724670410156e+01 -9.448533877730369568e-03 1.306594640482217073e-05 -2.830640412867069244e-03 2.056907396763563156e-03
1.013000000000000000e+03 2.280586242675781250e+01 2.820974159240722656e+01 -2.389990687370300293e-01 5.042444229125976562e+00 1.441033482551574707e+00 1.149008989334106445e+00
1.014000000000000000e+03 1.382042884826660156e+00 -4.000496292114257812e+01 1.784097030758857727e-02 -4.774428531527519226e-02 -8.970994502305984497e-03 1.074202591553330421e-03
1.015000000000000000e+03 7.151618003845214844e-01 3.737132644653320312e+01 1.240375544875860214e-02 2.242545038461685181e-02 1.044876221567392349e-02 -4.596760496497154236e-03
1.016000000000000000e+03 6.603509187698364258e-01 3.321022033691406250e+01 -6.942593026906251907e-03 1.363912038505077362e-02 2.008958254009485245e-03 -6.015467224642634392e-04
1.017000000000000000e+03 2.381717920303344727e+00 3.802901840209960938e+01 7.059385534375905991e-03 1.837789826095104218e-02 7.631185464560985565e-03 -7.648326922208070755e-03
1.018000000000000000e+03 6.267561316490173340e-01 2.614131927490234375e+01 5.917178466916084290e-03 1.899355440400540829e-03 2.344960113987326622e-03 -1.259006676264107227e-03
1.019000000000000000e+03 1.887283563613891602e+00 2.875454139709472656e+01 -6.678560283035039902e-03 3.517249831929802895e-03 -9.483930771239101887e-04 -1.896611182019114494e-03
1.020000000000000000e+03 6.818029284477233887e-01 -3.610142898559570312e+01 -3.029282018542289734e-02 -2.404674328863620758e-02 -1.630186848342418671e-02 -7.956524379551410675e-03
1.021000000000000000e+03 2.065566301345825195e+00 -3.303543090820312500e+01 1.289982255548238754e-02 -4.386985208839178085e-03 2.553851110860705376e-03 -5.008631851524114609e-03
1.022000000000000000e+03 3.120196104049682617e+00 2.716139984130859375e+01 -6.647738628089427948e-03 8.342584478668868542e-04 -1.744044013321399689e-03 -1.894278568215668201e-03
1.023000000000000000e+03 3.137155294418334961e+00 2.437635993957519531e+01 -6.285655312240123749e-03 -3.216393815819174051e-04 -1.982188550755381584e-03 -1.161483698524534702e-03
1.024000000000000000e+03 1.990474820137023926e+00 3.301316452026367188e+01 7.379632908850908279e-03 9.634803980588912964e-03 5.104330834001302719e-03 -4.804414696991443634e-03
1.025000000000000000e+03 3.303244829177856445e+00 3.901149749755859375e+01 -8.594170212745666504e-03 1.624681241810321808e-02 2.295792335644364357e-03 1.282664015889167786e-04
1.026000000000000000e+03 1.864810466766357422e+00 -3.036191558837890625e+01 1.539403479546308517e-02 -5.298869218677282333e-03 3.028549719601869583e-03 -1.801099628210067749e-03
1.027000000000000000e+03 1.883551359176635742e+00 -2.764095878601074219e+01 1.108230464160442352e-02 2.106743049807846546e-04 3.387893782928586006e-03 1.280604046769440174e-03
1.028000000000000000e+03 2.796059608459472656e+00 -3.547899246215820312e+01 3.682859474793076515e-03 -9.836258366703987122e-03 -1.846019760705530643e-03 -6.543961353600025177e-03
1.029000000000000000e+03 1.947283387184143066e+00 -2.203483200073242188e+01 6.858502980321645737e-03 3.974174906034022570e-04 2.176776062697172165e-03 1.514329691417515278e-03
1.030000000000000000e+03 6.279948353767395020e-01 2.050321006774902344e+01 5.242588929831981659e-03 -7.120226655388250947e-05 1.551416004076600075e-03 -4.868531250394880772e-04
1.031000000000000000e+03 5.964063405990600586e-01 1.343529129028320312e+01 -4.691914655268192291e-03 -1.553330075694248080e-04 -1.454174285754561424e-03 4.319164727348834276e-04
1.032000000000000000e+03 5.416846275329589844e-01 7.791499137878417969e+00 -3.960121888667345047e-03 -1.878636103356257081e-04 -1.244395622052252293e-03 4.908565315417945385e-04
1.033000000000000000e+03 3.654676437377929688e+00 -3.889694976806640625e+01 -1.396029139868915081e-03 -2.972006425261497498e-02 -9.334827773272991180e-03 -2.317214943468570709e-02
1.034000000000000000e+03 2.196558237075805664e+00 -3.439200592041015625e+01 -1.346058957278728485e-02 -2.661504596471786499e-02 -1.202269084751605988e-02 -2.256502769887447357e-02
1.035000000000000000e+03 1.916549682617187500e+00 -3.169668197631835938e+01 -1.874093711376190186e-02 -6.261139176785945892e-03 -7.500622887164354324e-03 -6.171817425638437271e-03
1.036000000000000000e+03 3.149172306060791016e+00 -2.765011596679687500e+01 -1.348019577562808990e-02 -8.472722256556153297e-04 -4.298240412026643753e-03 -5.103030707687139511e-03
1.037000000000000000e+03 1.915974140167236328e+00 -2.346372413635253906e+01 -8.069073781371116638e-03 9.366313461214303970e-04 -2.139732707291841507e-03 -9.013706003315746784e-04
1.038000000000000000e+03 1.879131197929382324e+00 -2.626151275634765625e+01 -1.095133181661367416e-02 4.051297728437930346e-04 -3.163860645145177841e-03 -2.147895283997058868e-03
1.039000000000000000e+03 3.279850721359252930e+00 -2.060516929626464844e+01 6.846484728157520294e-03 2.390795998508110642e-04 2.125669270753860474e-03 1.914652297273278236e-03
1.040000000000000000e+03 6.429915428161621094e-01 -1.916547584533691406e+01 -3.994273953139781952e-03 4.993836046196520329e-04 -1.048467122018337250e-03 -1.186224326374940574e-04
1.041000000000000000e+03 1.930685520172119141e+00 -1.914478492736816406e+01 5.286407656967639923e-03 6.128900568000972271e-04 1.769789378158748150e-03 9.162314236164093018e-04
1.042000000000000000e+03 1.814647197723388672e+00 -1.628022384643554688e+01 4.509367980062961578e-03 1.723747991491109133e-04 1.404522801749408245e-03 2.547785115893930197e-04
1.043000000000000000e+03 5.746036767959594727e-01 -1.210051059722900391e+01 2.916868543252348900e-03 1.432632598152849823e-05 8.793585002422332764e-04 1.501878978160675615e-05
1.044000000000000000e+03 1.723002076148986816e+00 -1.209570121765136719e+01 -3.510194597765803337e-03 7.661168638151139021e-05 -1.030074898153543472e-03 3.252019814681261778e-05
1.045000000000000000e+03 5.821035861968994141e+00 -3.521294593811035156e+00 6.148659740574657917e-04 1.019023591652512550e-03 4.901668871752917767e-04 -1.936478220159187913e-04
1.046000000000000000e+03 3.491336584091186523e+00 -2.852319955825805664e+00 1.280994154512882233e-03 2.754790184553712606e-04 4.669419722631573677e-04 4.260874993633478880e-04
1.047000000000000000e+03 2.781434059143066406e+00 -2.881942272186279297e+00 -1.103248330764472485e-03 -1.523279788671061397e-04 -3.766728914342820644e-04 1.797974982764571905e-04
1.048000000000000000e+03 1.354361653327941895e+00 -3.452176570892333984e+00 -1.527961809188127518e-03 -9.776860679266974330e-05 -4.877191386185586452e-04 -3.714784397743642330e-04
1.049000000000000000e+03 4.626107513904571533e-01 5.015993118286132812e+00 -4.466397687792778015e-03 -4.462376818992197514e-04 -1.473790616728365421e-03 -4.615373036358505487e-04
1.050000000000000000e+03 2.410859584808349609e+00 4.379086971282958984e+00 1.196890880237333477e-04 3.289595770183950663e-04 1.345945929642766714e-04 1.781539642252027988e-03
1.051000000000000000e+03 1.690209746360778809e+00 1.045451354980468750e+01 4.783602431416511536e-03 2.042789856204763055e-05 1.441209111362695694e-03 -3.620620118454098701e-04
1.052000000000000000e+03 5.653319358825683594e-01 1.061057090759277344e+01 -4.512495826929807663e-03 -1.293839304707944393e-04 -1.392563921399414539e-03 5.138972192071378231e-04
1.053000000000000000e+03 1.787243485450744629e+00 1.326814460754394531e+01 5.237844306975603104e-03 4.881699169345665723e-06 1.572817796841263771e-03 -1.562524703331291676e-04
1.054000000000000000e+03 1.884542822837829590e+00 2.035044479370117188e+01 -6.224586162716150284e-03 -3.382678551133722067e-05 -1.877523958683013916e-03 -1.103815811802633107e-04
1.055000000000000000e+03 1.893276453018188477e+00 1.894297599792480469e+01 6.203729659318923950e-03 -2.390508961980231106e-05 1.853947294875979424e-03 -1.553586625959724188e-04
1.056000000000000000e+03 1.883841156959533691e+00 2.454356193542480469e+01 6.675784010440111160e-03 1.190631184726953506e-03 2.359924605116248131e-03 -1.143646310083568096e-03
1.057000000000000000e+03 2.424326133728027344e+01 3.807611465454101562e+01 9.493536949157714844e-01 3.648218154907226562e+00 1.379271626472473145e+00 -2.222609043121337891e+00
1.058000000000000000e+03 2.298877525329589844e+01 3.846297073364257812e+01 6.577196121215820312e-01 7.840893864631652832e-01 4.325426816940307617e-01 -7.106858491897583008e-01
1.059000000000000000e+03 2.283120727539062500e+01 3.897518157958984375e+01 6.889385581016540527e-01 1.122985363006591797e+00 5.435771346092224121e-01 -8.702254295349121094e-01
1.060000000000000000e+03 2.203725242614746094e+01 3.072165489196777344e+01 -7.964993268251419067e-02 3.272468566894531250e+00 9.578456282615661621e-01 1.172040939331054688e+00
1.061000000000000000e+03 2.479020118713378906e+01 3.405916595458984375e+01 6.411095857620239258e-01 7.547564983367919922e+00 2.456602334976196289e+00 3.257153272628784180e+00
1.062000000000000000e+03 2.526168441772460938e+01 3.471588897705078125e+01 7.552795410156250000e-01 1.076056861877441406e+01 3.454754352569580078e+00 3.570084333419799805e+00
1.063000000000000000e+03 2.611269760131835938e+01 3.790900039672851562e+01 -1.453688591718673706e-01 1.342563724517822266e+01 3.984080553054809570e+00 2.327905446290969849e-01
1.064000000000000000e+03 2.568291854858398438e+01 3.840830993652343750e+01 -6.965894103050231934e-01 1.139575004577636719e+01 3.209748029708862305e+00 -1.212005257606506348e+00
1.065000000000000000e+03 2.604253578186035156e+01 3.440348052978515625e+01 3.126893639564514160e-01 1.184074401855468750e+01 3.646029949188232422e+00 1.355722069740295410e+00
1.066000000000000000e+03 2.651802635192871094e+01 3.458535385131835938e+01 9.593358635902404785e-01 1.227990150451660156e+01 3.971771240234375000e+00 2.108363807201385498e-01
1.067000000000000000e+03 2.562703323364257812e+01 3.452790832519531250e+01 3.460197448730468750e-01 1.164670848846435547e+01 3.597818613052368164e+00 2.357136487960815430e+00
1.068000000000000000e+03 2.686629676818847656e+01 3.827856445312500000e+01 5.284701585769653320e-01 1.190248107910156250e+01 3.729285478591918945e+00 1.106032490730285645e+00
1.069000000000000000e+03 2.741981124877929688e+01 3.672144699096679688e+01 4.134207725524902344e+00 1.088375854492187500e+01 4.505389690399169922e+00 1.246024847030639648e+00
1.070000000000000000e+03 2.721288108825683594e+01 3.580897903442382812e+01 4.278039932250976562e+00 1.119474697113037109e+01 4.641836166381835938e+00 -3.241681158542633057e-01
1.071000000000000000e+03 2.726257705688476562e+01 3.623097991943359375e+01 4.731453418731689453e+00 1.093717956542968750e+01 4.700590133666992188e+00 3.958604335784912109e-01
1.072000000000000000e+03 2.496735572814941406e+01 3.830747604370117188e+01 -5.529412627220153809e-02 8.218071937561035156e+00 2.448833227157592773e+00 -2.850762128829956055e+00
1.073000000000000000e+03 2.756408882141113281e+01 3.580073928833007812e+01 3.841685056686401367e+00 1.068289470672607422e+01 4.357374191284179688e+00 -1.897649317979812622e-01
1.074000000000000000e+03 2.696939277648925781e+01 3.630408477783203125e+01 5.337544441223144531e+00 1.145591640472412109e+01 5.038038253784179688e+00 5.716018676757812500e-01
1.075000000000000000e+03 2.530538749694824219e+01 3.432181167602539062e+01 3.406222760677337646e-01 1.007404232025146484e+01 3.124399185180664062e+00 2.975689888000488281e+00
1.076000000000000000e+03 2.301926231384277344e+01 3.478480911254882812e+01 1.412654995918273926e+00 1.307569503784179688e+00 8.160673379898071289e-01 1.219907641410827637e+00
1.077000000000000000e+03 2.300100517272949219e+01 3.426039505004882812e+01 1.259926795959472656e+00 2.106972694396972656e+00 1.010069847106933594e+00 1.532025694847106934e+00
1.078000000000000000e+03 2.231934356689453125e+01 3.894514465332031250e+01 4.476735591888427734e-01 1.096160292625427246e+00 4.631501436233520508e-01 -5.868541002273559570e-01
1.079000000000000000e+03 2.233134651184082031e+01 3.334592437744140625e+01 6.529472470283508301e-01 1.920408010482788086e+00 7.720065712928771973e-01 1.230123877525329590e+00
1.080000000000000000e+03 2.250512504577636719e+01 3.151672554016113281e+01 -1.052051689475774765e-02 3.393041372299194336e+00 1.014756202697753906e+00 1.460250735282897949e+00
1.081000000000000000e+03 1.385738658905029297e+01 2.704160213470458984e+00 2.953757764771580696e-03 -1.249870168976485729e-03 5.111662321723997593e-04 6.860072608105838299e-04
1.082000000000000000e+03 3.800421476364135742e+00 2.745668888092041016e+00 -2.220741473138332367e-03 -6.849737255834043026e-04 -8.717145537957549095e-04 1.445241650799289346e-04
1.083000000000000000e+03 6.013446331024169922e+00 2.641805171966552734e+00 1.272699679248034954e-03 1.112199737690389156e-03 7.154698250815272331e-04 -1.347295619780197740e-04
1.084000000000000000e+03 5.990528583526611328e+00 3.419395685195922852e+00 -1.416651066392660141e-03 -1.363025396130979061e-03 -8.339029154740273952e-04 1.434989972040057182e-04
1.085000000000000000e+03 6.717998981475830078e+00 3.390863895416259766e+00 1.426625880412757397e-03 1.372851664200425148e-03 8.398432401008903980e-04 2.522793074604123831e-04
1.086000000000000000e+03 8.907064437866210938e+00 3.359422683715820312e+00 -2.222900046035647392e-03 -7.379953749477863312e-04 -8.882686379365622997e-04 -1.196359284222126007e-03
1.087000000000000000e+03 6.740746974945068359e+00 2.625845670700073242e+00 -1.241866732016205788e-03 -1.108959433622658253e-03 -7.052478613331913948e-04 -1.442786888219416142e-04
1.088000000000000000e+03 7.439232349395751953e+00 3.372563600540161133e+00 -1.523980405181646347e-03 -1.269874279387295246e-03 -8.381563820876181126e-04 -5.597114795818924904e-04
1.089000000000000000e+03 4.493470191955566406e+00 3.554525375366210938e+00 -2.233615610748529434e-03 -8.856104686856269836e-04 -9.357677772641181946e-04 6.701852544210851192e-04
1.090000000000000000e+03 4.536238193511962891e+00 2.716768264770507812e+00 1.779606216587126255e-03 8.210499072447419167e-04 7.801968022249639034e-04 -4.898962215520441532e-04
1.091000000000000000e+03 1.824610590934753418e+00 2.602678775787353516e+00 1.520745106972754002e-03 9.838243713602423668e-04 7.513708551414310932e-04 7.038329495117068291e-04
1.092000000000000000e+03 1.112855243682861328e+01 2.518635034561157227e+00 -2.505898475646972656e-03 3.711647586897015572e-04 -6.404201267287135124e-04 4.095210169907659292e-04
1.093000000000000000e+03 1.118824005126953125e+01 3.248255014419555664e+00 3.689199918881058693e-03 -7.934991153888404369e-04 8.687102235853672028e-04 -3.207235131412744522e-04
1.094000000000000000e+03 1.979427719116210938e+01 3.897494125366210938e+01 -2.057533264160156250e-01 -2.677813172340393066e-01 -1.420603990554809570e-01 2.147713154554367065e-01
1.095000000000000000e+03 2.119206809997558594e+01 3.876377487182617188e+01 -3.728222548961639404e-01 9.859957695007324219e-01 1.839520484209060669e-01 1.079496741294860840e-01
1.096000000000000000e+03 1.255217266082763672e+01 2.807460784912109375e+00 8.317983010783791542e-04 3.130981640424579382e-04 3.434689424466341734e-04 -1.146583468653261662e-03
1.097000000000000000e+03 9.592865943908691406e+00 -3.411101341247558594e+00 -1.897444017231464386e-03 -1.512569142505526543e-04 -6.146102678030729294e-04 8.600915316492319107e-04
1.098000000000000000e+03 1.112258434295654297e+01 -4.050936222076416016e+00 3.481865162029862404e-03 -4.767991486005485058e-04 9.015197865664958954e-04 -2.021285472437739372e-04
1.099000000000000000e+03 1.362076187133789062e+01 -4.004014968872070312e+00 -2.638402860611677170e-03 -3.023119061253964901e-04 -8.822144009172916412e-04 6.795059889554977417e-04
1.100000000000000000e+03 1.038315296173095703e+01 -4.165469646453857422e+00 -2.833346137776970863e-03 9.099103044718503952e-05 -8.227065554820001125e-04 9.249098366126418114e-04
1.101000000000000000e+03 1.240533542633056641e+01 -2.703036069869995117e+00 1.774315314833074808e-04 5.620345473289489746e-04 2.218398149125277996e-04 -2.401555684627965093e-05
1.102000000000000000e+03 1.291593742370605469e+01 3.228929519653320312e+00 -4.583863847074098885e-05 7.578290533274412155e-04 2.135971299139782786e-04 2.106199273839592934e-03
1.103000000000000000e+03 1.351812553405761719e+01 4.241766452789306641e+00 4.822061397135257721e-03 3.037053284060675651e-05 1.455729594454169273e-03 1.281567820115014911e-04
1.104000000000000000e+03 6.579205036163330078e+00 -3.480863332748413086e+00 -8.495756192132830620e-04 -8.703790372237563133e-04 -5.159864085726439953e-04 4.589760792441666126e-04
1.105000000000000000e+03 2.945124149322509766e+00 -7.853203773498535156e+00 -3.200803417712450027e-03 2.627848007250577211e-04 -8.814056054688990116e-04 -2.991257351823151112e-04
1.106000000000000000e+03 7.343249797821044922e+00 -5.058728218078613281e+00 1.576462760567665100e-03 7.964884862303733826e-04 7.118853973224759102e-04 -3.354569780640304089e-04
1.107000000000000000e+03 5.780260562896728516e+00 -2.718500137329101562e+00 -5.613554967567324638e-04 -8.752749999985098839e-04 -4.309891373850405216e-04 3.381813075975514948e-05
1.108000000000000000e+03 7.331365585327148438e+00 -3.462112188339233398e+00 1.057037152349948883e-03 7.332818931899964809e-04 5.370957078412175179e-04 -6.097101140767335892e-04
1.109000000000000000e+03 2.680814266204833984e+00 -3.737967014312744141e+00 2.296652877703309059e-03 -3.133662394247949123e-04 5.949860205873847008e-04 -1.167558730230666697e-04
1.110000000000000000e+03 5.158998966217041016e+00 -4.414878368377685547e+00 3.740006068255752325e-04 1.352684572339057922e-03 5.180055741220712662e-04 -9.953328117262572050e-06
1.111000000000000000e+03 2.122823715209960938e+00 -3.127771139144897461e+00 3.349549078848212957e-04 5.144772585481405258e-04 2.548296470195055008e-04 3.282346588093787432e-04
1.112000000000000000e+03 1.550897955894470215e+00 -4.899472713470458984e+00 1.854728790931403637e-03 7.425898365909233689e-05 5.786963156424462795e-04 2.890481555368751287e-04
1.113000000000000000e+03 8.842674255371093750e+00 -3.436799526214599609e+00 1.500931917689740658e-03 4.243806470185518265e-04 5.775937461294233799e-04 -8.598975255154073238e-04
1.114000000000000000e+03 1.161782073974609375e+01 1.607749557495117188e+01 9.400733746588230133e-03 1.529828878119587898e-03 3.279168857261538506e-03 -1.913113228511065245e-04
1.115000000000000000e+03 1.234960365295410156e+01 1.044573211669921875e+01 5.106817930936813354e-03 1.432397868484258652e-03 1.961764646694064140e-03 1.213847426697611809e-03
1.116000000000000000e+03 2.263933181762695312e+01 3.274854660034179688e+01 2.222193926572799683e-01 2.757988691329956055e+00 8.940623998641967773e-01 1.431888580322265625e+00
1.117000000000000000e+03 1.206687927246093750e+01 4.091073608398437500e+01 3.460890613496303558e-03 -6.536503136157989502e-02 -1.857124082744121552e-02 -5.928809288889169693e-03
1.118000000000000000e+03 1.213612937927246094e+01 2.683435821533203125e+01 1.974260620772838593e-02 1.290887594223022461e-03 6.310048047453165054e-03 5.799679085612297058e-03
1.119000000000000000e+03 2.283428001403808594e+01 -1.238882732391357422e+01 1.083690375089645386e-01 7.184103488922119141e+00 2.187741756439208984e+00 2.404955178499221802e-01
1.120000000000000000e+03 2.329643821716308594e+01 -9.452044963836669922e-02 -1.636761054396629333e-02 7.419881820678710938e+00 2.221054315567016602e+00 2.840608656406402588e-01
1.121000000000000000e+03 6.745977401733398438e-01 3.011262416839599609e+00 -1.936759217642247677e-03 5.924461875110864639e-04 -4.032939323224127293e-04 -3.011208726093173027e-03
1.122000000000000000e+03 2.426898956298828125e+01 -6.770077705383300781e+00 -4.761595651507377625e-02 7.281891822814941406e+00 2.170282840728759766e+00 2.570063173770904541e-01
1.123000000000000000e+03 2.292373466491699219e+01 -8.183896064758300781e+00 -1.528849592432379723e-03 7.204749107360839844e+00 2.160966157913208008e+00 2.902423143386840820e-01
1.124000000000000000e+03 2.250830650329589844e+01 -1.919405174255371094e+01 -9.498747438192367554e-02 6.933492660522460938e+00 2.051551580429077148e+00 2.434106022119522095e-01
1.125000000000000000e+03 2.185539054870605469e+01 -2.754880905151367188e+00 6.813158094882965088e-02 7.171811103820800781e+00 2.171982765197753906e+00 2.621073126792907715e-01
1.126000000000000000e+03 2.315813636779785156e+01 -2.788779258728027344e+00 -2.213539928197860718e-02 7.295726299285888672e+00 2.182077407836914062e+00 2.767812311649322510e-01
1.127000000000000000e+03 1.178950595855712891e+01 3.225279998779296875e+01 3.268807753920555115e-02 -3.076910227537155151e-02 5.756926839239895344e-04 1.300176978111267090e-02
1.128000000000000000e+03 1.399486446380615234e+01 3.383768844604492188e+01 -1.909607276320457458e-02 -1.980883628129959106e-02 -1.167147327214479446e-02 3.114522807300090790e-02
1.129000000000000000e+03 1.321691513061523438e+01 2.143471908569335938e+01 -1.568318158388137817e-02 -4.772752581629902124e-04 -4.848137497901916504e-03 -1.591363456100225449e-03
1.130000000000000000e+03 1.176792526245117188e+01 1.738743019104003906e+01 -1.106972713023424149e-02 -5.425576237030327320e-04 -3.483685199171304703e-03 -1.462725107558071613e-03
1.131000000000000000e+03 2.258269882202148438e+01 -1.783523750305175781e+01 -1.129136830568313599e-01 7.033605575561523438e+00 2.076207637786865234e+00 2.139332443475723267e-01
1.132000000000000000e+03 1.179999732971191406e+01 1.410908699035644531e+01 -4.242218565195798874e-03 -6.553821731358766556e-04 -1.469280221499502659e-03 -3.660618560388684273e-03
1.133000000000000000e+03 1.356506633758544922e+01 6.546642303466796875e+00 4.655539523810148239e-03 2.956827811431139708e-04 1.485366607084870338e-03 1.088291264750296250e-05
1.134000000000000000e+03 1.048632621765136719e+01 4.930851459503173828e+00 -4.638709127902984619e-03 -1.662368304096162319e-04 -1.441483735106885433e-03 -1.580531476065516472e-03
1.135000000000000000e+03 1.109436702728271484e+01 1.266902160644531250e+01 -2.666688989847898483e-03 -3.172392491251230240e-03 -1.751724397763609886e-03 -1.934566069394350052e-03
1.136000000000000000e+03 1.356843471527099609e+01 5.324320793151855469e+00 -4.323345609009265900e-03 -7.286191248567774892e-05 -1.318862196058034897e-03 5.090067134005948901e-05
1.137000000000000000e+03 8.906146049499511719e+00 4.120356559753417969e+00 2.402865095064043999e-03 1.069659134373068810e-03 1.041757292114198208e-03 1.673943595960736275e-03
1.138000000000000000e+03 7.173084259033203125e+00 -3.408554077148437500e+01 -2.814023569226264954e-02 3.180220350623130798e-02 1.098589622415602207e-03 -1.459786109626293182e-02
1.139000000000000000e+03 1.180954742431640625e+01 2.002195167541503906e+01 -1.280525699257850647e-02 -1.348895602859556675e-04 -3.882043994963169098e-03 -1.717490493319928646e-03
1.140000000000000000e+03 7.815670013427734375e+01 -3.576219177246093750e+01 -3.834846662357449532e-03 8.132619857788085938e+00 2.438635587692260742e+00 -9.850097558228299022e-05
1.141000000000000000e+03 7.503965759277343750e+01 -3.291304397583007812e+01 -6.121423561125993729e-03 8.047873497009277344e+00 2.412525653839111328e+00 -1.828773878514766693e-02
1.142000000000000000e+03 7.712535095214843750e+01 -3.581575393676757812e+01 -6.399965379387140274e-03 8.109436035156250000e+00 2.430910825729370117e+00 -4.223040770739316940e-03
1.143000000000000000e+03 7.531945037841796875e+01 -2.211265373229980469e+01 -4.328547511249780655e-03 8.008449554443359375e+00 2.401236295700073242e+00 -3.439662605524063110e-02
1.144000000000000000e+03 7.808589935302734375e+01 -2.902406120300292969e+01 -9.631320717744529247e-04 8.106051445007324219e+00 2.431526422500610352e+00 -1.145242527127265930e-02
1.145000000000000000e+03 7.525604248046875000e+01 1.540979385375976562e+01 -2.237616339698433876e-03 7.593929290771484375e+00 2.277507543563842773e+00 -9.288588911294937134e-02
1.146000000000000000e+03 7.660786437988281250e+01 1.541858196258544922e+01 -1.574639929458498955e-03 7.578341007232666016e+00 2.273029804229736328e+00 -7.017874717712402344e-02
1.147000000000000000e+03 7.607503509521484375e+01 3.510306930541992188e+01 1.688925363123416901e-02 7.295181274414062500e+00 2.193621158599853516e+00 -4.075942188501358032e-02
1.148000000000000000e+03 7.799789428710937500e+01 -2.217193984985351562e+01 -6.072594551369547844e-04 8.063351631164550781e+00 2.418823242187500000e+00 -1.627978123724460602e-02
1.149000000000000000e+03 7.670856475830078125e+01 -2.348760032653808594e+01 -1.695663086138665676e-03 8.044794082641601562e+00 2.412929534912109375e+00 -2.339220792055130005e-02
1.150000000000000000e+03 7.681533050537109375e+01 -3.021664237976074219e+01 -2.425484824925661087e-03 8.080309867858886719e+00 2.423365354537963867e+00 -1.609111763536930084e-02
1.151000000000000000e+03 7.684600830078125000e+01 -2.888587570190429688e+01 -1.695978105999529362e-03 8.076137542724609375e+00 2.422332525253295898e+00 -1.625988259911537170e-02
1.152000000000000000e+03 7.540686035156250000e+01 -2.347109222412109375e+01 -4.425284918397665024e-03 8.018807411193847656e+00 2.404314517974853516e+00 -3.115066885948181152e-02
1.153000000000000000e+03 7.681475830078125000e+01 -2.756780433654785156e+01 -1.653983024880290031e-03 8.070397377014160156e+00 2.420622825622558594e+00 -1.852715760469436646e-02
1.154000000000000000e+03 7.675487518310546875e+01 -2.485301780700683594e+01 -2.243367023766040802e-03 8.053866386413574219e+00 2.415486812591552734e+00 -2.202817238867282867e-02
1.155000000000000000e+03 7.659482574462890625e+01 -3.303377914428710938e+01 -4.572386387735605240e-03 8.090565681457519531e+00 2.425797939300537109e+00 -1.339843310415744781e-02
1.156000000000000000e+03 7.673566436767578125e+01 -3.449120712280273438e+01 -6.319758947938680649e-03 8.098481178283691406e+00 2.427648305892944336e+00 -7.705183699727058411e-03
1.157000000000000000e+03 7.455751800537109375e+01 -3.978212356567382812e+01 1.730361545924097300e-04 8.056928634643554688e+00 2.417130708694458008e+00 -1.107721962034702301e-02
1.158000000000000000e+03 7.791117858886718750e+01 2.243614006042480469e+01 4.260047280695289373e-04 7.424442768096923828e+00 2.227460622787475586e+00 -4.616462811827659607e-02
1.159000000000000000e+03 7.647514343261718750e+01 1.973922920227050781e+01 2.866983995772898197e-04 7.502858638763427734e+00 2.250943660736083984e+00 -7.357946783304214478e-02
1.160000000000000000e+03 7.504732513427734375e+01 2.273660469055175781e+01 2.359197475016117096e-03 7.482197284698486328e+00 2.245367050170898438e+00 -9.573879092931747437e-02
1.161000000000000000e+03 7.647183990478515625e+01 2.116332054138183594e+01 2.533400256652384996e-04 7.478132247924804688e+00 2.243515729904174805e+00 -7.331013679504394531e-02
1.162000000000000000e+03 7.668792724609375000e+01 1.259384441375732422e+01 -2.078087069094181061e-03 7.626981735229492188e+00 2.287471055984497070e+00 -6.630326062440872192e-02
1.163000000000000000e+03 7.548407745361328125e+01 8.467405319213867188e+00 -3.931703977286815643e-03 7.698481082916259766e+00 2.308364629745483398e+00 -8.011060208082199097e-02
1.164000000000000000e+03 7.665251922607421875e+01 1.400036907196044922e+01 -1.448429073207080364e-03 7.602765083312988281e+00 2.280395030975341797e+00 -6.831742823123931885e-02
1.165000000000000000e+03 7.654138946533203125e+01 2.393934631347656250e+01 3.221709746867418289e-03 7.427666187286376953e+00 2.229266405105590820e+00 -7.021484524011611938e-02
1.166000000000000000e+03 7.792161560058593750e+01 2.661942672729492188e+01 1.174495671875774860e-03 7.344910621643066406e+00 2.203825473785400391e+00 -4.191485047340393066e-02
1.167000000000000000e+03 7.661067199707031250e+01 2.809074401855468750e+01 3.112111240625381470e-03 7.357090950012207031e+00 2.208060979843139648e+00 -6.135749071836471558e-02
1.168000000000000000e+03 7.798094940185546875e+01 -2.079624748229980469e+01 -1.163657172583043575e-03 8.052931785583496094e+00 2.415530443191528320e+00 -1.744763925671577454e-02
1.169000000000000000e+03 7.666226959228515625e+01 -2.212014007568359375e+01 -2.587338211014866829e-03 8.035326004028320312e+00 2.409821748733520508e+00 -2.544028684496879578e-02
1.170000000000000000e+03 7.534641265869140625e+01 -8.244533538818359375e+00 -3.416792955249547958e-03 7.900081157684326172e+00 2.368999481201171875e+00 -5.323649197816848755e-02
1.171000000000000000e+03 7.797037506103515625e+01 -1.522983264923095703e+01 -1.038879156112670898e-03 8.005889892578125000e+00 2.401455402374267578e+00 -2.135280333459377289e-02
1.172000000000000000e+03 7.509780120849609375e+01 -1.206447124481201172e+00 -4.681445192545652390e-03 7.823457717895507812e+00 2.345632791519165039e+00 -6.747612357139587402e-02
1.173000000000000000e+03 7.666790008544921875e+01 -6.839495182037353516e+00 -1.901298877783119678e-03 7.901597023010253906e+00 2.369908571243286133e+00 -4.177810624241828918e-02
1.174000000000000000e+03 7.523477935791015625e+01 -1.514872074127197266e+01 -3.837839001789689064e-03 7.958179950714111328e+00 2.386302709579467773e+00 -4.464782401919364929e-02
1.175000000000000000e+03 7.805110168457031250e+01 5.678175926208496094e+00 -9.358625393360853195e-04 7.741369724273681641e+00 2.322130203247070312e+00 -3.638685122132301331e-02
1.176000000000000000e+03 7.549202728271484375e+01 5.815233230590820312e+00 -4.154084250330924988e-03 7.736568927764892578e+00 2.319724559783935547e+00 -7.551381736993789673e-02
1.177000000000000000e+03 7.630392456054687500e+01 3.710560226440429688e+01 1.483481377363204956e-02 7.255292892456054688e+00 2.181038379669189453e+00 -2.943046949803829193e-02
1.178000000000000000e+03 7.775377655029296875e+01 3.659951019287109375e+01 6.909770425409078598e-03 7.199688911437988281e+00 2.161979675292968750e+00 -1.155000831931829453e-02
1.179000000000000000e+03 7.805997467041015625e+01 7.058386325836181641e+00 -8.225279743783175945e-04 7.717978477478027344e+00 2.315146684646606445e+00 -3.744446858763694763e-02
1.180000000000000000e+03 7.676638793945312500e+01 5.745481967926025391e+00 -2.304815920069813728e-03 7.738424777984619141e+00 2.320835828781127930e+00 -5.701414868235588074e-02
1.181000000000000000e+03 7.659832000732421875e+01 -2.626932621002197266e+00 -2.525747986510396004e-03 7.852004528045654297e+00 2.354843616485595703e+00 -4.779397696256637573e-02
1.182000000000000000e+03 7.665103149414062500e+01 -9.629221916198730469e+00 -1.736356527544558048e-03 7.930573940277099609e+00 2.378651380538940430e+00 -3.884889185428619385e-02
1.183000000000000000e+03 7.659506225585937500e+01 -1.658020782470703125e+01 -2.233936917036771774e-03 7.993031501770019531e+00 2.397239208221435547e+00 -3.214665502309799194e-02
1.184000000000000000e+03 7.685815429687500000e+01 3.351042556762695312e+01 1.203480735421180725e-02 7.281233310699462891e+00 2.187980413436889648e+00 -4.015836864709854126e-02
1.185000000000000000e+03 7.406658935546875000e+01 3.467046356201171875e+01 2.764847315847873688e-02 7.361170291900634766e+00 2.216645717620849609e+00 -5.837398767471313477e-02
1.186000000000000000e+03 7.620391845703125000e+01 3.202054214477539062e+01 1.104920357465744019e-02 7.322720050811767578e+00 2.200130701065063477e+00 -5.488563701510429382e-02
1.187000000000000000e+03 7.650679779052734375e+01 1.829651069641113281e+01 -4.408240201883018017e-04 7.527966022491455078e+00 2.258257627487182617e+00 -7.308876514434814453e-02
1.188000000000000000e+03 7.674939727783203125e+01 9.824742317199707031e+00 -2.166853053495287895e-03 7.673297882080078125e+00 2.301339387893676758e+00 -6.232502311468124390e-02
1.189000000000000000e+03 7.799604034423828125e+01 -6.866386890411376953e+00 -1.018944894894957542e-03 7.918244361877441406e+00 2.375167608261108398e+00 -2.690478414297103882e-02
1.190000000000000000e+03 7.666172027587890625e+01 -8.230995178222656250e+00 -2.214983571320772171e-03 7.916313171386718750e+00 2.374229431152343750e+00 -4.047454521059989929e-02
1.191000000000000000e+03 7.797813415527343750e+01 1.511245131492614746e+00 -9.655349422246217728e-04 7.806848049163818359e+00 2.341764926910400391e+00 -3.375906497240066528e-02
1.192000000000000000e+03 7.656961059570312500e+01 -1.214875340461730957e+00 -2.342228544875979424e-03 7.834521770477294922e+00 2.349653959274291992e+00 -4.989988356828689575e-02
1.193000000000000000e+03 7.660961151123046875e+01 -1.518580436706542969e+01 -1.680341898463666439e-03 7.981564521789550781e+00 2.393965244293212891e+00 -3.327197581529617310e-02
1.194000000000000000e+03 7.859683990478515625e+01 3.469084548950195312e+01 5.099396687000989914e-03 7.194008827209472656e+00 2.159732580184936523e+00 -9.319939650595188141e-03
1.195000000000000000e+03 7.672126007080078125e+01 4.370769023895263672e+00 -2.408117521554231644e-03 7.759024143218994141e+00 2.326984882354736328e+00 -5.570296943187713623e-02
1.196000000000000000e+03 7.665813446044921875e+01 2.981585502624511719e+00 -2.677148440852761269e-03 7.779187679290771484e+00 2.332953214645385742e+00 -5.473002791404724121e-02
1.197000000000000000e+03 7.666037750244140625e+01 -5.447285652160644531e+00 -2.385844243690371513e-03 7.886057853698730469e+00 2.365101575851440430e+00 -4.370783641934394836e-02
1.198000000000000000e+03 7.663519287109375000e+01 -4.040701389312744141e+00 -2.128602238371968269e-03 7.869304656982421875e+00 2.360152959823608398e+00 -4.564936459064483643e-02
1.199000000000000000e+03 7.663341522216796875e+01 -1.241784572601318359e+01 -1.747408416122198105e-03 7.957318305969238281e+00 2.386671304702758789e+00 -3.599892929196357727e-02
1.200000000000000000e+03 7.662316131591796875e+01 -1.380188751220703125e+01 -2.223400631919503212e-03 7.969727993011474609e+00 2.390251398086547852e+00 -3.479100391268730164e-02
1.201000000000000000e+03 7.664168548583984375e+01 -1.102552795410156250e+01 -2.201529685407876968e-03 7.944157600402832031e+00 2.382586717605590820e+00 -3.763571009039878845e-02
1.202000000000000000e+03 7.662195587158203125e+01 -2.075390434265136719e+01 -2.024318091571331024e-03 8.025300025939941406e+00 2.406982898712158203e+00 -2.740306593477725983e-02
1.203000000000000000e+03 7.658717346191406250e+01 -1.797904968261718750e+01 -1.650814083404839039e-03 8.004031181335449219e+00 2.400713920593261719e+00 -3.042120672762393951e-02
1.204000000000000000e+03 7.520217895507812500e+01 -1.654253005981445312e+01 -3.277814481407403946e-03 7.968153476715087891e+00 2.389462709426879883e+00 -4.277737066149711609e-02
1.205000000000000000e+03 2.222445678710937500e+01 4.142108917236328125e+00 2.232732474803924561e-01 7.680513381958007812e+00 2.371135950088500977e+00 2.801096141338348389e-01
1.206000000000000000e+03 2.358331108093261719e+01 9.687312126159667969e+00 1.973947696387767792e-02 7.480237960815429688e+00 2.249993324279785156e+00 2.244927883148193359e-01
1.207000000000000000e+03 2.268898391723632812e+01 -2.599105834960937500e+01 -5.911272391676902771e-02 6.916627883911132812e+00 2.057254552841186523e+00 2.016654461622238159e-01
1.208000000000000000e+03 2.106680870056152344e+01 -2.349755287170410156e+01 -4.863506183028221130e-02 6.838583469390869141e+00 2.036984443664550781e+00 1.639898270368576050e-01
1.209000000000000000e+03 2.187408065795898438e+01 2.946795463562011719e+01 -1.351104378700256348e-01 3.678138256072998047e+00 1.062908411026000977e+00 9.637712240219116211e-01
1.210000000000000000e+03 2.358612823486328125e+01 1.251682281494140625e+01 -1.337023638188838959e-02 7.326174736022949219e+00 2.193841218948364258e+00 2.261549979448318481e-01
1.211000000000000000e+03 1.183470344543457031e+01 -2.625782203674316406e+01 8.604755625128746033e-03 2.535234903916716576e-03 3.341997042298316956e-03 2.723378129303455353e-04
1.212000000000000000e+03 2.195320510864257812e+01 2.688656044006347656e+01 -9.439948201179504395e-02 4.959075927734375000e+00 1.459402918815612793e+00 6.594305038452148438e-01
1.213000000000000000e+03 2.279771423339843750e+01 2.931262397766113281e+01 -2.621977031230926514e-01 4.773716449737548828e+00 1.353455543518066406e+00 1.346442103385925293e+00
1.214000000000000000e+03 2.210398483276367188e+01 2.552279281616210938e+01 -8.379070460796356201e-02 5.470382213592529297e+00 1.615977406501770020e+00 5.713098645210266113e-01
1.215000000000000000e+03 2.294733619689941406e+01 2.701213073730468750e+01 -2.097321003675460815e-01 5.464074611663818359e+00 1.576302766799926758e+00 9.732764363288879395e-01
1.216000000000000000e+03 1.360060214996337891e+01 -6.615172863006591797e+00 -3.921579103916883469e-03 -2.549995260778814554e-04 -1.252973568625748158e-03 4.129676381126046181e-04
1.217000000000000000e+03 2.230255699157714844e+01 1.827452850341796875e+01 -2.923772297799587250e-02 6.799085617065429688e+00 2.030954360961914062e+00 2.272700369358062744e-01
1.218000000000000000e+03 2.518338775634765625e+01 2.240601730346679688e+01 -2.738603055477142334e-01 6.895633697509765625e+00 1.986531972885131836e+00 7.147530317306518555e-01
1.219000000000000000e+03 2.320842933654785156e+01 2.571425628662109375e+01 -2.133232653141021729e-01 5.879152297973632812e+00 1.699748635292053223e+00 8.609737753868103027e-01
1.220000000000000000e+03 2.235247611999511719e+01 2.116197967529296875e+01 -5.203823372721672058e-02 6.431855201721191406e+00 1.913945078849792480e+00 3.421786129474639893e-01
1.221000000000000000e+03 2.374847030639648438e+01 2.267247962951660156e+01 -1.713867038488388062e-01 6.518310070037841797e+00 1.904077053070068359e+00 6.273293495178222656e-01
1.222000000000000000e+03 2.364133644104003906e+01 2.108732032775878906e+01 -1.226510927081108093e-01 6.673543930053710938e+00 1.965267777442932129e+00 4.929709732532501221e-01
1.223000000000000000e+03 2.480950355529785156e+01 1.801226043701171875e+01 -1.121432036161422729e-01 7.072679519653320312e+00 2.088160991668701172e+00 4.283927083015441895e-01
1.224000000000000000e+03 1.314141273498535156e+01 -1.599639225006103516e+01 5.847246386110782623e-03 1.290690968744456768e-03 2.141381148248910904e-03 -1.716300612315535545e-03
1.225000000000000000e+03 1.141386890411376953e+01 -1.822019577026367188e+01 -3.776130266487598419e-03 -1.620934344828128815e-03 -1.619119313545525074e-03 1.360069611109793186e-03
1.226000000000000000e+03 1.183602809906005859e+01 -1.568859958648681641e+01 -4.338973201811313629e-03 -1.670438912697136402e-03 -1.802823739126324654e-03 1.017916947603225708e-03
1.227000000000000000e+03 1.250911617279052734e+01 -9.218245506286621094e+00 4.035264253616333008e-03 3.822162689175456762e-04 1.325244200415909290e-03 -6.676316843368113041e-04
1.228000000000000000e+03 1.355145645141601562e+01 -9.275104522705078125e+00 -4.544847179204225540e-03 -2.491469203960150480e-04 -1.438198261894285679e-03 5.409026052802801132e-04
1.229000000000000000e+03 1.227405261993408203e+01 -1.179905128479003906e+01 4.422343801707029343e-03 5.011086468584835529e-04 1.477035810239613056e-03 -6.853619706816971302e-04
1.230000000000000000e+03 2.357535362243652344e+01 1.393329143524169922e+01 -2.232644334435462952e-02 7.239046573638916016e+00 2.165015935897827148e+00 2.416730672121047974e-01
1.231000000000000000e+03 2.356404685974121094e+01 1.533552169799804688e+01 -3.743077069520950317e-02 7.145328521728515625e+00 2.132369279861450195e+00 2.646503150463104248e-01
1.232000000000000000e+03 2.358980178833007812e+01 1.110287761688232422e+01 5.616072099655866623e-03 7.408279418945312500e+00 2.224168777465820312e+00 2.228623330593109131e-01
1.233000000000000000e+03 1.104391670227050781e+01 -1.940004158020019531e+01 3.827393054962158203e-03 -1.090212259441614151e-03 8.211542153730988503e-04 -2.752126427367329597e-03
1.234000000000000000e+03 1.190185260772705078e+01 -2.392184829711914062e+01 9.059353731572628021e-03 3.857448697090148926e-03 3.875040682032704353e-03 3.467215457931160927e-03
1.235000000000000000e+03 2.354512596130371094e+01 6.848251819610595703e+00 1.185503751039505005e-01 7.574455261230468750e+00 2.307901620864868164e+00 2.766546607017517090e-01
1.236000000000000000e+03 2.297606658935546875e+01 -6.815396785736083984e+00 -7.910375297069549561e-02 7.263010978698730469e+00 2.155172348022460938e+00 2.984441816806793213e-01
1.237000000000000000e+03 2.303429412841796875e+01 -5.465332984924316406e+00 -9.049588441848754883e-02 7.274585247039794922e+00 2.155226707458496094e+00 2.451021969318389893e-01
1.238000000000000000e+03 2.309310340881347656e+01 -4.127058982849121094e+00 -4.791280999779701233e-02 7.260080814361572266e+00 2.163650274276733398e+00 2.411634325981140137e-01
1.239000000000000000e+03 3.167761802673339844e+00 2.994985389709472656e+01 -7.519432809203863144e-03 2.978478092700242996e-03 -1.362286391668021679e-03 -3.949683625251054764e-03
1.240000000000000000e+03 1.877862453460693359e+00 2.735000419616699219e+01 7.429145742207765579e-03 2.489533275365829468e-03 2.975603798404335976e-03 -2.470511710271239281e-03
1.241000000000000000e+03 4.649201869964599609e+00 3.261612319946289062e+01 1.241104863584041595e-02 -1.957805128768086433e-03 3.135972889140248299e-03 -5.109921563416719437e-03
1.242000000000000000e+03 3.375997066497802734e+00 3.569432830810546875e+01 -6.325470283627510071e-03 5.520964507013559341e-03 -2.413516340311616659e-04 -7.598415482789278030e-03
1.243000000000000000e+03 3.131620168685913086e+00 2.855208778381347656e+01 9.642852470278739929e-03 1.605663448572158813e-03 3.374554682523012161e-03 -3.904466982930898666e-03
1.244000000000000000e+03 2.010676145553588867e+00 3.577323913574218750e+01 6.072565447539091110e-03 1.662180200219154358e-02 6.808310281485319138e-03 -5.814917851239442825e-03
1.245000000000000000e+03 6.087748050689697266e+00 3.804968261718750000e+01 -3.749440191313624382e-03 -7.522836327552795410e-03 -3.381683025509119034e-03 6.863103248178958893e-03
1.246000000000000000e+03 2.013129949569702148e+00 3.441922378540039062e+01 -7.703548297286033630e-03 1.019198633730411530e-02 7.465314702130854130e-04 -3.124722978100180626e-03
1.247000000000000000e+03 3.402674913406372070e+00 3.427756881713867188e+01 6.362299900501966476e-03 6.984488107264041901e-03 4.004036542028188705e-03 -5.303229205310344696e-03
1.248000000000000000e+03 4.494041919708251953e+00 3.114500808715820312e+01 -9.030386805534362793e-03 1.592955668456852436e-03 -2.231229329481720924e-03 -5.625118967145681381e-03
1.249000000000000000e+03 3.236183643341064453e+00 3.136878204345703125e+01 9.962811134755611420e-03 2.694427967071533203e-03 3.797171870246529579e-03 -5.033355671912431717e-03
1.250000000000000000e+03 4.889179229736328125e+00 -3.476908874511718750e+01 -3.360805800184607506e-03 -1.952307298779487610e-03 -1.593933906406164169e-03 -1.961079239845275879e-02
1.251000000000000000e+03 3.538549900054931641e+00 -3.422657012939453125e+01 1.060565933585166931e-03 -3.729671007022261620e-03 -8.007315336726605892e-04 -1.709852926433086395e-02
1.252000000000000000e+03 3.076621294021606445e+00 -3.034729766845703125e+01 -2.030501887202262878e-02 5.454760976135730743e-03 -4.455077461898326874e-03 -4.837869200855493546e-03
1.253000000000000000e+03 1.884828329086303711e+00 -2.901358032226562500e+01 -1.469269208610057831e-02 -5.358760827220976353e-04 -4.568570759147405624e-03 -4.767516627907752991e-03
1.254000000000000000e+03 1.881890654563903809e+00 2.175143241882324219e+01 6.489180959761142731e-03 3.636468609329313040e-04 2.055848250165581703e-03 -2.000203967327252030e-04
1.255000000000000000e+03 3.143522262573242188e+00 2.299009704589843750e+01 7.459625136107206345e-03 1.065858872607350349e-03 2.557645086199045181e-03 -1.240912934008520097e-05
1.256000000000000000e+03 3.227885484695434570e+00 -1.910543251037597656e+01 -5.882958415895700455e-03 -8.349660201929509640e-04 -2.015377394855022430e-03 -6.272397586144506931e-04
1.257000000000000000e+03 2.870053768157958984e+00 -1.209438323974609375e+01 4.004714079201221466e-03 8.205123594962060452e-05 1.226029591634869576e-03 5.357906047720462084e-05
1.258000000000000000e+03 1.721659541130065918e+00 -9.274805068969726562e+00 -2.920642727985978127e-03 1.779628946678712964e-04 -8.228039368987083435e-04 -1.968378928722813725e-04
1.259000000000000000e+03 3.189361095428466797e+00 1.740754699707031250e+01 6.908734329044818878e-03 1.105970295611768961e-04 2.105799270793795586e-03 -8.444277773378416896e-05
1.260000000000000000e+03 2.867455482482910156e+00 1.169124126434326172e+01 5.497901700437068939e-03 -7.545761036453768611e-05 1.626733341254293919e-03 -4.203012504149228334e-04
1.261000000000000000e+03 1.773196101188659668e+00 -1.487697410583496094e+01 -4.138666670769453049e-03 1.013483633869327605e-04 -1.211195485666394234e-03 -8.061359039857052267e-06
1.262000000000000000e+03 2.909965276718139648e+00 -1.345685005187988281e+01 -4.321612883359193802e-03 -1.746144553180783987e-04 -1.348868245258927345e-03 -1.805244537536054850e-04
1.263000000000000000e+03 4.503717422485351562e+00 5.235666751861572266e+00 -3.391723614186048508e-03 -5.301320343278348446e-04 -1.176556688733398914e-03 2.131516579538583755e-03
1.264000000000000000e+03 2.678579092025756836e+00 7.571529388427734375e+00 -4.234335850924253464e-03 -5.535408272407948971e-04 -1.436362974345684052e-03 -1.741046798997558653e-05
1.265000000000000000e+03 1.842357635498046875e+00 1.468754863739013672e+01 -5.448360461741685867e-03 -2.196610585087910295e-04 -1.700406428426504135e-03 1.997880171984434128e-04
1.266000000000000000e+03 3.166378974914550781e+00 1.595695686340332031e+01 -6.312688346952199936e-03 -3.733496705535799265e-04 -2.005811315029859543e-03 1.925367687363177538e-04
1.267000000000000000e+03 2.733697891235351562e+00 8.931324958801269531e+00 4.559216089546680450e-03 2.995023387484252453e-04 1.457615522667765617e-03 -2.313865843461826444e-04
1.268000000000000000e+03 5.887659072875976562e+00 -4.296312332153320312e+00 -7.145113195292651653e-04 -1.074271742254495621e-03 -5.366349359974265099e-04 4.712443333119153976e-04
1.269000000000000000e+03 2.596598863601684570e+00 -4.877750873565673828e+00 -2.122860401868820190e-03 -1.001324999378994107e-04 -6.668978603556752205e-04 -3.602898214012384415e-04
1.270000000000000000e+03 1.669945120811462402e+00 -6.397468566894531250e+00 -2.253736834973096848e-03 -8.632468961877748370e-05 -7.020184420980513096e-04 -2.160990261472761631e-04
1.271000000000000000e+03 3.192345142364501953e+00 -2.904249763488769531e+01 1.090850122272968292e-02 -2.036911901086568832e-03 2.661476843059062958e-03 5.711666308343410492e-04
1.272000000000000000e+03 3.240123987197875977e+00 -2.209268760681152344e+01 -7.768034934997558594e-03 5.210017552599310875e-04 -2.174109918996691704e-03 -1.055468688718974590e-03
1.273000000000000000e+03 1.793254852294921875e+00 -3.657347869873046875e+01 -3.531734691932797432e-03 -3.605642169713973999e-02 -1.187644712626934052e-02 -1.352597866207361221e-02
1.274000000000000000e+03 3.181335687637329102e+00 -2.353316497802734375e+01 8.479867130517959595e-03 -3.757759986910969019e-04 2.431227127090096474e-03 1.791345654055476189e-03
1.275000000000000000e+03 3.013513803482055664e+00 -1.621017646789550781e+01 -5.523087922483682632e-03 5.261477298290628823e-08 -1.656910520978271961e-03 -5.257925949990749359e-04
1.276000000000000000e+03 3.137314796447753906e+00 2.161718559265136719e+01 -7.093246560543775558e-03 -1.714980899123474956e-04 -2.179423347115516663e-03 -1.335169654339551926e-03
1.277000000000000000e+03 2.847826242446899414e+00 -1.071785640716552734e+01 -3.662088420242071152e-03 2.216179709648713470e-04 -1.032141153700649738e-03 1.167285954579710960e-04
1.278000000000000000e+03 2.868036746978759766e+00 -9.314001083374023438e+00 3.532916307449340820e-03 -4.231878265272825956e-04 9.329185704700648785e-04 -1.287063696508994326e-05
1.279000000000000000e+03 3.504028081893920898e+00 -3.277553939819335938e+01 -1.851176843047142029e-02 -1.427962165325880051e-02 -9.837416931986808777e-03 -1.270471606403589249e-02
1.280000000000000000e+03 1.889553785324096680e+00 -2.487133407592773438e+01 9.005276486277580261e-03 6.577518070116639137e-04 2.898908453062176704e-03 1.601966214366257191e-03
1.281000000000000000e+03 4.432279109954833984e+00 -2.363111495971679688e+01 -8.763441815972328186e-03 -2.693689311854541302e-04 -2.709843451157212257e-03 -1.088029588572680950e-03
1.282000000000000000e+03 3.132919311523437500e+00 -2.629533004760742188e+01 9.037935175001621246e-03 5.737515166401863098e-04 2.883506240323185921e-03 2.043749904260039330e-03
1.283000000000000000e+03 2.954500913619995117e+00 -1.482405090332031250e+01 4.977505654096603394e-03 2.153245586669072509e-04 1.557849114760756493e-03 6.356653757393360138e-04
1.284000000000000000e+03 2.794638872146606445e+00 1.030576324462890625e+01 -4.945140797644853592e-03 -1.528897555544972420e-04 -1.529409084469079971e-03 4.382573824841529131e-04
1.285000000000000000e+03 2.967261075973510742e+00 1.309099578857421875e+01 -5.946504417806863785e-03 6.064380431780591607e-05 -1.765758148394525051e-03 2.716793387662619352e-04
1.286000000000000000e+03 3.169413328170776367e+00 1.883096885681152344e+01 -7.391639053821563721e-03 3.473897522781044245e-04 -2.113274764269590378e-03 -2.922051062341779470e-04
1.287000000000000000e+03 2.341674995422363281e+01 2.616784572601318359e+00 8.607938885688781738e-02 7.534852504730224609e+00 2.286279439926147461e+00 2.023811042308807373e-01
1.288000000000000000e+03 2.286035728454589844e+01 -1.098850822448730469e+01 9.200718998908996582e-02 7.214498519897460938e+00 2.191951751708984375e+00 2.902282178401947021e-01
1.289000000000000000e+03 1.046938228607177734e+01 3.223298263549804688e+01 -1.271200273185968399e-02 2.644130028784275055e-03 -3.020361764356493950e-03 -1.156591903418302536e-02
1.290000000000000000e+03 1.201153087615966797e+01 3.093332672119140625e+01 -1.154686417430639267e-02 6.873601581901311874e-03 -1.401978894136846066e-03 1.325101242400705814e-03
1.291000000000000000e+03 1.191195487976074219e+01 2.273770523071289062e+01 -1.381935738027095795e-02 -5.956963286735117435e-04 -4.324516281485557556e-03 -1.586513244546949863e-03
1.292000000000000000e+03 1.616655921936035156e+01 3.718027496337890625e+01 -1.255448460578918457e-01 -1.757893152534961700e-02 -4.293713346123695374e-02 -5.609673634171485901e-02
1.293000000000000000e+03 2.274008941650390625e+01 -1.512600231170654297e+01 7.001094520092010498e-02 7.073994636535644531e+00 2.143201589584350586e+00 2.092701792716979980e-01
1.294000000000000000e+03 2.279669761657714844e+01 -1.376394557952880859e+01 1.057585775852203369e-01 7.177694320678710938e+00 2.185035943984985352e+00 2.440629154443740845e-01
1.295000000000000000e+03 1.187349510192871094e+01 -3.572407150268554688e+01 -7.164087146520614624e-02 1.174432598054409027e-02 -1.796896383166313171e-02 2.516543306410312653e-02
1.296000000000000000e+03 7.777519702911376953e+00 -3.651668548583984375e+01 -2.599901892244815826e-02 5.111527070403099060e-02 7.534875534474849701e-03 -4.027745127677917480e-02
1.297000000000000000e+03 2.351347923278808594e+01 5.431815147399902344e+00 1.771867573261260986e-01 7.572054386138916016e+00 2.324772357940673828e+00 2.615923583507537842e-01
1.298000000000000000e+03 2.246623611450195312e+01 -2.055307006835937500e+01 -1.138849034905433655e-01 6.908785343170166016e+00 2.038470029830932617e+00 2.211212366819381714e-01
1.299000000000000000e+03 1.215072536468505859e+01 2.818956947326660156e+01 -1.138218864798545837e-02 -1.708069699816405773e-03 -3.927077632397413254e-03 1.492989365942776203e-03
1.300000000000000000e+03 1.075817012786865234e+01 2.675122451782226562e+01 -1.009057275950908661e-02 -3.269734792411327362e-03 -4.008091986179351807e-03 4.157222283538430929e-04
1.301000000000000000e+03 2.106289672851562500e+01 -2.211184120178222656e+01 -2.973431162536144257e-02 6.727292060852050781e+00 2.009267330169677734e+00 1.517607718706130981e-01
1.302000000000000000e+03 2.340772628784179688e+01 -3.166167259216308594e+01 1.799865514039993286e-01 6.861032962799072266e+00 2.112305879592895508e+00 2.316520810127258301e-01
1.303000000000000000e+03 2.286187362670898438e+01 -2.732347297668457031e+01 2.151703089475631714e-02 6.958976268768310547e+00 2.094148159027099609e+00 2.220530509948730469e-01
1.304000000000000000e+03 2.451803970336914062e+01 -2.688272094726562500e+01 -9.785789065062999725e-03 6.946040153503417969e+00 2.080876350402832031e+00 2.143252193927764893e-01
1.305000000000000000e+03 2.135187339782714844e+01 -2.903697776794433594e+01 6.383308768272399902e-02 7.004746437072753906e+00 2.120573759078979492e+00 1.975671499967575073e-01
1.306000000000000000e+03 2.309921836853027344e+01 -2.869104003906250000e+01 3.199393674731254578e-02 6.951162815093994141e+00 2.094947099685668945e+00 2.109397947788238525e-01
1.307000000000000000e+03 1.521211051940917969e+01 -4.032833099365234375e+01 3.283064663410186768e-01 2.006898075342178345e-01 1.586988866329193115e-01 1.399942487478256226e-02
1.308000000000000000e+03 2.277050209045410156e+01 -3.630714797973632812e+01 2.476981282234191895e-01 6.379199504852294922e+00 1.988069295883178711e+00 -7.260435819625854492e-02
1.309000000000000000e+03 5.115306854248046875e+00 -4.038865661621093750e+01 2.837746776640415192e-02 -5.527526512742042542e-02 -8.069339208304882050e-03 -1.108442898839712143e-02
1.310000000000000000e+03 8.054436683654785156e+00 -4.135190200805664062e+01 6.903696805238723755e-02 -1.706466637551784515e-02 1.559169031679630280e-02 -4.836331307888031006e-02
1.311000000000000000e+03 2.376338195800781250e+01 3.002487564086914062e+01 -4.064315855503082275e-01 5.697217941284179688e+00 1.587235808372497559e+00 1.630363345146179199e+00
1.312000000000000000e+03 2.556028175354003906e+01 3.428227615356445312e+01 1.447594910860061646e-01 1.076550388336181641e+01 3.273079156875610352e+00 2.455562114715576172e+00
1.313000000000000000e+03 2.679680442810058594e+01 3.470177841186523438e+01 1.468919873237609863e+00 1.197734069824218750e+01 4.033878326416015625e+00 -2.870149016380310059e-01
1.314000000000000000e+03 2.802148437500000000e+01 3.643716049194335938e+01 3.530288696289062500e+00 1.013579368591308594e+01 4.099824905395507812e+00 6.647990345954895020e-01
1.315000000000000000e+03 2.627595710754394531e+01 3.839955139160156250e+01 -4.807803630828857422e-01 1.221383380889892578e+01 3.519916057586669922e+00 5.464531015604734421e-03
1.316000000000000000e+03 2.605290412902832031e+01 3.867486190795898438e+01 -7.795363664627075195e-01 1.167728042602539062e+01 3.269323110580444336e+00 -6.267824172973632812e-01
1.317000000000000000e+03 2.550363731384277344e+01 3.866892242431640625e+01 -6.145092248916625977e-01 1.010323143005371094e+01 2.846616744995117188e+00 -1.722417950630187988e+00
1.318000000000000000e+03 2.643931007385253906e+01 3.814665985107421875e+01 4.642543196678161621e-02 1.267009353637695312e+01 3.814955711364746094e+00 5.647057890892028809e-01
1.319000000000000000e+03 2.588137626647949219e+01 3.903250885009765625e+01 -7.392050027847290039e-01 1.053179359436035156e+01 2.937776565551757812e+00 -7.600862979888916016e-01
1.320000000000000000e+03 2.331838798522949219e+01 3.452803421020507812e+01 1.583435416221618652e+00 2.186516284942626953e+00 1.130985498428344727e+00 1.921923279762268066e+00
1.321000000000000000e+03 2.436346054077148438e+01 3.470702743530273438e+01 1.791089773178100586e+00 5.424114704132080078e+00 2.164561271667480469e+00 3.683548927307128906e+00
1.322000000000000000e+03 2.363229942321777344e+01 3.869774246215820312e+01 1.004906892776489258e+00 2.436111927032470703e+00 1.032305598258972168e+00 -1.471174478530883789e+00
1.323000000000000000e+03 2.272888946533203125e+01 3.852292251586914062e+01 5.104123950004577637e-01 1.078842759132385254e+00 4.767765402793884277e-01 -6.747737526893615723e-01
1.324000000000000000e+03 2.292274475097656250e+01 3.351244735717773438e+01 8.899464607238769531e-01 2.690893888473510742e+00 1.074252128601074219e+00 1.684003353118896484e+00
1.325000000000000000e+03 2.229694175720214844e+01 3.962494277954101562e+01 6.251720190048217773e-01 1.311783790588378906e+00 5.810867547988891602e-01 -8.378747701644897461e-01
1.326000000000000000e+03 8.159348487854003906e+00 4.123456001281738281e+00 -1.754704630002379417e-03 -1.373919658362865448e-03 -9.385872399434447289e-04 -1.148305949755012989e-03
1.327000000000000000e+03 1.041562461853027344e+01 3.326053380966186523e+00 -3.586129285395145416e-03 3.904089098796248436e-04 -9.587160893715918064e-04 -7.013587164692580700e-04
1.328000000000000000e+03 5.244068622589111328e+00 4.284339904785156250e+00 -1.768504735082387924e-03 -1.382133108563721180e-03 -9.451913647353649139e-04 9.716804488562047482e-04
1.329000000000000000e+03 4.522659778594970703e+00 6.214550971984863281e+00 3.076321678236126900e-03 8.270718972198665142e-04 1.171018113382160664e-03 -2.039950340986251831e-03
1.330000000000000000e+03 5.251057147979736328e+00 3.473599672317504883e+00 1.698910025879740715e-03 1.169473165646195412e-03 8.605149341747164726e-04 -5.253862473182380199e-04
1.331000000000000000e+03 3.019691944122314453e+00 5.064914226531982422e+00 -2.822386799380183220e-03 -8.155964897014200687e-04 -1.091395039111375809e-03 -1.137949409894645214e-03
1.332000000000000000e+03 2.947140455245971680e+00 3.603492498397827148e+00 -1.534265582449734211e-03 -2.096922369673848152e-03 -1.089356373995542526e-03 -1.096713938750326633e-03
1.333000000000000000e+03 1.448985338211059570e+00 4.847552776336669922e+00 2.088506473228335381e-03 4.027257382404059172e-04 7.473696605302393436e-04 -8.671170216985046864e-04
1.334000000000000000e+03 1.647233128547668457e+00 3.284678459167480469e+00 -3.146016504615545273e-03 -1.629293255973607302e-04 -9.926836937665939331e-04 -8.296917076222598553e-04
1.335000000000000000e+03 9.665287017822265625e+00 4.125884056091308594e+00 -3.448082134127616882e-03 -4.618540115188807249e-04 -1.172980875708162785e-03 -1.785161555744707584e-03
1.336000000000000000e+03 1.046866416931152344e+01 -5.008004188537597656e+00 2.983336802572011948e-03 2.240944450022652745e-04 9.622293291613459587e-04 -1.078257337212562561e-03
1.337000000000000000e+03 1.131555175781250000e+01 -4.847041606903076172e+00 -3.723318688571453094e-03 5.229790258454158902e-05 -1.101306290365755558e-03 7.041603093966841698e-04
1.338000000000000000e+03 1.178390502929687500e+01 -3.850507974624633789e+00 -2.799016423523426056e-03 7.740576256765052676e-05 -8.164832252077758312e-04 -9.816756937652826309e-04
1.339000000000000000e+03 8.086496353149414062e+00 -3.450371026992797852e+00 -1.228647422976791859e-03 -6.020538858138024807e-04 -5.492104100994765759e-04 7.366150384768843651e-04
1.340000000000000000e+03 1.148558139801025391e+01 -5.775052070617675781e+00 3.017273498699069023e-03 5.723756039515137672e-04 1.076894812285900116e-03 -6.743976846337318420e-04
1.341000000000000000e+03 1.193574810028076172e+01 3.083357095718383789e+00 -2.513695741072297096e-03 3.285463608335703611e-04 -6.555448053404688835e-04 1.417406369000673294e-03
1.342000000000000000e+03 1.220147991180419922e+01 3.751017808914184570e+00 4.095504526048898697e-03 -8.985595777630805969e-04 9.590834961272776127e-04 -1.419407315552234650e-03
1.343000000000000000e+03 8.902043342590332031e+00 4.890758037567138672e+00 -2.558703534305095673e-03 -1.295761903747916222e-03 -1.156339654698967934e-03 -2.179604023694992065e-03
1.344000000000000000e+03 9.619930267333984375e+00 -4.224810600280761719e+00 2.175502246245741844e-03 2.905672590713948011e-04 7.398208836093544960e-04 -1.122866757214069366e-03
1.345000000000000000e+03 5.053960323333740234e+00 -3.598570108413696289e+00 -5.002741236239671707e-04 -1.140055945143103600e-03 -4.920990322716534138e-04 -2.345959510421380401e-04
1.346000000000000000e+03 5.957359313964843750e+00 -5.013528823852539062e+00 8.612316451035439968e-04 9.870553622022271156e-04 5.544861196540296078e-04 -8.934497018344700336e-04
1.347000000000000000e+03 4.280847549438476562e+00 -3.704765796661376953e+00 7.332280511036515236e-04 1.065110787749290466e-03 5.395016632974147797e-04 7.140825036913156509e-04
1.348000000000000000e+03 4.730567932128906250e+00 -5.536317825317382812e+00 1.680747518548741937e-04 1.135261612944304943e-03 3.910009108949452639e-04 3.908046637661755085e-04
1.349000000000000000e+03 4.199636936187744141e+00 -8.125360488891601562e+00 2.668945817276835442e-03 -5.043003475293517113e-04 6.493935943581163883e-04 -4.051983414683490992e-04
1.350000000000000000e+03 3.495147705078125000e+00 -3.787708759307861328e+00 -1.700590364634990692e-03 -4.856888263020664454e-04 -6.558837485499680042e-04 -1.000892021693289280e-03
1.351000000000000000e+03 4.713798046112060547e+00 -7.040632724761962891e+00 -1.347520155832171440e-03 1.094533014111220837e-03 -7.589614688185974956e-05 1.399933011271059513e-03
1.352000000000000000e+03 2.832798004150390625e+00 -6.348692417144775391e+00 2.611583098769187927e-03 1.508311979705467820e-04 8.287242962978780270e-04 5.106783937662839890e-04
1.353000000000000000e+03 2.154588508605957031e+01 3.933428955078125000e+01 2.305375635623931885e-01 1.037753462791442871e+00 3.804873228073120117e-01 -4.671662747859954834e-01
1.354000000000000000e+03 1.280401515960693359e+01 -3.789288520812988281e+00 -3.853929229080677032e-04 3.733560442924499512e-04 -3.611064585129497573e-06 -6.791917257942259312e-04
1.355000000000000000e+03 1.165870285034179688e+01 -3.258819103240966797e+00 1.925202435813844204e-03 -1.599026727490127087e-04 5.295898881740868092e-04 3.433385863900184631e-04
1.356000000000000000e+03 1.130077075958251953e+01 4.002635002136230469e+00 -4.823087714612483978e-03 7.269164780154824257e-04 -1.228851382620632648e-03 -2.815334009937942028e-04
1.357000000000000000e+03 1.355511951446533203e+01 3.399168968200683594e+00 -5.567703861743211746e-03 6.440287106670439243e-04 -1.477102632634341717e-03 -6.374875083565711975e-04
1.358000000000000000e+03 1.371725177764892578e+01 -2.950808763504028320e+00 2.603596542030572891e-03 4.059241618961095810e-04 9.028562344610691071e-04 -9.740446694195270538e-04
1.359000000000000000e+03 2.434925651550292969e+01 3.404562377929687500e+01 1.025389432907104492e+00 5.985718727111816406e+00 2.103332519531250000e+00 3.232733011245727539e+00
1.360000000000000000e+03 1.213011169433593750e+01 -1.309765625000000000e+01 -4.504038020968437195e-03 -7.214480428956449032e-04 -1.567645813338458538e-03 5.780408391728997231e-04
1.361000000000000000e+03 1.198411464691162109e+01 -1.439373588562011719e+01 4.580584354698657990e-03 1.270473003387451172e-03 1.755317207425832748e-03 -9.173657163046300411e-04
1.362000000000000000e+03 1.257723522186279297e+01 -6.715708732604980469e+00 3.570646978914737701e-03 4.005786031484603882e-04 1.191367628052830696e-03 -3.220339713152498007e-04
1.363000000000000000e+03 1.256998920440673828e+01 -7.955750942230224609e+00 -3.758564358577132225e-03 -4.193313943687826395e-04 -1.253368682228028774e-03 5.153538659214973450e-04
1.364000000000000000e+03 2.101746368408203125e+01 3.989834213256835938e+01 2.478650957345962524e-01 1.339400887489318848e+00 4.761798083782196045e-01 -1.720277965068817139e-01
1.365000000000000000e+03 1.245508766174316406e+01 7.934990406036376953e+00 4.687878768891096115e-03 7.067639380693435669e-04 1.618392881937325001e-03 5.501444684341549873e-04
1.366000000000000000e+03 2.226839065551757812e+01 3.224650573730468750e+01 1.146547794342041016e-01 2.674556255340576172e+00 8.367632627487182617e-01 1.245757579803466797e+00
1.367000000000000000e+03 2.324701309204101562e+01 3.098937416076660156e+01 -2.701564431190490723e-01 4.826019287109375000e+00 1.366758823394775391e+00 1.722323298454284668e+00
1.368000000000000000e+03 1.218452548980712891e+01 -4.505763053894042969e+00 3.552146255970001221e-03 -5.857251017005182803e-05 1.048072124831378460e-03 6.326796137727797031e-04
1.369000000000000000e+03 2.460240173339843750e+01 -1.820025146007537842e-01 -1.070412434637546539e-02 7.445840835571289062e+00 2.230540990829467773e+00 2.197659164667129517e-01
1.370000000000000000e+03 2.322898864746093750e+01 -1.440915465354919434e+00 -2.309715561568737030e-02 7.364471435546875000e+00 2.202412128448486328e+00 2.805921435356140137e-01
1.371000000000000000e+03 2.448352622985839844e+01 -2.821279048919677734e+00 -4.174854606389999390e-02 7.355965614318847656e+00 2.194265127182006836e+00 2.272321730852127075e-01
1.372000000000000000e+03 2.392897415161132812e+01 -1.902780723571777344e+01 -1.130931079387664795e-01 7.050817012786865234e+00 2.081317186355590820e+00 1.779236793518066406e-01
1.373000000000000000e+03 2.387603759765625000e+01 -2.036489295959472656e+01 -8.612538129091262817e-02 6.998892784118652344e+00 2.073830127716064453e+00 2.120423913002014160e-01
1.374000000000000000e+03 2.470368576049804688e+01 2.493609428405761719e+00 7.976943999528884888e-02 7.493642807006835938e+00 2.272023677825927734e+00 2.034980654716491699e-01
1.375000000000000000e+03 2.401158523559570312e+01 -1.768043708801269531e+01 -4.615058377385139465e-02 7.068071842193603516e+00 2.106576442718505859e+00 1.593350619077682495e-01
1.376000000000000000e+03 2.288641548156738281e+01 -9.577919006347656250e+00 2.750446833670139313e-02 7.246347904205322266e+00 2.182155847549438477e+00 2.721034288406372070e-01
1.377000000000000000e+03 2.435455131530761719e+01 -5.442539215087890625e+00 -6.437312066555023193e-02 7.310534954071044922e+00 2.173848628997802734e+00 2.485180646181106567e-01
1.378000000000000000e+03 1.333545303344726562e+01 -1.331207370758056641e+01 5.389105994254350662e-03 6.302831461653113365e-04 1.805816660635173321e-03 -8.822554955258965492e-04
1.379000000000000000e+03 2.417653274536132812e+01 -1.226318550109863281e+01 8.762685209512710571e-02 7.182764053344726562e+00 2.181117296218872070e+00 2.396872192621231079e-01
1.380000000000000000e+03 1.072876167297363281e+01 2.542873382568359375e+01 1.646692678332328796e-02 6.522913463413715363e-04 5.135765299201011658e-03 2.932133851572871208e-03
1.381000000000000000e+03 4.884022235870361328e+00 1.006716156005859375e+01 -4.545154515653848648e-03 -8.825878612697124481e-04 -1.628322759643197060e-03 1.022070529870688915e-03
1.382000000000000000e+03 1.241154479980468750e+01 9.185026168823242188e+00 -4.938444122672080994e-03 -1.051762141287326813e-03 -1.797061879187822342e-03 -8.482154225930571556e-04
1.383000000000000000e+03 9.079835891723632812e+00 1.949286270141601562e+01 -4.659286641981452703e-04 4.084155661985278130e-04 -1.725392758089583367e-05 -5.713294725865125656e-03
1.384000000000000000e+03 1.114080047607421875e+01 1.497683620452880859e+01 -4.192922264337539673e-03 -2.858289808500558138e-04 -1.343625364825129509e-03 3.586053149774670601e-03
1.385000000000000000e+03 7.532128143310546875e+01 1.397628021240234375e+01 -3.176892874762415886e-03 7.615977287292480469e+00 2.283840179443359375e+00 -9.022706001996994019e-02
1.386000000000000000e+03 7.508232879638671875e+01 2.347187399864196777e-01 -4.671387840062379837e-03 7.807903289794921875e+00 2.340969562530517578e+00 -6.983791291713714600e-02
1.387000000000000000e+03 7.402740478515625000e+01 -5.575556755065917969e+00 -6.533733103424310684e-03 7.860686302185058594e+00 2.356245756149291992e+00 -7.051638513803482056e-02
1.388000000000000000e+03 7.535193634033203125e+01 -6.862079620361328125e+00 -4.107758868485689163e-03 7.886703968048095703e+00 2.364778995513916016e+00 -5.556172877550125122e-02
1.389000000000000000e+03 7.519665527343750000e+01 -2.649235963821411133e+00 -4.410166293382644653e-03 7.840572834014892578e+00 2.350848913192749023e+00 -6.424557417631149292e-02
1.390000000000000000e+03 7.395632171630859375e+01 -4.197422027587890625e+00 -6.549617741256952286e-03 7.846900463104248047e+00 2.352105379104614258e+00 -7.360755652189254761e-02
1.391000000000000000e+03 7.404208374023437500e+01 -8.294365882873535156e+00 -6.160177756100893021e-03 7.885185718536376953e+00 2.363707542419433594e+00 -6.509952247142791748e-02
1.392000000000000000e+03 7.659901428222656250e+01 1.583311080932617188e+00 -2.467779908329248428e-03 7.798384189605712891e+00 2.338774919509887695e+00 -5.314114317297935486e-02
1.393000000000000000e+03 7.516870880126953125e+01 1.665832877159118652e+00 -5.259563215076923370e-03 7.790965557098388672e+00 2.335711717605590820e+00 -7.214679569005966187e-02
1.394000000000000000e+03 7.550914001464843750e+01 7.147003173828125000e+00 -4.142410587519407272e-03 7.717772483825683594e+00 2.314089059829711914e+00 -7.764223217964172363e-02
1.395000000000000000e+03 7.531574249267578125e+01 -1.102131843566894531e+01 -3.308073151856660843e-03 7.925116062164306641e+00 2.376542329788208008e+00 -4.956820979714393616e-02
1.396000000000000000e+03 7.529683685302734375e+01 -1.240221881866455078e+01 -3.941004630178213120e-03 7.936698436737060547e+00 2.379827260971069336e+00 -4.808563366532325745e-02
1.397000000000000000e+03 7.533187866210937500e+01 -9.634285926818847656e+00 -3.853942500427365303e-03 7.912776947021484375e+00 2.372676849365234375e+00 -5.167194828391075134e-02
1.398000000000000000e+03 7.216593933105468750e+01 3.357678985595703125e+01 3.813393041491508484e-02 7.425243377685546875e+00 2.239013195037841797e+00 -8.043960481882095337e-02
1.399000000000000000e+03 7.739165496826171875e+01 3.540573883056640625e+01 1.318970788270235062e-02 7.226552963256835938e+00 2.171922683715820312e+00 -2.714083530008792877e-02
1.400000000000000000e+03 7.461045837402343750e+01 3.083205604553222656e+01 1.317525096237659454e-02 7.375880241394042969e+00 2.216716766357421875e+00 -7.287453860044479370e-02
1.401000000000000000e+03 7.378028106689453125e+01 -1.649494171142578125e+01 -5.934331100434064865e-03 7.943901538848876953e+00 2.381390094757080078e+00 -5.320292711257934570e-02
1.402000000000000000e+03 7.391410064697265625e+01 3.232967138290405273e+00 -7.457426749169826508e-03 7.767797470092773438e+00 2.328102111816406250e+00 -9.015561640262603760e-02
1.403000000000000000e+03 7.529362487792968750e+01 3.078726291656494141e+00 -4.784650169312953949e-03 7.773288726806640625e+00 2.330551147460937500e+00 -7.323168963193893433e-02
1.404000000000000000e+03 7.677398681640625000e+01 8.462562561035156250e+00 -2.066874876618385315e-03 7.695501804351806641e+00 2.308030366897583008e+00 -6.023706495761871338e-02
1.405000000000000000e+03 7.544737243652343750e+01 9.805100440979003906e+00 -3.638823516666889191e-03 7.678970336914062500e+00 2.302599430084228516e+00 -8.253897726535797119e-02
1.406000000000000000e+03 7.518193817138671875e+01 -1.795371437072753906e+01 -4.065347835421562195e-03 7.978253364562988281e+00 2.392256259918212891e+00 -4.131354391574859619e-02
1.407000000000000000e+03 7.659507751464843750e+01 -1.937433242797851562e+01 -2.200372051447629929e-03 8.014575004577636719e+00 2.403712272644042969e+00 -2.925877273082733154e-02
1.408000000000000000e+03 7.518919372558593750e+01 -1.936552619934082031e+01 -3.392527578398585320e-03 7.988255500793457031e+00 2.395458936691284180e+00 -3.866520151495933533e-02
1.409000000000000000e+03 7.540998077392578125e+01 1.117113494873046875e+01 -3.728643525391817093e-03 7.658791065216064453e+00 2.296518802642822266e+00 -8.521878719329833984e-02
1.410000000000000000e+03 7.411214447021484375e+01 9.762852668762207031e+00 -6.103139836341142654e-03 7.686382293701171875e+00 2.304083824157714844e+00 -1.013959124684333801e-01
1.411000000000000000e+03 7.565956878662109375e+01 -3.000284194946289062e+01 -2.625237451866269112e-03 8.055036544799804688e+00 2.415723323822021484e+00 -1.974906586110591888e-02
1.412000000000000000e+03 7.411382293701171875e+01 -2.351489639282226562e+01 -7.096738554537296295e-03 7.992566108703613281e+00 2.395640850067138672e+00 -3.882165625691413879e-02
1.413000000000000000e+03 7.655595397949218750e+01 1.685197830200195312e+01 -5.359813221730291843e-04 7.553263187408447266e+00 2.265818119049072266e+00 -7.208014279603958130e-02
1.414000000000000000e+03 7.508086395263671875e+01 1.835943412780761719e+01 -1.795008138287812471e-04 7.549210071563720703e+00 2.264709234237670898e+00 -9.771101176738739014e-02
1.415000000000000000e+03 7.498213958740234375e+01 2.133038330078125000e+01 1.193940872326493263e-03 7.503808021545410156e+00 2.251500606536865234e+00 -9.729892760515213013e-02
1.416000000000000000e+03 7.500573730468750000e+01 1.985677337646484375e+01 7.146233692765235901e-04 7.525879859924316406e+00 2.257978439331054688e+00 -9.800130128860473633e-02
1.417000000000000000e+03 7.366692352294921875e+01 1.839405822753906250e+01 -1.083749928511679173e-03 7.571169853210449219e+00 2.271025896072387695e+00 -1.184224784374237061e-01
1.418000000000000000e+03 7.548781585693359375e+01 -2.482192420959472656e+01 -2.780479378998279572e-03 8.027038574218750000e+00 2.407277584075927734e+00 -2.819681353867053986e-02
1.419000000000000000e+03 7.679336547851562500e+01 -2.621756553649902344e+01 -1.912777195684611797e-03 8.062310218811035156e+00 2.418119192123413086e+00 -1.991423778235912323e-02
1.420000000000000000e+03 7.421414947509765625e+01 -2.485716629028320312e+01 -4.984655883163213730e-03 8.004015922546386719e+00 2.399709463119506836e+00 -3.550657257437705994e-02
1.421000000000000000e+03 7.407676696777343750e+01 2.849363327026367188e+01 1.398329902440309525e-02 7.420869827270507812e+00 2.230455875396728516e+00 -9.128622710704803467e-02
1.422000000000000000e+03 7.380075073242187500e+01 2.433888053894042969e+01 8.580578491091728210e-03 7.488141059875488281e+00 2.249016523361206055e+00 -1.120221689343452454e-01
1.423000000000000000e+03 7.659264373779296875e+01 2.670225715637207031e+01 3.607123391702771187e-03 7.381298542022705078e+00 2.215471744537353516e+00 -6.380431354045867920e-02
1.424000000000000000e+03 7.523890686035156250e+01 2.683505439758300781e+01 5.884798243641853333e-03 7.414176464080810547e+00 2.226018428802490234e+00 -8.316647261381149292e-02
1.425000000000000000e+03 7.650946807861328125e+01 2.952085494995117188e+01 7.720928173512220383e-03 7.344679832458496094e+00 2.205720186233520508e+00 -5.882193148136138916e-02
1.426000000000000000e+03 7.547931671142578125e+01 2.943079376220703125e+01 1.263835281133651733e-02 7.378061771392822266e+00 2.217210054397583008e+00 -7.147946953773498535e-02
1.427000000000000000e+03 7.535679626464843750e+01 2.818483543395996094e+01 7.111852522939443588e-03 7.397406578063964844e+00 2.221355676651000977e+00 -7.769721001386642456e-02
1.428000000000000000e+03 7.404901885986328125e+01 -3.066598129272460938e+01 -5.442633759230375290e-03 8.022226333618164062e+00 2.405035018920898438e+00 -2.369559742510318756e-02
1.429000000000000000e+03 7.399817657470703125e+01 -3.542432403564453125e+01 -1.231331564486026764e-02 8.027930259704589844e+00 2.404685020446777344e+00 -1.945228315889835358e-02
1.430000000000000000e+03 7.613139343261718750e+01 -3.629765319824218750e+01 -1.084015332162380219e-02 8.095120429992675781e+00 2.425284147262573242e+00 -7.250708993524312973e-03
1.431000000000000000e+03 7.668119812011718750e+01 -3.159790802001953125e+01 -3.433958394452929497e-03 8.083719253540039062e+00 2.424085617065429688e+00 -1.474141702055931091e-02
1.432000000000000000e+03 7.562910461425781250e+01 -2.882874870300292969e+01 -3.436430124565958977e-03 8.048199653625488281e+00 2.413429021835327148e+00 -2.244986221194267273e-02
1.433000000000000000e+03 7.530707550048828125e+01 -3.467609786987304688e+01 -8.858965709805488586e-03 8.061279296875000000e+00 2.415726184844970703e+00 -1.747539080679416656e-02
1.434000000000000000e+03 7.579833221435546875e+01 3.053261756896972656e+01 6.778119131922721863e-03 7.351621150970458984e+00 2.207519769668579102e+00 -6.186869367957115173e-02
1.435000000000000000e+03 2.485911560058593750e+01 1.096010398864746094e+01 1.063018338754773140e-03 7.420574665069580078e+00 2.226491212844848633e+00 2.787108123302459717e-01
1.436000000000000000e+03 1.264370536804199219e+01 -2.236244773864746094e+01 1.129573397338390350e-02 2.798721659928560257e-03 4.228336736559867859e-03 4.184654448181390762e-03
1.437000000000000000e+03 1.246723842620849609e+01 -2.006440734863281250e+01 -4.528291057795286179e-03 4.662316932808607817e-04 -1.218617893755435944e-03 2.786159282550215721e-03
1.438000000000000000e+03 2.419300270080566406e+01 -1.361602115631103516e+01 7.884229719638824463e-02 7.131592750549316406e+00 2.163130521774291992e+00 1.902499645948410034e-01
1.439000000000000000e+03 2.610641098022460938e+01 9.380804061889648438e+00 3.412741050124168396e-02 7.462248325347900391e+00 2.248912572860717773e+00 3.043949007987976074e-01
1.440000000000000000e+03 2.486034393310546875e+01 1.237951278686523438e+01 -1.954150572419166565e-02 7.365380287170410156e+00 2.203751564025878906e+00 2.910871505737304688e-01
1.441000000000000000e+03 5.813465118408203125e+00 -2.239945983886718750e+01 -5.573430564254522324e-03 -1.244075130671262741e-03 -2.045251661911606789e-03 4.017853061668574810e-04
1.442000000000000000e+03 1.173672485351562500e+01 -2.883402633666992188e+01 9.313599206507205963e-03 4.054605029523372650e-03 4.010461270809173584e-03 -2.629493596032261848e-03
1.443000000000000000e+03 2.653772735595703125e+01 2.188850212097167969e+01 -3.472152054309844971e-01 7.256530761718750000e+00 2.072794675827026367e+00 7.009129524230957031e-01
1.444000000000000000e+03 2.494227600097656250e+01 2.088546752929687500e+01 -1.917242854833602905e-01 6.913537502288818359e+00 2.016543865203857422e+00 5.825411677360534668e-01
1.445000000000000000e+03 2.485063171386718750e+01 1.379390716552734375e+01 -4.386610165238380432e-02 7.300663948059082031e+00 2.177039384841918945e+00 3.091029524803161621e-01
1.446000000000000000e+03 2.355091094970703125e+01 1.816314697265625000e+01 -6.835240125656127930e-02 6.927874088287353516e+00 2.057856559753417969e+00 3.438535630702972412e-01
1.447000000000000000e+03 2.483792877197265625e+01 1.943334388732910156e+01 -1.486226767301559448e-01 6.993918418884277344e+00 2.053588628768920898e+00 4.950357079505920410e-01
1.448000000000000000e+03 2.481772232055664062e+01 1.660017013549804688e+01 -8.749687671661376953e-02 7.155359745025634766e+00 2.120358943939208984e+00 3.768802285194396973e-01
1.449000000000000000e+03 9.077611923217773438e+00 -1.626039314270019531e+01 3.531421534717082977e-03 2.077472629025578499e-03 1.682668225839734077e-03 -7.094139436958357692e-05
1.450000000000000000e+03 1.011844921112060547e+01 -1.776151657104492188e+01 3.760011633858084679e-03 1.239126781001687050e-03 1.499741571024060249e-03 -1.179393031634390354e-03
1.451000000000000000e+03 2.356760978698730469e+01 8.264033317565917969e+00 5.512424930930137634e-02 7.556737899780273438e+00 2.283558607101440430e+00 2.506891787052154541e-01
1.452000000000000000e+03 2.479065132141113281e+01 6.704320907592773438e+00 1.223629191517829895e-01 7.508902072906494141e+00 2.289379596710205078e+00 2.714781761169433594e-01
1.453000000000000000e+03 2.425088500976562500e+01 2.607126426696777344e+01 -3.567895889282226562e-01 6.328825950622558594e+00 1.791610956192016602e+00 1.035534620285034180e+00
1.454000000000000000e+03 2.481678771972656250e+01 2.479943847656250000e+01 -3.566080033779144287e-01 6.681120395660400391e+00 1.897353649139404297e+00 9.139234423637390137e-01
1.455000000000000000e+03 2.476124954223632812e+01 5.290907382965087891e+00 1.480845063924789429e-01 7.498411655426025391e+00 2.293948888778686523e+00 2.484273761510848999e-01
1.456000000000000000e+03 2.295973205566406250e+01 3.027309989929199219e+01 -2.151830643415451050e-01 4.762041091918945312e+00 1.364057421684265137e+00 1.549606323242187500e+00
1.457000000000000000e+03 2.389513587951660156e+01 2.722743797302246094e+01 -3.716856837272644043e-01 6.017992496490478516e+00 1.693892002105712891e+00 1.186482667922973633e+00
1.458000000000000000e+03 2.363484382629394531e+01 2.921275138854980469e+01 -3.984190523624420166e-01 5.659997940063476562e+00 1.578473687171936035e+00 1.469715118408203125e+00
1.459000000000000000e+03 3.108866930007934570e+00 -1.763357734680175781e+01 6.065739784389734268e-03 3.831566427834331989e-04 1.934668980538845062e-03 8.509007166139781475e-04
1.460000000000000000e+03 4.145634174346923828e+00 -1.475936508178710938e+01 -4.978533368557691574e-03 -6.723947008140385151e-04 -1.695278449915349483e-03 -1.060774549841880798e-03
1.461000000000000000e+03 4.399069309234619141e+00 2.151374626159667969e+01 8.243083953857421875e-03 1.224817358888685703e-03 2.840370172634720802e-03 2.154564484953880310e-03
1.462000000000000000e+03 3.137645721435546875e+00 2.023290252685546875e+01 7.749196141958236694e-03 -2.392566238995641470e-04 2.252981765195727348e-03 6.191765423864126205e-04
1.463000000000000000e+03 4.421556472778320312e+00 2.285892677307128906e+01 -6.260592490434646606e-03 -1.531941117718815804e-03 -2.337760059162974358e-03 -1.804616418667137623e-03
1.464000000000000000e+03 4.316929817199707031e+00 -1.751313018798828125e+01 -7.134887855499982834e-03 -5.921734846197068691e-04 -2.318118466064333916e-03 -1.906595774926245213e-03
1.465000000000000000e+03 4.200724601745605469e+00 -1.611615371704101562e+01 6.228984799236059189e-03 5.212726537138223648e-04 2.025077119469642639e-03 1.963363029062747955e-03
1.466000000000000000e+03 5.578602790832519531e+00 2.687811088562011719e+01 -6.245625670999288559e-03 -2.417187206447124481e-03 -2.598844002932310104e-03 -2.020511543378233910e-03
1.467000000000000000e+03 4.403975009918212891e+00 2.974186706542968750e+01 1.253302115947008133e-02 -1.022138632833957672e-03 3.453264944255352020e-03 -5.300916731357574463e-03
1.468000000000000000e+03 4.422824382781982422e+00 -2.765050888061523438e+01 6.625392008572816849e-03 2.664534375071525574e-03 2.786977915093302727e-03 3.253924194723367691e-03
1.469000000000000000e+03 3.142268657684326172e+00 -2.492695999145507812e+01 -9.819377213716506958e-03 -6.972120900172740221e-05 -2.966729458421468735e-03 -1.674063969403505325e-03
1.470000000000000000e+03 4.521817684173583984e+00 -2.219554328918457031e+01 7.929964922368526459e-03 -9.249114664271473885e-04 2.101516118273139000e-03 1.030679908581078053e-03
1.471000000000000000e+03 4.517652511596679688e+00 1.734378433227539062e+01 -8.639358915388584137e-03 4.620700783561915159e-04 -2.453186549246311188e-03 2.448721788823604584e-04
1.472000000000000000e+03 4.463889598846435547e+00 1.879544067382812500e+01 9.549118578433990479e-03 -1.685518305748701096e-03 2.359080128371715546e-03 1.597307156771421432e-03
1.473000000000000000e+03 4.362263202667236328e+00 2.017431640625000000e+01 -8.366987109184265137e-03 9.167735115624964237e-04 -2.235064050182700157e-03 -3.046459052711725235e-03
1.474000000000000000e+03 4.488284587860107422e+00 1.581074142456054688e+01 7.347690407186746597e-03 5.879480740986764431e-04 2.380691468715667725e-03 -5.421368987299501896e-04
1.475000000000000000e+03 4.647959709167480469e+00 -2.063743782043457031e+01 -7.835394702851772308e-03 2.954590017907321453e-04 -2.261980669572949409e-03 -6.730977911502122879e-04
1.476000000000000000e+03 4.559294700622558594e+00 -1.902513694763183594e+01 7.958770729601383209e-03 9.758551022969186306e-04 2.680387813597917557e-03 1.918019959703087807e-03
1.477000000000000000e+03 3.125040292739868164e+00 2.577046585083007812e+01 8.189787156879901886e-03 1.316297566518187523e-03 2.851825440302491188e-03 -1.900792587548494339e-03
1.478000000000000000e+03 4.361949920654296875e+00 2.562626647949218750e+01 -6.354895886033773422e-03 -1.101829111576080322e-03 -2.237017499282956123e-03 -1.841630786657333374e-03
1.479000000000000000e+03 4.391372203826904297e+00 2.424090194702148438e+01 8.482295088469982147e-03 1.165690948255360126e-03 2.894395962357521057e-03 -5.258846213109791279e-04
1.480000000000000000e+03 9.855575561523437500e+00 -2.336666870117187500e+01 -2.106523606926202774e-04 2.381946193054318428e-03 6.513881962746381760e-04 -1.786436652764678001e-03
1.481000000000000000e+03 4.384396553039550781e+00 -2.499526214599609375e+01 8.371095173060894012e-03 -3.808329638559371233e-04 2.397078555077314377e-03 1.906452700495719910e-03
1.482000000000000000e+03 3.086494922637939453e+00 1.451304721832275391e+01 6.125786807388067245e-03 2.280840708408504725e-04 1.906161312945187092e-03 -4.097761120647192001e-05
1.483000000000000000e+03 4.112844944000244141e+00 1.288090801239013672e+01 6.342645268887281418e-03 -1.199767866637557745e-04 1.866800477728247643e-03 -8.821762748993933201e-04
1.484000000000000000e+03 4.360839366912841797e+00 1.429710197448730469e+01 -6.762818433344364166e-03 -2.598486898932605982e-04 -2.106800209730863571e-03 6.380390841513872147e-04
1.485000000000000000e+03 3.969916582107543945e+00 -1.077152919769287109e+01 3.758183680474758148e-03 -8.006222196854650974e-05 1.103436457924544811e-03 -1.987737196031957865e-04
1.486000000000000000e+03 4.008633613586425781e+00 -9.448839187622070312e+00 -3.306790022179484367e-03 4.429382970556616783e-04 -8.591554942540824413e-04 4.282839363440871239e-04
1.487000000000000000e+03 4.093571662902832031e+00 -1.341936874389648438e+01 4.488936159759759903e-03 6.755337235517799854e-04 1.549340900965034962e-03 6.360324332490563393e-04
1.488000000000000000e+03 4.362900257110595703e+00 2.837051391601562500e+01 -7.047574035823345184e-03 -3.921176175936125219e-05 -2.126035746186971664e-03 -2.837103325873613358e-03
1.489000000000000000e+03 4.842319965362548828e+00 3.579161453247070312e+01 3.278470132499933243e-03 9.028618806041777134e-04 1.254399656318128109e-03 -2.293116180226206779e-03
1.490000000000000000e+03 3.109018564224243164e+00 -3.150340270996093750e+01 1.319787651300430298e-02 -1.727850642055273056e-03 3.441007807850837708e-03 -7.965748198330402374e-03
1.491000000000000000e+03 4.941717624664306641e+00 -3.001667976379394531e+01 -4.418387252371758223e-04 8.407946676015853882e-03 2.389832399785518646e-03 8.172302041202783585e-04
1.492000000000000000e+03 4.983268737792968750e+00 1.134943580627441406e+01 5.098779685795307159e-03 3.745135327335447073e-04 1.641987939365208149e-03 -1.409893855452537537e-03
1.493000000000000000e+03 4.023128509521484375e+00 -1.209462547302246094e+01 -4.003603942692279816e-03 -3.870801301673054695e-04 -1.317205256782472134e-03 -1.813798917282838374e-05
1.494000000000000000e+03 5.375157356262207031e+00 -6.281695842742919922e+00 7.092433515936136246e-04 -4.613620112650096416e-04 7.436439045704901218e-05 -8.224241319112479687e-04
1.495000000000000000e+03 3.955745458602905273e+00 1.152377700805664062e+01 -5.678745452314615250e-03 -3.091066173510625958e-05 -1.712896861135959625e-03 9.535034187138080597e-04
1.496000000000000000e+03 5.624631404876708984e+00 2.955278015136718750e+01 -7.475455757230520248e-03 -1.556808827444911003e-03 -2.709679538384079933e-03 -2.957820193842053413e-03
1.497000000000000000e+03 3.329840898513793945e+00 3.282357788085937500e+01 -7.588099222630262375e-03 3.976375330239534378e-03 -1.083517097868025303e-03 -6.934653967618942261e-03
1.498000000000000000e+03 4.833793163299560547e+00 3.416181945800781250e+01 -9.573449380695819855e-03 -6.902102613821625710e-04 -3.079097950831055641e-03 -1.113297138363122940e-02
1.499000000000000000e+03 5.866162300109863281e+00 -3.320053863525390625e+01 -2.150373719632625580e-02 1.466863206587731838e-03 -6.011062301695346832e-03 -2.230898290872573853e-02
1.500000000000000000e+03 4.056908130645751953e+00 -3.090264320373535156e+01 -8.433228358626365662e-03 -1.297444943338632584e-02 -6.422303151339292526e-03 -1.206194609403610229e-02
1.501000000000000000e+03 5.898816585540771484e+00 -3.091994285583496094e+01 -1.898301206529140472e-02 -2.774862805381417274e-03 -6.527362857013940811e-03 -8.214251138269901276e-03
1.502000000000000000e+03 3.794818401336669922e+00 8.819519042968750000e+00 -3.957624081522226334e-03 -8.141351281665265560e-04 -1.431527663953602314e-03 5.008122534491121769e-04
1.503000000000000000e+03 3.653787136077880859e+00 6.294421195983886719e+00 -3.052618587389588356e-03 -1.128715928643941879e-03 -1.254400354810059071e-03 7.983575342223048210e-04
1.504000000000000000e+03 5.968818187713623047e+00 5.024685859680175781e+00 -1.020860392600297928e-03 -2.033127937465906143e-03 -9.161964990198612213e-04 4.469211853574961424e-04
1.505000000000000000e+03 3.919126510620117188e+00 -3.634088134765625000e+01 -7.452507968991994858e-03 -1.779176667332649231e-02 -7.573282346129417419e-03 -2.767845615744590759e-02
1.506000000000000000e+03 6.257676601409912109e+00 -3.566836929321289062e+01 -1.135671418160200119e-02 4.284034483134746552e-03 -2.121803816407918930e-03 -4.581471532583236694e-02
1.507000000000000000e+03 3.153614759445190430e+00 3.700814056396484375e+01 -1.155795180238783360e-03 1.397323701530694962e-02 3.845232538878917694e-03 -3.953878767788410187e-03
1.508000000000000000e+03 2.249086189270019531e+01 -2.327885246276855469e+01 -6.733522564172744751e-02 6.857292652130126953e+00 2.036987304687500000e+00 1.777408719062805176e-01
1.509000000000000000e+03 1.699464988708496094e+01 3.923934173583984375e+01 -1.677098274230957031e-01 2.361093182116746902e-03 -4.960461705923080444e-02 5.403981804847717285e-01
1.510000000000000000e+03 1.121385192871093750e+01 3.805749893188476562e+01 -4.952643066644668579e-03 -5.492689087986946106e-02 -1.796386018395423889e-02 2.925889380276203156e-02
1.511000000000000000e+03 2.416899681091308594e+01 -1.496902847290039062e+01 4.530255869030952454e-02 7.135082721710205078e+00 2.154115676879882812e+00 1.695945560932159424e-01
1.512000000000000000e+03 2.266640663146972656e+01 -1.648125076293945312e+01 -3.786774817854166031e-03 7.066918373107910156e+00 2.118939638137817383e+00 1.687925308942794800e-01
1.513000000000000000e+03 2.346961975097656250e+01 4.014767169952392578e+00 1.681930720806121826e-01 7.549971103668212891e+00 2.315449237823486328e+00 2.299927175045013428e-01
1.514000000000000000e+03 2.466258049011230469e+01 1.140876412391662598e+00 3.554630652070045471e-02 7.461256027221679688e+00 2.249040842056274414e+00 2.023519277572631836e-01
1.515000000000000000e+03 6.852379322052001953e+00 2.941196823120117188e+01 1.477392949163913727e-02 -4.571672994643449783e-03 3.060676855966448784e-03 -4.213131498545408249e-03
1.516000000000000000e+03 2.414848899841308594e+01 -1.088116264343261719e+01 6.002478301525115967e-02 7.208070755004882812e+00 2.180428743362426758e+00 2.430386692285537720e-01
1.517000000000000000e+03 2.143226432800292969e+01 -3.041142654418945312e+01 3.879939764738082886e-02 7.059449195861816406e+00 2.129474401473999023e+00 2.164547592401504517e-01
1.518000000000000000e+03 2.431956291198730469e+01 -3.362445449829101562e+01 1.875304132699966431e-01 6.742619037628173828e+00 2.079044818878173828e+00 1.028241589665412903e-01
1.519000000000000000e+03 2.442645072937011719e+01 -4.128675937652587891e+00 -5.744196102023124695e-02 7.331156730651855469e+00 2.182114362716674805e+00 2.358652502298355103e-01
1.520000000000000000e+03 1.211864376068115234e+01 1.292377281188964844e+01 5.059434566646814346e-03 1.621595816686749458e-03 2.004309091717004776e-03 3.333522006869316101e-03
1.521000000000000000e+03 1.075247478485107422e+01 2.807785224914550781e+01 1.972798071801662445e-02 -3.141875611618161201e-03 4.975831601768732071e-03 3.783023217692971230e-03
1.522000000000000000e+03 7.519192504882812500e+01 4.008884429931640625e+01 1.053250022232532501e-02 7.285559177398681641e+00 2.188827514648437500e+00 -2.590760216116905212e-02
1.523000000000000000e+03 5.936257839202880859e+00 1.118124389648437500e+01 -3.203653963282704353e-03 -1.637482084333896637e-03 -1.452340860851109028e-03 1.428487477824091911e-03
1.524000000000000000e+03 2.144997596740722656e+01 -3.812446594238281250e+01 -8.024145662784576416e-02 6.034898757934570312e+00 1.786397099494934082e+00 -4.297003448009490967e-01
1.525000000000000000e+03 2.426080322265625000e+01 -3.867855453491210938e+01 -2.532046139240264893e-01 6.603983402252197266e+00 1.905233621597290039e+00 -2.308439165353775024e-01
1.526000000000000000e+03 2.246022796630859375e+01 -2.191369438171386719e+01 -5.802648514509201050e-02 6.876225948333740234e+00 2.045459747314453125e+00 2.383130490779876709e-01
1.527000000000000000e+03 9.300973892211914062e+00 -3.337353134155273438e+01 -4.610024392604827881e-02 2.913219481706619263e-02 -5.090414080768823624e-03 1.246029324829578400e-02
1.528000000000000000e+03 1.227036380767822266e+01 -3.424841690063476562e+01 -7.049455493688583374e-02 6.578823085874319077e-03 -1.917471922934055328e-02 4.318773746490478516e-02
1.529000000000000000e+03 2.425287818908691406e+01 -2.562327766418457031e+01 -1.593844033777713776e-02 6.977540016174316406e+00 2.088480472564697266e+00 2.051537930965423584e-01
1.530000000000000000e+03 1.200953197479248047e+01 2.411378097534179688e+01 1.686717011034488678e-02 1.126318005844950676e-03 5.398046690970659256e-03 3.461245680227875710e-03
1.531000000000000000e+03 2.581985855102539062e+01 3.427893829345703125e+01 1.025907173752784729e-01 1.142510700225830078e+01 3.458309412002563477e+00 1.838148832321166992e+00
1.532000000000000000e+03 2.782421684265136719e+01 3.673143768310546875e+01 3.637920618057250977e+00 1.042026519775390625e+01 4.217455863952636719e+00 1.020182251930236816e+00
1.533000000000000000e+03 2.714579391479492188e+01 3.479204559326171875e+01 1.875516533851623535e+00 1.150961017608642578e+01 4.015538215637207031e+00 -4.947732090950012207e-01
1.534000000000000000e+03 2.626148796081542969e+01 3.451258850097656250e+01 6.489927768707275391e-01 1.231621551513671875e+01 3.889562368392944336e+00 6.985334753990173340e-01
1.535000000000000000e+03 2.704119873046875000e+01 3.514008331298828125e+01 2.708729505538940430e+00 1.175598812103271484e+01 4.339415073394775391e+00 -6.598302721977233887e-01
1.536000000000000000e+03 2.752935791015625000e+01 3.488740921020507812e+01 2.229397773742675781e+00 1.092951965332031250e+01 3.947675466537475586e+00 -5.762289762496948242e-01
1.537000000000000000e+03 2.733317184448242188e+01 3.541391372680664062e+01 3.315767765045166016e+00 1.118153381347656250e+01 4.349190711975097656e+00 -5.982759594917297363e-01
1.538000000000000000e+03 2.770831108093261719e+01 3.623100662231445312e+01 3.992031097412109375e+00 1.041267490386962891e+01 4.321411609649658203e+00 3.868661522865295410e-01
1.539000000000000000e+03 2.765552139282226562e+01 3.548066711425781250e+01 3.264522314071655273e+00 1.059448623657226562e+01 4.157702445983886719e+00 -4.031386077404022217e-01
1.540000000000000000e+03 2.719383621215820312e+01 3.742673873901367188e+01 2.660218000411987305e+00 1.174849891662597656e+01 4.322615146636962891e+00 1.898623943328857422e+00
1.541000000000000000e+03 2.451175117492675781e+01 3.874526977539062500e+01 2.113223373889923096e-01 6.154810905456542969e+00 1.909839987754821777e+00 -1.919157147407531738e+00
1.542000000000000000e+03 2.397038269042968750e+01 3.873929977416992188e+01 8.947651982307434082e-01 3.442329883575439453e+00 1.301128506660461426e+00 -1.901877880096435547e+00
1.543000000000000000e+03 2.380676651000976562e+01 3.425567626953125000e+01 1.480109333992004395e+00 3.878233909606933594e+00 1.607502937316894531e+00 2.722678184509277344e+00
1.544000000000000000e+03 2.684763908386230469e+01 3.788640975952148438e+01 1.142720699310302734e+00 1.244839763641357422e+01 4.077335357666015625e+00 1.585776567459106445e+00
1.545000000000000000e+03 2.355358123779296875e+01 3.913673782348632812e+01 9.216530919075012207e-01 2.564664363861083984e+00 1.045895218849182129e+00 -1.653080224990844727e+00
1.546000000000000000e+03 2.314222335815429688e+01 3.296726989746093750e+01 4.438502490520477295e-01 3.672472476959228516e+00 1.234896898269653320e+00 1.890633940696716309e+00
1.547000000000000000e+03 2.304949569702148438e+01 3.182303619384765625e+01 1.153367534279823303e-01 4.141796112060546875e+00 1.277139902114868164e+00 1.840109944343566895e+00
1.548000000000000000e+03 2.334693717956542969e+01 3.246650314331054688e+01 1.630539447069168091e-01 4.391703128814697266e+00 1.366427063941955566e+00 2.056768894195556641e+00
1.549000000000000000e+03 2.346484947204589844e+01 3.365770339965820312e+01 9.682189822196960449e-01 3.686348915100097656e+00 1.396370291709899902e+00 2.257270336151123047e+00
1.550000000000000000e+03 2.803191757202148438e+01 3.848791122436523438e+01 9.796073436737060547e-01 1.077729606628417969e+01 3.527070999145507812e+00 1.360940337181091309e+00
1.551000000000000000e+03 2.736368751525878906e+01 3.781674957275390625e+01 1.743059158325195312e+00 1.154825878143310547e+01 3.987395286560058594e+00 1.659388303756713867e+00
1.552000000000000000e+03 3.728767156600952148e+00 4.512303352355957031e+00 -3.882676595821976662e-03 1.005893689580261707e-03 -8.630348602309823036e-04 2.162416931241750717e-03
1.553000000000000000e+03 4.499942779541015625e+00 4.382337570190429688e+00 3.018487244844436646e-03 5.106262979097664356e-04 1.058734138496220112e-03 -1.234529190696775913e-03
1.554000000000000000e+03 6.706025600433349609e+00 4.186413764953613281e+00 -1.565144280903041363e-03 -1.605776837095618248e-03 -9.512763353995978832e-04 -3.858423442579805851e-04
1.555000000000000000e+03 5.292398452758789062e+00 6.014124870300292969e+00 -1.142169814556837082e-03 -1.498797675594687462e-03 -7.922902586869895458e-04 1.867649611085653305e-03
1.556000000000000000e+03 5.242254257202148438e+00 5.119497776031494141e+00 1.598883769474923611e-03 1.555643859319388866e-03 9.463582537136971951e-04 -1.521756756119430065e-03
1.557000000000000000e+03 8.853210449218750000e+00 5.666074752807617188e+00 2.561013447120785713e-03 1.330639002844691277e-03 1.167495734989643097e-03 2.233151579275727272e-03
1.558000000000000000e+03 7.426170825958251953e+00 4.154963016510009766e+00 1.621491624973714352e-03 1.492651877924799919e-03 9.342430275864899158e-04 6.322005065158009529e-04
1.559000000000000000e+03 8.169791221618652344e+00 4.878284931182861328e+00 1.807162072509527206e-03 1.591215026564896107e-03 1.019513118080794811e-03 1.569001236930489540e-03
1.560000000000000000e+03 8.854191780090332031e+00 -4.246405601501464844e+00 -1.613816362805664539e-03 -6.055328412912786007e-04 -6.658047786913812160e-04 1.064183306880295277e-03
1.561000000000000000e+03 1.147364902496337891e+01 -9.141978263854980469e+00 -3.492326708510518074e-03 -5.655349814333021641e-04 -1.217358512803912163e-03 7.554082549177110195e-04
1.562000000000000000e+03 6.628253459930419922e+00 -5.058935642242431641e+00 -1.548105734400451183e-03 -5.814749165438115597e-04 -6.388741894625127316e-04 7.410364341922104359e-04
1.563000000000000000e+03 4.403199672698974609e+00 -4.627046108245849609e+00 -4.153647751081734896e-04 -1.446339651010930538e-03 -5.585113540291786194e-04 -6.602298235520720482e-04
1.564000000000000000e+03 3.903650999069213867e+00 -6.042873382568359375e+00 -8.108546608127653599e-04 -1.181722385808825493e-03 -5.977731198072433472e-04 -1.127241295762360096e-03
1.565000000000000000e+03 8.093118667602539062e+00 -4.249979019165039062e+00 1.318962196819484234e-03 7.480341591872274876e-04 6.200989009812474251e-04 -8.049754542298614979e-04
1.566000000000000000e+03 7.770424365997314453e+00 -6.503073215484619141e+00 -1.564614649396389723e-05 -2.613904944155365229e-04 -8.311099372804164886e-05 1.446670969016849995e-03
1.567000000000000000e+03 1.248368930816650391e+01 6.725297927856445312e+00 -4.523267503827810287e-03 -4.103402025066316128e-04 -1.480082282796502113e-03 -3.951858961954712868e-04
1.568000000000000000e+03 7.345475673675537109e+00 -4.254994392395019531e+00 -1.294419169425964355e-03 -7.555088377557694912e-04 -6.149784312583506107e-04 6.488703074865043163e-04
1.569000000000000000e+03 6.580314636230468750e+00 -5.912794113159179688e+00 1.851863460615277290e-03 5.088197649456560612e-04 7.082049851305782795e-04 -5.878086667507886887e-04
1.570000000000000000e+03 6.615207195281982422e+00 -4.264621257781982422e+00 1.105807255953550339e-03 8.626850903965532780e-04 5.905476864427328110e-04 -6.554332212544977665e-04
1.571000000000000000e+03 1.249944877624511719e+01 -5.492453575134277344e+00 -3.225136315450072289e-03 -5.879263044334948063e-04 -1.143918838351964951e-03 1.049966740538366139e-04
1.572000000000000000e+03 1.242371559143066406e+01 4.566365242004394531e+00 -4.647871479392051697e-03 -9.477574167249258608e-06 -1.397204701788723469e-03 1.001643613562919199e-04
1.573000000000000000e+03 1.029934787750244141e+01 8.073348045349121094e+00 4.773467779159545898e-03 7.131195743568241596e-04 1.645976211875677109e-03 4.977220669388771057e-04
1.574000000000000000e+03 2.234211730957031250e+01 4.173939514160156250e+01 7.060493826866149902e-01 2.591476917266845703e+00 9.892578721046447754e-01 -4.684607982635498047e-01
1.575000000000000000e+03 1.140126800537109375e+01 4.825384616851806641e+00 4.809836391359567642e-03 -5.465111462399363518e-05 1.426555681973695755e-03 6.969452952034771442e-04
1.576000000000000000e+03 2.453821754455566406e+01 -1.503716111183166504e+00 -2.192175202071666718e-02 7.386631011962890625e+00 2.209412813186645508e+00 2.362434118986129761e-01
1.577000000000000000e+03 2.601609230041503906e+01 1.027150630950927734e+00 3.040719591081142426e-02 7.458653450012207031e+00 2.246718168258666992e+00 1.863884627819061279e-01
1.578000000000000000e+03 2.680465698242187500e+00 6.217092514038085938e+00 3.791471477597951889e-03 1.220993464812636375e-03 1.503739506006240845e-03 4.720083961728960276e-04
1.579000000000000000e+03 2.538238143920898438e+01 -1.886369514465332031e+01 -6.025902554392814636e-02 7.090749263763427734e+00 2.109147071838378906e+00 1.532186269760131836e-01
1.580000000000000000e+03 2.549134254455566406e+01 -1.751978492736816406e+01 -5.653705447912216187e-02 7.116588115692138672e+00 2.118015289306640625e+00 1.391135007143020630e-01
1.581000000000000000e+03 2.582015037536621094e+01 -4.124583721160888672e+00 -4.969937354326248169e-02 7.365290641784667969e+00 2.194677352905273438e+00 2.117461860179901123e-01
1.582000000000000000e+03 2.419023895263671875e+01 -8.112063407897949219e+00 -3.038648702204227448e-02 7.276602268218994141e+00 2.173864841461181641e+00 2.751119434833526611e-01
1.583000000000000000e+03 2.571873283386230469e+01 -5.431840419769287109e+00 -4.748877137899398804e-02 7.337680816650390625e+00 2.187057495117187500e+00 2.246842086315155029e-01
1.584000000000000000e+03 1.053592586517333984e+01 -1.535807418823242188e+01 3.670500591397285461e-03 1.904189470224082470e-03 1.672407030127942562e-03 -6.016244878992438316e-04
1.585000000000000000e+03 1.125219440460205078e+01 1.042190551757812500e+01 -4.398429766297340393e-03 -1.754266559146344662e-03 -1.845808932557702065e-03 -6.690421141684055328e-04
1.586000000000000000e+03 9.610753059387207031e+00 5.799354553222656250e+00 -3.438494168221950531e-03 -9.870765497907996178e-04 -1.327671227045357227e-03 -2.386761363595724106e-03
1.587000000000000000e+03 1.048505592346191406e+01 1.742590332031250000e+01 8.243426680564880371e-03 2.433717017993330956e-03 3.203142900019884109e-03 2.844833536073565483e-03
1.588000000000000000e+03 1.113695240020751953e+01 -1.158703041076660156e+01 -3.846765495836734772e-03 -3.617205074988305569e-04 -1.262545818462967873e-03 5.318017210811376572e-04
1.589000000000000000e+03 1.091718292236328125e+01 -1.283664131164550781e+01 3.978254273533821106e-03 7.134192856028676033e-04 1.407501986250281334e-03 -3.982360067311674356e-04
1.590000000000000000e+03 2.593801307678222656e+01 -2.695495486259460449e-01 8.159694261848926544e-03 7.429836750030517578e+00 2.231398820877075195e+00 1.898359656333923340e-01
1.591000000000000000e+03 8.592476844787597656e+00 -3.484099960327148438e+01 -4.340118169784545898e-02 2.941199578344821930e-02 -4.196756053715944290e-03 -2.287780679762363434e-02
1.592000000000000000e+03 7.453903198242187500e+01 3.243381881713867188e+01 1.621628552675247192e-02 7.366821289062500000e+00 2.214911222457885742e+00 -6.593060493469238281e-02
1.593000000000000000e+03 2.542350959777832031e+01 -1.072102642059326172e+01 4.788354784250259399e-02 7.218839645385742188e+00 2.180016994476318359e+00 2.372233718633651733e-01
1.594000000000000000e+03 2.414664459228515625e+01 -9.483112335205078125e+00 3.700800612568855286e-02 7.222554683685302734e+00 2.177868843078613281e+00 2.793982028961181641e-01
1.595000000000000000e+03 7.534120941162109375e+01 -3.130006408691406250e+01 -4.962175153195858002e-03 8.051737785339355469e+00 2.414032697677612305e+00 -1.971703395247459412e-02
1.596000000000000000e+03 7.551388549804687500e+01 -2.753178787231445312e+01 -3.325625322759151459e-03 8.041000366210937500e+00 2.411302566528320312e+00 -2.384945936501026154e-02
1.597000000000000000e+03 7.468824005126953125e+01 -2.939496040344238281e+01 -4.791215993463993073e-03 8.031200408935546875e+00 2.407922744750976562e+00 -2.435484342277050018e-02
1.598000000000000000e+03 2.557452201843261719e+01 -6.746015071868896484e+00 -4.526318609714508057e-02 7.319959640502929688e+00 2.182409048080444336e+00 2.390508800745010376e-01
1.599000000000000000e+03 7.350625610351562500e+01 2.304605293273925781e+01 3.989303484559059143e-03 7.508211135864257812e+00 2.253660202026367188e+00 -1.164368689060211182e-01
1.600000000000000000e+03 7.515842437744140625e+01 2.409729576110839844e+01 5.824629217386245728e-03 7.459167957305908203e+00 2.239497900009155273e+00 -9.392272680997848511e-02
1.601000000000000000e+03 7.523719024658203125e+01 -2.075307846069335938e+01 -4.012427292764186859e-03 7.997684478759765625e+00 2.398101568222045898e+00 -3.702514618635177612e-02
1.602000000000000000e+03 7.396539306640625000e+01 -2.217509460449218750e+01 -6.976487115025520325e-03 7.981308460235595703e+00 2.392299652099609375e+00 -4.266521334648132324e-02
1.603000000000000000e+03 7.537016296386718750e+01 1.256322765350341797e+01 -3.231966169551014900e-03 7.637465476989746094e+00 2.290270090103149414e+00 -8.781072497367858887e-02
1.604000000000000000e+03 7.392687988281250000e+01 1.537544059753417969e+01 -3.992318175733089447e-03 7.610099315643310547e+00 2.281832218170166016e+00 -1.123889535665512085e-01
1.605000000000000000e+03 7.517105102539062500e+01 1.687144851684570312e+01 -1.799615449272096157e-03 7.571884155273437500e+00 2.271025419235229492e+00 -9.529126435518264771e-02
1.606000000000000000e+03 7.415660095214843750e+01 8.438822746276855469e+00 -6.215862464159727097e-03 7.703177928924560547e+00 2.309088706970214844e+00 -9.805078059434890747e-02
1.607000000000000000e+03 7.378627777099609375e+01 2.703006935119628906e+01 1.273762527853250504e-02 7.448246955871582031e+00 2.238295316696166992e+00 -1.028627529740333557e-01
1.608000000000000000e+03 7.520407867431640625e+01 2.546189689636230469e+01 8.095973171293735504e-03 7.434361457824707031e+00 2.232737302780151367e+00 -8.810001611709594727e-02
1.609000000000000000e+03 7.411492919921875000e+01 4.585464477539062500e+00 -7.033310364931821823e-03 7.752677440643310547e+00 2.323693275451660156e+00 -9.056816250085830688e-02
1.610000000000000000e+03 7.526907348632812500e+01 -1.377433490753173828e+01 -3.347175894305109978e-03 7.947776317596435547e+00 2.383328676223754883e+00 -4.603637754917144775e-02
1.611000000000000000e+03 7.384104156494140625e+01 -1.509510135650634766e+01 -5.219989456236362457e-03 7.935251235961914062e+00 2.379009485244750977e+00 -5.462970584630966187e-02
1.612000000000000000e+03 7.344386291503906250e+01 2.812808454036712646e-01 -8.648291230201721191e-03 7.799121856689453125e+00 2.337141990661621094e+00 -8.882548660039901733e-02
1.613000000000000000e+03 7.541371917724609375e+01 4.459644317626953125e+00 -4.479017108678817749e-03 7.755361080169677734e+00 2.325264453887939453e+00 -7.437893003225326538e-02
1.614000000000000000e+03 7.367941284179687500e+01 1.804748058319091797e+00 -7.878473959863185883e-03 7.783108711242675781e+00 2.332569122314453125e+00 -8.978530764579772949e-02
1.615000000000000000e+03 7.402393341064453125e+01 -9.664258003234863281e+00 -5.139829125255346298e-03 7.896360874176025391e+00 2.367366313934326172e+00 -6.253025680780410767e-02
1.616000000000000000e+03 7.408950042724609375e+01 1.112320041656494141e+01 -5.622317548841238022e-03 7.667744159698486328e+00 2.298636674880981445e+00 -1.043727993965148926e-01
1.617000000000000000e+03 7.533494567871093750e+01 -5.481074333190917969e+00 -3.909880761057138443e-03 7.872526168823242188e+00 2.360584974288940430e+00 -5.773320049047470093e-02
1.618000000000000000e+03 7.404854583740234375e+01 -6.933779239654541016e+00 -5.911379586905241013e-03 7.873348712921142578e+00 2.360231161117553711e+00 -6.742171198129653931e-02
1.619000000000000000e+03 7.528541564941406250e+01 -4.077535629272460938e+00 -4.458996932953596115e-03 7.857432365417480469e+00 2.355891942977905273e+00 -6.083855032920837402e-02
1.620000000000000000e+03 7.379958343505859375e+01 -2.786475658416748047e+00 -7.373857777565717697e-03 7.832533359527587891e+00 2.347547769546508789e+00 -7.836534082889556885e-02
1.621000000000000000e+03 7.400394439697265625e+01 -1.102660274505615234e+01 -5.951524246484041214e-03 7.907006740570068359e+00 2.370316505432128906e+00 -6.094765290617942810e-02
1.622000000000000000e+03 7.397551727294921875e+01 -1.238517665863037109e+01 -5.435794591903686523e-03 7.917426109313964844e+00 2.373597145080566406e+00 -5.837109684944152832e-02
1.623000000000000000e+03 7.374264526367187500e+01 -1.793399810791015625e+01 -5.720586515963077545e-03 7.952439308166503906e+00 2.384015560150146484e+00 -5.066137760877609253e-02
1.624000000000000000e+03 7.373786926269531250e+01 -1.939002990722656250e+01 -6.507582962512969971e-03 7.961727142333984375e+00 2.386565923690795898e+00 -4.862154647707939148e-02
1.625000000000000000e+03 7.381447601318359375e+01 1.686026000976562500e+01 -2.469146158546209335e-03 7.590516567230224609e+00 2.276414155960083008e+00 -1.157393530011177063e-01
1.626000000000000000e+03 7.555221557617187500e+01 -2.616127777099609375e+01 -4.080776590853929520e-03 8.034915924072265625e+00 2.409250736236572266e+00 -2.700893394649028778e-02
1.627000000000000000e+03 7.443910980224609375e+01 2.970689582824707031e+01 1.465604547411203384e-02 7.399616718292236328e+00 2.224281787872314453e+00 -8.374141156673431396e-02
1.628000000000000000e+03 7.391718292236328125e+01 -1.373581218719482422e+01 -6.133631803095340729e-03 7.926688194274902344e+00 2.376166343688964844e+00 -5.673549324274063110e-02
1.629000000000000000e+03 7.423587036132812500e+01 7.162479400634765625e+00 -6.275679450482130051e-03 7.718957424163818359e+00 2.313804626464843750e+00 -9.502197057008743286e-02
1.630000000000000000e+03 7.011632537841796875e+01 3.454554748535156250e+01 6.098298728466033936e-02 7.468844413757324219e+00 2.258948326110839844e+00 -8.508360385894775391e-02
1.631000000000000000e+03 7.380393218994140625e+01 -2.081681823730468750e+01 -5.473617929965257645e-03 7.971982002258300781e+00 2.389952659606933594e+00 -4.500537738204002380e-02
1.632000000000000000e+03 7.400593566894531250e+01 1.393067646026611328e+01 -4.413656890392303467e-03 7.629220962524414062e+00 2.287442207336425781e+00 -1.096978187561035156e-01
1.633000000000000000e+03 7.405797576904296875e+01 1.251295185089111328e+01 -5.196330603212118149e-03 7.648781299591064453e+00 2.293075561523437500e+00 -1.069846749305725098e-01
1.634000000000000000e+03 7.339929962158203125e+01 2.154581451416015625e+01 3.606836544349789619e-03 7.529414653778076172e+00 2.259906530380249023e+00 -1.203720122575759888e-01
1.635000000000000000e+03 2.410193634033203125e+01 -1.632699966430664062e+01 -1.529917679727077484e-02 7.091941356658935547e+00 2.122992753982543945e+00 1.628380268812179565e-01
1.636000000000000000e+03 7.350592803955078125e+01 3.039965820312500000e+01 1.978525891900062561e-02 7.416433811187744141e+00 2.230865716934204102e+00 -8.979523926973342896e-02
1.637000000000000000e+03 6.591521263122558594e+00 -1.596304988861083984e+01 4.863820970058441162e-03 1.878361916169524193e-03 2.022654749453067780e-03 2.227686578407883644e-03
1.638000000000000000e+03 4.455543994903564453e+00 -2.894172859191894531e+01 -1.550005562603473663e-02 -3.905879100784659386e-03 -5.821780301630496979e-03 -1.341269165277481079e-02
1.639000000000000000e+03 5.657622337341308594e+00 -2.899243164062500000e+01 -4.626862704753875732e-03 1.327037811279296875e-03 -9.899475844576954842e-04 -1.283307210542261600e-03
1.640000000000000000e+03 1.170122432708740234e+01 -2.126982116699218750e+01 -3.438848303630948067e-03 -1.424243324436247349e-03 -1.458927523344755173e-03 -6.705396808683872223e-03
1.641000000000000000e+03 2.613533210754394531e+01 1.080207443237304688e+01 -1.734340796247124672e-03 7.443315982818603516e+00 2.232474565505981445e+00 3.171773254871368408e-01
1.642000000000000000e+03 2.481860542297363281e+01 8.119585037231445312e+00 7.589250802993774414e-02 7.495275497436523438e+00 2.271350383758544922e+00 2.825599610805511475e-01
1.643000000000000000e+03 1.061301612854003906e+01 3.078742980957031250e+01 2.693277038633823395e-02 -1.830376870930194855e-02 2.588700735941529274e-03 7.089684251695871353e-03
1.644000000000000000e+03 5.610161304473876953e+00 -2.507421302795410156e+01 -9.775929152965545654e-03 -1.105884904973208904e-03 -3.264544298872351646e-03 -2.783615607768297195e-03
1.645000000000000000e+03 2.608835029602050781e+01 1.783603286743164062e+01 -1.631566286087036133e-01 7.229422569274902344e+00 2.119879722595214844e+00 4.799401462078094482e-01
1.646000000000000000e+03 2.624223899841308594e+01 2.057352066040039062e+01 -2.671201825141906738e-01 7.180361270904541016e+00 2.073972463607788086e+00 6.286422014236450195e-01
1.647000000000000000e+03 4.351597785949707031e+00 2.700084686279296875e+01 1.033181045204401016e-02 5.632666288875043392e-04 3.268523141741752625e-03 -2.857394516468048096e-03
1.648000000000000000e+03 2.614712715148925781e+01 1.222543048858642578e+01 -3.513178229331970215e-02 7.406878471374511719e+00 2.211524009704589844e+00 3.323067426681518555e-01
1.649000000000000000e+03 2.484338378906250000e+01 9.540244102478027344e+00 3.295327723026275635e-02 7.473632335662841797e+00 2.251975536346435547e+00 2.802972197532653809e-01
1.650000000000000000e+03 2.607043647766113281e+01 7.966135025024414062e+00 7.312715798616409302e-02 7.477639675140380859e+00 2.265229940414428711e+00 2.892017960548400879e-01
1.651000000000000000e+03 1.444703197479248047e+01 -2.898887443542480469e+01 1.790089346468448639e-02 3.856078023090958595e-03 6.527091376483440399e-03 -1.888934290036559105e-03
1.652000000000000000e+03 2.483518028259277344e+01 1.519626903533935547e+01 -6.171503290534019470e-02 7.230865955352783203e+00 2.150745153427124023e+00 3.386061787605285645e-01
1.653000000000000000e+03 2.580247116088867188e+01 2.375020790100097656e+01 -3.864681124687194824e-01 7.033976554870605469e+00 1.994252562522888184e+00 8.318232893943786621e-01
1.654000000000000000e+03 5.636270999908447266e+00 2.416954612731933594e+01 -5.838851444423198700e-03 -2.571348799392580986e-03 -2.523060189560055733e-03 -2.339369850233197212e-03
1.655000000000000000e+03 1.052731227874755859e+01 2.272331237792968750e+01 1.476253941655158997e-02 2.339882630622014403e-04 4.498958587646484375e-03 1.676681800745427608e-03
1.656000000000000000e+03 6.030633449554443359e+00 -1.081351947784423828e+01 3.720652312040328979e-03 4.926315159536898136e-04 1.263985177502036095e-03 8.527704630978405476e-04
1.657000000000000000e+03 5.097808361053466797e+00 -9.669265747070312500e+00 3.542573889717459679e-03 -6.024461472406983376e-04 8.820383227430284023e-04 -8.518323011230677366e-05
1.658000000000000000e+03 2.613978576660156250e+01 1.364269351959228516e+01 -6.203186511993408203e-02 7.367953300476074219e+00 2.191776514053344727e+00 3.566049933433532715e-01
1.659000000000000000e+03 2.611905860900878906e+01 1.504586696624755859e+01 -9.423451870679855347e-02 7.323625564575195312e+00 2.168817281723022461e+00 3.870715200901031494e-01
1.660000000000000000e+03 2.519112396240234375e+01 2.658340072631835938e+01 -5.199030041694641113e-01 6.833839416503906250e+00 1.894180893898010254e+00 1.127643465995788574e+00
1.661000000000000000e+03 9.408498764038085938e+00 2.671567153930664062e+01 1.616007462143898010e-02 -1.004664227366447449e-03 4.546622745692729950e-03 1.291403081268072128e-03
1.662000000000000000e+03 5.590706825256347656e+00 2.552934455871582031e+01 1.007532794028520584e-02 1.034781918860971928e-03 3.333033062517642975e-03 -9.522316977381706238e-04
1.663000000000000000e+03 6.602307319641113281e+00 -1.713921737670898438e+01 -4.190368112176656723e-03 -3.549130167812108994e-03 -2.321849577128887177e-03 -2.799787092953920364e-03
1.664000000000000000e+03 5.389182090759277344e+00 -1.601638412475585938e+01 -5.391194950789213181e-03 -1.551610883325338364e-03 -2.082841703668236732e-03 -2.435363596305251122e-03
1.665000000000000000e+03 5.367238044738769531e+00 -1.469657421112060547e+01 4.777623340487480164e-03 1.212923321872949600e-03 1.797164091840386391e-03 1.820101169869303703e-03
1.666000000000000000e+03 6.863716602325439453e+00 1.728434371948242188e+01 -3.909720107913017273e-03 -3.144344547763466835e-03 -2.116219373419880867e-03 -1.542081125080585480e-03
1.667000000000000000e+03 4.384388446807861328e+00 -2.633488273620605469e+01 -1.113767735660076141e-02 -1.804995117709040642e-03 -3.882801858708262444e-03 -2.845367416739463806e-03
1.668000000000000000e+03 5.607775211334228516e+00 -2.636390304565429688e+01 7.748322561383247375e-03 3.473890246823430061e-04 2.428713487461209297e-03 2.297780243679881096e-03
1.669000000000000000e+03 5.588636398315429688e+00 2.821586227416992188e+01 1.286101620644330978e-02 -1.441683387383818626e-03 3.425799775868654251e-03 -3.918006550520658493e-03
1.670000000000000000e+03 6.822636604309082031e+00 -2.520199012756347656e+01 4.247974138706922531e-03 9.567205561324954033e-04 1.561408396810293198e-03 3.871389431878924370e-03
1.671000000000000000e+03 5.711609840393066406e+00 3.092132377624511719e+01 1.553120277822017670e-02 -5.081593990325927734e-03 3.134882776066660881e-03 -7.285776082426309586e-03
1.672000000000000000e+03 5.754792213439941406e+00 2.276409339904785156e+01 7.969513535499572754e-03 1.891490770503878593e-03 2.958301221951842308e-03 1.433683792129158974e-03
1.673000000000000000e+03 5.645188808441162109e+00 1.906611061096191406e+01 -4.056290257722139359e-03 1.662133261561393738e-03 -7.182471454143524170e-04 -5.293337162584066391e-03
1.674000000000000000e+03 5.711500167846679688e+00 2.139058113098144531e+01 -7.971230894327163696e-03 -1.678712316788733006e-03 -2.894982928410172462e-03 -3.064532997086644173e-03
1.675000000000000000e+03 6.039330482482910156e+00 -2.095214271545410156e+01 4.634277895092964172e-03 -1.463301829062402248e-03 9.512928081676363945e-04 -9.819285478442907333e-04
1.676000000000000000e+03 5.778760910034179688e+00 -1.866048049926757812e+01 -4.779085982590913773e-03 -4.602891858667135239e-03 -2.814593259245157242e-03 -4.042400978505611420e-03
1.677000000000000000e+03 2.369133758544921875e+01 2.827571868896484375e+01 -4.000673592090606689e-01 5.781147003173828125e+00 1.614323854446411133e+00 1.326324462890625000e+00
1.678000000000000000e+03 6.336091995239257812e+00 3.392256927490234375e+01 1.735338009893894196e-02 -1.042001508176326752e-02 2.080009318888187408e-03 -5.406714510172605515e-03
1.679000000000000000e+03 6.361958980560302734e+00 1.820135879516601562e+01 -1.116770552471280098e-03 -1.161725493147969246e-03 -6.835488020442426205e-04 6.835376378148794174e-03
1.680000000000000000e+03 6.190425395965576172e+00 1.477261352539062500e+01 1.288287574425339699e-03 3.837870608549565077e-04 5.016223876737058163e-04 2.419933211058378220e-03
1.681000000000000000e+03 5.752683639526367188e+00 -2.768806648254394531e+01 -1.282702945172786713e-02 -5.148559808731079102e-03 -5.392676685005426407e-03 -3.145504510030150414e-03
1.682000000000000000e+03 4.835248470306396484e+00 -3.207974624633789062e+01 -1.814917894080281258e-03 1.357578579336404800e-02 3.528260393068194389e-03 -1.007027179002761841e-02
1.683000000000000000e+03 8.027413368225097656e+00 -3.267511367797851562e+01 -2.899926155805587769e-02 9.213474579155445099e-03 -5.935736000537872314e-03 -7.748082745820283890e-03
1.684000000000000000e+03 3.861898183822631836e+00 1.017221069335937500e+01 4.816702567040920258e-03 4.074195749126374722e-04 1.567236613482236862e-03 -7.892916910350322723e-04
1.685000000000000000e+03 1.017450141906738281e+01 1.039929485321044922e+01 4.456179216504096985e-03 1.778010511770844460e-03 1.870256965048611164e-03 -3.973052662331610918e-05
1.686000000000000000e+03 5.890116214752197266e+00 1.003171348571777344e+01 3.160244785249233246e-03 2.060501836240291595e-03 1.566223916597664356e-03 3.305794962216168642e-04
1.687000000000000000e+03 5.324576377868652344e+00 -1.336515903472900391e+01 -3.804958425462245941e-03 -1.473293756134808064e-03 -1.583475735969841480e-03 -8.317308966070413589e-04
1.688000000000000000e+03 5.059633255004882812e+00 -1.083262825012207031e+01 -3.873449051752686501e-03 9.703212526801507920e-06 -1.159123727120459080e-03 1.286370825255289674e-04
1.689000000000000000e+03 5.366175651550292969e+00 -8.605140686035156250e+00 -3.096361411735415459e-03 9.934229310601949692e-04 -6.308815791271626949e-04 1.505884138168767095e-04
1.690000000000000000e+03 4.848062992095947266e+00 8.714556694030761719e+00 3.955922555178403854e-03 1.133966143243014812e-03 1.526966574601829052e-03 -7.391971885226666927e-04
1.691000000000000000e+03 3.705323457717895508e+00 7.502878189086914062e+00 3.446810413151979446e-03 8.852955070324242115e-04 1.299631781876087189e-03 -1.616759836906567216e-04
1.692000000000000000e+03 7.141378402709960938e+00 -2.269260787963867188e+01 4.165743011981248856e-03 7.638345705345273018e-04 1.478873193264007568e-03 2.595048863440752029e-04
1.693000000000000000e+03 1.069105720520019531e+01 -2.491312980651855469e+01 3.232868155464529991e-03 4.470022395253181458e-03 2.310867188498377800e-03 -2.265642833663150668e-04
1.694000000000000000e+03 1.048596477508544922e+01 -2.613954162597656250e+01 -6.689889356493949890e-03 -6.039937958121299744e-03 -3.818948054686188698e-03 2.056154422461986542e-03
1.695000000000000000e+03 1.073300170898437500e+01 1.352031135559082031e+01 3.100512316450476646e-03 -1.045814715325832367e-03 6.164092919789254665e-04 4.272337537258863449e-03
1.696000000000000000e+03 2.223508262634277344e+01 4.048224258422851562e+01 7.552098035812377930e-01 1.843692302703857422e+00 7.796705961227416992e-01 -1.021889090538024902e+00
1.697000000000000000e+03 2.556306266784667969e+01 -1.206186771392822266e+01 5.340988188982009888e-02 7.184957027435302734e+00 2.171510219573974609e+00 1.944679468870162964e-01
1.698000000000000000e+03 1.053472232818603516e+01 -3.003256034851074219e+01 7.637945003807544708e-03 2.025883411988615990e-03 2.899148501455783844e-03 6.240175571292638779e-04
1.699000000000000000e+03 2.473311233520507812e+01 3.882926702499389648e+00 1.315625011920928955e-01 7.493750572204589844e+00 2.287594079971313477e+00 2.093046605587005615e-01
1.700000000000000000e+03 2.603450012207031250e+01 6.561825752258300781e+00 1.056067496538162231e-01 7.473724365234375000e+00 2.273799419403076172e+00 2.687683403491973877e-01
1.701000000000000000e+03 2.543817710876464844e+01 -8.047456741333007812e+00 -1.005020737648010254e-02 7.276402950286865234e+00 2.179905891418457031e+00 2.487120479345321655e-01
1.702000000000000000e+03 1.182834148406982422e+01 2.136332702636718750e+01 1.406540349125862122e-02 1.103931223042309284e-03 4.550800658762454987e-03 2.362273400649428368e-03
1.703000000000000000e+03 1.036277294158935547e+01 1.992067337036132812e+01 1.148671470582485199e-02 -5.398756475187838078e-04 3.284051781520247459e-03 3.741193562746047974e-03
1.704000000000000000e+03 2.256260299682617188e+01 -2.464389991760253906e+01 -4.293445870280265808e-02 6.925183773040771484e+00 2.064674854278564453e+00 1.881607919931411743e-01
1.705000000000000000e+03 1.118082237243652344e+01 1.159210872650146484e+01 3.841172205284237862e-03 2.642903942614793777e-03 1.945222844369709492e-03 8.805984398350119591e-04
1.706000000000000000e+03 9.382474899291992188e+00 2.935107040405273438e+01 1.961934752762317657e-02 -8.332983590662479401e-03 3.385909367352724075e-03 2.275336999446153641e-03
1.707000000000000000e+03 1.050921821594238281e+01 1.863419342041015625e+01 -9.168616496026515961e-03 -6.416559335775673389e-04 -2.943081781268119812e-03 -4.038759507238864899e-03
1.708000000000000000e+03 9.921092033386230469e+00 -3.209872436523437500e+01 -1.662148535251617432e-02 -8.429376757703721523e-04 -5.239326972514390945e-03 4.876247141510248184e-03
1.709000000000000000e+03 1.173462009429931641e+01 -3.008053398132324219e+01 -1.947204023599624634e-02 -8.693935349583625793e-03 -8.449792861938476562e-03 1.293130684643983841e-02
1.710000000000000000e+03 2.585796928405761719e+01 -2.836442232131958008e+00 -3.715142980217933655e-02 7.384464263916015625e+00 2.204193830490112305e+00 2.067486047744750977e-01
1.711000000000000000e+03 2.663183593750000000e+01 -1.048051166534423828e+01 1.927050575613975525e-02 7.243572235107421875e+00 2.178852796554565430e+00 2.006798386573791504e-01
1.712000000000000000e+03 2.600905036926269531e+01 5.164954662322998047e+00 1.180972307920455933e-01 7.472579479217529297e+00 2.277203083038330078e+00 2.343847006559371948e-01
1.713000000000000000e+03 2.560479927062988281e+01 -1.616220092773437500e+01 -2.923187101259827614e-03 7.138861179351806641e+00 2.140781402587890625e+00 1.392867863178253174e-01
1.714000000000000000e+03 2.567246627807617188e+01 -1.340448188781738281e+01 5.135437473654747009e-02 7.176271915435791016e+00 2.168287754058837891e+00 1.809121519327163696e-01
1.715000000000000000e+03 2.347256660461425781e+01 -3.011521339416503906e+01 1.439284533262252808e-01 6.952535629272460938e+00 2.128939151763916016e+00 2.693111598491668701e-01
1.716000000000000000e+03 1.070908069610595703e+01 2.941897773742675781e+01 -9.544704109430313110e-03 -1.619349466636776924e-03 -3.349216189235448837e-03 3.264404658693820238e-04
1.717000000000000000e+03 8.096602439880371094e+00 2.674038505554199219e+01 -6.571806035935878754e-03 -4.458071198314428329e-03 -3.308963263407349586e-03 -6.024444592185318470e-04
1.718000000000000000e+03 5.904028415679931641e+00 3.235007858276367188e+01 -1.304630562663078308e-02 -1.838507596403360367e-04 -3.969046752899885178e-03 -5.014164838939905167e-03
1.719000000000000000e+03 7.185025787353515625e+01 4.085888290405273438e+01 3.960073739290237427e-02 7.397421360015869141e+00 2.231106758117675781e+00 -1.499293744564056396e-02
1.720000000000000000e+03 2.559854125976562500e+01 -3.214275741577148438e+01 2.310728281736373901e-01 6.825242042541503906e+00 2.116894483566284180e+00 1.505590826272964478e-01
1.721000000000000000e+03 2.838921356201171875e+01 3.780936050415039062e+01 1.874419569969177246e+00 1.041140747070312500e+01 3.685748338699340820e+00 1.317790031433105469e+00
1.722000000000000000e+03 2.586971473693847656e+01 3.390944290161132812e+01 -4.671747982501983643e-02 1.081623363494873047e+01 3.230854988098144531e+00 1.796171307563781738e+00
1.723000000000000000e+03 2.735564613342285156e+01 3.438484191894531250e+01 1.242943406105041504e+00 1.112599182128906250e+01 3.710680723190307617e+00 -3.932540416717529297e-01
1.724000000000000000e+03 2.806312179565429688e+01 3.553990936279296875e+01 3.085098266601562500e+00 1.022432422637939453e+01 3.992826700210571289e+00 -2.692766189575195312e-01
1.725000000000000000e+03 2.401968193054199219e+01 3.072350502014160156e+01 -3.996180295944213867e-01 5.934515476226806641e+00 1.660469174385070801e+00 1.831511735916137695e+00
1.726000000000000000e+03 2.404446601867675781e+01 3.920674514770507812e+01 8.519667983055114746e-01 3.451160430908203125e+00 1.290938138961791992e+00 -1.460620880126953125e+00
1.727000000000000000e+03 2.366211509704589844e+01 3.312098312377929688e+01 5.275217890739440918e-01 4.564956665039062500e+00 1.527743458747863770e+00 2.321365833282470703e+00
1.728000000000000000e+03 2.317300224304199219e+01 3.881031417846679688e+01 7.445690035820007324e-01 1.894991755485534668e+00 7.918682694435119629e-01 -1.001696109771728516e+00
1.729000000000000000e+03 2.478479957580566406e+01 3.924733734130859375e+01 -1.598976403474807739e-01 7.423037052154541016e+00 2.178941726684570312e+00 -1.492885708808898926e+00
1.730000000000000000e+03 2.674269294738769531e+01 3.866706466674804688e+01 -3.221675455570220947e-01 1.156282615661621094e+01 3.372197628021240234e+00 3.938369154930114746e-01
1.731000000000000000e+03 2.776126670837402344e+01 3.704370880126953125e+01 3.310658216476440430e+00 1.057516002655029297e+01 4.165745735168457031e+00 1.352795839309692383e+00
1.732000000000000000e+03 2.742967605590820312e+01 3.830284500122070312e+01 9.033348560333251953e-01 1.149126338958740234e+01 3.718379497528076172e+00 1.427722454071044922e+00
1.733000000000000000e+03 7.304121971130371094e+00 7.390279769897460938e+00 2.678149379789829254e-03 -3.248945358791388571e-05 7.936980109661817551e-04 1.152995857410132885e-03
1.734000000000000000e+03 8.196553230285644531e+00 5.563768863677978516e+00 -2.539469394832849503e-03 -1.206277636811137199e-03 -1.123724156059324741e-03 -2.217458328232169151e-03
1.735000000000000000e+03 9.664086341857910156e+00 4.933327674865722656e+00 3.660360118374228477e-03 7.368933293037116528e-04 1.319176051765680313e-03 2.191431354731321335e-03
1.736000000000000000e+03 2.396664810180664062e+01 3.379080200195312500e+01 9.972233772277832031e-01 4.929487228393554688e+00 1.778013229370117188e+00 2.775643825531005859e+00
1.737000000000000000e+03 6.580797195434570312e+00 5.833165645599365234e+00 -1.265515806153416634e-03 -1.963988645002245903e-03 -9.688513237051665783e-04 -8.492019260302186012e-04
1.738000000000000000e+03 3.748140096664428711e+00 5.297877311706542969e+00 3.747839713469147682e-03 2.277318126289173961e-04 1.192671479657292366e-03 -2.201389754191040993e-03
1.739000000000000000e+03 6.702274322509765625e+00 5.031514167785644531e+00 1.512195100076496601e-03 2.049066359177231789e-03 1.068378449417650700e-03 7.134405313991010189e-04
1.740000000000000000e+03 5.969205379486083984e+00 5.799893379211425781e+00 6.012622616253793240e-04 1.975093269720673561e-03 7.729066419415175915e-04 -8.784332894720137119e-04
1.741000000000000000e+03 9.644279479980468750e+00 -5.070863246917724609e+00 -2.385152503848075867e-03 -4.092311428394168615e-04 -8.383151143789291382e-04 1.314761000685393810e-03
1.742000000000000000e+03 8.082384109497070312e+00 -5.050217628479003906e+00 -1.140348962508141994e-03 -1.088437740691006184e-03 -6.686359993182122707e-04 8.251435356214642525e-04
1.743000000000000000e+03 7.440991401672363281e+00 4.978599548339843750e+00 -1.689863507635891438e-03 -1.605679048225283623e-03 -9.886628249660134315e-04 -6.722742109559476376e-04
1.744000000000000000e+03 1.046745014190673828e+01 5.857254028320312500e+00 4.632682073861360550e-03 2.969308407045900822e-04 1.478883787058293819e-03 1.532609341666102409e-03
1.745000000000000000e+03 2.450420570373535156e+01 2.844463920593261719e+01 -5.259594321250915527e-01 6.415204048156738281e+00 1.766773343086242676e+00 1.402893900871276855e+00
1.746000000000000000e+03 2.488661956787109375e+01 2.940538406372070312e+01 -6.232068538665771484e-01 6.822956085205078125e+00 1.859924793243408203e+00 1.536968946456909180e+00
1.747000000000000000e+03 5.365505218505859375e+00 -5.147953987121582031e+00 -2.446664439048618078e-04 -1.083818031474947929e-03 -3.985453222412616014e-04 1.277124101761728525e-04
1.748000000000000000e+03 9.357936859130859375e+00 8.207498550415039062e+00 -4.285953473299741745e-03 -1.199407968670129776e-03 -1.645608455874025822e-03 4.875305457971990108e-04
1.749000000000000000e+03 6.847420215606689453e+00 -8.193021774291992188e+00 -2.074929652735590935e-03 9.451484074816107750e-04 -3.389343910384923220e-04 3.605711390264332294e-04
1.750000000000000000e+03 8.043798446655273438e+00 -5.819254398345947266e+00 5.881271208636462688e-04 1.420408254489302635e-03 6.025606417097151279e-04 -1.255894661881029606e-03
1.751000000000000000e+03 5.824160099029541016e+00 -5.647623062133789062e+00 -8.063685963861644268e-04 -2.737032191362231970e-04 -3.240215592086315155e-04 6.110979011282324791e-04
1.752000000000000000e+03 8.849999427795410156e+00 -5.072993755340576172e+00 1.602665986865758896e-03 8.414250332862138748e-04 7.332272944040596485e-04 -1.357139321044087410e-03
1.753000000000000000e+03 2.740466880798339844e+01 3.882284545898437500e+01 2.280606180429458618e-01 1.110052680969238281e+01 3.398576259613037109e+00 8.668094277381896973e-01
1.754000000000000000e+03 2.371268081665039062e+01 4.023751449584960938e+01 6.139090061187744141e-01 3.164906263351440430e+00 1.133644580841064453e+00 -1.173080444335937500e+00
1.755000000000000000e+03 2.312727737426757812e+01 3.952762222290039062e+01 8.076846599578857422e-01 2.361793756484985352e+00 9.508435130119323730e-01 -1.319204688072204590e+00
1.756000000000000000e+03 1.140971946716308594e+01 6.860311985015869141e+00 4.308491013944149017e-03 5.764799425378441811e-04 1.465491252020001411e-03 5.574382375925779343e-04
1.757000000000000000e+03 2.350315666198730469e+01 3.197661018371582031e+01 6.358180940151214600e-02 4.899163722991943359e+00 1.488823652267456055e+00 2.032848119735717773e+00
1.758000000000000000e+03 1.248627948760986328e+01 5.587185382843017578e+00 4.447191953659057617e-03 1.604187709745019674e-04 1.382283167913556099e-03 1.660690904827788472e-04
1.759000000000000000e+03 2.537431716918945312e+01 3.335403823852539062e+01 -1.354066580533981323e-01 8.970818519592285156e+00 2.650623798370361328e+00 2.318126916885375977e+00
1.760000000000000000e+03 2.477937889099121094e+01 2.755440711975097656e+01 -5.313287973403930664e-01 6.610750198364257812e+00 1.823826432228088379e+00 1.265136241912841797e+00
1.761000000000000000e+03 1.761299514770507812e+01 4.164356994628906250e+01 5.761279463768005371e-01 -4.597108960151672363e-01 3.492510318756103516e-02 2.664946615695953369e-01
1.762000000000000000e+03 1.969961166381835938e+01 4.121149444580078125e+01 8.183894753456115723e-01 -1.435578521341085434e-02 2.412101030349731445e-01 4.716695845127105713e-01
1.763000000000000000e+03 1.036778831481933594e+01 1.628848838806152344e+01 -7.859748788177967072e-03 -1.939354813657701015e-03 -2.939731115475296974e-03 -2.692531328648328781e-03
1.764000000000000000e+03 9.121382713317871094e+00 1.284282588958740234e+01 -7.196284364908933640e-03 -4.545679257716983557e-04 -2.295255661010742188e-03 -3.836540563497692347e-04
1.765000000000000000e+03 1.065656185150146484e+01 2.409420204162597656e+01 -1.230584271252155304e-02 -1.296274014748632908e-03 -4.080635029822587967e-03 -1.375955162075115368e-05
1.766000000000000000e+03 2.450342178344726562e+01 3.969351577758789062e+01 3.318854868412017822e-01 5.566343307495117188e+00 1.769468665122985840e+00 -8.725581765174865723e-01
1.767000000000000000e+03 2.662217712402343750e+01 -2.141731643676757812e+01 -8.688040077686309814e-02 7.088038444519042969e+00 2.100347280502319336e+00 1.445264220237731934e-01
1.768000000000000000e+03 2.869472503662109375e+01 -1.746513557434082031e+01 -4.613419622182846069e-02 7.191894054412841797e+00 2.143728017807006836e+00 1.032368764281272888e-01
1.769000000000000000e+03 6.912436008453369141e+00 8.113489151000976562e+00 -4.313444718718528748e-03 3.794002695940434933e-04 -1.180213293991982937e-03 -5.335303139872848988e-04
1.770000000000000000e+03 2.735716629028320312e+01 2.327703237533569336e+00 5.501609668135643005e-02 7.460851192474365234e+00 2.254760265350341797e+00 1.851529926061630249e-01
1.771000000000000000e+03 2.726783370971679688e+01 3.709730386734008789e+00 8.259509503841400146e-02 7.459362983703613281e+00 2.262587308883666992e+00 2.025177776813507080e-01
1.772000000000000000e+03 1.133408641815185547e+01 -1.034885406494140625e+01 3.727240022271871567e-03 3.668635617941617966e-04 1.228231121785938740e-03 -8.083895663730800152e-04
1.773000000000000000e+03 9.444701194763183594e+00 -8.993961334228515625e+00 -3.184671048074960709e-03 -9.660895448178052902e-04 -1.245228108018636703e-03 7.923967787064611912e-04
1.774000000000000000e+03 9.327538490295410156e+00 1.848544120788574219e+01 5.002389196306467056e-03 4.247419536113739014e-03 2.774942666292190552e-03 4.865354858338832855e-03
1.775000000000000000e+03 9.151835441589355469e+00 1.522176647186279297e+01 -9.673569351434707642e-03 1.143968198448419571e-03 -2.558880485594272614e-03 -2.474187407642602921e-03
1.776000000000000000e+03 8.025051116943359375e+00 2.300455093383789062e+01 9.662115946412086487e-03 2.468248829245567322e-03 3.639109432697296143e-03 -2.970634726807475090e-03
1.777000000000000000e+03 9.204392433166503906e+00 2.282422065734863281e+01 -1.125179324299097061e-02 -1.167984446510672569e-03 -3.725933143869042397e-03 2.090531401336193085e-03
1.778000000000000000e+03 6.726115703582763672e+00 1.317743968963623047e+01 -5.622852127999067307e-03 1.735172263579443097e-04 -1.634800457395613194e-03 1.047630721586756408e-04
1.779000000000000000e+03 2.715766334533691406e+01 -5.471328735351562500e+00 -4.210224747657775879e-02 7.365716457366943359e+00 2.197084426879882812e+00 1.986623853445053101e-01
1.780000000000000000e+03 2.733181381225585938e+01 -4.110986709594726562e+00 -3.533352538943290710e-02 7.385395526885986328e+00 2.205018520355224609e+00 1.894983202219009399e-01
1.781000000000000000e+03 1.071302032470703125e+01 -1.409596443176269531e+01 -3.644875250756740570e-03 -1.443090033717453480e-03 -1.526389620266854763e-03 2.033987548202276230e-04
1.782000000000000000e+03 6.955406188964843750e+01 -2.584473800659179688e+01 -1.940409652888774872e-02 7.913532733917236328e+00 2.368238687515258789e+00 -5.274935066699981689e-02
1.783000000000000000e+03 6.977390289306640625e+01 -3.019725418090820312e+01 -1.699635386466979980e-02 7.931717395782470703e+00 2.374416351318359375e+00 -4.030176997184753418e-02
1.784000000000000000e+03 7.079027557373046875e+01 -3.208349227905273438e+01 -1.623020879924297333e-02 7.957519531250000000e+00 2.382386922836303711e+00 -3.198333457112312317e-02
1.785000000000000000e+03 7.238607788085937500e+01 -3.388443374633789062e+01 -8.465647697448730469e-03 7.997520446777343750e+00 2.396716356277465820e+00 -2.111599966883659363e-02
1.786000000000000000e+03 7.017132282257080078e+00 3.201013946533203125e+01 1.583920978009700775e-02 -7.790715899318456650e-03 2.414548071101307869e-03 -1.182223577052354813e-02
1.787000000000000000e+03 9.404305458068847656e+00 2.802408790588378906e+01 -7.482385262846946716e-03 -4.344650544226169586e-03 -3.548110835254192352e-03 -3.184153465554118156e-04
1.788000000000000000e+03 7.287503051757812500e+01 -2.360465240478515625e+01 -8.305089548230171204e-03 7.969209671020507812e+00 2.388271331787109375e+00 -4.597635194659233093e-02
1.789000000000000000e+03 7.104652404785156250e+01 1.819002342224121094e+01 -3.021913813427090645e-03 7.613545417785644531e+00 2.283157110214233398e+00 -1.495087146759033203e-01
1.790000000000000000e+03 7.251247406005859375e+01 1.680300331115722656e+01 -4.021564032882452011e-03 7.609000205993652344e+00 2.281493425369262695e+00 -1.320370286703109741e-01
1.791000000000000000e+03 7.425765991210937500e+01 -2.727095603942871094e+01 -6.786273792386054993e-03 8.014934539794921875e+00 2.402444362640380859e+00 -3.004181943833827972e-02
1.792000000000000000e+03 7.328108978271484375e+01 -2.639611816406250000e+01 -8.256209082901477814e-03 7.988439083099365234e+00 2.394054889678955078e+00 -3.713855519890785217e-02
1.793000000000000000e+03 7.143373107910156250e+01 1.111140823364257812e+01 -1.101867575198411942e-02 7.687252998352050781e+00 2.302870273590087891e+00 -1.366091519594192505e-01
1.794000000000000000e+03 7.273682403564453125e+01 9.724600791931152344e+00 -8.882820606231689453e-03 7.693699359893798828e+00 2.305444955825805664e+00 -1.191312596201896667e-01
1.795000000000000000e+03 7.234061431884765625e+01 -1.642266845703125000e+01 -8.033499121665954590e-03 7.919882297515869141e+00 2.373554706573486328e+00 -6.175008416175842285e-02
1.796000000000000000e+03 7.228968811035156250e+01 -1.790877342224121094e+01 -8.743602782487869263e-03 7.927462100982666016e+00 2.375615596771240234e+00 -5.974880978465080261e-02
1.797000000000000000e+03 7.145523071289062500e+01 -7.173538208007812500e+00 -1.165327057242393494e-02 7.849214076995849609e+00 2.351268291473388672e+00 -8.749469369649887085e-02
1.798000000000000000e+03 7.271454620361328125e+01 -9.715760231018066406e+00 -8.467440493404865265e-03 7.881272792816162109e+00 2.361841678619384766e+00 -7.274264842271804810e-02
1.799000000000000000e+03 7.121146392822265625e+01 3.885814666748046875e+00 -1.470303349196910858e-02 7.759296417236328125e+00 2.323378086090087891e+00 -1.197219491004943848e-01
1.800000000000000000e+03 7.217939758300781250e+01 2.084917068481445312e+00 -1.166295167058706284e-02 7.776663303375244141e+00 2.329500198364257812e+00 -1.055116131901741028e-01
1.801000000000000000e+03 7.270722961425781250e+01 -1.104062080383300781e+01 -7.016788236796855927e-03 7.890129089355468750e+00 2.364933729171752930e+00 -6.991452723741531372e-02
1.802000000000000000e+03 7.247376251220703125e+01 -3.068550586700439453e+00 -9.468683041632175446e-03 7.824516296386718750e+00 2.344514369964599609e+00 -8.906267583370208740e-02
1.803000000000000000e+03 7.265682220458984375e+01 -4.397593498229980469e+00 -9.475264698266983032e-03 7.837878704071044922e+00 2.348520994186401367e+00 -8.529878407716751099e-02
1.804000000000000000e+03 7.351325225830078125e+01 -1.287956833839416504e+00 -7.844354957342147827e-03 7.814980983734130859e+00 2.342140913009643555e+00 -8.468505740165710449e-02
1.805000000000000000e+03 7.211588287353515625e+01 -1.727421522140502930e+00 -1.064275298267602921e-02 7.810230731964111328e+00 2.339876413345336914e+00 -9.591174870729446411e-02
1.806000000000000000e+03 7.424375152587890625e+01 5.891048908233642578e+00 -6.753125227987766266e-03 7.736642837524414062e+00 2.318966865539550781e+00 -9.254008531570434570e-02
1.807000000000000000e+03 8.816298484802246094e+00 3.381179428100585938e+01 -2.395643154159188271e-03 -4.917526617646217346e-03 -2.193951047956943512e-03 -2.009440213441848755e-02
1.808000000000000000e+03 7.277238464355468750e+01 2.912365913391113281e+01 2.274024859070777893e-02 7.445958137512207031e+00 2.240609645843505859e+00 -1.048642471432685852e-01
1.809000000000000000e+03 7.240354156494140625e+01 -2.737177085876464844e+01 -1.052436325699090958e-02 7.976724624633789062e+00 2.389860153198242188e+00 -3.827270865440368652e-02
1.810000000000000000e+03 7.363638305664062500e+01 -2.843569564819335938e+01 -5.972652230411767960e-03 8.008802413940429688e+00 2.400848865509033203e+00 -3.013498894870281219e-02
1.811000000000000000e+03 7.349802398681640625e+01 1.996411705017089844e+01 1.703942078165709972e-03 7.551348209381103516e+00 2.265915632247924805e+00 -1.215278655290603638e-01
1.812000000000000000e+03 5.197222709655761719e+00 -1.206887245178222656e+01 3.932304214686155319e-03 9.093615808524191380e-04 1.452499767765402794e-03 1.105892297346144915e-04
1.813000000000000000e+03 1.132268428802490234e+01 9.218872070312500000e+00 4.492697771638631821e-03 1.211273949593305588e-03 1.711191609501838684e-03 6.411321228370070457e-04
1.814000000000000000e+03 8.647567749023437500e+00 -1.842353248596191406e+01 3.737134393304586411e-03 -5.121413269080221653e-04 9.674978791736066341e-04 -2.156833419576287270e-03
1.815000000000000000e+03 1.035355854034423828e+01 -1.659093666076660156e+01 -3.289854619652032852e-03 -2.300566760823130608e-03 -1.677126390859484673e-03 5.370030412450432777e-04
1.816000000000000000e+03 2.741632270812988281e+01 1.899457740783691406e+01 -2.618992030620574951e-01 7.379800796508789062e+00 2.135370492935180664e+00 5.578889846801757812e-01
1.817000000000000000e+03 9.342991828918457031e+00 -1.986887550354003906e+01 3.947521559894084930e-03 -4.439569544047117233e-03 -1.476144243497401476e-04 -4.391027614474296570e-03
1.818000000000000000e+03 2.869056701660156250e+01 1.047195720672607422e+01 -2.857291512191295624e-02 7.501522541046142578e+00 2.241884708404541016e+00 3.328107297420501709e-01
1.819000000000000000e+03 2.609648704528808594e+01 1.644207572937011719e+01 -1.231018155813217163e-01 7.275964260101318359e+00 2.145858764648437500e+00 4.283178448677062988e-01
1.820000000000000000e+03 3.120340538024902344e+01 1.805245208740234375e+01 -3.253888189792633057e-01 7.772612571716308594e+00 2.234167098999023438e+00 4.347786903381347656e-01
1.821000000000000000e+03 2.744191741943359375e+01 1.206766319274902344e+01 -4.928857460618019104e-02 7.455408573150634766e+00 2.221835851669311523e+00 3.551409244537353516e-01
1.822000000000000000e+03 2.579774856567382812e+01 2.561572647094726562e+01 -5.168738365173339844e-01 7.106228828430175781e+00 1.976806521415710449e+00 1.008807659149169922e+00
1.823000000000000000e+03 3.004006004333496094e+01 1.175795269012451172e+01 -8.778131753206253052e-02 7.556658267974853516e+00 2.240663051605224609e+00 3.479582965373992920e-01
1.824000000000000000e+03 1.033892154693603516e+01 2.130446052551269531e+01 -1.257741451263427734e-02 -6.320505053736269474e-04 -3.962839487940073013e-03 -1.577517483383417130e-03
1.825000000000000000e+03 6.036420822143554688e+00 -9.921156883239746094e+00 -3.719761967658996582e-03 1.091115875169634819e-03 -7.885938393883407116e-04 -2.750881540123373270e-04
1.826000000000000000e+03 2.740855789184570312e+01 1.489673614501953125e+01 -1.207809746265411377e-01 7.415413856506347656e+00 2.188390016555786133e+00 4.128075242042541504e-01
1.827000000000000000e+03 6.821509838104248047e+00 2.679585266113281250e+01 1.245672535151243210e-02 -5.171583616174757481e-04 3.581870114430785179e-03 -1.418898929841816425e-03
1.828000000000000000e+03 5.478109359741210938e+00 -1.731896209716796875e+01 6.257232278585433960e-03 2.120811259374022484e-03 2.513413084670901299e-03 4.043123219162225723e-03
1.829000000000000000e+03 7.704706192016601562e+00 -2.659198188781738281e+01 -4.117156844586133957e-03 -6.804867298342287540e-04 -1.439293147996068001e-03 6.555189844220876694e-03
1.830000000000000000e+03 5.686210632324218750e+00 -2.376851844787597656e+01 6.299145985394716263e-03 -1.197798701468855143e-05 1.886150450445711613e-03 1.698642387054860592e-03
1.831000000000000000e+03 7.646605014801025391e+00 -1.811785316467285156e+01 -2.972454531118273735e-03 -1.885753474198281765e-03 -1.457462436519563198e-03 1.067220116965472698e-03
1.832000000000000000e+03 8.101335525512695312e+00 2.803915405273437500e+01 1.557656005024909973e-02 -3.333013737574219704e-03 3.673063823953270912e-03 -8.654709090478718281e-04
1.833000000000000000e+03 5.741390228271484375e+00 1.721150398254394531e+01 7.517861202359199524e-03 1.831921865232288837e-03 2.804934978485107422e-03 -2.375819021835923195e-03
1.834000000000000000e+03 1.061085414886474609e+01 -2.226464271545410156e+01 5.439885426312685013e-03 -6.321534165181219578e-04 1.442319713532924652e-03 3.929623402655124664e-03
1.835000000000000000e+03 1.151956081390380859e+01 -2.302772712707519531e+01 -8.004914969205856323e-03 -1.755883917212486267e-03 -2.928239759057760239e-03 -3.925820812582969666e-03
1.836000000000000000e+03 7.006233215332031250e+00 2.096830749511718750e+01 8.431982249021530151e-03 1.632718369364738464e-03 3.019410185515880585e-03 -7.997957291081547737e-04
1.837000000000000000e+03 7.088482379913330078e+00 1.512595844268798828e+01 -8.057389408349990845e-03 1.013046014122664928e-03 -2.113302936777472496e-03 7.706560427322983742e-04
1.838000000000000000e+03 5.208571434020996094e+00 1.257783508300781250e+01 -5.542298778891563416e-03 5.969536505290307105e-05 -1.644780975766479969e-03 1.524002989754080772e-03
1.839000000000000000e+03 5.759249210357666016e+00 1.589101314544677734e+01 -5.678450223058462143e-03 -1.847041072323918343e-03 -2.257647458463907242e-03 -3.318694070912897587e-04
1.840000000000000000e+03 6.935596466064453125e+00 1.614725303649902344e+01 5.447613075375556946e-03 2.285439753904938698e-03 2.319915918633341789e-03 -1.474270102335140109e-04
1.841000000000000000e+03 6.452640533447265625e+00 1.984352493286132812e+01 -4.127281252294778824e-03 -1.853648223914206028e-03 -1.794278970919549465e-03 2.582346089184284210e-03
1.842000000000000000e+03 6.595207214355468750e+00 -1.973543357849121094e+01 3.777126257773488760e-04 2.707711188122630119e-03 9.256271878257393837e-04 5.492088384926319122e-03
1.843000000000000000e+03 8.250815391540527344e+00 -1.939214324951171875e+01 -2.980798250064253807e-03 2.632075920701026917e-03 -1.046167017193511128e-04 5.613706540316343307e-03
1.844000000000000000e+03 2.730162429809570312e+01 -1.458304023742675781e+01 1.263068895787000656e-02 7.191868782043457031e+00 2.161349773406982422e+00 1.371692121028900146e-01
1.845000000000000000e+03 6.655164718627929688e+00 -1.327206516265869141e+01 3.922860138118267059e-03 1.699887914583086967e-03 1.686824369244277477e-03 1.257465220987796783e-03
1.846000000000000000e+03 1.023619556427001953e+01 -2.751112747192382812e+01 4.032524302601814270e-03 3.992220852524042130e-03 2.407423686236143112e-03 5.009481683373451233e-04
1.847000000000000000e+03 7.947991847991943359e+00 7.819713592529296875e+00 -1.267141662538051605e-03 -1.401987276040017605e-03 -8.007386932149529457e-04 -1.456369995139539242e-03
1.848000000000000000e+03 4.698858737945556641e+00 7.380307197570800781e+00 -3.373605199158191681e-03 -6.394788506440818310e-04 -1.203925232402980328e-03 1.162226311862468719e-03
1.849000000000000000e+03 5.878111839294433594e+00 8.797619819641113281e+00 -3.779046237468719482e-03 -1.594888279214501381e-03 -1.612180378288030624e-03 -1.082076225429773331e-03
1.850000000000000000e+03 2.705948066711425781e+01 2.308266258239746094e+01 -4.420442581176757812e-01 7.395173549652099609e+00 2.085938692092895508e+00 7.516524195671081543e-01
1.851000000000000000e+03 2.777612876892089844e+01 2.144601058959960938e+01 -3.895936012268066406e-01 7.490926265716552734e+00 2.130399942398071289e+00 6.470866799354553223e-01
1.852000000000000000e+03 1.016839504241943359e+01 1.269635009765625000e+01 4.459526855498552322e-03 2.745199715718626976e-03 2.161417854949831963e-03 -2.120548393577337265e-03
1.853000000000000000e+03 6.415126800537109375e+00 -1.191807174682617188e+01 -3.436820348724722862e-03 -1.506727305240929127e-03 -1.483064261265099049e-03 -6.773355999030172825e-04
1.854000000000000000e+03 2.659174156188964844e+01 2.636306762695312500e+01 -6.378912925720214844e-01 7.478543281555175781e+00 2.052195549011230469e+00 1.011844038963317871e+00
1.855000000000000000e+03 6.256429195404052734e+00 1.214959239959716797e+01 4.315262194722890854e-03 -7.683878648094832897e-04 1.064062234945595264e-03 -2.236507833003997803e-03
1.856000000000000000e+03 5.803534030914306641e+00 -7.664010047912597656e+00 2.583104884251952171e-03 -1.262460253201425076e-03 3.961933834943920374e-04 -7.648004684597253799e-04
1.857000000000000000e+03 2.826936912536621094e+01 2.255584526062011719e+01 -4.658053815364837646e-01 7.627695560455322266e+00 2.148566961288452148e+00 6.743037700653076172e-01
1.858000000000000000e+03 6.296841621398925781e+00 -6.795254230499267578e+00 -1.887980615720152855e-03 5.863527185283601284e-04 -3.904883633367717266e-04 8.906209841370582581e-04
1.859000000000000000e+03 2.530658721923828125e+01 -2.019296073913574219e+01 -1.016728878021240234e-01 7.069943428039550781e+00 2.090481281280517578e+00 1.571518778800964355e-01
1.860000000000000000e+03 2.784181213378906250e+01 -2.180251502990722656e+01 -5.879923328757286072e-02 7.113744258880615234e+00 2.116483449935913086e+00 1.392096430063247681e-01
1.861000000000000000e+03 2.731722259521484375e+01 7.814958572387695312e+00 5.792403221130371094e-02 7.471764564514160156e+00 2.258906602859497070e+00 2.889253199100494385e-01
1.862000000000000000e+03 2.652875709533691406e+01 -9.244551658630371094e+00 1.017501298338174820e-02 7.266455650329589844e+00 2.182989120483398438e+00 2.236067205667495728e-01
1.863000000000000000e+03 2.537453079223632812e+01 -9.366353988647460938e+00 6.454368121922016144e-03 7.258442401885986328e+00 2.179469108581542969e+00 2.412000447511672974e-01
1.864000000000000000e+03 2.567747116088867188e+01 -1.478260040283203125e+01 2.309018746018409729e-02 7.141625881195068359e+00 2.149414777755737305e+00 1.498085558414459229e-01
1.865000000000000000e+03 2.749273490905761719e+01 8.981696963310241699e-01 3.129780292510986328e-02 7.444696426391601562e+00 2.242798328399658203e+00 1.714054197072982788e-01
1.866000000000000000e+03 2.724608230590820312e+01 5.072603702545166016e+00 8.950193971395492554e-02 7.465339660644531250e+00 2.266452550888061523e+00 2.334211766719818115e-01
1.867000000000000000e+03 1.018767642974853516e+01 1.525796127319335938e+01 9.151695296168327332e-03 -7.539074867963790894e-04 2.519336296245455742e-03 3.819470992311835289e-03
1.868000000000000000e+03 2.389150428771972656e+01 -2.301931190490722656e+01 -6.548698246479034424e-02 6.974814414978027344e+00 2.072798252105712891e+00 2.124265134334564209e-01
1.869000000000000000e+03 2.523714256286621094e+01 -2.149249267578125000e+01 -7.699547708034515381e-02 7.046927452087402344e+00 2.090979576110839844e+00 1.916046738624572754e-01
1.870000000000000000e+03 2.402262878417968750e+01 -2.433562660217285156e+01 -6.374297291040420532e-02 6.947449684143066406e+00 2.065111875534057617e+00 1.912979185581207275e-01
1.871000000000000000e+03 6.748149871826171875e+01 2.943800735473632812e+01 5.652296543121337891e-02 7.569937229156494141e+00 2.287938117980957031e+00 -1.497968137264251709e-01
1.872000000000000000e+03 2.229508781433105469e+01 -3.447229385375976562e+01 3.409948050975799561e-01 6.579152107238769531e+00 2.076044082641601562e+00 2.281643301248550415e-01
1.873000000000000000e+03 2.637600708007812500e+01 -2.786879539489746094e+01 2.748254500329494476e-02 6.930976867675781250e+00 2.087537765502929688e+00 1.729742884635925293e-01
1.874000000000000000e+03 2.475754547119140625e+01 -2.815614891052246094e+01 4.786929488182067871e-02 6.981328487396240234e+00 2.108759403228759766e+00 2.397608757019042969e-01
1.875000000000000000e+03 1.060781097412109375e+01 3.575199890136718750e+01 -2.855352871119976044e-02 -3.701232839375734329e-03 -9.676428511738777161e-03 -1.076071802526712418e-02
1.876000000000000000e+03 1.155316734313964844e+01 -6.836433410644531250e+00 -3.000158583745360374e-03 -6.320187821984291077e-04 -1.089653233066201210e-03 5.395489861257374287e-04
1.877000000000000000e+03 8.791635513305664062e+00 -5.923932552337646484e+00 -1.642270013689994812e-03 -7.122480310499668121e-04 -7.063554367050528526e-04 1.541832345537841320e-03
1.878000000000000000e+03 7.260603332519531250e+01 -2.239283180236816406e+01 -9.906725957989692688e-03 7.956581115722656250e+00 2.384002208709716797e+00 -4.882373288273811340e-02
1.879000000000000000e+03 7.243159484863281250e+01 -1.499278354644775391e+01 -8.220455609261989594e-03 7.913227081298828125e+00 2.371501922607421875e+00 -6.443919241428375244e-02
1.880000000000000000e+03 2.586736488342285156e+01 -1.550869226455688477e+00 -2.528695389628410339e-02 7.415744781494140625e+00 2.217137336730957031e+00 1.944920271635055542e-01
1.881000000000000000e+03 9.178257942199707031e+00 3.213834762573242188e+01 1.425689458847045898e-02 -1.662643626332283020e-02 -7.108626305125653744e-04 9.100842289626598358e-03
1.882000000000000000e+03 1.523163127899169922e+01 4.008049392700195312e+01 9.147853404283523560e-02 -2.806317210197448730e-01 -5.674595385789871216e-02 1.331998258829116821e-01
1.883000000000000000e+03 8.439378738403320312e+00 3.838691711425781250e+01 -1.148184575140476227e-02 -1.691494509577751160e-02 -8.519036695361137390e-03 -1.158596482127904892e-02
1.884000000000000000e+03 7.263860321044921875e+01 1.531703376770019531e+01 -4.966336302459239960e-03 7.625059127807617188e+00 2.286027908325195312e+00 -1.294609904289245605e-01
1.885000000000000000e+03 1.002859020233154297e+01 -1.131035614013671875e+01 3.498012665659189224e-03 1.220850845129461959e-05 1.053066342137753963e-03 -6.486795027740299702e-04
1.886000000000000000e+03 9.416880607604980469e+00 -1.376400184631347656e+01 3.305366029962897301e-03 1.412337645888328552e-03 1.415311126038432121e-03 1.952909951796755195e-04
1.887000000000000000e+03 2.522470474243164062e+01 -3.468891143798828125e+01 2.475949078798294067e-01 6.671931266784667969e+00 2.075857877731323242e+00 -1.703522913157939911e-02
1.888000000000000000e+03 2.522473144531250000e+01 -3.641007232666015625e+01 -6.891035009175539017e-03 6.639520645141601562e+00 1.989788889884948730e+00 -1.640752553939819336e-01
1.889000000000000000e+03 7.241741180419921875e+01 2.752105140686035156e+01 1.966725662350654602e-02 7.478751182556152344e+00 2.249525547027587891e+00 -1.184409558773040771e-01
1.890000000000000000e+03 7.838874816894531250e+00 -3.058774185180664062e+01 -2.114894799888134003e-02 -1.880185096524655819e-03 -6.908739916980266571e-03 1.899910974316298962e-03
1.891000000000000000e+03 6.817093849182128906e+00 -2.965357589721679688e+01 -5.040240008383989334e-03 8.194591850042343140e-03 9.463056339882314205e-04 -2.776468871161341667e-03
1.892000000000000000e+03 6.904588222503662109e+00 -3.184027290344238281e+01 -1.388325355947017670e-02 1.862813159823417664e-02 1.423463341780006886e-03 -5.901812110096216202e-03
1.893000000000000000e+03 2.667239189147949219e+01 3.415493774414062500e+01 4.514009654521942139e-01 1.143750286102294922e+01 3.566671133041381836e+00 3.454217910766601562e-01
1.894000000000000000e+03 2.623047637939453125e+01 3.377402114868164062e+01 -5.719507113099098206e-02 1.086026954650878906e+01 3.240922451019287109e+00 1.154726862907409668e+00
1.895000000000000000e+03 2.475368499755859375e+01 3.038531875610351562e+01 -5.888607501983642578e-01 6.791718482971191406e+00 1.860857248306274414e+00 1.710662961006164551e+00
1.896000000000000000e+03 2.685736846923828125e+01 3.374372482299804688e+01 1.608760356903076172e-01 1.095299911499023438e+01 3.334162712097167969e+00 4.172206521034240723e-01
1.897000000000000000e+03 2.700576019287109375e+01 3.427076339721679688e+01 8.725782632827758789e-01 1.131784057617187500e+01 3.657125711441040039e+00 -9.811107069253921509e-02
1.898000000000000000e+03 2.483494377136230469e+01 3.881409454345703125e+01 -3.005705960094928741e-02 7.595867633819580078e+00 2.269743204116821289e+00 -1.999106287956237793e+00
1.899000000000000000e+03 2.771068572998046875e+01 3.513542175292968750e+01 2.596095800399780273e+00 1.067903327941894531e+01 3.982538700103759766e+00 -5.231747031211853027e-01
1.900000000000000000e+03 2.463463401794433594e+01 3.375825881958007812e+01 5.430048108100891113e-01 6.992554664611816406e+00 2.260667800903320312e+00 3.047500133514404297e+00
1.901000000000000000e+03 2.454108238220214844e+01 3.211821365356445312e+01 -2.925953269004821777e-01 6.636350154876708984e+00 1.903126358985900879e+00 2.188722372055053711e+00
1.902000000000000000e+03 2.632190132141113281e+01 3.414907073974609375e+01 1.873718351125717163e-01 1.150185966491699219e+01 3.506769418716430664e+00 8.766372799873352051e-01
1.903000000000000000e+03 2.812834167480468750e+01 3.511961364746093750e+01 2.516129016876220703e+00 1.024606704711914062e+01 3.828658819198608398e+00 -4.608838260173797607e-01
1.904000000000000000e+03 2.851597976684570312e+01 3.565450286865234375e+01 2.840299367904663086e+00 9.827538490295410156e+00 3.800351381301879883e+00 -6.504468619823455811e-02
1.905000000000000000e+03 2.792621231079101562e+01 3.590810775756835938e+01 3.526319026947021484e+00 1.018742465972900391e+01 4.114123344421386719e+00 3.160439431667327881e-02
1.906000000000000000e+03 2.638752555847167969e+01 3.904430770874023438e+01 -8.700469732284545898e-01 1.125921344757080078e+01 3.116749763488769531e+00 -7.844641804695129395e-02
1.907000000000000000e+03 2.785733032226562500e+01 3.757347106933593750e+01 2.259027004241943359e+00 1.077101898193359375e+01 3.909013986587524414e+00 1.549569845199584961e+00
1.908000000000000000e+03 2.385493659973144531e+01 3.258486175537109375e+01 1.430048644542694092e-01 5.329957962036132812e+00 1.641888856887817383e+00 2.315605401992797852e+00
1.909000000000000000e+03 8.672479629516601562e+00 6.416626453399658203e+00 -2.780579263344407082e-03 -6.763453711755573750e-04 -1.037077396176755428e-03 -2.091934671625494957e-03
1.910000000000000000e+03 6.170174121856689453e+00 7.740721225738525391e+00 3.388506593182682991e-03 2.258957392768934369e-04 1.084320712834596634e-03 2.126484643667936325e-03
1.911000000000000000e+03 7.616788387298583984e+00 5.696459770202636719e+00 1.426605158485472202e-03 1.257924886886030436e-04 4.657192912418395281e-04 -4.434760921867564321e-05
1.912000000000000000e+03 7.702977657318115234e+00 6.710788726806640625e+00 -2.060476224869489670e-03 -3.246507549192756414e-04 -7.155381026677787304e-04 -1.601860392838716507e-03
1.913000000000000000e+03 2.601003456115722656e+01 2.715397262573242188e+01 -6.528094410896301270e-01 7.323735237121582031e+00 2.001277685165405273e+00 1.137636542320251465e+00
1.914000000000000000e+03 1.036607170104980469e+01 6.915477752685546875e+00 -4.704638384282588959e-03 -3.880439326167106628e-04 -1.527804648503661156e-03 -1.037879730574786663e-03
1.915000000000000000e+03 2.442679595947265625e+01 2.980971908569335938e+01 -5.298224091529846191e-01 6.374367237091064453e+00 1.753363490104675293e+00 1.630996942520141602e+00
1.916000000000000000e+03 7.355341434478759766e+00 -5.884782314300537109e+00 -1.654878491535782814e-03 -1.221337704919278622e-03 -8.628648938611149788e-04 -3.089900128543376923e-04
1.917000000000000000e+03 2.412382507324218750e+01 3.138842391967773438e+01 -3.820739388465881348e-01 6.026165485382080078e+00 1.693227529525756836e+00 1.966597318649291992e+00
1.918000000000000000e+03 8.088538169860839844e+00 -1.033336925506591797e+01 7.907529361546039581e-04 -4.346997302491217852e-04 1.068159544956870377e-04 6.707401480525732040e-04
1.919000000000000000e+03 1.050505352020263672e+01 -7.971210479736328125e+00 -2.701075514778494835e-03 -8.959782426245510578e-04 -1.079116133041679859e-03 7.102204253897070885e-04
1.920000000000000000e+03 2.918338394165039062e+01 3.782488250732421875e+01 1.808731675148010254e+00 9.924426078796386719e+00 3.519947528839111328e+00 1.098218798637390137e+00
1.921000000000000000e+03 2.756528091430664062e+01 3.729397964477539062e+01 2.890298366546630859e+00 1.109035491943359375e+01 4.194195747375488281e+00 1.622148990631103516e+00
1.922000000000000000e+03 1.143625545501708984e+01 5.780111789703369141e+00 -4.456862341612577438e-03 -2.412615867797285318e-04 -1.409437274560332298e-03 -5.909323808737099171e-04
1.923000000000000000e+03 1.136922168731689453e+01 8.020309448242187500e+00 -4.392706789076328278e-03 -8.954398217611014843e-04 -1.586443977430462837e-03 -7.026524981483817101e-04
1.924000000000000000e+03 2.522157096862792969e+01 2.875906372070312500e+01 -6.521463990211486816e-01 7.028524875640869141e+00 1.912913560867309570e+00 1.399753570556640625e+00
1.925000000000000000e+03 2.605660247802734375e+01 3.344967269897460938e+01 -3.041150867938995361e-01 1.020971870422363281e+01 2.971681118011474609e+00 1.493078231811523438e+00
1.926000000000000000e+03 1.053380584716796875e+01 -5.921499252319335938e+00 -2.838472370058298111e-03 -4.583628324326127768e-04 -9.890504879876971245e-04 9.708158904686570168e-04
1.927000000000000000e+03 1.054155158996582031e+01 -6.917397022247314453e+00 2.724642399698495865e-03 6.341470871120691299e-04 1.007636892609298229e-03 -7.084004464559257030e-04
1.928000000000000000e+03 9.042332649230957031e+00 1.156886100769042969e+01 5.350092425942420959e-03 1.450615236535668373e-03 2.040212275460362434e-03 1.210281407111324370e-04
1.929000000000000000e+03 7.045551776885986328e+00 1.422100543975830078e+01 8.143885061144828796e-03 -1.694589853286743164e-03 1.934788422659039497e-03 -9.334555361419916153e-04
1.930000000000000000e+03 2.433882713317871094e+01 2.919618034362792969e+01 -5.156762599945068359e-01 6.275285243988037109e+00 1.727882742881774902e+00 1.513611435890197754e+00
1.931000000000000000e+03 2.557560920715332031e+01 2.798268890380859375e+01 -6.577974557876586914e-01 7.158443927764892578e+00 1.950194001197814941e+00 1.264615178108215332e+00
1.932000000000000000e+03 1.025566387176513672e+01 1.432189273834228516e+01 -6.845917087048292160e-03 1.825570478104054928e-03 -1.506104017607867718e-03 -3.972539212554693222e-03
1.933000000000000000e+03 8.292827606201171875e+00 1.858452606201171875e+01 -5.474200472235679626e-03 -3.533685347065329552e-03 -2.702365629374980927e-03 1.588035025633871555e-03
1.934000000000000000e+03 7.920968532562255859e+00 -1.478474235534667969e+01 3.792015835642814636e-03 1.653979648835957050e-03 1.633798703551292419e-03 5.446945433504879475e-04
1.935000000000000000e+03 8.986956596374511719e+00 -1.091895389556884766e+01 -2.048642141744494438e-03 -8.197259739972651005e-05 -6.391843780875205994e-04 3.828202025033533573e-04
1.936000000000000000e+03 1.026399230957031250e+01 9.240556716918945312e+00 -4.728148225694894791e-03 -1.154068158939480782e-03 -1.764664892107248306e-03 -1.592129556229338050e-04
1.937000000000000000e+03 2.718513870239257812e+01 -1.551230907440185547e+00 -1.354844681918621063e-02 7.418224811553955078e+00 2.221402883529663086e+00 1.773199141025543213e-01
1.938000000000000000e+03 3.099969482421875000e+01 4.806128501892089844e+00 1.722446270287036896e-02 7.503818511962890625e+00 2.256312847137451172e+00 2.012985348701477051e-01
1.939000000000000000e+03 7.276328277587890625e+01 1.108621215820312500e+01 -7.935288362205028534e-03 7.677208423614501953e+00 2.300781965255737305e+00 -1.213763877749443054e-01
1.940000000000000000e+03 1.011726570129394531e+01 1.156172561645507812e+01 -4.660143982619047165e-03 -2.234298503026366234e-03 -2.068332629278302193e-03 4.842461785301566124e-04
1.941000000000000000e+03 1.154194450378417969e+01 -7.968929767608642578e+00 3.265828825533390045e-03 6.280250381678342819e-04 1.168156159110367298e-03 -6.618988118134438992e-04
1.942000000000000000e+03 1.030860614776611328e+01 -1.015702438354492188e+01 -3.244165563955903053e-03 -2.858047955669462681e-04 -1.058991067111492157e-03 9.035586845129728317e-04
1.943000000000000000e+03 7.273478698730468750e+01 -8.377930641174316406e+00 -8.193627931177616119e-03 7.871334552764892578e+00 2.358942270278930664e+00 -7.535745203495025635e-02
1.944000000000000000e+03 7.527477264404296875e+00 8.590138435363769531e+00 -1.346979115623980761e-04 1.077146502211689949e-03 2.827345742844045162e-04 -4.598778104991652071e-05
1.945000000000000000e+03 7.254035949707031250e+01 3.492994785308837891e+00 -1.038458757102489471e-02 7.763041019439697266e+00 2.325796842575073242e+00 -1.056179851293563843e-01
1.946000000000000000e+03 7.016730499267578125e+01 1.099451780319213867e+00 -1.761344820261001587e-02 7.780461311340332031e+00 2.328854322433471680e+00 -1.201560273766517639e-01
1.947000000000000000e+03 7.011415863037109375e+01 -3.681665897369384766e+00 -1.577808894217014313e-02 7.815125465393066406e+00 2.339804172515869141e+00 -1.058614403009414673e-01
1.948000000000000000e+03 7.227223968505859375e+01 -2.101147079467773438e+01 -9.171924553811550140e-03 7.944090843200683594e+00 2.380475759506225586e+00 -5.381112545728683472e-02
1.949000000000000000e+03 7.142010498046875000e+01 -2.487121200561523438e+01 -1.295598596334457397e-02 7.945825099945068359e+00 2.379860639572143555e+00 -4.838091880083084106e-02
1.950000000000000000e+03 2.753417015075683594e+01 -9.158858299255371094e+00 -3.449425334110856056e-03 7.285053253173828125e+00 2.184481143951416016e+00 1.931506991386413574e-01
1.951000000000000000e+03 9.418238639831542969e+00 -7.969379901885986328e+00 2.608890412375330925e-03 8.174150134436786175e-04 1.027891645208001137e-03 -4.680950951296836138e-04
1.952000000000000000e+03 9.392765045166015625e+00 2.542584037780761719e+01 -8.893521502614021301e-03 -3.639066591858863831e-03 -3.759776474907994270e-03 5.715860752388834953e-04
1.953000000000000000e+03 7.308345794677734375e+01 5.981715202331542969e+00 -9.162066504359245300e-03 7.737088203430175781e+00 2.318377733230590820e+00 -1.052194312214851379e-01
1.954000000000000000e+03 6.809527587890625000e+01 3.738230228424072266e+00 -2.405070886015892029e-02 7.761831760406494141e+00 2.321334362030029297e+00 -1.419673413038253784e-01
1.955000000000000000e+03 9.200623512268066406e+00 1.631637954711914062e+01 8.339134044945240021e-03 1.322478055953979492e-03 2.898483769968152046e-03 2.388954395428299904e-03
1.956000000000000000e+03 9.261754035949707031e+00 1.740834999084472656e+01 -6.280859466642141342e-03 -3.584647551178932190e-03 -2.959652105346322060e-03 -2.253917977213859558e-03
1.957000000000000000e+03 7.146150207519531250e+01 -5.886062145233154297e+00 -1.250810828059911728e-02 7.839491367340087891e+00 2.348094940185546875e+00 -9.148602187633514404e-02
1.958000000000000000e+03 3.061272811889648438e+01 -1.940181922912597656e+01 -3.986796736717224121e-02 7.221265792846679688e+00 2.154419422149658203e+00 8.604323863983154297e-02
1.959000000000000000e+03 2.704031181335449219e+01 -1.739735603332519531e+01 -2.929045818746089935e-02 7.154074668884277344e+00 2.137435197830200195e+00 1.257870495319366455e-01
1.960000000000000000e+03 7.171884918212890625e+01 -2.329389572143554688e+01 -9.867595508694648743e-03 7.945310592651367188e+00 2.380632877349853516e+00 -5.060242861509323120e-02
1.961000000000000000e+03 9.788040161132812500e+00 -1.885318183898925781e+01 -3.458057530224323273e-03 6.473930552601814270e-04 -8.431993192061781883e-04 1.986118732020258904e-03
1.962000000000000000e+03 8.642801284790039062e+00 -2.178032302856445312e+01 7.857969030737876892e-03 8.868455770425498486e-04 2.623444190248847008e-03 -3.136101877316832542e-03
1.963000000000000000e+03 2.741461372375488281e+01 1.063811683654785156e+01 -1.329900044947862625e-02 7.465761184692382812e+00 2.235738754272460938e+00 3.327311277389526367e-01
1.964000000000000000e+03 2.737641716003417969e+01 1.628127098083496094e+01 -1.628593653440475464e-01 7.396915435791015625e+00 2.170216798782348633e+00 4.513369500637054443e-01
1.965000000000000000e+03 7.092231750488281250e+01 -1.633428573608398438e+01 -1.194079127162694931e-02 7.897409915924072266e+00 2.365640640258789062e+00 -7.066050171852111816e-02
1.966000000000000000e+03 7.272057342529296875e+01 1.387565994262695312e+01 -6.299184635281562805e-03 7.642750263214111328e+00 2.290935277938842773e+00 -1.266833245754241943e-01
1.967000000000000000e+03 7.141284942626953125e+01 -1.110108280181884766e+01 -1.113655697554349899e-02 7.875737667083740234e+00 2.359380483627319336e+00 -7.876984030008316040e-02
1.968000000000000000e+03 3.006909942626953125e+01 1.326495742797851562e+01 -1.342356055974960327e-01 7.571304798126220703e+00 2.231120824813842773e+00 3.790676593780517578e-01
1.969000000000000000e+03 7.123275756835937500e+01 -3.386811733245849609e+00 -1.300274394452571869e-02 7.818758010864257812e+00 2.341726541519165039e+00 -9.990939497947692871e-02
1.970000000000000000e+03 3.064818191528320312e+01 1.971572113037109375e+01 -3.796476125717163086e-01 7.792553424835205078e+00 2.223871707916259766e+00 4.798432588577270508e-01
1.971000000000000000e+03 6.824401378631591797e+00 2.548327827453613281e+01 -5.641462281346321106e-03 -3.892674343660473824e-03 -2.860240871086716652e-03 -1.407560543157160282e-03
1.972000000000000000e+03 6.849800586700439453e+00 2.418409919738769531e+01 8.439192548394203186e-03 2.784018171951174736e-03 3.366963239386677742e-03 6.437048432417213917e-04
1.973000000000000000e+03 7.258369445800781250e+01 -1.365510082244873047e+01 -8.028295822441577911e-03 7.906812191009521484e+00 2.369635105133056641e+00 -6.562558561563491821e-02
1.974000000000000000e+03 2.863769721984863281e+01 1.749217224121093750e+01 -2.453497648239135742e-01 7.520528316497802734e+00 2.182553529739379883e+00 4.896985590457916260e-01
1.975000000000000000e+03 6.751466751098632812e+00 -1.817384719848632812e+01 4.384247586131095886e-03 3.786065615713596344e-03 2.451094100251793861e-03 2.670770045369863510e-03
1.976000000000000000e+03 6.969088554382324219e+00 -2.396886634826660156e+01 -5.345235113054513931e-03 -2.899838611483573914e-03 -2.473521977663040161e-03 -1.225478714331984520e-03
1.977000000000000000e+03 6.978791713714599609e+00 -2.742898750305175781e+01 2.885037334635853767e-03 9.382091462612152100e-03 3.680138615891337395e-03 2.177681308239698410e-03
1.978000000000000000e+03 7.150310516357421875e+01 1.243917465209960938e+01 -9.471957571804523468e-03 7.671171665191650391e+00 2.298509836196899414e+00 -1.391739547252655029e-01
1.979000000000000000e+03 8.051170349121093750e+00 1.743378257751464844e+01 7.350080180913209915e-03 2.924752421677112579e-03 3.082449780777096748e-03 2.831392921507358551e-04
1.980000000000000000e+03 7.338617324829101562e+00 1.914989662170410156e+01 4.100620280951261520e-03 3.092000493779778481e-03 2.157786162570118904e-03 -4.542462527751922607e-03
1.981000000000000000e+03 2.750978851318359375e+01 2.025855827331542969e+01 -3.166633844375610352e-01 7.412127971649169922e+00 2.128639459609985352e+00 6.022792458534240723e-01
1.982000000000000000e+03 7.821553230285644531e+00 -1.603597831726074219e+01 -3.568811574950814247e-03 -2.435036702081561089e-03 -1.801154459826648235e-03 -9.878715500235557556e-04
1.983000000000000000e+03 2.723090934753417969e+01 2.702660369873046875e+01 -7.106160521507263184e-01 7.826691150665283203e+00 2.134822607040405273e+00 9.467121362686157227e-01
1.984000000000000000e+03 2.791522979736328125e+01 2.647587013244628906e+01 -6.939964294433593750e-01 7.951714515686035156e+00 2.177315473556518555e+00 8.236102461814880371e-01
1.985000000000000000e+03 2.896752548217773438e+01 -2.545269966125488281e+00 -1.863978803157806396e-02 7.425459384918212891e+00 2.222045898437500000e+00 1.595479696989059448e-01
1.986000000000000000e+03 2.887554740905761719e+01 2.362537002563476562e+01 -5.417653918266296387e-01 7.818952560424804688e+00 2.183156251907348633e+00 6.546840071678161621e-01
1.987000000000000000e+03 1.092184638977050781e+01 -2.383917236328125000e+01 -7.197157829068601131e-04 -4.544282797724008560e-03 -1.579199568368494511e-03 1.739516301313415170e-05
1.988000000000000000e+03 9.708969116210937500e+00 -2.143816184997558594e+01 -4.137000534683465958e-03 -4.621865693479776382e-03 -2.627659821882843971e-03 -4.152410663664340973e-03
1.989000000000000000e+03 9.495818138122558594e+00 -2.459616851806640625e+01 -1.732926233671605587e-03 -6.658564321696758270e-03 -2.517447108402848244e-03 8.642488974146544933e-04
1.990000000000000000e+03 2.869258117675781250e+01 1.477207279205322266e+01 -1.507471948862075806e-01 7.503571033477783203e+00 2.205847024917602539e+00 4.173779785633087158e-01
1.991000000000000000e+03 8.900568008422851562e+00 -1.738711357116699219e+01 -3.290442051365971565e-03 -2.047690097242593765e-03 -1.601439551450312138e-03 2.932055795099586248e-04
1.992000000000000000e+03 9.631924629211425781e+00 -5.965558528900146484e+00 2.421504352241754532e-03 4.957157652825117111e-04 8.751660352572798729e-04 -1.227941131219267845e-03
1.993000000000000000e+03 8.617503166198730469e+00 -6.802533626556396484e+00 1.748558715917170048e-03 4.227739409543573856e-04 6.513997795991599560e-04 -1.390229444950819016e-03
1.994000000000000000e+03 9.015328407287597656e+00 7.506437778472900391e+00 1.174522185465320945e-05 -8.510098559781908989e-04 -2.517793909646570683e-04 -3.551197703927755356e-03
1.995000000000000000e+03 9.209204673767089844e+00 -2.584183311462402344e+01 -1.452389522455632687e-03 5.293806083500385284e-03 1.152424956671893597e-03 5.800893995910882950e-04
1.996000000000000000e+03 8.805812835693359375e+00 -2.717559242248535156e+01 -1.223457045853137970e-03 -5.175484344363212585e-03 -1.919682370498776436e-03 1.705618342384696007e-04
1.997000000000000000e+03 2.874666976928710938e+01 1.336059570312500000e+01 -1.083461195230484009e-01 7.504732131958007812e+00 2.218915700912475586e+00 3.868905901908874512e-01
1.998000000000000000e+03 6.937666893005371094e+00 1.006726837158203125e+01 -3.164021298289299011e-03 -2.324343193322420120e-03 -1.646509277634322643e-03 -1.414070138707756996e-03
1.999000000000000000e+03 7.167506408691406250e+01 2.175843620300292969e+01 5.476458463817834854e-03 7.562290191650390625e+00 2.270329952239990234e+00 -1.436100900173187256e-01
2.000000000000000000e+03 7.053234100341796875e+01 1.974496269226074219e+01 1.132756588049232960e-03 7.603248596191406250e+00 2.281314373016357422e+00 -1.565918177366256714e-01
2.001000000000000000e+03 2.874306678771972656e+01 2.005312538146972656e+01 -3.550329208374023438e-01 7.591305732727050781e+00 2.170881748199462891e+00 5.671988129615783691e-01
2.002000000000000000e+03 2.887894058227539062e+01 2.106761169433593750e+01 -4.109348952770233154e-01 7.651906967163085938e+00 2.172291517257690430e+00 5.970914959907531738e-01
2.003000000000000000e+03 2.727063179016113281e+01 6.434255599975585938e+00 8.203905075788497925e-02 7.470489978790283203e+00 2.265758752822875977e+00 2.590821683406829834e-01
2.004000000000000000e+03 2.690240669250488281e+01 -6.801124572753906250e+00 -2.711289189755916595e-02 7.327691555023193359e+00 2.190173625946044922e+00 2.119133025407791138e-01
2.005000000000000000e+03 8.040818214416503906e+00 3.193921661376953125e+01 3.200172446668148041e-03 -8.245964534580707550e-03 -1.513737719506025314e-03 -8.841252885758876801e-03
2.006000000000000000e+03 8.098055839538574219e+00 3.064776992797851562e+01 1.430291682481765747e-02 -8.839199319481849670e-03 1.639115158468484879e-03 -9.238847997039556503e-04
2.007000000000000000e+03 2.700714683532714844e+01 -1.171493148803710938e+01 2.885145135223865509e-02 7.231590270996093750e+00 2.178132534027099609e+00 1.858298480510711670e-01
2.008000000000000000e+03 2.922508430480957031e+01 -1.136470222473144531e+01 -4.053249023854732513e-03 7.276809215545654297e+00 2.181826829910278320e+00 1.421809792518615723e-01
2.009000000000000000e+03 7.285336303710937500e+01 -2.968556785583496094e+01 -9.451108053326606750e-03 7.995180606842041016e+00 2.395718812942504883e+00 -3.007620759308338165e-02
2.010000000000000000e+03 2.855268287658691406e+01 7.673149108886718750e+00 3.705957531929016113e-02 7.486628532409667969e+00 2.257106542587280273e+00 2.795750200748443604e-01
2.011000000000000000e+03 2.736564254760742188e+01 2.568389129638671875e+01 -6.276308894157409668e-01 7.672509193420410156e+00 2.113463401794433594e+00 8.773922920227050781e-01
2.012000000000000000e+03 2.771382522583007812e+01 2.414912223815917969e+01 -5.410267710685729980e-01 7.606256961822509766e+00 2.119569063186645508e+00 7.743268609046936035e-01
2.013000000000000000e+03 8.030562400817871094e+00 1.020443725585937500e+01 3.779885126277804375e-03 2.004480920732021332e-03 1.735309837386012077e-03 1.481571700423955917e-03
2.014000000000000000e+03 7.162785339355468750e+01 2.635141944885253906e+01 1.985905691981315613e-02 7.508388042449951172e+00 2.258474111557006836e+00 -1.324104219675064087e-01
2.015000000000000000e+03 7.096386718750000000e+01 -2.956074714660644531e+01 -1.496605016291141510e-02 7.952867507934570312e+00 2.381370306015014648e+00 -3.791111335158348083e-02
2.016000000000000000e+03 7.098774719238281250e+01 -2.651914024353027344e+01 -1.400641072541475296e-02 7.943567752838134766e+00 2.378868341445922852e+00 -4.565776512026786804e-02
2.017000000000000000e+03 8.104878425598144531e+00 2.934709739685058594e+01 -5.213489755988121033e-03 -4.968848545104265213e-03 -3.054701490327715874e-03 -2.637069439515471458e-03
2.018000000000000000e+03 7.073459625244140625e+01 2.527239322662353516e+00 -1.545004732906818390e-02 7.770790576934814453e+00 2.326602220535278320e+00 -1.195821762084960938e-01
2.019000000000000000e+03 1.042082691192626953e+01 -3.102402114868164062e+01 -2.629522606730461121e-02 4.502653609961271286e-03 -6.537771783769130707e-03 1.707041077315807343e-02
2.020000000000000000e+03 9.584317207336425781e+00 -3.046045684814453125e+01 -1.929697021842002869e-02 -8.047620765864849091e-03 -8.203377015888690948e-03 4.686953965574502945e-03
2.021000000000000000e+03 7.275045776367187500e+01 -7.046888828277587891e+00 -9.068417362868785858e-03 7.860826969146728516e+00 2.355527639389038086e+00 -7.845608144998550415e-02
2.022000000000000000e+03 6.976879119873046875e+01 7.235166072845458984e+00 -1.789779774844646454e-02 7.732352256774902344e+00 2.314336299896240234e+00 -1.421562582254409790e-01
2.023000000000000000e+03 7.125792694091796875e+01 8.356800079345703125e+00 -1.288720034062862396e-02 7.716026782989501953e+00 2.310941934585571289e+00 -1.315019577741622925e-01
2.024000000000000000e+03 2.900398445129394531e+01 1.075591325759887695e+00 1.947094872593879700e-02 7.459762573242187500e+00 2.243770122528076172e+00 1.629625260829925537e-01
2.025000000000000000e+03 2.849983596801757812e+01 6.321296691894531250e+00 5.648867040872573853e-02 7.476851940155029297e+00 2.260002136230468750e+00 2.539380788803100586e-01
2.026000000000000000e+03 1.187577342987060547e+01 3.352778625488281250e+01 -2.634192444384098053e-02 -3.473539371043443680e-03 -8.944639004766941071e-03 1.143820700235664845e-03
2.027000000000000000e+03 1.040569686889648438e+01 3.384721374511718750e+01 2.407631278038024902e-02 -2.875889837741851807e-02 -1.404776121489703655e-03 8.559932932257652283e-03
2.028000000000000000e+03 2.732952499389648438e+01 -4.024375975131988525e-01 1.064423122443258762e-03 7.442516326904296875e+00 2.233074188232421875e+00 1.726427078247070312e-01
2.029000000000000000e+03 2.846711158752441406e+01 5.014392375946044922e+00 6.567093729972839355e-02 7.470242977142333984e+00 2.260774135589599609e+00 2.243140339851379395e-01
2.030000000000000000e+03 6.549323081970214844e+00 3.584717941284179688e+01 -1.287660468369722366e-02 -3.925020340830087662e-03 -5.040487274527549744e-03 -1.459857262670993805e-02
2.031000000000000000e+03 7.552111625671386719e+00 3.316485595703125000e+01 -1.026751380413770676e-02 -1.173698157072067261e-02 -6.601348984986543655e-03 3.334680804982781410e-03
2.032000000000000000e+03 7.098522949218750000e+01 -1.478193950653076172e+01 -1.032861974090337753e-02 7.890028953552246094e+00 2.363910198211669922e+00 -7.291923463344573975e-02
2.033000000000000000e+03 7.146251678466796875e+01 1.382181358337402344e+01 -7.825620472431182861e-03 7.655031204223632812e+00 2.294161796569824219e+00 -1.416958868503570557e-01
2.034000000000000000e+03 2.822282981872558594e+01 -2.823404312133789062e+01 4.113316535949707031e-02 7.002934455871582031e+00 2.113220214843750000e+00 1.183077022433280945e-01
2.035000000000000000e+03 8.814875602722167969e+00 -3.143967437744140625e+01 -2.063647657632827759e-02 1.723392307758331299e-02 -1.020766212604939938e-03 6.535522174090147018e-03
2.036000000000000000e+03 2.537429237365722656e+01 -2.932779693603515625e+01 1.244094222784042358e-01 6.907636642456054688e+00 2.109613895416259766e+00 1.984837949275970459e-01
2.037000000000000000e+03 6.901661682128906250e+01 -2.076949310302734375e+01 -1.584044098854064941e-02 7.887174606323242188e+00 2.361400365829467773e+00 -6.836999207735061646e-02
2.038000000000000000e+03 7.182031250000000000e+01 2.360634040832519531e+01 1.095332764089107513e-02 7.538561820983886719e+00 2.264854669570922852e+00 -1.385944187641143799e-01
2.039000000000000000e+03 9.694824218750000000e+00 -1.250939083099365234e+01 -3.425225848332047462e-03 -3.984709910582751036e-04 -1.147109083831310272e-03 -3.736446160473860800e-05
2.040000000000000000e+03 9.231187820434570312e+00 -1.503843307495117188e+01 -3.007540479302406311e-03 -2.152440370991826057e-03 -1.547994324937462807e-03 -1.600113464519381523e-04
2.041000000000000000e+03 7.115943145751953125e+01 2.786344146728515625e+01 2.862955071032047272e-02 7.506984233856201172e+00 2.260684013366699219e+00 -1.304195821285247803e-01
2.042000000000000000e+03 2.729582977294921875e+01 -1.308896160125732422e+01 2.037484943866729736e-02 7.202982425689697266e+00 2.167007207870483398e+00 1.494534760713577271e-01
2.043000000000000000e+03 7.635361671447753906e+00 2.201033401489257812e+01 -8.130596950650215149e-03 -7.380743045359849930e-04 -2.660601399838924408e-03 3.012478351593017578e-03
2.044000000000000000e+03 6.830535411834716797e+00 2.810445404052734375e+01 -5.747413728386163712e-03 -3.785921027883887291e-03 -2.860000357031822205e-03 -2.043559914454817772e-03
2.045000000000000000e+03 8.551672935485839844e+00 3.590711212158203125e+01 2.496156375855207443e-04 -2.241493947803974152e-02 -6.649597082287073135e-03 8.066143840551376343e-03
2.046000000000000000e+03 9.340831756591796875e+00 2.413607025146484375e+01 1.388491410762071609e-02 9.448446216993033886e-04 4.448927473276853561e-03 -1.930287253344431520e-04
2.047000000000000000e+03 2.577654457092285156e+01 -2.513763427734375000e+01 -3.930660337209701538e-02 6.996898651123046875e+00 2.087277650833129883e+00 1.833706647157669067e-01
2.048000000000000000e+03 2.521258926391601562e+01 -2.275234985351562500e+01 -8.444479852914810181e-02 7.015135288238525391e+00 2.079207181930541992e+00 1.742949187755584717e-01
2.049000000000000000e+03 9.599844932556152344e+00 -3.716277313232421875e+01 -5.181984975934028625e-02 5.894817784428596497e-02 2.138498704880475998e-03 -6.015861034393310547e-02
2.050000000000000000e+03 1.262352466583251953e+01 -3.288848114013671875e+01 6.646460853517055511e-03 -2.194916456937789917e-02 -4.590811207890510559e-03 1.706925407052040100e-02
2.051000000000000000e+03 1.160816192626953125e+01 -3.740410614013671875e+01 -1.589841544628143311e-01 9.201328456401824951e-02 -2.009126171469688416e-02 -1.707556657493114471e-02
2.052000000000000000e+03 2.632343292236328125e+01 3.312385559082031250e+01 -3.688139915466308594e-01 1.010488700866699219e+01 2.920821905136108398e+00 1.246514797210693359e+00
2.053000000000000000e+03 2.522307968139648438e+01 3.172721672058105469e+01 -5.714796185493469238e-01 7.660680294036865234e+00 2.126760244369506836e+00 1.889009952545166016e+00
2.054000000000000000e+03 2.585555458068847656e+01 2.920256996154785156e+01 -7.410736083984375000e-01 7.542529106140136719e+00 2.040436744689941406e+00 1.340021491050720215e+00
2.055000000000000000e+03 2.536373138427734375e+01 2.984949493408203125e+01 -6.902108192443847656e-01 7.326971054077148438e+00 1.991028070449829102e+00 1.506863832473754883e+00
2.056000000000000000e+03 2.904638481140136719e+01 2.789704132080078125e+01 -6.984502077102661133e-01 8.474443435668945312e+00 2.332798004150390625e+00 5.825184583663940430e-01
2.057000000000000000e+03 2.754934120178222656e+01 3.394892501831054688e+01 7.733411192893981934e-01 1.074115562438964844e+01 3.454349040985107422e+00 -2.368773370981216431e-01
2.058000000000000000e+03 2.821142196655273438e+01 3.466750717163085938e+01 1.924132108688354492e+00 1.027247428894042969e+01 3.658982038497924805e+00 -4.891359806060791016e-01
2.059000000000000000e+03 2.417437553405761719e+01 3.325669479370117188e+01 4.425531327724456787e-01 5.792669296264648438e+00 1.870566725730895996e+00 2.658563613891601562e+00
2.060000000000000000e+03 2.504294013977050781e+01 3.224723815917968750e+01 -4.026615917682647705e-01 7.544800281524658203e+00 2.142641544342041016e+00 2.087767362594604492e+00
2.061000000000000000e+03 2.401797103881835938e+01 3.202103805541992188e+01 -1.217671632766723633e-01 5.730768203735351562e+00 1.682700276374816895e+00 2.172992467880249023e+00
2.062000000000000000e+03 2.819982910156250000e+01 3.673983001708984375e+01 3.210951089859008789e+00 1.001403903961181641e+01 3.967496871948242188e+00 8.859840035438537598e-01
2.063000000000000000e+03 2.831882476806640625e+01 3.609049224853515625e+01 3.253368854522705078e+00 9.926904678344726562e+00 3.954082250595092773e+00 2.348128259181976318e-01
2.064000000000000000e+03 2.518901634216308594e+01 3.090099716186523438e+01 -6.516230702400207520e-01 7.335957050323486328e+00 2.005300283432006836e+00 1.737639427185058594e+00
2.065000000000000000e+03 2.497813987731933594e+01 3.355366516113281250e+01 1.346278041601181030e-01 8.156868934631347656e+00 2.487448930740356445e+00 2.715576648712158203e+00
2.066000000000000000e+03 2.693113517761230469e+01 3.954850006103515625e+01 -6.605313420295715332e-01 1.097054004669189453e+01 3.093002557754516602e+00 2.011760175228118896e-01
2.067000000000000000e+03 2.811623764038085938e+01 3.715640640258789062e+01 2.868494987487792969e+00 1.028718757629394531e+01 3.946704864501953125e+00 1.233365654945373535e+00
2.068000000000000000e+03 2.860326194763183594e+01 3.723009109497070312e+01 2.638288497924804688e+00 9.958894729614257812e+00 3.779155015945434570e+00 1.103132843971252441e+00
2.069000000000000000e+03 7.854548931121826172e+00 -8.750395774841308594e+00 1.100705121643841267e-03 -5.143952439539134502e-04 1.758929720381274819e-04 -2.679285244084894657e-04
2.070000000000000000e+03 9.435818672180175781e+00 6.737323760986328125e+00 2.733959117904305458e-03 1.004460849799215794e-03 1.121526001952588558e-03 2.263942500576376915e-03
2.071000000000000000e+03 2.544241333007812500e+01 3.929457855224609375e+01 -6.150668859481811523e-01 9.344561576843261719e+00 2.618848562240600586e+00 -1.348918437957763672e+00
2.072000000000000000e+03 2.628273773193359375e+01 2.846832084655761719e+01 -7.503252625465393066e-01 7.684824943542480469e+00 2.080349922180175781e+00 1.194055676460266113e+00
2.073000000000000000e+03 2.671523475646972656e+01 2.771598815917968750e+01 -7.332127690315246582e-01 7.736143112182617188e+00 2.100878953933715820e+00 1.063166260719299316e+00
2.074000000000000000e+03 2.694142913818359375e+01 3.314494705200195312e+01 -1.590926498174667358e-01 1.035981082916259766e+01 3.060215473175048828e+00 5.942685008049011230e-01
2.075000000000000000e+03 7.107622528076171875e+01 -8.879893422126770020e-01 -1.422810181975364685e-02 7.799661159515380859e+00 2.335629940032958984e+00 -1.066002026200294495e-01
2.076000000000000000e+03 7.139664459228515625e+01 -4.627676010131835938e+00 -1.166712399572134018e-02 7.829578399658203125e+00 2.345373392105102539e+00 -9.450196474790573120e-02
2.077000000000000000e+03 9.112970352172851562e+00 1.035161590576171875e+01 -4.598383791744709015e-03 -1.605838187970221043e-03 -1.861266675405204296e-03 -1.829170796554535627e-04
2.078000000000000000e+03 7.021932983398437500e+01 -6.024225234985351562e+00 -1.480118744075298309e-02 7.829125881195068359e+00 2.344297409057617188e+00 -9.920697659254074097e-02
2.079000000000000000e+03 7.163613128662109375e+01 5.170519351959228516e+00 -1.279911957681179047e-02 7.746411323547363281e+00 2.320083618164062500e+00 -1.200090572237968445e-01
2.080000000000000000e+03 6.994608306884765625e+01 4.399691104888916016e+00 -1.796580664813518524e-02 7.755830287933349609e+00 2.321359395980834961e+00 -1.315011233091354370e-01
2.081000000000000000e+03 8.606766700744628906e+00 8.179941177368164062e+00 1.524026505649089813e-03 2.374225063249468803e-03 1.169475493952631950e-03 2.173914806917309761e-03
2.082000000000000000e+03 7.734623908996582031e+00 -1.715246582031250000e+01 3.907007630914449692e-03 2.212409628555178642e-03 1.835825154557824135e-03 6.991298287175595760e-04
2.083000000000000000e+03 1.045314693450927734e+01 -9.049890518188476562e+00 3.140898887068033218e-03 8.132287184707820415e-04 1.186238252557814121e-03 -1.014893525280058384e-03
2.084000000000000000e+03 7.138278007507324219e+00 6.221604347229003906e+00 4.656752862501889467e-04 1.223838073201477528e-03 5.068540340289473534e-04 8.896965882740914822e-04
2.085000000000000000e+03 8.052111625671386719e+00 6.134006977081298828e+00 2.262091264128684998e-03 3.885536862071603537e-04 7.951934821903705597e-04 2.221299102529883385e-03
2.086000000000000000e+03 2.875612068176269531e+01 1.883775520324707031e+01 -3.055600821971893311e-01 7.559772968292236328e+00 2.176264047622680664e+00 5.310810208320617676e-01
2.087000000000000000e+03 2.941978073120117188e+01 2.205098724365234375e+01 -4.673227965831756592e-01 7.780025482177734375e+00 2.193810701370239258e+00 5.816775560379028320e-01
2.088000000000000000e+03 6.924268341064453125e+01 -2.835011291503906250e+01 -1.928341947495937347e-02 7.916352272033691406e+00 2.369120597839355469e+00 -4.630042240023612976e-02
2.089000000000000000e+03 6.999773406982421875e+01 -9.925173759460449219e+00 -1.427251100540161133e-02 7.851028919219970703e+00 2.351026773452758789e+00 -9.042774885892868042e-02
2.090000000000000000e+03 7.012570953369140625e+01 -1.129434680938720703e+01 -1.426125690340995789e-02 7.859235286712646484e+00 2.353492259979248047e+00 -8.654288947582244873e-02
2.091000000000000000e+03 6.956841278076171875e+01 -1.629387664794921875e+01 -1.273719221353530884e-02 7.878327846527099609e+00 2.359677076339721680e+00 -7.530782371759414673e-02
2.092000000000000000e+03 6.949682617187500000e+01 -1.779244613647460938e+01 -1.537075079977512360e-02 7.882975101470947266e+00 2.360281229019165039e+00 -7.421207427978515625e-02
2.093000000000000000e+03 7.306167602539062500e+00 -7.281490325927734375e+00 1.356890541501343250e-03 -2.858040388673543930e-04 3.213259624317288399e-04 -5.375815671868622303e-04
2.094000000000000000e+03 7.020502471923828125e+01 1.375505733489990234e+01 -1.027650199830532074e-02 7.669908523559570312e+00 2.297889709472656250e+00 -1.542054414749145508e-01
2.095000000000000000e+03 6.894416809082031250e+01 1.795683097839355469e+01 -2.697786316275596619e-03 7.646201133728027344e+00 2.293051004409790039e+00 -1.731381565332412720e-01
2.096000000000000000e+03 7.006602478027343750e+01 1.659155464172363281e+01 -5.436393432319164276e-03 7.642217636108398438e+00 2.291034460067749023e+00 -1.598139703273773193e-01
2.097000000000000000e+03 7.140940856933593750e+01 -8.481679916381835938e+00 -1.159998681396245956e-02 7.857462406158447266e+00 2.353758811950683594e+00 -8.490535616874694824e-02
2.098000000000000000e+03 6.848768615722656250e+01 -1.008138370513916016e+01 -1.783984899520874023e-02 7.834580421447753906e+00 2.345022201538085938e+00 -9.734320640563964844e-02
2.099000000000000000e+03 6.980181884765625000e+01 8.528832435607910156e+00 -1.721092499792575836e-02 7.722772121429443359e+00 2.311668395996093750e+00 -1.461188495159149170e-01
2.100000000000000000e+03 7.131966400146484375e+01 9.777701377868652344e+00 -1.192629709839820862e-02 7.700924396514892578e+00 2.306699514389038086e+00 -1.339606940746307373e-01
2.101000000000000000e+03 7.128966522216796875e+01 -1.345341491699218750e+01 -1.238206587731838226e-02 7.886934757232666016e+00 2.362365722656250000e+00 -7.452932000160217285e-02
2.102000000000000000e+03 7.149945068359375000e+01 -1.232956600189208984e+01 -9.413649328052997589e-03 7.883098125457763672e+00 2.362105369567871094e+00 -7.499931752681732178e-02
2.103000000000000000e+03 2.874118041992187500e+01 1.191299915313720703e+01 -6.905912607908248901e-02 7.502779483795166016e+00 2.230116128921508789e+00 3.596407175064086914e-01
2.104000000000000000e+03 2.862679862976074219e+01 1.614019966125488281e+01 -1.915914267301559448e-01 7.503837585449218750e+00 2.193673849105834961e+00 4.511340856552124023e-01
2.105000000000000000e+03 3.165939521789550781e+01 1.651827430725097656e+01 -2.746646404266357422e-01 7.752621173858642578e+00 2.243386983871459961e+00 3.967344164848327637e-01
2.106000000000000000e+03 2.778452873229980469e+01 -8.202912330627441406e+00 -9.287507273256778717e-03 7.308334350585937500e+00 2.189713954925537109e+00 1.911887824535369873e-01
2.107000000000000000e+03 2.838236045837402344e+01 -1.135027527809143066e+00 -6.766782142221927643e-03 7.439311027526855469e+00 2.229763269424438477e+00 1.573935598134994507e-01
2.108000000000000000e+03 2.862022972106933594e+01 9.060172080993652344e+00 6.763814017176628113e-03 7.492658615112304688e+00 2.249826669692993164e+00 3.081285655498504639e-01
2.109000000000000000e+03 3.132100486755371094e+01 1.157951641082763672e+01 -1.041923314332962036e-01 7.601628303527832031e+00 2.249230861663818359e+00 3.252854347229003906e-01
2.110000000000000000e+03 8.842061042785644531e+00 -2.080035400390625000e+01 -4.654413554817438126e-03 4.090732894837856293e-03 -1.691040670266374946e-04 5.801305174827575684e-03
2.111000000000000000e+03 9.382458686828613281e+00 -9.926052093505859375e+00 2.786212367936968803e-03 -2.052183117484673858e-04 7.742982124909758568e-04 -5.564563907682895660e-04
2.112000000000000000e+03 7.426604270935058594e+00 -1.130258941650390625e+01 -2.487904275767505169e-04 1.668871962465345860e-03 4.260244604665786028e-04 -4.192765482002869248e-05
2.113000000000000000e+03 8.067303657531738281e+00 1.407691669464111328e+01 -9.120441973209381104e-03 1.025195349939167500e-03 -2.428574021905660629e-03 -6.995635339990258217e-04
2.114000000000000000e+03 6.894622039794921875e+01 1.361156082153320312e+01 -1.339054200798273087e-02 7.685370922088623047e+00 2.301594018936157227e+00 -1.671226769685745239e-01
2.115000000000000000e+03 8.537037849426269531e+00 -2.296855354309082031e+01 -4.582420457154512405e-03 -3.178627230226993561e-03 -2.328314352780580521e-03 9.831683710217475891e-04
2.116000000000000000e+03 2.980814933776855469e+01 1.604695320129394531e+01 -2.200499325990676880e-01 7.599887371063232422e+00 2.213951349258422852e+00 4.339679479598999023e-01
2.117000000000000000e+03 7.282345771789550781e+00 -9.652817726135253906e+00 -1.442804001271724701e-03 9.642491349950432777e-04 -1.435664598830044270e-04 -5.274376017041504383e-04
2.118000000000000000e+03 2.995517349243164062e+01 1.029884529113769531e+01 -4.732809960842132568e-02 7.535914421081542969e+00 2.246575832366943359e+00 3.224355280399322510e-01
2.119000000000000000e+03 7.301712512969970703e+00 -1.891031646728515625e+01 -1.086146221496164799e-03 -1.879775198176503181e-03 -8.897764491848647594e-04 -5.241504870355129242e-03
2.120000000000000000e+03 7.751494407653808594e+00 -2.036316490173339844e+01 4.498251248151063919e-03 -3.882601624354720116e-03 1.846949453465640545e-04 -5.914907902479171753e-03
2.121000000000000000e+03 9.324240684509277344e+00 3.070030975341796875e+01 -5.605053622275590897e-03 -3.424617461860179901e-03 -2.708901185542345047e-03 -7.150155026465654373e-03
2.122000000000000000e+03 8.056343078613281250e+00 -1.340093898773193359e+01 -2.962780417874455452e-03 -1.616981346160173416e-03 -1.373928505927324295e-03 -3.403456066735088825e-04
2.123000000000000000e+03 6.627241134643554688e+00 -1.467571258544921875e+01 -4.249852616339921951e-03 -1.694447244517505169e-03 -1.783289946615695953e-03 -1.467310823500156403e-03
2.124000000000000000e+03 2.825393295288085938e+01 -7.049768924713134766e+00 -2.928489446640014648e-02 7.349130153656005859e+00 2.195953607559204102e+00 1.830957233905792236e-01
2.125000000000000000e+03 3.071020507812500000e+01 2.429676628112792969e+01 -5.636503100395202637e-01 8.160698890686035156e+00 2.279114484786987305e+00 4.613628089427947998e-01
2.126000000000000000e+03 2.946627616882324219e+01 2.471035766601562500e+01 -6.008294820785522461e-01 8.043797492980957031e+00 2.232890367507934570e+00 5.964329838752746582e-01
2.127000000000000000e+03 8.014933586120605469e+00 -2.546548843383789062e+01 -3.000536467880010605e-03 -5.573832429945468903e-03 -2.572310622781515121e-03 -2.666248474270105362e-03
2.128000000000000000e+03 7.365390300750732422e+00 -2.145843124389648438e+01 -4.644016735255718231e-03 -9.310954483225941658e-04 -1.672533689998090267e-03 1.916452427394688129e-03
2.129000000000000000e+03 8.259358406066894531e+00 -2.424557304382324219e+01 2.067534951493144035e-03 2.440759679302573204e-03 1.352488412521779537e-03 2.763695374596863985e-04
2.130000000000000000e+03 9.261169433593750000e+00 9.229265213012695312e+00 4.490400664508342743e-03 1.393605140037834644e-03 1.765201799571514130e-03 -5.445368151413276792e-05
2.131000000000000000e+03 2.871343803405761719e+01 -2.080064010620117188e+01 -6.573029607534408569e-02 7.152361392974853516e+00 2.125989198684692383e+00 1.190753877162933350e-01
2.132000000000000000e+03 2.725794410705566406e+01 -2.281035614013671875e+01 -6.335713714361190796e-02 7.079591751098632812e+00 2.104870319366455078e+00 1.484989225864410400e-01
2.133000000000000000e+03 2.968788146972656250e+01 -2.170364952087402344e+01 -5.290925130248069763e-02 7.158130168914794922e+00 2.131566286087036133e+00 1.084453687071800232e-01
2.134000000000000000e+03 1.072467136383056641e+01 -3.389993286132812500e+01 -3.229088708758354187e-02 4.686639644205570221e-03 -8.281274698674678802e-03 1.187524851411581039e-02
2.135000000000000000e+03 7.087805175781250000e+01 -2.158231258392333984e+00 -1.487068179994821548e-02 7.807682991027832031e+00 2.337843656539916992e+00 -1.060031056404113770e-01
2.136000000000000000e+03 8.447886466979980469e+00 -1.206455612182617188e+01 2.618427854031324387e-03 -2.067960449494421482e-04 7.234895019792020321e-04 -3.127617528662085533e-04
2.137000000000000000e+03 6.873012542724609375e+01 -2.234660911560058594e+01 -1.768272370100021362e-02 7.885729789733886719e+00 2.360414266586303711e+00 -6.498420983552932739e-02
2.138000000000000000e+03 7.076950073242187500e+01 -1.941183090209960938e+01 -1.213967427611351013e-02 7.910831928253173828e+00 2.369607686996459961e+00 -6.416848301887512207e-02
2.139000000000000000e+03 2.902567291259765625e+01 -1.285444164276123047e+01 6.031867116689682007e-03 7.250972747802734375e+00 2.177101373672485352e+00 1.377965211868286133e-01
2.140000000000000000e+03 2.811405754089355469e+01 -1.100031661987304688e+01 1.383327320218086243e-02 7.252483367919921875e+00 2.179894924163818359e+00 1.661934107542037964e-01
2.141000000000000000e+03 7.208938598632812500e+01 6.393050193786621094e+00 -1.147431321442127228e-02 7.732579708099365234e+00 2.316331624984741211e+00 -1.184755712747573853e-01
2.142000000000000000e+03 2.977035331726074219e+01 7.541839599609375000e+00 1.329548750072717667e-02 7.506546974182128906e+00 2.255952835083007812e+00 2.702753543853759766e-01
2.143000000000000000e+03 2.985511398315429688e+01 8.902847290039062500e+00 -1.271793246269226074e-02 7.521640300750732422e+00 2.252676725387573242e+00 2.957649827003479004e-01
2.144000000000000000e+03 7.127223968505859375e+01 1.669732666015625000e+01 -4.721939098089933395e-03 7.625061035156250000e+00 2.286101818084716797e+00 -1.467625200748443604e-01
2.145000000000000000e+03 8.072459220886230469e+00 2.419066047668457031e+01 -6.411182694137096405e-03 -4.192335531115531921e-03 -3.181055421009659767e-03 7.737190462648868561e-04
2.146000000000000000e+03 2.637133216857910156e+01 -2.257339859008789062e+01 -6.103099510073661804e-02 7.066866874694824219e+00 2.101750850677490234e+00 1.784290075302124023e-01
2.147000000000000000e+03 2.538376998901367188e+01 -2.396121788024902344e+01 -5.284031480550765991e-02 7.026829242706298828e+00 2.092196702957153320e+00 1.950237601995468140e-01
2.148000000000000000e+03 2.996629714965820312e+01 1.471620655059814453e+01 -1.731999367475509644e-01 7.582654953002929688e+00 2.222836494445800781e+00 4.052053093910217285e-01
2.149000000000000000e+03 6.995574188232421875e+01 2.154649162292480469e+01 6.219851784408092499e-03 7.595473289489746094e+00 2.280507802963256836e+00 -1.604207754135131836e-01
2.150000000000000000e+03 7.900655269622802734e+00 -2.842760467529296875e+01 -1.525656878948211670e-02 -3.036412643268704414e-03 -5.487894639372825623e-03 2.105368766933679581e-04
2.151000000000000000e+03 2.848377227783203125e+01 3.724817752838134766e+00 5.811037123203277588e-02 7.467794895172119141e+00 2.257771730422973633e+00 2.023968398571014404e-01
2.152000000000000000e+03 3.092618751525878906e+01 6.147172451019287109e+00 6.535185035318136215e-03 7.518583774566650391e+00 2.257535696029663086e+00 2.301877439022064209e-01
2.153000000000000000e+03 7.065349578857421875e+01 -2.104104042053222656e+01 -1.159265078604221344e-02 7.916784286499023438e+00 2.371557474136352539e+00 -6.073638424277305603e-02
2.154000000000000000e+03 7.023836517333984375e+01 2.598493194580078125e+01 2.251674048602581024e-02 7.544536590576171875e+00 2.270116090774536133e+00 -1.456132531166076660e-01
2.155000000000000000e+03 7.896776199340820312e+00 1.152991771697998047e+01 -5.109442397952079773e-03 -1.288346713408827782e-03 -1.919336849823594093e-03 -1.629782724194228649e-03
2.156000000000000000e+03 2.947008323669433594e+01 -1.000620651245117188e+01 -4.493291489779949188e-03 7.306550502777099609e+00 2.190617322921752930e+00 1.543983072042465210e-01
2.157000000000000000e+03 6.830442810058593750e+01 -3.083748626708984375e+01 -2.309458516538143158e-02 7.904033660888671875e+00 2.364281654357910156e+00 -4.032888635993003845e-02
2.158000000000000000e+03 6.942026519775390625e+01 1.907252311706542969e+01 -3.971505211666226387e-04 7.626495838165283203e+00 2.287829637527465820e+00 -1.677321791648864746e-01
2.159000000000000000e+03 7.060695648193359375e+01 -2.810829734802246094e+01 -1.532865036278963089e-02 7.939853668212890625e+00 2.377357482910156250e+00 -4.418123513460159302e-02
2.160000000000000000e+03 6.870308685302734375e+01 -2.680446815490722656e+01 -1.881271973252296448e-02 7.899467468261718750e+00 2.364196300506591797e+00 -5.304465442895889282e-02
2.161000000000000000e+03 2.973271942138671875e+01 2.046601867675781250e+01 -3.991963267326354980e-01 7.733855247497558594e+00 2.200397729873657227e+00 5.328399538993835449e-01
2.162000000000000000e+03 3.047600936889648438e+01 2.145614814758300781e+01 -4.518360495567321777e-01 7.885595798492431641e+00 2.230127811431884766e+00 4.986236989498138428e-01
2.163000000000000000e+03 3.039322471618652344e+01 1.709343552589416504e+00 1.878253184258937836e-02 7.470382690429687500e+00 2.246749401092529297e+00 1.645301282405853271e-01
2.164000000000000000e+03 2.970125007629394531e+01 4.948651790618896484e+00 4.004735499620437622e-02 7.483429908752441406e+00 2.257043123245239258e+00 2.184300571680068970e-01
2.165000000000000000e+03 3.156448936462402344e+01 -8.445257186889648438e+00 -2.198391966521739960e-02 7.364321231842041016e+00 2.202701330184936523e+00 1.194885149598121643e-01
2.166000000000000000e+03 2.842073631286621094e+01 -8.903814315795898438e+00 -8.828980848193168640e-03 7.312936782836914062e+00 2.191232442855834961e+00 1.802941262722015381e-01
2.167000000000000000e+03 6.932315826416015625e+01 -3.313571548461914062e+01 -1.936349458992481232e-02 7.927858352661132812e+00 2.372548580169677734e+00 -3.273838013410568237e-02
2.168000000000000000e+03 9.171901702880859375e+00 1.408089733123779297e+01 9.348122403025627136e-03 -9.634551825001835823e-04 2.515400294214487076e-03 1.356619293801486492e-03
2.169000000000000000e+03 7.014846801757812500e+01 2.442485237121582031e+01 1.646548509597778320e-02 7.563755989074707031e+00 2.274066448211669922e+00 -1.546497941017150879e-01
2.170000000000000000e+03 2.793370056152343750e+01 -2.537671470642089844e+01 -1.683423854410648346e-02 7.051579952239990234e+00 2.110423803329467773e+00 1.496547311544418335e-01
2.171000000000000000e+03 6.725484371185302734e+00 -3.837524414062500000e+01 2.078867517411708832e-02 -6.719934754073619843e-03 4.220622126013040543e-03 -7.145771384239196777e-02
2.172000000000000000e+03 8.893183708190917969e+00 2.150902175903320312e+01 1.335830241441726685e-02 1.108346739783883095e-03 4.339994397014379501e-03 -2.146034967154264450e-03
2.173000000000000000e+03 2.659387016296386719e+01 3.347365188598632812e+01 -1.109914034605026245e-01 1.071020698547363281e+01 3.179764747619628906e+00 7.619006633758544922e-01
2.174000000000000000e+03 2.667277145385742188e+01 3.281774902343750000e+01 -4.131060838699340820e-01 9.991317749023437500e+00 2.873463630676269531e+00 9.235814213752746582e-01
2.175000000000000000e+03 2.557349777221679688e+01 3.133475685119628906e+01 -6.868183612823486328e-01 7.939805507659912109e+00 2.175896167755126953e+00 1.688557624816894531e+00
2.176000000000000000e+03 2.718197441101074219e+01 3.385157012939453125e+01 4.948859512805938721e-01 1.091000080108642578e+01 3.421465873718261719e+00 1.975758699700236320e-03
2.177000000000000000e+03 2.884358024597167969e+01 3.318760681152343750e+01 4.817753732204437256e-01 9.835885047912597656e+00 3.095298051834106445e+00 -2.963092923164367676e-01
2.178000000000000000e+03 2.778190422058105469e+01 3.354040145874023438e+01 4.985308945178985596e-01 1.047584915161132812e+01 3.292314052581787109e+00 -1.947215795516967773e-01
2.179000000000000000e+03 2.868635368347167969e+01 3.474736022949218750e+01 1.986148476600646973e+00 9.915182113647460938e+00 3.570399284362792969e+00 -4.288142025470733643e-01
2.180000000000000000e+03 2.884535408020019531e+01 3.433554077148437500e+01 1.480352282524108887e+00 9.877602577209472656e+00 3.407386541366577148e+00 -4.621942341327667236e-01
2.181000000000000000e+03 2.487287139892578125e+01 3.280901718139648438e+01 -1.670109480619430542e-01 7.449518680572509766e+00 2.184752464294433594e+00 2.370501756668090820e+00
2.182000000000000000e+03 2.916752815246582031e+01 3.526884460449218750e+01 2.220706224441528320e+00 9.570558547973632812e+00 3.537379503250122070e+00 -1.561678498983383179e-01
2.183000000000000000e+03 2.863055419921875000e+01 3.519698715209960938e+01 2.393074274063110352e+00 9.892649650573730469e+00 3.685717105865478516e+00 -3.047693967819213867e-01
2.184000000000000000e+03 2.775459098815917969e+01 2.756689262390136719e+01 -7.410628795623779297e-01 8.099030494689941406e+00 2.207390308380126953e+00 8.608186841011047363e-01
2.185000000000000000e+03 2.540483665466308594e+01 3.286222457885742188e+01 -3.467044234275817871e-01 8.538883209228515625e+00 2.457653522491455078e+00 2.113553285598754883e+00
2.186000000000000000e+03 2.474835014343261719e+01 3.148980903625488281e+01 -4.927610456943511963e-01 6.919312000274658203e+00 1.927965283393859863e+00 1.974396824836730957e+00
2.187000000000000000e+03 2.609677505493164062e+01 3.236883926391601562e+01 -5.891018509864807129e-01 9.188201904296875000e+00 2.579729795455932617e+00 1.470241785049438477e+00
2.188000000000000000e+03 2.587150573730468750e+01 3.038913154602050781e+01 -7.625197768211364746e-01 7.912348747253417969e+00 2.144948720932006836e+00 1.425596714019775391e+00
2.189000000000000000e+03 2.912610626220703125e+01 3.861573028564453125e+01 1.050058722496032715e+00 1.031537532806396484e+01 3.409630060195922852e+00 1.153517127037048340e+00
2.190000000000000000e+03 2.736897087097167969e+01 2.821309852600097656e+01 -7.674112319946289062e-01 8.104207992553710938e+00 2.201039075851440430e+00 9.335337877273559570e-01
2.191000000000000000e+03 2.695389366149902344e+01 2.895205879211425781e+01 -7.818880677223205566e-01 8.128794670104980469e+00 2.204072237014770508e+00 1.031049489974975586e+00
2.192000000000000000e+03 2.902885627746582031e+01 3.582162094116210938e+01 2.640605449676513672e+00 9.607489585876464844e+00 3.674428462982177734e+00 7.700924575328826904e-02
2.193000000000000000e+03 2.864966011047363281e+01 3.672119903564453125e+01 2.883561372756958008e+00 9.864948272705078125e+00 3.824552774429321289e+00 8.164803385734558105e-01
2.194000000000000000e+03 8.329626083374023438e+00 -7.764554977416992188e+00 -1.471899799071252346e-03 -4.505293618422001600e-04 -5.767287802882492542e-04 5.685557844117283821e-04
2.195000000000000000e+03 9.553879737854003906e+00 -6.923770904541015625e+00 -2.567501505836844444e-03 -4.252872313372790813e-04 -8.978366386145353317e-04 9.423237643204629421e-04
2.196000000000000000e+03 2.566053962707519531e+01 3.997041702270507812e+01 -7.551692724227905273e-01 9.365487098693847656e+00 2.583095312118530273e+00 -7.454745173454284668e-01
2.197000000000000000e+03 2.880360984802246094e+01 2.608638191223144531e+01 -6.690359115600585938e-01 8.097690582275390625e+00 2.228596448898315430e+00 6.787955760955810547e-01
2.198000000000000000e+03 6.882354736328125000e+01 -1.161763954162597656e+01 -1.743159443140029907e-02 7.845529079437255859e+00 2.348429203033447266e+00 -9.250747412443161011e-02
2.199000000000000000e+03 6.927111053466796875e+01 -1.312889671325683594e+01 -1.563166268169879913e-02 7.858957290649414062e+00 2.352997779846191406e+00 -8.543361723423004150e-02
2.200000000000000000e+03 8.337746620178222656e+00 7.111778259277343750e+00 2.356564858928322792e-03 3.507579967845231295e-04 8.121968130581080914e-04 2.497614827007055283e-03
2.201000000000000000e+03 6.839818477630615234e+00 8.958501815795898438e+00 4.342837724834680557e-03 1.183304935693740845e-03 1.657842774875462055e-03 1.064489595592021942e-03
2.202000000000000000e+03 6.762097167968750000e+01 1.346831035614013672e+01 -1.695620268583297729e-02 7.700734138488769531e+00 2.305133342742919922e+00 -1.773935109376907349e-01
2.203000000000000000e+03 6.817694854736328125e+01 1.002511692047119141e+01 -2.063257060945034027e-02 7.719586849212646484e+00 2.309686183929443359e+00 -1.632375568151473999e-01
2.204000000000000000e+03 3.172286033630371094e+01 1.907896804809570312e+01 -3.624592721462249756e-01 7.850481033325195312e+00 2.246406555175781250e+00 4.157233238220214844e-01
2.205000000000000000e+03 3.006030273437500000e+01 1.855187034606933594e+01 -3.281768560409545898e-01 7.687372684478759766e+00 2.207758665084838867e+00 4.895504415035247803e-01
2.206000000000000000e+03 7.920150279998779297e+00 1.286715221405029297e+01 7.267733104526996613e-03 2.452972694300115108e-04 2.253909129649400711e-03 1.548667554743587971e-03
2.207000000000000000e+03 3.073719978332519531e+01 -4.560412883758544922e+00 -2.429138123989105225e-02 7.416055679321289062e+00 2.217529296875000000e+00 1.377501636743545532e-01
2.208000000000000000e+03 3.178461265563964844e+01 -3.162560701370239258e+00 -2.495395764708518982e-02 7.448842525482177734e+00 2.227166652679443359e+00 1.287672817707061768e-01
2.209000000000000000e+03 6.192587375640869141e+00 6.442348957061767578e+00 -3.566908126231282949e-04 7.070627179928123951e-04 1.051115759764797986e-04 1.780587830580770969e-03
2.210000000000000000e+03 6.782200622558593750e+01 -1.891951751708984375e+01 -2.100773900747299194e-02 7.861032009124755859e+00 2.352007150650024414e+00 -7.686764001846313477e-02
2.211000000000000000e+03 2.874081420898437500e+01 3.984596633911132812e+01 1.665412075817584991e-02 1.042970085144042969e+01 3.133906602859497070e+00 6.651181578636169434e-01
2.212000000000000000e+03 2.981846809387207031e+01 1.730489540100097656e+01 -2.691343128681182861e-01 7.626057624816894531e+00 2.207077026367187500e+00 4.669402837753295898e-01
2.213000000000000000e+03 3.084208869934082031e+01 1.706429481506347656e+01 -2.855812013149261475e-01 7.707530498504638672e+00 2.226584911346435547e+00 4.358835220336914062e-01
2.214000000000000000e+03 3.120959091186523438e+01 1.010352611541748047e+01 -6.411162018775939941e-02 7.573425292968750000e+00 2.252794027328491211e+00 3.027336001396179199e-01
2.215000000000000000e+03 2.904467964172363281e+01 -1.440599536895751953e+01 -1.084392424672842026e-02 7.225900650024414062e+00 2.164517164230346680e+00 1.134053096175193787e-01
2.216000000000000000e+03 3.070754814147949219e+01 -1.268109893798828125e+01 -1.624360308051109314e-02 7.286123275756835938e+00 2.180963993072509766e+00 1.057102456688880920e-01
2.217000000000000000e+03 8.652100563049316406e+00 -9.420299530029296875e+00 -1.335923589067533612e-04 1.156586455181241035e-03 3.068982332479208708e-04 -3.410169738344848156e-04
2.218000000000000000e+03 6.833263397216796875e+01 -2.394488906860351562e+01 -2.142242901027202606e-02 7.883314609527587891e+00 2.358567714691162109e+00 -6.223303452134132385e-02
2.219000000000000000e+03 6.663160705566406250e+01 2.018877983093261719e+01 6.066967733204364777e-03 7.661101818084716797e+00 2.300150632858276367e+00 -1.929000169038772583e-01
2.220000000000000000e+03 6.776389312744140625e+01 1.828160476684570312e+01 -2.334569813683629036e-03 7.659722805023193359e+00 2.297216415405273438e+00 -1.832182407379150391e-01
2.221000000000000000e+03 6.959880828857421875e+00 2.291369056701660156e+01 -1.216614153236150742e-03 -4.619810264557600021e-03 -1.750927302055060863e-03 -1.927334466017782688e-03
2.222000000000000000e+03 7.017603302001953125e+01 -7.259961605072021484e+00 -1.617898419499397278e-02 7.836829662322998047e+00 2.346195220947265625e+00 -9.664865583181381226e-02
2.223000000000000000e+03 6.754982757568359375e+01 1.514375972747802734e+01 -1.240186765789985657e-02 7.688154220581054688e+00 2.302725791931152344e+00 -1.823728233575820923e-01
2.224000000000000000e+03 6.885739898681640625e+01 1.660046386718750000e+01 -6.517647765576839447e-03 7.658550262451171875e+00 2.295609712600708008e+00 -1.732310950756072998e-01
2.225000000000000000e+03 7.098917388916015625e+01 6.939772129058837891e+00 -1.441305875778198242e-02 7.731167793273925781e+00 2.315026283264160156e+00 -1.306128352880477905e-01
2.226000000000000000e+03 3.107491302490234375e+01 8.732258796691894531e+00 -3.354927152395248413e-02 7.550332069396972656e+00 2.255034923553466797e+00 2.808462977409362793e-01
2.227000000000000000e+03 3.144229507446289062e+01 1.322347354888916016e+01 -1.574624776840209961e-01 7.643225193023681641e+00 2.245728731155395508e+00 3.521062135696411133e-01
2.228000000000000000e+03 3.085691642761230469e+01 1.606719398498535156e+01 -2.421080023050308228e-01 7.675423145294189453e+00 2.229994535446166992e+00 4.156215488910675049e-01
2.229000000000000000e+03 3.158947563171386719e+01 -1.728003501892089844e+01 -3.911149874329566956e-02 7.257228851318359375e+00 2.165435314178466797e+00 8.110257238149642944e-02
2.230000000000000000e+03 2.809593009948730469e+01 -1.982513618469238281e+01 -6.758405268192291260e-02 7.139443397521972656e+00 2.121557712554931641e+00 1.184994801878929138e-01
2.231000000000000000e+03 2.958902359008789062e+01 -7.364665508270263672e+00 -1.854881271719932556e-02 7.353857040405273438e+00 2.200592517852783203e+00 1.586424708366394043e-01
2.232000000000000000e+03 8.898056030273437500e+00 -2.947040748596191406e+01 -1.422601868398487568e-03 1.138136722147464752e-02 2.987629501149058342e-03 2.470474690198898315e-03
2.233000000000000000e+03 1.026620864868164062e+01 -2.888174247741699219e+01 -1.773640140891075134e-02 -1.043720357120037079e-02 -8.452081121504306793e-03 8.987622335553169250e-03
2.234000000000000000e+03 6.746479034423828125e+01 -2.723482322692871094e+01 -2.412415668368339539e-02 7.882557392120361328e+00 2.357530117034912109e+00 -5.398517102003097534e-02
2.235000000000000000e+03 2.962810707092285156e+01 3.780708312988281250e+00 4.192356392741203308e-02 7.476457595825195312e+00 2.255514383316040039e+00 1.975860297679901123e-01
2.236000000000000000e+03 6.904714202880859375e+01 2.330053710937500000e+01 1.466777920722961426e-02 7.591729164123535156e+00 2.281919002532958984e+00 -1.661250293254852295e-01
2.237000000000000000e+03 3.097492027282714844e+01 -1.570653438568115234e+01 -3.227883204817771912e-02 7.250716686248779297e+00 2.165531396865844727e+00 8.349702507257461548e-02
2.238000000000000000e+03 2.878683471679687500e+01 -2.265064239501953125e+01 -4.944821819663047791e-02 7.127889156341552734e+00 2.123532295227050781e+00 1.198500320315361023e-01
2.239000000000000000e+03 2.864895439147949219e+01 2.435547113418579102e+00 4.653851315379142761e-02 7.458796024322509766e+00 2.251600265502929688e+00 1.806989759206771851e-01
2.240000000000000000e+03 3.293174743652343750e+01 3.666522741317749023e+00 -1.076128613203763962e-02 7.529494762420654297e+00 2.255620002746582031e+00 1.691918969154357910e-01
2.241000000000000000e+03 3.006257820129394531e+01 2.312073516845703125e+01 -5.259463191032409668e-01 7.962993144989013672e+00 2.231114149093627930e+00 5.386415123939514160e-01
2.242000000000000000e+03 2.702542114257812500e+01 -3.027886199951171875e+01 7.450526952743530273e-02 6.877765178680419922e+00 2.085681200027465820e+00 1.260496228933334351e-01
2.243000000000000000e+03 6.937109375000000000e+01 3.086842536926269531e+00 -2.030611783266067505e-02 7.765267848968505859e+00 2.323488473892211914e+00 -1.319135427474975586e-01
2.244000000000000000e+03 6.871302032470703125e+01 1.703971147537231445e+00 -2.147318050265312195e-02 7.774041175842285156e+00 2.325770378112792969e+00 -1.315684318542480469e-01
2.245000000000000000e+03 6.891860961914062500e+01 2.564683914184570312e+01 2.846310473978519440e-02 7.578113079071044922e+00 2.281972885131835938e+00 -1.641510725021362305e-01
2.246000000000000000e+03 2.935823440551757812e+01 -2.618074607849121094e+01 -3.406034409999847412e-02 7.067628383636474609e+00 2.110070466995239258e+00 1.142368465662002563e-01
2.247000000000000000e+03 6.777469635009765625e+01 -2.884077453613281250e+01 -2.340046130120754242e-02 7.888010025024414062e+00 2.359382867813110352e+00 -4.964285343885421753e-02
2.248000000000000000e+03 6.954033660888671875e+01 3.194560432434082031e+01 5.535925179719924927e-02 7.509959697723388672e+00 2.269595623016357422e+00 -1.174711734056472778e-01
2.249000000000000000e+03 2.555604171752929688e+01 3.232654190063476562e+01 -5.312310457229614258e-01 8.455734252929687500e+00 2.377351045608520508e+00 1.850779652595520020e+00
2.250000000000000000e+03 2.716776084899902344e+01 3.347183990478515625e+01 1.321153640747070312e-01 1.056652736663818359e+01 3.209592819213867188e+00 2.578577101230621338e-01
2.251000000000000000e+03 2.948987007141113281e+01 3.300928878784179688e+01 5.006343126296997070e-01 9.578480720520019531e+00 3.023734569549560547e+00 -3.567955493927001953e-01
2.252000000000000000e+03 2.836401748657226562e+01 3.422887420654296875e+01 1.308450460433959961e+00 1.016989517211914062e+01 3.443503618240356445e+00 -4.521651268005371094e-01
2.253000000000000000e+03 2.972478485107421875e+01 3.456656265258789062e+01 1.573350071907043457e+00 9.440481185913085938e+00 3.304149389266967773e+00 -3.688794076442718506e-01
2.254000000000000000e+03 2.977784538269042969e+01 3.534435272216796875e+01 1.966306924819946289e+00 9.425167083740234375e+00 3.417442083358764648e+00 -1.095686852931976318e-01
2.255000000000000000e+03 2.864525985717773438e+01 3.260422897338867188e+01 1.299722343683242798e-01 9.783094406127929688e+00 2.973919868469238281e+00 -1.644773185253143311e-01
2.256000000000000000e+03 2.827746772766113281e+01 2.717253303527832031e+01 -7.160596251487731934e-01 8.160774230957031250e+00 2.233414411544799805e+00 7.534624338150024414e-01
2.257000000000000000e+03 2.648139762878417969e+01 2.973373031616210938e+01 -7.880445122718811035e-01 8.122965812683105469e+00 2.200476408004760742e+00 1.192334413528442383e+00
2.258000000000000000e+03 2.764847183227539062e+01 2.937955474853515625e+01 -7.692345380783081055e-01 8.506601333618164062e+00 2.321210145950317383e+00 8.182932734489440918e-01
2.259000000000000000e+03 2.718157577514648438e+01 3.017312812805175781e+01 -7.809090018272399902e-01 8.624826431274414062e+00 2.353175163269042969e+00 9.574553966522216797e-01
2.260000000000000000e+03 2.877439689636230469e+01 3.628558731079101562e+01 2.888126373291015625e+00 9.677595138549804688e+00 3.769716501235961914e+00 4.321374595165252686e-01
2.261000000000000000e+03 2.994055747985839844e+01 3.734320449829101562e+01 1.967352271080017090e+00 9.511713981628417969e+00 3.443719863891601562e+00 7.944877147674560547e-01
2.262000000000000000e+03 2.961343383789062500e+01 3.609669113159179688e+01 2.343469858169555664e+00 9.403648376464843750e+00 3.524135351181030273e+00 3.128670156002044678e-01
2.263000000000000000e+03 2.989982032775878906e+01 2.581823539733886719e+01 -6.409400105476379395e-01 8.258341789245605469e+00 2.285220384597778320e+00 5.278425812721252441e-01
2.264000000000000000e+03 2.496947669982910156e+01 4.108158111572265625e+01 -3.067759275436401367e-01 6.936007022857666016e+00 1.988769292831420898e+00 -3.149850368499755859e-01
2.265000000000000000e+03 3.223942565917968750e+01 1.744303131103515625e+01 -3.115699589252471924e-01 7.816796302795410156e+00 2.251567840576171875e+00 3.835507929325103760e-01
2.266000000000000000e+03 3.268339538574218750e+01 1.845877647399902344e+01 -3.440588712692260742e-01 7.886197566986083984e+00 2.262641668319702148e+00 3.664664328098297119e-01
2.267000000000000000e+03 3.248974609375000000e+01 9.864174842834472656e+00 -8.168882131576538086e-02 7.608736038208007812e+00 2.258114337921142578e+00 2.782905399799346924e-01
2.268000000000000000e+03 3.257909774780273438e+01 1.132513332366943359e+01 -1.155018657445907593e-01 7.640403747558593750e+00 2.257470607757568359e+00 2.974498271942138672e-01
2.269000000000000000e+03 6.736711120605468750e+01 2.415867805480957031e+00 -2.675688639283180237e-02 7.768512248992919922e+00 2.322526693344116211e+00 -1.414866447448730469e-01
2.270000000000000000e+03 6.619457244873046875e+01 1.694905662536621094e+01 -8.138014934957027435e-03 7.692172527313232422e+00 2.305210351943969727e+00 -1.949411481618881226e-01
2.271000000000000000e+03 6.758957672119140625e+01 1.674233436584472656e+01 -7.677053567022085190e-03 7.675441741943359375e+00 2.300329446792602539e+00 -1.833793073892593384e-01
2.272000000000000000e+03 7.048026275634765625e+01 5.646323680877685547e+00 -1.712356507778167725e-02 7.745934009552001953e+00 2.318643093109130859e+00 -1.311514675617218018e-01
2.273000000000000000e+03 6.610864257812500000e+01 3.263283252716064453e+00 -3.082845173776149750e-02 7.764801025390625000e+00 2.320191621780395508e+00 -1.501236557960510254e-01
2.274000000000000000e+03 3.231372833251953125e+01 8.490116119384765625e+00 -4.992153123021125793e-02 7.581245422363281250e+00 2.259397268295288086e+00 2.575746476650238037e-01
2.275000000000000000e+03 6.979978942871093750e+01 9.989768028259277344e+00 -1.623791269958019257e-02 7.709199428558349609e+00 2.307888507843017578e+00 -1.501633375883102417e-01
2.276000000000000000e+03 6.841703796386718750e+01 8.470004081726074219e+00 -2.190807089209556580e-02 7.730322360992431641e+00 2.312524318695068359e+00 -1.567484736442565918e-01
2.277000000000000000e+03 8.210303306579589844e+00 2.029801177978515625e+01 -7.081419229507446289e-03 -1.280277036130428314e-03 -2.508508739992976189e-03 4.515931010246276855e-03
2.278000000000000000e+03 3.126599311828613281e+01 1.481834125518798828e+01 -2.054830789566040039e-01 7.669883728027343750e+00 2.239320278167724609e+00 3.816404044628143311e-01
2.279000000000000000e+03 6.570350646972656250e+01 -2.486956405639648438e+01 -2.851173840463161469e-02 7.843618392944335938e+00 2.344532012939453125e+00 -6.617392599582672119e-02
2.280000000000000000e+03 6.673947906494140625e+01 -2.341654968261718750e+01 -2.314417250454425812e-02 7.853378772735595703e+00 2.349070549011230469e+00 -6.660255044698715210e-02
2.281000000000000000e+03 3.094555473327636719e+01 7.424482822418212891e+00 -7.796143181622028351e-03 7.533022403717041016e+00 2.257567882537841797e+00 2.547905445098876953e-01
2.282000000000000000e+03 2.905038261413574219e+01 2.699996376037597656e+01 -6.978724598884582520e-01 8.305972099304199219e+00 2.282429933547973633e+00 6.241854429244995117e-01
2.283000000000000000e+03 7.044078826904296875e+01 -1.264166164398193359e+01 -1.282121334224939346e-02 7.871513843536376953e+00 2.357607841491699219e+00 -8.159124106168746948e-02
2.284000000000000000e+03 6.912232971191406250e+01 -3.685464382171630859e+00 -1.923216134309768677e-02 7.806741714477539062e+00 2.336252927780151367e+00 -1.126910522580146790e-01
2.285000000000000000e+03 3.147474861145019531e+01 2.077705574035644531e+01 -4.308159649372100830e-01 7.937842369079589844e+00 2.252108097076416016e+00 4.338797032833099365e-01
2.286000000000000000e+03 3.244515609741210938e+01 2.005621719360351562e+01 -3.998980820178985596e-01 7.964344978332519531e+00 2.269334077835083008e+00 3.732902705669403076e-01
2.287000000000000000e+03 7.004134368896484375e+01 -8.564919471740722656e+00 -1.417011674493551254e-02 7.844571590423583984e+00 2.349120378494262695e+00 -9.298658370971679688e-02
2.288000000000000000e+03 2.968623924255371094e+01 -3.529317378997802734e-01 2.307344926521182060e-03 7.451046466827392578e+00 2.236006021499633789e+00 1.560227274894714355e-01
2.289000000000000000e+03 3.223888397216796875e+01 -5.500654220581054688e+00 -3.010064549744129181e-02 7.425233840942382812e+00 2.218539953231811523e+00 1.179167553782463074e-01
2.290000000000000000e+03 3.278202056884765625e+01 1.292298507690429688e+01 -1.695445626974105835e-01 7.693682670593261719e+00 2.257241487503051758e+00 3.173752427101135254e-01
2.291000000000000000e+03 3.345143890380859375e+01 1.445543861389160156e+01 -2.206721603870391846e-01 7.766606807708740234e+00 2.263780355453491211e+00 3.162048161029815674e-01
2.292000000000000000e+03 3.301284790039062500e+01 6.828679084777832031e+00 -3.777400404214859009e-02 7.575311183929443359e+00 2.261260986328125000e+00 2.146550416946411133e-01
2.293000000000000000e+03 6.929174041748046875e+01 -1.926109313964843750e+01 -1.461592223495244980e-02 7.886881351470947266e+00 2.361679553985595703e+00 -7.005929946899414062e-02
2.294000000000000000e+03 3.164044380187988281e+01 2.672464370727539062e+00 5.973871331661939621e-03 7.499574661254882812e+00 2.251664400100708008e+00 1.655135601758956909e-01
2.295000000000000000e+03 2.981890106201171875e+01 2.762548685073852539e+00 2.940265275537967682e-02 7.475484371185302734e+00 2.251466035842895508e+00 1.763909012079238892e-01
2.296000000000000000e+03 3.205446243286132812e+01 6.239213943481445312e+00 -1.069127582013607025e-02 7.539968967437744141e+00 2.258783340454101562e+00 2.180493623018264771e-01
2.297000000000000000e+03 3.070204734802246094e+01 3.539693117141723633e+00 2.032858505845069885e-02 7.490206241607666016e+00 2.253160476684570312e+00 1.871214210987091064e-01
2.298000000000000000e+03 2.944315147399902344e+01 -8.692664146423339844e+00 -1.880204491317272186e-02 7.331214904785156250e+00 2.193723917007446289e+00 1.550059169530868530e-01
2.299000000000000000e+03 3.077019691467285156e+01 -7.709780693054199219e+00 -2.638866752386093140e-02 7.373096466064453125e+00 2.204012393951416016e+00 1.367782801389694214e-01
2.300000000000000000e+03 3.256664276123046875e+01 -1.377365016937255859e+01 -2.967962808907032013e-02 7.307540416717529297e+00 2.183358192443847656e+00 7.443317025899887085e-02
2.301000000000000000e+03 6.842063903808593750e+01 2.121792793273925781e+01 8.173067122697830200e-03 7.623067855834960938e+00 2.289372205734252930e+00 -1.763318032026290894e-01
2.302000000000000000e+03 6.995674896240234375e+01 1.793165779113769531e+01 -2.643038984388113022e-03 7.627524375915527344e+00 2.287464380264282227e+00 -1.615385115146636963e-01
2.303000000000000000e+03 6.818833923339843750e+01 1.974975204467773438e+01 2.221910981461405754e-03 7.637993812561035156e+00 2.292064666748046875e+00 -1.777069419622421265e-01
2.304000000000000000e+03 7.034900665283203125e+01 -2.272691726684570312e+01 -1.548815798014402390e-02 7.918939113616943359e+00 2.371035337448120117e+00 -5.905359610915184021e-02
2.305000000000000000e+03 2.814655876159667969e+01 -1.872292518615722656e+01 -4.637416452169418335e-02 7.159732818603515625e+00 2.134007453918457031e+00 1.150532960891723633e-01
2.306000000000000000e+03 3.035507583618164062e+01 -2.051333045959472656e+01 -6.393208354711532593e-02 7.192936897277832031e+00 2.138701438903808594e+00 9.339529275894165039e-02
2.307000000000000000e+03 3.122020339965820312e+01 2.254688262939453125e+01 -4.966547787189483643e-01 8.044062614440917969e+00 2.264222383499145508e+00 4.414695799350738525e-01
2.308000000000000000e+03 3.198288726806640625e+01 2.377404403686523438e+01 -5.197845101356506348e-01 8.221464157104492188e+00 2.310503959655761719e+00 3.494754135608673096e-01
2.309000000000000000e+03 3.271686935424804688e+01 -1.872466087341308594e+01 -4.624314233660697937e-02 7.256871700286865234e+00 2.163188695907592773e+00 5.899921059608459473e-02
2.310000000000000000e+03 3.232071304321289062e+01 2.186371994018554688e+01 -4.595141112804412842e-01 8.082331657409667969e+00 2.286845207214355469e+00 3.649197816848754883e-01
2.311000000000000000e+03 6.643396759033203125e+01 2.658425521850585938e+01 4.501878842711448669e-02 7.616107940673828125e+00 2.298337936401367188e+00 -1.774280667304992676e-01
2.312000000000000000e+03 6.771199035644531250e+01 2.483968734741210938e+01 2.608747035264968872e-02 7.605088710784912109e+00 2.289352893829345703e+00 -1.744049340486526489e-01
2.313000000000000000e+03 7.295895385742187500e+01 3.186948966979980469e+01 2.484783902764320374e-02 7.409058094024658203e+00 2.230171918869018555e+00 -8.649551123380661011e-02
2.314000000000000000e+03 2.761774635314941406e+01 -3.345772552490234375e+01 4.551071301102638245e-02 6.828971862792968750e+00 2.062344789505004883e+00 -2.455708757042884827e-02
2.315000000000000000e+03 3.133460044860839844e+01 -2.678095245361328125e+01 -9.395165368914604187e-03 7.118663311004638672e+00 2.132780551910400391e+00 7.874519377946853638e-02
2.316000000000000000e+03 3.033320808410644531e+01 -2.420448112487792969e+01 -3.322400152683258057e-02 7.139410972595214844e+00 2.131856203079223633e+00 1.037194207310676575e-01
2.317000000000000000e+03 2.731881523132324219e+01 3.282782745361328125e+01 -2.163259834051132202e-01 1.006572437286376953e+01 2.954819440841674805e+00 3.801879882812500000e-01
2.318000000000000000e+03 2.660499191284179688e+01 3.238473892211914062e+01 -5.626345872879028320e-01 9.652204513549804688e+00 2.726871013641357422e+00 1.090493798255920410e+00
2.319000000000000000e+03 2.681374549865722656e+01 3.179966926574707031e+01 -6.725796461105346680e-01 9.271682739257812500e+00 2.579730749130249023e+00 1.021229743957519531e+00
2.320000000000000000e+03 2.763637733459472656e+01 3.241114044189453125e+01 -2.406318485736846924e-01 9.951169967651367188e+00 2.913161516189575195e+00 2.935011088848114014e-01
2.321000000000000000e+03 2.755152893066406250e+01 3.322336959838867188e+01 1.189734712243080139e-01 1.033078861236572266e+01 3.134928703308105469e+00 1.030912399291992188e-01
2.322000000000000000e+03 3.024612426757812500e+01 3.279249572753906250e+01 4.986979067325592041e-01 9.359101295471191406e+00 2.957339763641357422e+00 -3.558992743492126465e-01
2.323000000000000000e+03 2.897378540039062500e+01 3.381294250488281250e+01 1.041443109512329102e+00 9.821173667907714844e+00 3.258785009384155273e+00 -4.534357786178588867e-01
2.324000000000000000e+03 3.031661415100097656e+01 3.368040847778320312e+01 9.951183795928955078e-01 9.291389465332031250e+00 3.085952520370483398e+00 -4.060045778751373291e-01
2.325000000000000000e+03 2.961744117736816406e+01 3.377402877807617188e+01 1.027820944786071777e+00 9.558323860168457031e+00 3.175843477249145508e+00 -4.246843159198760986e-01
2.326000000000000000e+03 2.620685195922851562e+01 3.175743865966796875e+01 -6.761956810951232910e-01 8.842185020446777344e+00 2.449796915054321289e+00 1.374598979949951172e+00
2.327000000000000000e+03 2.619387054443359375e+01 3.105948448181152344e+01 -7.686700224876403809e-01 8.386319160461425781e+00 2.285294771194458008e+00 1.366182923316955566e+00
2.328000000000000000e+03 3.041051864624023438e+01 3.452073669433593750e+01 1.405858039855957031e+00 9.251506805419921875e+00 3.197209358215332031e+00 -3.195161521434783936e-01
2.329000000000000000e+03 2.799405860900878906e+01 3.313700866699218750e+01 2.156094759702682495e-01 1.012842178344726562e+01 3.103209495544433594e+00 -7.335354387760162354e-02
2.330000000000000000e+03 2.806852531433105469e+01 2.859559440612792969e+01 -7.449058890342712402e-01 8.426155090332031250e+00 2.304374933242797852e+00 7.530952692031860352e-01
2.331000000000000000e+03 2.787090492248535156e+01 3.043527984619140625e+01 -7.057510018348693848e-01 8.969938278198242188e+00 2.479256153106689453e+00 6.581670641899108887e-01
2.332000000000000000e+03 3.050666618347167969e+01 3.541895294189453125e+01 1.741997003555297852e+00 9.158390045166015625e+00 3.270116090774536133e+00 -9.393932670354843140e-02
2.333000000000000000e+03 2.883173561096191406e+01 2.954957389831542969e+01 -6.744926571846008301e-01 8.841369628906250000e+00 2.450062990188598633e+00 4.909201264381408691e-01
2.334000000000000000e+03 2.831419944763183594e+01 2.784235572814941406e+01 -7.362005114555358887e-01 8.323385238647460938e+00 2.276155471801757812e+00 7.253252267837524414e-01
2.335000000000000000e+03 3.038833236694335938e+01 3.640922927856445312e+01 1.924301743507385254e+00 9.331884384155273438e+00 3.376855850219726562e+00 3.395525217056274414e-01
2.336000000000000000e+03 2.918535232543945312e+01 3.660276031494140625e+01 2.550590038299560547e+00 9.565128326416015625e+00 3.634715557098388672e+00 5.903530120849609375e-01
2.337000000000000000e+03 3.124826240539550781e+01 2.563498497009277344e+01 -5.705558657646179199e-01 8.383578300476074219e+00 2.343906641006469727e+00 3.387741446495056152e-01
2.338000000000000000e+03 3.004524993896484375e+01 2.692322731018066406e+01 -6.425700783729553223e-01 8.431514739990234375e+00 2.336683273315429688e+00 4.554120004177093506e-01
2.339000000000000000e+03 3.335459899902343750e+01 1.677569580078125000e+01 -2.945966720581054688e-01 7.864486217498779297e+00 2.270966768264770508e+00 3.239036500453948975e-01
2.340000000000000000e+03 3.393132019042968750e+01 1.235795307159423828e+01 -1.683063656091690063e-01 7.727209568023681641e+00 2.267670869827270508e+00 2.792551517486572266e-01
2.341000000000000000e+03 3.225034332275390625e+01 -1.236299324035644531e+01 -2.174871601164340973e-02 7.327795982360839844e+00 2.191814184188842773e+00 9.715378284454345703e-02
2.342000000000000000e+03 3.142739677429199219e+01 -6.680047988891601562e+00 -2.452798560261726379e-02 7.392811298370361328e+00 2.210484981536865234e+00 1.277211010456085205e-01
2.343000000000000000e+03 3.243752670288085938e+01 1.550725078582763672e+01 -2.421375215053558350e-01 7.753368854522705078e+00 2.253369331359863281e+00 3.554177284240722656e-01
2.344000000000000000e+03 6.947653961181640625e+01 -4.075477421283721924e-01 -1.864115521311759949e-02 7.789139270782470703e+00 2.331149339675903320e+00 -1.199159845709800720e-01
2.345000000000000000e+03 6.895421600341796875e+01 -4.933806896209716797e+00 -1.833017915487289429e-02 7.813271522521972656e+00 2.338482379913330078e+00 -1.099014505743980408e-01
2.346000000000000000e+03 6.898623657226562500e+01 -7.224243640899658203e+00 -1.757947914302349091e-02 7.825797557830810547e+00 2.342465400695800781e+00 -1.026846468448638916e-01
2.347000000000000000e+03 6.863563537597656250e+01 -1.911844491958618164e+00 -2.052513323724269867e-02 7.795948982238769531e+00 2.332627058029174805e+00 -1.194984689354896545e-01
2.348000000000000000e+03 6.692414855957031250e+01 -1.061617088317871094e+01 -2.193926088511943817e-02 7.821119308471679688e+00 2.339754104614257812e+00 -1.023781523108482361e-01
2.349000000000000000e+03 6.797190856933593750e+01 -1.349815940856933594e+01 -1.955896243453025818e-02 7.844022750854492188e+00 2.347339153289794922e+00 -9.153497964143753052e-02
2.350000000000000000e+03 3.114300346374511719e+01 4.994738399982452393e-01 7.451866404153406620e-04 7.475085735321044922e+00 2.242749214172363281e+00 1.452998816967010498e-01
2.351000000000000000e+03 3.443986129760742188e+01 -8.612279295921325684e-01 -2.868456766009330750e-02 7.509511947631835938e+00 2.244248151779174805e+00 1.079542487859725952e-01
2.352000000000000000e+03 3.059296035766601562e+01 -1.826294660568237305e+00 -1.616130955517292023e-02 7.448038101196289062e+00 2.229562997817993164e+00 1.380388289690017700e-01
2.353000000000000000e+03 3.248645019531250000e+01 1.477702856063842773e+00 -7.307212799787521362e-03 7.502607822418212891e+00 2.248590230941772461e+00 1.463055759668350220e-01
2.354000000000000000e+03 3.375071334838867188e+01 2.454879760742187500e+00 -2.000946737825870514e-02 7.532773971557617188e+00 2.253829479217529297e+00 1.410844326019287109e-01
2.355000000000000000e+03 3.068379402160644531e+01 -1.125632762908935547e+01 -8.752866648137569427e-03 7.307632923126220703e+00 2.189663887023925781e+00 1.258376240730285645e-01
2.356000000000000000e+03 3.277210998535156250e+01 -1.519100379943847656e+01 -3.171409666538238525e-02 7.308117389678955078e+00 2.182920932769775391e+00 7.509739696979522705e-02
2.357000000000000000e+03 3.008498954772949219e+01 -1.820059394836425781e+01 -4.519776999950408936e-02 7.210819244384765625e+00 2.149686574935913086e+00 8.975976705551147461e-02
2.358000000000000000e+03 6.619306182861328125e+01 1.157186603546142578e+01 -2.557595446705818176e-02 7.727709293365478516e+00 2.310639858245849609e+00 -1.804373264312744141e-01
2.359000000000000000e+03 7.138302612304687500e+01 1.524248123168945312e+01 -6.385657470673322678e-03 7.640717506408691406e+00 2.290299654006958008e+00 -1.439002156257629395e-01
2.360000000000000000e+03 3.272008895874023438e+01 2.520475769042968750e+01 -4.932076632976531982e-01 8.409128189086914062e+00 2.374776363372802734e+00 2.084496915340423584e-01
2.361000000000000000e+03 6.694465637207031250e+01 -1.640393638610839844e+01 -2.127597667276859283e-02 7.839957714080810547e+00 2.345604419708251953e+00 -8.718760311603546143e-02
2.362000000000000000e+03 6.730703735351562500e+01 -2.038671875000000000e+01 -1.889882795512676239e-02 7.858684539794921875e+00 2.351935625076293945e+00 -7.379571348428726196e-02
2.363000000000000000e+03 6.724378967285156250e+01 3.184671020507812500e+01 7.014100253582000732e-02 7.557673454284667969e+00 2.288344383239746094e+00 -1.335198134183883667e-01
2.364000000000000000e+03 7.125402069091796875e+01 2.963725471496582031e+01 3.057362139225006104e-02 7.485229015350341797e+00 2.254740715026855469e+00 -1.201782748103141785e-01
2.365000000000000000e+03 3.170605278015136719e+01 -1.969921302795410156e+01 -5.758000537753105164e-02 7.231707572937011719e+00 2.152238368988037109e+00 7.926514744758605957e-02
2.366000000000000000e+03 6.616907501220703125e+01 1.524379158020019531e+01 -1.524376776069402695e-02 7.705029964447021484e+00 2.306935787200927734e+00 -1.914726197719573975e-01
2.367000000000000000e+03 6.787857055664062500e+01 1.173663234710693359e+01 -1.921836659312248230e-02 7.709840297698974609e+00 2.307186603546142578e+00 -1.701674163341522217e-01
2.368000000000000000e+03 6.558044433593750000e+01 2.241723442077636719e+01 1.825458742678165436e-02 7.662255287170410156e+00 2.304152965545654297e+00 -1.978757083415985107e-01
2.369000000000000000e+03 2.890804481506347656e+01 -2.387988471984863281e+01 -5.456040427088737488e-02 7.096638679504394531e+00 2.112623453140258789e+00 1.207016184926033020e-01
2.370000000000000000e+03 3.091943931579589844e+01 -2.235009574890136719e+01 -6.092960014939308167e-02 7.169892787933349609e+00 2.132688999176025391e+00 9.066502749919891357e-02
2.371000000000000000e+03 2.696706390380859375e+01 3.103498458862304688e+01 -7.583444118499755859e-01 8.920406341552734375e+00 2.448618650436401367e+00 9.818744063377380371e-01
2.372000000000000000e+03 2.911137390136718750e+01 3.017845153808593750e+01 -5.442694425582885742e-01 9.091949462890625000e+00 2.564303874969482422e+00 2.991208732128143311e-01
2.373000000000000000e+03 2.857118988037109375e+01 3.114189529418945312e+01 -4.645705819129943848e-01 9.348552703857421875e+00 2.665194749832153320e+00 2.646506130695343018e-01
2.374000000000000000e+03 2.821627426147460938e+01 2.984869003295898438e+01 -7.171552181243896484e-01 8.811268806457519531e+00 2.428234100341796875e+00 6.250718832015991211e-01
2.375000000000000000e+03 3.115751457214355469e+01 3.283002090454101562e+01 6.034383773803710938e-01 9.129603385925292969e+00 2.919912338256835938e+00 -3.658047616481781006e-01
2.376000000000000000e+03 2.887001991271972656e+01 2.877089691162109375e+01 -6.976385712623596191e-01 8.663302421569824219e+00 2.389698982238769531e+00 5.510866045951843262e-01
2.377000000000000000e+03 3.102507591247558594e+01 3.369688415527343750e+01 9.639257788658142090e-01 9.175127029418945312e+00 3.041715860366821289e+00 -3.819209635257720947e-01
2.378000000000000000e+03 2.797154045104980469e+01 4.154496765136718750e+01 -6.877015829086303711e-01 1.003698921203613281e+01 2.804786205291748047e+00 1.254644095897674561e-01
2.379000000000000000e+03 3.136515617370605469e+01 3.536695098876953125e+01 1.485311865806579590e+00 9.013300895690917969e+00 3.149583816528320312e+00 -8.695601671934127808e-02
2.380000000000000000e+03 2.992774200439453125e+01 2.796880722045898438e+01 -6.265585422515869141e-01 8.631346702575683594e+00 2.401436328887939453e+00 3.845294117927551270e-01
2.381000000000000000e+03 3.175322914123535156e+01 3.087723350524902344e+01 5.706995725631713867e-03 8.985436439514160156e+00 2.697343111038208008e+00 -2.110593914985656738e-01
2.382000000000000000e+03 3.071229934692382812e+01 3.798802947998046875e+01 1.416446805000305176e+00 9.422401428222656250e+00 3.251654624938964844e+00 6.672763824462890625e-01
2.383000000000000000e+03 3.127224922180175781e+01 2.700330543518066406e+01 -5.497114658355712891e-01 8.562644004821777344e+00 2.403879880905151367e+00 2.518310546875000000e-01
2.384000000000000000e+03 3.147587776184082031e+01 3.927845382690429688e+01 8.394684195518493652e-01 9.359389305114746094e+00 3.059657335281372070e+00 6.939549446105957031e-01
2.385000000000000000e+03 2.925666618347167969e+01 3.132597923278808594e+01 -2.713374793529510498e-01 9.321599006652832031e+00 2.715078353881835938e+00 5.553207546472549438e-02
2.386000000000000000e+03 3.499098587036132812e+01 1.857532310485839844e+01 -3.352084755897521973e-01 8.004311561584472656e+00 2.300730943679809570e+00 2.426924854516983032e-01
2.387000000000000000e+03 3.428498458862304688e+01 1.998681449890136719e+01 -3.840578198432922363e-01 8.066161155700683594e+00 2.304630994796752930e+00 2.644056081771850586e-01
2.388000000000000000e+03 6.936572265625000000e+01 6.173958778381347656e+00 -1.953211240470409393e-02 7.743010044097900391e+00 2.317043304443359375e+00 -1.417599320411682129e-01
2.389000000000000000e+03 6.691172027587890625e+01 4.471561908721923828e+00 -2.812793664634227753e-02 7.758283138275146484e+00 2.319046497344970703e+00 -1.509559303522109985e-01
2.390000000000000000e+03 3.148930549621582031e+01 3.667030334472656250e+01 1.534554123878479004e+00 9.011167526245117188e+00 3.163716554641723633e+00 2.687902152538299561e-01
2.391000000000000000e+03 6.711648559570312500e+01 8.131346702575683594e+00 -2.648636326193809509e-02 7.738989830017089844e+00 2.313750982284545898e+00 -1.630301326513290405e-01
2.392000000000000000e+03 3.366327667236328125e+01 -2.022119331359863281e+01 -5.205030366778373718e-02 7.265457153320312500e+00 2.164021968841552734e+00 5.777157843112945557e-02
2.393000000000000000e+03 3.578620147705078125e+01 1.057039928436279297e+01 -1.410897076129913330e-01 7.731214523315429688e+00 2.277037620544433594e+00 2.062556147575378418e-01
2.394000000000000000e+03 3.480136489868164062e+01 1.152061653137207031e+01 -1.527094095945358276e-01 7.727496147155761719e+00 2.272435903549194336e+00 2.410778999328613281e-01
2.395000000000000000e+03 6.794091033935546875e+01 2.349364608526229858e-01 -2.462860755622386932e-02 7.780505180358886719e+00 2.326762914657592773e+00 -1.315533816814422607e-01
2.396000000000000000e+03 6.801329040527343750e+01 -3.366666078567504883e+00 -2.197222411632537842e-02 7.800992488861083984e+00 2.333706140518188477e+00 -1.195298433303833008e-01
2.397000000000000000e+03 6.779817962646484375e+01 -4.763377189636230469e+00 -2.353138476610183716e-02 7.805630683898925781e+00 2.334629774093627930e+00 -1.157953217625617981e-01
2.398000000000000000e+03 6.806525421142578125e+01 -6.714740276336669922e+00 -2.145428583025932312e-02 7.815610885620117188e+00 2.338247060775756836e+00 -1.088577508926391602e-01
2.399000000000000000e+03 6.903072357177734375e+01 -6.130302906036376953e+00 -1.950876228511333466e-02 7.820147991180419922e+00 2.340191841125488281e+00 -1.064156368374824524e-01
2.400000000000000000e+03 6.872206115722656250e+01 5.047108173370361328e+00 -2.242705784738063812e-02 7.752655029296875000e+00 2.319068431854248047e+00 -1.425834000110626221e-01
2.401000000000000000e+03 6.757465362548828125e+01 5.607300758361816406e+00 -2.518205344676971436e-02 7.750848293304443359e+00 2.317699909210205078e+00 -1.510230898857116699e-01
2.402000000000000000e+03 3.205389022827148438e+01 -7.581035494804382324e-01 -1.338676922023296356e-02 7.476646423339843750e+00 2.238977909088134766e+00 1.323786526918411255e-01
2.403000000000000000e+03 3.339843750000000000e+01 2.963653802871704102e-01 -1.793656498193740845e-02 7.505280494689941406e+00 2.246203184127807617e+00 1.235849484801292419e-01
2.404000000000000000e+03 3.463950347900390625e+01 1.329811692237854004e+00 -2.827933058142662048e-02 7.535847663879394531e+00 2.252270460128784180e+00 1.228289306163787842e-01
2.405000000000000000e+03 3.534093093872070312e+01 5.217103004455566406e+00 -5.120557174086570740e-02 7.597892284393310547e+00 2.264005899429321289e+00 1.548558622598648071e-01
2.406000000000000000e+03 3.009337806701660156e+01 -6.019771099090576172e+00 -3.204176947474479675e-02 7.391683101654052734e+00 2.207892417907714844e+00 1.506632119417190552e-01
2.407000000000000000e+03 3.324277877807617188e+01 -4.320308685302734375e+00 -2.822122164070606232e-02 7.450906276702880859e+00 2.226805448532104492e+00 1.030240431427955627e-01
2.408000000000000000e+03 6.857498931884765625e+01 -8.533280372619628906e+00 -1.934613659977912903e-02 7.828490257263183594e+00 2.342743158340454102e+00 -1.015779599547386169e-01
2.409000000000000000e+03 6.825405120849609375e+01 -1.632895469665527344e+01 -1.741336658596992493e-02 7.860431194305419922e+00 2.352905273437500000e+00 -8.203478902578353882e-02
2.410000000000000000e+03 6.955486297607421875e+01 -1.472124862670898438e+01 -1.535784173756837845e-02 7.870893001556396484e+00 2.356660604476928711e+00 -8.073513209819793701e-02
2.411000000000000000e+03 3.442302322387695312e+01 -3.179927825927734375e+00 -3.305786475539207458e-02 7.483751296997070312e+00 2.235208034515380859e+00 9.727571159601211548e-02
2.412000000000000000e+03 3.314601516723632812e+01 -1.979828238487243652e+00 -2.334272861480712891e-02 7.478491783142089844e+00 2.236544847488403320e+00 1.121496558189392090e-01
2.413000000000000000e+03 3.358909606933593750e+01 8.069629669189453125e+00 -6.453774124383926392e-02 7.608098983764648438e+00 2.263068437576293945e+00 2.253064513206481934e-01
2.414000000000000000e+03 3.527180480957031250e+01 9.228048324584960938e+00 -1.114230081439018250e-01 7.682024478912353516e+00 2.271180391311645508e+00 2.086488008499145508e-01
2.415000000000000000e+03 6.618771362304687500e+01 1.346555900573730469e+01 -2.057192474603652954e-02 7.715312480926513672e+00 2.308422327041625977e+00 -1.872522532939910889e-01
2.416000000000000000e+03 6.465508270263671875e+01 1.717569351196289062e+01 -1.068857405334711075e-02 7.713541030883789062e+00 2.310855627059936523e+00 -2.044833302497863770e-01
2.417000000000000000e+03 3.081700515747070312e+01 -1.415883350372314453e+01 -1.600923389196395874e-02 7.274012088775634766e+00 2.177400827407836914e+00 1.037141159176826477e-01
2.418000000000000000e+03 3.543892288208007812e+01 1.463058376312255859e+01 -2.350565940141677856e-01 7.853240966796875000e+00 2.285455226898193359e+00 2.389744520187377930e-01
2.419000000000000000e+03 3.456037521362304688e+01 1.352621078491210938e+01 -2.007422596216201782e-01 7.778748989105224609e+00 2.273401975631713867e+00 2.673467993736267090e-01
2.420000000000000000e+03 3.322082138061523438e+01 2.306935310363769531e+01 -4.683661162853240967e-01 8.236613273620605469e+00 2.330474138259887695e+00 2.619346976280212402e-01
2.421000000000000000e+03 3.708459091186523438e+01 9.905092239379882812e+00 -1.354182809591293335e-01 7.738353729248046875e+00 2.280880689620971680e+00 1.641926169395446777e-01
2.422000000000000000e+03 6.470970153808593750e+01 -2.667545127868652344e+01 -3.153097629547119141e-02 7.827544689178466797e+00 2.338804244995117188e+00 -6.161786615848541260e-02
2.423000000000000000e+03 6.184937667846679688e+01 2.455907058715820312e+01 5.117417126893997192e-02 7.722011566162109375e+00 2.331955671310424805e+00 -2.241830974817276001e-01
2.424000000000000000e+03 6.651837158203125000e+01 2.380139541625976562e+01 2.350817620754241943e-02 7.634333133697509766e+00 2.297352313995361328e+00 -1.854464709758758545e-01
2.425000000000000000e+03 6.721861362457275391e+00 -2.634851646423339844e+01 -1.178480777889490128e-02 -1.729857525788247585e-03 -4.054399672895669937e-03 -6.467272061854600906e-03
2.426000000000000000e+03 2.832714080810546875e+01 3.211847305297851562e+01 -2.257196158170700073e-01 9.612847328186035156e+00 2.816138505935668945e+00 1.388150453567504883e-01
2.427000000000000000e+03 2.921311187744140625e+01 3.232864761352539062e+01 1.248049363493919373e-01 9.596122741699218750e+00 2.916278362274169922e+00 -1.852450221776962280e-01
2.428000000000000000e+03 2.727441787719726562e+01 3.207594299316406250e+01 -4.848247766494750977e-01 9.556041717529296875e+00 2.721364974975585938e+00 6.451526284217834473e-01
2.429000000000000000e+03 2.778456306457519531e+01 3.117778968811035156e+01 -5.987043976783752441e-01 9.230796813964843750e+00 2.589627981185913086e+00 5.629779100418090820e-01
2.430000000000000000e+03 2.970425033569335938e+01 2.889204216003417969e+01 -5.892825722694396973e-01 8.812598228454589844e+00 2.466994524002075195e+00 3.216448426246643066e-01
2.431000000000000000e+03 3.246518707275390625e+01 2.760995483398437500e+01 -4.182773232460021973e-01 8.638935089111328125e+00 2.466197490692138672e+00 6.370130926370620728e-02
2.432000000000000000e+03 2.988117790222167969e+01 3.195452308654785156e+01 8.631644397974014282e-02 9.366840362548828125e+00 2.835947275161743164e+00 -2.178598046302795410e-01
2.433000000000000000e+03 3.167926979064941406e+01 3.406750106811523438e+01 1.069069981575012207e+00 8.978514671325683594e+00 3.014275312423706055e+00 -2.871994972229003906e-01
2.434000000000000000e+03 3.212978744506835938e+01 3.326224136352539062e+01 7.614186406135559082e-01 8.982402801513671875e+00 2.923146486282348633e+00 -3.371820747852325439e-01
2.435000000000000000e+03 3.750516510009765625e+01 1.096834850311279297e+01 -1.594192236661911011e-01 7.785371303558349609e+00 2.287785768508911133e+00 1.575158387422561646e-01
2.436000000000000000e+03 3.788143157958984375e+01 1.196775054931640625e+01 -1.766740083694458008e-01 7.816628456115722656e+00 2.291986465454101562e+00 1.492795050144195557e-01
2.437000000000000000e+03 3.109683799743652344e+01 3.444549560546875000e+01 1.286130428314208984e+00 9.085404396057128906e+00 3.111460685729980469e+00 -2.938067317008972168e-01
2.438000000000000000e+03 3.229578399658203125e+01 3.489963912963867188e+01 1.236477017402648926e+00 8.899220466613769531e+00 3.040709257125854492e+00 -1.735264658927917480e-01
2.439000000000000000e+03 3.571688079833984375e+01 1.700558853149414062e+01 -2.943557202816009521e-01 7.959394454956054688e+00 2.299511671066284180e+00 2.232455909252166748e-01
2.440000000000000000e+03 3.639691162109375000e+01 1.954976272583007812e+01 -3.318814337253570557e-01 8.099630355834960938e+00 2.330324888229370117e+00 1.519505083560943604e-01
2.441000000000000000e+03 3.351611328125000000e+01 -1.065482616424560547e+01 -2.749656327068805695e-02 7.372205734252929688e+00 2.203412771224975586e+00 8.646796643733978271e-02
2.442000000000000000e+03 3.335786819458007812e+01 2.103855514526367188e+01 -4.249898791313171387e-01 8.088053703308105469e+00 2.298919200897216797e+00 3.048831522464752197e-01
2.443000000000000000e+03 3.176396942138671875e+01 2.863397789001464844e+01 -3.930070102214813232e-01 8.786938667297363281e+00 2.518179416656494141e+00 4.203202947974205017e-02
2.444000000000000000e+03 6.388770675659179688e+01 3.079981327056884766e+00 -3.922782838344573975e-02 7.766021251678466797e+00 2.318037986755371094e+00 -1.562919467687606812e-01
2.445000000000000000e+03 3.821205520629882812e+01 2.416233253479003906e+01 -2.377386838197708130e-01 8.302850723266601562e+00 2.419533491134643555e+00 -8.517289161682128906e-02
2.446000000000000000e+03 6.401919555664062500e+01 -6.228555679321289062e+00 -3.391119092702865601e-02 7.781929492950439453e+00 2.324405431747436523e+00 -1.230368316173553467e-01
2.447000000000000000e+03 6.725453186035156250e+01 -5.846995353698730469e+00 -2.360982820391654968e-02 7.806818962097167969e+00 2.334962844848632812e+00 -1.154210269451141357e-01
2.448000000000000000e+03 3.292228698730468750e+01 3.617548370361328125e+01 1.248080968856811523e+00 8.849732398986816406e+00 3.029344081878662109e+00 1.432893723249435425e-01
2.449000000000000000e+03 6.652400207519531250e+01 1.009289860725402832e+00 -2.834055013954639435e-02 7.774362087249755859e+00 2.323806524276733398e+00 -1.403815597295761108e-01
2.450000000000000000e+03 3.565550613403320312e+01 2.443304359912872314e-01 -3.505384549498558044e-02 7.539984226226806641e+00 2.251479148864746094e+00 9.928486496210098267e-02
2.451000000000000000e+03 6.972350311279296875e+01 -2.660209417343139648e+00 -1.709113642573356628e-02 7.805681705474853516e+00 2.336577177047729492e+00 -1.117479056119918823e-01
2.452000000000000000e+03 6.470706939697265625e+01 1.364805984497070312e+01 -2.459376305341720581e-02 7.731010913848876953e+00 2.311925172805786133e+00 -1.947617232799530029e-01
2.453000000000000000e+03 6.390929412841796875e+01 7.655011653900146484e+00 -3.885747864842414856e-02 7.757421970367431641e+00 2.315569400787353516e+00 -1.746124327182769775e-01
2.454000000000000000e+03 6.599179077148437500e+01 -1.486071586608886719e+01 -2.281277254223823547e-02 7.822546482086181641e+00 2.339920282363891602e+00 -9.327866882085800171e-02
2.455000000000000000e+03 3.652238464355468750e+01 1.554262351989746094e+01 -2.540269196033477783e-01 7.915814876556396484e+00 2.298536300659179688e+00 1.935163289308547974e-01
2.456000000000000000e+03 3.236848068237304688e+01 5.009759902954101562e+00 -8.785353973507881165e-03 7.533080577850341797e+00 2.257288455963134766e+00 1.946445256471633911e-01
2.457000000000000000e+03 3.357320785522460938e+01 -6.590662956237792969e+00 -2.820575609803199768e-02 7.421455860137939453e+00 2.217974901199340820e+00 9.597060084342956543e-02
2.458000000000000000e+03 3.457726669311523438e+01 -5.560247898101806641e+00 -3.325834870338439941e-02 7.458000659942626953e+00 2.227422714233398438e+00 8.561263233423233032e-02
2.459000000000000000e+03 3.389612579345703125e+01 3.773957824707031250e+01 9.822945594787597656e-01 9.061777114868164062e+00 3.013221502304077148e+00 2.075650691986083984e-01
2.460000000000000000e+03 3.768706512451171875e+01 1.305395412445068359e+01 -1.985083371400833130e-01 7.852717399597167969e+00 2.296262741088867188e+00 1.536259502172470093e-01
2.461000000000000000e+03 6.821978759765625000e+01 -1.768840026855468750e+01 -1.561335474252700806e-02 7.865151405334472656e+00 2.354861497879028320e+00 -7.796075195074081421e-02
2.462000000000000000e+03 6.221357345581054688e+01 -1.775384330749511719e+01 -3.253691270947456360e-02 7.778027534484863281e+00 2.323647260665893555e+00 -9.197009354829788208e-02
2.463000000000000000e+03 6.406377410888671875e+01 -1.589488506317138672e+01 -2.776868455111980438e-02 7.800371170043945312e+00 2.331780672073364258e+00 -9.503208845853805542e-02
2.464000000000000000e+03 3.130672264099121094e+01 -2.086000061035156250e+01 -4.547258093953132629e-02 7.207544803619384766e+00 2.148621559143066406e+00 7.661976665258407593e-02
2.465000000000000000e+03 6.471881103515625000e+01 1.897972488403320312e+01 -2.227958611911162734e-05 7.700767040252685547e+00 2.310223340988159180e+00 -2.072799950838088989e-01
2.466000000000000000e+03 6.161483001708984375e+01 1.545879268646240234e+01 -2.782987058162689209e-02 7.761118412017822266e+00 2.319986581802368164e+00 -2.103457897901535034e-01
2.467000000000000000e+03 3.496267318725585938e+01 7.708862304687500000e+00 -7.611990720033645630e-02 7.634771823883056641e+00 2.267595529556274414e+00 1.940604895353317261e-01
2.468000000000000000e+03 3.066012573242187500e+01 -9.918202400207519531e+00 -1.708401553332805634e-02 7.326592445373535156e+00 2.192852497100830078e+00 1.300263851881027222e-01
2.469000000000000000e+03 6.622135162353515625e+01 -6.737228393554687500e+00 -2.766259200870990753e-02 7.801099300384521484e+00 2.332031011581420898e+00 -1.162500530481338501e-01
2.470000000000000000e+03 6.610772705078125000e+01 -9.127588272094726562e+00 -2.582359500229358673e-02 7.808774471282958984e+00 2.334885358810424805e+00 -1.087561920285224915e-01
2.471000000000000000e+03 2.956838607788085938e+01 -3.120852851867675781e+01 4.681358486413955688e-02 6.967359542846679688e+00 2.104251861572265625e+00 3.713244199752807617e-02
2.472000000000000000e+03 6.561763000488281250e+01 -2.223370933532714844e+01 -2.761914581060409546e-02 7.832513332366943359e+00 2.341468095779418945e+00 -7.243401557207107544e-02
2.473000000000000000e+03 6.414126586914062500e+01 -2.362777709960937500e+01 -2.901790849864482880e-02 7.812907218933105469e+00 2.335166931152343750e+00 -7.232889533042907715e-02
2.474000000000000000e+03 6.906304931640625000e+01 -3.699387359619140625e+01 -2.029923722147941589e-02 7.933778762817382812e+00 2.374043703079223633e+00 -2.049622125923633575e-02
2.475000000000000000e+03 6.737303924560546875e+01 -3.394851684570312500e+01 -2.701109461486339569e-02 7.891233921051025391e+00 2.359266757965087891e+00 -3.080628812313079834e-02
2.476000000000000000e+03 3.033255386352539062e+01 -2.878701591491699219e+01 -9.173628874123096466e-03 7.034461975097656250e+00 2.107586622238159180e+00 6.482848525047302246e-02
2.477000000000000000e+03 2.708894157409667969e+01 -2.440334129333496094e+01 -4.692457616329193115e-02 7.058249950408935547e+00 2.103397607803344727e+00 1.632816791534423828e-01
2.478000000000000000e+03 2.776407051086425781e+01 3.187394142150878906e+01 -4.500690996646881104e-01 9.581743240356445312e+00 2.739502191543579102e+00 4.058408141136169434e-01
2.479000000000000000e+03 2.947879791259765625e+01 2.964977836608886719e+01 -5.585853457450866699e-01 8.965482711791992188e+00 2.522069215774536133e+00 2.672537565231323242e-01
2.480000000000000000e+03 3.014099121093750000e+01 3.001694869995117188e+01 -3.897004127502441406e-01 9.025094032287597656e+00 2.590618133544921875e+00 8.692342787981033325e-02
2.481000000000000000e+03 3.087603569030761719e+01 2.818393325805664062e+01 -5.148753523826599121e-01 8.729128837585449219e+00 2.464275836944580078e+00 1.898492127656936646e-01
2.482000000000000000e+03 3.089762687683105469e+01 3.046250724792480469e+01 -1.979624480009078979e-01 9.060648918151855469e+00 2.658806085586547852e+00 -8.750372380018234253e-02
2.483000000000000000e+03 2.969060325622558594e+01 3.072501182556152344e+01 -3.363727629184722900e-01 9.207452774047851562e+00 2.661324024200439453e+00 5.332327634096145630e-02
2.484000000000000000e+03 3.363265609741210938e+01 3.265372467041015625e+01 5.364414453506469727e-01 8.830558776855468750e+00 2.810100078582763672e+00 -3.163773417472839355e-01
2.485000000000000000e+03 3.127655601501464844e+01 2.956535911560058594e+01 -3.124358654022216797e-01 8.908425331115722656e+00 2.578796863555908203e+00 -1.463008858263492584e-02
2.486000000000000000e+03 3.674668121337890625e+01 1.349293589591979980e+00 -4.771995544433593750e-02 7.573336124420166016e+00 2.257684946060180664e+00 9.798857569694519043e-02
2.487000000000000000e+03 3.761621093750000000e+01 2.393404722213745117e+00 -5.715585127472877502e-02 7.600216865539550781e+00 2.262918233871459961e+00 9.225060790777206421e-02
2.488000000000000000e+03 6.420072937011718750e+01 6.668558120727539062e-01 -3.696716949343681335e-02 7.770919799804687500e+00 2.320185661315917969e+00 -1.466499567031860352e-01
2.489000000000000000e+03 6.585818481445312500e+01 5.376776218414306641e+00 -3.160586208105087280e-02 7.756114482879638672e+00 2.317352533340454102e+00 -1.590840220451354980e-01
2.490000000000000000e+03 6.704296112060546875e+01 -1.393911123275756836e+00 -2.604852616786956787e-02 7.785795688629150391e+00 2.327924251556396484e+00 -1.304359287023544312e-01
2.491000000000000000e+03 3.419906997680664062e+01 3.475047302246093750e+01 8.573334217071533203e-01 8.812416076660156250e+00 2.900924921035766602e+00 -1.746716350317001343e-01
2.492000000000000000e+03 3.890826797485351562e+01 1.205153083801269531e+01 -1.775332838296890259e-01 7.834373950958251953e+00 2.297052145004272461e+00 1.212424710392951965e-01
2.493000000000000000e+03 3.358904266357421875e+01 2.669285774230957031e+01 -3.914821445941925049e-01 8.556020736694335938e+00 2.449361801147460938e+00 3.502545133233070374e-02
2.494000000000000000e+03 3.715674591064453125e+01 1.787653541564941406e+01 -2.932258248329162598e-01 8.030973434448242188e+00 2.321324348449707031e+00 1.425435394048690796e-01
2.495000000000000000e+03 3.552741622924804688e+01 2.351496696472167969e+01 -3.673300445079803467e-01 8.310266494750976562e+00 2.382880926132202148e+00 7.230288535356521606e-02
2.496000000000000000e+03 3.505438232421875000e+01 2.595670890808105469e+01 -3.281751275062561035e-01 8.464937210083007812e+00 2.441028594970703125e+00 -2.145012468099594116e-02
2.497000000000000000e+03 3.776963424682617188e+01 1.620299720764160156e+01 -2.587496638298034668e-01 7.968295574188232422e+00 2.312863826751708984e+00 1.414351463317871094e-01
2.498000000000000000e+03 3.367054748535156250e+01 5.749541282653808594e+00 -3.680742159485816956e-02 7.574137210845947266e+00 2.261198997497558594e+00 1.891061663627624512e-01
2.499000000000000000e+03 3.423326110839843750e+01 4.480725765228271484e+00 -3.509905561804771423e-02 7.569204330444335938e+00 2.260231494903564453e+00 1.610881239175796509e-01
2.500000000000000000e+03 6.655940246582031250e+01 -3.162822723388671875e+00 -2.728554233908653259e-02 7.790782451629638672e+00 2.329049110412597656e+00 -1.263648718595504761e-01
2.501000000000000000e+03 3.668317413330078125e+01 8.706393241882324219e+00 -1.156854033470153809e-01 7.707392692565917969e+00 2.277512311935424805e+00 1.642066538333892822e-01
2.502000000000000000e+03 6.614910888671875000e+01 -1.289949131011962891e+01 -2.323576249182224274e-02 7.819489002227783203e+00 2.338876008987426758e+00 -9.887132048606872559e-02
2.503000000000000000e+03 6.748497772216796875e+01 -1.211136245727539062e+01 -1.974610239267349243e-02 7.833036899566650391e+00 2.343987226486206055e+00 -9.558556228876113892e-02
2.504000000000000000e+03 3.263537597656250000e+01 -7.696513652801513672e+00 -2.906864695250988007e-02 7.401297092437744141e+00 2.211668491363525391e+00 1.077705770730972290e-01
2.505000000000000000e+03 6.508247375488281250e+01 -7.718698024749755859e+00 -2.921586297452449799e-02 7.794624328613281250e+00 2.329622507095336914e+00 -1.166583076119422913e-01
2.506000000000000000e+03 6.542367553710937500e+01 -5.311684131622314453e+00 -2.952807582914829254e-02 7.791050434112548828e+00 2.328456878662109375e+00 -1.231381744146347046e-01
2.507000000000000000e+03 3.440835189819335938e+01 2.216651344299316406e+01 -4.147557020187377930e-01 8.210356712341308594e+00 2.338680267333984375e+00 2.005327939987182617e-01
2.508000000000000000e+03 3.691869735717773438e+01 -3.137540340423583984e+00 -4.356771707534790039e-02 7.522187709808349609e+00 2.243586063385009766e+00 6.660870462656021118e-02
2.509000000000000000e+03 6.485346984863281250e+01 -1.410280036926269531e+01 -2.833200991153717041e-02 7.805594921112060547e+00 2.333178997039794922e+00 -9.776439517736434937e-02
2.510000000000000000e+03 3.505303573608398438e+01 -7.102807998657226562e+00 -3.773241490125656128e-02 7.443001270294189453e+00 2.221580743789672852e+00 7.223827391862869263e-02
2.511000000000000000e+03 3.799985504150390625e+01 -1.861859440803527832e+00 -4.768533259630203247e-02 7.550440788269042969e+00 2.250826597213745117e+00 5.959269776940345764e-02
2.512000000000000000e+03 3.613341140747070312e+01 6.155303478240966797e+00 -7.492300868034362793e-02 7.638870239257812500e+00 2.269184112548828125e+00 1.529795974493026733e-01
2.513000000000000000e+03 3.638782882690429688e+01 7.441982746124267578e+00 -9.242603927850723267e-02 7.665812015533447266e+00 2.272015810012817383e+00 1.602989733219146729e-01
2.514000000000000000e+03 3.214632415771484375e+01 4.133041000366210938e+01 4.416255056858062744e-01 9.749629974365234375e+00 3.057376623153686523e+00 3.013733625411987305e-01
2.515000000000000000e+03 3.331180191040039062e+01 2.871616935729980469e+01 -2.294579595327377319e-01 8.720712661743164062e+00 2.547376394271850586e+00 -1.172903999686241150e-01
2.516000000000000000e+03 6.395546340942382812e+01 5.359101295471191406e+00 -3.933900222182273865e-02 7.761770248413085938e+00 2.316729307174682617e+00 -1.649979501962661743e-01
2.517000000000000000e+03 3.494804382324218750e+01 -8.904938697814941406e+00 -3.158767893910408020e-02 7.418131351470947266e+00 2.215963125228881836e+00 7.203508168458938599e-02
2.518000000000000000e+03 3.334198379516601562e+01 -9.123134613037109375e+00 -2.845476754009723663e-02 7.385995388031005859e+00 2.207262039184570312e+00 8.848517388105392456e-02
2.519000000000000000e+03 6.499841308593750000e+01 2.075987052917480469e+01 1.053729653358459473e-02 7.683847904205322266e+00 2.308315515518188477e+00 -2.037587612867355347e-01
2.520000000000000000e+03 6.298909378051757812e+01 1.734462356567382812e+01 -1.326963212341070175e-02 7.737059116363525391e+00 2.317137002944946289e+00 -2.128221839666366577e-01
2.521000000000000000e+03 6.290260696411132812e+01 -2.578759956359863281e+01 -3.829563036561012268e-02 7.794974803924560547e+00 2.327003717422485352e+00 -6.655244529247283936e-02
2.522000000000000000e+03 3.992424392700195312e+01 -7.921369075775146484e+00 -4.779394343495368958e-02 7.511453628540039062e+00 2.239097833633422852e+00 1.474264822900295258e-02
2.523000000000000000e+03 6.243000030517578125e+01 -2.238203620910644531e+01 -3.632874786853790283e-02 7.785553932189941406e+00 2.324767589569091797e+00 -7.751353085041046143e-02
2.524000000000000000e+03 6.538606262207031250e+01 -2.030820846557617188e+01 -2.647583372890949249e-02 7.826122760772705078e+00 2.339894056320190430e+00 -7.946401834487915039e-02
2.525000000000000000e+03 6.173367691040039062e+01 -1.154898643493652344e+01 -3.748206049203872681e-02 7.766517162322998047e+00 2.318710565567016602e+00 -1.103689000010490417e-01
2.526000000000000000e+03 3.716981124877929688e+01 1.420903873443603516e+01 -2.225997447967529297e-01 7.881062030792236328e+00 2.297538757324218750e+00 1.738981455564498901e-01
2.527000000000000000e+03 3.818937301635742188e+01 1.466996574401855469e+01 -2.266130000352859497e-01 7.915412902832031250e+00 2.306640148162841797e+00 1.347615420818328857e-01
2.528000000000000000e+03 3.205136871337890625e+01 7.294654369354248047e+00 -2.858776226639747620e-02 7.558651447296142578e+00 2.259019136428833008e+00 2.403697967529296875e-01
2.529000000000000000e+03 2.851532745361328125e+01 3.045846557617187500e+01 -5.870292782783508301e-01 9.124851226806640625e+00 2.561346769332885742e+00 3.893012702465057373e-01
2.530000000000000000e+03 3.047639846801757812e+01 3.131777572631835938e+01 -1.256655994802713394e-02 9.189957618713378906e+00 2.753217220306396484e+00 -1.668793261051177979e-01
2.531000000000000000e+03 3.249447250366210938e+01 3.223781967163085938e+01 4.730054438114166260e-01 8.919079780578613281e+00 2.817625522613525391e+00 -3.367765545845031738e-01
2.532000000000000000e+03 3.050685119628906250e+01 2.916935157775878906e+01 -4.649867117404937744e-01 8.887066841125488281e+00 2.526623964309692383e+00 1.393330842256546021e-01
2.533000000000000000e+03 3.280609893798828125e+01 3.012709808349609375e+01 -4.761733114719390869e-02 8.838555335998535156e+00 2.637281417846679688e+00 -2.187723219394683838e-01
2.534000000000000000e+03 3.141905975341796875e+01 3.184122276306152344e+01 2.500668466091156006e-01 9.113532066345214844e+00 2.809079647064208984e+00 -2.990690767765045166e-01
2.535000000000000000e+03 3.586958312988281250e+01 2.763664436340332031e+01 -1.660825312137603760e-01 8.536631584167480469e+00 2.511164665222167969e+00 -1.715005636215209961e-01
2.536000000000000000e+03 3.863248062133789062e+01 1.838270902633666992e+00 -6.435214728116989136e-02 7.612076759338378906e+00 2.264317512512207031e+00 7.139509916305541992e-02
2.537000000000000000e+03 3.898985290527343750e+01 8.607964515686035156e+00 -1.272542029619216919e-01 7.746168613433837891e+00 2.285674333572387695e+00 1.084756925702095032e-01
2.538000000000000000e+03 3.936392211914062500e+01 1.355098247528076172e+01 -2.006028890609741211e-01 7.886499404907226562e+00 2.305768966674804688e+00 1.061043068766593933e-01
2.539000000000000000e+03 3.580246734619140625e+01 -4.481258869171142578e+00 -3.694472089409828186e-02 7.485561847686767578e+00 2.234585046768188477e+00 7.268561422824859619e-02
2.540000000000000000e+03 3.794202041625976562e+01 4.727711677551269531e-01 -5.261816456913948059e-02 7.582247257232666016e+00 2.258888721466064453e+00 7.198888063430786133e-02
2.541000000000000000e+03 3.549811935424804688e+01 2.101514434814453125e+01 -3.710557222366333008e-01 8.152494430541992188e+00 2.334431648254394531e+00 1.683591753244400024e-01
2.542000000000000000e+03 3.690773010253906250e+01 2.232909584045410156e+01 -3.251866400241851807e-01 8.245860099792480469e+00 2.376202106475830078e+00 4.359012842178344727e-02
2.543000000000000000e+03 6.141772842407226562e+01 9.742163658142089844e+00 -4.662618041038513184e-02 7.768552780151367188e+00 2.316577911376953125e+00 -1.858373582363128662e-01
2.544000000000000000e+03 6.376181030273437500e+01 1.018463039398193359e+01 -3.610732778906822205e-02 7.751118183135986328e+00 2.314503192901611328e+00 -1.844792366027832031e-01
2.545000000000000000e+03 3.792324066162109375e+01 2.061862564086914062e+01 -2.977434396743774414e-01 8.165419578552246094e+00 2.360302925109863281e+00 4.308494925498962402e-02
2.546000000000000000e+03 3.812581634521484375e+01 2.917054176330566406e+01 8.476393669843673706e-02 8.442026138305664062e+00 2.558037042617797852e+00 -2.901651561260223389e-01
2.547000000000000000e+03 3.683296966552734375e+01 3.325935363769531250e+00 -5.551511421799659729e-02 7.600502490997314453e+00 2.263496160507202148e+00 1.142356544733047485e-01
2.548000000000000000e+03 3.556823730468750000e+01 3.569330596923828125e+01 8.589610457420349121e-01 8.638089179992675781e+00 2.849115133285522461e+00 -2.187585085630416870e-01
2.549000000000000000e+03 6.551160430908203125e+01 -5.408937931060791016e-01 -3.193229436874389648e-02 7.777490615844726562e+00 2.323667526245117188e+00 -1.387955695390701294e-01
2.550000000000000000e+03 3.714954757690429688e+01 5.348177909851074219e+00 -7.641761749982833862e-02 7.643499851226806641e+00 2.270124673843383789e+00 1.283366084098815918e-01
2.551000000000000000e+03 6.203087234497070312e+01 -1.351414012908935547e+01 -3.483828529715538025e-02 7.772305488586425781e+00 2.321240186691284180e+00 -1.043403372168540955e-01
2.552000000000000000e+03 3.475049591064453125e+01 -1.202262401580810547e+01 -3.251722827553749084e-02 7.376327037811279297e+00 2.203143119812011719e+00 6.269673258066177368e-02
2.553000000000000000e+03 6.392876052856445312e+01 -8.742002487182617188e+00 -3.265925124287605286e-02 7.786529541015625000e+00 2.326161146163940430e+00 -1.156594827771186829e-01
2.554000000000000000e+03 6.504875946044921875e+01 8.897329330444335938e+00 -3.355365619063377380e-02 7.746977806091308594e+00 2.314027309417724609e+00 -1.764458268880844116e-01
2.555000000000000000e+03 6.180811309814453125e+01 7.391711711883544922e+00 -4.756982252001762390e-02 7.767349243164062500e+00 2.315933704376220703e+00 -1.758078783750534058e-01
2.556000000000000000e+03 3.445364379882812500e+01 2.816404914855957031e+01 -2.007389962673187256e-01 8.628655433654785156e+00 2.528374910354614258e+00 -1.417416483163833618e-01
2.557000000000000000e+03 3.527960205078125000e+01 -1.927340316772460938e+01 -4.960107430815696716e-02 7.302338600158691406e+00 2.175821304321289062e+00 3.460538759827613831e-02
2.558000000000000000e+03 3.606774902343750000e+01 -1.256453132629394531e+01 -4.229797422885894775e-02 7.392673492431640625e+00 2.205112695693969727e+00 4.269053041934967041e-02
2.559000000000000000e+03 6.328634643554687500e+01 1.391464042663574219e+01 -2.806833945214748383e-02 7.744647979736328125e+00 2.314973831176757812e+00 -2.006816118955612183e-01
2.560000000000000000e+03 6.315839767456054688e+01 1.553649806976318359e+01 -2.304645255208015442e-02 7.742138862609863281e+00 2.315727710723876953e+00 -2.064152210950851440e-01
2.561000000000000000e+03 6.211300277709960938e+01 -8.723689079284667969e+00 -3.940271958708763123e-02 7.767923831939697266e+00 2.318556308746337891e+00 -1.176275685429573059e-01
2.562000000000000000e+03 6.420850372314453125e+01 -2.887218856811523438e+01 -3.797437995672225952e-02 7.822713851928710938e+00 2.335421800613403320e+00 -5.510453879833221436e-02
2.563000000000000000e+03 6.130151367187500000e+01 -3.097389602661132812e+01 -4.985977336764335632e-02 7.774742126464843750e+00 2.317464590072631836e+00 -5.099325254559516907e-02
2.564000000000000000e+03 6.416125488281250000e+01 -3.140977668762207031e+01 -3.715238347649574280e-02 7.827347278594970703e+00 2.337058544158935547e+00 -4.394902288913726807e-02
2.565000000000000000e+03 3.721724700927734375e+01 -3.413326644897460938e+01 -1.171146333217620850e-01 7.251215457916259766e+00 2.140230417251586914e+00 -3.595494478940963745e-02
2.566000000000000000e+03 3.377336120605468750e+01 2.996458053588867188e+01 -6.343405693769454956e-03 8.760992050170898438e+00 2.626394510269165039e+00 -2.395782023668289185e-01
2.567000000000000000e+03 3.248063659667968750e+01 2.928607368469238281e+01 -2.341660112142562866e-01 8.794196128845214844e+00 2.568008899688720703e+00 -9.281090646982192993e-02
2.568000000000000000e+03 3.498365402221679688e+01 2.973584175109863281e+01 2.942408435046672821e-02 8.660371780395507812e+00 2.606938838958740234e+00 -2.725485563278198242e-01
2.569000000000000000e+03 3.273862838745117188e+01 3.115394592285156250e+01 1.548696309328079224e-01 8.913798332214355469e+00 2.720600366592407227e+00 -2.827159762382507324e-01
2.570000000000000000e+03 3.850440979003906250e+01 3.092595338821411133e+00 -6.900560110807418823e-02 7.631204605102539062e+00 2.268659591674804688e+00 8.293364197015762329e-02
2.571000000000000000e+03 3.736945343017578125e+01 3.660665512084960938e+01 8.244032263755798340e-01 8.455480575561523438e+00 2.783965110778808594e+00 -1.446825563907623291e-01
2.572000000000000000e+03 3.729754257202148438e+01 -5.593092441558837891e+00 -4.434232786297798157e-02 7.495009899139404297e+00 2.235200166702270508e+00 5.261468514800071716e-02
2.573000000000000000e+03 3.832216644287109375e+01 -4.224648952484130859e+00 -4.669378325343132019e-02 7.528993606567382812e+00 2.244689941406250000e+00 4.321254417300224304e-02
2.574000000000000000e+03 4.042317962646484375e+01 9.479118347167968750e+00 -1.418528556823730469e-01 7.786626815795898438e+00 2.293432235717773438e+00 7.803414762020111084e-02
2.575000000000000000e+03 3.833594512939453125e+01 1.001077270507812500e+01 -1.436581909656524658e-01 7.767074108123779297e+00 2.287024736404418945e+00 1.316035091876983643e-01
2.576000000000000000e+03 3.916593933105468750e+01 1.661708641052246094e+01 -2.467477172613143921e-01 7.999611854553222656e+00 2.325859308242797852e+00 7.960528880357742310e-02
2.577000000000000000e+03 3.868236160278320312e+01 1.858788299560546875e+01 -2.688341438770294189e-01 8.067423820495605469e+00 2.339576959609985352e+00 6.585573405027389526e-02
2.578000000000000000e+03 3.665181350708007812e+01 3.146043586730957031e+01 3.236579895019531250e-01 8.546718597412109375e+00 2.661112785339355469e+00 -3.367800116539001465e-01
2.579000000000000000e+03 3.767141342163085938e+01 7.738639831542968750e+00 -1.085006222128868103e-01 7.702143192291259766e+00 2.278092861175537109e+00 1.351314485073089600e-01
2.580000000000000000e+03 6.202173995971679688e+01 1.376325798034667969e+01 -3.438418358564376831e-02 7.761314392089843750e+00 2.318079233169555664e+00 -2.040467560291290283e-01
2.581000000000000000e+03 3.677456665039062500e+01 -7.302567005157470703e+00 -3.768631815910339355e-02 7.466400146484375000e+00 2.228614330291748047e+00 5.286324769258499146e-02
2.582000000000000000e+03 3.640982437133789062e+01 3.354837417602539062e+01 6.154451966285705566e-01 8.529717445373535156e+00 2.743548870086669922e+00 -2.798906862735748291e-01
2.583000000000000000e+03 6.222422790527343750e+01 -1.572308635711669922e+01 -3.570713102817535400e-02 7.777665615081787109e+00 2.322587490081787109e+00 -9.746827185153961182e-02
2.584000000000000000e+03 6.344471740722656250e+01 -2.014016151428222656e+01 -2.997488528490066528e-02 7.796907901763916016e+00 2.330080032348632812e+00 -8.208812028169631958e-02
2.585000000000000000e+03 6.542797088623046875e+01 -1.159643268585205078e+01 -2.562756091356277466e-02 7.808127403259277344e+00 2.334749937057495117e+00 -1.037017330527305603e-01
2.586000000000000000e+03 6.220504760742187500e+01 1.120808601379394531e+01 -4.142672568559646606e-02 7.761667251586914062e+00 2.316072225570678711e+00 -1.926213204860687256e-01
2.587000000000000000e+03 6.107306289672851562e+01 -8.253856658935546875e+00 -3.772816434502601624e-02 7.760372161865234375e+00 2.316793203353881836e+00 -1.187037304043769836e-01
2.588000000000000000e+03 6.315129470825195312e+01 -4.523415088653564453e+00 -3.784167021512985229e-02 7.773969173431396484e+00 2.320838212966918945e+00 -1.300379186868667603e-01
2.589000000000000000e+03 6.248607635498046875e+01 -2.788219451904296875e+00 -4.140812903642654419e-02 7.769164562225341797e+00 2.318326950073242188e+00 -1.357562094926834106e-01
2.590000000000000000e+03 3.817774581909179688e+01 -1.135342597961425781e+01 -4.608806967735290527e-02 7.442049026489257812e+00 2.218788146972656250e+00 2.194433286786079407e-02
2.591000000000000000e+03 3.664534759521484375e+01 -9.138439178466796875e+00 -4.119472578167915344e-02 7.441271305084228516e+00 2.220022916793823242e+00 4.573336243629455566e-02
2.592000000000000000e+03 3.386219024658203125e+01 3.130315971374511719e+01 2.641153335571289062e-01 8.773006439208984375e+00 2.711136579513549805e+00 -3.359868824481964111e-01
2.593000000000000000e+03 3.514754104614257812e+01 3.139669799804687500e+01 3.091409504413604736e-01 8.654323577880859375e+00 2.689039468765258789e+00 -3.185466825962066650e-01
2.594000000000000000e+03 3.658824157714843750e+01 2.514847373962402344e+01 -2.799675762653350830e-01 8.395828247070312500e+00 2.434758186340332031e+00 -6.203639507293701172e-02
2.595000000000000000e+03 3.747785568237304688e+01 2.706053161621093750e+01 -1.228065490722656250e-01 8.424253463745117188e+00 2.490434169769287109e+00 -1.914355903863906860e-01
2.596000000000000000e+03 6.273933029174804688e+01 8.755228996276855469e+00 -4.310685396194458008e-02 7.761445999145507812e+00 2.315501689910888672e+00 -1.811919808387756348e-01
2.597000000000000000e+03 6.294675064086914062e+01 1.256248188018798828e+01 -3.498230874538421631e-02 7.754562854766845703e+00 2.315874099731445312e+00 -1.968659609556198120e-01
2.598000000000000000e+03 6.307106018066406250e+01 -4.828317761421203613e-01 -4.093996062874794006e-02 7.769927501678466797e+00 2.318696260452270508e+00 -1.445059031248092651e-01
2.599000000000000000e+03 3.056242752075195312e+01 -8.728470802307128906e+00 -1.746148243546485901e-02 7.348558425903320312e+00 2.199329137802124023e+00 1.408818513154983521e-01
2.600000000000000000e+03 6.384284973144531250e+01 2.344271850585937500e+01 3.146499022841453552e-02 7.684564590454101562e+00 2.314808845520019531e+00 -2.082647383213043213e-01
2.601000000000000000e+03 6.317160415649414062e+01 2.138748741149902344e+01 1.586705259978771210e-02 7.712892532348632812e+00 2.318627834320068359e+00 -2.186096012592315674e-01
2.602000000000000000e+03 4.049824142456054688e+01 4.810624122619628906e-01 -6.802299618721008301e-02 7.621573925018310547e+00 2.266065359115600586e+00 3.696518018841743469e-02
2.603000000000000000e+03 3.791089248657226562e+01 4.221943378448486328e+00 -7.405190169811248779e-02 7.639739513397216797e+00 2.269706249237060547e+00 1.012438759207725525e-01
2.604000000000000000e+03 3.955040740966796875e+01 1.078461742401123047e+01 -1.568743288516998291e-01 7.807852745056152344e+00 2.295293569564819336e+00 9.954862296581268311e-02
2.605000000000000000e+03 3.607559204101562500e+01 4.302041053771972656e+00 -5.363131314516067505e-02 7.599580764770507812e+00 2.263784885406494141e+00 1.341333538293838501e-01
2.606000000000000000e+03 3.953166198730468750e+01 2.119889831542968750e+01 -2.524085342884063721e-01 8.175824165344238281e+00 2.377024650573730469e+00 -2.658234722912311554e-02
2.607000000000000000e+03 3.930563354492187500e+01 -2.937124729156494141e+00 -5.550778284668922424e-02 7.560606956481933594e+00 2.251529693603515625e+00 3.934914991259574890e-02
2.608000000000000000e+03 3.921343994140625000e+01 2.639259147644042969e+01 -9.211891144514083862e-02 8.344180107116699219e+00 2.475618600845336914e+00 -2.096889615058898926e-01
2.609000000000000000e+03 6.029131317138671875e+01 -1.862155437469482422e+00 -4.878082126379013062e-02 7.760459899902343750e+00 2.313503742218017578e+00 -1.375660598278045654e-01
2.610000000000000000e+03 6.173124694824218750e+01 -1.298652768135070801e+00 -4.540801048278808594e-02 7.766874313354492188e+00 2.316439867019653320e+00 -1.411574482917785645e-01
2.611000000000000000e+03 6.095076751708984375e+01 6.020678043365478516e+00 -5.197132006287574768e-02 7.769963264465332031e+00 2.315397500991821289e+00 -1.702585816383361816e-01
2.612000000000000000e+03 6.495955657958984375e+01 4.262553691864013672e+00 -3.544408828020095825e-02 7.761986732482910156e+00 2.317962884902954102e+00 -1.587626188993453979e-01
2.613000000000000000e+03 6.490880584716796875e+01 6.479585647583007812e+00 -3.571747988462448120e-02 7.755571365356445312e+00 2.315956115722656250e+00 -1.677071154117584229e-01
2.614000000000000000e+03 5.923760986328125000e+01 9.312394142150878906e+00 -5.691070482134819031e-02 7.782311916351318359e+00 2.317620277404785156e+00 -1.825508177280426025e-01
2.615000000000000000e+03 6.057789611816406250e+01 8.324750900268554688e+00 -5.251355096697807312e-02 7.773021697998046875e+00 2.316152334213256836e+00 -1.800477206707000732e-01
2.616000000000000000e+03 6.096069335937500000e+01 1.952114677429199219e+01 -3.259972203522920609e-03 7.760313510894775391e+00 2.327116012573242188e+00 -2.239643931388854980e-01
2.617000000000000000e+03 6.472111511230468750e+01 -1.015256214141845703e+01 -2.904390357434749603e-02 7.797879219055175781e+00 2.330650568008422852e+00 -1.100461557507514954e-01
2.618000000000000000e+03 6.680974578857421875e+01 -1.397409534454345703e+01 -2.362271770834922791e-02 7.830776214599609375e+00 2.342146158218383789e+00 -9.287778288125991821e-02
2.619000000000000000e+03 6.016429901123046875e+01 -1.612844657897949219e+01 -4.064035788178443909e-02 7.746840476989746094e+00 2.311860084533691406e+00 -9.758073091506958008e-02
2.620000000000000000e+03 6.486640167236328125e+01 -3.586135387420654297e+00 -3.226694837212562561e-02 7.782942295074462891e+00 2.325202703475952148e+00 -1.302391141653060913e-01
2.621000000000000000e+03 3.643812561035156250e+01 2.948072242736816406e+01 6.825226545333862305e-02 8.536541938781738281e+00 2.581438302993774414e+00 -2.777712047100067139e-01
2.622000000000000000e+03 6.145442199707031250e+01 -6.860195159912109375e+00 -4.240998253226280212e-02 7.763872146606445312e+00 2.316438674926757812e+00 -1.234723851084709167e-01
2.623000000000000000e+03 6.045793151855468750e+01 -9.706022262573242188e+00 -4.305522516369819641e-02 7.754468441009521484e+00 2.313423871994018555e+00 -1.146614402532577515e-01
2.624000000000000000e+03 6.288497161865234375e+01 -7.466633319854736328e+00 -3.593301400542259216e-02 7.774357795715332031e+00 2.321527481079101562e+00 -1.212135627865791321e-01
2.625000000000000000e+03 4.064921188354492188e+01 1.638843345642089844e+01 -2.263252735137939453e-01 8.000156402587890625e+00 2.332149505615234375e+00 3.411777317523956299e-02
2.626000000000000000e+03 5.770363235473632812e+01 1.661445236206054688e+01 -3.836594521999359131e-02 7.815733432769775391e+00 2.333210229873657227e+00 -2.176696062088012695e-01
2.627000000000000000e+03 5.954315948486328125e+01 1.705109786987304688e+01 -2.588745206594467163e-02 7.783792972564697266e+00 2.327371597290039062e+00 -2.189717739820480347e-01
2.628000000000000000e+03 4.253125381469726562e+01 -2.508520841598510742e+00 -6.190054118633270264e-02 7.605541229248046875e+00 2.263092279434204102e+00 2.429367159493267536e-04
2.629000000000000000e+03 6.095366668701171875e+01 -3.385457515716552734e+00 -4.658640548586845398e-02 7.762422561645507812e+00 2.314750909805297852e+00 -1.338450461626052856e-01
2.630000000000000000e+03 4.240593719482421875e+01 1.968712234497070312e+01 -1.931042671203613281e-01 8.096649169921875000e+00 2.371063470840454102e+00 -8.729837834835052490e-02
2.631000000000000000e+03 4.183501434326171875e+01 2.257095527648925781e+01 -1.523914784193038940e-01 8.166845321655273438e+00 2.404336214065551758e+00 -1.410084068775177002e-01
2.632000000000000000e+03 4.001446533203125000e+01 2.873238182067871094e+01 9.318532794713973999e-02 8.327474594116210938e+00 2.526197910308837891e+00 -2.880453169345855713e-01
2.633000000000000000e+03 6.286899185180664062e+01 1.810673832893371582e+00 -4.298873990774154663e-02 7.767390251159667969e+00 2.317320346832275391e+00 -1.531799286603927612e-01
2.634000000000000000e+03 4.301515197753906250e+01 1.197338581085205078e+01 -1.655085831880569458e-01 7.877685070037841797e+00 2.313652992248535156e+00 6.325596943497657776e-03
2.635000000000000000e+03 3.975764083862304688e+01 7.174586296081542969e+00 -1.130309700965881348e-01 7.725690364837646484e+00 2.283797740936279297e+00 8.586004376411437988e-02
2.636000000000000000e+03 4.120595169067382812e+01 8.026032447814941406e+00 -1.286296397447586060e-01 7.766755580902099609e+00 2.291437864303588867e+00 5.916442349553108215e-02
2.637000000000000000e+03 3.865823745727539062e+01 -6.299114227294921875e+00 -4.517269879579544067e-02 7.508875370025634766e+00 2.239110708236694336e+00 3.380566462874412537e-02
2.638000000000000000e+03 5.358742141723632812e+01 1.494171047210693359e+01 -7.320535928010940552e-02 7.859685897827148438e+00 2.335944175720214844e+00 -1.925691217184066772e-01
2.639000000000000000e+03 5.954638290405273438e+01 1.293394660949707031e+01 -4.907163977622985840e-02 7.786879062652587891e+00 2.321342229843139648e+00 -2.005079537630081177e-01
2.640000000000000000e+03 3.996596908569335938e+01 2.033035993576049805e+00 -7.129716128110885620e-02 7.634932994842529297e+00 2.269090652465820312e+00 5.464030057191848755e-02
2.641000000000000000e+03 3.964628601074218750e+01 3.582396030426025391e+00 -8.121499419212341309e-02 7.657006740570068359e+00 2.272737503051757812e+00 6.963364034891128540e-02
2.642000000000000000e+03 6.103993988037109375e+01 -1.278961449861526489e-02 -4.899999126791954041e-02 7.765928268432617188e+00 2.315078496932983398e+00 -1.458213329315185547e-01
2.643000000000000000e+03 6.208991622924804688e+01 5.265104770660400391e+00 -4.728502780199050903e-02 7.766745090484619141e+00 2.315838098526000977e+00 -1.672917008399963379e-01
2.644000000000000000e+03 5.973683547973632812e+01 6.888337612152099609e+00 -5.669048801064491272e-02 7.775561809539794922e+00 2.315661430358886719e+00 -1.720589250326156616e-01
2.645000000000000000e+03 6.127878952026367188e+01 2.568502664566040039e+00 -4.932682961225509644e-02 7.767265796661376953e+00 2.315381765365600586e+00 -1.556096673011779785e-01
2.646000000000000000e+03 3.925317764282226562e+01 1.488173007965087891e+01 -2.204498648643493652e-01 7.929874420166015625e+00 2.312827348709106445e+00 1.000390499830245972e-01
2.647000000000000000e+03 6.170991516113281250e+01 -9.960048675537109375e+00 -3.717523068189620972e-02 7.764988422393798828e+00 2.318343877792358398e+00 -1.141105145215988159e-01
2.648000000000000000e+03 6.002391433715820312e+01 1.070087146759033203e+01 -5.185188353061676025e-02 7.778340339660644531e+00 2.317946434020996094e+00 -1.906234323978424072e-01
2.649000000000000000e+03 6.283757781982421875e+01 -9.633151054382324219e+00 -3.487193956971168518e-02 7.775954723358154297e+00 2.322324752807617188e+00 -1.142628341913223267e-01
2.650000000000000000e+03 5.996824264526367188e+01 -1.377300930023193359e+01 -4.256918653845787048e-02 7.745112419128417969e+00 2.310762882232666016e+00 -1.040114089846611023e-01
2.651000000000000000e+03 6.058343505859375000e+01 -1.818161010742187500e+01 -3.988058120012283325e-02 7.753859996795654297e+00 2.314193725585937500e+00 -9.192322194576263428e-02
2.652000000000000000e+03 6.177615356445312500e+01 -1.943209648132324219e+01 -4.048105701804161072e-02 7.772086620330810547e+00 2.319481611251831055e+00 -8.629544079303741455e-02
2.653000000000000000e+03 6.163878631591796875e+01 4.009858608245849609e+00 -4.918991774320602417e-02 7.767297744750976562e+00 2.315432310104370117e+00 -1.615905016660690308e-01
2.654000000000000000e+03 5.746726608276367188e+01 1.879256057739257812e+01 -2.048335596919059753e-02 7.819334506988525391e+00 2.339655399322509766e+00 -2.268003374338150024e-01
2.655000000000000000e+03 6.012395477294921875e+01 -7.530250072479248047e+00 -4.393544048070907593e-02 7.752449989318847656e+00 2.312554359436035156e+00 -1.202678158879280090e-01
2.656000000000000000e+03 5.916664123535156250e+01 -9.048166275024414062e+00 -4.401518777012825012e-02 7.743301868438720703e+00 2.309785842895507812e+00 -1.153940334916114807e-01
2.657000000000000000e+03 6.495190429687500000e+01 2.526914978027343750e+01 3.960018604993820190e-02 7.651435375213623047e+00 2.307310581207275391e+00 -1.932009309530258179e-01
2.658000000000000000e+03 6.061854934692382812e+01 2.882634162902832031e+01 1.105688735842704773e-01 7.715176105499267578e+00 2.347723484039306641e+00 -2.066062837839126587e-01
2.659000000000000000e+03 6.293381118774414062e+01 4.286478042602539062e+00 -4.423661530017852783e-02 7.765697479248046875e+00 2.316438198089599609e+00 -1.624867171049118042e-01
2.660000000000000000e+03 3.910063552856445312e+01 4.991606235504150391e+00 -8.735819905996322632e-02 7.671787738800048828e+00 2.275328874588012695e+00 8.701248466968536377e-02
2.661000000000000000e+03 4.185177993774414062e+01 1.059923648834228516e+01 -1.568253189325332642e-01 7.836562156677246094e+00 2.303920984268188477e+00 4.133781045675277710e-02
2.662000000000000000e+03 3.490609741210937500e+01 3.309577178955078125e+01 6.032009720802307129e-01 8.665879249572753906e+00 2.780724048614501953e+00 -3.435058295726776123e-01
2.663000000000000000e+03 5.960610580444335938e+01 -3.764957666397094727e+00 -4.796836897730827332e-02 7.754357337951660156e+00 2.311916589736938477e+00 -1.308836489915847778e-01
2.664000000000000000e+03 5.889483261108398438e+01 5.439646244049072266e+00 -6.080690771341323853e-02 7.774517059326171875e+00 2.314113140106201172e+00 -1.643491983413696289e-01
2.665000000000000000e+03 5.945083999633789062e+01 3.027320623397827148e+00 -5.819302797317504883e-02 7.767742156982421875e+00 2.312864780426025391e+00 -1.549998372793197632e-01
2.666000000000000000e+03 6.073010253906250000e+01 1.343693542480468750e+01 -4.128112271428108215e-02 7.774641036987304688e+00 2.320008039474487305e+00 -2.035164088010787964e-01
2.667000000000000000e+03 3.836792755126953125e+01 6.342079639434814453e+00 -9.777127206325531006e-02 7.687646389007568359e+00 2.276962518692016602e+00 1.102484613656997681e-01
2.668000000000000000e+03 4.178547668457031250e+01 1.277503013610839844e+00 -7.701984792947769165e-02 7.651778221130371094e+00 2.272427558898925781e+00 2.275305055081844330e-02
2.669000000000000000e+03 3.979153823852539062e+01 -6.499333858489990234e+00 -5.293658748269081116e-02 7.525413513183593750e+00 2.241743087768554688e+00 1.475342828780412674e-02
2.670000000000000000e+03 4.219005203247070312e+01 1.325687694549560547e+01 -1.825937628746032715e-01 7.906931400299072266e+00 2.317301273345947266e+00 2.200388535857200623e-02
2.671000000000000000e+03 3.853627395629882812e+01 1.332228469848632812e+01 -2.028583139181137085e-01 7.872744083404541016e+00 2.300965785980224609e+00 1.330108344554901123e-01
2.672000000000000000e+03 4.276854705810546875e+01 8.941714286804199219e+00 -1.385482549667358398e-01 7.807045459747314453e+00 2.300549030303955078e+00 2.073156833648681641e-02
2.673000000000000000e+03 5.845426177978515625e+01 1.452027416229248047e+01 -4.728429019451141357e-02 7.801830768585205078e+00 2.326364040374755859e+00 -2.070965021848678589e-01
2.674000000000000000e+03 4.101313018798828125e+01 2.075212097167968750e+01 -2.124002277851104736e-01 8.149347305297851562e+00 2.381083965301513672e+00 -7.741645723581314087e-02
2.675000000000000000e+03 4.347957611083984375e+01 2.144152259826660156e+01 -1.396965682506561279e-01 8.114221572875976562e+00 2.392357587814331055e+00 -1.476370990276336670e-01
2.676000000000000000e+03 4.034532546997070312e+01 1.473132991790771484e+01 -2.108213305473327637e-01 7.937099933624267578e+00 2.317883491516113281e+00 6.499914824962615967e-02
2.677000000000000000e+03 4.315092849731445312e+01 1.436135482788085938e+01 -1.777434945106506348e-01 7.937484741210937500e+00 2.327922344207763672e+00 -2.234401740133762360e-02
2.678000000000000000e+03 3.833079910278320312e+01 -9.470950126647949219e+00 -4.340334236621856689e-02 7.469970226287841797e+00 2.227970123291015625e+00 2.808931283652782440e-02
2.679000000000000000e+03 3.841359329223632812e+01 -7.754168987274169922e+00 -4.816222190856933594e-02 7.489884376525878906e+00 2.232516765594482422e+00 3.014615550637245178e-02
2.680000000000000000e+03 3.842667770385742188e+01 3.146189308166503906e+01 3.343830108642578125e-01 8.407916069030761719e+00 2.622689723968505859e+00 -3.186043202877044678e-01
2.681000000000000000e+03 6.382119750976562500e+01 -1.798266601562500000e+01 -3.256503865122795105e-02 7.800236701965332031e+00 2.330301523208618164e+00 -8.894448727369308472e-02
2.682000000000000000e+03 5.900926589965820312e+01 -6.549002647399902344e+00 -4.782249778509140015e-02 7.746078968048095703e+00 2.309476852416992188e+00 -1.222311630845069885e-01
2.683000000000000000e+03 5.780340576171875000e+01 1.038158702850341797e+01 -6.344286352396011353e-02 7.795667171478271484e+00 2.319667339324951172e+00 -1.851891577243804932e-01
2.684000000000000000e+03 5.705912780761718750e+01 8.830559730529785156e+00 -6.910025328397750854e-02 7.795082092285156250e+00 2.317794561386108398e+00 -1.729120761156082153e-01
2.685000000000000000e+03 5.714978027343750000e+01 1.322216320037841797e+01 -5.922312662005424500e-02 7.811477184295654297e+00 2.325676202774047852e+00 -1.979641616344451904e-01
2.686000000000000000e+03 4.395455932617187500e+01 3.519005298614501953e+00 -9.614208340644836426e-02 7.712575912475585938e+00 2.284930229187011719e+00 -5.301851313561201096e-03
2.687000000000000000e+03 4.367450332641601562e+01 5.268879413604736328e+00 -1.064023897051811218e-01 7.738605976104736328e+00 2.289661169052124023e+00 2.316264901310205460e-03
2.688000000000000000e+03 4.040969467163085938e+01 5.709005355834960938e+00 -1.022431999444961548e-01 7.706891059875488281e+00 2.281394481658935547e+00 6.728802621364593506e-02
2.689000000000000000e+03 4.293893051147460938e+01 2.466036033630371094e+01 -6.606900691986083984e-02 8.183141708374023438e+00 2.435121774673461914e+00 -2.120887190103530884e-01
2.690000000000000000e+03 5.961383819580078125e+01 -3.650975227355957031e-01 -5.414086952805519104e-02 7.760883808135986328e+00 2.312022924423217773e+00 -1.416099518537521362e-01
2.691000000000000000e+03 5.791539764404296875e+01 3.951196432113647461e+00 -6.403822451829910278e-02 7.771144866943359375e+00 2.312131881713867188e+00 -1.537970453500747681e-01
2.692000000000000000e+03 4.446653747558593750e+01 9.576541900634765625e+00 -1.391181349754333496e-01 7.831024169921875000e+00 2.307571887969970703e+00 -1.759757101535797119e-02
2.693000000000000000e+03 5.823954391479492188e+01 -1.085491561889648438e+01 -4.681148007512092590e-02 7.729537487030029297e+00 2.304817676544189453e+00 -1.087999567389488220e-01
2.694000000000000000e+03 4.494616317749023438e+01 2.005057144165039062e+01 -1.349511891603469849e-01 8.059758186340332031e+00 2.377442121505737305e+00 -1.493238508701324463e-01
2.695000000000000000e+03 3.823965835571289062e+01 3.393618392944335938e+01 5.763801932334899902e-01 8.434821128845214844e+00 2.703360319137573242e+00 -2.825756669044494629e-01
2.696000000000000000e+03 5.862717819213867188e+01 1.181980323791503906e+01 -5.489607527852058411e-02 7.792389869689941406e+00 2.321248054504394531e+00 -1.938722729682922363e-01
2.697000000000000000e+03 4.093389129638671875e+01 -6.279988765716552734e+00 -5.128178372979164124e-02 7.539811134338378906e+00 2.246558904647827148e+00 9.605532512068748474e-03
2.698000000000000000e+03 4.193447113037109375e+01 -5.640472412109375000e+00 -5.566500499844551086e-02 7.565642833709716797e+00 2.252993345260620117e+00 -2.382998354732990265e-03
2.699000000000000000e+03 6.137034606933593750e+01 -5.140814781188964844e+00 -4.188872128725051880e-02 7.763390064239501953e+00 2.316450357437133789e+00 -1.276456415653228760e-01
2.700000000000000000e+03 4.329743957519531250e+01 7.074725151062011719e+00 -1.205510869622230530e-01 7.769520282745361328e+00 2.294690847396850586e+00 9.848673827946186066e-03
2.701000000000000000e+03 4.478600311279296875e+01 7.536556243896484375e+00 -1.225087866187095642e-01 7.789015769958496094e+00 2.299952030181884766e+00 -1.814955286681652069e-02
2.702000000000000000e+03 5.541113662719726562e+01 1.432130622863769531e+01 -6.362827122211456299e-02 7.834378719329833984e+00 2.331225156784057617e+00 -1.966741532087326050e-01
2.703000000000000000e+03 6.206889724731445312e+01 6.460184454917907715e-01 -4.522359371185302734e-02 7.767898082733154297e+00 2.316802263259887695e+00 -1.486561149358749390e-01
2.704000000000000000e+03 6.085536956787109375e+01 1.206824302673339844e+00 -5.020941421389579773e-02 7.765736103057861328e+00 2.314657926559448242e+00 -1.507404595613479614e-01
2.705000000000000000e+03 5.809113311767578125e+01 -8.948914408683776855e-01 -5.659183114767074585e-02 7.753428936004638672e+00 2.309051036834716797e+00 -1.365282088518142700e-01
2.706000000000000000e+03 5.917253112792968750e+01 1.301985740661621094e+00 -5.704862996935844421e-02 7.764583110809326172e+00 2.312260389328002930e+00 -1.477571725845336914e-01
2.707000000000000000e+03 5.767678833007812500e+01 6.427330970764160156e+00 -6.635036319494247437e-02 7.781145572662353516e+00 2.314438581466674805e+00 -1.636135876178741455e-01
2.708000000000000000e+03 5.688027191162109375e+01 5.161875724792480469e+00 -7.063202559947967529e-02 7.776707172393798828e+00 2.311822652816772461e+00 -1.543197780847549438e-01
2.709000000000000000e+03 5.532347106933593750e+01 -8.151846885681152344e+00 -5.524020269513130188e-02 7.705864906311035156e+00 2.295187473297119141e+00 -1.073362082242965698e-01
2.710000000000000000e+03 5.692784500122070312e+01 -1.255978202819824219e+01 -4.774616286158561707e-02 7.713088512420654297e+00 2.299602746963500977e+00 -1.037252321839332581e-01
2.711000000000000000e+03 4.018355178833007812e+01 1.343759536743164062e+01 -1.942614316940307617e-01 7.890243053436279297e+00 2.308794498443603516e+00 8.000898361206054688e-02
2.712000000000000000e+03 4.284711074829101562e+01 1.691147804260253906e+01 -1.930557489395141602e-01 8.009983062744140625e+00 2.345078229904174805e+00 -4.386510327458381653e-02
2.713000000000000000e+03 4.267662429809570312e+01 5.243754386901855469e-01 -7.397462427616119385e-02 7.650856018066406250e+00 2.273064374923706055e+00 8.498085662722587585e-03
2.714000000000000000e+03 4.388611984252929688e+01 3.007443845272064209e-01 -8.008940517902374268e-02 7.663100242614746094e+00 2.274903297424316406e+00 -1.132919825613498688e-02
2.715000000000000000e+03 5.890633010864257812e+01 -2.418668746948242188e+00 -5.355346202850341797e-02 7.754038333892822266e+00 2.310145378112792969e+00 -1.340894252061843872e-01
2.716000000000000000e+03 4.138284683227539062e+01 1.808032226562500000e+01 -2.228473573923110962e-01 8.056246757507324219e+00 2.350019931793212891e+00 -1.475252024829387665e-02
2.717000000000000000e+03 4.513428497314453125e+01 1.703369522094726562e+01 -1.586536616086959839e-01 7.996749877929687500e+00 2.351428747177124023e+00 -1.008433550596237183e-01
2.718000000000000000e+03 4.182301330566406250e+01 6.424727439880371094e+00 -1.134782657027244568e-01 7.741492748260498047e+00 2.288404464721679688e+00 3.990793600678443909e-02
2.719000000000000000e+03 4.264156341552734375e+01 3.194467067718505859e+00 -8.971013873815536499e-02 7.691206455230712891e+00 2.280448913574218750e+00 1.507974974811077118e-02
2.720000000000000000e+03 5.654711151123046875e+01 -6.787149429321289062e+00 -5.368727073073387146e-02 7.723470211029052734e+00 2.300934791564941406e+00 -1.150450408458709717e-01
2.721000000000000000e+03 5.974722671508789062e+01 -5.117133140563964844e+00 -4.871825873851776123e-02 7.752495288848876953e+00 2.311133146286010742e+00 -1.265074312686920166e-01
2.722000000000000000e+03 5.639245605468750000e+01 7.307549476623535156e+00 -7.396304607391357422e-02 7.789617538452148438e+00 2.314696311950683594e+00 -1.616741865873336792e-01
2.723000000000000000e+03 4.478108596801757812e+01 2.334729957580566406e+01 -6.236249580979347229e-02 8.111110687255859375e+00 2.414624691009521484e+00 -2.117810100317001343e-01
2.724000000000000000e+03 4.413927078247070312e+01 1.558892250061035156e+01 -1.736020147800445557e-01 7.974932670593261719e+00 2.340399265289306641e+00 -5.999017879366874695e-02
2.725000000000000000e+03 5.808112335205078125e+01 -1.424949359893798828e+01 -4.475961998105049133e-02 7.723913669586181641e+00 2.303746223449707031e+00 -1.012881323695182800e-01
2.726000000000000000e+03 5.667074584960937500e+01 -1.548008537292480469e+01 -4.987992346286773682e-02 7.700855255126953125e+00 2.295292615890502930e+00 -9.592851996421813965e-02
2.727000000000000000e+03 6.062780761718750000e+01 -2.120207595825195312e+01 -3.739827871322631836e-02 7.758718013763427734e+00 2.316395998001098633e+00 -8.238297700881958008e-02
2.728000000000000000e+03 5.470362472534179688e+01 1.233857536315917969e+01 -7.742271572351455688e-02 7.830039501190185547e+00 2.325784921646118164e+00 -1.803517937660217285e-01
2.729000000000000000e+03 5.913185882568359375e+01 1.914402389526367188e+01 -1.106391381472349167e-02 7.791284561157226562e+00 2.334066152572631836e+00 -2.278039604425430298e-01
2.730000000000000000e+03 5.575326156616210938e+01 1.656490516662597656e+01 -5.031698569655418396e-02 7.838733673095703125e+00 2.336524963378906250e+00 -2.104589641094207764e-01
2.731000000000000000e+03 4.624979019165039062e+01 7.787229537963867188e+00 -1.214635670185089111e-01 7.801785469055175781e+00 2.304096460342407227e+00 -4.555031657218933105e-02
2.732000000000000000e+03 5.265629959106445312e+01 -7.989970684051513672e+00 -5.967367812991142273e-02 7.678634643554687500e+00 2.285688400268554688e+00 -9.582264721393585205e-02
2.733000000000000000e+03 5.672111129760742188e+01 -9.558941841125488281e+00 -5.044698715209960938e-02 7.716294765472412109e+00 2.299754381179809570e+00 -1.092376038432121277e-01
2.734000000000000000e+03 4.203284072875976562e+01 1.549778556823730469e+01 -2.002313733100891113e-01 7.976231098175048828e+00 2.332799911499023438e+00 -4.928222188027575612e-05
2.735000000000000000e+03 4.092978668212890625e+01 4.183335304260253906e+00 -9.020635485649108887e-02 7.684500694274902344e+00 2.278288364410400391e+00 4.935578629374504089e-02
2.736000000000000000e+03 4.245767974853515625e+01 -8.730039000511169434e-01 -7.153459638357162476e-02 7.629456520080566406e+00 2.267376661300659180e+00 5.792967043817043304e-03
2.737000000000000000e+03 4.668647766113281250e+01 2.192234992980957031e+00 -9.022195637226104736e-02 7.717479228973388672e+00 2.288177251815795898e+00 -4.483731463551521301e-02
2.738000000000000000e+03 4.503161621093750000e+01 5.608571052551269531e+00 -1.093342453241348267e-01 7.755564689636230469e+00 2.293869018554687500e+00 -2.100692875683307648e-02
2.739000000000000000e+03 4.598694610595703125e+01 1.206233215332031250e+01 -1.435110270977020264e-01 7.883351802825927734e+00 2.321952104568481445e+00 -6.509301066398620605e-02
2.740000000000000000e+03 4.436514663696289062e+01 1.154145240783691406e+01 -1.545954793691635132e-01 7.872892379760742188e+00 2.315489053726196289e+00 -2.198641002178192139e-02
2.741000000000000000e+03 5.639296340942382812e+01 2.855978012084960938e+00 -6.970804929733276367e-02 7.765663623809814453e+00 2.308786630630493164e+00 -1.419015079736709595e-01
2.742000000000000000e+03 5.523694610595703125e+01 -5.371073722839355469e+00 -5.948924273252487183e-02 7.717307567596435547e+00 2.297345638275146484e+00 -1.125356629490852356e-01
2.743000000000000000e+03 5.543044281005859375e+01 -1.107425594329833984e+01 -5.259862542152404785e-02 7.697034835815429688e+00 2.293330907821655273e+00 -1.022221446037292480e-01
2.744000000000000000e+03 5.766311264038085938e+01 -5.511742591857910156e+00 -5.380931496620178223e-02 7.736568927764892578e+00 2.304827928543090820e+00 -1.215349286794662476e-01
2.745000000000000000e+03 4.389287567138671875e+01 -2.534429311752319336e+00 -6.961842626333236694e-02 7.625865936279296875e+00 2.266874074935913086e+00 -1.619855873286724091e-02
2.746000000000000000e+03 4.475473403930664062e+01 -5.907328128814697266e-01 -7.597813755273818970e-02 7.660138607025146484e+00 2.275248050689697266e+00 -2.341599017381668091e-02
2.747000000000000000e+03 5.667369079589843750e+01 -1.735809683799743652e+00 -6.121807917952537537e-02 7.745460510253906250e+00 2.305272817611694336e+00 -1.289047002792358398e-01
2.748000000000000000e+03 4.711705398559570312e+01 5.368251204490661621e-01 -8.245287090539932251e-02 7.697679996490478516e+00 2.284568071365356445e+00 -5.230855196714401245e-02
2.749000000000000000e+03 5.764133453369140625e+01 -3.194182634353637695e+00 -5.571367219090461731e-02 7.743421077728271484e+00 2.306312322616577148e+00 -1.275751143693923950e-01
2.750000000000000000e+03 4.406385803222656250e+01 -4.433026790618896484e+00 -6.306748092174530029e-02 7.605754852294921875e+00 2.262806177139282227e+00 -1.998595893383026123e-02
2.751000000000000000e+03 4.962977600097656250e+01 2.990185260772705078e+00 -9.122305363416671753e-02 7.745219707489013672e+00 2.296199083328247070e+00 -8.301775157451629639e-02
2.752000000000000000e+03 4.637348175048828125e+01 5.819082260131835938e+00 -1.088906452059745789e-01 7.768523693084716797e+00 2.297889947891235352e+00 -4.259669780731201172e-02
2.753000000000000000e+03 5.582128906250000000e+01 4.510483741760253906e+00 -7.516629993915557861e-02 7.775405406951904297e+00 2.310071706771850586e+00 -1.452771723270416260e-01
2.754000000000000000e+03 5.565177154541015625e+01 -1.479970961809158325e-01 -6.706159561872482300e-02 7.748467445373535156e+00 2.304421663284301758e+00 -1.289186030626296997e-01
2.755000000000000000e+03 4.141195297241210938e+01 1.423099899291992188e+01 -2.008556276559829712e-01 7.937163829803466797e+00 2.320892333984375000e+00 3.534934297204017639e-02
2.756000000000000000e+03 4.403792953491210938e+01 1.310079288482666016e+01 -1.672769933938980103e-01 7.914227962493896484e+00 2.324085235595703125e+00 -3.017005696892738342e-02
2.757000000000000000e+03 5.044424057006835938e+01 7.582732677459716797e+00 -1.037094742059707642e-01 7.806474685668945312e+00 2.310829639434814453e+00 -1.088651716709136963e-01
2.758000000000000000e+03 5.502252960205078125e+01 8.005133628845214844e+00 -8.036737143993377686e-02 7.800522804260253906e+00 2.316046476364135742e+00 -1.566476672887802124e-01
2.759000000000000000e+03 5.449474716186523438e+01 2.680374860763549805e+00 -7.659907639026641846e-02 7.760784626007080078e+00 2.305255651473999023e+00 -1.293022185564041138e-01
2.760000000000000000e+03 5.396228027343750000e+01 -6.641982078552246094e+00 -5.914245918393135071e-02 7.699443817138671875e+00 2.292090415954589844e+00 -1.039109975099563599e-01
2.761000000000000000e+03 4.503926849365234375e+01 -8.622965812683105469e+00 -5.944787710905075073e-02 7.578315258026123047e+00 2.255660295486450195e+00 -3.697658330202102661e-02
2.762000000000000000e+03 4.524866485595703125e+01 -2.247634887695312500e+00 -7.169212400913238525e-02 7.646893501281738281e+00 2.272560358047485352e+00 -3.116355836391448975e-02
2.763000000000000000e+03 4.002862167358398438e+01 -9.670982360839843750e+00 -5.190763249993324280e-02 7.493194103240966797e+00 2.232385873794555664e+00 6.964101456105709076e-03
2.764000000000000000e+03 4.171687698364257812e+01 -9.579425811767578125e+00 -5.225593224167823792e-02 7.522687911987304688e+00 2.241129636764526367e+00 -5.869863089174032211e-03
2.765000000000000000e+03 3.648156738281250000e+01 -1.089859008789062500e+01 -3.796300664544105530e-02 7.419944763183593750e+00 2.214594364166259766e+00 4.652836546301841736e-02
2.766000000000000000e+03 4.532035827636718750e+01 1.405217933654785156e+01 -1.558087468147277832e-01 7.927237033843994141e+00 2.331428527832031250e+00 -6.905442476272583008e-02
2.767000000000000000e+03 5.256463241577148438e+01 1.106948947906494141e+01 -9.442064166069030762e-02 7.837809085845947266e+00 2.323016405105590820e+00 -1.550107449293136597e-01
2.768000000000000000e+03 5.585448455810546875e+01 5.890081882476806641e+00 -7.535910606384277344e-02 7.784192085266113281e+00 2.312649965286254883e+00 -1.512565463781356812e-01
2.769000000000000000e+03 5.460386276245117188e+01 6.298649787902832031e+00 -8.245372772216796875e-02 7.788799285888671875e+00 2.311903715133666992e+00 -1.454529762268066406e-01
2.770000000000000000e+03 5.532606887817382812e+01 -2.725916624069213867e+00 -6.357271969318389893e-02 7.730875968933105469e+00 2.300190925598144531e+00 -1.181556209921836853e-01
2.771000000000000000e+03 4.002602005004882812e+01 -1.172488784790039062e+01 -4.751550033688545227e-02 7.475690364837646484e+00 2.228452444076538086e+00 4.512119572609663010e-03
2.772000000000000000e+03 4.570153045654296875e+01 -4.098916053771972656e+00 -6.680729240179061890e-02 7.628915309906005859e+00 2.268632411956787109e+00 -4.039819911122322083e-02
2.773000000000000000e+03 4.589405441284179688e+01 4.438129067420959473e-02 -8.021853119134902954e-02 7.680586814880371094e+00 2.280110359191894531e+00 -3.506378456950187683e-02
2.774000000000000000e+03 4.728720474243164062e+01 -3.560877323150634766e+00 -7.001114636659622192e-02 7.655645847320556641e+00 2.275690555572509766e+00 -5.458267033100128174e-02
2.775000000000000000e+03 5.185131835937500000e+01 7.211044788360595703e+00 -9.592670947313308716e-02 7.799856185913085938e+00 2.311178922653198242e+00 -1.247595921158790588e-01
2.776000000000000000e+03 5.010650253295898438e+01 4.166808605194091797e+00 -9.351460635662078857e-02 7.763632774353027344e+00 2.301035404205322266e+00 -9.268020838499069214e-02
2.777000000000000000e+03 5.427708435058593750e+01 -1.088209152221679688e+00 -6.956624984741210938e-02 7.734091281890869141e+00 2.299357652664184570e+00 -1.158344596624374390e-01
2.778000000000000000e+03 4.973925399780273438e+01 1.418365573883056641e+01 -1.117472052574157715e-01 7.896106243133544922e+00 2.335307836532592773e+00 -1.437332034111022949e-01
2.779000000000000000e+03 4.732610702514648438e+01 1.760685920715332031e+01 -1.191404536366462708e-01 7.969123840332031250e+00 2.354995012283325195e+00 -1.527325510978698730e-01
2.780000000000000000e+03 5.559858703613281250e+01 9.712204933166503906e+00 -7.707323133945465088e-02 7.807512283325195312e+00 2.319131851196289062e+00 -1.699672788381576538e-01
2.781000000000000000e+03 4.565998077392578125e+01 -1.069677925109863281e+01 -5.772681534290313721e-02 7.567110061645507812e+00 2.252815008163452148e+00 -4.664034023880958557e-02
2.782000000000000000e+03 4.338094329833984375e+01 -9.188582420349121094e+00 -5.612121149897575378e-02 7.547538757324218750e+00 2.247425317764282227e+00 -2.487046271562576294e-02
2.783000000000000000e+03 4.444505310058593750e+01 -6.527964591979980469e+00 -6.094464659690856934e-02 7.587901115417480469e+00 2.258086919784545898e+00 -3.007152490317821503e-02
2.784000000000000000e+03 4.619993209838867188e+01 -6.048804283142089844e+00 -6.419765949249267578e-02 7.617610931396484375e+00 2.266023874282836914e+00 -4.510398581624031067e-02
2.785000000000000000e+03 4.194451904296875000e+01 -1.174318313598632812e+01 -5.499656125903129578e-02 7.501878738403320312e+00 2.234064579010009766e+00 -1.567862182855606079e-02
2.786000000000000000e+03 5.444931411743164062e+01 4.563599586486816406e+00 -7.899518311023712158e-02 7.776308536529541016e+00 2.309193849563598633e+00 -1.368988752365112305e-01
2.787000000000000000e+03 5.415470886230468750e+01 7.212184071540832520e-01 -7.212626188993453979e-02 7.745806217193603516e+00 2.302103996276855469e+00 -1.207367777824401855e-01
2.788000000000000000e+03 5.305667495727539062e+01 1.302070713043212891e+01 -8.611189574003219604e-02 7.852036476135253906e+00 2.329777240753173828e+00 -1.730434745550155640e-01
2.789000000000000000e+03 4.766080093383789062e+01 7.873399734497070312e+00 -1.165070757269859314e-01 7.808321475982666016e+00 2.307544469833374023e+00 -7.010795176029205322e-02
2.790000000000000000e+03 5.215972518920898438e+01 9.126095771789550781e+00 -9.674251824617385864e-02 7.821139812469482422e+00 2.317319154739379883e+00 -1.378305107355117798e-01
2.791000000000000000e+03 5.361342239379882812e+01 8.599045753479003906e+00 -8.889814466238021851e-02 7.809691429138183594e+00 2.316237926483154297e+00 -1.492400020360946655e-01
2.792000000000000000e+03 4.804751205444335938e+01 -5.515503406524658203e+00 -6.578142195940017700e-02 7.643340587615966797e+00 2.273267745971679688e+00 -6.347090750932693481e-02
2.793000000000000000e+03 4.523410797119140625e+01 3.754629373550415039e+00 -9.775298088788986206e-02 7.727673530578613281e+00 2.288976192474365234e+00 -2.278123237192630768e-02
2.794000000000000000e+03 4.897222137451171875e+01 1.929804325103759766e+00 -8.723516762256622314e-02 7.730656147003173828e+00 2.293026208877563477e+00 -7.419479638338088989e-02
2.795000000000000000e+03 5.398071289062500000e+01 -3.804401159286499023e+00 -6.368166953325271606e-02 7.715436458587646484e+00 2.295526504516601562e+00 -1.090736761689186096e-01
2.796000000000000000e+03 5.161587905883789062e+01 5.383651733398437500e+00 -9.227493405342102051e-02 7.781431674957275391e+00 2.306746959686279297e+00 -1.139008551836013794e-01
2.797000000000000000e+03 5.026982879638671875e+01 5.755109786987304688e+00 -9.782496839761734009e-02 7.780433654785156250e+00 2.304782629013061523e+00 -9.966123849153518677e-02
2.798000000000000000e+03 4.807069396972656250e+01 1.470689678192138672e+01 -1.258131712675094604e-01 7.916934013366699219e+00 2.337336301803588867e+00 -1.257504671812057495e-01
2.799000000000000000e+03 4.935739898681640625e+01 1.198600101470947266e+01 -1.162556335330009460e-01 7.868689060211181641e+00 2.325730085372924805e+00 -1.233533695340156555e-01
2.800000000000000000e+03 5.116633987426757812e+01 -6.399908065795898438e+00 -6.272208690643310547e-02 7.671820163726806641e+00 2.282729387283325195e+00 -8.672793954610824585e-02
2.801000000000000000e+03 5.410475540161132812e+01 1.045193004608154297e+01 -8.433327078819274902e-02 7.823051452636718750e+00 2.321615457534790039e+00 -1.638971716165542603e-01
2.802000000000000000e+03 4.657961654663085938e+01 -1.735637307167053223e+00 -7.391958683729171753e-02 7.664360523223876953e+00 2.277132272720336914e+00 -4.745396226644515991e-02
2.803000000000000000e+03 4.063120651245117188e+01 -5.049560546875000000e+00 -5.775558948516845703e-02 7.554534912109375000e+00 2.249033689498901367e+00 1.390904001891613007e-02
2.804000000000000000e+03 5.133434677124023438e+01 -3.369864463806152344e+00 -6.899015605449676514e-02 7.696542263031005859e+00 2.288265705108642578e+00 -9.131580591201782227e-02
2.805000000000000000e+03 4.907284545898437500e+01 -2.744891643524169922e-01 -7.882586121559143066e-02 7.705370903015136719e+00 2.287963628768920898e+00 -7.327756285667419434e-02
2.806000000000000000e+03 5.087494277954101562e+01 2.133255720138549805e+00 -8.468991518020629883e-02 7.742549896240234375e+00 2.297358036041259766e+00 -9.498745203018188477e-02
2.807000000000000000e+03 5.301012420654296875e+01 4.928119659423828125e+00 -8.615016192197799683e-02 7.776970386505126953e+00 2.307245969772338867e+00 -1.260731965303421021e-01
2.808000000000000000e+03 3.520932388305664062e+01 -1.406904125213623047e+01 -3.527920320630073547e-02 7.357216835021972656e+00 2.196581363677978516e+00 5.027538910508155823e-02
2.809000000000000000e+03 3.774332809448242188e+01 -1.329272556304931641e+01 -4.306995496153831482e-02 7.413528442382812500e+00 2.211137533187866211e+00 2.596471086144447327e-02
2.810000000000000000e+03 4.786362075805664062e+01 2.399576663970947266e+00 -9.041311591863632202e-02 7.727328300476074219e+00 2.291074514389038086e+00 -6.189591437578201294e-02
2.811000000000000000e+03 4.412510299682617188e+01 1.772104144096374512e+00 -8.455413579940795898e-02 7.685732841491699219e+00 2.280353546142578125e+00 -8.958030492067337036e-03
2.812000000000000000e+03 5.277328872680664062e+01 -2.043397665023803711e+00 -7.009968161582946777e-02 7.718398094177246094e+00 2.294489622116088867e+00 -1.048194095492362976e-01
2.813000000000000000e+03 5.134490203857421875e+01 -9.378097534179687500e+00 -5.941725522279739380e-02 7.657271862030029297e+00 2.279356479644775391e+00 -8.554547280073165894e-02
2.814000000000000000e+03 4.877661895751953125e+01 -2.789592981338500977e+00 -7.162920385599136353e-02 7.675819396972656250e+00 2.281256914138793945e+00 -6.913653016090393066e-02
2.815000000000000000e+03 5.015324020385742188e+01 -1.747772574424743652e+00 -7.419548928737640381e-02 7.698854446411132812e+00 2.287397623062133789e+00 -8.310659229755401611e-02
2.816000000000000000e+03 4.767837905883789062e+01 1.227337551116943359e+01 -1.320914477109909058e-01 7.884443759918212891e+00 2.325705766677856445e+00 -9.705778956413269043e-02
2.817000000000000000e+03 5.031918334960937500e+01 1.634340286254882812e+01 -9.713995456695556641e-02 7.920255184173583984e+00 2.346934556961059570e+00 -1.745458096265792847e-01
2.818000000000000000e+03 5.191314697265625000e+01 1.559602260589599609e+01 -8.436481654644012451e-02 7.889591217041015625e+00 2.341567993164062500e+00 -1.845903694629669189e-01
2.819000000000000000e+03 4.825585937500000000e+01 -1.180742168426513672e+01 -5.817952007055282593e-02 7.597028732299804688e+00 2.261654615402221680e+00 -6.552363932132720947e-02
2.820000000000000000e+03 4.384545516967773438e+01 -1.134879589080810547e+01 -5.697822198271751404e-02 7.537373542785644531e+00 2.244118690490722656e+00 -2.961693145334720612e-02
2.821000000000000000e+03 5.067213058471679688e+01 9.553167343139648438e+00 -1.059851497411727905e-01 7.830007076263427734e+00 2.317206621170043945e+00 -1.239453032612800598e-01
2.822000000000000000e+03 4.843966674804687500e+01 -7.451031208038330078e+00 -6.272419542074203491e-02 7.635231494903564453e+00 2.271752357482910156e+00 -6.616763770580291748e-02
2.823000000000000000e+03 4.916463851928710938e+01 9.837756156921386719e+00 -1.171246990561485291e-01 7.840203285217285156e+00 2.316923618316650391e+00 -1.031415909528732300e-01
2.824000000000000000e+03 4.543911361694335938e+01 1.886299490928649902e+00 -8.780124783515930176e-02 7.699322700500488281e+00 2.283456563949584961e+00 -2.915486693382263184e-02
2.825000000000000000e+03 5.279615020751953125e+01 3.115483522415161133e+00 -8.221574872732162476e-02 7.761165142059326172e+00 2.303684949874877930e+00 -1.172630563378334045e-01
2.826000000000000000e+03 4.897056579589843750e+01 5.923103332519531250e+00 -1.036257073283195496e-01 7.781338691711425781e+00 2.303313970565795898e+00 -8.202410489320755005e-02
2.827000000000000000e+03 4.899965667724609375e+01 4.218735218048095703e+00 -9.560380131006240845e-02 7.755871772766113281e+00 2.298080444335937500e+00 -7.781746983528137207e-02
2.828000000000000000e+03 4.786396408081054688e+01 -1.097136974334716797e+00 -7.717098295688629150e-02 7.685580730438232422e+00 2.282522916793823242e+00 -5.904477089643478394e-02
2.829000000000000000e+03 5.144093704223632812e+01 -4.437680840492248535e-01 -7.542438060045242310e-02 7.722407817840576172e+00 2.294095039367675781e+00 -9.711331129074096680e-02
2.830000000000000000e+03 5.237008666992187500e+01 1.240357875823974609e+00 -7.957535237073898315e-02 7.741957187652587891e+00 2.298714399337768555e+00 -1.081959158182144165e-01
2.831000000000000000e+03 4.981401824951171875e+01 -4.630712509155273438e+00 -6.784123182296752930e-02 7.671018600463867188e+00 2.280953168869018555e+00 -7.834544777870178223e-02
2.832000000000000000e+03 4.766098403930664062e+01 9.956784248352050781e+00 -1.247683688998222351e-01 7.839951515197753906e+00 2.314554929733276367e+00 -7.959008961915969849e-02
2.833000000000000000e+03 5.139179229736328125e+01 1.362483119964599609e+01 -9.840521961450576782e-02 7.874804973602294922e+00 2.332920074462890625e+00 -1.619354933500289917e-01
2.834000000000000000e+03 5.398562622070312500e+01 1.681094741821289062e+01 -5.858624354004859924e-02 7.863252162933349609e+00 2.341399908065795898e+00 -2.068720906972885132e-01
2.835000000000000000e+03 4.441123199462890625e+01 -1.363358116149902344e+01 -5.666381865739822388e-02 7.524557113647460938e+00 2.240368127822875977e+00 -3.971455991268157959e-02
2.836000000000000000e+03 4.643614959716796875e+01 -1.278879070281982422e+01 -5.988927930593490601e-02 7.567179203033447266e+00 2.252187013626098633e+00 -5.273861065506935120e-02
2.837000000000000000e+03 3.874116516113281250e+01 -1.632307624816894531e+01 -4.777505248785018921e-02 7.405062198638916016e+00 2.207186222076416016e+00 6.275921594351530075e-03
2.838000000000000000e+03 5.135390472412109375e+01 3.676475048065185547e+00 -8.859689533710479736e-02 7.760673999786376953e+00 2.301623106002807617e+00 -1.049347743391990662e-01
2.839000000000000000e+03 5.097744750976562500e+01 1.158467864990234375e+01 -1.049934029579162598e-01 7.854591846466064453e+00 2.324879646301269531e+00 -1.400364637374877930e-01
2.840000000000000000e+03 4.820198440551757812e+01 1.052806854248046875e+00 -8.487536758184432983e-02 7.712875366210937500e+00 2.288399934768676758e+00 -6.354382634162902832e-02
2.841000000000000000e+03 4.740558242797851562e+01 -1.490103721618652344e+01 -5.857278779149055481e-02 7.565223693847656250e+00 2.251995325088500977e+00 -5.962967872619628906e-02
2.842000000000000000e+03 4.933555221557617188e+01 -1.370775890350341797e+01 -5.951116606593132019e-02 7.602965831756591797e+00 2.263036251068115234e+00 -7.153829932212829590e-02
2.843000000000000000e+03 3.823873901367187500e+01 -1.980948829650878906e+01 -5.439276993274688721e-02 7.358311653137207031e+00 2.191175699234008789e+00 3.924226388335227966e-03
2.844000000000000000e+03 3.421092605590820312e+01 -1.774999618530273438e+01 -4.773812741041183472e-02 7.301890850067138672e+00 2.176245689392089844e+00 5.283173173666000366e-02
2.845000000000000000e+03 5.370181655883789062e+01 1.867374801635742188e+01 -4.055409133434295654e-02 7.877367496490478516e+00 2.351043939590454102e+00 -2.198657691478729248e-01
2.846000000000000000e+03 5.255323028564453125e+01 1.739114761352539062e+01 -6.396299600601196289e-02 7.893274784088134766e+00 2.348793506622314453e+00 -2.055459469556808472e-01
2.847000000000000000e+03 4.929479598999023438e+01 1.943913650512695312e+01 -7.532688230276107788e-02 7.969003200531005859e+00 2.368103027343750000e+00 -2.014576792716979980e-01
2.848000000000000000e+03 5.022546386718750000e+01 2.182196426391601562e+01 -2.345493063330650330e-02 7.964222908020019531e+00 2.382230281829833984e+00 -2.314645051956176758e-01
2.849000000000000000e+03 5.363205337524414062e+01 2.232498931884765625e+01 6.608841940760612488e-03 7.887713909149169922e+00 2.368296861648559570e+00 -2.405121177434921265e-01
2.850000000000000000e+03 5.182307434082031250e+01 2.783100509643554688e+01 1.256448924541473389e-01 7.917318820953369141e+00 2.412889003753662109e+00 -2.583649754524230957e-01
2.851000000000000000e+03 6.558717346191406250e+01 -1.631677055358886719e+01 -2.477577142417430878e-02 7.820796012878417969e+00 2.338805913925170898e+00 -9.052651375532150269e-02
2.852000000000000000e+03 3.226958084106445312e+01 -2.462101745605468750e+01 -5.068790167570114136e-02 7.164929866790771484e+00 2.134272575378417969e+00 6.693004071712493896e-02
2.853000000000000000e+03 5.535422515869140625e+01 -1.410514545440673828e+01 -5.190403759479522705e-02 7.686175346374511719e+00 2.290281295776367188e+00 -9.562638401985168457e-02
2.854000000000000000e+03 6.720912933349609375e+01 3.457752990722656250e+01 9.281731396913528442e-02 7.541381359100341797e+00 2.290259599685668945e+00 -1.058421507477760315e-01
2.855000000000000000e+03 4.858274459838867188e+01 -1.707196617126464844e+01 -6.208092346787452698e-02 7.573825359344482422e+00 2.253523349761962891e+00 -6.675077229738235474e-02
2.856000000000000000e+03 5.107390975952148438e+01 -1.239067554473876953e+01 -5.739139392971992493e-02 7.635396003723144531e+00 2.273401498794555664e+00 -8.114258944988250732e-02
2.857000000000000000e+03 5.722424316406250000e+01 2.631785583496093750e+01 7.520319521427154541e-02 7.805352210998535156e+00 2.364166736602783203e+00 -2.397919893264770508e-01
2.858000000000000000e+03 5.314263153076171875e+01 2.562892341613769531e+01 7.425143569707870483e-02 7.896854400634765625e+00 2.391331672668457031e+00 -2.502284944057464600e-01
2.859000000000000000e+03 2.839586067199707031e+01 -3.845618820190429688e+01 -3.160769343376159668e-01 6.900730609893798828e+00 1.975396156311035156e+00 -1.663304716348648071e-01
2.860000000000000000e+03 2.861534690856933594e+01 -3.565907669067382812e+01 -2.962835691869258881e-02 6.868159294128417969e+00 2.051559209823608398e+00 -9.994187951087951660e-02
2.861000000000000000e+03 6.515599822998046875e+01 2.875051689147949219e+01 6.549953669309616089e-02 7.625222682952880859e+00 2.307216644287109375e+00 -1.724459230899810791e-01
2.862000000000000000e+03 6.099777984619140625e+01 -2.464491271972656250e+01 -3.946315869688987732e-02 7.764668941497802734e+00 2.317561864852905273e+00 -7.249262183904647827e-02
2.863000000000000000e+03 6.194367599487304688e+01 -2.821916770935058594e+01 -4.226150363683700562e-02 7.780662536621093750e+00 2.321520328521728516e+00 -5.963980406522750854e-02
2.864000000000000000e+03 5.263354110717773438e+01 -1.098066520690917969e+01 -5.717305839061737061e-02 7.662866592407226562e+00 2.281708002090454102e+00 -9.169368445873260498e-02
2.865000000000000000e+03 4.889446640014648438e+01 -9.107194900512695312e+00 -6.023266538977622986e-02 7.623749732971191406e+00 2.269055128097534180e+00 -7.010561972856521606e-02
2.866000000000000000e+03 4.876611328125000000e+01 1.703179550170898438e+01 -1.105696707963943481e-01 7.947844982147216797e+00 2.351182699203491211e+00 -1.602191030979156494e-01
2.867000000000000000e+03 1.995247840881347656e+01 4.004901123046875000e+01 3.772253990173339844e-01 4.051562547683715820e-01 2.347145080566406250e-01 5.589528679847717285e-01
2.868000000000000000e+03 3.701851272583007812e+01 -1.799675559997558594e+01 -5.382988601922988892e-02 7.355788230895996094e+00 2.190587520599365234e+00 1.983003504574298859e-02
2.869000000000000000e+03 6.108824157714843750e+01 2.198826217651367188e+01 1.740194484591484070e-02 7.753255367279052734e+00 2.331197261810302734e+00 -2.269228845834732056e-01
2.870000000000000000e+03 4.280180358886718750e+01 -1.694877624511718750e+01 -5.716168135404586792e-02 7.470594406127929688e+00 2.224029779434204102e+00 -2.930382452905178070e-02
2.871000000000000000e+03 6.780288696289062500e+01 2.255406188964843750e+01 1.286111306399106979e-02 7.622923851013183594e+00 2.290735483169555664e+00 -1.789004802703857422e-01
2.872000000000000000e+03 1.832866287231445312e+01 -4.119272994995117188e+01 -1.588615775108337402e-01 2.915830850601196289e+00 8.270907998085021973e-01 3.821893632411956787e-01
2.873000000000000000e+03 7.115174102783203125e+01 -3.563281631469726562e+01 -1.540321670472621918e-02 7.970762729644775391e+00 2.386607885360717773e+00 -1.989074423909187317e-02
2.874000000000000000e+03 5.010190582275390625e+01 8.055354356765747070e-01 -8.260348439216613770e-02 7.725131034851074219e+00 2.292758226394653320e+00 -8.610927313566207886e-02
2.875000000000000000e+03 5.793618392944335938e+01 2.062924003601074219e+01 -1.531760324724018574e-03 7.808456420898437500e+00 2.342077255249023438e+00 -2.311808317899703979e-01
2.876000000000000000e+03 4.158356094360351562e+01 -2.076327323913574219e+01 -5.850054696202278137e-02 7.419564247131347656e+00 2.208318948745727539e+00 -2.513843774795532227e-02
2.877000000000000000e+03 3.978853607177734375e+01 -1.409864616394042969e+01 -5.382454395294189453e-02 7.442915439605712891e+00 2.216727256774902344e+00 -1.317259971983730793e-03
2.878000000000000000e+03 4.624700164794921875e+01 2.549411964416503906e+01 2.918641269207000732e-02 8.088629722595214844e+00 2.435344696044921875e+00 -2.527064383029937744e-01
2.879000000000000000e+03 5.001591873168945312e+01 -7.902709484100341797e+00 -6.274621933698654175e-02 7.648647308349609375e+00 2.275770425796508789e+00 -7.867923378944396973e-02
2.880000000000000000e+03 4.990562057495117188e+01 -1.068288993835449219e+01 -5.987351387739181519e-02 7.628255844116210938e+00 2.270514726638793945e+00 -7.576794922351837158e-02
2.881000000000000000e+03 5.722039031982421875e+01 -1.842871284484863281e+01 -4.870137572288513184e-02 7.706237316131591797e+00 2.297260761260986328e+00 -9.050396084785461426e-02
2.882000000000000000e+03 5.554850769042968750e+01 1.899097061157226562e+01 -2.740738540887832642e-02 7.849907875061035156e+00 2.346750259399414062e+00 -2.266158610582351685e-01
2.883000000000000000e+03 3.245140075683593750e+01 -2.247054862976074219e+01 -4.385873302817344666e-02 7.213206768035888672e+00 2.150804519653320312e+00 7.291539013385772705e-02
2.884000000000000000e+03 5.987504577636718750e+01 3.465626525878906250e+01 1.825198680162429810e-01 7.699316978454589844e+00 2.364551067352294922e+00 -1.400734782218933105e-01
2.885000000000000000e+03 4.357222366333007812e+01 3.382010650634765625e+01 4.445868730545043945e-01 8.161890983581542969e+00 2.581943273544311523e+00 -2.522373497486114502e-01
2.886000000000000000e+03 4.357782363891601562e+01 3.719829940795898438e+01 6.000692248344421387e-01 8.154354095458984375e+00 2.626327037811279297e+00 -1.739290654659271240e-01
2.887000000000000000e+03 4.206839370727539062e+01 2.805335426330566406e+01 8.373389393091201782e-02 8.242006301879882812e+00 2.497722148895263672e+00 -2.805006206035614014e-01
2.888000000000000000e+03 4.296426010131835938e+01 3.076875305175781250e+01 2.649893164634704590e-01 8.191794395446777344e+00 2.537035226821899414e+00 -2.990324497222900391e-01
2.889000000000000000e+03 3.707623672485351562e+01 -3.075326156616210938e+01 -8.954413235187530518e-02 7.249387741088867188e+00 2.147953033447265625e+00 -3.430821374058723450e-02
2.890000000000000000e+03 6.561123657226562500e+01 -3.750185394287109375e+01 -3.104160167276859283e-02 7.864157199859619141e+00 2.349934816360473633e+00 -1.995203085243701935e-02
2.891000000000000000e+03 6.461964416503906250e+01 -3.430545043945312500e+01 -3.713000565767288208e-02 7.841572284698486328e+00 2.341332674026489258e+00 -3.403353318572044373e-02
2.892000000000000000e+03 2.782152938842773438e+01 -4.118754196166992188e+01 -3.949373662471771240e-01 7.030215740203857422e+00 1.990583539009094238e+00 -5.896717682480812073e-02
2.893000000000000000e+03 4.203365707397460938e+01 -3.700670242309570312e+01 -1.408636569976806641e-01 7.393759727478027344e+00 2.175868749618530273e+00 -3.302130475640296936e-02
2.894000000000000000e+03 3.743347930908203125e+01 -3.750448989868164062e+01 -1.610286533832550049e-01 7.241350173950195312e+00 2.124096393585205078e+00 -4.008869081735610962e-02
2.895000000000000000e+03 4.658654022216796875e+01 -3.623980331420898438e+01 -1.164109483361244202e-01 7.488158226013183594e+00 2.211524248123168945e+00 -2.855259738862514496e-02
2.896000000000000000e+03 6.155225753784179688e+01 -3.751771545410156250e+01 -5.216228589415550232e-02 7.784948348999023438e+00 2.319835901260375977e+00 -2.163100242614746094e-02
2.897000000000000000e+03 5.731091690063476562e+01 -3.720981216430664062e+01 -7.166435569524765015e-02 7.700566768646240234e+00 2.288670778274536133e+00 -2.449636161327362061e-02
2.898000000000000000e+03 4.294029998779296875e+01 4.073438262939453125e+01 6.740785837173461914e-01 8.176632881164550781e+00 2.655213594436645508e+00 -5.280292034149169922e-02
2.899000000000000000e+03 6.309750747680664062e+01 3.683015823364257812e+01 1.504007428884506226e-01 7.620803833007812500e+00 2.331361293792724609e+00 -9.178759157657623291e-02
2.900000000000000000e+03 7.132717132568359375e+01 -4.056365585327148438e+01 -1.182713825255632401e-02 7.984951019287109375e+00 2.391937255859375000e+00 -6.306237075477838516e-03
2.901000000000000000e+03 7.916679382324218750e+00 4.109414291381835938e+01 -6.359178107231855392e-03 -1.810760423541069031e-02 -7.340034935623407364e-03 1.113975699990987778e-02
2.902000000000000000e+03 4.418955993652343750e+01 2.700153350830078125e+01 6.701718270778656006e-02 8.155717849731445312e+00 2.466820478439331055e+00 -2.727755904197692871e-01
2.903000000000000000e+03 5.379059600830078125e+01 -1.581819725036621094e+01 -5.529668554663658142e-02 7.661646842956542969e+00 2.281905174255371094e+00 -8.889823406934738159e-02
2.904000000000000000e+03 5.537069702148437500e+01 -1.731182289123535156e+01 -5.335882306098937988e-02 7.679216384887695312e+00 2.287757158279418945e+00 -8.994372189044952393e-02
2.905000000000000000e+03 4.649330520629882812e+01 2.164893531799316406e+01 -7.348473370075225830e-02 8.046259880065917969e+00 2.391832590103149414e+00 -1.990348547697067261e-01
2.906000000000000000e+03 6.464501190185546875e+01 3.133752441406250000e+01 9.173300862312316895e-02 7.617914676666259766e+00 2.312894344329833984e+00 -1.577276587486267090e-01
2.907000000000000000e+03 5.961651992797851562e+01 2.561995506286621094e+01 6.644249707460403442e-02 7.765131473541259766e+00 2.349472045898437500e+00 -2.319831550121307373e-01
2.908000000000000000e+03 5.397692108154296875e+01 -1.258234310150146484e+01 -5.358023941516876221e-02 7.675154685974121094e+00 2.286472320556640625e+00 -9.475433826446533203e-02
2.909000000000000000e+03 3.616822052001953125e+01 -2.108292007446289062e+01 -5.551964044570922852e-02 7.305524349212646484e+00 2.175001382827758789e+00 2.530573308467864990e-02
2.910000000000000000e+03 5.403102493286132812e+01 -9.555764198303222656e+00 -5.556846037507057190e-02 7.687467098236083984e+00 2.289569616317749023e+00 -9.978459775447845459e-02
2.911000000000000000e+03 4.554197692871093750e+01 2.968464469909667969e+01 2.001427859067916870e-01 8.107466697692871094e+00 2.492282867431640625e+00 -2.845971584320068359e-01
2.912000000000000000e+03 4.986244201660156250e+01 2.584863853454589844e+01 7.668808847665786743e-02 7.980505466461181641e+00 2.417158126831054688e+00 -2.630489170551300049e-01
2.913000000000000000e+03 5.740411758422851562e+01 -2.533887290954589844e+01 -5.302792042493820190e-02 7.706825256347656250e+00 2.296139240264892578e+00 -7.082968950271606445e-02
2.914000000000000000e+03 6.116950607299804688e+01 -3.412137603759765625e+01 -4.884663969278335571e-02 7.776436805725097656e+00 2.318277120590209961e+00 -3.785876557230949402e-02
2.915000000000000000e+03 5.885202026367187500e+01 2.279565048217773438e+01 2.483367361128330231e-02 7.788289546966552734e+00 2.343936920166015625e+00 -2.354442328214645386e-01
2.916000000000000000e+03 3.284300994873046875e+01 -2.832744026184082031e+01 -3.474575653672218323e-02 7.135569572448730469e+00 2.130247116088867188e+00 3.882322087883949280e-02
2.917000000000000000e+03 3.750452041625976562e+01 -2.529145050048828125e+01 -6.148469448089599609e-02 7.303046226501464844e+00 2.172468423843383789e+00 5.385496187955141068e-03
2.918000000000000000e+03 4.819904327392578125e+01 2.358316612243652344e+01 -6.670336704701185226e-03 8.025185585021972656e+00 2.405554771423339844e+00 -2.427963763475418091e-01
2.919000000000000000e+03 5.577508544921875000e+01 -2.310293388366699219e+01 -5.638847127556800842e-02 7.677495479583740234e+00 2.286332130432128906e+00 -7.601554691791534424e-02
2.920000000000000000e+03 5.316161727905273438e+01 3.243547058105468750e+01 2.455553412437438965e-01 7.863924503326416016e+00 2.432843923568725586e+00 -2.185086905956268311e-01
2.921000000000000000e+03 4.706171035766601562e+01 3.284209060668945312e+01 3.403567075729370117e-01 8.029716491699218750e+00 2.511022090911865234e+00 -2.552565634250640869e-01
2.922000000000000000e+03 3.420688247680664062e+01 -2.203783035278320312e+01 -5.113942176103591919e-02 7.245226383209228516e+00 2.158226013183593750e+00 4.282489046454429626e-02
2.923000000000000000e+03 3.921113967895507812e+01 -2.198566055297851562e+01 -6.330919265747070312e-02 7.368578910827636719e+00 2.191580772399902344e+00 -3.559614066034555435e-03
2.924000000000000000e+03 5.335215759277343750e+01 -2.451750946044921875e+01 -6.531046330928802490e-02 7.634462833404541016e+00 2.270745754241943359e+00 -7.247866690158843994e-02
2.925000000000000000e+03 5.524251174926757812e+01 -2.764637374877929688e+01 -6.447587162256240845e-02 7.666219234466552734e+00 2.280523061752319336e+00 -6.118100136518478394e-02
2.926000000000000000e+03 5.466013336181640625e+01 2.435101699829101562e+01 4.184979200363159180e-02 7.861960411071777344e+00 2.371143102645874023e+00 -2.504513263702392578e-01
2.927000000000000000e+03 5.203174972534179688e+01 -1.762414550781250000e+01 -5.972252413630485535e-02 7.625106811523437500e+00 2.269615411758422852e+00 -8.084678649902343750e-02
2.928000000000000000e+03 4.398265838623046875e+01 -1.955542373657226562e+01 -6.472896039485931396e-02 7.478162765502929688e+00 2.224030256271362305e+00 -4.033220186829566956e-02
2.929000000000000000e+03 5.236855316162109375e+01 -1.413407039642333984e+01 -5.677057802677154541e-02 7.644189834594726562e+00 2.276225805282592773e+00 -8.611980825662612915e-02
2.930000000000000000e+03 4.613896179199218750e+01 1.858665657043457031e+01 -1.283313035964965820e-01 8.015435218811035156e+00 2.366131067276000977e+00 -1.457251459360122681e-01
2.931000000000000000e+03 3.744171905517578125e+01 -2.770157623291015625e+01 -6.346537917852401733e-02 7.254123210906982422e+00 2.157197237014770508e+00 -1.780237443745136261e-02
2.932000000000000000e+03 5.058268356323242188e+01 -1.565480041503906250e+01 -5.862479284405708313e-02 7.612287521362304688e+00 2.266098976135253906e+00 -7.579536736011505127e-02
2.933000000000000000e+03 5.665551376342773438e+01 2.366169548034667969e+01 3.836069628596305847e-02 7.829757213592529297e+00 2.360435247421264648e+00 -2.420427054166793823e-01
2.934000000000000000e+03 5.579354476928710938e+01 -2.070872497558593750e+01 -5.689289048314094543e-02 7.677618026733398438e+00 2.286217451095581055e+00 -8.451592177152633667e-02
2.935000000000000000e+03 4.789237213134765625e+01 2.794483947753906250e+01 1.394861340522766113e-01 8.041132926940917969e+00 2.454185724258422852e+00 -2.794808447360992432e-01
2.936000000000000000e+03 4.749003982543945312e+01 1.961386108398437500e+01 -9.502073377370834351e-02 8.004784584045410156e+00 2.372929096221923828e+00 -1.851938515901565552e-01
2.937000000000000000e+03 3.686805343627929688e+01 -2.313972282409667969e+01 -5.453391373157501221e-02 7.297731399536132812e+00 2.172959327697753906e+00 7.208990398794412613e-03
2.938000000000000000e+03 4.765057373046875000e+01 -2.084540176391601562e+01 -6.674696505069732666e-02 7.539636611938476562e+00 2.241866827011108398e+00 -6.103358790278434753e-02
2.939000000000000000e+03 4.997958755493164062e+01 -1.933763122558593750e+01 -6.217902898788452148e-02 7.587664127349853516e+00 2.257645368576049805e+00 -7.052420079708099365e-02
2.940000000000000000e+03 5.435989379882812500e+01 2.909807968139648438e+01 1.525281518697738647e-01 7.855051040649414062e+00 2.402273654937744141e+00 -2.419890314340591431e-01
2.941000000000000000e+03 3.997826766967773438e+01 -2.444688606262207031e+01 -6.098472699522972107e-02 7.352900981903076172e+00 2.187574863433837891e+00 -1.962457783520221710e-02
2.942000000000000000e+03 4.090449142456054688e+01 -3.018751144409179688e+01 -9.138899296522140503e-02 7.357648372650146484e+00 2.179877758026123047e+00 -3.494354709982872009e-02
2.943000000000000000e+03 5.165737152099609375e+01 -2.172057533264160156e+01 -6.386997550725936890e-02 7.608716011047363281e+00 2.263453722000122070e+00 -7.303030788898468018e-02
2.944000000000000000e+03 5.377481460571289062e+01 -1.954658889770507812e+01 -5.634972080588340759e-02 7.651124000549316406e+00 2.278432130813598633e+00 -8.207332342863082886e-02
2.945000000000000000e+03 4.756496810913085938e+01 -2.786365318298339844e+01 -8.168646693229675293e-02 7.519011974334716797e+00 2.231197595596313477e+00 -5.374426767230033875e-02
2.946000000000000000e+03 4.348551559448242188e+01 -2.618988800048828125e+01 -7.544145733118057251e-02 7.429934501647949219e+00 2.206347942352294922e+00 -4.146534204483032227e-02
2.947000000000000000e+03 4.258097839355468750e+01 -2.338268280029296875e+01 -7.228035479784011841e-02 7.427509307861328125e+00 2.206568717956542969e+00 -3.635112568736076355e-02
2.948000000000000000e+03 4.884724807739257812e+01 -3.110415267944335938e+01 -9.337702393531799316e-02 7.531590461730957031e+00 2.231463909149169922e+00 -4.983209073543548584e-02
2.949000000000000000e+03 5.027683639526367188e+01 -3.460408401489257812e+01 -9.549491852521896362e-02 7.567168235778808594e+00 2.241502046585083008e+00 -4.024975001811981201e-02
2.950000000000000000e+03 4.634444808959960938e+01 -2.493048286437988281e+01 -7.725884765386581421e-02 7.497829914093017578e+00 2.226171255111694336e+00 -5.565402656793594360e-02
2.951000000000000000e+03 4.515856170654296875e+01 -2.218377304077148438e+01 -6.611969321966171265e-02 7.483902454376220703e+00 2.225334882736206055e+00 -4.798403382301330566e-02
2.952000000000000000e+03 5.311254119873046875e+01 -3.669688034057617188e+01 -9.165304899215698242e-02 7.623733520507812500e+00 2.259624242782592773e+00 -2.818047255277633667e-02
2.953000000000000000e+03 4.533518218994140625e+01 -3.248869705200195312e+01 -1.064653024077415466e-01 7.467445850372314453e+00 2.208294153213500977e+00 -4.218306764960289001e-02
2.954000000000000000e+03 3.686925888061523438e+01 -1.507360649108886719e+01 -4.927349463105201721e-02 7.382398128509521484e+00 2.199937343597412109e+00 2.674979902803897858e-02
2.955000000000000000e+03 2.351594734191894531e+01 3.463347625732421875e+01 1.727043986320495605e+00 2.458837985992431641e+00 1.255764603614807129e+00 2.111603498458862305e+00
2.956000000000000000e+03 2.305753326416015625e+01 3.455895614624023438e+01 1.327554464340209961e+00 1.860679030418395996e+00 9.564700722694396973e-01 1.459626793861389160e+00
2.957000000000000000e+03 2.247618675231933594e+01 3.810423278808593750e+01 6.678914278745651245e-02 5.988553762435913086e-01 1.996933668851852417e-01 -1.562861949205398560e-01
2.958000000000000000e+03 2.329407882690429688e+01 3.805609130859375000e+01 4.684231877326965332e-01 1.297872424125671387e+00 5.298886895179748535e-01 -8.064932823181152344e-01
2.959000000000000000e+03 2.359038162231445312e+01 3.833905792236328125e+01 8.456969857215881348e-01 2.207594394683837891e+00 9.159873723983764648e-01 -1.423921108245849609e+00
2.960000000000000000e+03 2.384390640258789062e+01 3.802496337890625000e+01 9.899045825004577637e-01 2.100009679794311523e+00 9.269742369651794434e-01 -1.566973090171813965e+00
2.961000000000000000e+03 2.403592681884765625e+01 3.805880737304687500e+01 8.912901282310485840e-01 2.977658271789550781e+00 1.160684466361999512e+00 -2.040540933609008789e+00
2.962000000000000000e+03 2.424819564819335938e+01 3.839970016479492188e+01 7.814087271690368652e-01 4.354331016540527344e+00 1.540722012519836426e+00 -2.207528352737426758e+00
2.963000000000000000e+03 2.466144180297851562e+01 3.807933044433593750e+01 5.633807778358459473e-01 6.189349174499511719e+00 2.025819063186645508e+00 -2.959919929504394531e+00
2.964000000000000000e+03 2.521339225769042969e+01 3.846209716796875000e+01 -3.467481434345245361e-01 9.434239387512207031e+00 2.726247310638427734e+00 -2.193440437316894531e+00
2.965000000000000000e+03 2.650289535522460938e+01 3.789524078369140625e+01 6.537615060806274414e-01 1.297490501403808594e+01 4.088600158691406250e+00 1.135225772857666016e+00
2.966000000000000000e+03 2.711525344848632812e+01 3.712910079956054688e+01 3.688396453857421875e+00 1.170232200622558594e+01 4.617215633392333984e+00 1.890288472175598145e+00
2.967000000000000000e+03 2.737676429748535156e+01 3.644115066528320312e+01 4.448013782501220703e+00 1.084680271148681641e+01 4.588444709777832031e+00 7.945114374160766602e-01
2.968000000000000000e+03 2.721494102478027344e+01 3.603698730468750000e+01 4.642362117767333984e+00 1.106705188751220703e+01 4.712824344635009766e+00 1.231141854077577591e-02
2.969000000000000000e+03 2.673550033569335938e+01 3.551139068603515625e+01 3.737118721008300781e+00 1.241671562194824219e+01 4.846150398254394531e+00 -7.888454794883728027e-01
2.970000000000000000e+03 2.566408729553222656e+01 3.477772903442382812e+01 5.307151079177856445e-01 1.260831832885742188e+01 3.941709995269775391e+00 2.204676628112792969e+00
2.971000000000000000e+03 2.461193847656250000e+01 3.428952026367187500e+01 1.113053321838378906e+00 6.887681484222412109e+00 2.400220394134521484e+00 3.619733333587646484e+00
2.972000000000000000e+03 2.483510780334472656e+01 3.434860610961914062e+01 9.355651736259460449e-01 8.093262672424316406e+00 2.708648443222045898e+00 3.584683656692504883e+00
2.973000000000000000e+03 2.340469551086425781e+01 3.481217193603515625e+01 1.698920011520385742e+00 1.730411052703857422e+00 1.028799295425415039e+00 1.739473342895507812e+00
2.974000000000000000e+03 2.249398231506347656e+01 3.458961868286132812e+01 1.087142825126647949e+00 7.892892360687255859e-01 5.629296302795410156e-01 7.484449148178100586e-01
2.975000000000000000e+03 7.802148437500000000e+01 4.162349319458007812e+01 -9.474143385887145996e-03 7.180229663848876953e+00 2.151226758956909180e+00 2.652862342074513435e-03
2.976000000000000000e+03 2.064333915710449219e+01 3.388392257690429688e+01 4.887682572007179260e-02 -6.604079604148864746e-01 -1.834593266248703003e-01 1.000657975673675537e-01
2.977000000000000000e+03 2.436687946319580078e+00 2.665880680084228516e+00 -2.103939419612288475e-03 -9.866771288216114044e-04 -9.271849994547665119e-04 -1.163211345556192100e-04
2.978000000000000000e+03 2.203234481811523438e+01 3.442701339721679688e+01 6.421464085578918457e-01 8.591182827949523926e-01 4.503794014453887939e-01 4.275261759757995605e-01
2.979000000000000000e+03 2.275254821777343750e+01 3.402505874633789062e+01 9.678069353103637695e-01 1.942804336547851562e+00 8.731834292411804199e-01 1.432681918144226074e+00
2.980000000000000000e+03 1.805062866210937500e+01 3.888083648681640625e+01 -4.893424212932586670e-01 -5.658885836601257324e-01 -3.165692985057830811e-01 6.362201571464538574e-01
2.981000000000000000e+03 1.360861396789550781e+01 2.974911308288574219e+01 -1.347706373780965805e-02 4.013870842754840851e-03 -2.838957821950316429e-03 3.511933842673897743e-03
2.982000000000000000e+03 1.017860031127929688e+01 -3.541404724121093750e+01 -8.653041720390319824e-02 5.420295521616935730e-02 -9.698239155113697052e-03 1.276288460940122604e-02
2.983000000000000000e+03 1.047878551483154297e+01 -2.047765731811523438e+01 -2.768567937891930342e-04 2.827831776812672615e-03 7.652924978174269199e-04 4.011648241430521011e-03
2.984000000000000000e+03 2.337235641479492188e+01 3.415946197509765625e+01 1.345469713211059570e+00 2.874523878097534180e+00 1.265998125076293945e+00 2.076873540878295898e+00
2.985000000000000000e+03 2.334561538696289062e+01 3.858442306518554688e+01 8.141355514526367188e-01 1.761533021926879883e+00 7.727006077766418457e-01 -1.339379549026489258e+00
2.986000000000000000e+03 2.377832031250000000e+01 3.823555755615234375e+01 9.345253705978393555e-01 2.136570453643798828e+00 9.213287234306335449e-01 -1.741248250007629395e+00
2.987000000000000000e+03 2.425847816467285156e+01 3.872216415405273438e+01 8.510413169860839844e-01 4.100319385528564453e+00 1.485408306121826172e+00 -1.699184298515319824e+00
2.988000000000000000e+03 7.834841156005859375e+01 3.571263885498046875e+01 2.599103609099984169e-03 7.194972515106201172e+00 2.159271478652954102e+00 -4.740323405712842941e-03
2.989000000000000000e+03 2.522221946716308594e+01 3.882376098632812500e+01 -6.067134141921997070e-01 9.185688972473144531e+00 2.573692798614501953e+00 -1.979938387870788574e+00
2.990000000000000000e+03 1.220947456359863281e+01 -3.400787353515625000e+00 -1.350012316834181547e-04 2.115272654918953776e-04 2.295781087013892829e-05 4.091260052518919110e-05
2.991000000000000000e+03 2.506456565856933594e+01 3.394697189331054688e+01 2.563753128051757812e-01 8.729647636413574219e+00 2.695806741714477539e+00 2.918792009353637695e+00
2.992000000000000000e+03 2.532968521118164062e+01 3.394443130493164062e+01 7.910577952861785889e-02 9.540768623352050781e+00 2.885962247848510742e+00 2.653639078140258789e+00
2.993000000000000000e+03 2.738778495788574219e+01 3.515428543090820312e+01 2.745889425277709961e+00 1.108534526824951172e+01 4.149370193481445312e+00 -6.392009854316711426e-01
2.994000000000000000e+03 2.746434402465820312e+01 3.606737136840820312e+01 4.284964084625244141e+00 1.072308635711669922e+01 4.502415180206298828e+00 1.499929875135421753e-01
2.995000000000000000e+03 2.743073844909667969e+01 3.702744674682617188e+01 3.565942525863647461e+00 1.116361522674560547e+01 4.418867588043212891e+00 1.565729498863220215e+00
2.996000000000000000e+03 1.812185478210449219e+01 4.037408828735351562e+01 2.208248525857925415e-01 -4.463947117328643799e-01 -6.767095625400543213e-02 4.347633421421051025e-01
2.997000000000000000e+03 2.284984207153320312e+01 3.230245971679687500e+01 1.721555292606353760e-01 3.796518564224243164e+00 1.190602183341979980e+00 1.761489629745483398e+00
2.998000000000000000e+03 1.871064758300781250e+01 3.961903381347656250e+01 2.823058068752288818e-01 -6.040422916412353516e-01 -9.652094542980194092e-02 5.842583775520324707e-01
2.999000000000000000e+03 2.549777603149414062e+01 3.369332504272460938e+01 -8.210682123899459839e-02 9.694423675537109375e+00 2.883695125579833984e+00 2.392127275466918945e+00
3.000000000000000000e+03 2.557493019104003906e+01 3.396153259277343750e+01 7.665786426514387131e-03 1.031574916839599609e+01 3.097024440765380859e+00 2.362370014190673828e+00
3.001000000000000000e+03 2.436133956909179688e+01 3.269475173950195312e+01 3.805762901902198792e-02 6.298551082611083984e+00 1.900982618331909180e+00 2.442218065261840820e+00
3.002000000000000000e+03 2.775287055969238281e+01 3.453561782836914062e+01 1.670927047729492188e+00 1.069266223907470703e+01 3.709076642990112305e+00 -5.147638916969299316e-01
3.003000000000000000e+03 2.793721199035644531e+01 3.411261367797851562e+01 1.097747325897216797e+00 1.051410484313964844e+01 3.483555793762207031e+00 -4.089755713939666748e-01
3.004000000000000000e+03 2.348826599121093750e+01 3.150346755981445312e+01 -1.929009854793548584e-01 4.909930229187011719e+00 1.415108680725097656e+00 1.848486423492431641e+00
3.005000000000000000e+03 2.439257431030273438e+01 3.901461410522460938e+01 4.775266051292419434e-01 5.440492153167724609e+00 1.775405526161193848e+00 -1.277601957321166992e+00
3.006000000000000000e+03 2.925227546691894531e+01 3.717757797241210938e+01 2.319391250610351562e+00 9.703500747680664062e+00 3.606867790222167969e+00 8.786495923995971680e-01
3.007000000000000000e+03 2.466255378723144531e+01 3.334128952026367188e+01 2.605652809143066406e-01 7.146311759948730469e+00 2.222063064575195312e+00 2.765367984771728516e+00
3.008000000000000000e+03 2.579516410827636719e+01 3.360047531127929688e+01 -2.075435221195220947e-01 1.004283523559570312e+01 2.950587511062622070e+00 1.858240246772766113e+00
3.009000000000000000e+03 2.811069107055664062e+01 3.372167968750000000e+01 7.390862107276916504e-01 1.032021331787109375e+01 3.317790031433105469e+00 -3.120607733726501465e-01
3.010000000000000000e+03 8.089897155761718750e+00 2.545589637756347656e+01 1.238257810473442078e-02 8.825593977235257626e-04 3.979541361331939697e-03 -1.171515177702531219e-04
3.011000000000000000e+03 8.071792602539062500e+00 1.628027534484863281e+01 -7.955451495945453644e-03 -9.208349511027336121e-04 -2.662885934114456177e-03 -9.295172640122473240e-04
3.012000000000000000e+03 8.099886894226074219e+00 1.518313121795654297e+01 9.139267727732658386e-03 -5.944723379798233509e-04 2.563438843935728073e-03 4.855077713727951050e-04
3.013000000000000000e+03 6.809472656250000000e+01 2.737128829956054688e+01 3.960459679365158081e-02 7.579408168792724609e+00 2.285703659057617188e+00 -1.599588543176651001e-01
3.014000000000000000e+03 3.201703643798828125e+01 2.998426818847656250e+01 -1.667801588773727417e-01 8.915637016296386719e+00 2.624656915664672852e+00 -1.257534325122833252e-01
3.015000000000000000e+03 5.495314788818359375e+01 2.644466400146484375e+01 8.660136908292770386e-02 7.853475570678710938e+00 2.382023096084594727e+00 -2.457636147737503052e-01
3.016000000000000000e+03 2.915130043029785156e+01 3.468952178955078125e+01 1.753373384475708008e+00 9.691290855407714844e+00 3.433399438858032227e+00 -3.699524104595184326e-01
3.017000000000000000e+03 2.592423629760742188e+01 3.290211486816406250e+01 -4.420855343341827393e-01 9.511138916015625000e+00 2.720715999603271484e+00 1.622341275215148926e+00
3.018000000000000000e+03 2.577951812744140625e+01 3.330520248413085938e+01 -3.167461752891540527e-01 9.659924507141113281e+00 2.802953481674194336e+00 1.793826103210449219e+00
3.019000000000000000e+03 6.901994228363037109e+00 3.072569465637207031e+01 -6.199705414474010468e-03 -4.448698833584785461e-03 -3.194521181285381317e-03 -2.468652557581663132e-03
3.020000000000000000e+03 6.972351074218750000e+01 2.773966979980468750e+01 3.326804935932159424e-02 7.535026550292968750e+00 2.270488262176513672e+00 -1.431239396333694458e-01
3.021000000000000000e+03 5.555551052093505859e+00 6.993080139160156250e+00 3.644370881374925375e-04 4.255196836311370134e-04 2.369870344409719110e-04 -1.417109626345336437e-03
3.022000000000000000e+03 5.495209693908691406e+00 2.016554260253906250e+01 8.571774698793888092e-03 -9.188554395223036408e-05 2.543966751545667648e-03 3.458437975496053696e-03
3.023000000000000000e+03 2.836773681640625000e+01 3.340132522583007812e+01 5.174616575241088867e-01 1.007255649566650391e+01 3.177005529403686523e+00 -2.756529152393341064e-01
3.024000000000000000e+03 2.847174835205078125e+01 3.380307006835937500e+01 9.390910267829895020e-01 1.008854579925537109e+01 3.308290958404541016e+00 -4.125680029392242432e-01
3.025000000000000000e+03 5.916251754760742188e+01 -2.324416160583496094e+01 -4.578639939427375793e-02 7.735635280609130859e+00 2.306954622268676758e+00 -7.609552145004272461e-02
3.026000000000000000e+03 2.566794967651367188e+01 3.180546569824218750e+01 -6.254030466079711914e-01 8.287978172302246094e+00 2.298772573471069336e+00 1.696340084075927734e+00
3.027000000000000000e+03 2.699039459228515625e+01 3.251786804199218750e+01 -4.034231901168823242e-01 9.788860321044921875e+00 2.815631151199340820e+00 7.355845570564270020e-01
3.028000000000000000e+03 7.176792144775390625e+01 -2.865144348144531250e+01 -1.152966078370809555e-02 7.968432903289794922e+00 2.387070894241333008e+00 -3.723391890525817871e-02
3.029000000000000000e+03 6.694496631622314453e+00 6.945716381072998047e+00 -1.513819792307913303e-03 -5.833305767737329006e-04 -6.291450699791312218e-04 -2.313613193109631538e-03
3.030000000000000000e+03 7.437275695800781250e+01 -2.611463356018066406e+01 -5.486864130944013596e-03 8.012294769287109375e+00 2.402042388916015625e+00 -3.196375444531440735e-02
3.031000000000000000e+03 2.682736015319824219e+01 -1.873739242553710938e+01 -7.260363548994064331e-02 7.138317584991455078e+00 2.119714260101318359e+00 1.266756653785705566e-01
3.032000000000000000e+03 6.746379852294921875e+00 -1.042786693572998047e+01 1.269548083655536175e-03 -2.230707788839936256e-03 -2.883478882722556591e-04 -4.714558599516749382e-05
3.033000000000000000e+03 6.393568515777587891e+00 -9.075150489807128906e+00 2.847115742042660713e-03 -1.187855610623955727e-03 4.977780627086758614e-04 -2.378646240686066449e-05
3.034000000000000000e+03 2.797722816467285156e+01 -2.344564247131347656e+01 -5.522876977920532227e-02 7.088346958160400391e+00 2.109935522079467773e+00 1.550614237785339355e-01
3.035000000000000000e+03 2.676664924621582031e+01 -2.008923149108886719e+01 -6.440909206867218018e-02 7.116873264312744141e+00 2.115739345550537109e+00 1.444318741559982300e-01
3.036000000000000000e+03 2.811749076843261719e+01 3.262959289550781250e+01 -2.854635752737522125e-02 9.913884162902832031e+00 2.965601444244384766e+00 6.437044590711593628e-02
3.037000000000000000e+03 5.572896957397460938e+00 1.381769180297851562e+01 4.241269547492265701e-03 6.774580106139183044e-04 1.475618337281048298e-03 -9.453021921217441559e-04
3.038000000000000000e+03 6.846867561340332031e+00 1.130063056945800781e+01 1.827962347306311131e-03 3.026093356311321259e-03 1.456216792576014996e-03 1.858768751844763756e-03
3.039000000000000000e+03 7.297008514404296875e+01 7.075752258300781250e+00 -9.509749710559844971e-03 7.723937034606933594e+00 2.314328193664550781e+00 -1.106637343764305115e-01
3.040000000000000000e+03 2.665023040771484375e+01 -8.039360046386718750e+00 -2.150487527251243591e-02 7.307619571685791016e+00 2.185834407806396484e+00 2.179239541292190552e-01
3.041000000000000000e+03 8.288588523864746094e+00 9.069395065307617188e+00 -2.733438508585095406e-03 -1.872279448434710503e-03 -1.381715410389006138e-03 -1.180067658424377441e-03
3.042000000000000000e+03 6.703935241699218750e+01 2.156708145141601562e+01 1.117999479174613953e-02 7.645380973815917969e+00 2.296968221664428711e+00 -1.869432181119918823e-01
3.043000000000000000e+03 2.907493209838867188e+01 -1.914225196838378906e+01 -5.156380310654640198e-02 7.176793098449707031e+00 2.137568950653076172e+00 1.002296507358551025e-01
3.044000000000000000e+03 3.235958480834960938e+01 -2.082337570190429688e+01 -5.567347630858421326e-02 7.226475238800048828e+00 2.151240587234497070e+00 6.390365213155746460e-02
3.045000000000000000e+03 6.820735931396484375e+01 -2.545699310302734375e+01 -2.333707921206951141e-02 7.884043693542480469e+00 2.358211994171142578e+00 -5.743582174181938171e-02
3.046000000000000000e+03 2.878256416320800781e+01 3.175055694580078125e+01 -2.357873469591140747e-01 9.508895874023437500e+00 2.781932353973388672e+00 7.050180435180664062e-02
3.047000000000000000e+03 2.864983558654785156e+01 -5.637465000152587891e+00 -2.811542712152004242e-02 7.374666690826416016e+00 2.203965425491333008e+00 1.721206903457641602e-01
3.048000000000000000e+03 2.964911842346191406e+01 -1.993353652954101562e+01 -5.255261436104774475e-02 7.180188179016113281e+00 2.138290643692016602e+00 1.071283668279647827e-01
3.049000000000000000e+03 6.716133880615234375e+01 -2.201391792297363281e+01 -2.317447587847709656e-02 7.859882831573486328e+00 2.351012468338012695e+00 -7.031615823507308960e-02
3.050000000000000000e+03 3.319676589965820312e+01 -1.648025894165039062e+01 -3.878290578722953796e-02 7.293868541717529297e+00 2.176525592803955078e+00 5.915328860282897949e-02
3.051000000000000000e+03 3.564495086669921875e+01 -1.656215667724609375e+01 -4.148120805621147156e-02 7.343026161193847656e+00 2.190463542938232422e+00 3.656175732612609863e-02
3.052000000000000000e+03 3.329531478881835938e+01 1.924815368652343750e+01 -3.694033622741699219e-01 7.972875118255615234e+00 2.281041622161865234e+00 3.243838548660278320e-01
3.053000000000000000e+03 6.074115371704101562e+01 1.199681663513183594e+01 -4.485394433140754700e-02 7.773688316345214844e+00 2.318650245666503906e+00 -1.963664591312408447e-01
3.054000000000000000e+03 3.211162185668945312e+01 -1.096985626220703125e+01 -2.361400425434112549e-02 7.337779998779296875e+00 2.194249868392944336e+00 9.874025732278823853e-02
3.055000000000000000e+03 3.358394241333007812e+01 -1.199436092376708984e+01 -2.987601049244403839e-02 7.346998691558837891e+00 2.195136785507202148e+00 7.102834433317184448e-02
3.056000000000000000e+03 3.194621849060058594e+01 -9.618699073791503906e+00 -2.152087353169918060e-02 7.358839511871337891e+00 2.201195478439331055e+00 1.154424324631690979e-01
3.057000000000000000e+03 3.551158905029296875e+01 1.255820083618164062e+01 -1.830596923828125000e-01 7.784387111663818359e+00 2.280398130416870117e+00 2.256042957305908203e-01
3.058000000000000000e+03 3.626821899414062500e+01 1.349999523162841797e+01 -2.064825892448425293e-01 7.832500457763671875e+00 2.287805318832397461e+00 2.038746625185012817e-01
3.059000000000000000e+03 3.642845916748046875e+01 1.165482139587402344e+01 -1.703708767890930176e-01 7.781847476959228516e+00 2.283442974090576172e+00 1.929707825183868408e-01
3.060000000000000000e+03 5.325003814697265625e+01 6.754384040832519531e+00 -8.815164864063262939e-02 7.795377254486083984e+00 2.312167644500732422e+00 -1.365156173706054688e-01
3.061000000000000000e+03 7.012647247314453125e+01 1.517015075683593750e+01 -8.100961335003376007e-03 7.655930519104003906e+00 2.294348716735839844e+00 -1.581661105155944824e-01
3.062000000000000000e+03 4.067773818969726562e+01 1.174160480499267578e+01 -1.739931553602218628e-01 7.854712963104248047e+00 2.304215908050537109e+00 7.051616162061691284e-02
3.063000000000000000e+03 6.921289062500000000e+01 1.215296936035156250e+01 -1.545617263764142990e-02 7.695940971374511719e+00 2.304145574569702148e+00 -1.606186181306838989e-01
3.064000000000000000e+03 7.030825805664062500e+01 1.245223045349121094e+01 -1.141361519694328308e-02 7.680026054382324219e+00 2.300583839416503906e+00 -1.512635201215744019e-01
3.065000000000000000e+03 7.008889007568359375e+01 1.129929351806640625e+01 -1.382322236895561218e-02 7.695480346679687500e+00 2.304497241973876953e+00 -1.511717438697814941e-01
3.066000000000000000e+03 5.261008453369140625e+01 -5.043872833251953125e+00 -6.474854797124862671e-02 7.696676254272460938e+00 2.289578199386596680e+00 -9.864655137062072754e-02
3.067000000000000000e+03 3.700340270996093750e+01 1.253668975830078125e+01 -1.870652437210083008e-01 7.819310665130615234e+00 2.289673566818237305e+00 1.794654577970504761e-01
3.068000000000000000e+03 6.868972015380859375e+01 7.105927467346191406e+00 -2.197415567934513092e-02 7.738993167877197266e+00 2.315105676651000977e+00 -1.499869525432586670e-01
3.069000000000000000e+03 6.704232788085937500e+01 -1.507419395446777344e+01 -2.040595561265945435e-02 7.837374687194824219e+00 2.345090627670288086e+00 -9.014903753995895386e-02
3.070000000000000000e+03 6.885834503173828125e+01 1.512562179565429688e+01 -1.042905636131763458e-02 7.672883510589599609e+00 2.298736333847045898e+00 -1.703369021415710449e-01
3.071000000000000000e+03 2.972704696655273438e+01 6.218621730804443359e+00 3.258701786398887634e-02 7.494513034820556641e+00 2.258130073547363281e+00 2.401805371046066284e-01
3.072000000000000000e+03 6.762728118896484375e+01 6.793007373809814453e+00 -2.521044760942459106e-02 7.744101524353027344e+00 2.315667390823364258e+00 -1.551894247531890869e-01
3.073000000000000000e+03 6.593847656250000000e+01 7.468140125274658203e+00 -3.055753372609615326e-02 7.747307300567626953e+00 2.315024852752685547e+00 -1.663774996995925903e-01
3.074000000000000000e+03 4.650492858886718750e+01 3.948531389236450195e+00 -9.853367507457733154e-02 7.738041400909423828e+00 2.291852235794067383e+00 -4.316610842943191528e-02
3.075000000000000000e+03 6.294322586059570312e+01 6.424829006195068359e+00 -4.415500909090042114e-02 7.763393878936767578e+00 2.315771818161010742e+00 -1.715817302465438843e-01
3.076000000000000000e+03 4.244356155395507812e+01 -4.233060359954833984e+00 -6.275229156017303467e-02 7.586203575134277344e+00 2.257035255432128906e+00 -5.689430050551891327e-03
3.077000000000000000e+03 5.722423934936523438e+01 9.175644516944885254e-01 -6.335277855396270752e-02 7.757726192474365234e+00 2.308312177658081055e+00 -1.394835114479064941e-01
3.078000000000000000e+03 6.724436187744140625e+01 -7.925256252288818359e+00 -2.225891873240470886e-02 7.814411640167236328e+00 2.337645769119262695e+00 -1.088478788733482361e-01
3.079000000000000000e+03 6.822952270507812500e+01 -1.490499114990234375e+01 -1.828498952090740204e-02 7.852691650390625000e+00 2.350322008132934570e+00 -8.563533425331115723e-02
3.080000000000000000e+03 3.490579223632812500e+01 6.295940399169921875e+00 -6.059423461556434631e-02 7.610632419586181641e+00 2.265011548995971680e+00 1.793563961982727051e-01
3.081000000000000000e+03 4.082780456542968750e+01 -3.695671081542968750e+00 -5.523726716637611389e-02 7.568915843963623047e+00 2.254103660583496094e+00 1.833543926477432251e-02
3.082000000000000000e+03 4.121308517456054688e+01 -2.308140754699707031e+00 -6.284159421920776367e-02 7.593021869659423828e+00 2.259053945541381836e+00 1.508891303092241287e-02
3.083000000000000000e+03 4.369197845458984375e+01 -9.754834771156311035e-01 -7.056829333305358887e-02 7.641173839569091797e+00 2.271181583404541016e+00 -9.701974689960479736e-03
3.084000000000000000e+03 4.287875366210937500e+01 1.767760753631591797e+00 -8.460986614227294922e-02 7.673944473266601562e+00 2.276800394058227539e+00 8.388335816562175751e-03
3.085000000000000000e+03 4.114992141723632812e+01 -9.502166509628295898e-01 -6.400391459465026855e-02 7.611189842224121094e+00 2.264155626296997070e+00 2.268167026340961456e-02
3.086000000000000000e+03 3.912439346313476562e+01 -5.506641268730163574e-01 -5.733933672308921814e-02 7.585802555084228516e+00 2.258538961410522461e+00 5.197995156049728394e-02
3.087000000000000000e+03 6.020077133178710938e+01 4.590433597564697266e+00 -5.513463914394378662e-02 7.770916461944580078e+00 2.314734458923339844e+00 -1.627516895532608032e-01
3.088000000000000000e+03 2.064822578430175781e+01 3.731103515625000000e+01 -1.654439687728881836e+00 3.465950489044189453e-01 -3.923533856868743896e-01 6.986090540885925293e-01
3.089000000000000000e+03 2.121729278564453125e+01 3.751485824584960938e+01 -1.053053021430969238e+00 3.358058333396911621e-01 -2.151741534471511841e-01 4.735471010208129883e-01
3.090000000000000000e+03 2.153947830200195312e+01 3.688608551025390625e+01 -1.493432641029357910e+00 3.144769668579101562e-01 -3.536866903305053711e-01 6.415232419967651367e-01
3.091000000000000000e+03 2.091423034667968750e+01 3.646302413940429688e+01 -7.969507575035095215e-01 2.129530459642410278e-01 -1.751993149518966675e-01 2.431980520486831665e-01
3.092000000000000000e+03 2.205760955810546875e+01 3.716726303100585938e+01 -1.387921214103698730e+00 1.276142746210098267e-01 -3.780920803546905518e-01 4.648835062980651855e-01
3.093000000000000000e+03 2.108338737487792969e+01 3.693756866455078125e+01 -1.759190559387207031e+00 1.396785825490951538e-01 -4.858536124229431152e-01 6.973874568939208984e-01
3.094000000000000000e+03 2.204275894165039062e+01 3.756029891967773438e+01 -9.542644619941711426e-01 3.227785527706146240e-01 -1.894457787275314331e-01 4.203404188156127930e-01
3.095000000000000000e+03 2.193256568908691406e+01 3.774726104736328125e+01 -8.551600575447082520e-01 3.123733103275299072e-01 -1.628360301256179810e-01 4.205277860164642334e-01
3.096000000000000000e+03 2.014033699035644531e+01 3.696002197265625000e+01 -1.058319807052612305e+00 -5.830623507499694824e-01 -4.924146533012390137e-01 7.405364513397216797e-01
3.097000000000000000e+03 2.207364273071289062e+01 3.736641311645507812e+01 -1.318140029907226562e+00 2.065843045711517334e-01 -3.334667086601257324e-01 5.189075469970703125e-01
3.098000000000000000e+03 2.194061851501464844e+01 3.647074890136718750e+01 -2.626466512680053711e+00 -7.470117416232824326e-03 -7.901809811592102051e-01 -2.079459577798843384e-01
3.099000000000000000e+03 2.202171897888183594e+01 3.694180297851562500e+01 -2.079548120498657227e+00 -4.656833037734031677e-02 -6.378349065780639648e-01 3.503948152065277100e-01
3.100000000000000000e+03 2.169284057617187500e+01 3.756257629394531250e+01 -1.178626537322998047e+00 1.267655938863754272e-01 -3.155582845211029053e-01 6.193166375160217285e-01
3.101000000000000000e+03 2.154584121704101562e+01 3.657791137695312500e+01 -1.840212464332580566e+00 -8.956245146691799164e-03 -5.547506213188171387e-01 5.257194116711616516e-02
3.102000000000000000e+03 2.203574943542480469e+01 3.671230316162109375e+01 -2.359229564666748047e+00 9.933440387248992920e-02 -6.779685616493225098e-01 3.047116100788116455e-01
3.103000000000000000e+03 2.178857803344726562e+01 3.729962921142578125e+01 -1.281095385551452637e+00 1.557856053113937378e-01 -3.375929296016693115e-01 5.610231161117553711e-01
3.104000000000000000e+03 2.143112182617187500e+01 3.717401123046875000e+01 -1.669960260391235352e+00 3.449645042419433594e-01 -3.974987566471099854e-01 4.997031092643737793e-01
3.105000000000000000e+03 1.426702117919921875e+01 1.252673983573913574e+00 1.301890588365495205e-03 -6.285719427978619933e-05 3.717100189533084631e-04 1.167631009593605995e-03
3.106000000000000000e+03 1.462149238586425781e+01 1.164639949798583984e+00 -3.289851592853665352e-03 -4.481573996599763632e-04 -1.121402718126773834e-03 3.905734047293663025e-04
3.107000000000000000e+03 1.332876110076904297e+01 1.093653082847595215e+00 3.672752354759722948e-04 3.807996981777250767e-04 2.244224742753431201e-04 4.556788189802318811e-04
3.108000000000000000e+03 1.406522464752197266e+01 3.572364747524261475e-01 3.860826836898922920e-04 2.419415250187739730e-04 1.884072698885574937e-04 3.045134872081689537e-05
3.109000000000000000e+03 1.336003494262695312e+01 3.511472940444946289e-01 -1.690075732767581940e-04 -4.263111040927469730e-04 -1.785955973900854588e-04 -1.645037555135786533e-04
3.110000000000000000e+03 1.476313018798828125e+01 5.016638040542602539e-01 -1.453156146453693509e-04 -1.533698232378810644e-04 -8.960562990978360176e-05 -7.785559864714741707e-05
3.111000000000000000e+03 1.414069938659667969e+01 9.322270154953002930e-01 -1.937689608894288540e-03 6.973907002247869968e-04 -3.720896493177860975e-04 -9.119172464124858379e-04
3.112000000000000000e+03 1.384797477722167969e+01 1.187353014945983887e+00 -2.696902956813573837e-04 5.014237467548809946e-05 -6.586436938960105181e-05 -4.898336483165621758e-04
3.113000000000000000e+03 1.112969017028808594e+01 3.708996772766113281e-01 2.566296025179326534e-04 2.068473258987069130e-04 1.390430697938427329e-04 -1.028084807330742478e-04
3.114000000000000000e+03 1.113907623291015625e+01 1.110847473144531250e+00 -8.522262796759605408e-04 -1.021880161715671420e-04 -2.863242989405989647e-04 2.594709803815931082e-04
3.115000000000000000e+03 1.263169097900390625e+01 3.451149165630340576e-01 1.962043024832382798e-04 5.276559968478977680e-04 2.171580854337662458e-04 1.707560727481904905e-06
3.116000000000000000e+03 1.037880802154541016e+01 3.837110698223114014e-01 -2.934492367785423994e-04 -3.329465471324510872e-05 -9.802317072171717882e-05 5.025819336879067123e-05
3.117000000000000000e+03 1.188065242767333984e+01 3.580341637134552002e-01 -2.168525243178009987e-04 -4.152288893237709999e-04 -1.896244211820885539e-04 8.076406084001064301e-05
3.118000000000000000e+03 1.264514160156250000e+01 1.084993243217468262e+00 -4.285307368263602257e-04 -4.103355749975889921e-04 -2.516598906368017197e-04 1.192659692605957389e-05
3.119000000000000000e+03 1.038616180419921875e+01 1.123693704605102539e+00 9.238393977284431458e-04 4.443375655682757497e-05 2.904819557443261147e-04 -8.735631126910448074e-05
3.120000000000000000e+03 1.189207077026367188e+01 1.097947120666503906e+00 6.199579220265150070e-04 2.813155588228255510e-04 2.703820355236530304e-04 -2.836981439031660557e-04
3.121000000000000000e+03 9.625078201293945312e+00 3.871397972106933594e-01 2.878000377677381039e-04 3.557982836355222389e-06 8.740741031942889094e-05 4.044052911922335625e-05
3.122000000000000000e+03 8.868724822998046875e+00 3.828192353248596191e-01 -2.850961463991552591e-04 -1.157126098405569792e-04 -1.202426283271051943e-04 -1.027307953336276114e-04
3.123000000000000000e+03 9.644926071166992188e+00 1.127139806747436523e+00 -9.268078720197081566e-04 -8.421128586633130908e-05 -3.033057437278330326e-04 -1.269458152819424868e-04
3.124000000000000000e+03 8.112174034118652344e+00 3.804100155830383301e-01 2.677644661162048578e-04 2.848977746907621622e-04 1.657986722420901060e-04 1.290452637476846576e-04
3.125000000000000000e+03 7.356014251708984375e+00 3.793691694736480713e-01 -2.650013484526425600e-04 -4.254504747223109007e-04 -2.071355411317199469e-04 -1.219099940499290824e-04
3.126000000000000000e+03 5.843623161315917969e+00 3.767499327659606934e-01 -2.505092415958642960e-04 -4.181568219792097807e-04 -2.005998248932883143e-04 -3.750593532458879054e-05
3.127000000000000000e+03 5.088051319122314453e+00 3.757717311382293701e-01 2.117939147865399718e-04 2.671441761776804924e-04 1.436814345652237535e-04 -3.099558671237900853e-05
3.128000000000000000e+03 3.576755046844482422e+00 3.680583238601684570e-01 3.060697927139699459e-04 -2.296043567184824497e-05 8.493280620314180851e-05 -2.444151141389738768e-05
3.129000000000000000e+03 2.822042465209960938e+00 3.613462746143341064e-01 -3.945060598198324442e-04 -9.299369594373274595e-06 -1.211416310979984701e-04 -6.537981244036927819e-05
3.130000000000000000e+03 2.068703651428222656e+00 3.577998280525207520e-01 3.243547980673611164e-04 1.031563442666083574e-04 1.282533339690417051e-04 9.550881804898381233e-05
3.131000000000000000e+03 2.358754634857177734e+00 1.097799897193908691e+00 -8.584128227084875107e-04 -1.270300417672842741e-04 -2.956328680738806725e-04 -2.230743848485872149e-04
3.132000000000000000e+03 1.327708005905151367e+00 3.658417165279388428e-01 -7.660940173082053661e-05 -3.566225495887920260e-05 -3.368149555171839893e-05 1.038381960825063288e-04
3.133000000000000000e+03 1.644779324531555176e+00 1.105841755867004395e+00 4.785791097674518824e-04 4.444067599251866341e-04 2.768957638181746006e-04 1.478499325457960367e-04
3.134000000000000000e+03 6.509408354759216309e-01 3.937322795391082764e-01 -7.108444115146994591e-04 -5.404615658335387707e-04 -3.753917990252375603e-04 -7.977797649800777435e-04
3.135000000000000000e+03 3.482567369937896729e-01 9.569563269615173340e-01 1.209422363899648190e-03 7.651479681953787804e-04 5.923710996285080910e-04 2.308449911652132869e-04
3.136000000000000000e+03 3.085073232650756836e+00 1.101346254348754883e+00 1.010561245493590832e-03 2.226588549092411995e-05 3.098481392953544855e-04 1.313948159804567695e-04
3.137000000000000000e+03 3.812765598297119141e+00 1.108058333396911621e+00 -9.249683353118598461e-04 -8.277480810647830367e-05 -3.023229364771395922e-04 6.561339978361502290e-05
3.138000000000000000e+03 4.332499980926513672e+00 3.732680678367614746e-01 -2.729063562583178282e-04 -8.300013723783195019e-05 -1.067719495040364563e-04 6.212710286490619183e-05
3.139000000000000000e+03 5.998572826385498047e+00 1.116749882698059082e+00 6.188994739204645157e-04 4.038866900373250246e-04 3.068358346354216337e-04 -2.713988578761927783e-05
3.140000000000000000e+03 6.600036144256591797e+00 3.784387111663818359e-01 2.441157121211290359e-04 4.748992214445024729e-04 2.157044800696894526e-04 8.679780148668214679e-05
3.141000000000000000e+03 8.186062812805175781e+00 1.120409965515136719e+00 -7.577068172395229340e-04 -2.910429320763796568e-04 -3.146249218843877316e-04 -2.859238593373447657e-04
3.142000000000000000e+03 8.915593147277832031e+00 1.122819185256958008e+00 8.335381280630826950e-04 1.780852471711114049e-04 3.034870023839175701e-04 2.626879431772977114e-04
3.143000000000000000e+03 7.456923484802246094e+00 1.119369149208068848e+00 6.899514701217412949e-04 3.777414967771619558e-04 3.203078813385218382e-04 2.155630791094154119e-04
3.144000000000000000e+03 6.727965354919433594e+00 1.118438720703125000e+00 -6.578639149665832520e-04 -4.218167741782963276e-04 -3.239042125642299652e-04 -1.061671355273574591e-04
3.145000000000000000e+03 5.270021438598632812e+00 1.115771770477294922e+00 -6.359269609674811363e-04 -3.416411054786294699e-04 -2.932704228442162275e-04 1.177465383079834282e-04
3.146000000000000000e+03 4.541490077972412109e+00 1.113268017768859863e+00 7.161787943914532661e-04 2.320740750292316079e-04 2.844758564606308937e-04 -1.560040836920961738e-04
3.147000000000000000e+03 9.950323700904846191e-01 1.133732318878173828e+00 2.123207959812134504e-04 -1.153763267211616039e-03 -2.824327384587377310e-04 3.101709298789501190e-04
3.148000000000000000e+03 7.951600551605224609e+00 -3.791473805904388428e-01 -2.101644204230979085e-04 -7.584995473735034466e-04 -2.905991859734058380e-04 1.887421967694535851e-04
3.149000000000000000e+03 8.812386512756347656e+00 -1.121279358863830566e+00 -6.121942424215376377e-04 -4.275578539818525314e-04 -3.119256289210170507e-04 3.295090864412486553e-04
3.150000000000000000e+03 9.587816238403320312e+00 -3.863115906715393066e-01 -2.172104868805035949e-04 -3.947477962356060743e-04 -1.835874863900244236e-04 1.021913776639848948e-04
3.151000000000000000e+03 7.132064342498779297e+00 -3.779651820659637451e-01 1.992296893149614334e-04 9.028057102113962173e-04 3.306106082163751125e-04 -1.969395234482362866e-04
3.152000000000000000e+03 6.306247234344482422e+00 -3.772793114185333252e-01 -1.269513159058988094e-04 -9.237947524525225163e-04 -3.152238205075263977e-04 1.284099125768989325e-04
3.153000000000000000e+03 5.442752361297607422e+00 -3.835102021694183350e-01 1.155007339548319578e-04 7.826380897313356400e-04 2.694416325539350510e-04 1.589033331583777908e-06
3.154000000000000000e+03 4.552286148071289062e+00 -3.399353623390197754e-01 -1.374005514662712812e-04 -7.125906413421034813e-04 -2.549973723944276571e-04 -8.476958464598283172e-05
3.155000000000000000e+03 4.371328830718994141e+00 -8.708365559577941895e-01 4.103277460671961308e-04 8.395738404942676425e-05 1.482855295762419701e-04 -5.088579200673848391e-05
3.156000000000000000e+03 2.785328388214111328e+00 -7.796061038970947266e-01 7.115297485142946243e-04 -3.320176620036363602e-05 2.034983917837962508e-04 4.367236688267439604e-04
3.157000000000000000e+03 1.180722951889038086e+00 -3.608860373497009277e-01 -5.842373939231038094e-04 -1.144192574429325759e-04 -2.095969975925981998e-04 -1.178166348836384714e-04
3.158000000000000000e+03 4.099212884902954102e-01 -5.526853203773498535e-01 6.109370588092133403e-05 1.215991505887359381e-05 2.197608773713000119e-05 5.299584699969273061e-06
3.159000000000000000e+03 7.477942705154418945e-01 -1.100885987281799316e+00 1.563693629577755928e-03 -6.752552872058004141e-05 4.488504200708121061e-04 4.894533776678144932e-05
3.160000000000000000e+03 9.597747802734375000e+00 -1.126311540603637695e+00 6.417714175768196583e-04 3.139660111628472805e-04 2.867212169803678989e-04 -2.672965056262910366e-04
3.161000000000000000e+03 8.026608467102050781e+00 -1.119147419929504395e+00 5.573285743594169617e-04 5.466352449730038643e-04 3.311891632620245218e-04 -3.488927031867206097e-04
3.162000000000000000e+03 7.239610195159912109e+00 -1.117965221405029297e+00 -4.862894420512020588e-04 -6.481928867287933826e-04 -3.403446753509342670e-04 2.877077786251902580e-04
3.163000000000000000e+03 6.446331024169921875e+00 -1.117279291152954102e+00 3.999541804660111666e-04 7.597559597343206406e-04 3.479130391497164965e-04 -2.260676847072318196e-04
3.164000000000000000e+03 5.615375041961669922e+00 -1.123510241508483887e+00 -3.999395412392914295e-04 -7.617125520482659340e-04 -3.484956396277993917e-04 1.747310161590576172e-04
3.165000000000000000e+03 4.879715442657470703e+00 -1.221276640892028809e+00 4.337832215242087841e-04 8.506395388394594193e-04 3.853268281091004610e-04 -1.608657330507412553e-04
3.166000000000000000e+03 4.223337173461914062e+00 -1.290901184082031250e+00 -8.066906011663377285e-04 -4.820332978852093220e-04 -3.866171755362302065e-04 4.487292972044087946e-05
3.167000000000000000e+03 3.489140987396240234e+00 -1.263193726539611816e+00 9.596525342203676701e-04 2.713604480959475040e-04 3.693038888741284609e-04 2.638743026182055473e-04
3.168000000000000000e+03 2.723763942718505859e+00 -1.258556365966796875e+00 -8.340812637470662594e-04 -3.109059762209653854e-04 -3.434961836319416761e-04 -5.919359391555190086e-04
3.169000000000000000e+03 1.357383847236633301e+00 -1.202877521514892578e+00 -1.753733376972377300e-03 -1.156371145043522120e-04 -5.608111387118697166e-04 -1.565649145049974322e-04
3.170000000000000000e+03 8.769917488098144531e+00 -3.812793791294097900e-01 2.101646241499111056e-04 5.691127153113484383e-04 2.337831974728032947e-04 -1.553770998725667596e-04
3.171000000000000000e+03 3.581377506256103516e+00 -7.854385375976562500e-01 -7.280325517058372498e-04 -1.227489410666748881e-04 -2.552344521973282099e-04 -1.756069395923987031e-04
3.172000000000000000e+03 3.695749998092651367e+00 -2.822447717189788818e-01 2.923864813055843115e-04 7.132457685656845570e-04 3.016896662302315235e-04 1.970997836906462908e-04
3.173000000000000000e+03 2.864297151565551758e+00 -2.810497581958770752e-01 -3.202767402399331331e-04 -6.142273778095841408e-04 -2.803512325044721365e-04 -2.183027390856295824e-04
3.174000000000000000e+03 1.994235515594482422e+00 -3.319245874881744385e-01 1.735498080961406231e-04 3.702688263729214668e-04 1.631455816095694900e-04 3.431633813306689262e-04
3.175000000000000000e+03 1.981270551681518555e+00 -1.274680376052856445e+00 9.555526776239275932e-04 4.091523878742009401e-04 4.094114992767572403e-04 7.050746935419738293e-04
3.176000000000000000e+03 1.973554253578186035e+00 -8.466050028800964355e-01 1.099640576285310090e-04 5.954315929557196796e-05 5.085216616862453520e-05 -7.061643991619348526e-04
3.177000000000000000e+03 1.332448291778564453e+01 -3.621845245361328125e-01 4.783311742357909679e-04 -6.092014373280107975e-04 -3.926106728613376617e-05 -1.943620418387581594e-06
3.178000000000000000e+03 1.426397991180419922e+01 -1.317608714103698730e+00 -1.355027081444859505e-03 -6.627232069149613380e-04 -6.053250981494784355e-04 -6.384971202351152897e-04
3.179000000000000000e+03 1.327361392974853516e+01 -1.248556852340698242e+00 -8.002506365301087499e-05 -2.358587662456557155e-04 -9.476514969719573855e-05 9.712429600767791271e-04
3.180000000000000000e+03 1.480296707153320312e+01 -1.047354817390441895e+00 1.130585325881838799e-03 7.243908476084470749e-04 5.564928869716823101e-04 5.089715705253183842e-04
3.181000000000000000e+03 1.356446647644042969e+01 -7.579438090324401855e-01 -1.123945810832083225e-03 -1.581847463967278600e-04 -3.846391628030687571e-04 -8.924590074457228184e-04
3.182000000000000000e+03 1.393659019470214844e+01 -3.302382230758666992e-01 2.062750136246904731e-04 5.917706876061856747e-04 2.394137118244543672e-04 2.937183890026062727e-04
3.183000000000000000e+03 1.449034786224365234e+01 -4.399540424346923828e-01 -1.089268247596919537e-03 -8.660427411086857319e-04 -5.865932907909154892e-04 -1.038764137774705887e-03
3.184000000000000000e+03 1.380024147033691406e+01 -1.352263331413269043e+00 1.448250142857432365e-03 -1.312199165113270283e-04 3.951090911868959665e-04 -3.544774663168936968e-04
3.185000000000000000e+03 1.402595424652099609e+01 -9.610455632209777832e-01 2.088598906993865967e-03 2.242640912299975753e-04 6.938588921912014484e-04 1.247509964741766453e-03
3.186000000000000000e+03 1.185737037658691406e+01 -1.162281751632690430e+00 -3.167541290167719126e-04 -1.622003037482500076e-04 -1.436863240087404847e-04 2.592081145849078894e-04
3.187000000000000000e+03 1.112013435363769531e+01 -4.102526009082794189e-01 -1.818324235500767827e-04 -2.009750460274517536e-04 -1.148422452388331294e-04 5.213309123064391315e-05
3.188000000000000000e+03 1.261753940582275391e+01 -4.348734915256500244e-01 -1.187757079605944455e-04 3.280509263277053833e-04 6.278256478253751993e-05 2.785861433949321508e-04
3.189000000000000000e+03 1.037124824523925781e+01 -3.971002995967864990e-01 1.906658580992370844e-04 2.951012866105884314e-04 1.457301405025646091e-04 -6.309094169409945607e-05
3.190000000000000000e+03 1.036389350891113281e+01 -1.137082934379577637e+00 -6.400321144610643387e-04 -2.309158735442906618e-04 -2.612844109535217285e-04 1.781500905053690076e-04
3.191000000000000000e+03 1.260408973693847656e+01 -1.174751639366149902e+00 2.305864036316052079e-04 1.935365726239979267e-04 1.272368826903402805e-04 -5.380375660024583340e-04
3.192000000000000000e+03 1.111074829101562500e+01 -1.150200366973876953e+00 5.097598186694085598e-04 1.699906861176714301e-04 2.039251412497833371e-04 -1.400239561917260289e-04
3.193000000000000000e+03 1.186878871917724609e+01 -4.223687946796417236e-01 1.051818762789480388e-04 4.347330468590371311e-05 4.459655610844492912e-05 -1.312693202635273337e-04
3.194000000000000000e+03 2.522061157226562500e+01 3.640795135498046875e+01 2.508268165588378906e+01 3.724598169326782227e+00 8.642184257507324219e+00 7.580014705657958984e+00
3.195000000000000000e+03 2.522463417053222656e+01 3.638890457153320312e+01 2.314200019836425781e+01 1.113734531402587891e+01 1.028380393981933594e+01 1.484609317779541016e+01
3.196000000000000000e+03 2.523228836059570312e+01 3.637100219726562500e+01 2.118945884704589844e+01 1.847780036926269531e+01 1.190017795562744141e+01 1.760302543640136719e+01
3.197000000000000000e+03 2.524328041076660156e+01 3.635493087768554688e+01 1.807873916625976562e+01 2.591972351074218750e+01 1.319953823089599609e+01 1.859034156799316406e+01
3.198000000000000000e+03 2.525719070434570312e+01 3.634131240844726562e+01 1.535357952117919922e+01 3.274533462524414062e+01 1.442967510223388672e+01 1.756970214843750000e+01
3.199000000000000000e+03 2.527348709106445312e+01 3.633065795898437500e+01 1.261791419982910156e+01 3.839684677124023438e+01 1.530442810058593750e+01 1.500218105316162109e+01
3.200000000000000000e+03 2.529154586791992188e+01 3.632338333129882812e+01 1.104612541198730469e+01 4.238327026367187500e+01 1.602882003784179688e+01 1.132230281829833984e+01
3.201000000000000000e+03 2.531067466735839844e+01 3.631976318359375000e+01 1.048336887359619141e+01 4.444877243041992188e+01 1.647964096069335938e+01 7.017454624176025391e+00
3.202000000000000000e+03 2.533014297485351562e+01 3.631993484497070312e+01 1.126440715789794922e+01 4.463026809692382812e+01 1.676840209960937500e+01 2.853737354278564453e+00
3.203000000000000000e+03 2.534920501708984375e+01 3.632389450073242188e+01 1.304229736328125000e+01 4.314950561523437500e+01 1.685754013061523438e+01 -6.971430778503417969e-01
3.204000000000000000e+03 2.536713027954101562e+01 3.633148956298828125e+01 1.559435176849365234e+01 4.059421157836914062e+01 1.685656929016113281e+01 -3.154947042465209961e+00
3.205000000000000000e+03 2.538323593139648438e+01 3.634243011474609375e+01 1.843485450744628906e+01 3.744885253906250000e+01 1.676511192321777344e+01 -4.401421070098876953e+00
3.206000000000000000e+03 2.539690208435058594e+01 3.635629653930664062e+01 2.114867019653320312e+01 3.430313491821289062e+01 1.663554191589355469e+01 -4.443681240081787109e+00
3.207000000000000000e+03 2.540760803222656250e+01 3.637255477905273438e+01 2.348332786560058594e+01 3.162493705749511719e+01 1.653248023986816406e+01 -3.439708948135375977e+00
3.208000000000000000e+03 2.541494178771972656e+01 3.639059066772460938e+01 2.511342811584472656e+01 2.960567474365234375e+01 1.641573143005371094e+01 -1.679111838340759277e+00
3.209000000000000000e+03 2.541862678527832031e+01 3.640970611572265625e+01 2.600776481628417969e+01 2.865052795410156250e+01 1.639748764038085938e+01 5.998627543449401855e-01
3.210000000000000000e+03 2.541851806640625000e+01 3.642917633056640625e+01 2.594474411010742188e+01 2.859996604919433594e+01 1.636341285705566406e+01 3.102562665939331055e+00
3.211000000000000000e+03 2.541462135314941406e+01 3.644824981689453125e+01 2.498544883728027344e+01 2.976205635070800781e+01 1.642425155639648438e+01 5.483241558074951172e+00
3.212000000000000000e+03 2.540708541870117188e+01 3.646620178222656250e+01 2.295989799499511719e+01 3.176640701293945312e+01 1.641789245605468750e+01 7.464718818664550781e+00
3.213000000000000000e+03 2.539619827270507812e+01 3.648234176635742188e+01 2.019875144958496094e+01 3.470070648193359375e+01 1.646983718872070312e+01 8.579029083251953125e+00
3.214000000000000000e+03 2.538237762451171875e+01 3.649605178833007812e+01 1.662206459045410156e+01 3.787751007080078125e+01 1.634987258911132812e+01 8.637493133544921875e+00
3.215000000000000000e+03 2.536615180969238281e+01 3.650681304931640625e+01 1.304000473022460938e+01 4.106600952148437500e+01 1.623180389404296875e+01 7.305645465850830078e+00
3.216000000000000000e+03 2.534814262390136719e+01 3.651420593261718750e+01 9.382421493530273438e+00 4.333866500854492188e+01 1.581632614135742188e+01 4.728858470916748047e+00
3.217000000000000000e+03 2.532903671264648438e+01 3.651795578002929688e+01 6.783251285552978516e+00 4.445425415039062500e+01 1.537125110626220703e+01 1.052607893943786621e+00
3.218000000000000000e+03 2.530956840515136719e+01 3.651791000366210938e+01 4.711940288543701172e+00 4.360884475708007812e+01 1.449623584747314453e+01 -3.177375316619873047e+00
3.219000000000000000e+03 2.529048156738281250e+01 3.651407623291015625e+01 4.334223270416259766e+00 4.111462783813476562e+01 1.363465595245361328e+01 -7.357351779937744141e+00
3.220000000000000000e+03 2.527250480651855469e+01 3.650659942626953125e+01 4.233783245086669922e+00 3.652547836303710938e+01 1.222777938842773438e+01 -1.101807975769042969e+01
3.221000000000000000e+03 2.525632858276367188e+01 3.649576187133789062e+01 5.628372192382812500e+00 3.100311279296875000e+01 1.098944568634033203e+01 -1.342951965332031250e+01
3.222000000000000000e+03 2.524257087707519531e+01 3.648198699951171875e+01 6.330992221832275391e+00 2.397671127319335938e+01 9.092310905456542969e+00 -1.478176975250244141e+01
3.223000000000000000e+03 2.523175811767578125e+01 3.646579742431640625e+01 8.052585601806640625e+00 1.743600845336914062e+01 7.646578311920166016e+00 -1.422565937042236328e+01
3.224000000000000000e+03 2.522430610656738281e+01 3.644781112670898438e+01 8.470643997192382812e+00 9.994016647338867188e+00 5.539398193359375000e+00 -1.244277191162109375e+01
3.225000000000000000e+03 2.522049713134765625e+01 3.642871856689453125e+01 9.854911804199218750e+00 3.718235015869140625e+00 4.071943759918212891e+00 -6.310842990875244141e+00
