# el_label, x, y, sXX, sYY, sZZ, sXY
1.000000000000000000e+00 5.161147689819335938e+01 3.178586006164550781e+01 -6.863327503204345703e+00 -1.999641418457031250e+00 -2.658890724182128906e+00 -2.380670547485351562e+00
2.000000000000000000e+00 5.141252899169921875e+01 3.179200172424316406e+01 -1.245141506195068359e+00 7.998110055923461914e-01 -1.335991472005844116e-01 1.008331060409545898e+00
3.000000000000000000e+00 5.121358108520507812e+01 3.179814147949218750e+01 -2.588794469833374023e+00 -4.695256352424621582e-01 -9.174960851669311523e-01 2.124419063329696655e-01
4.000000000000000000e+00 5.101463699340820312e+01 3.180428314208984375e+01 -2.757066726684570312e+00 1.396381705999374390e-01 -7.852285504341125488e-01 5.289936661720275879e-01
5.000000000000000000e+00 5.161539077758789062e+01 3.172758674621582031e+01 1.006882858276367188e+01 -2.831637144088745117e+00 2.171157360076904297e+00 1.683965623378753662e-01
6.000000000000000000e+00 5.141905593872070312e+01 3.169487953186035156e+01 3.021248817443847656e+00 5.466857925057411194e-02 9.227752089500427246e-01 8.961425423622131348e-01
7.000000000000000000e+00 5.122272109985351562e+01 3.166217231750488281e+01 3.149891138076782227e+00 3.085497617721557617e-01 1.037532329559326172e+00 1.787351489067077637e+00
8.000000000000000000e+00 5.102638626098632812e+01 3.162946510314941406e+01 1.877577662467956543e+00 -7.375733554363250732e-02 5.411460995674133301e-01 1.047828674316406250e+00
9.000000000000000000e+00 5.163057708740234375e+01 3.167119026184082031e+01 1.736285781860351562e+01 5.882856249809265137e-01 5.385343074798583984e+00 7.101105690002441406e+00
1.000000000000000000e+01 5.144436645507812500e+01 3.160088539123535156e+01 1.008602523803710938e+01 2.877551615238189697e-01 3.112134218215942383e+00 4.121625900268554688e+00
1.100000000000000000e+01 5.125815582275390625e+01 3.153058242797851562e+01 6.774394989013671875e+00 1.111815571784973145e+00 2.365863084793090820e+00 3.497546195983886719e+00
1.200000000000000000e+01 5.107194519042968750e+01 3.146027755737304688e+01 5.815088748931884766e+00 1.033760190010070801e+00 2.054654598236083984e+00 3.382343769073486328e+00
1.300000000000000000e+01 5.165645217895507812e+01 3.161882972717285156e+01 2.054076194763183594e+01 6.195836067199707031e+00 8.020978927612304688e+00 1.320190334320068359e+01
1.400000000000000000e+01 5.148749160766601562e+01 3.151362037658691406e+01 1.306857204437255859e+01 3.726957321166992188e+00 5.038658618927001953e+00 8.527990341186523438e+00
1.500000000000000000e+01 5.131853103637695312e+01 3.140840911865234375e+01 1.013228988647460938e+01 3.033777236938476562e+00 3.949820280075073242e+00 6.776483535766601562e+00
1.600000000000000000e+01 5.114957046508789062e+01 3.130319786071777344e+01 8.001358032226562500e+00 2.927323818206787109e+00 3.278604507446289062e+00 5.801528930664062500e+00
1.700000000000000000e+01 5.169202423095703125e+01 3.157250976562500000e+01 1.978716850280761719e+01 1.413918972015380859e+01 1.017790794372558594e+01 1.781793403625488281e+01
1.800000000000000000e+01 5.154677963256835938e+01 3.143641853332519531e+01 1.396464538574218750e+01 8.898548126220703125e+00 6.858958244323730469e+00 1.234230899810791016e+01
1.900000000000000000e+01 5.140153503417968750e+01 3.130032539367675781e+01 1.086806201934814453e+01 7.002444744110107422e+00 5.361152172088623047e+00 9.778084754943847656e+00
2.000000000000000000e+01 5.125629043579101562e+01 3.116423416137695312e+01 9.103116035461425781e+00 5.967620372772216797e+00 4.521220684051513672e+00 8.611272811889648438e+00
2.100000000000000000e+01 5.173593521118164062e+01 3.153400039672851562e+01 1.717643928527832031e+01 2.309633255004882812e+01 1.208183193206787109e+01 2.000983428955078125e+01
2.200000000000000000e+01 5.161996459960937500e+01 3.137223625183105469e+01 1.268688392639160156e+01 1.534033012390136719e+01 8.408164024353027344e+00 1.453766250610351562e+01
2.300000000000000000e+01 5.150399017333984375e+01 3.121047019958496094e+01 1.028534317016601562e+01 1.221432781219482422e+01 6.749901294708251953e+00 1.204669666290283203e+01
2.400000000000000000e+01 5.138801956176757812e+01 3.104870605468750000e+01 8.492405891418457031e+00 1.031893444061279297e+01 5.643402099609375000e+00 1.033335304260253906e+01
2.500000000000000000e+01 5.178650283813476562e+01 3.150477600097656250e+01 1.360800266265869141e+01 3.181846427917480469e+01 1.362794017791748047e+01 1.952595710754394531e+01
2.600000000000000000e+01 5.170424270629882812e+01 3.132353019714355469e+01 1.068177318572998047e+01 2.228491783142089844e+01 9.890007019042968750e+00 1.488444137573242188e+01
2.700000000000000000e+01 5.162198257446289062e+01 3.114228248596191406e+01 8.620615959167480469e+00 1.770882225036621094e+01 7.898831367492675781e+00 1.263046264648437500e+01
2.800000000000000000e+01 5.153972244262695312e+01 3.096103477478027344e+01 7.199550151824951172e+00 1.552342128753662109e+01 6.816891670227050781e+00 1.124137401580810547e+01
2.900000000000000000e+01 5.184179306030273438e+01 3.148595809936523438e+01 1.080848312377929688e+01 3.944221496582031250e+01 1.507520866394042969e+01 1.654664993286132812e+01
3.000000000000000000e+01 5.179639053344726562e+01 3.129216384887695312e+01 8.439111709594726562e+00 2.849000358581542969e+01 1.107873439788818359e+01 1.347137355804443359e+01
3.100000000000000000e+01 5.175099182128906250e+01 3.109836769104003906e+01 6.928735256195068359e+00 2.338635635375976562e+01 9.094527244567871094e+00 1.153526496887207031e+01
3.200000000000000000e+01 5.170558929443359375e+01 3.090457534790039062e+01 5.764054775238037109e+00 1.981069564819335938e+01 7.672425270080566406e+00 1.050629520416259766e+01
3.300000000000000000e+01 5.189968872070312500e+01 3.147826194763183594e+01 9.350156784057617188e+00 4.481143569946289062e+01 1.624847793579101562e+01 1.200577831268310547e+01
3.400000000000000000e+01 5.189288330078125000e+01 3.127933502197265625e+01 7.037039279937744141e+00 3.361367797851562500e+01 1.219521522521972656e+01 1.052182102203369141e+01
3.500000000000000000e+01 5.188608169555664062e+01 3.108041000366210938e+01 5.609540939331054688e+00 2.796977233886718750e+01 1.007379341125488281e+01 9.217259407043457031e+00
3.600000000000000000e+01 5.187927627563476562e+01 3.088148689270019531e+01 4.649380207061767578e+00 2.424762725830078125e+01 8.669102668762207031e+00 8.124772071838378906e+00
3.700000000000000000e+01 5.195797348022460938e+01 3.148198318481445312e+01 9.832381248474121094e+00 4.775020217895507812e+01 1.727477455139160156e+01 6.678840160369873047e+00
3.800000000000000000e+01 5.199002838134765625e+01 3.128553962707519531e+01 6.901599884033203125e+00 3.684634399414062500e+01 1.312438297271728516e+01 6.889851570129394531e+00
3.900000000000000000e+01 5.202208328247070312e+01 3.108909606933593750e+01 5.134085178375244141e+00 3.133301353454589844e+01 1.094012928009033203e+01 6.010242938995361328e+00
4.000000000000000000e+01 5.205413436889648438e+01 3.089265251159667969e+01 4.323293685913085938e+00 2.792360115051269531e+01 9.674068450927734375e+00 5.402711868286132812e+00
4.100000000000000000e+01 5.201441955566406250e+01 3.149698066711425781e+01 1.193335247039794922e+01 4.829381179809570312e+01 1.806814956665039062e+01 2.014128446578979492e+00
4.200000000000000000e+01 5.208410644531250000e+01 3.131053543090820312e+01 8.311204910278320312e+00 3.826247024536132812e+01 1.397210311889648438e+01 2.834356546401977539e+00
4.300000000000000000e+01 5.215378952026367188e+01 3.112409210205078125e+01 5.929996967315673828e+00 3.288046646118164062e+01 1.164313793182373047e+01 3.021288633346557617e+00
4.400000000000000000e+01 5.222347259521484375e+01 3.093764877319335938e+01 4.772265911102294922e+00 2.979290008544921875e+01 1.036954975128173828e+01 2.645657062530517578e+00
4.500000000000000000e+01 5.206686401367187500e+01 3.152268218994140625e+01 1.592054843902587891e+01 4.692502975463867188e+01 1.885367393493652344e+01 -1.643146395683288574e+00
4.600000000000000000e+01 5.217151260375976562e+01 3.135337066650390625e+01 1.039235782623291016e+01 3.804663848876953125e+01 1.453169918060302734e+01 -4.217760562896728516e-01
4.700000000000000000e+01 5.227616119384765625e+01 3.118405914306640625e+01 8.522060394287109375e+00 3.271179580688476562e+01 1.237015628814697266e+01 6.303191930055618286e-02
4.800000000000000000e+01 5.238080978393554688e+01 3.101474952697753906e+01 6.214473247528076172e+00 2.936271476745605469e+01 1.067315673828125000e+01 7.487721443176269531e-01
4.900000000000000000e+01 5.211330413818359375e+01 3.155809974670410156e+01 2.006585502624511719e+01 4.452780151367187500e+01 1.937809753417968750e+01 -3.733689546585083008e+00
5.000000000000000000e+01 5.224891281127929688e+01 3.141240119934082031e+01 1.393072128295898438e+01 3.631121063232421875e+01 1.507257938385009766e+01 -2.491016864776611328e+00
5.100000000000000000e+01 5.238452148437500000e+01 3.126670455932617188e+01 1.095596694946289062e+01 3.151936340332031250e+01 1.274259853363037109e+01 -1.955890893936157227e+00
5.200000000000000000e+01 5.252012634277343750e+01 3.112100601196289062e+01 9.883521080017089844e+00 2.796900749206542969e+01 1.135575866699218750e+01 -1.340706586837768555e+00
5.300000000000000000e+01 5.215196228027343750e+01 3.160188293457031250e+01 2.385625267028808594e+01 4.137229537963867188e+01 1.956856346130371094e+01 -4.277266025543212891e+00
5.400000000000000000e+01 5.231333923339843750e+01 3.148537254333496094e+01 1.781484985351562500e+01 3.434906005859375000e+01 1.564917278289794922e+01 -3.105074882507324219e+00
5.500000000000000000e+01 5.247471618652343750e+01 3.136886215209960938e+01 1.388437557220458984e+01 2.921718978881835938e+01 1.293046951293945312e+01 -2.775429248809814453e+00
5.600000000000000000e+01 5.263609313964843750e+01 3.125235176086425781e+01 1.224305915832519531e+01 2.655852508544921875e+01 1.164047527313232422e+01 -2.207204341888427734e+00
5.700000000000000000e+01 5.218135452270507812e+01 3.165235137939453125e+01 2.767548561096191406e+01 3.983504104614257812e+01 2.025315666198730469e+01 -2.950439453125000000e+00
5.800000000000000000e+01 5.236232376098632812e+01 3.156948852539062500e+01 2.067445755004882812e+01 3.103812789916992188e+01 1.551377582550048828e+01 -2.860884904861450195e+00
5.900000000000000000e+01 5.254329681396484375e+01 3.148662376403808594e+01 1.716060066223144531e+01 2.817902565002441406e+01 1.360188770294189453e+01 -1.801991701126098633e+00
6.000000000000000000e+01 5.272426986694335938e+01 3.140376091003417969e+01 1.394167518615722656e+01 2.341741752624511719e+01 1.120772743225097656e+01 -1.954635977745056152e+00
6.100000000000000000e+01 5.220035552978515625e+01 3.170757865905761719e+01 2.973658752441406250e+01 3.690275573730468750e+01 1.999180221557617188e+01 -8.458616733551025391e-01
6.200000000000000000e+01 5.239399719238281250e+01 3.166153144836425781e+01 2.287241935729980469e+01 3.056031417846679688e+01 1.602981948852539062e+01 -1.009580850601196289e+00
6.300000000000000000e+01 5.258763885498046875e+01 3.161548614501953125e+01 1.912559127807617188e+01 2.514148902893066406e+01 1.328012466430664062e+01 -4.722327589988708496e-01
6.400000000000000000e+01 5.278128051757812500e+01 3.156943893432617188e+01 1.672052955627441406e+01 2.392857742309570312e+01 1.219473171234130859e+01 -6.148468852043151855e-01
6.500000000000000000e+01 5.220824813842773438e+01 3.176544761657714844e+01 3.055040931701660156e+01 3.658678436279296875e+01 2.014115905761718750e+01 1.452649354934692383e+00
6.600000000000000000e+01 5.240714645385742188e+01 3.175798034667968750e+01 2.363913726806640625e+01 2.940977859497070312e+01 1.591467475891113281e+01 1.850537538528442383e+00
6.700000000000000000e+01 5.260604858398437500e+01 3.175051498413085938e+01 1.970016288757324219e+01 2.504416656494140625e+01 1.342329883575439453e+01 1.042715907096862793e+00
6.800000000000000000e+01 5.280495071411132812e+01 3.174304771423339844e+01 1.725792312622070312e+01 2.301320648193359375e+01 1.208133888244628906e+01 1.491975665092468262e+00
6.900000000000000000e+01 5.220471954345703125e+01 3.182374572753906250e+01 2.978964042663574219e+01 3.747467041015625000e+01 2.017929267883300781e+01 4.541511535644531250e+00
7.000000000000000000e+01 5.240126800537109375e+01 3.185514450073242188e+01 2.294086456298828125e+01 2.927066421508789062e+01 1.566345882415771484e+01 4.074665069580078125e+00
7.100000000000000000e+01 5.259781646728515625e+01 3.188654327392578125e+01 1.872352409362792969e+01 2.643889617919921875e+01 1.354872608184814453e+01 3.523594379425048828e+00
7.200000000000000000e+01 5.279436492919921875e+01 3.191794013977050781e+01 1.567156028747558594e+01 2.223623466491699219e+01 1.137233829498291016e+01 3.190728187561035156e+00
7.300000000000000000e+01 5.218990707397460938e+01 3.188024139404296875e+01 2.737058448791503906e+01 3.842654418945312500e+01 1.973913955688476562e+01 6.998765468597412109e+00
7.400000000000000000e+01 5.237658309936523438e+01 3.194930458068847656e+01 2.053909492492675781e+01 3.152576255798339844e+01 1.561945724487304688e+01 5.871793270111083984e+00
7.500000000000000000e+01 5.256325912475585938e+01 3.201836395263671875e+01 1.663662338256835938e+01 2.695583724975585938e+01 1.307773876190185547e+01 5.441547870635986328e+00
7.600000000000000000e+01 5.274993515014648438e+01 3.208742523193359375e+01 1.440018844604492188e+01 2.461112022399902344e+01 1.170339298248291016e+01 4.764835834503173828e+00
7.700000000000000000e+01 5.216438293457031250e+01 3.193277168273925781e+01 2.376648521423339844e+01 4.097480010986328125e+01 1.942238616943359375e+01 8.364438056945800781e+00
7.800000000000000000e+01 5.233404159545898438e+01 3.203685760498046875e+01 1.695743179321289062e+01 3.377764511108398438e+01 1.522052383422851562e+01 6.840318679809570312e+00
7.900000000000000000e+01 5.250370025634765625e+01 3.214093780517578125e+01 1.359306240081787109e+01 2.886458015441894531e+01 1.273729228973388672e+01 5.920988082885742188e+00
8.000000000000000000e+01 5.267335891723632812e+01 3.224502182006835938e+01 1.228262424468994141e+01 2.616791534423828125e+01 1.153516197204589844e+01 5.127131462097167969e+00
8.100000000000000000e+01 5.212911987304687500e+01 3.197933006286621094e+01 1.919821166992187500e+01 4.423345184326171875e+01 1.902949905395507812e+01 8.248903274536132812e+00
8.200000000000000000e+01 5.227526855468750000e+01 3.211444854736328125e+01 1.274377727508544922e+01 3.595743942260742188e+01 1.461036491394042969e+01 6.464134693145751953e+00
8.300000000000000000e+01 5.242141723632812500e+01 3.224957275390625000e+01 1.026011276245117188e+01 3.126900100708007812e+01 1.245873451232910156e+01 5.072271823883056641e+00
8.400000000000000000e+01 5.256756591796875000e+01 3.238469314575195312e+01 7.824938774108886719e+00 2.753552246093750000e+01 1.060813808441162109e+01 4.022663116455078125e+00
8.500000000000000000e+01 5.208546447753906250e+01 3.201813125610351562e+01 1.388031482696533203e+01 4.700217819213867188e+01 1.826474761962890625e+01 6.583061218261718750e+00
8.600000000000000000e+01 5.220251083374023438e+01 3.217911911010742188e+01 9.042522430419921875e+00 3.792543792724609375e+01 1.409038829803466797e+01 4.271028518676757812e+00
8.700000000000000000e+01 5.231956100463867188e+01 3.234010696411132812e+01 6.411468982696533203e+00 3.269687652587890625e+01 1.173250389099121094e+01 3.285772562026977539e+00
8.800000000000000000e+01 5.243660736083984375e+01 3.250109481811523438e+01 4.465533256530761719e+00 2.968386650085449219e+01 1.024482059478759766e+01 2.621634483337402344e+00
8.900000000000000000e+01 5.203509521484375000e+01 3.204769134521484375e+01 9.384354591369628906e+00 4.876806259155273438e+01 1.744572448730468750e+01 3.075767755508422852e+00
9.000000000000000000e+01 5.211856079101562500e+01 3.222838592529296875e+01 5.739159584045410156e+00 3.871129608154296875e+01 1.333513641357421875e+01 8.886880874633789062e-01
9.100000000000000000e+01 5.220202636718750000e+01 3.240908050537109375e+01 3.620262861251831055e+00 3.300815200805664062e+01 1.098852443695068359e+01 4.885658323764801025e-01
9.200000000000000000e+01 5.228549194335937500e+01 3.258977508544921875e+01 2.615790605545043945e+00 2.982877349853515625e+01 9.733368873596191406e+00 6.104935407638549805e-01
9.300000000000000000e+01 5.197993087768554688e+01 3.206687927246093750e+01 6.336792945861816406e+00 4.893027114868164062e+01 1.658012008666992188e+01 -2.036048889160156250e+00
9.400000000000000000e+01 5.202662277221679688e+01 3.226036453247070312e+01 3.447922945022583008e+00 3.759587860107421875e+01 1.231313991546630859e+01 -3.035778522491455078e+00
9.500000000000000000e+01 5.207331466674804688e+01 3.245385360717773438e+01 2.378939390182495117e+00 3.193769645690917969e+01 1.029499053955078125e+01 -3.002943754196166992e+00
9.600000000000000000e+01 5.212000656127929688e+01 3.264733886718750000e+01 1.410965085029602051e+00 2.775162887573242188e+01 8.748778343200683594e+00 -2.563234806060791016e+00
9.700000000000000000e+01 5.192208862304687500e+01 3.207495880126953125e+01 4.648115158081054688e+00 4.636484909057617188e+01 1.530389022827148438e+01 -7.626313686370849609e+00
9.800000000000000000e+01 5.193021774291992188e+01 3.227383422851562500e+01 3.197747230529785156e+00 3.467646026611328125e+01 1.136226177215576172e+01 -7.163948059082031250e+00
9.900000000000000000e+01 5.193834686279296875e+01 3.247270965576171875e+01 1.849071025848388672e+00 2.884873580932617188e+01 9.209342002868652344e+00 -6.338813781738281250e+00
1.000000000000000000e+02 5.194647979736328125e+01 3.267158508300781250e+01 1.481133341789245605e+00 2.529983520507812500e+01 8.034290313720703125e+00 -5.874079227447509766e+00
1.010000000000000000e+02 5.186378097534179688e+01 3.207162475585937500e+01 5.432242393493652344e+00 4.123273086547851562e+01 1.399949264526367188e+01 -1.279129600524902344e+01
1.020000000000000000e+02 5.183303451538085938e+01 3.226828002929687500e+01 3.909366369247436523e+00 2.972681045532226562e+01 1.009085273742675781e+01 -1.052405166625976562e+01
1.030000000000000000e+02 5.180229187011718750e+01 3.246493148803710938e+01 2.808990955352783203e+00 2.437426185607910156e+01 8.154975891113281250e+00 -9.057888984680175781e+00
1.040000000000000000e+02 5.177154922485351562e+01 3.266158294677734375e+01 2.052480697631835938e+00 2.129000282287597656e+01 7.002745151519775391e+00 -7.938211441040039062e+00
1.050000000000000000e+02 5.180723571777343750e+01 3.205700302124023438e+01 7.835409641265869141e+00 3.364190673828125000e+01 1.244319438934326172e+01 -1.640421676635742188e+01
1.060000000000000000e+02 5.173879623413085938e+01 3.224390792846679688e+01 5.603725433349609375e+00 2.329788208007812500e+01 8.670481681823730469e+00 -1.249616241455078125e+01
1.070000000000000000e+02 5.167035675048828125e+01 3.243081283569335938e+01 4.349854469299316406e+00 1.888449668884277344e+01 6.970305442810058594e+00 -1.032949066162109375e+01
1.080000000000000000e+02 5.160191726684570312e+01 3.261771774291992188e+01 3.320401906967163086e+00 1.601517677307128906e+01 5.800673961639404297e+00 -9.041687965393066406e+00
1.090000000000000000e+02 5.175461959838867188e+01 3.203165435791015625e+01 1.080660820007324219e+01 2.433372688293457031e+01 1.054209995269775391e+01 -1.758472442626953125e+01
1.100000000000000000e+02 5.165110015869140625e+01 3.220166015625000000e+01 7.609764575958251953e+00 1.624187850952148438e+01 7.155493259429931641e+00 -1.248637485504150391e+01
1.110000000000000000e+02 5.154758453369140625e+01 3.237166213989257812e+01 5.739527225494384766e+00 1.274997425079345703e+01 5.546850204467773438e+00 -1.002542495727539062e+01
1.120000000000000000e+02 5.144406890869140625e+01 3.254166793823242188e+01 4.499247074127197266e+00 1.122959709167480469e+01 4.718653202056884766e+00 -8.627846717834472656e+00
1.130000000000000000e+02 5.170794296264648438e+01 3.199654579162597656e+01 1.357682132720947266e+01 1.468844509124755859e+01 8.479579925537109375e+00 -1.581369781494140625e+01
1.140000000000000000e+02 5.157331085205078125e+01 3.214314270019531250e+01 8.449769973754882812e+00 9.140670776367187500e+00 5.277132034301757812e+00 -1.036738586425781250e+01
1.150000000000000000e+02 5.143867874145507812e+01 3.228974151611328125e+01 6.374355792999267578e+00 7.573273658752441406e+00 4.184288978576660156e+00 -8.138689994812011719e+00
1.160000000000000000e+02 5.130404281616210938e+01 3.243634033203125000e+01 4.845973968505859375e+00 6.529778003692626953e+00 3.412725687026977539e+00 -6.806646823883056641e+00
1.170000000000000000e+02 5.166899871826171875e+01 3.195302200317382812e+01 1.352074050903320312e+01 5.702202796936035156e+00 5.766882896423339844e+00 -1.123356056213378906e+01
1.180000000000000000e+02 5.150839996337890625e+01 3.207060623168945312e+01 7.892582416534423828e+00 3.585172653198242188e+00 3.443326473236083984e+00 -6.561031341552734375e+00
1.190000000000000000e+02 5.134780120849609375e+01 3.218818664550781250e+01 4.860770225524902344e+00 3.501001119613647461e+00 2.508531332015991211e+00 -4.933951854705810547e+00
1.200000000000000000e+02 5.118720626831054688e+01 3.230577087402343750e+01 3.884693384170532227e+00 3.516447067260742188e+00 2.220342159271240234e+00 -4.547555923461914062e+00
1.210000000000000000e+02 5.163927078247070312e+01 3.190274810791015625e+01 1.039427471160888672e+01 -1.470322966575622559e+00 2.677185535430908203e+00 -4.118566513061523438e+00
1.220000000000000000e+02 5.145885467529296875e+01 3.198681640625000000e+01 3.043991804122924805e+00 8.018714785575866699e-01 1.153759002685546875e+00 -1.966437578201293945e+00
1.230000000000000000e+02 5.127843856811523438e+01 3.207088470458984375e+01 2.458147048950195312e+00 1.763403177261352539e+00 1.266465067863464355e+00 -2.575443029403686523e+00
1.240000000000000000e+02 5.109802246093750000e+01 3.215495300292968750e+01 1.317626595497131348e+00 5.633841156959533691e-01 5.643032193183898926e-01 -1.659206748008728027e+00
1.250000000000000000e+02 5.161989974975585938e+01 3.184765052795410156e+01 -3.775568008422851562e+00 -3.674663543701171875e+00 -2.235069513320922852e+00 2.882642269134521484e+00
1.260000000000000000e+02 5.142657089233398438e+01 3.189498710632324219e+01 -7.964556813240051270e-01 1.418433547019958496e+00 1.865933537483215332e-01 -6.147187352180480957e-01
1.270000000000000000e+02 5.123323822021484375e+01 3.194232177734375000e+01 -2.064952135086059570e+00 -5.749008655548095703e-01 -7.919558882713317871e-01 2.086488306522369385e-01
1.280000000000000000e+02 5.103990936279296875e+01 3.198965835571289062e+01 -2.520122289657592773e+00 3.059274554252624512e-01 -6.642584800720214844e-01 1.653659492731094360e-01
1.290000000000000000e+02 2.333872413635253906e+01 3.602074050903320312e+01 -9.019906632602214813e-03 1.749248622218146920e-04 -2.653494710102677345e-03 -4.479625727981328964e-03
1.300000000000000000e+02 2.389290046691894531e+01 3.609888076782226562e+01 -1.739555969834327698e-02 -4.219478927552700043e-03 -6.484511308372020721e-03 -6.254118401557207108e-03
1.310000000000000000e+02 2.284308815002441406e+01 3.526721954345703125e+01 -2.387445047497749329e-02 -5.977237597107887268e-03 -8.955506607890129089e-03 -1.600202545523643494e-02
1.320000000000000000e+02 2.421754455566406250e+01 3.556056594848632812e+01 -4.905562475323677063e-02 -3.623898839578032494e-03 -1.580385677516460419e-02 -2.415923774242401123e-02
1.330000000000000000e+02 2.498613166809082031e+01 3.604191207885742188e+01 -5.125526711344718933e-02 -3.649930586107075214e-04 -1.548607740551233292e-02 -8.156617172062397003e-03
1.340000000000000000e+02 2.485820960998535156e+01 3.530118560791015625e+01 -7.433771342039108276e-02 -1.037454698234796524e-03 -2.261255122721195221e-02 -3.392310440540313721e-02
1.350000000000000000e+02 2.364893722534179688e+01 3.528245925903320312e+01 -4.154849052429199219e-02 -7.291653193533420563e-03 -1.465204264968633652e-02 -2.642280235886573792e-02
1.360000000000000000e+02 2.269410705566406250e+01 3.600639724731445312e+01 -2.078667981550097466e-03 -8.314390288433060050e-05 -6.485435878857970238e-04 -4.510722588747739792e-03
1.370000000000000000e+02 2.440931320190429688e+01 3.610589981079101562e+01 -3.659738227725028992e-02 2.023243112489581108e-03 -1.037224102765321732e-02 -9.528084658086299896e-03
1.380000000000000000e+02 2.713174057006835938e+01 3.578996658325195312e+01 -1.623758375644683838e-01 2.192444168031215668e-03 -4.805501922965049744e-02 -2.837481675669550896e-03
1.390000000000000000e+02 2.639669990539550781e+01 3.588855361938476562e+01 -1.157047525048255920e-01 2.400246914476156235e-03 -3.399135172367095947e-02 -6.287207826972007751e-03
1.400000000000000000e+02 2.560692596435546875e+01 3.524289321899414062e+01 -1.085603386163711548e-01 1.214804127812385559e-03 -3.220365941524505615e-02 -3.955005481839179993e-02
1.410000000000000000e+02 2.704477500915527344e+01 3.505500793457031250e+01 -1.869105100631713867e-01 8.923235349357128143e-03 -5.339618399739265442e-02 -4.755763709545135498e-02
1.420000000000000000e+02 2.786719703674316406e+01 3.568653869628906250e+01 -2.125223428010940552e-01 2.682018559426069260e-03 -6.295209378004074097e-02 2.196307759732007980e-03
1.430000000000000000e+02 2.776436805725097656e+01 3.495370483398437500e+01 -2.367584705352783203e-01 1.397988386452198029e-02 -6.683357805013656616e-02 -4.751995950937271118e-02
1.440000000000000000e+02 2.632559776306152344e+01 3.515146636962890625e+01 -1.445668041706085205e-01 6.721535231918096542e-03 -4.135357961058616638e-02 -4.470751807093620300e-02
1.450000000000000000e+02 2.566216468811035156e+01 3.598210525512695312e+01 -7.563191652297973633e-02 1.216748147271573544e-03 -2.232454903423786163e-02 -8.205482736229896545e-03
1.460000000000000000e+02 2.933965110778808594e+01 3.544803619384765625e+01 -3.410486876964569092e-01 8.934758370742201805e-04 -1.020465642213821411e-01 2.010410837829113007e-02
1.470000000000000000e+02 2.922042655944824219e+01 3.471769332885742188e+01 -3.514464497566223145e-01 1.974910125136375427e-02 -9.950920194387435913e-02 -4.624097794294357300e-02
1.480000000000000000e+02 2.848941230773925781e+01 3.484096145629882812e+01 -2.918310761451721191e-01 1.665254309773445129e-02 -8.255355805158615112e-02 -4.812836274504661560e-02
1.490000000000000000e+02 3.068212890625000000e+01 3.447154998779296875e+01 -4.884008765220642090e-01 2.547649666666984558e-02 -1.388773173093795776e-01 -3.258459642529487610e-02
1.500000000000000000e+02 2.995129966735839844e+01 3.459505081176757812e+01 -4.160681366920471191e-01 2.053358778357505798e-02 -1.186603680253028870e-01 -4.069238901138305664e-02
1.510000000000000000e+02 3.081263542175292969e+01 3.519998931884765625e+01 -4.874334335327148438e-01 -3.237898636143654585e-04 -1.463271677494049072e-01 4.386477917432785034e-02
1.520000000000000000e+02 2.860299301147460938e+01 3.557225799560546875e+01 -2.715645730495452881e-01 3.633955027908086777e-03 -8.037918061017990112e-02 1.075596828013658524e-02
1.530000000000000000e+02 3.007616424560546875e+01 3.532444381713867188e+01 -4.142038822174072266e-01 1.178468461148440838e-03 -1.239076256752014160e-01 3.068355657160282135e-02
1.540000000000000000e+02 3.228277587890625000e+01 3.491655731201171875e+01 -6.694681644439697266e-01 -7.955998182296752930e-03 -2.032272517681121826e-01 7.833886146545410156e-02
1.550000000000000000e+02 3.141323661804199219e+01 3.433660507202148438e+01 -5.658167600631713867e-01 2.601558528840541840e-02 -1.619403511285781860e-01 -2.715194039046764374e-02
1.560000000000000000e+02 3.301699829101562500e+01 3.477141952514648438e+01 -7.705536484718322754e-01 -7.967322133481502533e-03 -2.335563004016876221e-01 9.608588367700576782e-02
1.570000000000000000e+02 3.287635040283203125e+01 3.404490280151367188e+01 -7.314659357070922852e-01 2.430836111307144165e-02 -2.121472805738449097e-01 -9.376180358231067657e-03
1.580000000000000000e+02 3.360715103149414062e+01 3.390307235717773438e+01 -8.220596313476562500e-01 2.667578309774398804e-02 -2.386151552200317383e-01 2.738437382504343987e-03
1.590000000000000000e+02 3.375072097778320312e+01 3.462901306152343750e+01 -8.757563829421997070e-01 -1.326338481158018112e-02 -2.667059302330017090e-01 1.149893254041671753e-01
1.600000000000000000e+02 3.214505767822265625e+01 3.418946456909179688e+01 -6.451910734176635742e-01 2.755821868777275085e-02 -1.852898448705673218e-01 -1.967851817607879639e-02
1.610000000000000000e+02 3.154802894592285156e+01 3.506427764892578125e+01 -5.711799860000610352e-01 -1.222925609908998013e-03 -1.717208623886108398e-01 6.145295128226280212e-02
1.620000000000000000e+02 3.448552703857421875e+01 3.448280334472656250e+01 -9.873478412628173828e-01 -1.472407020628452301e-02 -3.006215691566467285e-01 1.361816674470901489e-01
1.630000000000000000e+02 3.581328582763671875e+01 3.345945358276367188e+01 -1.117501258850097656e+00 1.917847804725170135e-02 -3.294968307018280029e-01 3.782562911510467529e-02
1.640000000000000000e+02 3.434083938598632812e+01 3.375708389282226562e+01 -9.172564148902893066e-01 2.346266061067581177e-02 -2.681381404399871826e-01 1.363685820251703262e-02
1.650000000000000000e+02 3.654941177368164062e+01 3.331057739257812500e+01 -1.216465473175048828e+00 1.794138923287391663e-02 -3.595572113990783691e-01 5.016205087304115295e-02
1.660000000000000000e+02 3.595657730102539062e+01 3.418545532226562500e+01 -1.231927275657653809e+00 -2.270207181572914124e-02 -3.763887882232666016e-01 1.790701746940612793e-01
1.670000000000000000e+02 3.669200897216796875e+01 3.403672027587890625e+01 -1.367044806480407715e+00 -3.124780021607875824e-02 -4.194877743721008301e-01 1.986775547266006470e-01
1.680000000000000000e+02 3.522108078002929688e+01 3.433415222167968750e+01 -1.106968522071838379e+00 -2.167996764183044434e-02 -3.385945260524749756e-01 1.568804532289505005e-01
1.690000000000000000e+02 3.507709503173828125e+01 3.360829162597656250e+01 -1.015101075172424316e+00 2.455807849764823914e-02 -2.971629202365875244e-01 2.637127228081226349e-02
1.700000000000000000e+02 3.742828750610351562e+01 3.389342117309570312e+01 -1.498851180076599121e+00 -3.055912069976329803e-02 -4.588230848312377930e-01 2.166880369186401367e-01
1.710000000000000000e+02 3.802332687377929688e+01 3.303014373779296875e+01 -1.421226978302001953e+00 1.491663698107004166e-02 -4.218931198120117188e-01 8.470637351274490356e-02
1.720000000000000000e+02 3.728625106811523438e+01 3.316717147827148438e+01 -1.316560864448547363e+00 1.194311864674091339e-02 -3.913853168487548828e-01 6.706826388835906982e-02
1.730000000000000000e+02 3.890202331542968750e+01 3.361664962768554688e+01 -1.751767754554748535e+00 -3.541290387511253357e-02 -5.361542105674743652e-01 2.598492801189422607e-01
1.740000000000000000e+02 3.963956451416015625e+01 3.347409820556640625e+01 -1.878522872924804688e+00 -4.083867743611335754e-02 -5.758084654808044434e-01 2.838920950889587402e-01
1.750000000000000000e+02 3.949879837036132812e+01 3.274760437011718750e+01 -1.619041204452514648e+00 1.570054888725280762e-02 -4.810021817684173584e-01 1.182569190859794617e-01
1.760000000000000000e+02 3.876083374023437500e+01 3.289023590087890625e+01 -1.519597649574279785e+00 1.274189911782741547e-02 -4.520567357540130615e-01 1.003015711903572083e-01
1.770000000000000000e+02 3.816493988037109375e+01 3.375647735595703125e+01 -1.623240828514099121e+00 -3.354290127754211426e-02 -4.970351457595825195e-01 2.365787625312805176e-01
1.780000000000000000e+02 4.037628555297851562e+01 3.333070373535156250e+01 -2.014637947082519531e+00 -4.295654594898223877e-02 -6.172783970832824707e-01 3.128689825534820557e-01
1.790000000000000000e+02 4.171068954467773438e+01 3.231314468383789062e+01 -1.898412227630615234e+00 -6.859475979581475258e-04 -5.697294473648071289e-01 1.629081815481185913e-01
1.800000000000000000e+02 4.023619079589843750e+01 3.260407638549804688e+01 -1.716431856155395508e+00 1.094529870897531509e-02 -5.116459727287292480e-01 1.331569850444793701e-01
1.810000000000000000e+02 4.244785308837890625e+01 3.216765213012695312e+01 -1.965978860855102539e+00 -7.282235659658908844e-03 -5.919783115386962891e-01 1.747193485498428345e-01
1.820000000000000000e+02 4.184893417358398438e+01 3.304013442993164062e+01 -2.315126657485961914e+00 -5.557892099022865295e-02 -7.112116813659667969e-01 3.674041628837585449e-01
1.830000000000000000e+02 4.258517456054687500e+01 3.289482498168945312e+01 -2.482062578201293945e+00 -6.787768751382827759e-02 -7.649820446968078613e-01 3.873784840106964111e-01
1.840000000000000000e+02 4.111263656616210938e+01 3.318542480468750000e+01 -2.163375139236450195e+00 -5.379626154899597168e-02 -6.651513576507568359e-01 3.405387699604034424e-01
1.850000000000000000e+02 4.097346878051757812e+01 3.245861816406250000e+01 -1.807645320892333984e+00 9.540064260363578796e-03 -5.394315719604492188e-01 1.492391824722290039e-01
1.860000000000000000e+02 4.332307434082031250e+01 3.275568008422851562e+01 -2.631110191345214844e+00 -6.513902544975280762e-02 -8.088747859001159668e-01 3.987851142883300781e-01
1.870000000000000000e+02 4.318753814697265625e+01 3.202817916870117188e+01 -2.022528648376464844e+00 -1.573241315782070160e-02 -6.114783287048339844e-01 1.966278702020645142e-01
1.880000000000000000e+02 4.392967605590820312e+01 3.189475250244140625e+01 -2.067169904708862305e+00 -1.223084703087806702e-02 -6.238202452659606934e-01 2.144352793693542480e-01
1.890000000000000000e+02 4.480221557617187500e+01 3.249026870727539062e+01 -2.884377479553222656e+00 -6.098300591111183167e-02 -8.836081027984619141e-01 4.359234869480133057e-01
1.900000000000000000e+02 4.541445922851562500e+01 3.162938690185546875e+01 -2.050330400466918945e+00 -3.556597605347633362e-02 -6.257689595222473145e-01 2.351707965135574341e-01
1.910000000000000000e+02 4.554204177856445312e+01 3.235831069946289062e+01 -3.021339178085327148e+00 -7.617563754320144653e-02 -9.292544722557067871e-01 4.501765072345733643e-01
1.920000000000000000e+02 4.406255722045898438e+01 3.262272644042968750e+01 -2.755990982055664062e+00 -6.310050934553146362e-02 -8.457274436950683594e-01 4.122833907604217529e-01
1.930000000000000000e+02 4.467198181152343750e+01 3.176181983947753906e+01 -2.075833320617675781e+00 -3.868804313242435455e-03 -6.239106059074401855e-01 2.317393720149993896e-01
1.940000000000000000e+02 4.630327987670898438e+01 3.222752380371093750e+01 -3.164903402328491211e+00 -8.022804558277130127e-02 -9.735394120216369629e-01 4.418618977069854736e-01
1.950000000000000000e+02 4.828371810913085938e+01 3.170669746398925781e+01 -2.473387718200683594e+00 -1.207058504223823547e-01 -7.782280445098876953e-01 4.347459375858306885e-01
1.960000000000000000e+02 4.863233947753906250e+01 3.127039718627929688e+01 -9.167208671569824219e-01 -1.687054149806499481e-02 -2.800774276256561279e-01 6.779705286026000977e-01
1.970000000000000000e+02 4.614155960083007812e+01 3.150429153442382812e+01 -1.893778800964355469e+00 -2.074514515697956085e-02 -5.743571519851684570e-01 2.894326746463775635e-01
1.980000000000000000e+02 4.845009231567382812e+01 3.086284828186035156e+01 3.112348616123199463e-01 9.943273663520812988e-02 1.232002750039100647e-01 9.602502584457397461e-01
1.990000000000000000e+02 4.721173095703125000e+01 3.160469436645507812e+01 -2.130520582199096680e+00 -3.260396420955657959e-02 -6.489374041557312012e-01 3.807922005653381348e-01
2.000000000000000000e+02 4.707677841186523438e+01 3.215875625610351562e+01 -3.330543994903564453e+00 -6.687637418508529663e-02 -1.019226074218750000e+00 4.371317028999328613e-01
2.010000000000000000e+02 4.866945648193359375e+01 3.145820236206054688e+01 -1.584018468856811523e+00 -4.715228453278541565e-02 -4.893512427806854248e-01 4.859565496444702148e-01
2.020000000000000000e+02 4.779188537597656250e+01 3.212151336669921875e+01 -3.569947957992553711e+00 -3.641785308718681335e-02 -1.081909775733947754e+00 5.053791999816894531e-01
2.030000000000000000e+02 4.868737030029296875e+01 3.187640380859375000e+01 -3.029861927032470703e+00 9.532416611909866333e-02 -8.803613185882568359e-01 3.855933248996734619e-01
2.040000000000000000e+02 4.810362625122070312e+01 3.129971504211425781e+01 -1.256095170974731445e+00 -3.002437204122543335e-02 -3.858358561992645264e-01 5.195145606994628906e-01
2.050000000000000000e+02 4.830638504028320312e+01 3.199622726440429688e+01 -3.502874612808227539e+00 -1.853299885988235474e-01 -1.106461405754089355e+00 5.226366519927978516e-01
2.060000000000000000e+02 4.866656494140625000e+01 3.166816520690917969e+01 -2.407407999038696289e+00 -4.124176874756813049e-02 -7.345949411392211914e-01 4.539620578289031982e-01
2.070000000000000000e+02 4.863496398925781250e+01 3.209997558593750000e+01 -3.989842414855957031e+00 -5.159935913980007172e-03 -1.198500752449035645e+00 5.641897916793823242e-01
2.080000000000000000e+02 4.853822708129882812e+01 3.108045959472656250e+01 -1.458027809858322144e-01 3.406505659222602844e-02 -3.352131694555282593e-02 7.666308879852294922e-01
2.090000000000000000e+02 4.674124908447265625e+01 3.131422042846679688e+01 -1.647872209548950195e+00 -5.507896095514297485e-02 -5.108853578567504883e-01 3.155327439308166504e-01
2.100000000000000000e+02 4.728607940673828125e+01 3.115597534179687500e+01 -1.118928551673889160e+00 4.775226861238479614e-02 -3.213528692722320557e-01 3.869731128215789795e-01
2.110000000000000000e+02 4.787954330444335938e+01 3.102566719055175781e+01 -6.403544545173645020e-01 7.406323403120040894e-02 -1.698873788118362427e-01 5.674842596054077148e-01
2.120000000000000000e+02 4.782491683959960938e+01 3.167306518554687500e+01 -2.354137897491455078e+00 -1.253004558384418488e-02 -7.100003957748413086e-01 3.958161771297454834e-01
2.130000000000000000e+02 4.838955688476562500e+01 3.144139099121093750e+01 -1.661216139793395996e+00 -8.725822716951370239e-02 -5.245423316955566406e-01 4.826168715953826904e-01
2.140000000000000000e+02 4.986722946166992188e+01 3.091186332702636719e+01 2.566464900970458984e+00 6.990134716033935547e-01 9.796435236930847168e-01 2.290629148483276367e+00
2.150000000000000000e+02 5.003447723388671875e+01 3.188331985473632812e+01 -3.585251808166503906e+00 -3.005048818886280060e-02 -1.084590673446655273e+00 4.247985482215881348e-01
2.160000000000000000e+02 5.070335769653320312e+01 3.083548927307128906e+01 5.923821926116943359e+00 3.282529354095458984e+00 2.761905431747436523e+00 5.524871349334716797e+00
2.170000000000000000e+02 5.247908401489257812e+01 3.082299041748046875e+01 5.431116580963134766e+00 2.613304710388183594e+01 9.469248771667480469e+00 5.921720266342163086e-01
2.180000000000000000e+02 5.300812530517578125e+01 3.194237136840820312e+01 1.587279033660888672e+01 2.080449867248535156e+01 1.100318717956542969e+01 3.384876251220703125e+00
2.190000000000000000e+02 5.267973709106445312e+01 3.251935958862304688e+01 6.129193782806396484e+00 2.537292480468750000e+01 9.450635910034179688e+00 3.526589632034301758e+00
2.200000000000000000e+02 5.236543273925781250e+01 3.272998809814453125e+01 2.178822517395019531e+00 2.845950126647949219e+01 9.191496849060058594e+00 5.213787555694580078e-01
2.210000000000000000e+02 5.152590942382812500e+01 3.280348968505859375e+01 2.723988056182861328e+00 1.475558662414550781e+01 5.243872642517089844e+00 -8.082898139953613281e+00
2.220000000000000000e+02 5.001951980590820312e+01 3.243444442749023438e+01 -2.033945798873901367e+00 2.049254626035690308e-01 -5.487060546875000000e-01 -1.167229115962982178e-01
2.230000000000000000e+02 5.183534622192382812e+01 3.319839096069335938e+01 5.428361892700195312e-01 1.887821006774902344e+01 5.826313495635986328e+00 -5.790495395660400391e+00
2.240000000000000000e+02 5.244717407226562500e+01 3.301550292968750000e+01 6.178187727928161621e-01 2.415020751953125000e+01 7.430407524108886719e+00 -6.347547173500061035e-01
2.250000000000000000e+02 5.222335052490234375e+01 3.071658706665039062e+01 3.925802707672119141e+00 2.630501365661621094e+01 9.069244384765625000e+00 3.832325458526611328e+00
2.260000000000000000e+02 5.163851165771484375e+01 3.074802398681640625e+01 5.191137790679931641e+00 1.806540489196777344e+01 6.976963043212890625e+00 9.947566032409667969e+00
2.270000000000000000e+02 5.023332977294921875e+01 3.187784767150878906e+01 -3.550573348999023438e+00 -1.196117047220468521e-02 -1.068760395050048828e+00 4.725564122200012207e-01
2.280000000000000000e+02 4.882765960693359375e+01 3.078780364990234375e+01 9.490668773651123047e-01 4.719235002994537354e-01 4.262970983982086182e-01 1.264505147933959961e+00
2.290000000000000000e+02 4.902543258666992188e+01 3.075731849670410156e+01 1.193459033966064453e+00 3.540346324443817139e-01 4.642480909824371338e-01 1.463312506675720215e+00
2.300000000000000000e+02 5.023137283325195312e+01 3.119586372375488281e+01 2.465343952178955078e+00 5.396297574043273926e-01 9.014921188354492188e-01 2.136018514633178711e+00
2.310000000000000000e+02 5.179375076293945312e+01 3.070312500000000000e+01 4.062098979949951172e+00 2.077836418151855469e+01 7.452138900756835938e+00 8.156943321228027344e+00
2.320000000000000000e+02 5.144972610473632812e+01 3.080146598815917969e+01 6.550674915313720703e+00 1.354548454284667969e+01 6.028847694396972656e+00 1.001569461822509766e+01
2.330000000000000000e+02 5.108421325683593750e+01 3.100832176208496094e+01 7.615223407745361328e+00 5.191060543060302734e+00 3.841885089874267578e+00 7.299706459045410156e+00
2.340000000000000000e+02 5.062759399414062500e+01 3.132223510742187500e+01 3.447932958602905273e+00 6.309363245964050293e-01 1.223660826683044434e+00 2.458064556121826172e+00
2.350000000000000000e+02 5.046847534179687500e+01 3.105185508728027344e+01 4.217410087585449219e+00 1.324088573455810547e+00 1.662449598312377930e+00 3.367074728012084961e+00
2.360000000000000000e+02 5.081762313842773438e+01 3.181802940368652344e+01 -3.061808824539184570e+00 -1.677218675613403320e-01 -9.688591957092285156e-01 4.410853683948516846e-01
2.370000000000000000e+02 4.924720382690429688e+01 3.354568481445312500e+01 -3.390257954597473145e-01 1.267955422401428223e+00 2.786788940429687500e-01 -1.105293154716491699e+00
2.380000000000000000e+02 4.964478302001953125e+01 3.348720169067382812e+01 6.067540049552917480e-01 1.997574687004089355e+00 7.812985777854919434e-01 -2.174609422683715820e+00
2.390000000000000000e+02 5.132239151000976562e+01 3.273567199707031250e+01 3.664533615112304688e+00 9.514972686767578125e+00 3.953851938247680664e+00 -7.400309562683105469e+00
2.400000000000000000e+02 4.905318832397460938e+01 3.228787612915039062e+01 -4.308785438537597656e+00 -2.606973946094512939e-01 -1.370844841003417969e+00 5.756850242614746094e-01
2.410000000000000000e+02 4.924570083618164062e+01 3.225263214111328125e+01 -4.281037330627441406e+00 2.481715986505150795e-03 -1.283566594123840332e+00 6.821397542953491211e-01
2.420000000000000000e+02 4.921952056884765625e+01 3.333504867553710938e+01 -4.402699172496795654e-01 9.249619841575622559e-01 1.454076170921325684e-01 -7.523181438446044922e-01
2.430000000000000000e+02 5.023484420776367188e+01 3.240399551391601562e+01 -1.578670620918273926e+00 2.950882911682128906e-01 -3.850747048854827881e-01 -3.319264650344848633e-01
2.440000000000000000e+02 5.039305114746093750e+01 3.316870498657226562e+01 1.635609388351440430e+00 3.001856565475463867e+00 1.391239762306213379e+00 -3.207512378692626953e+00
2.450000000000000000e+02 5.114310073852539062e+01 3.260525512695312500e+01 3.763237237930297852e+00 5.925756454467773438e+00 2.906697988510131836e+00 -6.067690372467041016e+00
2.460000000000000000e+02 5.090847015380859375e+01 3.223937606811523438e+01 6.357560753822326660e-01 9.898679256439208984e-01 4.876872003078460693e-01 -1.602223038673400879e+00
2.470000000000000000e+02 5.084453582763671875e+01 3.203728485107421875e+01 -2.900609016418457031e+00 -1.527089476585388184e-01 -9.159953594207763672e-01 2.766476273536682129e-01
2.480000000000000000e+02 5.263751983642578125e+01 3.268936157226562500e+01 4.564148902893066406e+00 2.555422973632812500e+01 9.035513877868652344e+00 2.613076925277709961e+00
2.490000000000000000e+02 5.172120285034179688e+01 3.284212493896484375e+01 1.840215086936950684e+00 1.854649353027343750e+01 6.116012573242187500e+00 -7.499017715454101562e+00
2.500000000000000000e+02 5.044830322265625000e+01 3.167516136169433594e+01 -1.383849024772644043e+00 -1.644652709364891052e-02 -4.200886785984039307e-01 6.639601588249206543e-01
2.510000000000000000e+02 5.052371215820312500e+01 3.150937080383300781e+01 1.104415655136108398e+00 3.059298917651176453e-02 3.405026197433471680e-01 1.142738461494445801e+00
2.520000000000000000e+02 5.126474761962890625e+01 3.088905334472656250e+01 7.524950504302978516e+00 9.266709327697753906e+00 5.037497997283935547e+00 9.379473686218261719e+00
2.530000000000000000e+02 5.196449661254882812e+01 3.068027114868164062e+01 3.618041992187500000e+00 2.362730216979980469e+01 8.173603057861328125e+00 6.392598152160644531e+00
2.540000000000000000e+02 4.982386016845703125e+01 3.188276290893554688e+01 -3.606611251831054688e+00 -1.249182522296905518e-01 -1.119458794593811035e+00 4.622604846954345703e-01
2.550000000000000000e+02 4.927135086059570312e+01 3.126156044006347656e+01 -1.155800893902778625e-01 1.083542704582214355e-01 -2.167745260521769524e-03 9.166060686111450195e-01
2.560000000000000000e+02 4.921187973022460938e+01 3.201810455322265625e+01 -3.968669414520263672e+00 -8.400637656450271606e-03 -1.193121075630187988e+00 5.227157473564147949e-01
2.570000000000000000e+02 4.940509033203125000e+01 3.197630310058593750e+01 -3.813628196716308594e+00 -5.653772130608558655e-02 -1.161049842834472656e+00 5.738890171051025391e-01
2.580000000000000000e+02 4.901630783081054688e+01 3.204554367065429688e+01 -4.114625930786132812e+00 -2.850267887115478516e-01 -1.319895863533020020e+00 6.227008104324340820e-01
2.590000000000000000e+02 5.308544540405273438e+01 3.172229385375976562e+01 1.314687728881835938e+01 2.020614433288574219e+01 1.000590705871582031e+01 1.628333330154418945e+00
2.600000000000000000e+02 5.204267501831054688e+01 3.294366073608398438e+01 5.886903405189514160e-01 2.281405258178710938e+01 7.020822525024414062e+00 -3.924519062042236328e+00
2.610000000000000000e+02 5.163312911987304688e+01 3.322121810913085938e+01 1.128624796867370605e+00 1.559345817565917969e+01 5.016624927520751953e+00 -6.282348155975341797e+00
2.620000000000000000e+02 5.022914123535156250e+01 3.340762710571289062e+01 1.557138204574584961e+00 2.961660146713256836e+00 1.355639457702636719e+00 -3.104966878890991211e+00
2.630000000000000000e+02 5.252944564819335938e+01 3.262566375732421875e+01 4.030245780944824219e+00 2.763246345520019531e+01 9.498812675476074219e+00 2.297348737716674805e+00
2.640000000000000000e+02 5.302381515502929688e+01 3.216347885131835938e+01 1.184019851684570312e+01 2.124911117553710938e+01 9.926793098449707031e+00 3.393645286560058594e+00
2.650000000000000000e+02 5.220731735229492188e+01 3.282500076293945312e+01 1.478728652000427246e+00 2.606055831909179688e+01 8.261785507202148438e+00 -1.876484870910644531e+00
2.660000000000000000e+02 5.046386718750000000e+01 3.237504196166992188e+01 -7.915387749671936035e-01 5.419844388961791992e-01 -7.486630231142044067e-02 -8.268447518348693848e-01
2.670000000000000000e+02 5.062247467041015625e+01 3.334740066528320312e+01 1.832054853439331055e+00 5.069124221801757812e+00 2.070353746414184570e+00 -4.299510955810546875e+00
2.680000000000000000e+02 5.214040374755859375e+01 3.046402359008789062e+01 2.928501129150390625e+00 2.247618865966796875e+01 7.621407032012939453e+00 5.337985038757324219e+00
2.690000000000000000e+02 5.273150253295898438e+01 3.094208145141601562e+01 7.396464824676513672e+00 2.396656990051269531e+01 9.408910751342773438e+00 -1.201316595077514648e+00
2.700000000000000000e+02 5.026173400878906250e+01 3.083411026000976562e+01 4.054799079895019531e+00 1.528754591941833496e+00 1.675066113471984863e+00 3.527369260787963867e+00
2.710000000000000000e+02 5.081783294677734375e+01 3.161014556884765625e+01 1.048020124435424805e+00 3.766452148556709290e-02 3.257053792476654053e-01 1.116996288299560547e+00
2.720000000000000000e+02 5.046986007690429688e+01 3.082975578308105469e+01 4.897966861724853516e+00 2.083966970443725586e+00 2.094580173492431641e+00 4.246665000915527344e+00
2.730000000000000000e+02 5.136163330078125000e+01 3.065355110168457031e+01 5.894856452941894531e+00 1.220045471191406250e+01 5.428593635559082031e+00 9.320611000061035156e+00
2.740000000000000000e+02 5.093787002563476562e+01 3.079487228393554688e+01 6.534101009368896484e+00 5.202334403991699219e+00 3.520930767059326172e+00 7.108246326446533203e+00
2.750000000000000000e+02 5.305702590942382812e+01 3.151436614990234375e+01 1.231802845001220703e+01 2.062480926513671875e+01 9.882851600646972656e+00 -7.098822593688964844e-01
2.760000000000000000e+02 5.292347335815429688e+01 3.132307815551757812e+01 1.404950332641601562e+01 2.239379310607910156e+01 1.093298912048339844e+01 -2.660834789276123047e+00
2.770000000000000000e+02 5.149739837646484375e+01 3.044821548461914062e+01 4.376492500305175781e+00 1.500592708587646484e+01 5.814725875854492188e+00 8.884386062622070312e+00
2.780000000000000000e+02 5.022924041748046875e+01 3.061118316650390625e+01 4.321240901947021484e+00 2.113462924957275391e+00 1.930411219596862793e+00 4.149454116821289062e+00
2.790000000000000000e+02 5.265583419799804688e+01 3.066950988769531250e+01 5.599475860595703125e+00 2.363397407531738281e+01 8.770034790039062500e+00 -4.961035251617431641e-01
2.800000000000000000e+02 4.984003067016601562e+01 3.345788574218750000e+01 9.744033217430114746e-01 2.014094591140747070e+00 8.965493440628051758e-01 -2.337343215942382812e+00
2.810000000000000000e+02 5.122970962524414062e+01 3.324886322021484375e+01 2.049232482910156250e+00 9.951371192932128906e+00 3.600180864334106445e+00 -6.406184196472167969e+00
2.820000000000000000e+02 5.102553939819335938e+01 3.327378845214843750e+01 2.111363410949707031e+00 8.265142440795898438e+00 3.112951517105102539e+00 -5.993314743041992188e+00
2.830000000000000000e+02 4.944742202758789062e+01 3.351663208007812500e+01 8.004214614629745483e-03 1.643003106117248535e+00 4.953022003173828125e-01 -1.496227264404296875e+00
2.840000000000000000e+02 4.981647872924804688e+01 3.322426986694335938e+01 5.477907061576843262e-01 1.663695812225341797e+00 6.634459495544433594e-01 -1.893504977226257324e+00
2.850000000000000000e+02 5.143231201171875000e+01 3.323501205444335938e+01 1.554876685142517090e+00 1.273144721984863281e+01 4.285897254943847656e+00 -6.572316169738769531e+00
2.860000000000000000e+02 5.042466735839843750e+01 3.338031387329101562e+01 1.645739793777465820e+00 3.872417688369750977e+00 1.655447244644165039e+00 -3.641284704208374023e+00
2.870000000000000000e+02 5.002680969238281250e+01 3.217642974853515625e+01 -3.911354303359985352e+00 -2.382825314998626709e-02 -1.180554747581481934e+00 4.760259389877319336e-01
2.880000000000000000e+02 5.043727111816406250e+01 3.211998367309570312e+01 -3.464722394943237305e+00 -5.490336194634437561e-02 -1.055887699127197266e+00 3.539800345897674561e-01
2.890000000000000000e+02 4.914477157592773438e+01 3.269259643554687500e+01 -2.342387914657592773e+00 8.088403940200805664e-02 -6.784511208534240723e-01 2.455883920192718506e-01
2.900000000000000000e+02 5.020362091064453125e+01 3.318917465209960938e+01 1.192217230796813965e+00 2.450573682785034180e+00 1.092837333679199219e+00 -2.785741567611694336e+00
2.910000000000000000e+02 4.962873458862304688e+01 3.221510696411132812e+01 -4.174026489257812500e+00 -5.142589658498764038e-02 -1.267635703086853027e+00 5.649725794792175293e-01
2.920000000000000000e+02 5.100867843627929688e+01 3.242631530761718750e+01 2.786444664001464844e+00 2.316981315612792969e+00 1.531027793884277344e+00 -3.617068290710449219e+00
2.930000000000000000e+02 5.069672775268554688e+01 3.232300567626953125e+01 -3.543974459171295166e-02 5.815860629081726074e-01 1.638438850641250610e-01 -1.186714649200439453e+00
2.940000000000000000e+02 4.886282348632812500e+01 3.099353599548339844e+01 3.461966216564178467e-01 2.363244891166687012e-01 1.747563332319259644e-01 1.080661892890930176e+00
2.950000000000000000e+02 4.917104721069335938e+01 3.164403724670410156e+01 -2.167465925216674805e+00 -1.122579872608184814e-01 -6.839171648025512695e-01 4.420343339443206787e-01
2.960000000000000000e+02 4.896166992187500000e+01 3.163442230224609375e+01 -2.078296661376953125e+00 3.211972070857882500e-03 -6.225253939628601074e-01 3.210353851318359375e-01
2.970000000000000000e+02 5.105493545532226562e+01 3.050183296203613281e+01 5.664052963256835938e+00 7.953627109527587891e+00 4.085304260253906250e+00 7.981624126434326172e+00
2.980000000000000000e+02 5.126526641845703125e+01 3.046651077270507812e+01 5.118711471557617188e+00 1.104153156280517578e+01 4.848072528839111328e+00 8.448554039001464844e+00
2.990000000000000000e+02 5.002838897705078125e+01 3.063806724548339844e+01 3.694887638092041016e+00 1.590436816215515137e+00 1.585597276687622070e+00 3.464198589324951172e+00
3.000000000000000000e+02 4.962604522705078125e+01 3.069639778137207031e+01 2.586419820785522461e+00 8.262127637863159180e-01 1.023789763450622559e+00 2.404194593429565430e+00
3.010000000000000000e+02 4.965326309204101562e+01 3.093789100646972656e+01 1.881057262420654297e+00 4.003517031669616699e-01 6.844226717948913574e-01 1.860735535621643066e+00
3.020000000000000000e+02 5.014523696899414062e+01 3.138613700866699219e+01 9.790244102478027344e-01 6.092400103807449341e-02 3.119845092296600342e-01 1.257835745811462402e+00
3.030000000000000000e+02 4.908699798583984375e+01 3.248944091796875000e+01 -3.351026058197021484e+00 -1.320587843656539917e-01 -1.044925451278686523e+00 4.788558483123779297e-01
3.040000000000000000e+02 4.926691055297851562e+01 3.243324661254882812e+01 -3.442152976989746094e+00 -5.237722396850585938e-02 -1.048359036445617676e+00 4.299584031105041504e-01
3.050000000000000000e+02 4.919428253173828125e+01 3.312415695190429688e+01 -8.389028310775756836e-01 5.041651129722595215e-01 -1.004213169217109680e-01 -4.846939146518707275e-01
3.060000000000000000e+02 4.942496871948242188e+01 3.330337142944335938e+01 -1.847989708185195923e-01 1.046009659767150879e+00 2.583631873130798340e-01 -1.085738778114318848e+00
3.070000000000000000e+02 4.913172531127929688e+01 3.111423683166503906e+01 2.199922800064086914e-01 1.614879965782165527e-01 1.144440844655036926e-01 1.069803118705749512e+00
3.080000000000000000e+02 5.124220275878906250e+01 3.297942733764648438e+01 2.765850067138671875e+00 9.592075347900390625e+00 3.707377672195434570e+00 -6.823794841766357422e+00
3.090000000000000000e+02 5.290583419799804688e+01 3.237765121459960938e+01 9.294093132019042969e+00 2.291003417968750000e+01 9.661237716674804688e+00 4.504905700683593750e+00
3.100000000000000000e+02 5.288734436035156250e+01 3.268119049072265625e+01 6.397429943084716797e+00 2.278770637512207031e+01 8.755540847778320312e+00 3.755127429962158203e+00
3.110000000000000000e+02 4.943648529052734375e+01 3.222843170166015625e+01 -4.279118061065673828e+00 -1.029340103268623352e-01 -1.314615607261657715e+00 5.816262960433959961e-01
3.120000000000000000e+02 4.980601882934570312e+01 3.245141220092773438e+01 -2.457554340362548828e+00 1.373752653598785400e-01 -6.960537433624267578e-01 1.028487235307693481e-01
3.130000000000000000e+02 4.980123901367187500e+01 3.125761604309082031e+01 8.318799138069152832e-01 1.707854121923446655e-01 3.007996082305908203e-01 1.315377354621887207e+00
3.140000000000000000e+02 4.960734558105468750e+01 3.191504287719726562e+01 -3.670166254043579102e+00 -1.179042458534240723e-01 -1.136421203613281250e+00 5.318626761436462402e-01
3.150000000000000000e+02 5.094557952880859375e+01 3.118191909790039062e+01 6.779816150665283203e+00 2.451249599456787109e+00 2.769319772720336914e+00 5.289502620697021484e+00
3.160000000000000000e+02 4.922876739501953125e+01 3.094381141662597656e+01 9.934651255607604980e-01 2.692605555057525635e-01 3.788177073001861572e-01 1.373181223869323730e+00
3.170000000000000000e+02 4.891490554809570312e+01 3.120121002197265625e+01 -2.884996235370635986e-01 6.413721293210983276e-02 -6.730872392654418945e-02 7.840272784233093262e-01
3.180000000000000000e+02 4.932683563232421875e+01 3.175671386718750000e+01 -2.783319473266601562e+00 4.060877114534378052e-02 -8.228132128715515137e-01 4.791337549686431885e-01
3.190000000000000000e+02 5.011449813842773438e+01 3.106709480285644531e+01 2.715923786163330078e+00 6.659771800041198730e-01 1.014570355415344238e+00 2.298818349838256836e+00
3.200000000000000000e+02 5.058692932128906250e+01 3.312603759765625000e+01 2.002746105194091797e+00 3.922667741775512695e+00 1.777624130249023438e+00 -3.939767837524414062e+00
3.210000000000000000e+02 5.020351028442382812e+01 3.297416687011718750e+01 9.067236185073852539e-01 1.684644460678100586e+00 7.774104475975036621e-01 -2.143308639526367188e+00
3.220000000000000000e+02 5.001660537719726562e+01 3.269214630126953125e+01 -5.431360006332397461e-01 6.709838509559631348e-01 3.835434466600418091e-02 -8.770449161529541016e-01
3.230000000000000000e+02 5.072482299804687500e+01 3.285280227661132812e+01 2.248148918151855469e+00 3.534730672836303711e+00 1.734863877296447754e+00 -4.000470161437988281e+00
3.240000000000000000e+02 4.922187042236328125e+01 3.073543548583984375e+01 1.613277196884155273e+00 5.059843063354492188e-01 6.357784271240234375e-01 1.692149758338928223e+00
3.250000000000000000e+02 4.954161071777343750e+01 3.131818771362304688e+01 -2.328731566667556763e-01 1.468897983431816101e-02 -6.545525044202804565e-02 9.402948617935180664e-01
3.260000000000000000e+02 4.950553131103515625e+01 3.164361953735351562e+01 -1.939352273941040039e+00 -9.370973706245422363e-02 -6.099185943603515625e-01 4.617822170257568359e-01
3.270000000000000000e+02 4.994134902954101562e+01 3.113339042663574219e+01 1.827050447463989258e+00 3.573806285858154297e-01 6.553293466567993164e-01 1.790730953216552734e+00
3.280000000000000000e+02 5.069962692260742188e+01 3.108991050720214844e+01 5.402678012847900391e+00 1.864156126976013184e+00 2.180050134658813477e+00 4.243079662322998047e+00
3.290000000000000000e+02 5.100886154174804688e+01 3.299974822998046875e+01 2.823171138763427734e+00 6.710153102874755859e+00 2.859997272491455078e+00 -5.902223587036132812e+00
3.300000000000000000e+02 5.001120376586914062e+01 3.295184326171875000e+01 3.317606449127197266e-01 1.272952914237976074e+00 4.814140498638153076e-01 -1.659923553466796875e+00
3.310000000000000000e+02 5.045980834960937500e+01 3.259351730346679688e+01 6.933664083480834961e-01 1.103309631347656250e+00 5.390028357505798340e-01 -1.692800045013427734e+00
3.320000000000000000e+02 5.030331802368164062e+01 3.282703018188476562e+01 8.648360967636108398e-01 1.574976801872253418e+00 7.319439053535461426e-01 -2.146374464035034180e+00
3.330000000000000000e+02 5.047668838500976562e+01 3.276257705688476562e+01 1.118550419807434082e+00 2.062880992889404297e+00 9.544293880462646484e-01 -2.543333530426025391e+00
3.340000000000000000e+02 4.942195892333984375e+01 3.071820640563964844e+01 2.098673820495605469e+00 6.526579260826110840e-01 8.253995180130004883e-01 2.018838644027709961e+00
3.350000000000000000e+02 4.905277252197265625e+01 3.094835281372070312e+01 7.297018766403198242e-01 2.905812263488769531e-01 3.060849308967590332e-01 1.235635995864868164e+00
3.360000000000000000e+02 4.919010925292968750e+01 3.144488334655761719e+01 -1.043863058090209961e+00 4.282717034220695496e-02 -3.003107905387878418e-01 6.253214478492736816e-01
3.370000000000000000e+02 4.895144271850585938e+01 3.141908454895019531e+01 -1.334355592727661133e+00 -1.114800944924354553e-02 -4.036510586738586426e-01 6.181727051734924316e-01
3.380000000000000000e+02 4.916840744018554688e+01 3.182205200195312500e+01 -3.157505273818969727e+00 -1.096271201968193054e-01 -9.801396727561950684e-01 5.502085089683532715e-01
3.390000000000000000e+02 4.898340988159179688e+01 3.183919906616210938e+01 -3.097308635711669922e+00 -2.222900837659835815e-01 -9.958796501159667969e-01 4.366194605827331543e-01
3.400000000000000000e+02 4.987244796752929688e+01 3.158464241027832031e+01 -1.154533982276916504e+00 -7.486487179994583130e-02 -3.688196539878845215e-01 6.681906580924987793e-01
3.410000000000000000e+02 4.942966842651367188e+01 3.095093345642089844e+01 1.264039516448974609e+00 3.732114732265472412e-01 4.911753237247467041e-01 1.520110964775085449e+00
3.420000000000000000e+02 4.945331954956054688e+01 3.115953063964843750e+01 5.892999768257141113e-01 1.690908819437026978e-01 2.275172472000122070e-01 1.219525933265686035e+00
3.430000000000000000e+02 4.982841110229492188e+01 3.066919517517089844e+01 3.010494947433471680e+00 1.128916144371032715e+00 1.241823315620422363e+00 2.858829498291015625e+00
3.440000000000000000e+02 5.043371963500976562e+01 3.059061241149902344e+01 5.047023773193359375e+00 2.990540266036987305e+00 2.411269187927246094e+00 5.060864448547363281e+00
3.450000000000000000e+02 5.064240646362304688e+01 3.057089614868164062e+01 5.524485111236572266e+00 4.434405803680419922e+00 2.987667322158813477e+00 6.059450626373291016e+00
3.460000000000000000e+02 5.084988784790039062e+01 3.054108428955078125e+01 5.801993846893310547e+00 6.035846710205078125e+00 3.551352262496948242e+00 6.980479240417480469e+00
3.470000000000000000e+02 5.115043640136718750e+01 3.071414375305175781e+01 6.711915969848632812e+00 8.359080314636230469e+00 4.521298885345458984e+00 8.489903450012207031e+00
3.480000000000000000e+02 5.173314285278320312e+01 3.043505668640136719e+01 3.617727279663085938e+00 1.765282249450683594e+01 6.381164550781250000e+00 7.777408123016357422e+00
3.490000000000000000e+02 5.042918777465820312e+01 3.186743927001953125e+01 -3.434868335723876953e+00 -1.048265844583511353e-01 -1.061908483505249023e+00 4.777646362781524658e-01
3.500000000000000000e+02 5.026964187622070312e+01 3.165134620666503906e+01 -1.358780384063720703e+00 -3.893830813467502594e-03 -4.088022708892822266e-01 5.765489339828491211e-01
3.510000000000000000e+02 5.062360382080078125e+01 3.184458541870117188e+01 -3.250409126281738281e+00 9.172269143164157867e-03 -9.723710417747497559e-01 4.859230518341064453e-01
3.520000000000000000e+02 5.061994171142578125e+01 3.164659118652343750e+01 -3.102973997592926025e-01 2.185987774282693863e-03 -9.243342280387878418e-02 8.253011107444763184e-01
3.530000000000000000e+02 4.918285369873046875e+01 3.290625381469726562e+01 -1.562840938568115234e+00 2.604543566703796387e-01 -3.907159864902496338e-01 -1.236188411712646484e-01
3.540000000000000000e+02 4.978064346313476562e+01 3.297402954101562500e+01 -2.556432783603668213e-01 9.051684737205505371e-01 1.948575675487518311e-01 -1.068263292312622070e+00
3.550000000000000000e+02 4.939954757690429688e+01 3.310201263427734375e+01 -6.730740070343017578e-01 7.544661164283752441e-01 2.441762946546077728e-02 -7.220754623413085938e-01
3.560000000000000000e+02 4.962147521972656250e+01 3.326451873779296875e+01 1.055873334407806396e-01 1.259698152542114258e+00 4.095856547355651855e-01 -1.389860391616821289e+00
3.570000000000000000e+02 4.957738113403320312e+01 3.304397964477539062e+01 -4.743390083312988281e-01 7.988165616989135742e-01 9.734327346086502075e-02 -9.169544577598571777e-01
3.580000000000000000e+02 4.960148620605468750e+01 3.244495391845703125e+01 -2.870436191558837891e+00 -6.882735062390565872e-03 -8.631956577301025391e-01 2.623706161975860596e-01
3.590000000000000000e+02 4.934183120727539062e+01 3.258575057983398438e+01 -2.559203863143920898e+00 3.901319205760955811e-02 -7.560572028160095215e-01 1.778357177972793579e-01
3.600000000000000000e+02 5.003482818603515625e+01 3.343175506591796875e+01 1.321255207061767578e+00 2.660188436508178711e+00 1.194433093070983887e+00 -2.766596317291259766e+00
3.610000000000000000e+02 5.082242202758789062e+01 3.331032943725585938e+01 2.138685226440429688e+00 6.414220333099365234e+00 2.565871715545654297e+00 -5.289508342742919922e+00
3.620000000000000000e+02 5.146229171752929688e+01 3.300454711914062500e+01 2.373330593109130859e+00 1.312189388275146484e+01 4.648567676544189453e+00 -7.343945026397705078e+00
3.630000000000000000e+02 5.190319824218750000e+01 3.285378265380859375e+01 1.020488381385803223e+00 2.280616950988769531e+01 7.147997379302978516e+00 -5.779483318328857422e+00
3.640000000000000000e+02 5.205538940429687500e+01 3.315506362915039062e+01 5.739420056343078613e-01 2.076982498168945312e+01 6.403130054473876953e+00 -4.069026947021484375e+00
3.650000000000000000e+02 4.982572937011718750e+01 3.219903564453125000e+01 -4.058484077453613281e+00 -6.268192082643508911e-02 -1.236349821090698242e+00 5.259416699409484863e-01
3.660000000000000000e+02 4.977468490600585938e+01 3.271148300170898438e+01 -1.131179332733154297e+00 4.466495215892791748e-01 -2.053589373826980591e-01 -5.186726450920104980e-01
3.670000000000000000e+02 5.064358520507812500e+01 3.208293151855468750e+01 -3.199776649475097656e+00 4.285975545644760132e-02 -9.470750689506530762e-01 3.015027344226837158e-01
3.680000000000000000e+02 5.023056030273437500e+01 3.214958572387695312e+01 -3.708388090133666992e+00 -3.697483567520976067e-03 -1.113625645637512207e+00 3.986888825893402100e-01
3.690000000000000000e+02 5.093453979492187500e+01 3.275372314453125000e+01 2.980240106582641602e+00 4.599163532257080078e+00 2.273821115493774414e+00 -4.884574890136718750e+00
3.700000000000000000e+02 5.287947845458984375e+01 3.110582542419433594e+01 1.017501354217529297e+01 2.211632347106933594e+01 9.687400817871093750e+00 -1.486431360244750977e+00
3.710000000000000000e+02 5.085839843750000000e+01 3.139498901367187500e+01 4.195233821868896484e+00 5.264666080474853516e-01 1.416510224342346191e+00 2.621365308761596680e+00
3.720000000000000000e+02 5.166582870483398438e+01 3.301842117309570312e+01 1.339914560317993164e+00 1.721429252624511719e+01 5.566262245178222656e+00 -6.874024391174316406e+00
3.730000000000000000e+02 5.185452270507812500e+01 3.301510238647460938e+01 8.041854500770568848e-01 1.927532768249511719e+01 6.023854255676269531e+00 -6.107999801635742188e+00
3.740000000000000000e+02 5.241374588012695312e+01 3.284908676147460938e+01 1.989028215408325195e+00 2.650390625000000000e+01 8.547880172729492188e+00 -4.638677090406417847e-02
3.750000000000000000e+02 5.323542404174804688e+01 3.195513725280761719e+01 1.312539005279541016e+01 1.949596405029296875e+01 9.786406517028808594e+00 2.609935522079467773e+00
3.760000000000000000e+02 5.313906097412109375e+01 3.124993705749511719e+01 1.171295738220214844e+01 2.025052833557128906e+01 9.589045524597167969e+00 -1.831923127174377441e+00
3.770000000000000000e+02 4.938542175292968750e+01 3.143194198608398438e+01 -7.714056372642517090e-01 -7.180006802082061768e-02 -2.529616951942443848e-01 7.269206643104553223e-01
3.780000000000000000e+02 4.952687454223632812e+01 3.268546295166015625e+01 -1.765413403511047363e+00 2.579683363437652588e-01 -4.522335231304168701e-01 -1.229553669691085815e-01
3.790000000000000000e+02 5.001298522949218750e+01 3.320017242431640625e+01 8.550778627395629883e-01 1.872581124305725098e+00 8.182976841926574707e-01 -2.202736139297485352e+00
3.800000000000000000e+02 5.080047225952148438e+01 3.254306793212890625e+01 2.021964788436889648e+00 2.229787588119506836e+00 1.275525689125061035e+00 -3.054250240325927734e+00
3.810000000000000000e+02 4.968545150756835938e+01 3.147395324707031250e+01 -7.480219602584838867e-01 -2.920268289744853973e-02 -2.331673949956893921e-01 7.200556397438049316e-01
3.820000000000000000e+02 5.024335479736328125e+01 3.264272308349609375e+01 -3.095795772969722748e-02 8.222034573554992676e-01 2.373736500740051270e-01 -1.248900055885314941e+00
3.830000000000000000e+02 5.078788375854492188e+01 3.306750106811523438e+01 2.339079141616821289e+00 4.918309211730957031e+00 2.177216529846191406e+00 -4.701167106628417969e+00
3.840000000000000000e+02 5.159057235717773438e+01 3.062678909301757812e+01 5.012668132781982422e+00 1.630629730224609375e+01 6.395689964294433594e+00 9.321411132812500000e+00
3.850000000000000000e+02 5.007612228393554688e+01 3.162296676635742188e+01 -1.325643897056579590e+00 -4.821940511465072632e-02 -4.121589958667755127e-01 6.768162250518798828e-01
3.860000000000000000e+02 4.995942687988281250e+01 3.134134483337402344e+01 8.528883457183837891e-01 1.564125567674636841e-01 3.027902543544769287e-01 1.235383987426757812e+00
3.870000000000000000e+02 4.963915634155273438e+01 3.115683174133300781e+01 9.286573529243469238e-01 1.815107315778732300e-01 3.330504298210144043e-01 1.374863028526306152e+00
3.880000000000000000e+02 4.943076324462890625e+01 3.290722274780273438e+01 -1.175720214843750000e+00 4.111025929450988770e-01 -2.293853014707565308e-01 -3.620172142982482910e-01
3.890000000000000000e+02 4.942575073242187500e+01 3.241833114624023438e+01 -3.208946466445922852e+00 1.003577187657356262e-01 -9.325766563415527344e-01 4.357851147651672363e-01
3.900000000000000000e+02 5.033849716186523438e+01 3.144565391540527344e+01 1.172843575477600098e+00 1.414495855569839478e-01 3.942879438400268555e-01 1.280754685401916504e+00
3.910000000000000000e+02 5.053921127319335938e+01 3.292932128906250000e+01 1.712916016578674316e+00 2.724795103073120117e+00 1.331313252449035645e+00 -3.206052303314208984e+00
3.920000000000000000e+02 5.062557601928710938e+01 3.266839599609375000e+01 1.513969421386718750e+00 1.924595713615417480e+00 1.031569480895996094e+00 -2.727332592010498047e+00
3.930000000000000000e+02 5.027791595458984375e+01 3.102994918823242188e+01 3.540653228759765625e+00 9.856097102165222168e-01 1.357878923416137695e+00 2.838680028915405273e+00
3.940000000000000000e+02 5.006569290161132812e+01 3.086228752136230469e+01 3.234596252441406250e+00 1.019518136978149414e+00 1.276234269142150879e+00 2.848429203033447266e+00
3.950000000000000000e+02 5.041786193847656250e+01 3.125367736816406250e+01 2.852113008499145508e+00 5.847751498222351074e-01 1.031066417694091797e+00 2.262734651565551758e+00
3.960000000000000000e+02 5.036659622192382812e+01 3.298124694824218750e+01 1.370071411132812500e+00 2.551740646362304688e+00 1.176543593406677246e+00 -2.847578525543212891e+00
3.970000000000000000e+02 4.889665222167968750e+01 3.298816680908203125e+01 -1.773714900016784668e+00 3.107995688915252686e-01 -4.388745725154876709e-01 1.846383325755596161e-02
3.980000000000000000e+02 4.773962020874023438e+01 3.356450653076171875e+01 -1.441722869873046875e+00 2.030476629734039307e-01 -3.716025650501251221e-01 1.923902928829193115e-01
3.990000000000000000e+02 4.837827682495117188e+01 3.313531494140625000e+01 -1.929558396339416504e+00 1.188435852527618408e-01 -5.432144403457641602e-01 1.002895087003707886e-01
4.000000000000000000e+02 4.712796783447265625e+01 3.360183715820312500e+01 -1.753475785255432129e+00 -5.617856979370117188e-02 -5.428963303565979004e-01 3.583830595016479492e-01
4.010000000000000000e+02 4.828184127807617188e+01 3.357216644287109375e+01 -8.928788304328918457e-01 3.239898681640625000e-01 -1.706666797399520874e-01 -1.555696874856948853e-01
4.020000000000000000e+02 4.896731567382812500e+01 3.337622451782226562e+01 -7.458128333091735840e-01 5.250658392906188965e-01 -6.622410565614700317e-02 -5.970639586448669434e-01
4.030000000000000000e+02 4.648628997802734375e+01 3.372718048095703125e+01 -1.862961173057556152e+00 -1.776425354182720184e-02 -5.642176270484924316e-01 4.486238360404968262e-01
4.040000000000000000e+02 4.639854049682617188e+01 3.299158096313476562e+01 -3.177630662918090820e+00 -1.591601520776748657e-01 -1.001037240028381348e+00 6.535034179687500000e-01
4.050000000000000000e+02 4.711722564697265625e+01 3.285335540771484375e+01 -3.415256977081298828e+00 -1.029171347618103027e-01 -1.055452227592468262e+00 6.934866309165954590e-01
4.060000000000000000e+02 4.797265243530273438e+01 3.302542495727539062e+01 -2.558184146881103516e+00 -3.119389712810516357e-02 -7.768134474754333496e-01 3.895394802093505859e-01
4.070000000000000000e+02 4.885083007812500000e+01 3.278740310668945312e+01 -2.393674135208129883e+00 1.956772357225418091e-01 -6.593990921974182129e-01 2.799674272537231445e-01
4.080000000000000000e+02 4.880433654785156250e+01 3.258287811279296875e+01 -3.244398832321166992e+00 1.061491072177886963e-01 -9.414749145507812500e-01 6.042858958244323730e-01
4.090000000000000000e+02 4.866204833984375000e+01 3.237831878662109375e+01 -4.003769874572753906e+00 -3.829251974821090698e-02 -1.212618708610534668e+00 7.805645465850830078e-01
4.100000000000000000e+02 4.869712829589843750e+01 3.318505477905273438e+01 -1.480862021446228027e+00 3.183432817459106445e-01 -3.487556278705596924e-01 -1.339747905731201172e-01
4.110000000000000000e+02 4.892652511596679688e+01 3.359457397460937500e+01 -4.141805171966552734e-01 8.095272183418273926e-01 1.186040118336677551e-01 -7.353648543357849121e-01
4.120000000000000000e+02 4.894901657104492188e+01 3.317573165893554688e+01 -9.811334609985351562e-01 4.889027178287506104e-01 -1.476692259311676025e-01 -3.446917533874511719e-01
4.130000000000000000e+02 4.779953384399414062e+01 3.266423034667968750e+01 -3.637439489364624023e+00 -1.540678590536117554e-01 -1.137452125549316406e+00 7.102302312850952148e-01
4.140000000000000000e+02 4.826616668701171875e+01 3.264109802246093750e+01 -3.618053674697875977e+00 -1.854425817728042603e-01 -1.141048908233642578e+00 6.599175930023193359e-01
4.150000000000000000e+02 4.854880142211914062e+01 3.279439163208007812e+01 -2.834793567657470703e+00 4.687143489718437195e-02 -8.363766670227050781e-01 3.733340501785278320e-01
4.160000000000000000e+02 4.867941284179687500e+01 3.347787475585937500e+01 -7.911341190338134766e-01 6.123836040496826172e-01 -5.362515151500701904e-02 -3.902947902679443359e-01
4.170000000000000000e+02 4.493962478637695312e+01 3.325976562500000000e+01 -2.778451919555664062e+00 -1.427081525325775146e-01 -8.763480782508850098e-01 6.047624945640563965e-01
4.180000000000000000e+02 4.567650985717773438e+01 3.312757492065429688e+01 -2.971578598022460938e+00 -9.845484793186187744e-02 -9.210100173950195312e-01 6.300463080406188965e-01
4.190000000000000000e+02 4.580409240722656250e+01 3.385649871826171875e+01 -1.880126476287841797e+00 -1.137681677937507629e-01 -5.981683731079101562e-01 5.179698467254638672e-01
4.200000000000000000e+02 4.360152053833007812e+01 3.425023269653320312e+01 -1.690495252609252930e+00 -1.436508744955062866e-01 -5.502438545227050781e-01 5.816164016723632812e-01
4.210000000000000000e+02 4.433569717407226562e+01 3.411898422241210938e+01 -1.791024327278137207e+00 -1.624129116535186768e-01 -5.860311985015869141e-01 5.901691913604736328e-01
4.220000000000000000e+02 4.346598434448242188e+01 3.352273178100585938e+01 -2.348502874374389648e+00 -1.378289610147476196e-01 -7.458995580673217773e-01 5.282087922096252441e-01
4.230000000000000000e+02 4.506985855102539062e+01 3.398821640014648438e+01 -1.854362010955810547e+00 -7.556416094303131104e-02 -5.789778828620910645e-01 5.652816295623779297e-01
4.240000000000000000e+02 4.420281219482421875e+01 3.339101028442382812e+01 -2.563124418258666992e+00 -1.040631979703903198e-01 -8.001562356948852539e-01 5.769662857055664062e-01
4.250000000000000000e+02 4.139850234985351562e+01 3.467833328247070312e+01 -1.299941778182983398e+00 -1.842971146106719971e-01 -4.452716708183288574e-01 5.212742090225219727e-01
4.260000000000000000e+02 4.199465942382812500e+01 3.380642318725585938e+01 -1.977578997611999512e+00 -1.218632757663726807e-01 -6.298326849937438965e-01 4.959136843681335449e-01
4.270000000000000000e+02 4.052394866943359375e+01 3.409660720825195312e+01 -1.565462350845336914e+00 -1.174072101712226868e-01 -5.048608779907226562e-01 4.075899124145507812e-01
4.280000000000000000e+02 4.213290405273437500e+01 3.453341293334960938e+01 -1.394407868385314941e+00 -1.061522215604782104e-01 -4.501680433750152588e-01 5.386466979980468750e-01
4.290000000000000000e+02 4.272992324829101562e+01 3.366130447387695312e+01 -2.163133382797241211e+00 -8.516862988471984863e-02 -6.744906306266784668e-01 5.098105072975158691e-01
4.300000000000000000e+02 4.286724853515625000e+01 3.438847732543945312e+01 -1.535641789436340332e+00 -1.508512943983078003e-01 -5.059479475021362305e-01 5.576874613761901855e-01
4.310000000000000000e+02 4.066404342651367188e+01 3.482323455810546875e+01 -1.197274446487426758e+00 -1.458564847707748413e-01 -4.029392898082733154e-01 4.974735081195831299e-01
4.320000000000000000e+02 4.125933456420898438e+01 3.395152664184570312e+01 -1.766982436180114746e+00 -1.047879233956336975e-01 -5.615311264991760254e-01 4.601373672485351562e-01
4.330000000000000000e+02 3.905131912231445312e+01 3.438002777099609375e+01 -1.189598560333251953e+00 -8.923224359750747681e-02 -3.836492300033569336e-01 3.165430128574371338e-01
4.340000000000000000e+02 3.845631790161132812e+01 3.524533081054687500e+01 -7.094188928604125977e-01 -1.221528202295303345e-01 -2.494715154170989990e-01 4.320041537284851074e-01
4.350000000000000000e+02 3.757802581787109375e+01 3.465816116333007812e+01 -8.212983012199401855e-01 -6.852722913026809692e-02 -2.669476568698883057e-01 2.561098635196685791e-01
4.360000000000000000e+02 3.992870712280273438e+01 3.496635818481445312e+01 -1.062669992446899414e+00 -1.693082153797149658e-01 -3.695934712886810303e-01 4.727674126625061035e-01
4.370000000000000000e+02 3.978794097900390625e+01 3.423986434936523438e+01 -1.374058842658996582e+00 -8.320309221744537354e-02 -4.371785819530487061e-01 3.608264327049255371e-01
4.380000000000000000e+02 3.772006225585937500e+01 3.538441467285156250e+01 -5.911662578582763672e-01 -1.605485230684280396e-01 -2.255144417285919189e-01 3.367479443550109863e-01
4.390000000000000000e+02 3.919250869750976562e+01 3.510644531250000000e+01 -9.101191163063049316e-01 -1.284253895282745361e-01 -3.115633428096771240e-01 4.399794936180114746e-01
4.400000000000000000e+02 3.831470489501953125e+01 3.451899719238281250e+01 -1.011384844779968262e+00 -6.113252043724060059e-02 -3.217552006244659424e-01 2.839252352714538574e-01
4.410000000000000000e+02 3.551680755615234375e+01 3.582569122314453125e+01 -3.518601357936859131e-01 -7.116430997848510742e-02 -1.269073337316513062e-01 2.295674532651901245e-01
4.420000000000000000e+02 3.610754394531250000e+01 3.495201110839843750e+01 -5.355642437934875488e-01 -3.244093433022499084e-02 -1.704015582799911499e-01 1.773813664913177490e-01
4.430000000000000000e+02 3.463803482055664062e+01 3.524788665771484375e+01 -3.460839092731475830e-01 -6.447677966207265854e-03 -1.057594716548919678e-01 1.168378293514251709e-01
4.440000000000000000e+02 3.684228134155273438e+01 3.480297470092773438e+01 -6.659840941429138184e-01 -7.434061169624328613e-02 -2.220974117517471313e-01 1.989113241434097290e-01
4.450000000000000000e+02 3.698487472534179688e+01 3.552911758422851562e+01 -4.995842576026916504e-01 -1.192535758018493652e-01 -1.856513470411300659e-01 3.015402555465698242e-01
4.460000000000000000e+02 3.478272247314453125e+01 3.597360992431640625e+01 -2.576526999473571777e-01 -1.056589931249618530e-01 -1.089935153722763062e-01 1.748012155294418335e-01
4.470000000000000000e+02 3.625083541870117188e+01 3.567801284790039062e+01 -4.337266087532043457e-01 -1.156700775027275085e-01 -1.648190021514892578e-01 2.324121594429016113e-01
4.480000000000000000e+02 3.537281799316406250e+01 3.509983062744140625e+01 -4.332610666751861572e-01 -6.890346854925155640e-02 -1.506493687629699707e-01 1.292577832937240601e-01
4.490000000000000000e+02 3.242737579345703125e+01 3.568672943115234375e+01 -1.474919617176055908e-01 -3.247969225049018860e-02 -5.399149656295776367e-02 5.043060332536697388e-02
4.500000000000000000e+02 3.169006347656250000e+01 3.583216094970703125e+01 -1.005807071924209595e-01 1.849810127168893814e-03 -2.961926907300949097e-02 4.596119746565818787e-02
4.510000000000000000e+02 3.330534362792968750e+01 3.626757049560546875e+01 -1.733817756175994873e-01 -7.365558296442031860e-02 -7.411120831966400146e-02 1.201093792915344238e-01
4.520000000000000000e+02 3.316469573974609375e+01 3.554105377197265625e+01 -1.982648670673370361e-01 -7.572715170681476593e-03 -6.175127252936363220e-02 7.208831608295440674e-02
4.530000000000000000e+02 3.390202713012695312e+01 3.539514541625976562e+01 -2.659190595149993896e-01 -5.153080448508262634e-02 -9.523496031761169434e-02 8.998421579599380493e-02
4.540000000000000000e+02 3.404560089111328125e+01 3.612108612060546875e+01 -2.131162583827972412e-01 -4.142855107784271240e-02 -7.636344432830810547e-02 1.391035020351409912e-01
4.550000000000000000e+02 3.182485580444335938e+01 3.655983352661132812e+01 -9.181035310029983521e-02 -5.043432489037513733e-02 -4.267340153455734253e-02 7.022093981504440308e-02
4.560000000000000000e+02 3.256509399414062500e+01 3.641382217407226562e+01 -1.216003522276878357e-01 -3.090670891106128693e-02 -4.575211927294731140e-02 1.011234149336814880e-01
4.570000000000000000e+02 2.946516418457031250e+01 3.621912765502929688e+01 -1.498476602137088776e-02 -2.467275038361549377e-02 -1.189725473523139954e-02 7.557280361652374268e-03
4.580000000000000000e+02 2.958438682556152344e+01 3.694947052001953125e+01 -2.221021801233291626e-02 9.150700061582028866e-04 -6.388544104993343353e-03 3.054762817919254303e-02
4.590000000000000000e+02 2.872264671325683594e+01 3.634394836425781250e+01 -1.748708426021039486e-03 1.595969870686531067e-02 4.263297189027070999e-03 8.533039130270481110e-03
4.600000000000000000e+02 3.020768547058105469e+01 3.609378433227539062e+01 -3.445973247289657593e-02 1.181286852806806564e-02 -6.794059183448553085e-03 2.219674363732337952e-02
4.610000000000000000e+02 3.095018768310546875e+01 3.596792221069335938e+01 -6.415564566850662231e-02 -2.974917739629745483e-02 -2.817144617438316345e-02 2.441425435245037079e-02
4.620000000000000000e+02 3.108069419860839844e+01 3.669636154174804688e+01 -6.196556240320205688e-02 -1.558667235076427460e-02 -2.326566912233829498e-02 6.772930175065994263e-02
4.630000000000000000e+02 2.883622932434082031e+01 3.707524490356445312e+01 -9.701544418931007385e-03 -2.937209606170654297e-02 -1.172209251672029495e-02 1.496862526983022690e-02
4.640000000000000000e+02 3.033255004882812500e+01 3.682317352294921875e+01 -3.637386113405227661e-02 -4.451020434498786926e-02 -2.426521852612495422e-02 3.789288923144340515e-02
4.650000000000000000e+02 2.647223281860351562e+01 3.666142654418945312e+01 1.529142353683710098e-02 -1.714071445167064667e-02 -5.547869950532913208e-04 -1.966921379789710045e-03
4.660000000000000000e+02 2.572040748596191406e+01 3.676027679443359375e+01 1.524740643799304962e-02 1.475196052342653275e-02 8.999810554087162018e-03 -1.838642987422645092e-03
4.670000000000000000e+02 2.731099891662597656e+01 3.729562377929687500e+01 2.595200669020414352e-03 -2.021751925349235535e-02 -5.286695435643196106e-03 4.164677578955888748e-03
4.680000000000000000e+02 2.722403526306152344e+01 3.656066131591796875e+01 1.140655763447284698e-02 1.671121641993522644e-02 8.435332216322422028e-03 2.389416331425309181e-03
4.690000000000000000e+02 2.797564125061035156e+01 3.645804595947265625e+01 6.575927138328552246e-03 -1.983342505991458893e-02 -3.977249376475811005e-03 5.063068965682759881e-05
4.700000000000000000e+02 2.807846832275390625e+01 3.719087982177734375e+01 -4.179745912551879883e-03 9.663671255111694336e-03 1.645177602767944336e-03 1.221668161451816559e-02
4.710000000000000000e+02 2.577564430236816406e+01 3.749948883056640625e+01 9.979162365198135376e-03 -1.672611385583877563e-02 -2.024085260927677155e-03 2.831425983458757401e-03
4.720000000000000000e+02 2.654333496093750000e+01 3.739851379394531250e+01 1.512400340288877487e-03 1.314086560159921646e-02 4.395979922264814377e-03 3.295067697763442993e-03
4.730000000000000000e+02 2.340743637084960938e+01 3.754123687744140625e+01 6.505862344056367874e-03 6.260340567678213120e-03 3.829860826954245567e-03 -5.633668042719364166e-03
4.740000000000000000e+02 2.266618919372558594e+01 3.679620742797851562e+01 8.962786756455898285e-03 5.668487865477800369e-03 4.389382433146238327e-03 -1.838745898567140102e-03
4.750000000000000000e+02 2.419788742065429688e+01 3.680555725097656250e+01 1.294253766536712646e-02 8.680041879415512085e-03 6.486773956567049026e-03 -1.809977344237267971e-03
4.760000000000000000e+02 2.496211051940917969e+01 3.680892944335937500e+01 1.552643347531557083e-02 -1.094872597604990005e-02 1.373312203213572502e-03 -2.649228263180702925e-04
4.770000000000000000e+02 2.499495697021484375e+01 3.754912567138671875e+01 7.200317457318305969e-03 1.216270215809345245e-02 5.808905698359012604e-03 -5.468965973705053329e-03
4.780000000000000000e+02 2.261228370666503906e+01 3.753591537475585938e+01 4.849803633987903595e-03 -3.887569997459650040e-03 2.886701258830726147e-04 -3.523997438605874777e-04
4.790000000000000000e+02 2.343242454528808594e+01 3.680136489868164062e+01 1.118080038577318192e-02 -6.929258350282907486e-03 1.275462564080953598e-03 -7.593217742396518588e-05
4.800000000000000000e+02 2.420181655883789062e+01 3.754558944702148438e+01 8.073145523667335510e-03 -9.413332678377628326e-03 -4.020560591015964746e-04 1.023874850943684578e-03
4.810000000000000000e+02 1.998039245605468750e+01 3.692026138305664062e+01 2.927108667790889740e-03 -8.497920935042202473e-04 6.231950246728956699e-04 -2.472147578373551369e-03
4.820000000000000000e+02 2.062745285034179688e+01 3.732268142700195312e+01 3.500502323731780052e-03 1.762212719768285751e-03 1.578814466483891010e-03 -3.141229506582021713e-03
4.830000000000000000e+02 2.113145446777343750e+01 3.686664581298828125e+01 2.589192939922213554e-03 5.451297038234770298e-04 9.402967989444732666e-04 2.689477696549147367e-04
4.840000000000000000e+02 2.021580696105957031e+01 3.715901565551757812e+01 2.196343149989843369e-03 -9.162426576949656010e-04 3.840301651507616043e-04 -1.796805183403193951e-03
4.850000000000000000e+02 2.186282539367675781e+01 3.673282623291015625e+01 5.737014580518007278e-03 -3.577581606805324554e-03 6.478299037553369999e-04 -3.099480454693548381e-05
4.860000000000000000e+02 2.186202239990234375e+01 3.748466491699218750e+01 4.892202559858560562e-03 3.277964890003204346e-03 2.451050328090786934e-03 -4.776611924171447754e-03
4.870000000000000000e+02 2.119230079650878906e+01 3.743341445922851562e+01 4.774323198944330215e-03 -3.478195751085877419e-03 3.888382343575358391e-04 6.032835808582603931e-04
4.880000000000000000e+02 2.068652153015136719e+01 3.649208450317382812e+01 3.540659556165337563e-03 3.274899441748857498e-03 2.044667722657322884e-03 -1.626191777177155018e-03
4.890000000000000000e+02 2.102560424804687500e+01 3.579481887817382812e+01 1.468145987018942833e-03 1.209643553011119366e-03 8.033368503674864769e-04 1.373775186948478222e-03
4.900000000000000000e+02 2.197462081909179688e+01 3.519912338256835938e+01 -1.044213678687810898e-02 -8.574912324547767639e-03 -5.705114919692277908e-03 -7.806181441992521286e-03
4.910000000000000000e+02 2.189435958862304688e+01 3.593660354614257812e+01 2.260452602058649063e-03 -2.989351283758878708e-03 -2.186696219723671675e-04 -4.129387380089610815e-04
4.920000000000000000e+02 2.057264900207519531e+01 3.514139175415039062e+01 4.770669038407504559e-04 5.772132426500320435e-03 1.874759793281555176e-03 2.158162416890263557e-03
4.930000000000000000e+02 2.112965202331542969e+01 3.506163787841796875e+01 -2.354523399844765663e-03 -4.055257886648178101e-03 -1.922934432514011860e-03 -1.270251697860658169e-03
4.940000000000000000e+02 2.060519409179687500e+01 3.400329208374023438e+01 -1.306535326875746250e-03 -3.858606331050395966e-03 -1.549542532302439213e-03 -3.663184121251106262e-03
4.950000000000000000e+02 2.202701568603515625e+01 3.430939102172851562e+01 -1.814965158700942993e-02 -1.840993762016296387e-02 -1.096787676215171814e-02 -2.029504626989364624e-02
4.960000000000000000e+02 2.547133445739746094e+01 3.344594955444335938e+01 -1.340371370315551758e-01 -1.867196150124073029e-02 -4.581272974610328674e-02 -1.204421892762184143e-01
4.970000000000000000e+02 2.698997116088867188e+01 3.425463485717773438e+01 -2.055245339870452881e-01 1.159268897026777267e-02 -5.817954987287521362e-02 -9.502837061882019043e-02
4.980000000000000000e+02 2.201976394653320312e+01 3.330165481567382812e+01 -1.759615167975425720e-02 -4.614657163619995117e-02 -1.912281662225723267e-02 -3.902724385261535645e-02
4.990000000000000000e+02 2.100855255126953125e+01 2.541661262512207031e+01 3.606613900046795607e-04 -5.746310949325561523e-01 -1.722811311483383179e-01 -5.104216560721397400e-02
5.000000000000000000e+02 2.606380081176757812e+01 1.673904418945312500e+01 1.011018306016921997e-01 -3.570402562618255615e-01 -7.678152620792388916e-02 -1.277980953454971313e-01
5.010000000000000000e+02 3.299253082275390625e+01 1.219300842285156250e+01 2.426407784223556519e-01 9.343518614768981934e-01 3.530977964401245117e-01 2.294855266809463501e-01
5.020000000000000000e+02 4.055545806884765625e+01 5.036388397216796875e+00 -5.973513424396514893e-02 2.926892042160034180e+00 8.601470589637756348e-01 5.038593411445617676e-01
5.030000000000000000e+02 4.789628982543945312e+01 -4.678672313690185547e+00 -3.087776005268096924e-01 4.514875411987304688e+00 1.261829376220703125e+00 1.781890988349914551e-01
5.040000000000000000e+02 5.987353515625000000e+01 -1.258417320251464844e+01 -2.263081520795822144e-01 6.432838916778564453e+00 1.861959218978881836e+00 -1.161184236407279968e-01
5.050000000000000000e+02 6.525038909912109375e+01 -1.563233947753906250e+01 -1.303844749927520752e-01 7.281237602233886719e+00 2.145256042480468750e+00 -1.461621522903442383e-01
5.060000000000000000e+02 7.145446014404296875e+01 -2.466322708129882812e+01 -2.170391380786895752e-02 8.332666397094726562e+00 2.493288755416870117e+00 -5.176811292767524719e-02
5.070000000000000000e+02 7.790287017822265625e+01 -3.049051284790039062e+01 -8.641893975436687469e-03 9.486420631408691406e+00 2.843333482742309570e+00 -1.687053032219409943e-02
5.080000000000000000e+02 7.931956481933593750e+01 -2.644076347351074219e+01 -1.109833247028291225e-04 9.726142883300781250e+00 2.917809724807739258e+00 -1.243593636900186539e-02
5.090000000000000000e+02 7.801316070556640625e+01 -2.359045028686523438e+01 -6.094952113926410675e-04 9.466684341430664062e+00 2.839822530746459961e+00 -2.283468842506408691e-02
5.100000000000000000e+02 7.934232330322265625e+01 -2.226672935485839844e+01 -5.797296762466430664e-04 9.698287010192871094e+00 2.909312248229980469e+00 -1.537412963807582855e-02
5.110000000000000000e+02 7.270906829833984375e+01 -1.254552745819091797e+01 -5.335240811109542847e-02 8.439953804016113281e+00 2.515980482101440430e+00 -1.512057781219482422e-01
5.120000000000000000e+02 6.624584960937500000e+01 -3.123498678207397461e+00 -2.810293734073638916e-01 7.501131534576416016e+00 2.166030645370483398e+00 -3.686827123165130615e-01
5.130000000000000000e+02 5.935953521728515625e+01 8.568342328071594238e-01 -5.084136128425598145e-01 6.776127815246582031e+00 1.880314350128173828e+00 -2.326947152614593506e-01
5.140000000000000000e+02 5.289096450805664062e+01 1.158060646057128906e+01 -6.413747072219848633e-01 6.526006221771240234e+00 1.765389561653137207e+00 4.975355565547943115e-01
5.150000000000000000e+02 3.844113540649414062e+01 2.884059715270996094e+01 -2.324748784303665161e-01 1.954648494720458984e-01 -1.110300887376070023e-02 -2.194183170795440674e-01
5.160000000000000000e+02 3.206343460083007812e+01 3.275624084472656250e+01 -5.753852128982543945e-01 6.394845992326736450e-02 -1.534310281276702881e-01 -1.738971918821334839e-01
5.170000000000000000e+02 2.988718414306640625e+01 3.385638046264648438e+01 -4.144535958766937256e-01 3.668858483433723450e-02 -1.133294999599456787e-01 -1.070216670632362366e-01
5.180000000000000000e+02 2.370657157897949219e+01 -3.471439361572265625e+01 -6.211386993527412415e-02 2.634610421955585480e-02 -1.073032990097999573e-02 1.129250321537256241e-02
5.190000000000000000e+02 1.660715484619140625e+01 -3.862425613403320312e+01 -2.698343992233276367e-02 -1.576558127999305725e-02 -1.282470673322677612e-02 -9.139131754636764526e-02
5.200000000000000000e+02 1.880120277404785156e+01 -3.918650817871093750e+01 1.266590040177106857e-02 -4.899464547634124756e-01 -1.431841701269149780e-01 -1.609748601913452148e-01
5.210000000000000000e+02 1.453159141540527344e+01 -3.648035430908203125e+01 6.179885473102331161e-03 1.141579635441303253e-02 5.278704687952995300e-03 -2.626905962824821472e-02
5.220000000000000000e+02 1.535873317718505859e+01 -3.760343933105468750e+01 8.479449152946472168e-02 2.817684598267078400e-02 3.389140218496322632e-02 -7.950088009238243103e-03
5.230000000000000000e+02 1.260208129882812500e+01 -3.270056533813476562e+01 5.507081747055053711e-03 6.586939562112092972e-03 3.628206439316272736e-03 -6.301286630332469940e-03
5.240000000000000000e+02 6.551783680915832520e-01 -2.483207893371582031e+01 -5.674412823282182217e-04 -2.637434226926416159e-04 -2.493554202374070883e-04 8.299022010760381818e-05
5.250000000000000000e+02 6.425713300704956055e-01 -3.044759178161621094e+01 -4.348685324657708406e-04 5.538801779039204121e-04 3.570349508663639426e-05 2.702196943573653698e-04
5.260000000000000000e+02 6.595445871353149414e-01 -3.184864807128906250e+01 5.440421518869698048e-04 1.344164484180510044e-03 5.664619966410100460e-04 3.851873334497213364e-04
5.270000000000000000e+02 6.848338842391967773e-01 -3.736755752563476562e+01 2.899921382777392864e-04 6.436536554247140884e-03 2.017958555370569229e-03 4.737379204016178846e-04
5.280000000000000000e+02 6.751418590545654297e+00 -3.858546829223632812e+01 -6.373299751430749893e-03 -6.119418540038168430e-04 -2.095572417601943016e-03 1.084329467266798019e-02
5.290000000000000000e+02 1.211321258544921875e+01 -4.144984436035156250e+01 -2.138352207839488983e-02 -2.976507134735584259e-02 -1.534457784146070480e-02 -3.702101530507206917e-03
5.300000000000000000e+02 2.131904602050781250e+01 -3.363562011718750000e+01 -5.804521590471267700e-02 -4.763021469116210938e-01 -1.603042036294937134e-01 -7.453456521034240723e-02
5.310000000000000000e+02 1.967773056030273438e+01 -2.802177810668945312e+01 -9.717111242935061455e-05 -7.800239324569702148e-01 -2.340363264083862305e-01 -3.065212629735469818e-03
5.320000000000000000e+02 2.113152503967285156e+01 -3.088090515136718750e+01 -1.585475914180278778e-02 -5.473725795745849609e-01 -1.689682006835937500e-01 -2.179127559065818787e-02
5.330000000000000000e+02 1.970728874206542969e+01 -3.506148529052734375e+01 -6.906107813119888306e-02 -9.373472929000854492e-01 -3.019225001335144043e-01 -1.101639941334724426e-01
5.340000000000000000e+02 1.951657485961914062e+01 -3.647290420532226562e+01 -1.134571656584739685e-01 -8.925583958625793457e-01 -3.018046617507934570e-01 -1.940523833036422729e-01
5.350000000000000000e+02 1.974056053161621094e+01 -2.381108474731445312e+01 7.260087411850690842e-03 -7.484558820724487305e-01 -2.223587334156036377e-01 -1.546407025307416916e-02
5.360000000000000000e+02 1.982897186279296875e+01 -2.099039077758789062e+01 -4.797437228262424469e-03 -7.753185033798217773e-01 -2.340347915887832642e-01 -1.762373931705951691e-02
5.370000000000000000e+02 2.138451766967773438e+01 -2.392920303344726562e+01 7.639382500201463699e-03 -4.971126317977905273e-01 -1.468419730663299561e-01 -6.475919857621192932e-03
5.380000000000000000e+02 2.068012046813964844e+01 -1.326961994171142578e+00 -5.953238345682621002e-03 -1.068638682365417480e+00 -3.223775625228881836e-01 -3.006086498498916626e-02
5.390000000000000000e+02 2.036408805847167969e+01 -6.933193206787109375e+00 4.270495846867561340e-03 -9.129820466041564941e-01 -2.726134657859802246e-01 -6.465950980782508850e-03
5.400000000000000000e+02 2.162247848510742188e+01 -1.116748046875000000e+01 -6.380913313478231430e-03 -6.554723978042602539e-01 -1.985559910535812378e-01 6.371964700520038605e-03
5.410000000000000000e+02 2.664708518981933594e+01 -2.291399192810058594e+01 -4.289927426725625992e-03 4.279547929763793945e-01 1.270994544029235840e-01 2.016551606357097626e-02
5.420000000000000000e+02 3.572949981689453125e+01 -3.465552139282226562e+01 -1.385024841874837875e-02 2.051679611206054688e+00 6.113488078117370605e-01 2.849553152918815613e-02
5.430000000000000000e+02 4.549247360229492188e+01 -3.577535247802734375e+01 -4.631467908620834351e-02 3.834278583526611328e+00 1.136389255523681641e+00 1.297966949641704559e-02
5.440000000000000000e+02 5.233121109008789062e+01 -4.007595443725585938e+01 -4.069631919264793396e-02 4.956727027893066406e+00 1.474809288978576660e+00 1.351129030808806419e-03
5.450000000000000000e+02 4.713784408569335938e+01 -4.013298034667968750e+01 -3.495962917804718018e-02 4.116785526275634766e+00 1.224547743797302246e+00 5.437068175524473190e-03
5.460000000000000000e+02 6.235322570800781250e+01 -4.071425628662109375e+01 -2.227871865034103394e-02 6.757944107055664062e+00 2.020699739456176758e+00 -4.598135594278573990e-03
5.470000000000000000e+02 5.745394515991210938e+01 -4.049172592163085938e+01 -3.575593605637550354e-02 5.904919624328613281e+00 1.760749220848083496e+00 -5.553737748414278030e-03
5.480000000000000000e+02 5.530113220214843750e+01 -2.852452468872070312e+01 -7.604084163904190063e-02 5.542762279510498047e+00 1.640016436576843262e+00 -7.388410158455371857e-03
5.490000000000000000e+02 5.456009292602539062e+01 -2.210799026489257812e+01 -1.248777508735656738e-01 5.464894294738769531e+00 1.602005004882812500e+00 -1.440532971173524857e-02
5.500000000000000000e+02 5.693096160888671875e+01 -1.274060058593750000e+01 -2.387752681970596313e-01 5.998735427856445312e+00 1.727988004684448242e+00 -6.569111347198486328e-02
5.510000000000000000e+02 5.940391159057617188e+01 -1.088897800445556641e+01 -2.499438524246215820e-01 6.395624637603759766e+00 1.843704223632812500e+00 -1.193482950329780579e-01
5.520000000000000000e+02 4.672747421264648438e+01 -8.054298400878906250e+00 -2.530346214771270752e-01 4.207437038421630859e+00 1.186320781707763672e+00 1.485999524593353271e-01
5.530000000000000000e+02 5.239639282226562500e+01 -2.258803367614746094e+00 -4.143691956996917725e-01 5.470817089080810547e+00 1.516934394836425781e+00 8.007523417472839355e-02
5.540000000000000000e+02 4.046451187133789062e+01 -4.952082157135009766e+00 -1.638593822717666626e-01 2.958384990692138672e+00 8.383576869964599609e-01 2.655735909938812256e-01
5.550000000000000000e+02 3.195934295654296875e+01 -7.606390714645385742e-01 -2.326387166976928711e-02 1.169157743453979492e+00 3.437681794166564941e-01 2.527092993259429932e-01
5.560000000000000000e+02 2.825420951843261719e+01 -2.204247951507568359e+00 -4.418180789798498154e-03 4.366113841533660889e-01 1.296579539775848389e-01 1.672598719596862793e-01
5.570000000000000000e+02 2.060775566101074219e+01 -2.730455160140991211e+00 -1.506381854414939880e-02 -1.044154167175292969e+00 -3.177653849124908447e-01 -4.693361744284629822e-02
5.580000000000000000e+02 2.032252883911132812e+01 -9.742624282836914062e+00 -1.082885079085826874e-02 -9.311671853065490723e-01 -2.825988233089447021e-01 -1.369802840054035187e-02
5.590000000000000000e+02 1.998733139038085938e+01 -1.676778030395507812e+01 1.176409190520644188e-03 -7.853011488914489746e-01 -2.352374196052551270e-01 -5.830609425902366638e-02
5.600000000000000000e+02 2.150191879272460938e+01 -1.679879379272460938e+01 7.643956225365400314e-03 -5.570055246353149414e-01 -1.648084670305252075e-01 -8.956745266914367676e-03
5.610000000000000000e+02 2.991823387145996094e+01 -2.883245468139648438e+01 -1.711023412644863129e-02 9.922594428062438965e-01 2.925447523593902588e-01 3.057811595499515533e-02
5.620000000000000000e+02 3.728328323364257812e+01 -4.095730590820312500e+01 -1.830227859318256378e-02 2.329833507537841797e+00 6.934593915939331055e-01 6.344343069940805435e-03
5.630000000000000000e+02 4.214901351928710938e+01 -4.065132141113281250e+01 -2.700768597424030304e-02 3.172101974487304688e+00 9.435282945632934570e-01 1.495927717769518495e-04
5.640000000000000000e+02 1.327041530609130859e+01 -3.580050277709960938e+01 1.138254906982183456e-02 7.776006124913692474e-03 5.747566465288400650e-03 -4.943649983033537865e-04
5.650000000000000000e+02 1.387766742706298828e+01 -3.442079925537109375e+01 1.280098315328359604e-02 9.821237996220588684e-03 6.786666344851255417e-03 -8.585417643189430237e-03
5.660000000000000000e+02 1.414008140563964844e+01 -3.306281661987304688e+01 -6.025434471666812897e-03 1.056112349033355713e-03 -1.490796683356165886e-03 1.322487718425691128e-03
5.670000000000000000e+02 1.337270069122314453e+01 -2.743118667602539062e+01 2.627056790515780449e-03 4.034663143102079630e-04 9.091569227166473866e-04 -5.636147106997668743e-04
5.680000000000000000e+02 1.806180834770202637e+00 -1.780576515197753906e+01 -7.317799027077853680e-04 -9.445367322769016027e-05 -2.478700771462172270e-04 8.591935511503834277e-06
5.690000000000000000e+02 6.520203948020935059e-01 -2.342307853698730469e+01 6.740118842571973801e-04 -1.881252683233469725e-04 1.457659818697720766e-04 -1.068846686393953860e-04
5.700000000000000000e+02 1.439432907104492188e+01 -3.032369613647460938e+01 -3.585571656003594398e-03 -3.185154928360134363e-04 -1.171226147562265396e-03 7.215441437438130379e-04
5.710000000000000000e+02 1.297934722900390625e+01 -3.009103965759277344e+01 3.431210527196526527e-03 1.600401010364294052e-03 1.509483437985181808e-03 -2.072014380246400833e-03
5.720000000000000000e+02 1.419814777374267578e+01 -2.206604194641113281e+01 -1.222517108544707298e-03 5.408011020335834473e-06 -3.651327278930693865e-04 1.178043457912281156e-04
5.730000000000000000e+02 1.451530265808105469e+01 -1.345746231079101562e+01 -5.043449345976114273e-04 -2.866094109776895493e-05 -1.599017559783533216e-04 8.416530181420966983e-05
5.740000000000000000e+02 1.461932659149169922e+01 -6.541540622711181641e+00 2.495104272384196520e-04 -4.756617727252887562e-06 7.342614117078483105e-05 -2.631922143336851150e-05
5.750000000000000000e+02 1.461661720275878906e+01 -3.840818405151367188e+00 1.153133562183938920e-04 9.123466952587477863e-06 3.733104676939547062e-05 -2.622881993374903686e-06
5.760000000000000000e+02 1.445205593109130859e+01 -2.825268983840942383e+00 -4.435167284100316465e-05 7.475829625036567450e-05 9.121987204707693309e-06 -6.837161345174536109e-05
5.770000000000000000e+02 1.034484672546386719e+01 -2.737272977828979492e+00 -1.331695966655388474e-04 -3.671726153697818518e-05 -5.096606037113815546e-05 5.357547706807963550e-05
5.780000000000000000e+02 1.355636310577392578e+01 -1.056792259216308594e+01 4.282216541469097137e-04 2.502366078260820359e-05 1.359735906589776278e-04 -1.192987765534780920e-04
5.790000000000000000e+02 1.275052547454833984e+01 -1.876038551330566406e+01 9.639036725275218487e-04 3.292914698249660432e-05 2.990498323924839497e-04 -3.763741406146436930e-04
5.800000000000000000e+02 1.327292633056640625e+01 -2.513404846191406250e+01 1.682957750745117664e-03 -2.287134848302230239e-04 4.362732870504260063e-04 -2.946032327599823475e-04
5.810000000000000000e+02 1.456219863891601562e+01 -2.623756980895996094e+01 3.125339047983288765e-03 -4.425622173584997654e-04 8.048330782912671566e-04 -1.894915499178750906e-06
5.820000000000000000e+02 1.110055828094482422e+01 -1.923519968986511230e+00 -8.140824502333998680e-05 -4.692661241278983653e-05 -3.850045686704106629e-05 1.755358243826776743e-05
5.830000000000000000e+02 4.228825569152832031e+00 -1.940765619277954102e+00 -1.627287747396621853e-05 1.239026641997043043e-05 -1.164783384410839062e-06 6.273630219766346272e-07
5.840000000000000000e+02 1.771961927413940430e+00 -1.080781078338623047e+01 5.591555964201688766e-04 7.242938863782910630e-06 1.699195563560351729e-04 -1.796878314053174108e-05
5.850000000000000000e+02 6.028402447700500488e-01 -1.777571105957031250e+01 7.628471939824521542e-04 -4.066323526785708964e-05 2.166551857953891158e-04 -4.141751560382544994e-05
5.860000000000000000e+02 2.693927526473999023e+00 -3.771458053588867188e+01 2.885806025005877018e-04 4.245199263095855713e-03 1.360133988782763481e-03 2.554974518716335297e-03
5.870000000000000000e+02 2.152931785583496094e+01 -3.668556594848632812e+01 -9.569289535284042358e-02 -3.333991765975952148e-01 -1.287276148796081543e-01 -1.875828392803668976e-02
5.880000000000000000e+02 2.419095420837402344e+01 -3.662732696533203125e+01 -1.978602074086666107e-02 9.972397238016128540e-02 2.398138493299484253e-02 5.266758054494857788e-02
5.890000000000000000e+02 3.218541336059570312e+01 -3.843588256835937500e+01 2.303667599335312843e-03 1.446124434471130371e+00 4.345284104347229004e-01 2.661647647619247437e-02
5.900000000000000000e+02 1.965536689758300781e+01 -3.081790733337402344e+01 -2.555396407842636108e-03 -7.988520264625549316e-01 -2.404222190380096436e-01 -7.205308414995670319e-03
5.910000000000000000e+02 6.661236572265625000e+01 -3.076083564758300781e+01 -2.694541774690151215e-02 7.564299583435058594e+00 2.261206150054931641e+00 -3.132929280400276184e-02
5.920000000000000000e+02 6.383764266967773438e+01 -2.517798995971679688e+01 -6.700138002634048462e-02 7.000539779663085938e+00 2.080061435699462891e+00 -7.287610322237014771e-02
5.930000000000000000e+02 6.474533081054687500e+01 -1.833491516113281250e+01 -1.070732250809669495e-01 7.174015045166015625e+00 2.120082616806030273e+00 -1.215414032340049744e-01
5.940000000000000000e+02 6.710827636718750000e+01 -4.090144348144531250e+01 -2.045800909399986267e-02 7.571778774261474609e+00 2.265396118164062500e+00 2.694357419386506081e-03
5.950000000000000000e+02 7.297518920898437500e+01 -3.803771591186523438e+01 -2.396454662084579468e-02 8.569336891174316406e+00 2.563611745834350586e+00 -3.743344172835350037e-02
5.960000000000000000e+02 7.148386383056640625e+01 -3.181722259521484375e+01 -1.515073794871568680e-02 8.318607330322265625e+00 2.491036891937255859e+00 -3.043914213776588440e-02
5.970000000000000000e+02 7.278026580810546875e+01 -2.464706993103027344e+01 -1.245502289384603500e-02 8.578386306762695312e+00 2.569779634475708008e+00 -4.927102848887443542e-02
5.980000000000000000e+02 7.791280364990234375e+01 -4.163003158569335938e+01 5.733330920338630676e-02 9.529146194458007812e+00 2.875943660736083984e+00 1.612184382975101471e-02
5.990000000000000000e+02 7.774650573730468750e+01 -3.680776596069335938e+01 -1.322940737009048462e-02 9.464465141296386719e+00 2.835370540618896484e+00 2.322648093104362488e-02
6.000000000000000000e+02 7.932085418701171875e+01 -3.336571502685546875e+01 2.513128565624356270e-03 9.748951911926269531e+00 2.925439596176147461e+00 -1.793711096979677677e-03
6.010000000000000000e+02 7.800340270996093750e+01 -1.668984985351562500e+01 -4.867347422987222672e-03 9.396385192871093750e+00 2.817455291748046875e+00 -4.302964359521865845e-02
6.020000000000000000e+02 7.934056091308593750e+01 -1.252919673919677734e+01 -1.063884468749165535e-03 9.558554649353027344e+00 2.867247104644775391e+00 -3.121399693191051483e-02
6.030000000000000000e+02 7.257643127441406250e+01 -5.870090961456298828e+00 -9.319256991147994995e-02 8.313129425048828125e+00 2.465981006622314453e+00 -2.662218809127807617e-01
6.040000000000000000e+02 6.603281402587890625e+01 6.277763843536376953e-01 -3.587019145488739014e-01 7.526382446289062500e+00 2.150304079055786133e+00 -4.705905020236968994e-01
6.050000000000000000e+02 6.113146209716796875e+01 1.194098377227783203e+01 -7.234070897102355957e-01 7.827668666839599609e+00 2.131278514862060547e+00 -5.666379332542419434e-01
6.060000000000000000e+02 4.702405166625976562e+01 1.920734977722167969e+01 3.605616390705108643e-01 4.613954544067382812e+00 1.492354869842529297e+00 1.748914718627929688e+00
6.070000000000000000e+02 4.364719772338867188e+01 2.899863052368164062e+01 2.113948166370391846e-01 2.883386611938476562e-01 1.499200463294982910e-01 3.278462290763854980e-01
6.080000000000000000e+02 3.720372390747070312e+01 3.246605682373046875e+01 -1.150516271591186523e+00 5.258553847670555115e-02 -3.293792009353637695e-01 -5.159771814942359924e-02
6.090000000000000000e+02 3.573134994506835938e+01 3.275514984130859375e+01 -9.968693256378173828e-01 5.408630520105361938e-02 -2.828349173069000244e-01 -7.307804375886917114e-02
6.100000000000000000e+02 3.352973937988281250e+01 3.319056320190429688e+01 -7.629219293594360352e-01 5.110823363065719604e-02 -2.135441154241561890e-01 -9.334538131952285767e-02
6.110000000000000000e+02 7.802525329589843750e+01 -9.724163055419921875e+00 -7.213280070573091507e-03 9.251515388488769531e+00 2.773290634155273438e+00 -7.618190348148345947e-02
6.120000000000000000e+02 7.933917999267578125e+01 -5.562819480895996094e+00 -3.250509034842252731e-03 9.328625679016113281e+00 2.797612428665161133e+00 -4.874512925744056702e-02
6.130000000000000000e+02 7.270288848876953125e+01 1.530891656875610352e+00 -1.423874944448471069e-01 8.127244949340820312e+00 2.395457267761230469e+00 -4.633317589759826660e-01
6.140000000000000000e+02 6.631304168701171875e+01 1.349734210968017578e+01 -4.660120606422424316e-01 7.932697296142578125e+00 2.240005493164062500e+00 -1.037777543067932129e+00
6.150000000000000000e+02 6.112513732910156250e+01 1.768863296508789062e+01 -6.079792380332946777e-01 8.574036598205566406e+00 2.389817237854003906e+00 -8.328822255134582520e-01
6.160000000000000000e+02 5.168806457519531250e+01 2.896746253967285156e+01 1.401250839233398438e+00 1.316029071807861328e+01 4.368462562561035156e+00 5.132554054260253906e+00
6.170000000000000000e+02 4.232777023315429688e+01 3.091715431213378906e+01 -1.129021048545837402e+00 6.903086602687835693e-02 -3.179970681667327881e-01 4.035557154566049576e-03
6.180000000000000000e+02 4.162449264526367188e+01 3.164345169067382812e+01 -1.502792716026306152e+00 4.196445271372795105e-02 -4.382484853267669678e-01 3.360633924603462219e-02
6.190000000000000000e+02 3.941504287719726562e+01 3.205355453491210938e+01 -1.361971020698547363e+00 5.025546252727508545e-02 -3.935146629810333252e-01 -9.672556072473526001e-03
6.200000000000000000e+02 7.800651550292968750e+01 -2.756082057952880859e+00 -9.638911113142967224e-03 8.974548339843750000e+00 2.689472913742065430e+00 -1.299789100885391235e-01
6.210000000000000000e+02 7.934732818603515625e+01 2.804935216903686523e+00 -5.075248889625072479e-03 8.782024383544921875e+00 2.633084774017333984e+00 -8.099269866943359375e-02
6.220000000000000000e+02 7.294033050537109375e+01 1.010279369354248047e+01 -1.740321964025497437e-01 7.762551307678222656e+00 2.276555776596069336e+00 -7.829021811485290527e-01
6.230000000000000000e+02 6.672047424316406250e+01 1.907807540893554688e+01 -1.874434351921081543e-01 8.051263809204101562e+00 2.359146118164062500e+00 -1.322211980819702148e+00
6.240000000000000000e+02 5.457188796997070312e+01 2.747504997253417969e+01 8.156592845916748047e-01 1.331804180145263672e+01 4.240110397338867188e+00 -1.459543686360120773e-02
6.250000000000000000e+02 5.162832641601562500e+01 3.009784317016601562e+01 3.028123855590820312e+00 1.542952728271484375e+01 5.537295341491699219e+00 7.886411190032958984e+00
6.260000000000000000e+02 4.831303787231445312e+01 3.055309867858886719e+01 7.425759434700012207e-01 3.055738508701324463e-01 3.144449293613433838e-01 1.191655993461608887e+00
6.270000000000000000e+02 4.657941436767578125e+01 3.079913711547851562e+01 -7.479190826416015625e-01 -9.330984205007553101e-03 -2.271750271320343018e-01 4.368931353092193604e-01
6.280000000000000000e+02 7.804512023925781250e+01 4.241940975189208984e+00 -1.771149411797523499e-02 8.486703872680664062e+00 2.540697574615478516e+00 -2.130916863679885864e-01
6.290000000000000000e+02 7.935842132568359375e+01 8.382379531860351562e+00 -5.191732663661241531e-03 8.153101921081542969e+00 2.444372892379760742e+00 -1.088552698493003845e-01
6.300000000000000000e+02 7.294155883789062500e+01 1.801299667358398438e+01 -6.962929666042327881e-02 7.202935218811035156e+00 2.139991760253906250e+00 -1.064824938774108887e+00
6.310000000000000000e+02 6.610048675537109375e+01 2.392502403259277344e+01 3.859597444534301758e-01 8.152487754821777344e+00 2.561534166336059570e+00 -1.390104293823242188e+00
6.320000000000000000e+02 5.374359130859375000e+01 3.130505371093750000e+01 9.886996269226074219e+00 1.714145851135253906e+01 8.108536720275878906e+00 -7.246389985084533691e-01
6.330000000000000000e+02 5.322851181030273438e+01 3.031498718261718750e+01 4.809400558471679688e+00 1.984866142272949219e+01 7.397418498992919922e+00 -8.301840424537658691e-01
6.340000000000000000e+02 5.208507537841796875e+01 3.004549980163574219e+01 2.137170791625976562e+00 1.912110900878906250e+01 6.377483844757080078e+00 4.909501075744628906e+00
6.350000000000000000e+02 7.810007476806640625e+01 1.121073341369628906e+01 -1.395961642265319824e-02 7.687815666198730469e+00 2.302156925201416016e+00 -3.148235082626342773e-01
6.360000000000000000e+02 7.937403106689453125e+01 1.672431373596191406e+01 -4.879971500486135483e-03 6.712162494659423828e+00 2.012184619903564453e+00 -1.459933072328567505e-01
6.370000000000000000e+02 7.309524536132812500e+01 2.314445495605468750e+01 1.058323904871940613e-01 6.726810932159423828e+00 2.049793004989624023e+00 -1.055170893669128418e+00
6.380000000000000000e+02 6.167839050292968750e+01 3.465838623046875000e+01 1.439862012863159180e+00 9.883251190185546875e+00 3.396934032440185547e+00 6.239631175994873047e-01
6.390000000000000000e+02 5.418083572387695312e+01 3.296506500244140625e+01 5.778515338897705078e+00 1.666209030151367188e+01 6.732181549072265625e+00 3.098785877227783203e+00
6.400000000000000000e+02 5.390964508056640625e+01 3.202573394775390625e+01 9.768893241882324219e+00 1.653384399414062500e+01 7.890821456909179688e+00 1.978323101997375488e+00
6.410000000000000000e+02 7.810492706298828125e+01 1.948439025878906250e+01 1.061745570041239262e-03 6.311594486236572266e+00 1.893796920776367188e+00 -4.021305143833160400e-01
6.420000000000000000e+02 7.934226989746093750e+01 2.368544578552246094e+01 6.811300758272409439e-03 5.234939575195312500e+00 1.572525262832641602e+00 -1.487592905759811401e-01
6.430000000000000000e+02 7.295600128173828125e+01 3.245528030395507812e+01 3.273726403713226318e-01 6.202826023101806641e+00 1.959059596061706543e+00 -4.583345055580139160e-01
6.440000000000000000e+02 6.317055511474609375e+01 4.082003021240234375e+01 -2.144158482551574707e-01 1.019110584259033203e+01 2.993007183074951172e+00 1.915294826030731201e-01
6.450000000000000000e+02 5.573219680786132812e+01 3.909905624389648438e+01 -1.213092565536499023e+00 1.217570018768310547e+01 3.288782119750976562e+00 5.385203361511230469e-01
6.460000000000000000e+02 5.426462173461914062e+01 3.483683776855468750e+01 6.339949965476989746e-01 1.550508880615234375e+01 4.841724872589111328e+00 1.295384645462036133e+00
6.470000000000000000e+02 4.653087615966796875e+01 3.445623397827148438e+01 -8.105804324150085449e-01 2.106969058513641357e-02 -2.368532270193099976e-01 1.360937207937240601e-01
6.480000000000000000e+02 4.932087326049804688e+01 3.403670501708984375e+01 7.900872230529785156e-01 2.264452695846557617e+00 9.163619875907897949e-01 -1.878334641456604004e+00
6.490000000000000000e+02 4.828247070312500000e+01 3.432175064086914062e+01 -1.032903790473937988e-01 1.109370470046997070e+00 3.018240034580230713e-01 -8.288141489028930664e-01
6.500000000000000000e+02 5.353578186035156250e+01 3.384817886352539062e+01 1.510961651802062988e+00 1.786864852905273438e+01 5.813883304595947266e+00 1.577099561691284180e+00
6.510000000000000000e+02 7.544413757324218750e+01 2.351561164855957031e+01 5.945309624075889587e-02 6.200567245483398438e+00 1.878006100654602051e+00 -7.880852818489074707e-01
6.520000000000000000e+02 7.926689910888671875e+01 2.929107475280761719e+01 9.953820146620273590e-03 4.248518943786621094e+00 1.277541875839233398e+00 -1.043363958597183228e-01
6.530000000000000000e+02 6.781966400146484375e+01 3.778634643554687500e+01 3.327040672302246094e-01 8.056319236755371094e+00 2.516706943511962891e+00 6.542377639561891556e-03
6.540000000000000000e+02 6.416964721679687500e+01 3.753321456909179688e+01 4.684076309204101562e-01 9.393104553222656250e+00 2.958453655242919922e+00 4.256473183631896973e-01
6.550000000000000000e+02 7.918080139160156250e+01 3.215581893920898438e+01 3.086624783463776112e-04 3.941266536712646484e+00 1.182472586631774902e+00 -8.372334390878677368e-02
6.560000000000000000e+02 7.919609069824218750e+01 3.746970367431640625e+01 -4.783578962087631226e-02 3.682514190673828125e+00 1.090403556823730469e+00 5.199430510401725769e-03
6.570000000000000000e+02 7.156634521484375000e+01 3.772954177856445312e+01 2.157303839921951294e-01 6.544723033905029297e+00 2.028136014938354492e+00 -1.647011339664459229e-01
6.580000000000000000e+02 4.480130004882812500e+01 3.597802734375000000e+01 -1.699788570404052734e-01 1.318792104721069336e-01 -1.142989192157983780e-02 3.008926212787628174e-01
6.590000000000000000e+02 4.450175094604492188e+01 3.495821762084960938e+01 -9.923437237739562988e-01 -9.163089841604232788e-02 -3.251923918724060059e-01 5.114645957946777344e-01
6.600000000000000000e+02 2.418064117431640625e+01 3.861513137817382812e+01 4.755604022648185492e-04 2.881134627386927605e-03 1.007008482702076435e-03 -6.011635530740022659e-03
6.610000000000000000e+02 2.244339561462402344e+01 3.843555831909179688e+01 2.707426203414797783e-03 2.140147378668189049e-03 1.454272074624896049e-03 -4.980073310434818268e-03
6.620000000000000000e+02 2.209047317504882812e+01 3.942574310302734375e+01 -1.126514165662229061e-03 5.513565847650170326e-04 -1.725472684483975172e-04 -5.774619057774543762e-04
6.630000000000000000e+02 2.095223617553710938e+01 3.814404678344726562e+01 3.518015379086136818e-03 1.509831869043409824e-03 1.508354209363460541e-03 -4.070326220244169235e-03
6.640000000000000000e+02 1.943710136413574219e+01 3.769803237915039062e+01 4.877837840467691422e-03 -1.162941553047858179e-04 1.428463147021830082e-03 -3.527827211655676365e-04
6.650000000000000000e+02 1.857291102409362793e+00 2.619027328491210938e+01 5.550918867811560631e-04 -1.375300507788779214e-05 1.624016585992649198e-04 7.132258178899064660e-05
6.660000000000000000e+02 2.044532060623168945e+00 3.037749290466308594e+01 -4.993723705410957336e-04 -3.760962135856971145e-05 -1.610945910215377808e-04 -6.576179293915629387e-05
6.670000000000000000e+02 4.294564723968505859e+00 3.787557601928710938e+01 -1.723598979879170656e-04 1.195001677842810750e-04 -1.585791869729291648e-05 2.614421828184276819e-04
6.680000000000000000e+02 1.991917490959167480e+00 4.164568328857421875e+01 4.228104953654110432e-04 -1.904681557789444923e-04 6.970270624151453376e-05 1.317560381721705198e-04
6.690000000000000000e+02 1.385875606536865234e+01 3.814892578125000000e+01 1.931443926878273487e-03 1.886628160718828440e-05 5.850930465385317802e-04 -5.601368029601871967e-04
6.700000000000000000e+02 1.301270484924316406e+01 3.408406829833984375e+01 -7.839238969609141350e-04 -5.980760906822979450e-04 -4.146000137552618980e-04 2.749269769992679358e-04
6.710000000000000000e+02 1.462260341644287109e+01 2.294278907775878906e+01 8.688480593264102936e-04 1.271761084353784099e-05 2.644697087816894054e-04 1.933857674885075539e-06
6.720000000000000000e+02 1.442273044586181641e+01 1.740652656555175781e+01 5.377480993047356606e-04 -1.470457209507003427e-05 1.569130545249208808e-04 -1.237649576069088653e-05
6.730000000000000000e+02 1.455395889282226562e+01 1.043546772003173828e+01 -3.430107317399233580e-04 -6.572206075361464173e-06 -1.048748817993327975e-04 -6.281068181124283001e-06
6.740000000000000000e+02 1.368699073791503906e+01 1.811895251274108887e+00 -3.876709524774923921e-05 -1.480945866205729544e-05 -1.607296508154831827e-05 -4.174453715677373111e-05
6.750000000000000000e+02 1.317972469329833984e+01 1.758814096450805664e+00 1.600505675014574081e-05 4.231971615809015930e-05 1.749743205436971039e-05 2.051997034868691117e-05
6.760000000000000000e+02 6.779659390449523926e-01 3.467319869995117188e+01 -5.277310847304761410e-04 -1.026743047987110913e-04 -1.891216234071180224e-04 1.041541909216903150e-04
6.770000000000000000e+02 6.338971257209777832e-01 2.763077735900878906e+01 4.785168566741049290e-04 -8.801696822047233582e-06 1.409145479556173086e-04 2.499031324987299740e-05
6.780000000000000000e+02 6.466106772422790527e-01 2.058770561218261719e+01 -4.471219144761562347e-04 -1.793683281903213356e-06 -1.346746721537783742e-04 1.106545369111699983e-06
6.790000000000000000e+02 2.014672040939331055e+00 1.628058242797851562e+01 -4.072458832524716854e-04 6.228861479939951096e-07 -1.219868936459533870e-04 -7.528446985816117376e-06
6.800000000000000000e+02 1.221319770812988281e+01 1.167100143432617188e+01 2.750645217020064592e-04 7.458374602720141411e-05 1.048944832291454077e-04 1.131622484535910189e-04
6.810000000000000000e+02 1.289708900451660156e+01 1.607174873352050781e+01 5.146189942024648190e-04 -1.971782512555364519e-05 1.484703534515574574e-04 1.805870510906970594e-06
6.820000000000000000e+02 1.196270561218261719e+01 1.905026435852050781e+01 -5.429499433375895023e-04 -1.115135091822594404e-06 -1.632195198908448219e-04 -3.144254515063948929e-05
6.830000000000000000e+02 1.351109695434570312e+01 2.436424636840820312e+01 8.780119242146611214e-04 1.903451266116462648e-05 2.691139234229922295e-04 7.082621596055105329e-05
6.840000000000000000e+02 1.364247226715087891e+01 2.568976402282714844e+01 -9.538725716993212700e-04 -5.105404852656647563e-05 -3.014779940713196993e-04 -9.725576092023402452e-05
6.850000000000000000e+02 1.241064739227294922e+01 2.931829452514648438e+01 -7.229316979646682739e-04 -1.598510134499520063e-04 -2.648348163347691298e-04 -2.939557307399809361e-04
6.860000000000000000e+02 6.580080986022949219e-01 1.490729618072509766e+01 -3.749615862034261227e-04 1.692175828793551773e-06 -1.119808221119455993e-04 5.400534973887261003e-06
6.870000000000000000e+02 1.793851613998413086e+00 9.155921936035156250e+00 2.903584099840372801e-04 1.280114884139038622e-05 9.094786946661770344e-05 -4.047284164698794484e-05
6.880000000000000000e+02 8.932852745056152344e+00 2.626915931701660156e+00 -9.096888970816507936e-05 -3.015640504600014538e-05 -3.633758751675486565e-05 -1.994781996472738683e-05
6.890000000000000000e+02 9.658438682556152344e+00 1.866209149360656738e+00 -7.734130485914647579e-05 -1.368389985145768151e-05 -2.730756204982753843e-05 -3.834372819255804643e-06
6.900000000000000000e+02 1.121422886848449707e+00 3.783560514450073242e+00 -7.572635513497516513e-05 7.658542017452418804e-05 2.577194493369461270e-07 -1.541514648124575615e-04
6.910000000000000000e+02 5.482108592987060547e-01 6.407208919525146484e+00 -2.361655788263306022e-04 -1.824675746320281178e-05 -7.632370397914201021e-05 5.281622634356608614e-06
6.920000000000000000e+02 3.672980546951293945e+00 3.684067487716674805e+00 -1.519208162790164351e-04 -2.894547105825040489e-05 -5.425988638307899237e-05 3.725212081917561591e-05
6.930000000000000000e+02 1.344358921051025391e+01 1.043560981750488281e+01 3.062791365664452314e-04 2.841415152943227440e-05 1.004079895210452378e-04 4.726668703369796276e-05
6.940000000000000000e+02 1.447974300384521484e+01 2.019497299194335938e+01 6.748971645720303059e-04 9.442426744499243796e-06 2.053018833976238966e-04 -3.554146314854733646e-05
6.950000000000000000e+02 1.534531402587890625e+01 3.120533943176269531e+01 1.585255376994609833e-03 -1.682568981777876616e-04 4.250995698384940624e-04 -1.201792620122432709e-04
6.960000000000000000e+02 1.522717857360839844e+01 2.978603744506835938e+01 -1.609006547369062901e-03 -1.222808464262925554e-06 -4.830688121728599072e-04 -1.147164657595567405e-04
6.970000000000000000e+02 1.812490844726562500e+01 3.777933883666992188e+01 2.885205205529928207e-03 -5.932495929300785065e-03 -9.141871705651283264e-04 1.517923101346241310e-05
6.980000000000000000e+02 1.899472045898437500e+01 4.006396484375000000e+01 -9.949622908607125282e-04 -2.774246095214039087e-04 -3.817160613834857941e-04 4.749959407490678132e-05
6.990000000000000000e+02 1.203427886962890625e+01 4.130094528198242188e+01 8.992362418211996555e-04 -3.477878271951340139e-05 2.593372482806444168e-04 1.007817219942808151e-03
7.000000000000000000e+02 1.977701759338378906e+01 3.783106231689453125e+01 4.868322052061557770e-03 8.155782707035541534e-04 1.705170143395662308e-03 -2.398926997557282448e-03
7.010000000000000000e+02 3.197111320495605469e+01 3.747581100463867188e+01 -6.125780940055847168e-02 -6.128266826272010803e-02 -3.676214441657066345e-02 1.097021996974945068e-01
7.020000000000000000e+02 3.575434875488281250e+01 3.660226058959960938e+01 -2.048024237155914307e-01 -1.703192442655563354e-01 -1.125365048646926880e-01 2.693696022033691406e-01
7.030000000000000000e+02 3.660327148437500000e+01 3.649831390380859375e+01 -2.814053297042846680e-01 -1.761993318796157837e-01 -1.372813880443572998e-01 3.572296202182769775e-01
7.040000000000000000e+02 4.088263320922851562e+01 3.592252731323242188e+01 -6.233062744140625000e-01 -2.242826223373413086e-01 -2.542766630649566650e-01 5.702950954437255859e-01
7.050000000000000000e+02 4.235738754272460938e+01 3.527422714233398438e+01 -9.146030545234680176e-01 -1.340392976999282837e-01 -3.145926892757415771e-01 5.366287827491760254e-01
7.060000000000000000e+02 3.069654464721679688e+01 2.927413749694824219e+01 -2.249064892530441284e-01 4.816339910030364990e-02 -5.302292481064796448e-02 -3.826552331447601318e-01
7.070000000000000000e+02 2.662495422363281250e+01 2.437225151062011719e+01 4.371308162808418274e-02 -2.227226942777633667e-01 -5.370288342237472534e-02 -3.403433859348297119e-01
7.080000000000000000e+02 3.698242950439453125e+01 2.909782981872558594e+01 -3.171059787273406982e-01 1.674063801765441895e-01 -4.490987211465835571e-02 -2.916841804981231689e-01
7.090000000000000000e+02 5.500708389282226562e+01 2.794570541381835938e+01 1.478225946426391602e+00 1.337788867950439453e+01 4.456834316253662109e+00 -5.755981802940368652e-01
7.100000000000000000e+02 6.385101699829101562e+01 2.681333160400390625e+01 1.063152551651000977e+00 8.670899391174316406e+00 2.920215606689453125e+00 -1.263471603393554688e+00
7.110000000000000000e+02 7.294437408447265625e+01 2.425428581237792969e+01 1.557958424091339111e-01 6.672558307647705078e+00 2.048506259918212891e+00 -1.028586387634277344e+00
7.120000000000000000e+02 5.966908645629882812e+01 3.430221939086914062e+01 1.948171019554138184e+00 1.060665416717529297e+01 3.766447544097900391e+00 1.029594540596008301e+00
7.130000000000000000e+02 3.341178131103515625e+01 1.566357994079589844e+01 3.535883426666259766e-01 7.911521196365356445e-01 3.434221446514129639e-01 1.584926694631576538e-01
7.140000000000000000e+02 3.367902374267578125e+01 1.665667152404785156e+01 3.911179900169372559e-01 7.659811377525329590e-01 3.471297323703765869e-01 1.431552916765213013e-01
7.150000000000000000e+02 4.093671035766601562e+01 2.050079345703125000e+01 8.207758665084838867e-01 1.758614182472229004e+00 7.738170027732849121e-01 8.522869348526000977e-01
7.160000000000000000e+02 4.611927032470703125e+01 1.986696052551269531e+01 5.864144563674926758e-01 4.001134395599365234e+00 1.376264691352844238e+00 1.770347595214843750e+00
7.170000000000000000e+02 5.631710433959960938e+01 2.066911315917968750e+01 -6.776106357574462891e-01 9.309137344360351562e+00 2.589457988739013672e+00 1.102175712585449219e-01
7.180000000000000000e+02 6.446537780761718750e+01 1.935330772399902344e+01 -2.647677659988403320e-01 8.351356506347656250e+00 2.425976753234863281e+00 -1.254558324813842773e+00
7.190000000000000000e+02 7.296791839599609375e+01 1.936468696594238281e+01 -2.896915376186370850e-02 7.081839084625244141e+00 2.115860939025878906e+00 -1.080406546592712402e+00
7.200000000000000000e+02 2.729748344421386719e+01 1.650349998474121094e+01 1.412915885448455811e-01 -1.768247485160827637e-01 -1.065994612872600555e-02 -1.127022802829742432e-01
7.210000000000000000e+02 2.705997085571289062e+01 1.236161136627197266e+01 9.735070168972015381e-02 -1.464923322200775146e-01 -1.474248897284269333e-02 6.393545772880315781e-03
7.220000000000000000e+02 2.763610267639160156e+01 1.561104774475097656e+00 5.664469208568334579e-03 2.445962578058242798e-01 7.507821917533874512e-02 1.621994972229003906e-01
7.230000000000000000e+02 2.588455009460449219e+01 2.963202714920043945e+00 1.005110447295010090e-03 -1.662759631872177124e-01 -4.958125576376914978e-02 1.173822134733200073e-01
7.240000000000000000e+02 3.369434738159179688e+01 4.460878372192382812e+00 3.731287270784378052e-02 1.382398962974548340e+00 4.259135425090789795e-01 3.082579076290130615e-01
7.250000000000000000e+02 3.320692443847656250e+01 7.189167499542236328e+00 1.001970171928405762e-01 1.197331428527832031e+00 3.892585337162017822e-01 3.038560748100280762e-01
7.260000000000000000e+02 3.407605743408203125e+01 1.052288436889648438e+01 2.017677873373031616e-01 1.224778890609741211e+00 4.279640018939971924e-01 3.112944364547729492e-01
7.270000000000000000e+02 2.817380905151367188e+01 9.531898498535156250e+00 8.296094089746475220e-02 1.300356239080429077e-01 6.389896571636199951e-02 9.363216161727905273e-02
7.280000000000000000e+02 4.193566131591796875e+01 1.010750102996826172e+01 7.774911820888519287e-02 3.152014255523681641e+00 9.689290523529052734e-01 7.216517925262451172e-01
7.290000000000000000e+02 3.962538146972656250e+01 1.275272274017333984e+01 2.954316735267639160e-01 2.366043806076049805e+00 7.984426021575927734e-01 6.796188354492187500e-01
7.300000000000000000e+02 5.980842590332031250e+01 1.198561191558837891e+01 -7.619391083717346191e-01 7.763216495513916016e+00 2.100383281707763672e+00 -4.153723120689392090e-01
7.310000000000000000e+02 6.624768066406250000e+01 1.039487266540527344e+01 -4.954608082771301270e-01 7.809159755706787109e+00 2.194109678268432617e+00 -8.718050122261047363e-01
7.320000000000000000e+02 7.302749633789062500e+01 1.143068313598632812e+01 -1.655192524194717407e-01 7.683576583862304688e+00 2.255417108535766602e+00 -8.330395817756652832e-01
7.330000000000000000e+02 2.106335449218750000e+01 1.837917518615722656e+01 3.347484627738595009e-03 -1.115282654762268066e+00 -3.335805535316467285e-01 -3.049960732460021973e-02
7.340000000000000000e+02 2.106369972229003906e+01 1.696763229370117188e+01 3.079857211560010910e-03 -1.184146404266357422e+00 -3.543199598789215088e-01 -2.353265136480331421e-02
7.350000000000000000e+02 2.105418586730957031e+01 9.921445846557617188e+00 1.462766551412642002e-03 -1.317937374114990234e+00 -3.949424028396606445e-01 3.994887229055166245e-03
7.360000000000000000e+02 2.100792312622070312e+01 4.284175395965576172e+00 -2.227922342717647552e-02 -1.313278317451477051e+00 -4.006672501564025879e-01 -4.309941083192825317e-02
7.370000000000000000e+02 2.104308891296386719e+01 5.697419643402099609e+00 -1.140775904059410095e-02 -1.326443552970886230e+00 -4.013554155826568604e-01 -6.434075068682432175e-03
7.380000000000000000e+02 4.553558731079101562e+01 4.516345977783203125e+00 -2.598177194595336914e-01 4.190485477447509766e+00 1.179200291633605957e+00 4.961083531379699707e-01
7.390000000000000000e+02 5.982280731201171875e+01 4.532738685607910156e+00 -5.970030426979064941e-01 7.059733390808105469e+00 1.938819050788879395e+00 -3.058690130710601807e-01
7.400000000000000000e+02 6.684683227539062500e+01 2.865713596343994141e+00 -3.626120686531066895e-01 7.647930145263671875e+00 2.185595273971557617e+00 -5.611028671264648438e-01
7.410000000000000000e+02 7.159843444824218750e+01 4.263638019561767578e+00 -2.054077982902526855e-01 7.959500789642333984e+00 2.326227903366088867e+00 -6.003201007843017578e-01
7.420000000000000000e+02 2.105693626403808594e+01 1.273626232147216797e+01 2.266590949147939682e-03 -1.300952076911926270e+00 -3.896056711673736572e-01 -4.034057259559631348e-03
7.430000000000000000e+02 3.918482971191406250e+01 1.951507925987243652e+00 -8.402009308338165283e-02 2.656555414199829102e+00 7.717605829238891602e-01 4.004831016063690186e-01
7.440000000000000000e+02 6.086578369140625000e+01 -3.695258378982543945e+00 -3.835126459598541260e-01 6.795583724975585938e+00 1.923621296882629395e+00 -2.301307022571563721e-01
7.450000000000000000e+02 5.838539886474609375e+01 -1.544482111930847168e+00 -4.576022326946258545e-01 6.511848926544189453e+00 1.816273927688598633e+00 -1.538087427616119385e-01
7.460000000000000000e+02 6.313222122192382812e+01 -1.913816213607788086e+00 -3.781885802745819092e-01 7.144928932189941406e+00 2.030022144317626953e+00 -3.353158533573150635e-01
7.470000000000000000e+02 7.068476867675781250e+01 -1.915754318237304688e+00 -1.721860617399215698e-01 8.008091926574707031e+00 2.350771665573120117e+00 -4.032261967658996582e-01
7.480000000000000000e+02 2.916173934936523438e+01 -3.780368804931640625e+00 -1.519782934337854385e-02 6.411893367767333984e-01 1.877974569797515869e-01 1.728183627128601074e-01
7.490000000000000000e+02 2.711340522766113281e+01 -9.640742301940917969e+00 -2.718515507876873016e-02 3.411417007446289062e-01 9.418696165084838867e-02 1.046945378184318542e-01
7.500000000000000000e+02 3.525788497924804688e+01 -1.460514736175537109e+01 -7.668955624103546143e-02 1.945416808128356934e+00 5.606181621551513672e-01 1.476155519485473633e-01
7.510000000000000000e+02 4.365926361083984375e+01 -2.283970069885253906e+01 -1.020221337676048279e-01 3.507016420364379883e+00 1.021498322486877441e+00 5.830376222729682922e-02
7.520000000000000000e+02 5.089163208007812500e+01 -3.009099578857421875e+01 -6.821761280298233032e-02 4.795414447784423828e+00 1.418159127235412598e+00 8.443666622042655945e-03
7.530000000000000000e+02 3.315047836303710938e+01 -4.747929096221923828e+00 -5.862178653478622437e-02 1.466644525527954102e+00 4.224068224430084229e-01 2.224334627389907837e-01
7.540000000000000000e+02 3.515011978149414062e+01 -1.321758079528808594e+01 -8.798671513795852661e-02 1.906016707420349121e+00 5.454090237617492676e-01 1.516518294811248779e-01
7.550000000000000000e+02 4.413385772705078125e+01 -1.215244197845458984e+01 -1.846227645874023438e-01 3.675839424133300781e+00 1.047364950180053711e+00 1.305396109819412231e-01
7.560000000000000000e+02 5.138704299926757812e+01 -2.311870193481445312e+01 -1.217276081442832947e-01 4.907919883728027344e+00 1.435857653617858887e+00 7.562404032796621323e-03
7.570000000000000000e+02 5.607656097412109375e+01 -2.558123970031738281e+01 -9.772817790508270264e-02 5.702074050903320312e+00 1.681303858757019043e+00 -1.369681581854820251e-02
7.580000000000000000e+02 4.277359390258789062e+01 -5.015122413635253906e+00 -2.099274694919586182e-01 3.455803632736206055e+00 9.737628698348999023e-01 2.515909373760223389e-01
7.590000000000000000e+02 4.197888565063476562e+01 -8.633164405822753906e+00 -1.784924268722534180e-01 3.272372484207153320e+00 9.281640052795410156e-01 1.945591568946838379e-01
7.600000000000000000e+02 4.840425872802734375e+01 -1.233085823059082031e+01 -2.215280234813690186e-01 4.466639995574951172e+00 1.273533582687377930e+00 7.485333085060119629e-02
7.610000000000000000e+02 6.007005310058593750e+01 -1.628686523437500000e+01 -1.640396863222122192e-01 6.432281017303466797e+00 1.880472302436828613e+00 -9.130968153476715088e-02
7.620000000000000000e+02 6.424445343017578125e+01 -1.012324428558349609e+01 -2.065553665161132812e-01 7.161144256591796875e+00 2.086376667022705078e+00 -2.033097743988037109e-01
7.630000000000000000e+02 7.158126831054687500e+01 -1.123496246337890625e+01 -8.382602781057357788e-02 8.245199203491210938e+00 2.448411941528320312e+00 -1.877194046974182129e-01
7.640000000000000000e+02 2.847749710083007812e+01 -9.523443222045898438e+00 -2.823579311370849609e-02 5.906173586845397949e-01 1.687144786119461060e-01 1.218284592032432556e-01
7.650000000000000000e+02 2.806336402893066406e+01 -1.629223823547363281e+01 -2.912406809628009796e-02 5.940289497375488281e-01 1.694714576005935669e-01 7.775341719388961792e-02
7.660000000000000000e+02 3.726258087158203125e+01 -2.785548019409179688e+01 -5.102063715457916260e-02 2.324640750885009766e+00 6.820860505104064941e-01 5.232581123709678650e-02
7.670000000000000000e+02 4.316775512695312500e+01 -3.216069030761718750e+01 -4.880090430378913879e-02 3.388297796249389648e+00 1.001849055290222168e+00 3.256247937679290771e-02
7.680000000000000000e+02 3.686098098754882812e+01 -1.132712173461914062e+01 -1.061988472938537598e-01 2.262166023254394531e+00 6.467902064323425293e-01 1.688299328088760376e-01
7.690000000000000000e+02 4.103670120239257812e+01 -1.013538742065429688e+01 -1.651351451873779297e-01 3.075388908386230469e+00 8.730761408805847168e-01 1.819319725036621094e-01
7.700000000000000000e+02 4.791270065307617188e+01 -9.512784004211425781e+00 -2.517364919185638428e-01 4.409332275390625000e+00 1.247278690338134766e+00 1.117940396070480347e-01
7.710000000000000000e+02 7.234799194335937500e+01 -1.970143318176269531e+01 -4.074530303478240967e-02 8.425728797912597656e+00 2.515495300292968750e+00 -8.149393647909164429e-02
7.720000000000000000e+02 7.076692962646484375e+01 -1.833228874206542969e+01 -5.610587075352668762e-02 8.173193931579589844e+00 2.435126543045043945e+00 -1.074490919709205627e-01
7.730000000000000000e+02 2.010135650634765625e+01 -1.536518573760986328e+01 -9.504720568656921387e-03 -8.466048836708068848e-01 -2.568328976631164551e-01 -6.319371610879898071e-02
7.740000000000000000e+02 3.795304489135742188e+01 -1.533081436157226562e+01 -1.018569171428680420e-01 2.441949129104614258e+00 7.020276784896850586e-01 1.342779397964477539e-01
7.750000000000000000e+02 4.287383270263671875e+01 -1.906959342956542969e+01 -1.264411211013793945e-01 3.355823993682861328e+00 9.688148498535156250e-01 7.729940116405487061e-02
7.760000000000000000e+02 5.210457992553710938e+01 -1.760844230651855469e+01 -1.809052973985671997e-01 5.094739437103271484e+00 1.474150180816650391e+00 2.676924457773566246e-03
7.770000000000000000e+02 2.785081100463867188e+01 -2.831012344360351562e+01 -2.713067084550857544e-02 6.560383439064025879e-01 1.886722892522811890e-01 2.905250526964664459e-02
7.780000000000000000e+02 3.615320587158203125e+01 -2.549467086791992188e+01 -5.320634692907333374e-02 2.137687921524047852e+00 6.253444552421569824e-01 6.772844493389129639e-02
7.790000000000000000e+02 4.175424575805664062e+01 -2.486731147766113281e+01 -8.255708962678909302e-02 3.137301206588745117e+00 9.164232015609741211e-01 5.569139495491981506e-02
7.800000000000000000e+02 5.242173004150390625e+01 -2.718194007873535156e+01 -9.247699379920959473e-02 5.056346893310546875e+00 1.489160895347595215e+00 1.141465082764625549e-02
7.810000000000000000e+02 6.533615112304687500e+01 -2.692956924438476562e+01 -6.796140223741531372e-02 7.242916107177734375e+00 2.152486324310302734e+00 -5.149948224425315857e-02
7.820000000000000000e+02 3.840286254882812500e+01 -3.058153152465820312e+01 -4.488893598318099976e-02 2.553776264190673828e+00 7.526661753654479980e-01 3.122346661984920502e-02
7.830000000000000000e+02 3.971122360229492188e+01 -3.364362335205078125e+01 -2.362358756363391876e-02 2.808255434036254883e+00 8.353895545005798340e-01 2.378015965223312378e-02
7.840000000000000000e+02 6.190605926513671875e+01 -3.314750289916992188e+01 -5.203243717551231384e-02 6.705767154693603516e+00 1.996120452880859375e+00 -2.104237303137779236e-02
7.850000000000000000e+02 7.489607238769531250e+01 -3.301626205444335938e+01 -2.952995896339416504e-02 8.948845863342285156e+00 2.675794839859008789e+00 -2.666922658681869507e-02
7.860000000000000000e+02 1.145557117462158203e+01 -3.115006065368652344e+01 4.214852582663297653e-03 3.177847014740109444e-03 2.217809902504086494e-03 -4.400879144668579102e-03
7.870000000000000000e+02 1.435899925231933594e+01 -1.764553070068359375e+01 6.841649301350116730e-04 -2.462713746353983879e-05 1.978613436222076416e-04 -1.374637504341080785e-04
7.880000000000000000e+02 1.148077487945556641e+01 -1.704009628295898438e+01 7.380290189757943153e-04 7.868550892453640699e-05 2.450143510941416025e-04 -3.160075284540653229e-04
7.890000000000000000e+02 1.459533214569091797e+01 -1.068969631195068359e+01 -4.425836959853768349e-04 -8.375734978471882641e-06 -1.352878316538408399e-04 6.274078623391687870e-05
7.900000000000000000e+02 1.249270343780517578e+01 -1.040282821655273438e+01 -3.889856452587991953e-04 -8.655517012812197208e-05 -1.426622475264593959e-04 1.823729107854887843e-04
7.910000000000000000e+02 5.906271934509277344e-01 -1.072517871856689453e+01 -5.339958588592708111e-04 -1.147444254456786439e-05 -1.636410888750106096e-04 1.730408257571980357e-05
7.920000000000000000e+02 1.351311779022216797e+01 9.108968734741210938e+00 -2.709274995140731335e-04 -2.753689295786898583e-05 -8.953931683208793402e-05 -2.603650500532239676e-05
7.930000000000000000e+02 2.626457977294921875e+01 3.432547760009765625e+01 -1.641082316637039185e-01 2.763998927548527718e-03 -4.840327054262161255e-02 -8.727370947599411011e-02
7.940000000000000000e+02 2.471493721008300781e+01 3.441622161865234375e+01 -9.162111580371856689e-02 -1.260147802531719208e-02 -3.126677870750427246e-02 -6.613051146268844604e-02
7.950000000000000000e+02 2.097134208679199219e+01 2.962406349182128906e+01 -3.590584732592105865e-03 -2.134627103805541992e-01 -6.511598825454711914e-02 -3.836456686258316040e-02
7.960000000000000000e+02 2.099142074584960938e+01 2.822799682617187500e+01 -1.643635216169059277e-03 -3.232379853725433350e-01 -9.746448695659637451e-02 -4.538235813379287720e-02
7.970000000000000000e+02 2.218634414672851562e+01 2.404941940307617188e+01 6.537484936416149139e-03 -5.918695330619812012e-01 -1.755996197462081909e-01 -1.438937038183212280e-01
7.980000000000000000e+02 2.102023696899414062e+01 2.400921058654785156e+01 9.668858256191015244e-04 -7.030223011970520020e-01 -2.106166183948516846e-01 -4.986779764294624329e-02
7.990000000000000000e+02 2.104813003540039062e+01 2.119594001770019531e+01 2.189525635913014412e-03 -9.340462684631347656e-01 -2.795570194721221924e-01 -4.208324104547500610e-02
8.000000000000000000e+02 2.231021499633789062e+01 1.555268859863281250e+01 1.508029457181692123e-02 -9.933832287788391113e-01 -2.934908866882324219e-01 -5.188953131437301636e-02
8.010000000000000000e+02 2.106130027770996094e+01 1.555565071105957031e+01 3.365700133144855499e-03 -1.237861514091491699e+00 -3.703487515449523926e-01 -1.646357215940952301e-02
8.020000000000000000e+02 2.105869102478027344e+01 1.414508247375488281e+01 2.765520242974162102e-03 -1.276322960853576660e+00 -3.820672333240509033e-01 -9.660360403358936310e-03
8.030000000000000000e+02 2.228990745544433594e+01 1.131287670135498047e+01 9.089778177440166473e-03 -1.050428628921508789e+00 -3.124016821384429932e-01 -4.576185718178749084e-03
8.040000000000000000e+02 2.105221748352050781e+01 8.514529228210449219e+00 -2.305328816873952746e-04 -1.315665006637573242e+00 -3.947686553001403809e-01 5.435956176370382309e-03
8.050000000000000000e+02 2.104842185974121094e+01 7.107234001159667969e+00 6.287262076511979103e-04 -1.310313701629638672e+00 -3.929054737091064453e-01 5.911362357437610626e-03
8.060000000000000000e+02 2.222789001464843750e+01 4.259539127349853516e+00 -3.450038284063339233e-02 -9.710866808891296387e-01 -3.016761243343353271e-01 9.313520044088363647e-03
8.070000000000000000e+02 2.092267227172851562e+01 2.872921705245971680e+00 -1.331946067512035370e-02 -1.222208499908447266e+00 -3.706583678722381592e-01 -7.292842864990234375e-02
8.080000000000000000e+02 2.081159782409667969e+01 1.468889594078063965e+00 4.260006360709667206e-03 -1.105030059814453125e+00 -3.302310109138488770e-01 -6.731042265892028809e-02
8.090000000000000000e+02 2.072544479370117188e+01 7.156108319759368896e-02 1.380926556885242462e-02 -1.046245336532592773e+00 -3.097308278083801270e-01 -4.035804420709609985e-02
8.100000000000000000e+02 2.049496650695800781e+01 -4.133471965789794922e+00 6.913152523338794708e-03 -9.574997425079345703e-01 -2.851759791374206543e-01 -4.733955860137939453e-02
8.110000000000000000e+02 2.200507354736328125e+01 -2.771079778671264648e+00 -6.865199655294418335e-03 -7.466222047805786133e-01 -2.260462194681167603e-01 1.451263017952442169e-02
8.120000000000000000e+02 2.034439849853515625e+01 -8.336381912231445312e+00 -2.935117227025330067e-04 -9.255264997482299805e-01 -2.777460217475891113e-01 -2.265080576762557030e-03
8.130000000000000000e+02 2.023720741271972656e+01 -1.255108261108398438e+01 -2.318837214261293411e-03 -8.872878551483154297e-01 -2.668820023536682129e-01 -2.121525630354881287e-02
8.140000000000000000e+02 2.027455139160156250e+01 -1.114719200134277344e+01 1.752613228745758533e-03 -8.917448520660400391e-01 -2.669976651668548584e-01 -2.191047929227352142e-02
8.150000000000000000e+02 2.159805297851562500e+01 -1.256820487976074219e+01 -1.258555240929126740e-02 -6.350437998771667480e-01 -1.942888051271438599e-01 -1.403744798153638840e-02
8.160000000000000000e+02 1.984400177001953125e+01 -1.957944869995117188e+01 1.066817063838243484e-02 -7.495794296264648438e-01 -2.216733843088150024e-01 -2.384328842163085938e-02
8.170000000000000000e+02 2.147527503967285156e+01 -1.821788024902343750e+01 1.833924464881420135e-02 -5.314376950263977051e-01 -1.539295464754104614e-01 -1.188112515956163406e-02
8.180000000000000000e+02 1.979314994812011719e+01 -2.240258598327636719e+01 -9.726665448397397995e-04 -7.693158984184265137e-01 -2.310865670442581177e-01 -2.174699865281581879e-02
8.190000000000000000e+02 1.969604873657226562e+01 -2.662004280090332031e+01 1.650805934332311153e-03 -7.715463042259216309e-01 -2.309686392545700073e-01 -4.572980105876922607e-03
8.200000000000000000e+02 1.971497154235839844e+01 -2.521636581420898438e+01 1.477505662478506565e-03 -7.602823972702026367e-01 -2.276414632797241211e-01 -7.341819815337657928e-03
8.210000000000000000e+02 1.966200256347656250e+01 -2.942098808288574219e+01 -9.266150300391018391e-04 -7.875467538833618164e-01 -2.365420162677764893e-01 -3.970392514020204544e-03
8.220000000000000000e+02 1.966909408569335938e+01 -3.222135925292968750e+01 -1.160408463329076767e-02 -8.251330852508544922e-01 -2.510211467742919922e-01 -2.032410539686679840e-02
8.230000000000000000e+02 2.115557289123535156e+01 -3.224352645874023438e+01 -3.312372416257858276e-02 -5.441096425056457520e-01 -1.731700152158737183e-01 -4.233996197581291199e-02
8.240000000000000000e+02 1.971360778808593750e+01 -3.363923645019531250e+01 -1.939279958605766296e-02 -8.932501077651977539e-01 -2.737928628921508789e-01 -4.866641014814376831e-02
8.250000000000000000e+02 1.432109546661376953e+01 -3.170065116882324219e+01 4.868758842349052429e-03 9.950604289770126343e-04 1.759145758114755154e-03 -1.758487429469823837e-03
8.260000000000000000e+02 1.453267478942871094e+01 -2.758382415771484375e+01 -3.262530313804745674e-03 -4.612456832546740770e-04 -1.117132836952805519e-03 8.617263665655627847e-05
8.270000000000000000e+02 1.297364044189453125e+01 -2.387555313110351562e+01 -1.235596835613250732e-03 7.845175423426553607e-05 -3.471435338724404573e-04 3.827282926067709923e-04
8.280000000000000000e+02 1.438191318511962891e+01 -2.351045989990234375e+01 1.869950210675597191e-03 -2.035020006587728858e-04 4.999344819225370884e-04 5.914085340918973088e-05
8.290000000000000000e+02 1.416845417022705078e+01 -2.054943275451660156e+01 7.932030712254345417e-04 -1.111851815949194133e-05 2.346253604628145695e-04 -9.786495502339676023e-05
8.300000000000000000e+02 1.289402198791503906e+01 -1.735419654846191406e+01 -7.525002001784741879e-04 -7.293153612408787012e-05 -2.476295339874923229e-04 2.973477239720523357e-04
8.310000000000000000e+02 1.440589237213134766e+01 -1.623901176452636719e+01 -6.069552036933600903e-04 -5.176476406631991267e-05 -1.976159983314573765e-04 1.409215765306726098e-04
8.320000000000000000e+02 1.461418533325195312e+01 -9.309469223022460938e+00 3.853413509204983711e-04 6.831268365203868598e-06 1.176517835119739175e-04 -4.695562893175520003e-05
8.330000000000000000e+02 1.254933643341064453e+01 -1.935283541679382324e+00 -7.525520049966871738e-05 -5.815687109134159982e-05 -4.002362038590945303e-05 7.310297223739326000e-05
8.340000000000000000e+02 1.307894325256347656e+01 -2.850951910018920898e+00 -1.992723555304110050e-04 -4.541920134215615690e-05 -7.340746378758922219e-05 1.546630664961412549e-04
8.350000000000000000e+02 1.429549503326416016e+01 -2.015439510345458984e+00 1.652854371059220284e-05 2.714098991418723017e-05 1.310086008743382990e-05 1.870580672402866185e-05
8.360000000000000000e+02 1.375470352172851562e+01 -2.026120185852050781e+00 -1.597826922079548240e-04 3.448060306254774332e-05 -3.759062747121788561e-05 1.203223200718639418e-05
8.370000000000000000e+02 1.319032287597656250e+01 -1.989329457283020020e+00 1.622678537387400866e-04 1.456970494473353028e-05 5.305126978782936931e-05 -1.074675092240795493e-04
8.380000000000000000e+02 1.183112716674804688e+01 -1.916823744773864746e+00 5.015331043978221714e-05 6.777945964131504297e-05 3.537983138812705874e-05 -2.858258812921121716e-05
8.390000000000000000e+02 9.597521781921386719e+00 -1.902860879898071289e+00 -9.202460205415263772e-05 -4.425398583407513797e-05 -4.088357673026621342e-05 3.858876880258321762e-05
8.400000000000000000e+02 1.035563182830810547e+01 -1.914737582206726074e+00 9.975344437407329679e-05 3.778218160732649267e-05 4.126068597543053329e-05 -3.667123382911086082e-05
8.410000000000000000e+02 8.832021713256835938e+00 -1.896487474441528320e+00 9.621542994864284992e-05 4.515922046266496181e-05 4.241239730617962778e-05 -3.761547122849151492e-05
8.420000000000000000e+02 7.300555229187011719e+00 -1.894875288009643555e+00 9.249542927136644721e-05 3.966972508351318538e-05 3.964954521507024765e-05 -2.160431540687568486e-05
8.430000000000000000e+02 5.764908790588378906e+00 -1.911122679710388184e+00 -8.003762559383176267e-06 7.557869685115292668e-05 2.027248046942986548e-05 -6.319893600448267534e-06
8.440000000000000000e+02 3.468894720077514648e+00 -1.957128524780273438e+00 -7.236943201860412955e-05 2.788169877021573484e-05 -1.334632088401122019e-05 -3.606441532610915601e-05
8.450000000000000000e+02 4.995390415191650391e+00 -1.925000667572021484e+00 6.418896373361349106e-05 -6.976079021114856005e-05 -1.671547124715289101e-06 2.653018782439175993e-05
8.460000000000000000e+02 4.247798919677734375e+00 -2.831683397293090820e+00 4.338877624832093716e-05 -9.038702410180121660e-05 -1.409947344654938206e-05 -1.093691662390483543e-05
8.470000000000000000e+02 2.711340427398681641e+00 -1.984881401062011719e+00 5.826052074553444982e-05 2.291467717441264540e-05 2.435255919408518821e-05 -3.805251981248147786e-05
8.480000000000000000e+02 1.955421090126037598e+00 -2.056505918502807617e+00 -3.495343480608426034e-05 -8.142943988787010312e-05 -3.491486131679266691e-05 5.045694342697970569e-05
8.490000000000000000e+02 1.190374493598937988e+00 -2.143569469451904297e+00 2.096272219205275178e-04 7.561559323221445084e-05 8.557284309063106775e-05 2.947545181086752564e-05
8.500000000000000000e+02 2.060703754425048828e+00 -4.162534713745117188e+01 3.929731319658458233e-04 8.064305409789085388e-03 2.537183696404099464e-03 -9.916392446029931307e-05
8.510000000000000000e+02 5.240840435028076172e+00 -3.748805236816406250e+01 2.566958428360521793e-04 2.283582929521799088e-03 7.620836258865892887e-04 5.141281057149171829e-03
8.520000000000000000e+02 9.876806139945983887e-01 -3.863073730468750000e+01 3.149322001263499260e-04 7.925867103040218353e-03 2.472239779308438301e-03 1.065485877916216850e-03
8.530000000000000000e+02 7.812489867210388184e-01 -3.470182800292968750e+01 5.414021434262394905e-04 3.553249174728989601e-03 1.228395383805036545e-03 7.055489113554358482e-04
8.540000000000000000e+02 7.021721005439758301e-01 -3.325254821777343750e+01 -3.882736200466752052e-04 2.268560463562607765e-03 5.640860763378441334e-04 5.441677640192210674e-04
8.550000000000000000e+02 6.466280817985534668e-01 -2.904853630065917969e+01 5.262907361611723900e-04 1.547883875900879502e-04 2.043237473117187619e-04 1.417577441316097975e-04
8.560000000000000000e+02 6.520847082138061523e-01 -2.764563560485839844e+01 -4.410721012391149998e-04 -1.598603412276133895e-04 -1.802797341952100396e-04 9.449935168959200382e-05
8.570000000000000000e+02 6.547601222991943359e-01 -2.623939704895019531e+01 5.132733494974672794e-04 -1.656932436162605882e-04 1.042740404955111444e-04 -3.983426358900032938e-05
8.580000000000000000e+02 6.436321139335632324e-01 -2.201172256469726562e+01 -7.479507476091384888e-04 -1.799250458134338260e-04 -2.783627423923462629e-04 5.631535896100103855e-05
8.590000000000000000e+02 6.302221417427062988e-01 -2.059952163696289062e+01 7.857668097130954266e-04 -1.179753890028223395e-04 2.003374247578904033e-04 -7.306586485356092453e-05
8.600000000000000000e+02 1.890119671821594238e+00 -2.061570739746093750e+01 -7.966613047756254673e-04 -6.020887667546048760e-05 -2.570610377006232738e-04 5.046184014645405114e-05
8.610000000000000000e+02 5.948140621185302734e-01 -1.636792373657226562e+01 -7.333187386393547058e-04 -5.709115794161334634e-05 -2.371229638811200857e-04 2.584755202406086028e-05
8.620000000000000000e+02 5.901830196380615234e-01 -1.496033859252929688e+01 6.914475816302001476e-04 -6.907847819093149155e-06 2.053619245998561382e-04 -4.041492138640023768e-05
8.630000000000000000e+02 5.881398320198059082e-01 -1.355096626281738281e+01 -6.482314202003180981e-04 -2.514032348699402064e-05 -2.020115207415074110e-04 3.000476681336294860e-05
8.640000000000000000e+02 1.767157554626464844e+00 -1.362485599517822266e+01 6.201382493600249290e-04 1.901443101814948022e-05 1.917457993840798736e-04 -5.066061930847354233e-05
8.650000000000000000e+02 5.938420891761779785e-01 -9.305013656616210938e+00 4.785788187291473150e-04 1.081297159544192255e-05 1.468175323680043221e-04 -1.861882083176169544e-05
8.660000000000000000e+02 5.916239023208618164e-01 -7.881096363067626953e+00 -4.395153082441538572e-04 -2.025559524554410018e-06 -1.324622571701183915e-04 1.487226290919352323e-05
8.670000000000000000e+02 5.707256197929382324e-01 -6.452526569366455078e+00 4.109357541892677546e-04 8.370823707082308829e-06 1.257919793715700507e-04 -1.178899310616543517e-05
8.680000000000000000e+02 7.467008209228515625e+01 -4.025037384033203125e+01 2.918553724884986877e-02 8.957820892333984375e+00 2.696101903915405273e+00 -4.667266085743904114e-02
8.690000000000000000e+02 3.243841934204101562e+01 -4.117440032958984375e+01 1.241259369999170303e-02 1.479675769805908203e+00 4.476265013217926025e-01 1.144864875823259354e-02
8.700000000000000000e+02 1.156235218048095703e+01 -3.946569442749023438e+01 -1.669660396873950958e-02 -1.152751594781875610e-02 -8.467235602438449860e-03 6.253234110772609711e-03
8.710000000000000000e+02 7.590014648437500000e+01 4.039695358276367188e+01 3.905803710222244263e-02 4.655415534973144531e+00 1.408342123031616211e+00 -2.050276547670364380e-01
8.720000000000000000e+02 7.806742095947265625e+01 4.174261093139648438e+01 -2.447346597909927368e-01 4.036365509033203125e+00 1.137489318847656250e+00 6.814992427825927734e-02
8.730000000000000000e+02 7.881948852539062500e+01 3.880440521240234375e+01 1.038617268204689026e-01 3.766257524490356445e+00 1.161035776138305664e+00 8.309140056371688843e-02
8.740000000000000000e+02 7.788514709472656250e+01 3.668826675415039062e+01 3.250715881586074829e-02 4.304549217224121094e+00 1.301116943359375000e+00 -9.978887438774108887e-02
8.750000000000000000e+02 7.921230316162109375e+01 3.495738983154296875e+01 1.536683738231658936e-02 3.706771135330200195e+00 1.116641402244567871e+00 -5.229232832789421082e-02
8.760000000000000000e+02 7.756455993652343750e+01 3.385625457763671875e+01 3.654371574521064758e-02 4.538659095764160156e+00 1.372560858726501465e+00 -1.570074558258056641e-01
8.770000000000000000e+02 7.918916320800781250e+01 3.357291412353515625e+01 1.172200217843055725e-02 3.815624237060546875e+00 1.148203849792480469e+00 -7.549799978733062744e-02
8.780000000000000000e+02 7.922274780273437500e+01 3.071565818786621094e+01 6.028808653354644775e-03 4.081274986267089844e+00 1.226191043853759766e+00 -8.939969539642333984e-02
8.790000000000000000e+02 7.655505371093750000e+01 2.784957885742187500e+01 8.148678392171859741e-02 5.372035980224609375e+00 1.636056780815124512e+00 -5.064064264297485352e-01
8.800000000000000000e+02 7.931792449951171875e+01 2.648076438903808594e+01 6.628011353313922882e-03 4.691704273223876953e+00 1.409499645233154297e+00 -1.346247196197509766e-01
8.810000000000000000e+02 7.664983367919921875e+01 2.504109954833984375e+01 3.659278899431228638e-02 5.702543258666992188e+00 1.721740722656250000e+00 -5.865656137466430664e-01
8.820000000000000000e+02 7.933095550537109375e+01 2.508291053771972656e+01 7.198623497970402241e-04 4.954978466033935547e+00 1.486709475517272949e+00 -1.413708180189132690e-01
8.830000000000000000e+02 7.936269378662109375e+01 2.089470100402832031e+01 6.423916667699813843e-03 5.825841903686523438e+00 1.749679684638977051e+00 -1.524474471807479858e-01
8.840000000000000000e+02 7.936833953857421875e+01 1.950278663635253906e+01 -5.593216046690940857e-03 6.127004623413085938e+00 1.836423397064208984e+00 -1.524684727191925049e-01
8.850000000000000000e+02 7.937176513671875000e+01 1.811284446716308594e+01 3.162970067933201790e-03 6.423754215240478516e+00 1.928075194358825684e+00 -1.489245593547821045e-01
8.860000000000000000e+02 7.937508392333984375e+01 1.394896888732910156e+01 -4.790048580616712570e-03 7.255634784698486328e+00 2.175253391265869141e+00 -1.357778608798980713e-01
8.870000000000000000e+02 7.937288665771484375e+01 1.255943202972412109e+01 -1.882123178802430630e-04 7.506024360656738281e+00 2.251750707626342773e+00 -1.295953392982482910e-01
8.880000000000000000e+02 7.936872863769531250e+01 1.116817665100097656e+01 -4.945236258208751678e-03 7.739459037780761719e+00 2.320353984832763672e+00 -1.228807047009468079e-01
8.890000000000000000e+02 7.935479736328125000e+01 6.990318775177001953e+00 -7.389199454337358475e-04 8.334069252014160156e+00 2.499999284744262695e+00 -1.020011082291603088e-01
8.900000000000000000e+02 7.935174560546875000e+01 5.597918033599853516e+00 -5.168438889086246490e-03 8.498746871948242188e+00 2.548073530197143555e+00 -9.484813362360000610e-02
8.910000000000000000e+02 7.934947967529296875e+01 4.202948570251464844e+00 -8.876813226379454136e-04 8.647868156433105469e+00 2.594094038009643555e+00 -8.801624178886413574e-02
8.920000000000000000e+02 7.934366607666015625e+01 1.516850292682647705e-02 -4.329755902290344238e-03 9.008358001708984375e+00 2.701208353042602539e+00 -6.831528246402740479e-02
8.930000000000000000e+02 7.934013366699218750e+01 -1.379199862480163574e+00 -5.289724795147776604e-04 9.103161811828613281e+00 2.730789899826049805e+00 -6.292234361171722412e-02
8.940000000000000000e+02 7.800771331787109375e+01 -4.153257846832275391e+00 -1.152872573584318161e-02 9.043522834777832031e+00 2.709598302841186523e+00 -1.170270219445228577e-01
8.950000000000000000e+02 7.933782958984375000e+01 -4.168179512023925781e+00 -5.883466219529509544e-04 9.262291908264160156e+00 2.778511047363281250e+00 -5.307330936193466187e-02
8.960000000000000000e+02 7.934283447265625000e+01 -8.347941398620605469e+00 -2.398945158347487450e-03 9.438663482666015625e+00 2.830879211425781250e+00 -4.076358675956726074e-02
8.970000000000000000e+02 7.802313232421875000e+01 -1.111731624603271484e+01 -6.016259547322988510e-03 9.289195060729980469e+00 2.784953832626342773e+00 -6.765642017126083374e-02
8.980000000000000000e+02 7.934194946289062500e+01 -1.113498592376708984e+01 -1.688424381427466869e-03 9.523644447326660156e+00 2.856586933135986328e+00 -3.426211699843406677e-02
8.990000000000000000e+02 7.933844757080078125e+01 -1.531507587432861328e+01 -1.219622674398124218e-03 9.615082740783691406e+00 2.884159088134765625e+00 -2.595319598913192749e-02
9.000000000000000000e+02 7.800465393066406250e+01 -1.807918357849121094e+01 -3.881817450746893883e-03 9.415607452392578125e+00 2.823517799377441406e+00 -3.856422007083892822e-02
9.010000000000000000e+02 7.933803558349609375e+01 -1.810018730163574219e+01 -1.520576304756104946e-03 9.657095909118652344e+00 2.896672487258911133e+00 -2.144826576113700867e-02
9.020000000000000000e+02 7.933811187744140625e+01 -2.365639114379882812e+01 1.174174467450939119e-04 9.708240509033203125e+00 2.912507534027099609e+00 -1.487267017364501953e-02
9.030000000000000000e+02 7.798875427246093750e+01 -2.497528839111328125e+01 -1.357160974293947220e-03 9.470293998718261719e+00 2.840681076049804688e+00 -2.309463173151016235e-02
9.040000000000000000e+02 7.932986450195312500e+01 -2.504822158813476562e+01 -1.138102379627525806e-03 9.717573165893554688e+00 2.914930582046508789e+00 -1.371764391660690308e-02
9.050000000000000000e+02 7.930742645263671875e+01 -2.921534538269042969e+01 -1.037730020470917225e-03 9.745481491088867188e+00 2.923333168029785156e+00 -1.227036211639642715e-02
9.060000000000000000e+02 7.791278076171875000e+01 -3.186503219604492188e+01 -1.060130540281534195e-02 9.500515937805175781e+00 2.846974611282348633e+00 -9.824759326875209808e-03
9.070000000000000000e+02 7.931233978271484375e+01 -3.198479461669921875e+01 -4.670666996389627457e-03 9.754731178283691406e+00 2.925018072128295898e+00 -3.281517419964075089e-03
9.080000000000000000e+02 7.931379699707031250e+01 -3.608000564575195312e+01 1.039082277566194534e-02 9.706618309020996094e+00 2.915102720260620117e+00 6.509011145681142807e-03
9.090000000000000000e+02 7.918795776367187500e+01 -3.739395141601562500e+01 -2.371412701904773712e-02 9.661689758300781250e+00 2.891392707824707031e+00 2.814087457954883575e-02
9.100000000000000000e+02 7.892891693115234375e+01 -3.868935394287109375e+01 2.258865162730216980e-03 9.605548858642578125e+00 2.882342338562011719e+00 3.663527593016624451e-02
9.110000000000000000e+02 7.855005645751953125e+01 -4.005005264282226562e+01 -1.464598346501588821e-02 9.551432609558105469e+00 2.861036062240600586e+00 4.870475083589553833e-02
9.120000000000000000e+02 4.781177520751953125e+00 4.053379058837890625e+01 -6.141841877251863480e-04 1.680346613284200430e-04 -1.338448637397959828e-04 3.316758084110915661e-04
9.130000000000000000e+02 2.744889259338378906e+01 3.802276229858398438e+01 -7.056474685668945312e-03 1.949793775565922260e-03 -1.532004331238567829e-03 1.340898778289556503e-02
9.140000000000000000e+02 4.707613372802734375e+01 3.723201751708984375e+01 7.364045977592468262e-01 1.957684040069580078e+00 8.082265853881835938e-01 -9.667957425117492676e-01
9.150000000000000000e+02 6.761531829833984375e+01 4.095768737792968750e+01 1.709106862545013428e-01 8.278969764709472656e+00 2.534964084625244141e+00 3.134116157889366150e-02
9.160000000000000000e+02 6.765410304069519043e-01 3.016859054565429688e+00 1.085357071133330464e-04 -4.163129415246658027e-05 2.007132206927053630e-05 1.703633752185851336e-04
9.170000000000000000e+02 3.093014955520629883e+00 2.733413457870483398e+00 -1.112932513933628798e-04 -6.147191743366420269e-05 -5.182955283089540899e-05 7.236422334244707599e-06
9.180000000000000000e+02 5.264892101287841797e+00 2.692042589187622070e+00 5.767100083176046610e-05 6.345585279632359743e-05 3.633805317804217339e-05 -2.181607487727887928e-05
9.190000000000000000e+02 1.680251955986022949e+00 6.276726722717285156e+00 2.175970876123756170e-04 3.012273919011931866e-05 7.431594713125377893e-05 -3.993254358647391200e-05
9.200000000000000000e+02 5.964246392250061035e-01 9.236319541931152344e+00 -2.798161585815250874e-04 -1.905707790683663916e-06 -8.451655594399198890e-05 2.721996679611038417e-05
9.210000000000000000e+02 6.198812127113342285e-01 1.207146549224853516e+01 -3.398495318833738565e-04 1.983733227461925708e-06 -1.013597357086837292e-04 2.050549665000289679e-05
9.220000000000000000e+02 1.850428938865661621e+00 1.200043582916259766e+01 3.569693362805992365e-04 -1.493726540502393618e-05 1.026096215355210006e-04 -3.341358387842774391e-05
9.230000000000000000e+02 6.697034239768981934e-01 1.632475662231445312e+01 3.824978484772145748e-04 2.813035962390131317e-06 1.155932695837691426e-04 -3.569082764443010092e-06
9.240000000000000000e+02 2.012892246246337891e+00 1.772841835021972656e+01 4.155482456553727388e-04 2.926237357314676046e-06 1.255423412658274174e-04 1.079624689737102017e-05
9.250000000000000000e+02 6.709789633750915527e-01 1.774667549133300781e+01 -3.942050680052489042e-04 7.448508085872163065e-07 -1.180380641017109156e-04 2.391019734204746783e-06
9.260000000000000000e+02 6.291835904121398926e-01 2.199966239929199219e+01 4.794592096004635096e-04 1.643191694711276796e-06 1.443307264707982540e-04 -4.497331076436239528e-07
9.270000000000000000e+02 6.158118844032287598e-01 2.340998840332031250e+01 -5.040573887526988983e-04 2.410081833659205586e-06 -1.504941901657730341e-04 -4.146150331507669762e-06
9.280000000000000000e+02 1.842282414436340332e+00 2.341537284851074219e+01 5.241613253019750118e-04 -1.089743545890087262e-05 1.539791701361536980e-04 2.765503450063988566e-05
9.290000000000000000e+02 6.116062998771667480e-01 2.481916618347167969e+01 5.142460577189922333e-04 -2.370965603404329158e-06 1.535625342512503266e-04 1.226668609888292849e-05
9.300000000000000000e+02 6.545010209083557129e-01 2.903879737854003906e+01 -4.364397609606385231e-04 -1.692191654001362622e-05 -1.360085007036104798e-04 -2.039158789557404816e-05
9.310000000000000000e+02 6.741789579391479492e-01 3.044981193542480469e+01 3.974129795096814632e-04 -1.577925831952597946e-05 1.144901107181794941e-04 2.200469316449016333e-05
9.320000000000000000e+02 2.089400768280029297e+00 3.179227256774902344e+01 4.714346432592719793e-04 2.465755642333533615e-05 1.488276611780747771e-04 6.043643952580168843e-05
9.330000000000000000e+02 6.869037151336669922e-01 3.186063766479492188e+01 -3.811197821050882339e-04 -4.594989150064066052e-05 -1.281208969885483384e-04 3.910710802301764488e-06
9.340000000000000000e+02 6.659606099128723145e-01 3.605811309814453125e+01 7.309035863727331161e-04 2.270578988827764988e-06 2.199522568844258785e-04 -1.799717138055711985e-04
9.350000000000000000e+02 1.967249393463134766e+00 3.717234420776367188e+01 6.709870649501681328e-04 3.537024895194917917e-05 2.119072014465928078e-04 -3.122951893601566553e-04
9.360000000000000000e+02 8.564015030860900879e-01 3.875108337402343750e+01 9.910938097164034843e-04 -2.647988003445789218e-05 2.893841883633285761e-04 -2.152154920622706413e-04
9.370000000000000000e+02 1.236442446708679199e+00 4.009941101074218750e+01 -8.547460311092436314e-04 -6.118442979641258717e-05 -2.747791295405477285e-04 1.376345026073977351e-04
9.380000000000000000e+02 1.039434432983398438e+01 1.846753239631652832e+00 8.063630230026319623e-05 7.369738341367337853e-06 2.640181082824710757e-05 -9.258224054065067321e-06
9.390000000000000000e+02 8.935495376586914062e+00 1.874728083610534668e+00 6.780355761293321848e-05 2.353580202907323837e-05 2.740180752880405635e-05 9.574206160323228687e-06
9.400000000000000000e+02 8.214027404785156250e+00 1.879399061203002930e+00 -6.119317549746483564e-05 -3.179561826982535422e-05 -2.789663813018705696e-05 -9.636749382480047643e-06
9.410000000000000000e+02 8.196719169616699219e+00 2.640864133834838867e+00 8.107495523290708661e-05 4.125117266084998846e-05 3.669783836812712252e-05 1.636860179132781923e-05
9.420000000000000000e+02 7.494532108306884766e+00 1.882712006568908691e+00 5.693712955689989030e-05 3.917285357601940632e-05 2.883299566747155041e-05 7.061460109980544075e-06
9.430000000000000000e+02 5.327631950378417969e+00 1.898696064949035645e+00 -4.691331560024991632e-05 -5.208780567045323551e-05 -2.970033710880670696e-05 1.987393443414475769e-05
9.440000000000000000e+02 4.603830337524414062e+00 1.908189296722412109e+00 5.602409146376885474e-05 5.096363383927382529e-05 3.209631904610432684e-05 -2.588625648058950901e-05
9.450000000000000000e+02 3.887651920318603516e+00 1.911093473434448242e+00 -7.320281292777508497e-05 -5.003145270165987313e-05 -3.697027932503260672e-05 2.569625030446331948e-05
9.460000000000000000e+02 3.183747529983520508e+00 1.901560783386230469e+00 9.017338015837594867e-05 4.748786159325391054e-05 4.129837543587200344e-05 -1.034150409395806491e-05
9.470000000000000000e+02 2.490412950515747070e+00 1.885983467102050781e+00 -7.795207056915387511e-05 -5.532976865652017295e-05 -3.998455213150009513e-05 -1.084809264284558594e-05
9.480000000000000000e+02 1.802270293235778809e+00 1.881442427635192871e+00 4.147881190874613822e-05 6.990853580646216869e-05 3.341620686114765704e-05 1.347732631984399632e-05
9.490000000000000000e+02 1.187169933319091797e+01 1.773827195167541504e+00 6.499185838038101792e-05 1.215843440149910748e-05 2.314508674317039549e-05 -3.014776848431210965e-05
9.500000000000000000e+02 1.436603641510009766e+01 2.968086481094360352e+00 -3.278135045547969639e-05 -5.791278817923739552e-05 -2.720824159041512758e-05 8.239917224273085594e-05
9.510000000000000000e+02 1.460321617126464844e+01 3.777842521667480469e+00 1.490982540417462587e-04 3.500948514556512237e-05 5.523232539417222142e-05 -4.656785677070729434e-05
9.520000000000000000e+02 1.479566764831542969e+01 2.009290695190429688e+00 -9.901379235088825226e-05 -1.613690437807235867e-05 -3.454520992818288505e-05 -1.933497060235822573e-06
9.530000000000000000e+02 1.461944293975830078e+01 6.347484588623046875e+00 2.406826970400288701e-04 1.152243385149631649e-05 7.566154090454801917e-05 -2.801283335429616272e-05
9.540000000000000000e+02 1.460381507873535156e+01 7.701373577117919922e+00 -2.738236216828227043e-04 -1.027668349706800655e-05 -8.523008727934211493e-05 1.732202326820697635e-05
9.550000000000000000e+02 1.458150100708007812e+01 9.065540313720703125e+00 3.068671794608235359e-04 8.496689588355366141e-06 9.460916044190526009e-05 -5.099624559079529718e-06
9.560000000000000000e+02 1.451612567901611328e+01 1.181175422668457031e+01 3.795380762312561274e-04 1.401501208420086186e-07 1.139034720836207271e-04 1.158260511147091165e-05
9.570000000000000000e+02 1.446028995513916016e+01 1.320044898986816406e+01 -4.054896126035600901e-04 1.147838884207885712e-05 -1.182033665827475488e-04 -1.166495621873764321e-06
9.580000000000000000e+02 1.439705085754394531e+01 1.460112094879150391e+01 4.282480513211339712e-04 5.507163223228417337e-06 1.301265583606436849e-04 -5.055122073827078566e-06
9.590000000000000000e+02 1.438382530212402344e+01 1.600391387939453125e+01 -4.740152508020401001e-04 -1.323221340499003418e-06 -1.426015369361266494e-04 -1.868314029707107693e-06
9.600000000000000000e+02 1.319610500335693359e+01 2.031385040283203125e+01 -6.294201593846082687e-04 -2.604100700409617275e-05 -1.966383570106700063e-04 1.363181763736065477e-05
9.610000000000000000e+02 1.453234577178955078e+01 2.157053184509277344e+01 -7.627475424669682980e-04 -1.161025556939421222e-05 -2.323073422303423285e-04 1.959567998710554093e-05
9.620000000000000000e+02 1.484951496124267578e+01 2.567930221557617188e+01 1.123690977692604065e-03 2.099741504935082048e-05 3.434065147303044796e-04 4.500539944274351001e-05
9.630000000000000000e+02 1.336525058746337891e+01 2.302316284179687500e+01 -7.836010772734880447e-04 -1.927449193317443132e-05 -2.408626751275733113e-04 -5.761726060882210732e-05
9.640000000000000000e+02 1.495601081848144531e+01 2.704740524291992188e+01 -1.267419662326574326e-03 -2.006989598157815635e-05 -3.862468583974987268e-04 -8.199475269066169858e-05
9.650000000000000000e+02 1.509218692779541016e+01 2.841348838806152344e+01 1.430702279321849346e-03 1.355492440779926255e-05 4.332771641202270985e-04 1.087467826437205076e-04
9.660000000000000000e+02 1.571500968933105469e+01 3.264530563354492188e+01 -1.763398293405771255e-03 -1.326824130956083536e-04 -5.688242381438612938e-04 1.381901238346472383e-04
9.670000000000000000e+02 1.628592109680175781e+01 3.401044464111328125e+01 2.130073728039860725e-03 -1.857094612205401063e-04 5.833092727698385715e-04 -4.900668282061815262e-04
9.680000000000000000e+02 1.526566219329833984e+01 3.566187286376953125e+01 2.061642007902264595e-03 -3.693995822686702013e-04 5.076727247796952724e-04 -5.618454888463020325e-04
9.690000000000000000e+02 1.717370033264160156e+01 3.648081588745117188e+01 2.859143540263175964e-03 2.632334944792091846e-04 9.367131278850138187e-04 -3.313412889838218689e-05
9.700000000000000000e+02 1.942135429382324219e+01 3.843786239624023438e+01 7.006432279013097286e-04 1.782307634130120277e-03 7.448852411471307278e-04 -6.033663521520793438e-04
9.710000000000000000e+02 2.165893173217773438e+01 3.830089950561523438e+01 1.741070067510008812e-03 -1.079529756680130959e-03 1.984620903385803103e-04 4.259240085957571864e-05
9.720000000000000000e+02 2.329283142089843750e+01 3.854163360595703125e+01 3.093192935921251774e-04 -1.937325578182935715e-03 -4.884019144810736179e-04 1.815915602492168546e-04
9.730000000000000000e+02 2.517674064636230469e+01 3.866473007202148438e+01 9.817315731197595596e-04 -1.121607515960931778e-02 -3.070303006097674370e-03 2.818765351548790932e-03
9.740000000000000000e+02 2.825634956359863281e+01 3.800784683227539062e+01 -9.041710756719112396e-03 -2.782910130918025970e-02 -1.106124371290206909e-02 1.562864519655704498e-02
9.750000000000000000e+02 2.906338310241699219e+01 3.787573242187500000e+01 -1.302733551710844040e-02 -9.463730268180370331e-03 -6.747319828718900681e-03 2.872927859425544739e-02
9.760000000000000000e+02 3.114465332031250000e+01 3.755346298217773438e+01 -4.327037185430526733e-02 -6.819541007280349731e-02 -3.343973308801651001e-02 7.740649580955505371e-02
9.770000000000000000e+02 3.352129745483398438e+01 3.723461151123046875e+01 -9.819631278514862061e-02 -9.540798515081405640e-02 -5.808128789067268372e-02 1.564900577068328857e-01
9.780000000000000000e+02 3.436145782470703125e+01 3.711889266967773438e+01 -1.271468549966812134e-01 -1.434920430183410645e-01 -8.119166642427444458e-02 1.896806061267852783e-01
9.790000000000000000e+02 3.578724670410156250e+01 3.740320587158203125e+01 -8.886497467756271362e-02 -1.917994022369384766e-01 -8.419931679964065552e-02 2.639084458351135254e-01
9.800000000000000000e+02 3.729978561401367188e+01 3.621835327148437500e+01 -4.078739285469055176e-01 -1.754440963268280029e-01 -1.749954074621200562e-01 3.643551468849182129e-01
9.810000000000000000e+02 3.905144500732421875e+01 3.604745483398437500e+01 -4.554232060909271240e-01 -1.760753989219665527e-01 -1.894495785236358643e-01 4.956995844841003418e-01
9.820000000000000000e+02 3.993524932861328125e+01 3.610746002197265625e+01 -5.365054607391357422e-01 -2.253026068210601807e-01 -2.285424172878265381e-01 5.291242003440856934e-01
9.830000000000000000e+02 4.299696731567382812e+01 3.512985229492187500e+01 -9.576884508132934570e-01 -1.393454223871231079e-01 -3.291101455688476562e-01 5.272531509399414062e-01
9.840000000000000000e+02 4.373733520507812500e+01 3.509648895263671875e+01 -9.596281647682189941e-01 -1.626244634389877319e-01 -3.366757929325103760e-01 5.274714827537536621e-01
9.850000000000000000e+02 4.521343612670898438e+01 3.474731445312500000e+01 -1.048645853996276855e+00 5.747179035097360611e-03 -3.128696084022521973e-01 4.684010446071624756e-01
9.860000000000000000e+02 4.589916992187500000e+01 3.457173538208007812e+01 -1.005277514457702637e+00 1.402386426925659180e-01 -2.595116794109344482e-01 2.520281970500946045e-01
9.870000000000000000e+02 4.710702133178710938e+01 3.439438629150390625e+01 -6.234747171401977539e-01 4.156017303466796875e-01 -6.236188858747482300e-02 -8.154736459255218506e-02
9.880000000000000000e+02 4.768688964843750000e+01 3.436280059814453125e+01 -4.202131628990173340e-01 5.979978442192077637e-01 5.333539843559265137e-02 -4.288929402828216553e-01
9.890000000000000000e+02 4.889233398437500000e+01 3.423925399780273438e+01 4.197856783866882324e-01 1.656734466552734375e+00 6.229560375213623047e-01 -1.435401320457458496e+00
9.900000000000000000e+02 4.969666671752929688e+01 3.375574874877929688e+01 1.025925278663635254e+00 2.293226718902587891e+00 9.957455992698669434e-01 -2.536799669265747070e+00
9.910000000000000000e+02 5.088022613525390625e+01 3.360004043579101562e+01 1.770791769027709961e+00 7.856122970581054688e+00 2.888074398040771484e+00 -5.302829265594482422e+00
9.920000000000000000e+02 5.165288162231445312e+01 3.346398162841796875e+01 5.733474493026733398e-01 1.514646434783935547e+01 4.715943336486816406e+00 -5.648966312408447266e+00
9.930000000000000000e+02 5.099293136596679688e+01 3.015330696105957031e+01 4.580012798309326172e+00 8.605356216430664062e+00 3.955610752105712891e+00 7.368596076965332031e+00
9.940000000000000000e+02 4.912030410766601562e+01 3.013722610473632812e+01 2.603150844573974609e+00 1.166208505630493164e+00 1.130807757377624512e+00 2.639855861663818359e+00
9.950000000000000000e+02 4.775515747070312500e+01 3.063058662414550781e+01 1.405757665634155273e-01 2.137265056371688843e-01 1.062906831502914429e-01 7.898394465446472168e-01
9.960000000000000000e+02 4.717208099365234375e+01 3.071220397949218750e+01 -3.655662238597869873e-01 9.331834316253662109e-02 -8.167435973882675171e-02 6.027855873107910156e-01
9.970000000000000000e+02 4.530574798583984375e+01 3.100939750671386719e+01 -1.195487141609191895e+00 1.441862341016530991e-02 -3.543205559253692627e-01 2.177802622318267822e-01
9.980000000000000000e+02 4.236100387573242188e+01 3.151016807556152344e+01 -1.518909454345703125e+00 3.086300753057003021e-02 -4.464139342308044434e-01 5.877677351236343384e-02
9.990000000000000000e+02 4.310016632080078125e+01 3.138235473632812500e+01 -1.513931274414062500e+00 2.932424657046794891e-02 -4.453821182250976562e-01 8.123838901519775391e-02
1.000000000000000000e+03 4.383996582031250000e+01 3.125931739807128906e+01 -1.473149538040161133e+00 2.477607317268848419e-02 -4.345120191574096680e-01 1.198318451642990112e-01
1.001000000000000000e+03 4.088775253295898438e+01 3.177916717529296875e+01 -1.471708178520202637e+00 4.540052264928817749e-02 -4.278922975063323975e-01 1.864538528025150299e-02
1.002000000000000000e+03 4.015128326416015625e+01 3.191667556762695312e+01 -1.421086430549621582e+00 5.335150286555290222e-02 -4.103204905986785889e-01 4.653119016438722610e-03
1.003000000000000000e+03 3.646692657470703125e+01 3.260889434814453125e+01 -1.073918819427490234e+00 4.947115480899810791e-02 -3.073343038558959961e-01 -6.245645135641098022e-02
1.004000000000000000e+03 3.794120788574218750e+01 3.232717514038085938e+01 -1.222947716712951660e+00 4.850274324417114258e-02 -3.523334860801696777e-01 -3.767790645360946655e-02
1.005000000000000000e+03 3.938808059692382812e+01 3.139171981811523438e+01 -1.114935994148254395e+00 8.359436690807342529e-02 -3.094024956226348877e-01 -9.613746404647827148e-02
1.006000000000000000e+03 3.499622344970703125e+01 3.290153884887695312e+01 -9.197320938110351562e-01 5.230376124382019043e-02 -2.602284848690032959e-01 -8.059942722320556641e-02
1.007000000000000000e+03 3.426169967651367188e+01 3.304722213745117188e+01 -8.402863144874572754e-01 5.512533336877822876e-02 -2.355482876300811768e-01 -8.702424913644790649e-02
1.008000000000000000e+03 3.134229850769042969e+01 3.360925674438476562e+01 -5.441089868545532227e-01 4.618192464113235474e-02 -1.493781208992004395e-01 -1.045046299695968628e-01
1.009000000000000000e+03 3.279990386962890625e+01 3.333168411254882812e+01 -6.871904134750366211e-01 5.212378874421119690e-02 -1.905199885368347168e-01 -9.848714619874954224e-02
1.010000000000000000e+03 2.915917968750000000e+01 3.397141265869140625e+01 -3.552155196666717529e-01 2.948330156505107880e-02 -9.771966934204101562e-02 -1.064784154295921326e-01
1.011000000000000000e+03 2.843175888061523438e+01 3.408089447021484375e+01 -3.005039989948272705e-01 2.465968579053878784e-02 -8.275329321622848511e-02 -1.039310395717620850e-01
1.012000000000000000e+03 2.770955085754394531e+01 3.417534637451171875e+01 -2.504452168941497803e-01 1.726081967353820801e-02 -6.995531916618347168e-02 -1.004357710480690002e-01
1.013000000000000000e+03 2.381906890869140625e+01 3.440346908569335938e+01 -5.971805378794670105e-02 -1.758988946676254272e-02 -2.319238334894180298e-02 -5.179717391729354858e-02
1.014000000000000000e+03 2.112833595275878906e+01 3.337353515625000000e+01 -5.964509677141904831e-03 -2.422560192644596100e-02 -9.057032875716686249e-03 -1.609493046998977661e-02
1.015000000000000000e+03 4.952195358276367188e+01 3.382650756835937500e+01 9.815022349357604980e-01 2.582808017730712891e+00 1.069293022155761719e+00 -2.262435436248779297e+00
1.016000000000000000e+03 4.987977218627929688e+01 3.372740936279296875e+01 1.152064919471740723e+00 2.624413013458251953e+00 1.132943391799926758e+00 -2.818792819976806641e+00
1.017000000000000000e+03 5.049656677246093750e+01 3.370033645629882812e+01 1.575068831443786621e+00 5.672781944274902344e+00 2.174355268478393555e+00 -4.305610179901123047e+00
1.018000000000000000e+03 5.048495864868164062e+01 3.410424423217773438e+01 1.247815012931823730e+00 6.333275318145751953e+00 2.274327039718627930e+00 -4.257218837738037109e+00
1.019000000000000000e+03 5.129462432861328125e+01 3.355019760131835938e+01 1.191675543785095215e+00 1.106691074371337891e+01 3.677576065063476562e+00 -5.908373355865478516e+00
1.020000000000000000e+03 5.147223281860351562e+01 3.348773956298828125e+01 1.016233563423156738e+00 1.275827598571777344e+01 4.132352828979492188e+00 -5.977571487426757812e+00
1.021000000000000000e+03 5.214620590209960938e+01 3.347049713134765625e+01 -2.701155245304107666e-01 1.956601524353027344e+01 5.788769721984863281e+00 -3.618095397949218750e+00
1.022000000000000000e+03 5.187635803222656250e+01 3.347868347167968750e+01 1.414747089147567749e-01 1.734074974060058594e+01 5.244667530059814453e+00 -4.713466167449951172e+00
1.023000000000000000e+03 5.163077545166015625e+01 3.370267486572265625e+01 2.841853499412536621e-01 1.427917861938476562e+01 4.369009017944335938e+00 -5.226234436035156250e+00
1.024000000000000000e+03 5.263294601440429688e+01 3.335152435302734375e+01 7.224351763725280762e-01 2.140744018554687500e+01 6.638962745666503906e+00 -1.641368716955184937e-01
1.025000000000000000e+03 5.089313125610351562e+01 3.389715576171875000e+01 1.135501980781555176e+00 8.015081405639648438e+00 2.745174884796142578e+00 -4.886663913726806641e+00
1.026000000000000000e+03 4.870828247070312500e+01 3.051670837402343750e+01 1.273617982864379883e+00 4.182973206043243408e-01 5.075745582580566406e-01 1.512525439262390137e+00
1.027000000000000000e+03 5.056569290161132812e+01 3.028388023376464844e+01 4.733413219451904297e+00 4.942746162414550781e+00 2.902847766876220703e+00 6.011091709136962891e+00
1.028000000000000000e+03 5.037712097167968750e+01 3.033932304382324219e+01 4.703751087188720703e+00 3.680039405822753906e+00 2.515137195587158203e+00 5.419019699096679688e+00
1.029000000000000000e+03 4.978152847290039062e+01 3.038058853149414062e+01 3.572683572769165039e+00 1.746359229087829590e+00 1.595712900161743164e+00 3.395593643188476562e+00
1.030000000000000000e+03 5.014722442626953125e+01 3.014108467102050781e+01 4.311727523803710938e+00 3.464224815368652344e+00 2.332785606384277344e+00 5.005850791931152344e+00
1.031000000000000000e+03 4.976730728149414062e+01 3.004310798645019531e+01 3.623737812042236328e+00 2.536824464797973633e+00 1.848168730735778809e+00 3.971361160278320312e+00
1.032000000000000000e+03 4.951226043701171875e+01 2.999192237854003906e+01 3.233036518096923828e+00 2.045399188995361328e+00 1.583530664443969727e+00 3.505263805389404297e+00
1.033000000000000000e+03 4.913104248046875000e+01 3.043739128112792969e+01 2.194302558898925781e+00 7.909856438636779785e-01 8.955864906311035156e-01 2.136717319488525391e+00
1.034000000000000000e+03 4.892107009887695312e+01 3.046850776672363281e+01 1.800880670547485352e+00 7.957765460014343262e-01 7.789971232414245605e-01 1.860646843910217285e+00
1.035000000000000000e+03 4.998787307739257812e+01 3.038171768188476562e+01 3.903873682022094727e+00 2.208837509155273438e+00 1.833813428878784180e+00 3.932545423507690430e+00
1.036000000000000000e+03 2.028609657287597656e+01 3.798472213745117188e+01 2.590477000921964645e-03 -1.339958282187581062e-03 3.751556505449116230e-04 -4.159249074291437864e-04
1.037000000000000000e+03 1.421027755737304688e+01 1.881550669670104980e+00 4.217671812511980534e-05 7.959568392834626138e-06 1.504088595538632944e-05 -1.267907737201312557e-05
1.038000000000000000e+03 1.257824230194091797e+01 1.743869900703430176e+00 -3.511217073537409306e-05 -2.430901076877489686e-05 -1.782635445124469697e-05 2.004102316277567297e-05
1.039000000000000000e+03 4.757535552978515625e+01 3.527652359008789062e+01 2.972975671291351318e-01 1.158476233482360840e+00 4.367321133613586426e-01 -6.907579302787780762e-01
1.040000000000000000e+03 4.654202270507812500e+01 3.513796997070312500e+01 -3.040430545806884766e-01 3.843448758125305176e-01 2.409054525196552277e-02 -1.452066749334335327e-01
1.041000000000000000e+03 4.597422409057617188e+01 3.089490890502929688e+01 -9.759156703948974609e-01 6.167968735098838806e-02 -2.742708027362823486e-01 3.257506489753723145e-01
1.042000000000000000e+03 4.764716339111328125e+01 3.016614532470703125e+01 8.557354807853698730e-01 4.104382097721099854e-01 3.798521161079406738e-01 1.149444937705993652e+00
1.043000000000000000e+03 4.708774185180664062e+01 3.021661949157714844e+01 3.722014129161834717e-01 1.954981386661529541e-01 1.703098714351654053e-01 8.569433093070983887e-01
1.044000000000000000e+03 4.862601089477539062e+01 3.018007659912109375e+01 1.880278706550598145e+00 6.687890291213989258e-01 7.647203207015991211e-01 1.885465145111083984e+00
1.045000000000000000e+03 4.457633590698242188e+01 3.113555908203125000e+01 -1.400753259658813477e+00 2.438420243561267853e-02 -4.129107296466827393e-01 1.447223275899887085e-01
1.046000000000000000e+03 4.650458526611328125e+01 3.028498458862304688e+01 -2.627235837280750275e-03 1.763712614774703979e-01 5.212320759892463684e-02 6.146496534347534180e-01
1.047000000000000000e+03 2.054020690917968750e+01 3.900774765014648438e+01 7.142695831134915352e-04 -1.250978326424956322e-03 -1.610126200830563903e-04 8.986174943856894970e-04
1.048000000000000000e+03 2.300192260742187500e+01 3.978165817260742188e+01 1.541153993457555771e-03 -1.255157520063221455e-03 8.579896530136466026e-05 -4.774289205670356750e-03
1.049000000000000000e+03 6.052793979644775391e+00 1.890880823135375977e+00 4.669933696277439594e-05 5.065084405941888690e-05 2.920505539805162698e-05 -7.536427801824174821e-06
1.050000000000000000e+03 9.673080444335937500e+00 2.605365514755249023e+00 1.070025391527451575e-04 1.444919780624331906e-05 3.643552190624177456e-05 1.710005926724988967e-05
1.051000000000000000e+03 6.775378227233886719e+00 1.886280298233032227e+00 -5.195072299102321267e-05 -4.512957093538716435e-05 -2.912408672273159027e-05 -1.273801217394066043e-06
1.052000000000000000e+03 7.468109130859375000e+00 2.651726245880126953e+00 -7.693949737586081028e-05 -4.923328015138395131e-05 -3.785183434956707060e-05 -1.252753008884610608e-05
1.053000000000000000e+03 8.189740180969238281e+00 3.411865711212158203e+00 -9.329035674454644322e-05 -5.339477866073139012e-05 -4.400554098538123071e-05 -2.227904406026937068e-05
1.054000000000000000e+03 5.938407897949218750e+00 4.157505989074707031e+00 -6.386747554643079638e-05 -9.180783672491088510e-05 -4.670259295380674303e-05 1.658034307183697820e-05
1.055000000000000000e+03 1.748049616813659668e+00 7.732265472412109375e+00 -2.685753570403903723e-04 -1.107237221731338650e-05 -8.389431604882702231e-05 3.320164614706300199e-05
1.056000000000000000e+03 3.876836001873016357e-01 3.775239944458007812e+00 -2.773528103716671467e-04 -4.745990736410021782e-05 -9.744381532073020935e-05 -6.163655780255794525e-05
1.057000000000000000e+03 1.824220299720764160e+00 2.613806724548339844e+00 -8.413459727307781577e-05 -5.475784200825728476e-05 -4.166773214819841087e-05 -3.191572614014148712e-05
1.058000000000000000e+03 3.838240802288055420e-01 2.093518018722534180e+00 9.504257468506693840e-05 5.532038630917668343e-05 4.510888902586884797e-05 -3.674495746963657439e-05
1.059000000000000000e+03 1.113116264343261719e+00 1.932218909263610840e+00 1.050935588864376768e-05 -8.770430576987564564e-05 -2.315848541911691427e-05 4.492009679779584985e-07
1.060000000000000000e+03 1.113933086395263672e+01 1.813890933990478516e+00 -7.849662506487220526e-05 -7.246671884786337614e-06 -2.572298944869544357e-05 2.211002174590248615e-05
1.061000000000000000e+03 9.704104423522949219e+00 3.355220079421997070e+00 -1.355064014205709100e-04 -1.880164745671208948e-05 -4.629241448128595948e-05 -3.786542947636917233e-05
1.062000000000000000e+03 2.552974510192871094e+01 3.438881683349609375e+01 -1.265038102865219116e-01 -3.181722713634371758e-03 -3.890566155314445496e-02 -7.783262431621551514e-02
1.063000000000000000e+03 2.701789474487304688e+01 3.260236358642578125e+01 -2.096423804759979248e-01 -2.877239137887954712e-03 -6.375588476657867432e-02 -1.877685636281967163e-01
1.064000000000000000e+03 2.698595809936523438e+01 3.341645812988281250e+01 -2.119822949171066284e-01 5.218767095357179642e-03 -6.202905997633934021e-02 -1.428490281105041504e-01
1.065000000000000000e+03 2.388762092590332031e+01 3.125612449645996094e+01 -6.277330964803695679e-02 -1.095317751169204712e-01 -5.169152840971946716e-02 -1.591375470161437988e-01
1.066000000000000000e+03 2.844003486633300781e+01 3.329869842529296875e+01 -3.009255528450012207e-01 2.516538836061954498e-02 -8.272805064916610718e-02 -1.580497920513153076e-01
1.067000000000000000e+03 2.916391754150390625e+01 3.321148681640625000e+01 -3.502970337867736816e-01 3.537612035870552063e-02 -9.447627514600753784e-02 -1.633043885231018066e-01
1.068000000000000000e+03 3.061422348022460938e+01 3.300139617919921875e+01 -4.585641920566558838e-01 5.159736797213554382e-02 -1.220900490880012512e-01 -1.709426194429397583e-01
1.069000000000000000e+03 3.061482810974121094e+01 3.373757934570312500e+01 -4.776299893856048584e-01 4.007490724325180054e-02 -1.312665194272994995e-01 -1.065969690680503845e-01
1.070000000000000000e+03 2.988912773132324219e+01 3.311147689819335938e+01 -4.030622541904449463e-01 4.225906357169151306e-02 -1.082409545779228210e-01 -1.680873185396194458e-01
1.071000000000000000e+03 3.207053375244140625e+01 3.347156143188476562e+01 -6.146278977394104004e-01 4.755441844463348389e-02 -1.701220422983169556e-01 -1.023034974932670593e-01
1.072000000000000000e+03 3.279069137573242188e+01 3.262495040893554688e+01 -6.365763545036315918e-01 6.622592359781265259e-02 -1.711051315069198608e-01 -1.736546903848648071e-01
1.073000000000000000e+03 3.133843994140625000e+01 3.288273239135742188e+01 -5.162089467048645020e-01 5.637026950716972351e-02 -1.379515975713729858e-01 -1.733323633670806885e-01
1.074000000000000000e+03 3.351884078979492188e+01 3.249021911621093750e+01 -6.980071663856506348e-01 7.237057387828826904e-02 -1.876909881830215454e-01 -1.717611849308013916e-01
1.075000000000000000e+03 4.568326187133789062e+01 3.693864822387695312e+01 4.858708977699279785e-01 8.993403911590576172e-01 4.155633747577667236e-01 -2.430980056524276733e-01
1.076000000000000000e+03 4.245479202270507812e+01 3.989357757568359375e+01 7.798349261283874512e-01 2.812343835830688477e-01 3.183208107948303223e-01 2.619029283523559570e-01
1.077000000000000000e+03 1.183180713653564453e+01 -2.689019680023193359e+00 -3.007285522471647710e-05 -2.075174052151851356e-05 -1.524737945146625862e-05 1.790065107343252748e-05
1.078000000000000000e+03 1.030871772766113281e+01 -3.561906576156616211e+00 1.636368979234248400e-04 4.982909013051539660e-05 6.403979205060750246e-05 -6.313357880571857095e-05
1.079000000000000000e+03 1.112056446075439453e+01 -2.770317077636718750e+00 1.418933097738772631e-04 1.754726508806925267e-05 4.783217445947229862e-05 -2.755211244220845401e-05
1.080000000000000000e+03 4.169193267822265625e+01 3.558880233764648438e+01 -7.600334286689758301e-01 -1.217768937349319458e-01 -2.645430862903594971e-01 5.805165767669677734e-01
1.081000000000000000e+03 4.137172698974609375e+01 3.739088058471679688e+01 8.406366407871246338e-02 -7.329338043928146362e-02 3.231086768209934235e-03 5.050235986709594727e-01
1.082000000000000000e+03 4.288273239135742188e+01 3.584175872802734375e+01 -5.427488088607788086e-01 -1.101458445191383362e-01 -1.958683878183364868e-01 4.613699316978454590e-01
1.083000000000000000e+03 3.274676895141601562e+01 3.728227615356445312e+01 -8.440925925970077515e-02 -8.896593749523162842e-02 -5.201255902647972107e-02 1.224378496408462524e-01
1.084000000000000000e+03 3.507553100585937500e+01 3.677130126953125000e+01 -1.694584637880325317e-01 -1.251842975616455078e-01 -8.839283138513565063e-02 2.380683124065399170e-01
1.085000000000000000e+03 3.783369064331054688e+01 3.596160507202148438e+01 -4.901854097843170166e-01 -1.851749420166015625e-01 -2.026081085205078125e-01 3.897340595722198486e-01
1.086000000000000000e+03 3.678458786010742188e+01 3.901326370239257812e+01 1.569637507200241089e-01 -3.166675269603729248e-01 -4.791113734245300293e-02 2.593806684017181396e-01
1.087000000000000000e+03 3.791328430175781250e+01 3.639714813232421875e+01 -3.607106208801269531e-01 -2.094625681638717651e-01 -1.710519492626190186e-01 3.733693957328796387e-01
1.088000000000000000e+03 3.788495254516601562e+01 3.097669982910156250e+01 -8.401976823806762695e-01 1.024700254201889038e-01 -2.213182896375656128e-01 -1.921700537204742432e-01
1.089000000000000000e+03 3.865214920043945312e+01 3.152073287963867188e+01 -1.078686952590942383e+00 7.860684394836425781e-02 -3.000240623950958252e-01 -1.122779026627540588e-01
1.090000000000000000e+03 3.867814254760742188e+01 3.218984222412109375e+01 -1.295311331748962402e+00 5.400941893458366394e-02 -3.723905980587005615e-01 -2.316316589713096619e-02
1.091000000000000000e+03 4.012229537963867188e+01 3.126624488830566406e+01 -1.141288757324218750e+00 7.830464094877243042e-02 -3.188952505588531494e-01 -7.799343019723892212e-02
1.092000000000000000e+03 3.570996475219726562e+01 3.207095718383789062e+01 -8.788096904754638672e-01 7.495640963315963745e-02 -2.411559820175170898e-01 -1.582289487123489380e-01
1.093000000000000000e+03 3.424766540527343750e+01 3.235275268554687500e+01 -7.599788308143615723e-01 7.245466858148574829e-02 -2.062572538852691650e-01 -1.690280139446258545e-01
1.094000000000000000e+03 3.497811126708984375e+01 3.221265029907226562e+01 -8.200430274009704590e-01 7.690096646547317505e-02 -2.229426056146621704e-01 -1.647217720746994019e-01
1.095000000000000000e+03 3.791586685180664062e+01 3.165319442749023438e+01 -1.035982847213745117e+00 8.180056512355804443e-02 -2.862547039985656738e-01 -1.265997141599655151e-01
1.096000000000000000e+03 4.159363937377929688e+01 3.102735519409179688e+01 -1.150728821754455566e+00 6.992983818054199219e-02 -3.242396712303161621e-01 -2.757173776626586914e-02
1.097000000000000000e+03 4.445604705810546875e+01 3.005549240112304688e+01 -3.624490499496459961e-01 1.411033272743225098e-01 -6.640370935201644897e-02 2.582006752490997314e-01
1.098000000000000000e+03 1.247461605072021484e+01 2.298706769943237305e+00 5.679525565938092768e-05 2.199288246629294008e-05 2.363644125580321997e-05 -4.035982055938802660e-05
1.099000000000000000e+03 1.041800022125244141e+01 2.566148042678833008e+00 -1.203329520649276674e-04 2.970194600493414328e-06 -3.520882819429971278e-05 -4.048156654334889026e-07
1.100000000000000000e+03 1.295239448547363281e+01 2.340240240097045898e+00 3.754688350454671308e-06 -5.297766256262548268e-05 -1.476689249102491885e-05 -7.423335773637518287e-06
1.101000000000000000e+03 1.338013458251953125e+01 2.520598411560058594e+00 4.546291165752336383e-05 4.680433266912586987e-05 2.768017293419688940e-05 7.805396307958289981e-05
1.102000000000000000e+03 4.588862991333007812e+01 3.037705421447753906e+01 -3.528994917869567871e-01 1.122443303465843201e-01 -7.219655066728591919e-02 4.131620526313781738e-01
1.103000000000000000e+03 4.306351089477539062e+01 3.081151199340820312e+01 -1.077389597892761230e+00 5.987377837300300598e-02 -3.052547276020050049e-01 5.201754346489906311e-02
1.104000000000000000e+03 4.451618957519531250e+01 3.060151290893554688e+01 -8.349890112876892090e-01 5.361200124025344849e-02 -2.344131022691726685e-01 1.757313311100006104e-01
1.105000000000000000e+03 4.379483032226562500e+01 3.070809364318847656e+01 -9.986729025840759277e-01 6.851996481418609619e-02 -2.790458798408508301e-01 1.011139526963233948e-01
1.106000000000000000e+03 3.054178619384765625e+01 3.960750198364257812e+01 4.332112520933151245e-02 -1.227418482303619385e-01 -2.382621727883815765e-02 6.900352984666824341e-02
1.107000000000000000e+03 2.950090408325195312e+01 3.879259109497070312e+01 -2.946371387224644423e-04 -7.156538218259811401e-02 -2.155800536274909973e-02 2.411747910082340240e-02
1.108000000000000000e+03 2.975300598144531250e+01 3.764575958251953125e+01 -1.180665288120508194e-02 -5.526286363601684570e-02 -2.012085542082786560e-02 3.023874387145042419e-02
1.109000000000000000e+03 3.040240669250488281e+01 3.754185104370117188e+01 -3.076099976897239685e-02 -3.150311112403869629e-02 -1.867923326790332794e-02 6.825319677591323853e-02
1.110000000000000000e+03 3.214449310302734375e+01 3.858179092407226562e+01 -2.541033364832401276e-02 -1.183290034532546997e-01 -4.312179982662200928e-02 1.243232339620590210e-01
1.111000000000000000e+03 8.066412925720214844e+00 -1.893660306930541992e+00 -9.756546205608174205e-05 -4.458523108041845262e-05 -4.264520975993946195e-05 3.284294871264137328e-05
1.112000000000000000e+03 9.582324981689453125e+00 -2.709283828735351562e+00 1.248950429726392031e-04 3.889608342433348298e-05 4.913733937428332865e-05 -5.054821303929202259e-05
1.113000000000000000e+03 7.307681560516357422e+00 -2.684151649475097656e+00 -1.211729468195699155e-04 -1.909307866299059242e-05 -4.207980600767768919e-05 3.153035504510626197e-05
1.114000000000000000e+03 8.064908027648925781e+00 -2.681834697723388672e+00 1.292012311751022935e-04 2.318130464118439704e-05 4.571475801640190184e-05 -3.597835893742740154e-05
1.115000000000000000e+03 8.822700500488281250e+00 -2.690938472747802734e+00 -1.244906743522733450e-04 -3.522341285133734345e-05 -4.791422543348744512e-05 4.359864033176563680e-05
1.116000000000000000e+03 6.533677101135253906e+00 -1.900797963142395020e+00 -5.516658711712807417e-05 -5.278529351926408708e-05 -3.238556382711976767e-05 7.913434274087194353e-06
1.117000000000000000e+03 6.548260211944580078e+00 -2.700002431869506836e+00 9.383711585542187095e-05 2.062374187516979873e-05 3.433825622778385878e-05 -3.420345819904468954e-05
1.118000000000000000e+03 5.012548446655273438e+00 -2.777161598205566406e+00 -2.036619480350054801e-05 6.014998871251009405e-05 1.193513799080392346e-05 -3.219219070160761476e-05
1.119000000000000000e+03 1.783668994903564453e+00 -7.919463157653808594e+00 4.395988653413951397e-04 3.664255200419574976e-05 1.428724208381026983e-04 -1.969989534700289369e-05
1.120000000000000000e+03 3.593028306961059570e+00 -4.880972385406494141e+00 -4.809186430065892637e-05 8.611713565187528729e-05 1.140758195106172934e-05 7.944672688608989120e-06
1.121000000000000000e+03 4.584207534790039062e-01 -3.588704109191894531e+00 4.084113170392811298e-04 -2.683766069822013378e-05 1.144720954471267760e-04 1.229978624905925244e-05
1.122000000000000000e+03 4.008230865001678467e-01 -2.192643165588378906e+00 -3.854095411952584982e-04 -2.290760676260106266e-05 -1.224951556650921702e-04 -2.248228884127456695e-05
1.123000000000000000e+03 5.265077352523803711e-01 -5.014183998107910156e+00 -4.013879224658012390e-04 -3.432389121371670626e-06 -1.214460935443639755e-04 1.186240388051373884e-05
1.124000000000000000e+03 5.327502822875976562e+01 3.306730270385742188e+01 4.608434200286865234e+00 2.024407386779785156e+01 7.455752372741699219e+00 3.437004804611206055e+00
1.125000000000000000e+03 5.147115707397460938e+01 3.389896392822265625e+01 4.282485246658325195e-01 1.265767955780029297e+01 3.925778627395629883e+00 -5.212476730346679688e+00
1.126000000000000000e+03 5.442194747924804688e+01 3.397586059570312500e+01 2.117176771163940430e+00 1.606730651855468750e+01 5.455344676971435547e+00 2.392067193984985352e+00
1.127000000000000000e+03 5.464820098876953125e+01 3.124212074279785156e+01 7.934301376342773438e+00 1.414506912231445312e+01 6.623811244964599609e+00 4.452133178710937500e-02
1.128000000000000000e+03 5.401882171630859375e+01 2.972924613952636719e+01 3.738506793975830078e+00 1.588494205474853516e+01 5.887034416198730469e+00 -9.842063784599304199e-01
1.129000000000000000e+03 5.503398132324218750e+01 3.201332092285156250e+01 6.805202960968017578e+00 1.364139556884765625e+01 6.133979320526123047e+00 1.191983103752136230e+00
1.130000000000000000e+03 5.280346679687500000e+01 2.977910232543945312e+01 2.144572257995605469e+00 1.937800979614257812e+01 6.456774711608886719e+00 1.585518240928649902e+00
1.131000000000000000e+03 2.609026718139648438e+01 3.848977279663085938e+01 -4.172615706920623779e-03 3.119915490970015526e-03 -3.158100589644163847e-04 5.691045895218849182e-03
1.132000000000000000e+03 2.677279281616210938e+01 3.814729309082031250e+01 1.043077674694359303e-03 -1.681451871991157532e-02 -4.731432069092988968e-03 2.855017315596342087e-03
1.133000000000000000e+03 2.845533561706542969e+01 3.896713256835937500e+01 -9.890405461192131042e-03 -1.830981299281120300e-02 -8.460065349936485291e-03 1.555220782756805420e-02
1.134000000000000000e+03 3.017633247375488281e+01 3.819668960571289062e+01 3.613180480897426605e-03 -7.222591340541839600e-02 -2.058381959795951843e-02 6.524886935949325562e-02
1.135000000000000000e+03 2.464958190917968750e+01 4.118201446533203125e+01 -1.180953904986381531e-02 9.290388552471995354e-04 -3.264149883762001991e-03 -3.309924504719674587e-04
1.136000000000000000e+03 2.402127456665039062e+01 3.996523284912109375e+01 -4.810194484889507294e-03 -3.795818658545613289e-03 -2.581803826615214348e-03 4.639579914510250092e-03
1.137000000000000000e+03 2.740925407409667969e+01 3.868830871582031250e+01 -6.835158448666334152e-03 -1.287936139851808548e-02 -5.914356093853712082e-03 1.925421692430973053e-02
1.138000000000000000e+03 2.527322387695312500e+01 4.005384445190429688e+01 -4.738180898129940033e-03 -7.681967690587043762e-03 -3.726044669747352600e-03 -6.169671658426523209e-03
1.139000000000000000e+03 2.291869163513183594e+01 3.438010787963867188e+01 -3.404098376631736755e-02 -2.277732454240322113e-02 -1.704549230635166168e-02 -3.540513291954994202e-02
1.140000000000000000e+03 2.290720367431640625e+01 3.333205032348632812e+01 -4.026787355542182922e-02 -4.699154943227767944e-02 -2.617782726883888245e-02 -6.376402080059051514e-02
1.141000000000000000e+03 2.624056625366210938e+01 3.344253158569335938e+01 -1.714951694011688232e-01 -5.448077805340290070e-03 -5.308297276496887207e-02 -1.333538442850112915e-01
1.142000000000000000e+03 2.548715209960937500e+01 3.253831481933593750e+01 -1.342111527919769287e-01 -3.637630492448806763e-02 -5.117623880505561829e-02 -1.630492210388183594e-01
1.143000000000000000e+03 2.095960807800292969e+01 3.233026885986328125e+01 -3.395112231373786926e-03 -5.242381989955902100e-02 -1.674568094313144684e-02 -2.015150338411331177e-02
1.144000000000000000e+03 1.990549087524414062e+01 3.877082824707031250e+01 4.193774424493312836e-03 -3.644038224592804909e-04 1.148811192251741886e-03 -3.063933691009879112e-03
1.145000000000000000e+03 2.279029846191406250e+01 -4.132701492309570312e+01 1.442020833492279053e-01 -1.737056076526641846e-01 -8.851059712469577789e-03 3.380561992526054382e-02
1.146000000000000000e+03 1.904418754577636719e+01 -3.775961685180664062e+01 -1.672778278589248657e-01 -7.304627895355224609e-01 -2.693221867084503174e-01 -2.395446449518203735e-01
1.147000000000000000e+03 1.306117248535156250e+01 -3.723637390136718750e+01 3.966059163212776184e-02 -1.290622726082801819e-02 8.026309311389923096e-03 -1.284137833863496780e-02
1.148000000000000000e+03 1.242270946502685547e+01 2.572298812866210938e+01 8.320561028085649014e-04 5.974681334919296205e-05 2.675408613868057728e-04 6.979947647778317332e-05
1.149000000000000000e+03 1.307284641265869141e+01 3.211550521850585938e+01 2.628868242027238011e-05 -5.759750492870807648e-04 -1.649059122428297997e-04 7.588241132907569408e-04
1.150000000000000000e+03 1.363059711456298828e+01 3.094865608215332031e+01 -1.029528211802244186e-03 1.704254682408645749e-04 -2.577308332547545433e-04 -3.667360579129308462e-04
1.151000000000000000e+03 1.374248600006103516e+01 2.700764083862304688e+01 9.968329686671495438e-04 7.551656744908541441e-05 3.217048652004450560e-04 1.419971667928621173e-04
1.152000000000000000e+03 1.673425674438476562e+01 3.529270553588867188e+01 -2.391386777162551880e-03 -2.983166486956179142e-04 -8.069110335782170296e-04 5.013524205423891544e-04
1.153000000000000000e+03 1.706531906127929688e+01 3.773840713500976562e+01 -1.870890380814671516e-03 2.301966771483421326e-03 1.293228997383266687e-04 -1.888829050585627556e-03
1.154000000000000000e+03 1.494266605377197266e+01 3.446078872680664062e+01 -1.578776282258331776e-03 -1.324532058788463473e-04 -5.133688682690262794e-04 1.847470848588272929e-04
1.155000000000000000e+03 1.445829486846923828e+01 1.880666542053222656e+01 -6.023680325597524643e-04 4.786392310052178800e-06 -1.792744878912344575e-04 3.422172085265628994e-05
1.156000000000000000e+03 1.317422866821289062e+01 1.893013572692871094e+01 5.813560565002262592e-04 -1.369521760352654383e-05 1.702982553979381919e-04 -2.601190681161824614e-05
1.157000000000000000e+03 1.473884963989257812e+01 2.431225013732910156e+01 -9.991416009142994881e-04 -5.193287961446912959e-06 -3.013004898093640804e-04 -1.936750595632474869e-05
1.158000000000000000e+03 1.379595470428466797e+01 2.831960296630859375e+01 -1.036808243952691555e-03 -1.264573656953871250e-04 -3.489796945359557867e-04 -2.514234511181712151e-04
1.159000000000000000e+03 1.211645126342773438e+01 3.039501571655273438e+01 8.480101241730153561e-04 -3.925982455257326365e-04 1.366235665045678616e-04 3.766410227399319410e-04
1.160000000000000000e+03 1.307856655120849609e+01 1.752500724792480469e+01 -5.517007666639983654e-04 3.330987601657398045e-05 -1.555172639200463891e-04 2.544088056311011314e-05
1.161000000000000000e+03 1.334854698181152344e+01 1.177302169799804688e+01 -3.507992078084498644e-04 -1.742544554872438312e-05 -1.104674011003226042e-04 -6.950897659407928586e-05
1.162000000000000000e+03 1.294146156311035156e+01 1.457928657531738281e+01 -4.649415786843746901e-04 1.433751094737090170e-05 -1.351812243228778243e-04 -5.743188012274913490e-05
1.163000000000000000e+03 1.462395668029785156e+01 5.019966125488281250e+00 -2.009298768825829029e-04 -1.365687785437330604e-05 -6.437602132791653275e-05 3.520541213219985366e-05
1.164000000000000000e+03 1.186092948913574219e+01 2.401638269424438477e+00 -8.816931949695572257e-05 -5.349004368326859549e-06 -2.805549593176692724e-05 3.956787986680865288e-05
1.165000000000000000e+03 1.054354953765869141e+01 4.066333770751953125e+00 -1.964492548722773790e-04 -3.036106818399275653e-06 -5.984560993965715170e-05 -4.793082553078420460e-05
1.166000000000000000e+03 1.356799888610839844e+01 7.797979354858398438e+00 2.425040147500112653e-04 2.258919630548916757e-05 7.952796295285224915e-05 1.089993747882544994e-05
1.167000000000000000e+03 1.319342041015625000e+01 1.313976478576660156e+01 4.080107610207051039e-04 -1.120248361985431984e-05 1.190424882224760950e-04 8.487515879096463323e-05
1.168000000000000000e+03 7.931121826171875000e+01 -2.783051109313964844e+01 5.395289626903831959e-04 9.734973907470703125e+00 2.920654058456420898e+00 -1.289908215403556824e-02
1.169000000000000000e+03 7.704067230224609375e+01 -3.776503753662109375e+01 -3.239024057984352112e-02 9.378310203552246094e+00 2.803776025772094727e+00 3.311787173151969910e-02
1.170000000000000000e+03 7.933070373535156250e+01 -3.473205566406250000e+01 -1.151159778237342834e-02 9.731108665466308594e+00 2.915879011154174805e+00 9.338178671896457672e-03
1.171000000000000000e+03 7.750595855712890625e+01 3.236305999755859375e+01 3.860306739807128906e-02 4.600080966949462891e+00 1.391605257987976074e+00 -1.972578763961791992e-01
1.172000000000000000e+03 7.929737854003906250e+01 3.626058959960937500e+01 5.599042773246765137e-02 3.661921977996826172e+00 1.115373730659484863e+00 4.861467052251100540e-03
1.173000000000000000e+03 7.934224700927734375e+01 -2.087912750244140625e+01 -1.488795038312673569e-03 9.687382698059082031e+00 2.905767917633056641e+00 -1.757537759840488434e-02
1.174000000000000000e+03 7.791787719726562500e+01 -2.775211143493652344e+01 -1.366577809676527977e-03 9.477912902832031250e+00 2.842963933944702148e+00 -1.950005441904067993e-02
1.175000000000000000e+03 7.795291137695312500e+01 -2.636553573608398438e+01 -1.515281037427484989e-03 9.474802017211914062e+00 2.841986179351806641e+00 -2.302965335547924042e-02
1.176000000000000000e+03 7.930802154541015625e+01 -3.059909629821777344e+01 -1.419876818545162678e-03 9.753736495971679688e+00 2.925694942474365234e+00 -9.761719964444637299e-03
1.177000000000000000e+03 7.796591186523437500e+01 -3.455050659179687500e+01 -9.081180905923247337e-04 9.517447471618652344e+00 2.854961872100830078e+00 7.137870881706476212e-03
1.178000000000000000e+03 7.792658233642578125e+01 -3.322927856445312500e+01 -1.487989164888858795e-02 9.505729675292968750e+00 2.847254753112792969e+00 1.058043353259563446e-02
1.179000000000000000e+03 7.441531372070312500e+01 -3.723479843139648438e+01 -2.615623734891414642e-02 8.907581329345703125e+00 2.664427757263183594e+00 -6.466294080018997192e-02
1.180000000000000000e+03 7.610380554199218750e+01 -3.890278244018554688e+01 -9.595559909939765930e-03 9.316069602966308594e+00 2.791942119598388672e+00 2.073261188343167305e-03
1.181000000000000000e+03 7.811959075927734375e+01 1.397714710235595703e+01 -1.017193961888551712e-02 7.268813610076904297e+00 2.177592515945434570e+00 -3.525732755661010742e-01
1.182000000000000000e+03 7.937528991699218750e+01 1.533676338195800781e+01 1.078241504728794098e-03 6.990429878234863281e+00 2.097452402114868164e+00 -1.410033702850341797e-01
1.183000000000000000e+03 7.809075164794921875e+01 2.086974525451660156e+01 -8.610144723206758499e-04 6.060810565948486328e+00 1.817984819412231445e+00 -4.084919393062591553e-01
1.184000000000000000e+03 7.935368347167968750e+01 2.228884315490722656e+01 -4.126888234168291092e-03 5.527215003967285156e+00 1.656926393508911133e+00 -1.507612615823745728e-01
1.185000000000000000e+03 7.770018005371093750e+01 3.077745246887207031e+01 4.756920412182807922e-02 4.655848503112792969e+00 1.411025285720825195e+00 -2.534428238868713379e-01
1.186000000000000000e+03 7.791195678710937500e+01 2.788518905639648438e+01 4.068929329514503479e-02 4.935419559478759766e+00 1.492832541465759277e+00 -3.364258110523223877e-01
1.187000000000000000e+03 7.929803466796875000e+01 2.788198661804199219e+01 7.470322772860527039e-03 4.452318668365478516e+00 1.337936758995056152e+00 -1.206839159131050110e-01
1.188000000000000000e+03 7.799373626708984375e+01 2.507234573364257812e+01 2.295935153961181641e-02 5.339001178741455078e+00 1.608588218688964844e+00 -3.888126313686370850e-01
1.189000000000000000e+03 7.802936553955078125e+01 2.366592597961425781e+01 8.460127748548984528e-03 5.569220066070556641e+00 1.673303961753845215e+00 -3.969059586524963379e-01
1.190000000000000000e+03 7.811225891113281250e+01 1.810354804992675781e+01 -7.901187054812908173e-03 6.560505390167236328e+00 1.965781211853027344e+00 -3.964650332927703857e-01
1.191000000000000000e+03 7.812015533447265625e+01 1.535189247131347656e+01 -1.302519254386425018e-02 7.041850090026855469e+00 2.108647346496582031e+00 -3.699203431606292725e-01
1.192000000000000000e+03 7.811707305908203125e+01 1.672637557983398438e+01 -5.416942294687032700e-03 6.805917263031005859e+00 2.040150165557861328e+00 -3.836227059364318848e-01
1.193000000000000000e+03 7.811280059814453125e+01 1.259699249267578125e+01 -1.659946888685226440e-02 7.484496116638183594e+00 2.240369081497192383e+00 -3.345873653888702393e-01
1.194000000000000000e+03 7.681999206542968750e+01 1.125691509246826172e+01 -4.276811331510543823e-02 7.659603118896484375e+00 2.285050630569458008e+00 -4.835682809352874756e-01
1.195000000000000000e+03 7.806559753417968750e+01 8.424691200256347656e+00 -1.431233808398246765e-02 8.049623489379882812e+00 2.410593271255493164e+00 -2.741267085075378418e-01
1.196000000000000000e+03 7.936321258544921875e+01 9.775296211242675781e+00 -6.845360621809959412e-04 7.955283641815185547e+00 2.386379718780517578e+00 -1.161556169390678406e-01
1.197000000000000000e+03 7.933997344970703125e+01 -1.949070549011230469e+01 -2.700418699532747269e-04 9.673345565795898438e+00 2.901922702789306641e+00 -1.953589171171188354e-02
1.198000000000000000e+03 7.933948516845703125e+01 -1.392241287231445312e+01 -1.248348504304885864e-03 9.588770866394042969e+00 2.876256704330444336e+00 -2.867159619927406311e-02
1.199000000000000000e+03 7.934143066406250000e+01 -6.955738067626953125e+00 -7.592793554067611694e-04 9.387166023254394531e+00 2.815922021865844727e+00 -4.432293772697448730e-02
1.200000000000000000e+03 7.802487182617187500e+01 3.727242350578308105e-02 -1.080375351011753082e-02 8.812279701232910156e+00 2.640442848205566406e+00 -1.586037725210189819e-01
1.201000000000000000e+03 7.934585571289062500e+01 1.408774018287658691e+00 -8.729947730898857117e-04 8.901683807373046875e+00 2.670243263244628906e+00 -7.433903962373733521e-02
1.202000000000000000e+03 7.672392272949218750e+01 7.066259384155273438e+00 -3.958909213542938232e-02 8.106396675109863281e+00 2.420042276382446289e+00 -3.888778090476989746e-01
1.203000000000000000e+03 7.782778930664062500e+01 2.931012153625488281e+01 4.909089580178260803e-02 4.772380828857421875e+00 1.446441411972045898e+00 -2.971548438072204590e-01
1.204000000000000000e+03 7.863301086425781250e+01 4.026416397094726562e+01 8.702591061592102051e-02 3.913256168365478516e+00 1.200084686279296875e+00 1.791879534721374512e-01
1.205000000000000000e+03 7.447991943359375000e+01 3.654412078857421875e+01 1.697603762149810791e-01 5.518918991088867188e+00 1.706603765487670898e+00 -1.947238296270370483e-01
1.206000000000000000e+03 7.808283996582031250e+01 9.818661689758300781e+00 -1.839038543403148651e-02 7.876256465911865234e+00 2.357359886169433594e+00 -2.941894829273223877e-01
1.207000000000000000e+03 7.803362274169921875e+01 1.430438518524169922e+00 -1.563647761940956116e-02 8.716330528259277344e+00 2.610208272933959961e+00 -1.749825328588485718e-01
1.208000000000000000e+03 7.804070281982421875e+01 2.833334207534790039e+00 -1.341709494590759277e-02 8.607868194580078125e+00 2.578335285186767578e+00 -1.931373327970504761e-01
1.209000000000000000e+03 7.666649627685546875e+01 -1.354751825332641602e+00 -2.848528884351253510e-02 8.707804679870605469e+00 2.603795766830444336e+00 -2.176316678524017334e-01
1.210000000000000000e+03 7.933790588378906250e+01 -2.773778438568115234e+00 -3.839059732854366302e-03 9.187446594238281250e+00 2.755082368850708008e+00 -5.794256180524826050e-02
1.211000000000000000e+03 7.802030181884765625e+01 -6.942786693572998047e+00 -9.410474449396133423e-03 9.160364151000976562e+00 2.745286226272583008e+00 -9.412913024425506592e-02
1.212000000000000000e+03 7.801320648193359375e+01 -5.550646305084228516e+00 -7.964155636727809906e-03 9.105206489562988281e+00 2.729172706604003906e+00 -1.043373271822929382e-01
1.213000000000000000e+03 7.934269714355468750e+01 -9.741376876831054688e+00 -8.794137393124401569e-04 9.483981132507324219e+00 2.844930648803710938e+00 -3.713225200772285461e-02
1.214000000000000000e+03 7.801256561279296875e+01 -1.390559482574462891e+01 -5.350505467504262924e-03 9.349702835083007812e+00 2.803305625915527344e+00 -5.432058498263359070e-02
1.215000000000000000e+03 7.801826477050781250e+01 -1.251229667663574219e+01 -5.809557624161243439e-03 9.321083068847656250e+00 2.794582128524780273e+00 -6.113089993596076965e-02
1.216000000000000000e+03 7.933747100830078125e+01 -1.670825958251953125e+01 -6.913065444678068161e-04 9.637590408325195312e+00 2.891069889068603516e+00 -2.387988381087779999e-02
1.217000000000000000e+03 7.801961517333984375e+01 -2.084039497375488281e+01 -2.938157878816127777e-03 9.447268486022949219e+00 2.833299160003662109e+00 -2.861667796969413757e-02
1.218000000000000000e+03 7.801099395751953125e+01 -1.946367645263671875e+01 -4.871064797043800354e-03 9.433671951293945312e+00 2.828640460968017578e+00 -3.309568390250205994e-02
1.219000000000000000e+03 2.215747642517089844e+01 1.425268173217773438e+00 1.660937815904617310e-02 -8.833460807800292969e-01 -2.600210011005401611e-01 1.409330498427152634e-02
1.220000000000000000e+03 2.349679374694824219e+01 1.434602260589599609e+00 8.045865222811698914e-03 -6.062584519386291504e-01 -1.794637739658355713e-01 5.564907193183898926e-02
1.221000000000000000e+03 2.019869041442871094e+01 -1.395897388458251953e+01 -2.069491893053054810e-02 -9.049096107482910156e-01 -2.776813507080078125e-01 -4.265372827649116516e-02
1.222000000000000000e+03 1.379553890228271484e+01 -3.875094223022460938e+01 1.410046126693487167e-03 -3.231167793273925781e-03 -5.463365232571959496e-04 2.448316290974617004e-02
1.223000000000000000e+03 1.989756965637207031e+01 -1.817220687866210938e+01 7.329402491450309753e-03 -7.539501786231994629e-01 -2.239862233400344849e-01 -4.260606318712234497e-02
1.224000000000000000e+03 1.124179458618164062e+01 -3.233604049682617188e+01 2.172786509618163109e-03 -2.644000574946403503e-03 -1.413641730323433876e-04 -2.071910072118043900e-03
1.225000000000000000e+03 2.040637969970703125e+01 -5.533306598663330078e+00 1.205073669552803040e-02 -9.119050502777099609e-01 -2.699562907218933105e-01 -2.380365878343582153e-02
1.226000000000000000e+03 2.212812042236328125e+01 2.567957341670989990e-02 1.840738579630851746e-02 -8.405659198760986328e-01 -2.466475665569305420e-01 -1.824203995056450367e-03
1.227000000000000000e+03 2.168848419189453125e+01 -8.367014884948730469e+00 -5.334760528057813644e-03 -6.757738590240478516e-01 -2.043325901031494141e-01 1.307790749706327915e-03
1.228000000000000000e+03 2.146244621276855469e+01 -1.964060974121093750e+01 1.292661204934120178e-02 -5.162820816040039062e-01 -1.510066539049148560e-01 -1.995358802378177643e-02
1.229000000000000000e+03 2.180585289001464844e+01 -5.579983711242675781e+00 2.078891173005104065e-02 -7.123425006866455078e-01 -2.074660807847976685e-01 5.804131273180246353e-03
1.230000000000000000e+03 2.283268737792968750e+01 -3.336568832397460938e+01 -7.415686547756195068e-02 -1.830305308103561401e-01 -7.715621590614318848e-02 -3.184543922543525696e-02
1.231000000000000000e+03 2.154070663452148438e+01 -1.538602542877197266e+01 -1.257871184498071671e-02 -5.786918401718139648e-01 -1.773811727762222290e-01 -2.205170923843979836e-03
1.232000000000000000e+03 2.157592010498046875e+01 -1.397505950927734375e+01 -2.536757104098796844e-02 -5.926348567008972168e-01 -1.854007393121719360e-01 -9.732156060636043549e-03
1.233000000000000000e+03 2.190119361877441406e+01 -4.180736064910888672e+00 1.416333764791488647e-02 -7.375573515892028809e-01 -2.170182019472122192e-01 2.047693915665149689e-02
1.234000000000000000e+03 2.227052879333496094e+01 7.091451168060302734e+00 -4.381945356726646423e-03 -1.040771126747131348e+00 -3.135459423065185547e-01 9.839952923357486725e-03
1.235000000000000000e+03 2.487513923645019531e+01 -2.272749900817871094e+01 4.331252072006464005e-03 1.077056750655174255e-01 3.361107781529426575e-02 1.940869167447090149e-02
1.236000000000000000e+03 1.167094326019287109e+01 -2.854271507263183594e+01 2.233098493888974190e-03 1.449684263207018375e-03 1.104834838770329952e-03 -1.270804088562726974e-03
1.237000000000000000e+03 2.219144439697265625e+01 2.840009450912475586e+00 -1.410895306617021561e-02 -9.253639578819274902e-01 -2.818418741226196289e-01 1.685206219553947449e-02
1.238000000000000000e+03 1.449736404418945312e+01 -2.488261222839355469e+01 -2.579483203589916229e-03 -2.765328099485486746e-04 -8.568048360757529736e-04 6.632797885686159134e-05
1.239000000000000000e+03 1.094863796234130859e+01 -2.620912742614746094e+01 1.027603866532444954e-03 -7.722554728388786316e-04 7.660451228730380535e-05 3.670545702334493399e-04
1.240000000000000000e+03 2.126865577697753906e+01 -2.674256896972656250e+01 8.551301434636116028e-04 -5.017283558845520020e-01 -1.502619683742523193e-01 -1.003970857709646225e-02
1.241000000000000000e+03 2.100061798095703125e+01 2.682310867309570312e+01 -1.291311345994472504e-03 -4.456169009208679199e-01 -1.340724527835845947e-01 -4.949389398097991943e-02
1.242000000000000000e+03 2.105549049377441406e+01 1.132839679718017578e+01 1.678468077443540096e-03 -1.314036250114440918e+00 -3.937073349952697754e-01 4.221409035380929708e-04
1.243000000000000000e+03 2.095045280456542969e+01 3.100159454345703125e+01 -2.950779628008604050e-03 -1.207779124379158020e-01 -3.711860626935958862e-02 -2.919733710587024689e-02
1.244000000000000000e+03 1.483221244812011719e+01 -2.148621797561645508e+00 -4.499625720200128853e-05 -7.227993046399205923e-05 -3.518285666359588504e-05 4.970635563950054348e-05
1.245000000000000000e+03 2.165376472473144531e+01 -9.766775131225585938e+00 -1.015597395598888397e-02 -6.560354828834533691e-01 -1.998574435710906982e-01 7.728273980319499969e-03
1.246000000000000000e+03 2.173626327514648438e+01 -6.972218990325927734e+00 1.155428122729063034e-02 -6.890877485275268555e-01 -2.032600492238998413e-01 3.084747353568673134e-03
1.247000000000000000e+03 2.228639030456542969e+01 9.906753540039062500e+00 5.102308001369237900e-03 -1.051006674766540527e+00 -3.137713372707366943e-01 4.538641776889562607e-03
1.248000000000000000e+03 2.357504081726074219e+01 1.695262718200683594e+01 3.933901712298393250e-02 -7.397533059120178223e-01 -2.101242840290069580e-01 -1.056414023041725159e-01
1.249000000000000000e+03 2.103466224670410156e+01 2.260169601440429688e+01 2.070576418191194534e-03 -8.241029381752014160e-01 -2.466097176074981689e-01 -4.664205014705657959e-02
1.250000000000000000e+03 2.326691055297851562e+01 2.547884368896484375e+01 1.748581533320248127e-03 -4.160128235816955566e-01 -1.242792680859565735e-01 -2.177886366844177246e-01
1.251000000000000000e+03 2.105808448791503906e+01 1.978900146484375000e+01 2.610992640256881714e-03 -1.031485319137573242e+00 -3.086622953414916992e-01 -3.693568706512451172e-02
1.252000000000000000e+03 2.231127357482910156e+01 1.982371902465820312e+01 1.375082414597272873e-02 -8.362175226211547852e-01 -2.467400133609771729e-01 -1.103622019290924072e-01
1.253000000000000000e+03 2.358664703369140625e+01 1.984481620788574219e+01 3.464892879128456116e-02 -6.560479402542114258e-01 -1.864196956157684326e-01 -1.669933348894119263e-01
1.254000000000000000e+03 2.232054138183593750e+01 1.697634315490722656e+01 1.562867872416973114e-02 -9.519309997558593750e-01 -2.808907032012939453e-01 -7.228648662567138672e-02
1.255000000000000000e+03 2.232320022583007812e+01 1.840347480773925781e+01 1.542593445628881454e-02 -8.986291289329528809e-01 -2.649609446525573730e-01 -9.243811666965484619e-02
1.256000000000000000e+03 2.211544990539550781e+01 2.827223014831542969e+01 -8.991142734885215759e-03 -2.951622307300567627e-01 -9.124601632356643677e-02 -1.295625120401382446e-01
1.257000000000000000e+03 2.333990478515625000e+01 2.409028053283691406e+01 1.397825963795185089e-02 -4.876235127449035645e-01 -1.420935690402984619e-01 -2.173896431922912598e-01
1.258000000000000000e+03 2.230039787292480469e+01 1.413535976409912109e+01 1.287103537470102310e-02 -1.023048996925354004e+00 -3.030533790588378906e-01 -3.380077332258224487e-02
1.259000000000000000e+03 1.314473628997802734e+01 -1.457015323638916016e+01 -5.828479188494384289e-04 -1.116966523113660514e-04 -2.083633735310286283e-04 1.858597534010186791e-04
1.260000000000000000e+03 1.363710308074951172e+01 -7.925626277923583984e+00 3.289922315161675215e-04 9.707133585834526457e-07 9.898887947201728821e-05 -7.503409869968891144e-05
1.261000000000000000e+03 1.462156581878662109e+01 -7.926321029663085938e+00 -3.194788587279617786e-04 -1.101797693081607576e-06 -9.617419709684327245e-05 3.314139030408114195e-05
1.262000000000000000e+03 1.179202461242675781e+01 -3.857026576995849609e+00 2.336306788492947817e-04 6.173944711918011308e-05 8.861104288371279836e-05 -9.531239629723131657e-05
1.263000000000000000e+03 1.346438884735107422e+01 -1.188483047485351562e+01 -4.996485076844692230e-04 -1.991927638300694525e-05 -1.558703370392322540e-04 1.454479643143713474e-04
1.264000000000000000e+03 1.456311798095703125e+01 -1.207094192504882812e+01 4.798165173269808292e-04 -1.452368564969219733e-06 1.435092417523264885e-04 -6.793862121412530541e-05
1.265000000000000000e+03 1.359614372253417969e+01 -5.238797187805175781e+00 2.513560175430029631e-04 -2.955293894046917558e-06 7.452021964127197862e-05 -6.625458627240732312e-05
1.266000000000000000e+03 1.461485576629638672e+01 -5.165452957153320312e+00 -1.784709602361544967e-04 -1.883416985037911218e-06 -5.410631274571642280e-05 1.884306948340963572e-05
1.267000000000000000e+03 1.445824718475341797e+01 -1.484580135345458984e+01 5.433377227745950222e-04 1.145055375673109666e-05 1.664364826865494251e-04 -1.062767405528575182e-04
1.268000000000000000e+03 1.429475021362304688e+01 -1.906778335571289062e+01 -7.295827381312847137e-04 -7.037538125587161630e-06 -2.209860831499099731e-04 1.003677316475659609e-04
1.269000000000000000e+03 1.350279235839843750e+01 -2.631678390502929688e+01 -2.193437889218330383e-03 1.314674882451072335e-04 -6.185910897329449654e-04 4.344730987213551998e-04
1.270000000000000000e+03 2.205599594116210938e+01 2.966325187683105469e+01 -1.245727483183145523e-02 -2.101758867502212524e-01 -6.678994745016098022e-02 -1.108343973755836487e-01
1.271000000000000000e+03 2.326279830932617188e+01 2.831731224060058594e+01 -2.361480891704559326e-02 -2.548669874668121338e-01 -8.354453742504119873e-02 -2.001374661922454834e-01
1.272000000000000000e+03 1.388220191001892090e+00 -4.002570343017578125e+01 -1.288320403546094894e-03 8.189711719751358032e-03 2.070417394861578941e-03 -9.680163930170238018e-05
1.273000000000000000e+03 6.932489871978759766e-01 3.742051696777343750e+01 -9.293852490372955799e-04 -1.077196211554110050e-04 -3.111314726993441582e-04 2.295806771144270897e-04
1.274000000000000000e+03 6.888929605484008789e-01 3.327128982543945312e+01 4.114214389119297266e-04 -1.572169094288256019e-05 1.187099187518469989e-04 -2.866250906663481146e-05
1.275000000000000000e+03 2.294657945632934570e+00 3.819296264648437500e+01 -7.326757186092436314e-04 -2.323287044418975711e-04 -2.895013312809169292e-04 3.403403679840266705e-04
1.276000000000000000e+03 6.183091402053833008e-01 2.622579193115234375e+01 -5.072438507340848446e-04 -2.475432438586722128e-06 -1.529157889308407903e-04 -1.604136377864051610e-05
1.277000000000000000e+03 1.976978659629821777e+00 2.896673774719238281e+01 5.195759586058557034e-04 -9.974796739697922021e-06 1.528803404653444886e-04 9.161212074104696512e-05
1.278000000000000000e+03 6.922429800033569336e-01 -3.611189270019531250e+01 -5.335056921467185020e-04 4.773776512593030930e-03 1.272081281058490276e-03 7.859395700506865978e-04
1.279000000000000000e+03 2.112085580825805664e+00 -3.308004760742187500e+01 7.991271559149026871e-04 2.032782183960080147e-03 8.495728252455592155e-04 1.397241838276386261e-03
1.280000000000000000e+03 3.197542905807495117e+00 2.748266983032226562e+01 6.315970676951110363e-04 -2.700814911804627627e-05 1.813766721170395613e-04 1.124090485973283648e-04
1.281000000000000000e+03 3.036815404891967773e+00 2.480603599548339844e+01 6.000634748488664627e-04 -3.109757381025701761e-05 1.706897601252421737e-04 7.889350672485306859e-05
1.282000000000000000e+03 2.100923776626586914e+00 3.321265792846679688e+01 -4.619134997483342886e-04 -1.133889527409337461e-04 -1.725907350191846490e-04 2.559587119321804494e-05
1.283000000000000000e+03 3.197836399078369141e+00 3.921455383300781250e+01 5.616164999082684517e-04 -8.081434498308226466e-05 1.442406501155346632e-04 -2.598209830466657877e-04
1.284000000000000000e+03 1.925629138946533203e+00 -3.038300323486328125e+01 1.010024570859968662e-03 5.976373795419931412e-04 4.822986084036529064e-04 6.543293129652738571e-04
1.285000000000000000e+03 1.972587347030639648e+00 -2.763298797607421875e+01 7.446525851264595985e-04 2.542194561101496220e-04 2.996616240125149488e-04 1.053829473676159978e-04
1.286000000000000000e+03 2.849473953247070312e+00 -3.554075622558593750e+01 8.352713193744421005e-04 2.562199952080845833e-03 1.019241404719650745e-03 3.153747646138072014e-03
1.287000000000000000e+03 1.935746550559997559e+00 -2.202626419067382812e+01 7.939232164062559605e-04 -7.365613419096916914e-05 2.160801232093945146e-04 -2.096995449392125010e-04
1.288000000000000000e+03 6.621497869491577148e-01 1.916988372802734375e+01 4.158274969086050987e-04 2.505476913938764483e-06 1.254998933291062713e-04 -6.931555276423750911e-07
1.289000000000000000e+03 6.391412615776062012e-01 1.349011421203613281e+01 3.614147135522216558e-04 -3.231370101275388151e-06 1.074550018529407680e-04 -1.272175450139911845e-05
1.290000000000000000e+03 5.803632736206054688e-01 7.821278572082519531e+00 2.486270386725664139e-04 6.709469289489788935e-06 7.660095434403046966e-05 -2.350154136365745217e-05
1.291000000000000000e+03 3.679920434951782227e+00 -3.897335433959960938e+01 -2.182352822273969650e-03 5.356392357498407364e-03 9.522118489257991314e-04 3.561056451871991158e-03
1.292000000000000000e+03 2.236378669738769531e+00 -3.443818664550781250e+01 -2.118529519066214561e-04 2.545043826103210449e-03 6.999572506174445152e-04 1.778596546500921249e-03
1.293000000000000000e+03 1.970026373863220215e+00 -3.173084831237792969e+01 -3.927858197130262852e-04 1.085720141418278217e-03 2.078802790492773056e-04 1.243124017491936684e-03
1.294000000000000000e+03 3.315597534179687500e+00 -2.762954139709472656e+01 -3.819135017693042755e-04 -2.459857205394655466e-04 -1.883697696030139923e-04 4.986700369045138359e-04
1.295000000000000000e+03 1.965472579002380371e+00 -2.343655204772949219e+01 -7.457567262463271618e-04 -1.232006470672786236e-04 -2.606872294563800097e-04 1.841734338086098433e-04
1.296000000000000000e+03 1.977770447731018066e+00 -2.623709869384765625e+01 -5.704457289539277554e-04 -1.732460077619180083e-04 -2.231075195595622063e-04 2.622735337354242802e-04
1.297000000000000000e+03 3.148736238479614258e+00 -2.060185241699218750e+01 8.376601035706698895e-04 -7.878003088990226388e-05 2.276640298077836633e-04 -1.085480034817010164e-04
1.298000000000000000e+03 6.150950789451599121e-01 -1.918686103820800781e+01 -7.883022772148251534e-04 -1.003057986963540316e-04 -2.665824140422046185e-04 2.199827940785326064e-05
1.299000000000000000e+03 1.841142296791076660e+00 -1.920677947998046875e+01 7.500997162424027920e-04 -2.794511237880215049e-05 2.166463818866759539e-04 -8.272041304735466838e-05
1.300000000000000000e+03 1.785212039947509766e+00 -1.641601753234863281e+01 6.845392636023461819e-04 3.112229387625120580e-05 2.146984625142067671e-04 -6.251743616303429008e-05
1.301000000000000000e+03 5.883460640907287598e-01 -1.213984107971191406e+01 5.939320544712245464e-04 -5.258201873914458702e-09 1.781780447345227003e-04 -2.792833583953324705e-05
1.302000000000000000e+03 1.766514897346496582e+00 -1.222064590454101562e+01 -5.975584499537944794e-04 -2.403702455922029912e-05 -1.864786463556811213e-04 2.634918382682371885e-05
1.303000000000000000e+03 5.825713634490966797e+00 -3.539481163024902344e+00 9.202763612847775221e-05 -8.268886631412897259e-06 2.512762512196786702e-05 -7.474067388102412224e-05
1.304000000000000000e+03 3.500430583953857422e+00 -2.880445003509521484e+00 9.987527300836518407e-05 4.844241993851028383e-05 4.449530752026475966e-05 7.424100476782768965e-05
1.305000000000000000e+03 2.792232751846313477e+00 -2.910688877105712891e+00 -2.624582266435027122e-04 9.276682976633310318e-05 -5.090741615276783705e-05 2.783873242151457816e-05
1.306000000000000000e+03 1.368623018264770508e+00 -3.473465919494628906e+00 -2.443367848172783852e-04 3.777365054702386260e-05 -6.196893809828907251e-05 -5.411411257227882743e-05
1.307000000000000000e+03 4.748543500900268555e-01 5.027944087982177734e+00 2.622718748170882463e-04 1.941543632710818201e-05 8.450619498034939170e-05 2.423990918032359332e-05
1.308000000000000000e+03 2.423718452453613281e+00 4.410259246826171875e+00 -4.914619057672098279e-05 -3.073244897677795961e-06 -1.566582977829966694e-05 -1.060396461980417371e-04
1.309000000000000000e+03 1.811448812484741211e+00 1.057928085327148438e+01 -3.219270438421517611e-04 2.449545036142808385e-06 -9.584325016476213932e-05 4.562554750009439886e-05
1.310000000000000000e+03 6.062264442443847656e-01 1.065292453765869141e+01 3.112620324827730656e-04 5.267118012852733955e-07 9.353661880595609546e-05 -2.536090869398321956e-05
1.311000000000000000e+03 1.914065718650817871e+00 1.342350101470947266e+01 -3.769437316805124283e-04 1.511772916273912415e-05 -1.085477997548878193e-04 1.534010152681730688e-05
1.312000000000000000e+03 1.940625309944152832e+00 2.060910987854003906e+01 4.705140017904341221e-04 6.179181582410819829e-06 1.430079573765397072e-04 1.282089215237647295e-05
1.313000000000000000e+03 1.984889268875122070e+00 1.917871475219726562e+01 -4.377675359137356281e-04 -3.756035539481672458e-06 -1.324570766882970929e-04 -1.048708600137615576e-05
1.314000000000000000e+03 1.831218481063842773e+00 2.480778121948242188e+01 -5.511729395948350430e-04 1.354228152194991708e-05 -1.612891937838867307e-04 -4.447951505426317453e-05
1.315000000000000000e+03 5.007406997680664062e+01 3.374424362182617188e+01 1.295045971870422363e+00 3.149276256561279297e+00 1.333296656608581543e+00 -3.021272420883178711e+00
1.316000000000000000e+03 5.108914184570312500e+01 3.358895492553710938e+01 1.557858109474182129e+00 9.312280654907226562e+00 3.261041641235351562e+00 -5.686288833618164062e+00
1.317000000000000000e+03 5.191843795776367188e+01 3.384322357177734375e+01 -1.300881952047348022e-01 1.607677078247070312e+01 4.784004688262939453e+00 -4.281332492828369141e+00
1.318000000000000000e+03 5.197080230712890625e+01 2.948159217834472656e+01 1.648668885231018066e+00 1.584805870056152344e+01 5.249018192291259766e+00 4.599324703216552734e+00
1.319000000000000000e+03 5.027769470214843750e+01 2.991466331481933594e+01 4.227347373962402344e+00 4.677610874176025391e+00 2.671487569808959961e+00 5.550072193145751953e+00
1.320000000000000000e+03 5.018466567993164062e+01 3.037047195434570312e+01 4.390727996826171875e+00 2.887052297592163086e+00 2.183334112167358398e+00 4.696504592895507812e+00
1.321000000000000000e+03 5.140250396728515625e+01 3.017093658447265625e+01 3.804221630096435547e+00 1.296571922302246094e+01 5.030982494354248047e+00 7.765298366546630859e+00
1.322000000000000000e+03 5.120998001098632812e+01 3.019032859802246094e+01 4.306173324584960938e+00 1.088751792907714844e+01 4.558107376098632812e+00 7.965673446655273438e+00
1.323000000000000000e+03 5.076518249511718750e+01 3.019079208374023438e+01 4.677031040191650391e+00 6.734665870666503906e+00 3.423509120941162109e+00 6.805697917938232422e+00
1.324000000000000000e+03 4.820858383178710938e+01 3.539488220214843750e+01 5.661787390708923340e-01 1.932322144508361816e+00 7.495502829551696777e-01 -1.292627334594726562e+00
1.325000000000000000e+03 1.245445537567138672e+01 -2.678621053695678711e+00 8.242836338467895985e-05 7.896451279520988464e-05 4.841785994358360767e-05 -1.232039794558659196e-04
1.326000000000000000e+03 4.796165084838867188e+01 3.653371047973632812e+01 6.971002221107482910e-01 2.587026119232177734e+00 9.852378964424133301e-01 -1.367447018623352051e+00
1.327000000000000000e+03 4.701938247680664062e+01 2.966443824768066406e+01 1.003758907318115234e+00 4.818553030490875244e-01 4.456842839717864990e-01 1.175415396690368652e+00
1.328000000000000000e+03 4.643585968017578125e+01 2.973434829711914062e+01 6.058918237686157227e-01 3.677169084548950195e-01 2.920826077461242676e-01 8.588493466377258301e-01
1.329000000000000000e+03 4.581244277954101562e+01 2.983952713012695312e+01 2.233484536409378052e-01 2.529830634593963623e-01 1.428994536399841309e-01 5.936894416809082031e-01
1.330000000000000000e+03 4.817201232910156250e+01 3.011247444152832031e+01 1.468788862228393555e+00 6.722458600997924805e-01 6.423103809356689453e-01 1.555303812026977539e+00
1.331000000000000000e+03 4.802613830566406250e+01 2.958151435852050781e+01 1.840109229087829590e+00 1.094374775886535645e+00 8.803452253341674805e-01 2.004227638244628906e+00
1.332000000000000000e+03 5.286102294921875000e+01 3.388224411010742188e+01 6.657012104988098145e-01 1.896872138977050781e+01 5.890326976776123047e+00 5.715969204902648926e-02
1.333000000000000000e+03 5.083092498779296875e+01 3.426445388793945312e+01 8.745193481445312500e-01 8.345554351806640625e+00 2.766021966934204102e+00 -4.579529762268066406e+00
1.334000000000000000e+03 4.522312164306640625e+01 3.048778152465820312e+01 -6.282613873481750488e-01 1.052352935075759888e-01 -1.569078266620635986e-01 2.911467850208282471e-01
1.335000000000000000e+03 2.771613502502441406e+01 3.336773300170898438e+01 -2.551691532135009766e-01 1.684113964438438416e-02 -7.149840146303176880e-02 -1.511811017990112305e-01
1.336000000000000000e+03 2.990026664733886719e+01 3.236813735961914062e+01 -3.804710805416107178e-01 4.615743085741996765e-02 -1.002940982580184937e-01 -2.227129340171813965e-01
1.337000000000000000e+03 2.057893562316894531e+01 3.992688369750976562e+01 -3.703749738633632660e-03 2.686408581212162971e-03 -3.052023530472069979e-04 -1.056423643603920937e-03
1.338000000000000000e+03 2.127143096923828125e+01 3.918243408203125000e+01 1.433685538358986378e-03 1.673225662671029568e-03 9.320733370259404182e-04 -4.274873994290828705e-03
1.339000000000000000e+03 1.387752246856689453e+01 2.679517269134521484e+00 -1.438147883163765073e-04 5.833592513226903975e-05 -2.564365968282800168e-05 -3.449101495789363980e-05
1.340000000000000000e+03 3.788595438003540039e+00 2.759186506271362305e+00 1.038297996274195611e-04 4.448885374586097896e-05 4.449559492059051991e-05 -2.415254311927128583e-05
1.341000000000000000e+03 6.007204532623291016e+00 2.667123794555664062e+00 -5.910703839617781341e-05 -6.164754449855536222e-05 -3.622637450462207198e-05 4.919386356050381437e-06
1.342000000000000000e+03 5.973926544189453125e+00 3.430310964584350586e+00 6.199284689500927925e-05 7.789874507579952478e-05 4.196747977402992547e-05 -3.356726438141777180e-06
1.343000000000000000e+03 6.715458393096923828e+00 3.434724807739257812e+00 -8.450644236290827394e-05 -6.991984264459460974e-05 -4.632788477465510368e-05 -1.921844886965118349e-05
1.344000000000000000e+03 8.944521903991699219e+00 3.385054588317871094e+00 1.077031993190757930e-04 4.104126128368079662e-05 4.462333890842273831e-05 3.577680763555690646e-05
1.345000000000000000e+03 6.742293834686279297e+00 2.658323049545288086e+00 6.833589577581733465e-05 5.731265991926193237e-05 3.769456816371530294e-05 7.752934834570623934e-06
1.346000000000000000e+03 7.447600841522216797e+00 3.435899257659912109e+00 9.688142017694190145e-05 5.932363274041563272e-05 4.686151805799454451e-05 1.585307836649008095e-05
1.347000000000000000e+03 4.472065448760986328e+00 3.557294368743896484e+00 8.984667510958388448e-05 5.799739665235392749e-05 4.435322261997498572e-05 -4.828088640351779759e-05
1.348000000000000000e+03 4.521008491516113281e+00 2.731483936309814453e+00 -7.520584040321409702e-05 -5.303579746396280825e-05 -3.847249172395095229e-05 3.594662121031433344e-05
1.349000000000000000e+03 2.434491395950317383e+00 2.678862094879150391e+00 1.183666245196945965e-04 5.258600504021160305e-05 5.128578777657821774e-05 -6.445882718253415078e-06
1.350000000000000000e+03 1.115776252746582031e+01 2.499221801757812500e+00 1.143147237598896027e-04 -6.636098532908363268e-06 3.230358925065957010e-05 -2.562072586442809552e-05
1.351000000000000000e+03 1.124073982238769531e+01 3.215228796005249023e+00 -1.684777089394629002e-04 2.727311039052437991e-05 -4.236138192936778069e-05 1.991819226532243192e-05
1.352000000000000000e+03 2.465339279174804688e+01 3.342583465576171875e+01 -9.893148392438888550e-02 -3.029463998973369598e-02 -3.876783698797225952e-02 -1.052959710359573364e-01
1.353000000000000000e+03 2.466199302673339844e+01 3.244990921020507812e+01 -9.879963099956512451e-02 -5.563144385814666748e-02 -4.632932320237159729e-02 -1.439168602228164673e-01
1.354000000000000000e+03 3.062001609802246094e+01 3.226786422729492188e+01 -4.278942048549652100e-01 5.452847480773925781e-02 -1.120097190141677856e-01 -2.290337383747100830e-01
1.355000000000000000e+03 3.133981323242187500e+01 3.215766143798828125e+01 -4.761292636394500732e-01 6.535657495260238647e-02 -1.232318058609962463e-01 -2.331763207912445068e-01
1.356000000000000000e+03 2.196636962890625000e+01 3.222441482543945312e+01 -1.870316267013549805e-02 -8.144811540842056274e-02 -3.004538454115390778e-02 -6.086923927068710327e-02
1.357000000000000000e+03 2.379546546936035156e+01 3.233771133422851562e+01 -6.749264150857925415e-02 -7.129779458045959473e-02 -4.163713008165359497e-02 -1.219896972179412842e-01
1.358000000000000000e+03 2.846442794799804688e+01 3.252544784545898438e+01 -2.908344566822052002e-01 2.333403751254081726e-02 -8.025012910366058350e-02 -2.073655277490615845e-01
1.359000000000000000e+03 2.774610137939453125e+01 3.257823944091796875e+01 -2.493954151868820190e-01 9.760460816323757172e-03 -7.189048826694488525e-02 -1.980354785919189453e-01
1.360000000000000000e+03 3.278385543823242188e+01 3.191788673400878906e+01 -5.736775398254394531e-01 7.995265722274780273e-02 -1.481174677610397339e-01 -2.379096597433090210e-01
1.361000000000000000e+03 3.350743865966796875e+01 3.178995704650878906e+01 -6.218583583831787109e-01 8.306106179952621460e-02 -1.616391986608505249e-01 -2.382614016532897949e-01
1.362000000000000000e+03 4.599911117553710938e+01 3.525062179565429688e+01 -3.839767277240753174e-01 1.927020102739334106e-01 -5.738241598010063171e-02 -3.031322360038757324e-02
1.363000000000000000e+03 4.546271514892578125e+01 3.549844741821289062e+01 -3.236344456672668457e-01 5.072643756866455078e-01 5.508897826075553894e-02 1.769268214702606201e-01
1.364000000000000000e+03 1.258252525329589844e+01 2.769420146942138672e+00 -3.487771391519345343e-05 -1.659659028518944979e-05 -1.544229235150851309e-05 5.324671656126156449e-05
1.365000000000000000e+03 9.554688453674316406e+00 -3.516669273376464844e+00 -1.533706963527947664e-04 -4.052461372339166701e-05 -5.816859265905804932e-05 5.529746704269200563e-05
1.366000000000000000e+03 1.098240947723388672e+01 -4.453196048736572266e+00 2.426015562377870083e-04 2.310143099748529494e-05 7.971089507918804884e-05 -1.030628191074356437e-04
1.367000000000000000e+03 1.366094970703125000e+01 -3.979555606842041016e+00 -2.525269810575991869e-04 -2.685557410586625338e-05 -8.381476800423115492e-05 6.613817095058038831e-05
1.368000000000000000e+03 1.025415229797363281e+01 -4.382471084594726562e+00 -2.094299270538613200e-04 -3.804869629675522447e-05 -7.424358773278072476e-05 6.937140278751030564e-05
1.369000000000000000e+03 4.009167480468750000e+01 3.061217117309570312e+01 -8.597335219383239746e-01 1.115039959549903870e-01 -2.244688719511032104e-01 -1.274388581514358521e-01
1.370000000000000000e+03 1.373974037170410156e+01 -2.940819501876831055e+00 2.688084496185183525e-04 -5.074920045444741845e-05 6.541777111124247313e-05 -4.564582923194393516e-05
1.371000000000000000e+03 3.976126480102539062e+01 3.773987579345703125e+01 1.369873881340026855e-01 -2.710026502609252930e-01 -4.020458459854125977e-02 5.179368853569030762e-01
1.372000000000000000e+03 4.232898712158203125e+01 3.654636001586914062e+01 -2.442530691623687744e-01 -4.134237021207809448e-02 -8.567862957715988159e-02 4.534590244293212891e-01
1.373000000000000000e+03 3.935771942138671875e+01 3.072654342651367188e+01 -8.639948964118957520e-01 1.067633479833602905e-01 -2.271694540977478027e-01 -1.528104841709136963e-01
1.374000000000000000e+03 3.717891693115234375e+01 3.178963851928710938e+01 -9.866068959236145020e-01 7.605310529470443726e-02 -2.731661498546600342e-01 -1.392140090465545654e-01
1.375000000000000000e+03 3.862184906005859375e+01 3.084837341308593750e+01 -8.571636080741882324e-01 1.093524694442749023e-01 -2.243433445692062378e-01 -1.745152026414871216e-01
1.376000000000000000e+03 3.784347915649414062e+01 3.030102920532226562e+01 -6.456921100616455078e-01 1.311305761337280273e-01 -1.543684750795364380e-01 -2.346383184194564819e-01
1.377000000000000000e+03 3.423107528686523438e+01 3.165822601318359375e+01 -6.676817536354064941e-01 9.038449078798294067e-02 -1.731891781091690063e-01 -2.365739792585372925e-01
1.378000000000000000e+03 3.495674133300781250e+01 3.152292442321777344e+01 -7.112933993339538574e-01 9.127243608236312866e-02 -1.860062777996063232e-01 -2.330897897481918335e-01
1.379000000000000000e+03 3.644319915771484375e+01 3.192937660217285156e+01 -9.347075223922729492e-01 7.905808836221694946e-02 -2.566948235034942627e-01 -1.503959596157073975e-01
1.380000000000000000e+03 3.641467666625976562e+01 3.124767303466796875e+01 -7.863184213638305664e-01 9.707541018724441528e-02 -2.067729085683822632e-01 -2.184436172246932983e-01
1.381000000000000000e+03 4.085771942138671875e+01 3.114414215087890625e+01 -1.153312802314758301e+00 7.858944684267044067e-02 -3.224170207977294922e-01 -5.730869993567466736e-02
1.382000000000000000e+03 4.156539535522460938e+01 3.040497970581054688e+01 -8.056809902191162109e-01 1.109820455312728882e-01 -2.084096819162368774e-01 -5.426225811243057251e-02
1.383000000000000000e+03 1.295148563385009766e+01 3.189743757247924805e+00 -1.052282414093497209e-06 -3.850568464258685708e-05 -1.186738973046885803e-05 -9.604754450265318155e-05
1.384000000000000000e+03 4.370059204101562500e+01 2.957670593261718750e+01 -1.386740803718566895e-01 1.977252215147018433e-01 1.771533861756324768e-02 2.240701168775558472e-01
1.385000000000000000e+03 4.514847564697265625e+01 2.995191574096679688e+01 -1.108775064349174500e-01 1.739215999841690063e-01 1.891322992742061615e-02 3.916861414909362793e-01
1.386000000000000000e+03 1.355389308929443359e+01 4.211485862731933594e+00 -2.235113352071493864e-04 -5.119324214319931343e-06 -6.858920096419751644e-05 -8.411518138018436730e-06
1.387000000000000000e+03 4.374991989135742188e+01 3.014611244201660156e+01 -5.369753837585449219e-01 1.108429133892059326e-01 -1.278397440910339355e-01 1.432030498981475830e-01
1.388000000000000000e+03 4.229795837402343750e+01 3.031502342224121094e+01 -7.484044432640075684e-01 1.034027710556983948e-01 -1.935005038976669312e-01 -8.368639973923563957e-04
1.389000000000000000e+03 6.577213287353515625e+00 -3.493063688278198242e+00 -1.509464927949011326e-04 1.808870001696050167e-05 -3.985733928857371211e-05 5.139219501870684326e-05
1.390000000000000000e+03 3.026279211044311523e+00 -7.970485687255859375e+00 -4.674685769714415073e-04 -6.477844726759940386e-05 -1.596741058165207505e-04 -1.843270365498028696e-05
1.391000000000000000e+03 7.335722923278808594e+00 -5.076637268066406250e+00 2.108204789692535996e-04 -1.199889720737701282e-05 5.964647425571456552e-05 1.488050384068628773e-05
1.392000000000000000e+03 5.782598495483398438e+00 -2.731221914291381836e+00 -3.439018473727628589e-05 -3.683701652335003018e-05 -2.136815965059213340e-05 4.003328649559989572e-05
1.393000000000000000e+03 7.318399906158447266e+00 -3.473569631576538086e+00 1.672612706897780299e-04 -1.001401233224896714e-05 4.717418050859123468e-05 -3.282387478975579143e-05
1.394000000000000000e+03 2.699413299560546875e+00 -3.775003433227539062e+00 4.773950786329805851e-04 1.687285985099151731e-04 1.938370987772941589e-04 6.116815347922965884e-05
1.395000000000000000e+03 4.760733604431152344e+00 -5.583012580871582031e+00 -8.154114766512066126e-05 -2.482359996065497398e-04 -9.893314563669264317e-05 -1.123374659073306248e-05
1.396000000000000000e+03 2.136118173599243164e+00 -3.155308485031127930e+00 -2.513929030101280659e-05 -1.569485320942476392e-04 -5.462634362629614770e-05 -5.594395770458504558e-05
1.397000000000000000e+03 1.576764702796936035e+00 -4.933904647827148438e+00 3.114173596259206533e-04 4.728946350951446220e-06 9.484389011049643159e-05 3.451261000009253621e-05
1.398000000000000000e+03 8.804639816284179688e+00 -3.487615823745727539e+00 1.513172755949199200e-04 2.751779720711056143e-05 5.365052493289113045e-05 -4.609857569448649883e-05
1.399000000000000000e+03 5.405623626708984375e+01 2.877269172668457031e+01 1.900444388389587402e+00 1.502085876464843750e+01 5.076391220092773438e+00 -2.159275114536285400e-01
1.400000000000000000e+03 5.397584915161132812e+01 3.072521781921386719e+01 7.309525012969970703e+00 1.696489524841308594e+01 7.282326221466064453e+00 -1.483478903770446777e+00
1.401000000000000000e+03 2.681848335266113281e+01 4.030324554443359375e+01 -2.622226485982537270e-03 -2.887132577598094940e-02 -9.448065422475337982e-03 1.524599082767963409e-02
1.402000000000000000e+03 2.812529945373535156e+01 3.991993713378906250e+01 -9.065901860594749451e-03 -1.980617083609104156e-02 -8.661622181534767151e-03 2.632285282015800476e-02
1.403000000000000000e+03 2.214085006713867188e+01 4.170927047729492188e+01 -4.017237573862075806e-03 -1.632117899134755135e-03 -1.694806735031306744e-03 2.873010700568556786e-03
1.404000000000000000e+03 2.378770446777343750e+01 3.338169479370117188e+01 -6.700168550014495850e-02 -4.177286475896835327e-02 -3.263236582279205322e-02 -8.542485535144805908e-02
1.405000000000000000e+03 1.885829734802246094e+01 3.772213745117187500e+01 6.882146000862121582e-03 4.440741147845983505e-03 3.396866377443075180e-03 -2.252693288028240204e-03
1.406000000000000000e+03 5.293166732788085938e+01 3.447138595581054688e+01 -4.210131168365478516e-01 1.683882141113281250e+01 4.925342559814453125e+00 -6.075249314308166504e-01
1.407000000000000000e+03 5.549822616577148438e+01 3.306488037109375000e+01 4.726513862609863281e+00 1.335461902618408203e+01 5.424339771270751953e+00 2.120286226272583008e+00
1.408000000000000000e+03 5.610976028442382812e+01 3.171817207336425781e+01 5.425778388977050781e+00 1.232998561859130859e+01 5.326729297637939453e+00 6.672969460487365723e-01
1.409000000000000000e+03 1.147510433197021484e+01 1.642197227478027344e+01 -3.362127172295004129e-04 -3.253751492593437433e-05 -1.106250711018219590e-04 1.164527056971564889e-04
1.410000000000000000e+03 1.232824039459228516e+01 1.040078067779541016e+01 -2.499571419321000576e-04 -6.367675086949020624e-05 -9.409016638528555632e-05 -6.528141238959506154e-05
1.411000000000000000e+03 1.251654911041259766e+01 2.695151138305664062e+01 -8.624005131423473358e-04 -1.338768634013831615e-04 -2.988832129631191492e-04 -1.026984027703292668e-04
1.412000000000000000e+03 2.299193763732910156e+01 -1.116762447357177734e+01 -1.421607472002506256e-02 -3.913173973560333252e-01 -1.216600388288497925e-01 1.984066516160964966e-02
1.413000000000000000e+03 3.233223724365234375e+01 3.985253906250000000e+01 5.832387879490852356e-02 -1.558489650487899780e-01 -2.925752475857734680e-02 1.322001367807388306e-01
1.414000000000000000e+03 2.356274223327636719e+01 2.037054300308227539e-02 6.855345796793699265e-03 -5.508652329444885254e-01 -1.632029712200164795e-01 5.146637931466102600e-02
1.415000000000000000e+03 2.444722557067871094e+01 -7.057800292968750000e+00 2.276384329888969660e-04 -2.001086175441741943e-01 -5.996429547667503357e-02 6.361301988363265991e-02
1.416000000000000000e+03 2.309537696838378906e+01 -7.015966892242431641e+00 7.406798191368579865e-03 -4.511877298355102539e-01 -1.331342756748199463e-01 2.952073886990547180e-02
1.417000000000000000e+03 2.308292579650878906e+01 -1.821585845947265625e+01 9.734379127621650696e-03 -2.645349204540252686e-01 -7.644015550613403320e-02 8.924934081733226776e-03
1.418000000000000000e+03 2.208434486389160156e+01 -1.366450428962707520e+00 -4.244942683726549149e-03 -7.770663499832153320e-01 -2.343933880329132080e-01 -6.874782964587211609e-03
1.419000000000000000e+03 2.355360603332519531e+01 -1.388669490814208984e+00 5.471419077366590500e-03 -5.173527598381042480e-01 -1.535644084215164185e-01 5.269277095794677734e-02
1.420000000000000000e+03 1.165877819061279297e+01 3.139904785156250000e+01 -9.519893210381269455e-04 8.196881390176713467e-04 -3.969035242334939539e-05 -6.246217526495456696e-04
1.421000000000000000e+03 1.420334720611572266e+01 3.322540283203125000e+01 9.560732869431376457e-04 6.402477738447487354e-04 4.788963124155998230e-04 -5.197296850383281708e-04
1.422000000000000000e+03 1.324386215209960938e+01 2.167264747619628906e+01 6.972690462134778500e-04 4.427081512403674424e-05 2.224619529442861676e-04 3.048240796488244087e-05
1.423000000000000000e+03 1.181911087036132812e+01 1.774470710754394531e+01 4.561043460853397846e-04 2.763963493634946644e-05 1.451231946703046560e-04 -4.235524102114140987e-05
1.424000000000000000e+03 2.305387115478515625e+01 -1.677272605895996094e+01 1.181536703370511532e-03 -2.839395403861999512e-01 -8.482740074396133423e-02 1.922604627907276154e-02
1.425000000000000000e+03 1.161091136932373047e+01 1.420925998687744141e+01 2.377785276621580124e-04 4.836147491005249321e-05 8.584200259065255523e-05 1.996935461647808552e-04
1.426000000000000000e+03 1.360347652435302734e+01 6.518338203430175781e+00 -2.171934756916016340e-04 -1.625882759981323034e-05 -7.003569044172763824e-05 -2.054399374173954129e-06
1.427000000000000000e+03 1.060337352752685547e+01 4.865794658660888672e+00 2.058778773061931133e-04 2.677292650332674384e-05 6.979524187045171857e-05 6.776045484002679586e-05
1.428000000000000000e+03 1.097509670257568359e+01 1.266902637481689453e+01 1.762381434673443437e-04 1.541570381959900260e-04 9.911855158861726522e-05 1.459921477362513542e-04
1.429000000000000000e+03 1.360735034942626953e+01 5.298151969909667969e+00 2.025728608714416623e-04 5.562989827012643218e-06 6.244075484573841095e-05 -9.223271035807556473e-07
1.430000000000000000e+03 8.973192214965820312e+00 4.143968582153320312e+00 -1.222866267198696733e-04 -5.225168933975510299e-05 -5.236149445408955216e-05 -5.551015055971220136e-05
1.431000000000000000e+03 7.549271583557128906e+00 -3.437451553344726562e+01 6.467737723141908646e-03 -4.591670818626880646e-03 5.628201179206371307e-04 3.352761501446366310e-03
1.432000000000000000e+03 1.283834075927734375e+01 -3.141544532775878906e+01 -3.233340103179216385e-03 2.707254025153815746e-04 -8.887844160199165344e-04 1.117576728574931622e-03
1.433000000000000000e+03 1.185900688171386719e+01 2.040096664428710938e+01 5.831096204929053783e-04 2.918031714216340333e-05 1.836869778344407678e-04 4.107947825104929507e-05
1.434000000000000000e+03 7.490585327148437500e+01 -3.462086868286132812e+01 -3.051104955375194550e-02 8.981659889221191406e+00 2.685344696044921875e+00 -3.264036774635314941e-02
1.435000000000000000e+03 7.685774230957031250e+01 -3.582415008544921875e+01 -1.747372932732105255e-02 9.327369689941406250e+00 2.792968750000000000e+00 1.727101206779479980e-02
1.436000000000000000e+03 7.535427093505859375e+01 -2.215612030029296875e+01 -1.609774306416511536e-02 8.988768577575683594e+00 2.691801071166992188e+00 -4.471001401543617249e-02
1.437000000000000000e+03 7.789949798583984375e+01 -2.912408447265625000e+01 8.976657991297543049e-04 9.478995323181152344e+00 2.843968152999877930e+00 -2.022746205329895020e-02
1.438000000000000000e+03 7.556503295898437500e+01 1.536136913299560547e+01 -5.613469332456588745e-02 7.201934814453125000e+00 2.143740177154541016e+00 -7.365063428878784180e-01
1.439000000000000000e+03 7.685175323486328125e+01 1.536095142364501953e+01 -2.618420124053955078e-02 7.113975048065185547e+00 2.126337289810180664e+00 -5.672298669815063477e-01
1.440000000000000000e+03 7.755944824218750000e+01 3.528609466552734375e+01 7.048130780458450317e-02 4.467663288116455078e+00 1.361443400382995605e+00 -1.044322103261947632e-01
1.441000000000000000e+03 7.513135528564453125e+01 3.351855468750000000e+01 1.894153952598571777e-01 5.380758285522460938e+00 1.671052098274230957e+00 -3.306851089000701904e-01
1.442000000000000000e+03 7.802294921875000000e+01 -2.221278381347656250e+01 -3.637428861111402512e-03 9.459999084472656250e+00 2.836908340454101562e+00 -2.605691924691200256e-02
1.443000000000000000e+03 7.668917083740234375e+01 -2.352441978454589844e+01 -4.628121852874755859e-03 9.228376388549804688e+00 2.767124414443969727e+00 -3.159620985388755798e-02
1.444000000000000000e+03 7.645697784423828125e+01 -3.039923477172851562e+01 -8.963717147707939148e-03 9.217410087585449219e+00 2.762533664703369141e+00 -2.116596698760986328e-02
1.445000000000000000e+03 7.643149566650390625e+01 -2.904269027709960938e+01 -4.240241833031177521e-03 9.215847015380859375e+00 2.763482093811035156e+00 -2.377469837665557861e-02
1.446000000000000000e+03 7.533795166015625000e+01 -2.479802703857421875e+01 -3.957073204219341278e-03 8.992621421813964844e+00 2.696599245071411133e+00 -3.477844223380088806e-02
1.447000000000000000e+03 7.649173736572265625e+01 -2.766463279724121094e+01 -2.895706798881292343e-03 9.213550567626953125e+00 2.763196468353271484e+00 -3.015680424869060516e-02
1.448000000000000000e+03 7.665240478515625000e+01 -2.489163398742675781e+01 3.490569069981575012e-04 9.228900909423828125e+00 2.768774747848510742e+00 -2.947457320988178253e-02
1.449000000000000000e+03 7.647933197021484375e+01 -3.176228332519531250e+01 -2.146320231258869171e-02 9.218080520629882812e+00 2.758985042572021484e+00 -1.628286577761173248e-02
1.450000000000000000e+03 7.652386474609375000e+01 -3.451047897338867188e+01 -2.447763085365295410e-02 9.285717964172363281e+00 2.778372287750244141e+00 5.714030005037784576e-03
1.451000000000000000e+03 7.319274902343750000e+01 -2.866728401184082031e+01 -1.181564200669527054e-02 8.629566192626953125e+00 2.585325241088867188e+00 -2.802288904786109924e-02
1.452000000000000000e+03 7.806527709960937500e+01 2.226270675659179688e+01 1.425350364297628403e-02 5.808466434478759766e+00 1.746815919876098633e+00 -4.066179692745208740e-01
1.453000000000000000e+03 7.683967590332031250e+01 1.945205879211425781e+01 -6.754540838301181793e-03 6.499790668487548828e+00 1.947910904884338379e+00 -6.177229285240173340e-01
1.454000000000000000e+03 7.553415679931640625e+01 2.211839294433593750e+01 2.820051647722721100e-02 6.345664024353027344e+00 1.912159442901611328e+00 -7.934489250183105469e-01
1.455000000000000000e+03 7.682489776611328125e+01 2.082324028015136719e+01 6.111806724220514297e-03 6.290874004364013672e+00 1.889095664024353027e+00 -6.190476417541503906e-01
1.456000000000000000e+03 7.684254455566406250e+01 1.263694190979003906e+01 -3.554450348019599915e-02 7.486786842346191406e+00 2.235372781753540039e+00 -5.126328468322753906e-01
1.457000000000000000e+03 7.540601348876953125e+01 8.503279685974121094e+00 -8.210925757884979248e-02 7.914576530456542969e+00 2.349740266799926758e+00 -5.477660298347473145e-01
1.458000000000000000e+03 7.685206604003906250e+01 1.400320053100585938e+01 -3.571923077106475830e-02 7.304251670837402344e+00 2.180559635162353516e+00 -5.414833426475524902e-01
1.459000000000000000e+03 7.796156311035156250e+01 2.647715950012207031e+01 2.548146620392799377e-02 5.124669551849365234e+00 1.545045256614685059e+00 -3.625035285949707031e-01
1.460000000000000000e+03 7.669512939453125000e+01 -2.216990280151367188e+01 -5.163907539099454880e-03 9.221243858337402344e+00 2.764824151992797852e+00 -3.383277356624603271e-02
1.461000000000000000e+03 7.661783599853515625e+01 2.645460128784179688e+01 7.420409470796585083e-02 5.531226634979248047e+00 1.681629300117492676e+00 -5.600583553314208984e-01
1.462000000000000000e+03 7.383126068115234375e+01 -1.673480987548828125e+01 -2.909546718001365662e-02 8.671269416809082031e+00 2.592652320861816406e+00 -9.506179392337799072e-02
1.463000000000000000e+03 7.667856597900390625e+01 -2.082157707214355469e+01 -1.051281299442052841e-02 9.211163520812988281e+00 2.760195255279541016e+00 -4.070631042122840881e-02
1.464000000000000000e+03 7.407655334472656250e+01 -9.798690795898437500e+00 -4.768477752804756165e-02 8.610156059265136719e+00 2.568741559982299805e+00 -1.686153262853622437e-01
1.465000000000000000e+03 7.800729370117187500e+01 -1.529711723327636719e+01 -4.760222043842077255e-03 9.374390602111816406e+00 2.810889005661010742e+00 -4.903705045580863953e-02
1.466000000000000000e+03 7.527937316894531250e+01 -1.375960707664489746e+00 -5.749389529228210449e-02 8.527717590332031250e+00 2.541067123413085938e+00 -2.841565310955047607e-01
1.467000000000000000e+03 7.802501678466796875e+01 -8.331835746765136719e+00 -6.518781185150146484e-03 9.209085464477539062e+00 2.760769844055175781e+00 -8.375576883554458618e-02
1.468000000000000000e+03 7.804681396484375000e+01 5.641432762145996094e+00 -1.410247851163148880e-02 8.353235244750976562e+00 2.501739740371704102e+00 -2.337533980607986450e-01
1.469000000000000000e+03 7.543453216552734375e+01 2.824355125427246094e+00 -6.744736433029174805e-02 8.325205802917480469e+00 2.477327585220336914e+00 -3.779286444187164307e-01
1.470000000000000000e+03 7.616378021240234375e+01 3.481239318847656250e+01 9.729136526584625244e-02 4.867908954620361328e+00 1.489560127258300781e+00 -1.858179569244384766e-01
1.471000000000000000e+03 7.805299377441406250e+01 7.033034324645996094e+00 -1.782175712287425995e-02 8.208125114440917969e+00 2.457091093063354492e+00 -2.537080347537994385e-01
1.472000000000000000e+03 7.672235870361328125e+01 5.671405315399169922e+00 -4.229020699858665466e-02 8.231275558471679688e+00 2.456695556640625000e+00 -3.570576906204223633e-01
1.473000000000000000e+03 7.801354217529296875e+01 -1.358071684837341309e+00 -1.321018021553754807e-02 8.897844314575195312e+00 2.665390253067016602e+00 -1.442507654428482056e-01
1.474000000000000000e+03 7.665591430664062500e+01 -2.758405447006225586e+00 -2.932425774633884430e-02 8.774799346923828125e+00 2.623642683029174805e+00 -1.962815225124359131e-01
1.475000000000000000e+03 7.670379638671875000e+01 -9.726263046264648438e+00 -1.583933830261230469e-02 9.028373718261718750e+00 2.703760385513305664e+00 -1.106344237923622131e-01
1.476000000000000000e+03 7.664615631103515625e+01 -1.668913078308105469e+01 -1.103979162871837616e-02 9.156125068664550781e+00 2.743525505065917969e+00 -6.319376081228256226e-02
1.477000000000000000e+03 7.600092315673828125e+01 3.222245788574218750e+01 1.043611392378807068e-01 5.048738002777099609e+00 1.545929789543151855e+00 -3.630694746971130371e-01
1.478000000000000000e+03 7.684448242187500000e+01 1.808389091491699219e+01 -1.318341493606567383e-02 6.711016178131103516e+00 2.009349822998046875e+00 -6.057878136634826660e-01
1.479000000000000000e+03 7.678638458251953125e+01 9.863751411437988281e+00 -4.202478379011154175e-02 7.822846412658691406e+00 2.334246635437011719e+00 -4.523394703865051270e-01
1.480000000000000000e+03 7.665843200683593750e+01 -1.529433822631835938e+01 -1.158527843654155731e-02 9.136667251586914062e+00 2.737524747848510742e+00 -7.047958672046661377e-02
1.481000000000000000e+03 7.670163726806640625e+01 -8.336790084838867188e+00 -1.879275217652320862e-02 8.989001274108886719e+00 2.691062450408935547e+00 -1.253875344991683960e-01
1.482000000000000000e+03 7.542739868164062500e+01 4.247958183288574219e+00 -7.539032399654388428e-02 8.231204986572265625e+00 2.446744441986083984e+00 -4.189759492874145508e-01
1.483000000000000000e+03 7.668782806396484375e+01 4.001756012439727783e-02 -3.335339203476905823e-02 8.634006500244140625e+00 2.580195903778076172e+00 -2.411728501319885254e-01
1.484000000000000000e+03 7.673362731933593750e+01 4.261819362640380859e+00 -3.863837197422981262e-02 8.348658561706542969e+00 2.493005990982055664e+00 -3.245451748371124268e-01
1.485000000000000000e+03 7.667479705810546875e+01 -5.564956665039062500e+00 -2.423284575343132019e-02 8.894027709960937500e+00 2.660938262939453125e+00 -1.561904996633529663e-01
1.486000000000000000e+03 7.669103240966796875e+01 -6.953503131866455078e+00 -1.884714700281620026e-02 8.944252967834472656e+00 2.677621841430664062e+00 -1.384359896183013916e-01
1.487000000000000000e+03 7.666064453125000000e+01 -4.163983821868896484e+00 -2.442525885999202728e-02 8.837082862854003906e+00 2.643797397613525391e+00 -1.748727709054946899e-01
1.488000000000000000e+03 7.667400360107421875e+01 -1.390277385711669922e+01 -1.244883146136999130e-02 9.114969253540039062e+00 2.730756044387817383e+00 -7.943408191204071045e-02
1.489000000000000000e+03 7.668890380859375000e+01 -1.251120948791503906e+01 -1.396370120346546173e-02 9.091230392456054688e+00 2.723180055618286133e+00 -8.835266530513763428e-02
1.490000000000000000e+03 7.665618133544921875e+01 -1.946043777465820312e+01 -8.819364942610263824e-03 9.191748619079589844e+00 2.754878759384155273e+00 -4.815666377544403076e-02
1.491000000000000000e+03 2.225581932067871094e+01 5.678823947906494141e+00 -2.315009199082851410e-02 -1.014089345932006836e+00 -3.111718595027923584e-01 2.986516803503036499e-03
1.492000000000000000e+03 2.350054168701171875e+01 9.872457504272460938e+00 1.547066029161214828e-02 -7.965450882911682129e-01 -2.343223392963409424e-01 1.110442075878381729e-02
1.493000000000000000e+03 2.296924972534179688e+01 -2.551615715026855469e+01 -1.381865120492875576e-03 -2.110849469900131226e-01 -6.374004483222961426e-02 -1.638026442378759384e-03
1.494000000000000000e+03 2.143190765380859375e+01 -2.250127410888671875e+01 2.150921383872628212e-03 -4.866980314254760742e-01 -1.453641355037689209e-01 -1.504563959315419197e-03
1.495000000000000000e+03 2.197751045227050781e+01 3.099609184265136719e+01 -1.582592725753784180e-02 -1.340978890657424927e-01 -4.497714713215827942e-02 -8.638602495193481445e-02
1.496000000000000000e+03 2.351312637329101562e+01 1.267991352081298828e+01 2.672048285603523254e-02 -8.008146882057189941e-01 -2.322282642126083374e-01 -2.485084906220436096e-02
1.497000000000000000e+03 1.255708503723144531e+01 -2.673095512390136719e+01 6.123504135757684708e-04 -2.117330150213092566e-04 1.201852137455716729e-04 -2.197820867877453566e-04
1.498000000000000000e+03 2.475585365295410156e+01 3.149185562133789062e+01 -9.529622644186019897e-02 -8.274870365858078003e-02 -5.341348052024841309e-02 -1.858022361993789673e-01
1.499000000000000000e+03 2.212948417663574219e+01 2.686012840270996094e+01 -4.428322426974773407e-03 -3.917003870010375977e-01 -1.188386157155036926e-01 -1.419572830200195312e-01
1.500000000000000000e+03 2.323695182800292969e+01 2.687108421325683594e+01 -8.580698631703853607e-03 -3.396915495395660400e-01 -1.044816747307777405e-01 -2.139338850975036621e-01
1.501000000000000000e+03 1.362564659118652344e+01 -6.587431430816650391e+00 -2.894755452871322632e-04 1.302386863244464621e-05 -8.293549763038754463e-05 6.761382246622815728e-05
1.502000000000000000e+03 2.214881896972656250e+01 2.545392036437988281e+01 1.403504400514066219e-03 -4.937479496002197266e-01 -1.477033346891403198e-01 -1.463402807712554932e-01
1.503000000000000000e+03 2.464355468750000000e+01 2.275924873352050781e+01 4.238793626427650452e-02 -4.273746013641357422e-01 -1.154960021376609802e-01 -2.613592147827148438e-01
1.504000000000000000e+03 2.121145057678222656e+01 -2.813445854187011719e+01 5.009968881495296955e-04 -5.177898406982421875e-01 -1.551866531372070312e-01 -1.124118641018867493e-02
1.505000000000000000e+03 2.223521804809570312e+01 2.264164543151855469e+01 9.536525234580039978e-03 -6.824057698249816895e-01 -2.018607705831527710e-01 -1.367362141609191895e-01
1.506000000000000000e+03 2.343893432617187500e+01 2.268954277038574219e+01 2.391060814261436462e-02 -5.530233383178710938e-01 -1.587338298559188843e-01 -2.068526893854141235e-01
1.507000000000000000e+03 2.353324508666992188e+01 2.127306747436523438e+01 2.904924564063549042e-02 -6.072559356689453125e-01 -1.734620183706283569e-01 -1.893349289894104004e-01
1.508000000000000000e+03 2.228119850158691406e+01 2.123428726196289062e+01 1.210018247365951538e-02 -7.640776634216308594e-01 -2.255932390689849854e-01 -1.257811188697814941e-01
1.509000000000000000e+03 2.490736389160156250e+01 1.984124374389648438e+01 6.315938383340835571e-02 -4.882201552391052246e-01 -1.275182366371154785e-01 -2.056201994419097900e-01
1.510000000000000000e+03 1.299754238128662109e+01 -1.594677925109863281e+01 6.352836498990654945e-04 5.098481415188871324e-05 2.058805403066799045e-04 -2.287224779138341546e-04
1.511000000000000000e+03 1.133439254760742188e+01 -1.837372207641601562e+01 -8.125973399728536606e-04 -3.522982296999543905e-04 -3.494686679914593697e-04 5.614582332782447338e-04
1.512000000000000000e+03 1.154921531677246094e+01 -1.559979248046875000e+01 -6.498244474641978741e-04 -7.765137706883251667e-05 -2.182427415391430259e-04 3.128033131361007690e-04
1.513000000000000000e+03 1.259220790863037109e+01 -9.174451828002929688e+00 3.428777854423969984e-04 7.039934280328452587e-05 1.239831326529383659e-04 -1.109604563680477440e-04
1.514000000000000000e+03 1.361377143859863281e+01 -9.252338409423828125e+00 -3.744163259398192167e-04 -2.701840276131406426e-05 -1.204304207931272686e-04 9.434753883397206664e-05
1.515000000000000000e+03 1.236020946502685547e+01 -1.163094425201416016e+01 4.543587856460362673e-04 6.655902689089998603e-05 1.562753459438681602e-04 -2.343102969462051988e-04
1.516000000000000000e+03 2.352688407897949219e+01 1.409439659118652344e+01 3.123145550489425659e-02 -7.902030944824218750e-01 -2.276914864778518677e-01 -4.956680163741111755e-02
1.517000000000000000e+03 2.354851722717285156e+01 1.551538467407226562e+01 3.458208590745925903e-02 -7.692474126815795898e-01 -2.203996032476425171e-01 -7.571696490049362183e-02
1.518000000000000000e+03 2.229363822937011719e+01 1.272142124176025391e+01 1.069243252277374268e-02 -1.041861891746520996e+00 -3.093508481979370117e-01 -1.825227402150630951e-02
1.519000000000000000e+03 2.350688743591308594e+01 1.127453041076660156e+01 2.103567123413085938e-02 -8.023941516876220703e-01 -2.344075441360473633e-01 -5.824263207614421844e-03
1.520000000000000000e+03 1.105410861968994141e+01 -1.959952545166015625e+01 7.211429183371365070e-04 7.103853859007358551e-04 4.294584796298295259e-04 -3.074502456001937389e-04
1.521000000000000000e+03 1.163025283813476562e+01 -2.444332695007324219e+01 1.305709010921418667e-03 -4.630437179002910852e-04 2.527995966374874115e-04 -4.656662931665778160e-04
1.522000000000000000e+03 2.227924919128417969e+01 8.499005317687988281e+00 3.548478940501809120e-03 -1.045691847801208496e+00 -3.126429915428161621e-01 1.162520516663789749e-02
1.523000000000000000e+03 2.347918128967285156e+01 7.065949440002441406e+00 -4.615873564034700394e-03 -7.655521035194396973e-01 -2.310503870248794556e-01 2.626280672848224640e-02
1.524000000000000000e+03 2.318409919738769531e+01 -5.631386756896972656e+00 1.230224408209323883e-02 -4.655590355396270752e-01 -1.359770298004150391e-01 4.296047613024711609e-02
1.525000000000000000e+03 2.330622482299804688e+01 -4.230636119842529297e+00 7.284253835678100586e-03 -4.693577587604522705e-01 -1.386220455169677734e-01 4.884096980094909668e-02
1.526000000000000000e+03 3.457158088684082031e+00 3.028384971618652344e+01 5.783941014669835567e-04 2.485304685251321644e-05 1.809741370379924774e-04 1.309184444835409522e-04
1.527000000000000000e+03 1.909015536308288574e+00 2.757088851928710938e+01 -5.477106315083801746e-04 -1.483652113165589981e-06 -1.647582976147532463e-04 -7.147461292333900928e-05
1.528000000000000000e+03 5.127393245697021484e+00 3.323712158203125000e+01 -6.034504040144383907e-04 -7.174033817136660218e-05 -2.025572321144863963e-04 -1.370811369270086288e-04
1.529000000000000000e+03 3.075221061706542969e+00 3.728059005737304688e+01 -5.548532499233260751e-05 -1.234347146237269044e-04 -5.367601261241361499e-05 1.069852987711783499e-05
1.530000000000000000e+03 3.320670604705810547e+00 2.886273956298828125e+01 -6.102629122324287891e-04 3.762240794458193704e-07 -1.829660031944513321e-04 -1.031723659252747893e-04
1.531000000000000000e+03 2.006825923919677734e+00 3.595125198364257812e+01 -4.938789061270654202e-04 -1.942710950970649719e-04 -2.064449945464730263e-04 2.049030008492991328e-04
1.532000000000000000e+03 2.068921327590942383e+00 3.461040115356445312e+01 4.727079067379236221e-04 7.838336023269221187e-05 1.653273793635889888e-04 -7.466481474693864584e-05
1.533000000000000000e+03 3.584430932998657227e+00 3.320339202880859375e+01 4.656249366234987974e-04 1.029828854370862246e-04 1.705823378870263696e-04 1.169975075754337013e-04
1.534000000000000000e+03 5.085279464721679688e+00 3.166241645812988281e+01 5.889846943318843842e-04 9.617277100915089250e-05 2.055472432402893901e-04 1.713088277028873563e-04
1.535000000000000000e+03 3.553454399108886719e+00 3.172975540161132812e+01 -5.500273546203970909e-04 -7.899579941295087337e-05 -1.887069374788552523e-04 -8.748300024308264256e-05
1.536000000000000000e+03 3.625997304916381836e+00 -3.431272125244140625e+01 9.950984967872500420e-04 1.384155242703855038e-03 7.137760985642671585e-04 2.478950191289186478e-03
1.537000000000000000e+03 3.187436342239379883e+00 -3.038350105285644531e+01 -3.460088337305933237e-04 3.907267528120428324e-04 1.341537608823273331e-05 1.003958750516176224e-03
1.538000000000000000e+03 1.958190202713012695e+00 -2.902137947082519531e+01 -4.371069080661982298e-04 1.540344528621062636e-04 -8.492173219565302134e-05 4.352945543359965086e-04
1.539000000000000000e+03 1.886672854423522949e+00 2.201654434204101562e+01 -5.000467645004391670e-04 -1.367038407806830946e-06 -1.504241372458636761e-04 -1.632283237995579839e-05
1.540000000000000000e+03 3.048177003860473633e+00 2.345239257812500000e+01 -5.708157550543546677e-04 3.043399556190706789e-05 -1.621145202079787850e-04 -5.661714021698571742e-05
1.541000000000000000e+03 3.051382064819335938e+00 -1.920516967773437500e+01 -7.655405206605792046e-04 -4.542407623375765979e-05 -2.432893816148862243e-04 -4.194771463517099619e-05
1.542000000000000000e+03 2.951182603836059570e+00 -1.232175540924072266e+01 5.902570555917918682e-04 2.921987652371171862e-05 1.858430769061669707e-04 -8.055222861003130674e-05
1.543000000000000000e+03 1.783048748970031738e+00 -9.374938964843750000e+00 -4.948751884512603283e-04 -2.796097214741166681e-05 -1.568508450873196125e-04 -2.447200131427962333e-06
1.544000000000000000e+03 3.353051424026489258e+00 1.772646903991699219e+01 -4.492962034419178963e-04 1.203700958285480738e-05 -1.311777596129104495e-04 -2.223602314188610762e-05
1.545000000000000000e+03 3.056262254714965820e+00 1.191288852691650391e+01 -3.741151595022529364e-04 2.397140087850857526e-05 -1.050431310432031751e-04 5.469706593430601060e-05
1.546000000000000000e+03 1.773140549659729004e+00 -1.502382469177246094e+01 -6.565722287632524967e-04 -6.239640788407996297e-05 -2.156905829906463623e-04 3.285099955974146724e-05
1.547000000000000000e+03 2.951041698455810547e+00 -1.371480941772460938e+01 -6.069132359698414803e-04 -5.838073411723598838e-05 -1.995881902985274792e-04 6.326356378849595785e-05
1.548000000000000000e+03 4.562998294830322266e+00 5.113207817077636719e+00 8.845387492328882217e-05 5.746355600422248244e-05 4.377522782306186855e-05 -1.120230372180230916e-04
1.549000000000000000e+03 2.941026926040649414e+00 7.637085437774658203e+00 2.589441137388348579e-04 1.243493807123741135e-05 8.141371654346585274e-05 -4.874985825153999031e-05
1.550000000000000000e+03 1.978780150413513184e+00 1.484901142120361328e+01 3.965886426158249378e-04 -6.649699116678675637e-06 1.169816823676228523e-04 -2.897387048506061547e-06
1.551000000000000000e+03 3.381175756454467773e+00 1.622786903381347656e+01 4.268670163583010435e-04 -1.671656832513690460e-06 1.275586109841242433e-04 6.840428341092774644e-06
1.552000000000000000e+03 3.014731168746948242e+00 9.084826469421386719e+00 -3.021573356818407774e-04 -2.273663449159357697e-05 -9.746818977873772383e-05 5.272198541206307709e-05
1.553000000000000000e+03 5.897217273712158203e+00 -4.319598197937011719e+00 -1.782898470992222428e-04 8.099878323264420033e-05 -2.918731661338824779e-05 1.017707836581394076e-04
1.554000000000000000e+03 2.626800775527954102e+00 -4.922865867614746094e+00 -3.098188608419150114e-04 -4.399284080136567354e-05 -1.061435032170265913e-04 -3.039865077880676836e-05
1.555000000000000000e+03 1.711112260818481445e+00 -6.447947025299072266e+00 -4.033765289932489395e-04 2.167712591472081840e-05 -1.145098140113987029e-04 4.604311016009887680e-06
1.556000000000000000e+03 3.328480958938598633e+00 -2.905618095397949219e+01 1.216951990500092506e-03 4.990522284060716629e-04 5.148012423887848854e-04 5.637757712975144386e-04
1.557000000000000000e+03 3.240507364273071289e+00 -2.201430702209472656e+01 -9.019640274345874786e-04 5.484012581291608512e-05 -2.541371795814484358e-04 1.186495428555645049e-04
1.558000000000000000e+03 1.820889830589294434e+00 -3.660686874389648438e+01 -5.376044427976012230e-04 5.153084173798561096e-03 1.384643837809562683e-03 1.992458244785666466e-03
1.559000000000000000e+03 3.301747083663940430e+00 -2.343523788452148438e+01 9.706352138891816139e-04 -1.001241798803675920e-05 2.881868567783385515e-04 -3.304728015791624784e-04
1.560000000000000000e+03 2.980598926544189453e+00 -1.647217369079589844e+01 -6.456331466324627399e-04 -1.246399042429402471e-04 -2.310819254489615560e-04 3.580922202672809362e-05
1.561000000000000000e+03 3.143873691558837891e+00 2.207796669006347656e+01 5.303502548485994339e-04 -3.553659325916669331e-06 1.580389798618853092e-04 3.566593295545317233e-05
1.562000000000000000e+03 2.955646753311157227e+00 -1.091964626312255859e+01 -5.951747880317270756e-04 -4.962352250004187226e-06 -1.800411409931257367e-04 4.954775795340538025e-05
1.563000000000000000e+03 2.973058700561523438e+00 -9.484386444091796875e+00 5.616800626739859581e-04 9.982835763366892934e-06 1.714988611638545990e-04 -1.773925578163471073e-05
1.564000000000000000e+03 3.606703758239746094e+00 -3.285703277587890625e+01 8.107771282084286213e-05 4.848036915063858032e-04 1.697644183877855539e-04 2.622165251523256302e-03
1.565000000000000000e+03 1.978284120559692383e+00 -2.483940505981445312e+01 7.512595038861036301e-04 2.935819611593615264e-05 2.341853105463087559e-04 -2.245135256089270115e-04
1.566000000000000000e+03 4.663614273071289062e+00 -2.340662765502929688e+01 -1.227912725880742073e-03 4.262143338564783335e-04 -2.405095292488113046e-04 2.240309986518695951e-04
1.567000000000000000e+03 3.323423624038696289e+00 -2.623921585083007812e+01 9.407352772541344166e-04 3.371245693415403366e-04 3.833579539787024260e-04 -1.823740894906222820e-04
1.568000000000000000e+03 2.961840867996215820e+00 -1.510093021392822266e+01 6.013129022903740406e-04 6.504628981929272413e-05 1.999077649088576436e-04 -9.567480447003617883e-05
1.569000000000000000e+03 2.988757371902465820e+00 1.052020931243896484e+01 3.482637694105505943e-04 -8.053274541452992707e-06 1.020631461869925261e-04 -5.417162901721894741e-05
1.570000000000000000e+03 3.181986808776855469e+00 1.332410240173339844e+01 4.009559634141623974e-04 -3.981882036896422505e-05 1.083411480067297816e-04 -3.867670238832943141e-05
1.571000000000000000e+03 3.302855253219604492e+00 1.921805000305175781e+01 4.646069719456136227e-04 1.434324985893908888e-06 1.398123858962208033e-04 4.443455691216513515e-05
1.572000000000000000e+03 2.345499038696289062e+01 2.849002361297607422e+00 -1.114544738084077835e-02 -6.573637127876281738e-01 -2.005527466535568237e-01 5.836034938693046570e-02
1.573000000000000000e+03 2.300672149658203125e+01 -9.779427528381347656e+00 -8.613729849457740784e-03 -4.140735268592834473e-01 -1.268061846494674683e-01 2.549764700233936310e-02
1.574000000000000000e+03 1.121862316131591797e+01 3.239989852905273438e+01 8.391552837565541267e-04 -5.391365266405045986e-04 9.000563295558094978e-05 6.222301744855940342e-04
1.575000000000000000e+03 1.377281188964843750e+01 2.962969589233398438e+01 9.982981719076633453e-04 1.725586844258941710e-05 3.046662022825330496e-04 2.880444808397442102e-04
1.576000000000000000e+03 1.205946254730224609e+01 2.315755462646484375e+01 7.145712152123451233e-04 1.483468895457917824e-05 2.188217622460797429e-04 5.092092396807856858e-05
1.577000000000000000e+03 1.578180217742919922e+01 3.701580429077148438e+01 -1.477410900406539440e-03 -9.482815512455999851e-04 -7.277076947502791882e-04 9.576749289408326149e-04
1.578000000000000000e+03 2.303498649597167969e+01 -1.535229587554931641e+01 -1.426851563155651093e-02 -3.059805631637573242e-01 -9.607472270727157593e-02 1.971815526485443115e-02
1.579000000000000000e+03 2.299481582641601562e+01 -1.255745887756347656e+01 -2.016284503042697906e-02 -3.639363050460815430e-01 -1.152297481894493103e-01 2.401278913021087646e-02
1.580000000000000000e+03 1.154666042327880859e+01 -3.525790405273437500e+01 8.487135171890258789e-03 -4.322296474128961563e-03 1.249451539479196072e-03 -8.575267158448696136e-03
1.581000000000000000e+03 8.923640251159667969e+00 -3.939557266235351562e+01 -3.739677602425217628e-03 -1.036581862717866898e-02 -4.231648985296487808e-03 9.217341430485248566e-03
1.582000000000000000e+03 2.346800613403320312e+01 5.658531665802001953e+00 -1.872201636433601379e-02 -7.373833656311035156e-01 -2.268316149711608887e-01 3.805689141154289246e-02
1.583000000000000000e+03 3.705928421020507812e+01 3.760343933105468750e+01 -1.633405126631259918e-02 -2.984862327575683594e-01 -9.444608539342880249e-02 3.388219773769378662e-01
1.584000000000000000e+03 3.833993148803710938e+01 3.711664199829101562e+01 -6.681140512228012085e-02 -2.802747786045074463e-01 -1.041258573532104492e-01 4.605243802070617676e-01
1.585000000000000000e+03 2.344487953186035156e+01 -2.810045719146728516e+00 8.819323964416980743e-03 -4.844699501991271973e-01 -1.426951885223388672e-01 5.140286311507225037e-02
1.586000000000000000e+03 2.312283897399902344e+01 -1.966907882690429688e+01 1.027869246900081635e-02 -2.327282875776290894e-01 -6.673488020896911621e-02 7.523391395807266235e-03
1.587000000000000000e+03 1.252468681335449219e+01 2.815257453918457031e+01 7.513512973673641682e-04 1.998212392209097743e-04 2.853517653420567513e-04 1.197191377286799252e-04
1.588000000000000000e+03 2.145707511901855469e+01 -2.106798744201660156e+01 4.329422954469919205e-03 -4.906919300556182861e-01 -1.459087580442428589e-01 -1.531992387026548386e-02
1.589000000000000000e+03 2.407268333435058594e+01 -3.124279785156250000e+01 -3.398578613996505737e-02 6.590584758669137955e-03 -8.218560367822647095e-03 -2.948002517223358154e-02
1.590000000000000000e+03 2.275077247619628906e+01 -2.829516410827636719e+01 -3.066165838390588760e-03 -2.419941127300262451e-01 -7.351808249950408936e-02 -1.847274228930473328e-02
1.591000000000000000e+03 2.446544456481933594e+01 -2.717304039001464844e+01 -1.603189855813980103e-02 6.434769928455352783e-02 1.449474040418863297e-02 -1.608893624506890774e-03
1.592000000000000000e+03 2.132938385009765625e+01 -2.534266090393066406e+01 5.258917808532714844e-03 -4.931239187717437744e-01 -1.463595032691955566e-01 -1.046710368245840073e-02
1.593000000000000000e+03 2.116288375854492188e+01 -2.951769447326660156e+01 -3.408613381907343864e-03 -5.349072217941284180e-01 -1.614947617053985596e-01 -1.139514986425638199e-02
1.594000000000000000e+03 1.512963962554931641e+01 -4.038766479492187500e+01 -5.152219906449317932e-02 -6.620656698942184448e-02 -3.531862795352935791e-02 -3.580792248249053955e-02
1.595000000000000000e+03 2.155441093444824219e+01 -3.509708404541015625e+01 -9.281206130981445312e-02 -3.876679837703704834e-01 -1.441440135240554810e-01 -6.940358132123947144e-02
1.596000000000000000e+03 5.121044635772705078e+00 -4.046804046630859375e+01 -3.407446201890707016e-03 7.668875623494386673e-03 1.278428826481103897e-03 1.977171516045928001e-03
1.597000000000000000e+03 5.022454452514648438e+01 3.449541854858398438e+01 9.330487251281738281e-01 5.690184593200683594e+00 1.986970067024230957e+00 -3.584829807281494141e+00
1.598000000000000000e+03 4.970622634887695312e+01 3.455698394775390625e+01 8.793121576309204102e-01 4.032521724700927734e+00 1.473550200462341309e+00 -2.900331020355224609e+00
1.599000000000000000e+03 4.978474426269531250e+01 2.971476364135742188e+01 3.544758319854736328e+00 3.510927677154541016e+00 2.116705894470214844e+00 4.495987892150878906e+00
1.600000000000000000e+03 5.001752853393554688e+01 2.967061424255371094e+01 3.757313728332519531e+00 4.239278316497802734e+00 2.398977518081665039e+00 5.078919410705566406e+00
1.601000000000000000e+03 5.030831527709960938e+01 3.011207580566406250e+01 4.400256633758544922e+00 4.093168258666992188e+00 2.548027515411376953e+00 5.393515586853027344e+00
1.602000000000000000e+03 4.969537734985351562e+01 3.555839538574218750e+01 6.345965266227722168e-01 5.085172653198242188e+00 1.715930819511413574e+00 -2.824773311614990234e+00
1.603000000000000000e+03 4.899029922485351562e+01 2.964706993103027344e+01 2.840080022811889648e+00 1.918847084045410156e+00 1.427678108215332031e+00 3.083524227142333984e+00
1.604000000000000000e+03 5.130704116821289062e+01 3.532476425170898438e+01 -3.445069789886474609e-01 1.075133991241455078e+01 3.122049808502197266e+00 -3.461744546890258789e+00
1.605000000000000000e+03 5.232215499877929688e+01 3.391129684448242188e+01 -5.611999630928039551e-01 1.840344619750976562e+01 5.352673530578613281e+00 -2.455992460250854492e+00
1.606000000000000000e+03 4.635372924804687500e+01 2.914821052551269531e+01 1.068858146667480469e+00 6.290805935859680176e-01 5.093816518783569336e-01 1.131002068519592285e+00
1.607000000000000000e+03 4.703614807128906250e+01 3.513919830322265625e+01 -1.800696738064289093e-02 5.683637857437133789e-01 1.651070564985275269e-01 -3.629347681999206543e-01
1.608000000000000000e+03 4.889326858520507812e+01 3.543298339843750000e+01 6.572276949882507324e-01 3.148158788681030273e+00 1.141615986824035645e+00 -1.989642858505249023e+00
1.609000000000000000e+03 2.634127044677734375e+01 3.177031135559082031e+01 -1.650964468717575073e-01 -3.312684223055839539e-02 -5.946698784828186035e-02 -2.155005633831024170e-01
1.610000000000000000e+03 5.349952316284179688e+01 2.927431297302246094e+01 2.224603891372680664e+00 1.694835853576660156e+01 5.751888751983642578e+00 -1.560060083866119385e-01
1.611000000000000000e+03 5.132455062866210938e+01 2.932289695739746094e+01 2.296327590942382812e+00 1.193755245208740234e+01 4.270164012908935547e+00 6.153068542480468750e+00
1.612000000000000000e+03 5.107340240478515625e+01 2.971139335632324219e+01 3.390903949737548828e+00 1.016902065277099609e+01 4.067977428436279297e+00 7.028244018554687500e+00
1.613000000000000000e+03 4.572418594360351562e+01 2.929346084594726562e+01 6.553281545639038086e-01 4.063859283924102783e-01 3.185142278671264648e-01 7.873947620391845703e-01
1.614000000000000000e+03 4.755760192871093750e+01 2.966062545776367188e+01 1.299013614654541016e+00 6.022526025772094727e-01 5.703798532485961914e-01 1.451617598533630371e+00
1.615000000000000000e+03 2.707663154602050781e+01 3.180760574340820312e+01 -2.002619951963424683e-01 -1.536449417471885681e-02 -6.468794494867324829e-02 -2.283380329608917236e-01
1.616000000000000000e+03 8.204051017761230469e+00 4.191070079803466797e+00 9.803753346204757690e-05 6.737246440025046468e-05 4.962299863109365106e-05 3.347326492075808346e-05
1.617000000000000000e+03 1.047136211395263672e+01 3.307089567184448242e+00 1.612789783393964171e-04 -6.754301466571632773e-06 4.635740333469584584e-05 2.174787732656113803e-05
1.618000000000000000e+03 2.626804733276367188e+01 3.258902359008789062e+01 -1.718450933694839478e-01 -1.873382180929183960e-02 -5.717367306351661682e-02 -1.761036813259124756e-01
1.619000000000000000e+03 2.497314643859863281e+01 3.059916496276855469e+01 -9.334720671176910400e-02 -1.017456278204917908e-01 -5.852784961462020874e-02 -2.239004075527191162e-01
1.620000000000000000e+03 6.879327297210693359e+00 5.447527408599853516e+00 -9.183800284517928958e-05 4.913424163532909006e-06 -2.607737405924126506e-05 4.027492832392454147e-05
1.621000000000000000e+03 5.220877170562744141e+00 4.215783596038818359e+00 7.450916746165603399e-05 7.706853648414835334e-05 4.547331263893283904e-05 -5.653435073327273130e-05
1.622000000000000000e+03 4.712368488311767578e+00 5.926287174224853516e+00 -2.816902633639983833e-05 -7.960029324749484658e-05 -3.233079405617900193e-05 7.141311652958393097e-05
1.623000000000000000e+03 5.226948738098144531e+00 3.471516847610473633e+00 -6.847569602541625500e-05 -7.160531094996258616e-05 -4.202430136501789093e-05 3.198470949428156018e-05
1.624000000000000000e+03 3.059078693389892578e+00 5.083395957946777344e+00 2.210402744822204113e-04 2.375500480411574244e-05 7.343858305830508471e-05 3.684624971356242895e-05
1.625000000000000000e+03 2.920759582519531250e+01 3.169395446777343750e+01 -3.092986047267913818e-01 3.106638789176940918e-02 -8.346966654062271118e-02 -2.629022896289825439e-01
1.626000000000000000e+03 2.270638227462768555e+00 3.524839401245117188e+00 -1.131649623857811093e-04 -7.886130333645269275e-05 -5.760787826147861779e-05 1.084924006136134267e-04
1.627000000000000000e+03 2.941041469573974609e+00 3.625823020935058594e+00 9.272740862797945738e-05 1.048481062753126025e-04 5.927265374339185655e-05 4.453798828762955964e-05
1.628000000000000000e+03 1.476006507873535156e+00 4.876991748809814453e+00 -1.093779064831323922e-04 -2.474778375471942127e-05 -4.023770816274918616e-05 7.235798693727701902e-05
1.629000000000000000e+03 1.649693608283996582e+00 3.301029682159423828e+00 1.852348214015364647e-04 3.221902261429931968e-06 5.653701737173832953e-05 3.490223025437444448e-05
1.630000000000000000e+03 2.991902542114257812e+01 3.162109184265136719e+01 -3.482767343521118164e-01 4.317044839262962341e-02 -9.153188765048980713e-02 -2.720616161823272705e-01
1.631000000000000000e+03 3.063172149658203125e+01 3.153148269653320312e+01 -3.875753581523895264e-01 5.735190957784652710e-02 -9.906703978776931763e-02 -2.789917886257171631e-01
1.632000000000000000e+03 3.206092834472656250e+01 3.132285499572753906e+01 -4.648226201534271240e-01 7.875255495309829712e-02 -1.158210188150405884e-01 -2.890074551105499268e-01
1.633000000000000000e+03 9.747862815856933594e+00 4.113691329956054688e+00 1.591273321537300944e-04 3.038350769202224910e-05 5.685325231752358377e-05 6.299995584413409233e-05
1.634000000000000000e+03 1.020484638214111328e+01 -5.211331367492675781e+00 2.443994453642517328e-04 6.086323628551326692e-05 9.157881140708923340e-05 -1.373162085656076670e-04
1.635000000000000000e+03 2.918140602111816406e+01 3.245397567749023438e+01 -3.345728814601898193e-01 3.368790075182914734e-02 -9.026549011468887329e-02 -2.160871475934982300e-01
1.636000000000000000e+03 1.168226814270019531e+01 -4.541504859924316406e+00 -3.210610593669116497e-04 5.532744762604124844e-05 -7.972008461365476251e-05 2.109901106450706720e-04
1.637000000000000000e+03 1.107252502441406250e+01 -3.631691694259643555e+00 -2.123655576724559069e-04 -4.283428279450163245e-05 -7.655995432287454605e-05 5.163603782420977950e-05
1.638000000000000000e+03 3.277757263183593750e+01 3.120907402038574219e+01 -5.020207762718200684e-01 8.527939021587371826e-02 -1.250224113464355469e-01 -2.916404008865356445e-01
1.639000000000000000e+03 2.779108238220214844e+01 3.179554367065429688e+01 -2.351057380437850952e-01 1.367934513837099075e-03 -7.012134045362472534e-02 -2.407589107751846313e-01
1.640000000000000000e+03 2.849870300292968750e+01 3.175289726257324219e+01 -2.714598774909973145e-01 1.529766991734504700e-02 -7.684866338968276978e-02 -2.529830932617187500e-01
1.641000000000000000e+03 3.206079483032226562e+01 3.204060745239257812e+01 -5.250459909439086914e-01 7.106289267539978027e-02 -1.361949294805526733e-01 -2.366120964288711548e-01
1.642000000000000000e+03 3.134549331665039062e+01 3.143024635314941406e+01 -4.264525473117828369e-01 6.675928831100463867e-02 -1.079079732298851013e-01 -2.853327989578247070e-01
1.643000000000000000e+03 3.931744766235351562e+01 3.006007957458496094e+01 -6.181039810180664062e-01 1.413714438676834106e-01 -1.430197656154632568e-01 -1.814822703599929810e-01
1.644000000000000000e+03 4.082868576049804688e+01 3.050441741943359375e+01 -8.406509160995483398e-01 1.063605099916458130e-01 -2.202871143817901611e-01 -9.363619983196258545e-02
1.645000000000000000e+03 3.714887619018554688e+01 3.111039543151855469e+01 -8.169747591018676758e-01 1.040608510375022888e-01 -2.138741761445999146e-01 -2.068733572959899902e-01
1.646000000000000000e+03 3.858077621459960938e+01 3.017575454711914062e+01 -6.365093588829040527e-01 1.312840282917022705e-01 -1.515676081180572510e-01 -2.108543515205383301e-01
1.647000000000000000e+03 3.568437957763671875e+01 3.138562202453613281e+01 -7.511206865310668945e-01 9.787309914827346802e-02 -1.959742754697799683e-01 -2.273262590169906616e-01
1.648000000000000000e+03 3.778598785400390625e+01 2.962958908081054688e+01 -4.561479985713958740e-01 1.520425528287887573e-01 -9.123163670301437378e-02 -2.563265264034271240e-01
1.649000000000000000e+03 4.005427169799804688e+01 2.995541572570800781e+01 -5.867912769317626953e-01 1.395119130611419678e-01 -1.341838091611862183e-01 -1.444112211465835571e-01
1.650000000000000000e+03 3.349392700195312500e+01 3.108881568908691406e+01 -5.364851355552673340e-01 9.534510970115661621e-02 -1.323420107364654541e-01 -2.918375432491302490e-01
1.651000000000000000e+03 3.421029281616210938e+01 3.096403694152832031e+01 -5.682315826416015625e-01 9.943766891956329346e-02 -1.406381875276565552e-01 -2.905023097991943359e-01
1.652000000000000000e+03 4.506741333007812500e+01 2.941458320617675781e+01 3.084092140197753906e-01 2.938998639583587646e-01 1.806927174329757690e-01 5.449315309524536133e-01
1.653000000000000000e+03 8.059506416320800781e+00 -3.472555398941040039e+00 -1.567659346619620919e-04 -1.347146735497517511e-05 -5.107122342451475561e-05 3.291393295512534678e-05
1.654000000000000000e+03 1.168417167663574219e+01 -5.359157562255859375e+00 1.716678525554016232e-04 1.569072774145752192e-04 9.857254190137609839e-05 -2.596661215648055077e-04
1.655000000000000000e+03 4.302946853637695312e+01 3.023026466369628906e+01 -6.678171157836914062e-01 1.138717532157897949e-01 -1.661836057901382446e-01 6.097864732146263123e-02
1.656000000000000000e+03 4.425385284423828125e+01 2.839283752441406250e+01 6.861587166786193848e-01 4.878154695034027100e-01 3.521922528743743896e-01 6.270326972007751465e-01
1.657000000000000000e+03 3.492922210693359375e+01 3.083501052856445312e+01 -5.959106087684631348e-01 1.087290793657302856e-01 -1.461544483900070190e-01 -2.861968874931335449e-01
1.658000000000000000e+03 3.565108489990234375e+01 3.070326423645019531e+01 -6.186177134513854980e-01 1.112195104360580444e-01 -1.522194594144821167e-01 -2.790449559688568115e-01
1.659000000000000000e+03 1.197751712799072266e+01 3.044153928756713867e+00 1.144907364505343139e-04 -8.111759598250500858e-06 3.191369250998832285e-05 -6.862704321974888444e-05
1.660000000000000000e+03 1.225611877441406250e+01 3.704044818878173828e+00 -1.901117502711713314e-04 3.787696914514526725e-05 -4.567043652059510350e-05 6.621891225222498178e-05
1.661000000000000000e+03 4.079449081420898438e+01 2.986121368408203125e+01 -5.423882007598876953e-01 1.508270353078842163e-01 -1.174683496356010437e-01 -9.937942773103713989e-02
1.662000000000000000e+03 4.153191757202148438e+01 2.977810478210449219e+01 -4.775804579257965088e-01 1.496452242136001587e-01 -9.838056564331054688e-02 -4.091778397560119629e-02
1.663000000000000000e+03 9.015549659729003906e+00 4.895894050598144531e+00 1.408903481205925345e-04 5.289421824272722006e-05 5.813537063659168780e-05 6.805531302234157920e-05
1.664000000000000000e+03 4.226594924926757812e+01 2.970543479919433594e+01 -3.949971795082092285e-01 1.632951498031616211e-01 -6.951060891151428223e-02 2.736235782504081726e-02
1.665000000000000000e+03 9.514360427856445312e+00 -4.319997787475585938e+00 1.819053868530318141e-04 3.494433985906653106e-05 6.505491910502314568e-05 -6.814919470343738794e-05
1.666000000000000000e+03 5.063122749328613281e+00 -3.624599933624267578e+00 -1.774154497979907319e-06 -2.960063648060895503e-05 -9.412437066202983260e-06 8.265033829957246780e-05
1.667000000000000000e+03 5.975719451904296875e+00 -5.042780399322509766e+00 3.125371877104043961e-04 -1.299874274991452694e-04 5.476492879097349942e-05 -1.282038720091804862e-04
1.668000000000000000e+03 4.293734550476074219e+00 -3.737666368484497070e+00 -5.822347884532064199e-05 9.976144065149128437e-05 1.246138799615437165e-05 -4.547360003925859928e-05
1.669000000000000000e+03 4.423004150390625000e+00 -4.666212558746337891e+00 5.854741539224050939e-05 2.650532951520290226e-05 2.551582292653620243e-05 1.067661796696484089e-04
1.670000000000000000e+03 4.305640697479248047e+00 -8.266870498657226562e+00 5.016486975364387035e-04 1.452378492103889585e-04 1.940659713000059128e-04 -9.664511890150606632e-05
1.671000000000000000e+03 3.511971473693847656e+00 -3.824869632720947266e+00 -4.611368422047235072e-05 -1.702119043329730630e-04 -6.489767110906541348e-05 -9.663542005000635982e-05
1.672000000000000000e+03 4.776140689849853516e+00 -7.111724376678466797e+00 -5.463520647026598454e-04 -1.708721829345449805e-04 -2.151672815671190619e-04 1.131930548581294715e-04
1.673000000000000000e+03 2.884797811508178711e+00 -6.417399406433105469e+00 3.521067555993795395e-04 -7.856587762944400311e-05 8.206226630136370659e-05 6.070453673601150513e-05
1.674000000000000000e+03 4.299341201782226562e+01 2.964029312133789062e+01 -2.820296585559844971e-01 1.683331727981567383e-01 -3.410895168781280518e-02 1.149820089340209961e-01
1.675000000000000000e+03 1.284723663330078125e+01 -3.738717794418334961e+00 1.451856078347191215e-04 1.594283676240593195e-04 9.138419409282505512e-05 -1.322377938777208328e-04
1.676000000000000000e+03 1.137666893005371094e+01 3.955212354660034180e+00 2.210085076512768865e-04 -2.432804103591479361e-05 5.900414180359803140e-05 1.116273415391333401e-05
1.677000000000000000e+03 1.358600234985351562e+01 3.365520715713500977e+00 2.629205118864774704e-04 -2.602062886580824852e-05 7.106996054062619805e-05 3.223764360882341862e-05
1.678000000000000000e+03 5.352453231811523438e+01 3.451458740234375000e+01 1.775130927562713623e-01 1.695962333679199219e+01 5.141140937805175781e+00 9.874393343925476074e-01
1.679000000000000000e+03 2.296573829650878906e+01 3.107290267944335938e+01 -3.829726949334144592e-02 -1.260785162448883057e-01 -4.931273311376571655e-02 -1.277392655611038208e-01
1.680000000000000000e+03 5.472182464599609375e+01 3.018918609619140625e+01 5.147899150848388672e+00 1.478079795837402344e+01 5.978609085083007812e+00 -1.327858924865722656e+00
1.681000000000000000e+03 2.290178680419921875e+01 3.224850082397460938e+01 -4.007524251937866211e-02 -8.236165344715118408e-02 -3.673106804490089417e-02 -9.402656555175781250e-02
1.682000000000000000e+03 1.215071868896484375e+01 -1.288453102111816406e+01 -5.376698100008070469e-04 -8.542204159311950207e-05 -1.869275583885610104e-04 2.682029153220355511e-04
1.683000000000000000e+03 1.179426956176757812e+01 -1.418737983703613281e+01 5.782295484095811844e-04 1.914929453050717711e-04 2.309167466592043638e-04 -2.343437081435695291e-04
1.684000000000000000e+03 1.260067081451416016e+01 -6.657235145568847656e+00 3.116544685326516628e-04 -4.427496241987682879e-05 8.021385292522609234e-05 -6.479879812104627490e-05
1.685000000000000000e+03 1.264238929748535156e+01 -7.931215286254882812e+00 -3.313639317639172077e-04 -1.212723600474419072e-05 -1.030473504215478897e-04 6.861503788968548179e-05
1.686000000000000000e+03 1.249555206298828125e+01 7.870569705963134766e+00 -2.225405332865193486e-04 -3.663528332253918052e-05 -7.775274571031332016e-05 -3.018553434230852872e-05
1.687000000000000000e+03 2.722321319580078125e+01 4.171428680419921875e+01 -2.084773004753515124e-04 -3.149123489856719971e-02 -9.509913623332977295e-03 -1.002466073259711266e-03
1.688000000000000000e+03 1.235093307495117188e+01 -4.396866798400878906e+00 1.066695112967863679e-04 -1.876074820756912231e-04 -2.428139123367145658e-05 6.779108662158250809e-05
1.689000000000000000e+03 1.818890190124511719e+01 4.161248016357421875e+01 -1.864331352408044040e-05 1.853870693594217300e-03 5.505682202056050301e-04 -3.545366460457444191e-03
1.690000000000000000e+03 2.509929847717285156e+01 1.128706932067871094e-01 3.598891431465744972e-03 -2.417281568050384521e-01 -7.143877446651458740e-02 1.005768105387687683e-01
1.691000000000000000e+03 2.491718101501464844e+01 -2.889652967453002930e+00 5.353854969143867493e-03 -1.999034732580184937e-01 -5.836488679051399231e-02 8.694890886545181274e-02
1.692000000000000000e+03 2.475768470764160156e+01 -1.814963912963867188e+01 2.352564828470349312e-03 4.074137285351753235e-02 1.292818132787942886e-02 3.268545120954513550e-02
1.693000000000000000e+03 2.488120841979980469e+01 -1.964958381652832031e+01 5.084080621600151062e-03 6.881164014339447021e-02 2.216871455311775208e-02 2.529409714043140411e-02
1.694000000000000000e+03 2.468958663940429688e+01 2.904094219207763672e+00 -5.987612064927816391e-03 -4.116220176219940186e-01 -1.252828985452651978e-01 9.153503924608230591e-02
1.695000000000000000e+03 2.466172790527343750e+01 -1.667985343933105469e+01 -1.071089971810579300e-02 2.590019255876541138e-03 -2.436263952404260635e-03 3.681994229555130005e-02
1.696000000000000000e+03 2.303797912597656250e+01 -8.396168708801269531e+00 -2.572381403297185898e-03 -4.284893870353698730e-01 -1.293185353279113770e-01 2.848343364894390106e-02
1.697000000000000000e+03 2.454935646057128906e+01 -5.695114135742187500e+00 5.087198689579963684e-03 -2.116775810718536377e-01 -6.197711452841758728e-02 6.844433397054672241e-02
1.698000000000000000e+03 4.602425384521484375e+01 3.595365905761718750e+01 1.933333128690719604e-01 6.789396405220031738e-01 2.616818845272064209e-01 -2.823761701583862305e-01
1.699000000000000000e+03 1.332379150390625000e+01 -1.321997070312500000e+01 5.454421043395996094e-04 2.671896800165995955e-05 1.716483238851651549e-04 -1.343890471616759896e-04
1.700000000000000000e+03 2.443548011779785156e+01 -1.250192737579345703e+01 -1.674801670014858246e-02 -1.041975691914558411e-01 -3.628367558121681213e-02 4.425590112805366516e-02
1.701000000000000000e+03 1.120217418670654297e+01 2.580212020874023438e+01 -7.686630706302821636e-04 -7.806956273270770907e-05 -2.540198038332164288e-04 -6.405854492186335847e-06
1.702000000000000000e+03 5.231167793273925781e+00 1.042790126800537109e+01 1.657007669564336538e-04 1.104230250348336995e-04 8.283713395940139890e-05 -9.736279753269627690e-05
1.703000000000000000e+03 1.242136478424072266e+01 9.124700546264648438e+00 2.351334987906739116e-04 4.827195152756758034e-05 8.502163836965337396e-05 4.219601396471261978e-05
1.704000000000000000e+03 1.008958053588867188e+01 1.942585754394531250e+01 3.561233370419358835e-06 -2.766103716567158699e-04 -8.191473898477852345e-05 -1.805041392799466848e-05
1.705000000000000000e+03 1.074337291717529297e+01 1.526297473907470703e+01 5.321751450537703931e-05 -2.691121380848926492e-06 1.515791791462106630e-05 -2.675102441571652889e-04
1.706000000000000000e+03 7.556988525390625000e+01 1.402509880065917969e+01 -6.143566220998764038e-02 7.358548164367675781e+00 2.189133644104003906e+00 -7.024499773979187012e-01
1.707000000000000000e+03 7.534427642822265625e+01 7.082308292388916016e+00 -7.926630973815917969e-02 8.027165412902832031e+00 2.384369850158691406e+00 -5.045155286788940430e-01
1.708000000000000000e+03 7.671231842041015625e+01 1.432543039321899414e+00 -3.268435969948768616e-02 8.550888061523437500e+00 2.555461168289184570e+00 -2.650856077671051025e-01
1.709000000000000000e+03 7.531558990478515625e+01 2.244018018245697021e-02 -5.777972564101219177e-02 8.467526435852050781e+00 2.522924184799194336e+00 -3.121711611747741699e-01
1.710000000000000000e+03 7.674935913085937500e+01 8.463413238525390625e+00 -4.436508193612098694e-02 7.971784591674804688e+00 2.378225803375244141e+00 -4.197725355625152588e-01
1.711000000000000000e+03 7.548107147216796875e+01 9.916796684265136719e+00 -8.163809031248092651e-02 7.787105083465576172e+00 2.311640024185180664e+00 -5.886742472648620605e-01
1.712000000000000000e+03 7.673199462890625000e+01 2.840964078903198242e+00 -4.002591595053672791e-02 8.456687927246093750e+00 2.524998426437377930e+00 -2.928895950317382812e-01
1.713000000000000000e+03 7.536190795898437500e+01 5.668556213378906250e+00 -7.405983656644821167e-02 8.128310203552246094e+00 2.416275024414062500e+00 -4.637168049812316895e-01
1.714000000000000000e+03 7.382590484619140625e+01 -1.422005057334899902e+00 -8.853110671043395996e-02 8.353040695190429688e+00 2.479352951049804688e+00 -3.380322158336639404e-01
1.715000000000000000e+03 7.537488555908203125e+01 -8.370139122009277344e+00 -3.217567130923271179e-02 8.779224395751953125e+00 2.624114751815795898e+00 -1.590692102909088135e-01
1.716000000000000000e+03 7.553620147705078125e+01 1.131002521514892578e+01 -7.383065670728683472e-02 7.652402400970458984e+00 2.273571491241455078e+00 -6.260596513748168945e-01
1.717000000000000000e+03 7.419071197509765625e+01 9.992108345031738281e+00 -1.220140829682350159e-01 7.769852638244628906e+00 2.294351577758789062e+00 -6.967535018920898438e-01
1.718000000000000000e+03 7.537857818603515625e+01 -1.113800144195556641e+01 -2.729482017457485199e-02 8.843471527099609375e+00 2.644853115081787109e+00 -1.267022788524627686e-01
1.719000000000000000e+03 7.528619384765625000e+01 -1.530500411987304688e+01 -2.039689198136329651e-02 8.900372505187988281e+00 2.663992643356323242e+00 -9.105064719915390015e-02
1.720000000000000000e+03 7.529219055175781250e+01 -4.210102558135986328e+00 -4.948171973228454590e-02 8.640785217285156250e+00 2.577391147613525391e+00 -2.258504033088684082e-01
1.721000000000000000e+03 7.532077026367187500e+01 -5.617358207702636719e+00 -4.009167850017547607e-02 8.690844535827636719e+00 2.595225811004638672e+00 -2.001053988933563232e-01
1.722000000000000000e+03 7.527468872070312500e+01 -2.789249181747436523e+00 -5.161124840378761292e-02 8.586393356323242188e+00 2.560434579849243164e+00 -2.541358172893524170e-01
1.723000000000000000e+03 7.459040069580078125e+01 3.205764770507812500e+01 2.117747813463211060e-01 5.733065128326416016e+00 1.783451914787292480e+00 -4.579233527183532715e-01
1.724000000000000000e+03 7.524597930908203125e+01 -1.810730552673339844e+01 -1.974404230713844299e-02 8.930784225463867188e+00 2.673312187194824219e+00 -7.245933264493942261e-02
1.725000000000000000e+03 7.535603332519531250e+01 -1.252573966979980469e+01 -2.526623010635375977e-02 8.865203857421875000e+00 2.651981115341186523e+00 -1.144387945532798767e-01
1.726000000000000000e+03 7.669963073730468750e+01 -1.111825752258300781e+01 -1.537867728620767593e-02 9.061368942260742188e+00 2.713797330856323242e+00 -1.001477688550949097e-01
1.727000000000000000e+03 7.538456726074218750e+01 -9.749881744384765625e+00 -3.023838624358177185e-02 8.813148498535156250e+00 2.634873151779174805e+00 -1.441039890050888062e-01
1.728000000000000000e+03 7.525758361816406250e+01 -1.670621490478515625e+01 -1.980163343250751495e-02 8.914602279663085938e+00 2.668440341949462891e+00 -8.099374175071716309e-02
1.729000000000000000e+03 7.526133728027343750e+01 -1.949516868591308594e+01 -1.869261451065540314e-02 8.950323104858398438e+00 2.679489135742187500e+00 -5.967522785067558289e-02
1.730000000000000000e+03 7.664407348632812500e+01 -1.808011627197265625e+01 -1.089261006563901901e-02 9.175016403198242188e+00 2.749237298965454102e+00 -5.414025112986564636e-02
1.731000000000000000e+03 7.684794616699218750e+01 1.671981620788574219e+01 -2.392328903079032898e-02 6.914562225341796875e+00 2.067191600799560547e+00 -5.898908376693725586e-01
1.732000000000000000e+03 7.556252288818359375e+01 1.805757904052734375e+01 -2.951804734766483307e-02 6.866724014282226562e+00 2.051161766052246094e+00 -7.858260869979858398e-01
1.733000000000000000e+03 7.556457519531250000e+01 2.076110076904296875e+01 8.978268131613731384e-03 6.516349315643310547e+00 1.957598328590393066e+00 -8.020473122596740723e-01
1.734000000000000000e+03 7.556733703613281250e+01 1.941161537170410156e+01 -1.185281947255134583e-02 6.693856716156005859e+00 2.004601240158081055e+00 -7.979373335838317871e-01
1.735000000000000000e+03 7.426032257080078125e+01 1.803132820129394531e+01 -4.558549448847770691e-02 7.033714771270751953e+00 2.096438884735107422e+00 -9.387160539627075195e-01
1.736000000000000000e+03 7.483299255371093750e+01 -2.900532150268554688e+01 -3.523207036778330803e-03 8.914020538330078125e+00 2.673149347305297852e+00 -2.818026393651962280e-02
1.737000000000000000e+03 7.407296752929687500e+01 -2.344866561889648438e+01 -1.356704719364643097e-02 8.766338348388671875e+00 2.625831604003906250e+00 -4.400158673524856567e-02
1.738000000000000000e+03 7.678829956054687500e+01 2.220623016357421875e+01 1.637628674507141113e-02 6.089821338653564453e+00 1.831859230995178223e+00 -6.219466328620910645e-01
1.739000000000000000e+03 7.395355987548828125e+01 -2.597023200988769531e+01 -1.456116884946823120e-02 8.764561653137207031e+00 2.625000000000000000e+00 -3.701876476407051086e-02
1.740000000000000000e+03 7.658179473876953125e+01 -2.627337265014648438e+01 -3.477172460407018661e-03 9.219553947448730469e+00 2.764822959899902344e+00 -2.948587946593761444e-02
1.741000000000000000e+03 7.537343597412109375e+01 -2.346915245056152344e+01 -4.391732160001993179e-03 8.997042655944824219e+00 2.697795152664184570e+00 -3.620156645774841309e-02
1.742000000000000000e+03 7.672286224365234375e+01 2.361509513854980469e+01 4.008958861231803894e-02 5.884122371673583984e+00 1.777263641357421875e+00 -6.110320091247558594e-01
1.743000000000000000e+03 7.423291015625000000e+01 2.333516883850097656e+01 7.584311813116073608e-02 6.452796936035156250e+00 1.958592057228088379e+00 -9.253865480422973633e-01
1.744000000000000000e+03 7.413096618652343750e+01 2.709096336364746094e+01 1.768631637096405029e-01 6.144100189208984375e+00 1.896288990974426270e+00 -8.042373657226562500e-01
1.745000000000000000e+03 7.520040130615234375e+01 2.778294181823730469e+01 1.477282941341400146e-01 5.765562057495117188e+00 1.773987054824829102e+00 -6.582856774330139160e-01
1.746000000000000000e+03 7.484558868408203125e+01 3.053057098388671875e+01 2.122129648923873901e-01 5.674905300140380859e+00 1.766135454177856445e+00 -5.406228899955749512e-01
1.747000000000000000e+03 7.506063842773437500e+01 2.914903259277343750e+01 1.679200083017349243e-01 5.700160980224609375e+00 1.760424256324768066e+00 -5.986964106559753418e-01
1.748000000000000000e+03 7.507894134521484375e+01 -3.165367126464843750e+01 -1.341669075191020966e-02 8.977887153625488281e+00 2.689341068267822266e+00 -3.400788083672523499e-02
1.749000000000000000e+03 7.265042114257812500e+01 -3.618792724609375000e+01 2.040183462668210268e-04 8.555874824523925781e+00 2.566823720932006836e+00 -1.751131378114223480e-02
1.750000000000000000e+03 7.560312652587890625e+01 -3.632681655883789062e+01 -3.031406737864017487e-02 9.135307312011718750e+00 2.731498003005981445e+00 -8.860246278345584869e-03
1.751000000000000000e+03 7.645576477050781250e+01 -3.313705825805664062e+01 -1.984248682856559753e-02 9.249505043029785156e+00 2.768898725509643555e+00 -2.059713006019592285e-02
1.752000000000000000e+03 7.496080017089843750e+01 -3.039885330200195312e+01 -1.531460694968700409e-02 8.934222221374511719e+00 2.675672292709350586e+00 -2.682098560035228729e-02
1.753000000000000000e+03 7.341382598876953125e+01 3.448170852661132812e+01 2.679938673973083496e-01 6.014462947845458984e+00 1.884737014770507812e+00 -3.210721909999847412e-01
1.754000000000000000e+03 7.380883026123046875e+01 2.967425537109375000e+01 2.406888604164123535e-01 6.068474769592285156e+00 1.892749071121215820e+00 -6.574885845184326172e-01
1.755000000000000000e+03 7.643595886230468750e+01 2.925718688964843750e+01 1.054575368762016296e-01 5.256279468536376953e+00 1.608521103858947754e+00 -4.716150462627410889e-01
1.756000000000000000e+03 7.625711059570312500e+01 3.069976806640625000e+01 1.303227096796035767e-01 5.155893802642822266e+00 1.585865020751953125e+00 -4.025166034698486328e-01
1.757000000000000000e+03 2.470282936096191406e+01 1.120968723297119141e+01 3.869518265128135681e-02 -5.674892067909240723e-01 -1.586382091045379639e-01 1.710165641270577908e-03
1.758000000000000000e+03 1.257034778594970703e+01 -2.255130195617675781e+01 7.000206969678401947e-04 -6.768648745492100716e-04 6.946748726477380842e-06 -1.904965465655550361e-04
1.759000000000000000e+03 1.247148323059082031e+01 -2.018291854858398438e+01 -1.012515160255134106e-03 -7.533594616688787937e-04 -5.297623574733734131e-04 6.660908111371099949e-04
1.760000000000000000e+03 2.301473808288574219e+01 -1.394983196258544922e+01 -1.698243804275989532e-02 -3.393776118755340576e-01 -1.069080159068107605e-01 2.065301686525344849e-02
1.761000000000000000e+03 2.451268959045410156e+01 -1.386962699890136719e+01 -2.073396183550357819e-02 -6.623280793428421021e-02 -2.609002962708473206e-02 4.853193834424018860e-02
1.762000000000000000e+03 2.469069671630859375e+01 9.815890312194824219e+00 2.839897945523262024e-02 -5.557914376258850098e-01 -1.582177281379699707e-01 2.141417562961578369e-02
1.763000000000000000e+03 2.471358489990234375e+01 1.260634517669677734e+01 4.727650806307792664e-02 -5.739593505859375000e-01 -1.580048501491546631e-01 -2.483991347253322601e-02
1.764000000000000000e+03 6.578813552856445312e+00 -2.407501029968261719e+01 -2.092360227834433317e-04 1.065114163793623447e-03 2.567634510342031717e-04 -1.018892624415457249e-03
1.765000000000000000e+03 1.157661342620849609e+01 -2.989533424377441406e+01 -1.542918384075164795e-03 -6.750745815224945545e-04 -6.653979071415960789e-04 4.765510966535657644e-04
1.766000000000000000e+03 2.581554031372070312e+01 2.289086151123046875e+01 5.671512708067893982e-02 -3.175938129425048828e-01 -7.826360315084457397e-02 -2.970915138721466064e-01
1.767000000000000000e+03 2.482270812988281250e+01 2.131836509704589844e+01 5.518707633018493652e-02 -4.598097503185272217e-01 -1.213868036866188049e-01 -2.374657839536666870e-01
1.768000000000000000e+03 2.473516082763671875e+01 1.401133060455322266e+01 5.507454648613929749e-02 -5.722619891166687012e-01 -1.551562249660491943e-01 -5.318171903491020203e-02
1.769000000000000000e+03 2.359360694885253906e+01 1.840268898010253906e+01 3.796042874455451965e-02 -7.022558450698852539e-01 -1.992886364459991455e-01 -1.380463540554046631e-01
1.770000000000000000e+03 2.488129806518554688e+01 1.835583496093750000e+01 7.290662080049514771e-02 -5.153908729553222656e-01 -1.327452808618545532e-01 -1.649898290634155273e-01
1.771000000000000000e+03 2.482495880126953125e+01 1.688035583496093750e+01 6.716419011354446411e-02 -5.416165590286254883e-01 -1.423357129096984863e-01 -1.236149147152900696e-01
1.772000000000000000e+03 9.987621307373046875e+00 -1.804054832458496094e+01 6.247122655622661114e-04 4.532675957307219505e-04 3.233939642086625099e-04 -3.619286289904266596e-04
1.773000000000000000e+03 2.315767669677734375e+01 2.976101493835449219e+01 -3.281936049461364746e-02 -1.853720247745513916e-01 -6.545741856098175049e-02 -1.706216186285018921e-01
1.774000000000000000e+03 2.348849487304687500e+01 8.468288421630859375e+00 7.026704493910074234e-03 -7.870979905128479004e-01 -2.340213954448699951e-01 2.035605534911155701e-02
1.775000000000000000e+03 2.467753791809082031e+01 8.425807952880859375e+00 1.548687834292650223e-02 -5.372371077537536621e-01 -1.565250754356384277e-01 3.812605887651443481e-02
1.776000000000000000e+03 2.431110763549804688e+01 2.681662940979003906e+01 -1.485007256269454956e-02 -2.865730524063110352e-01 -9.042693674564361572e-02 -2.672909796237945557e-01
1.777000000000000000e+03 2.447283554077148438e+01 2.414404869079589844e+01 2.047764882445335388e-02 -3.909264802932739258e-01 -1.111346483230590820e-01 -2.706561088562011719e-01
1.778000000000000000e+03 2.435607910156250000e+01 2.549136161804199219e+01 4.317963030189275742e-03 -3.436550796031951904e-01 -1.018011346459388733e-01 -2.729546129703521729e-01
1.779000000000000000e+03 8.238239288330078125e+00 -8.021494865417480469e+00 -2.433673798805102706e-04 -2.362234954489395022e-04 -1.438772596884518862e-04 2.406624298600945622e-05
1.780000000000000000e+03 2.438146591186523438e+01 2.815014839172363281e+01 -3.684896603226661682e-02 -2.205931544303894043e-01 -7.723263651132583618e-02 -2.559811472892761230e-01
1.781000000000000000e+03 2.532857704162597656e+01 2.990133857727050781e+01 -9.076820313930511475e-02 -1.140731722116470337e-01 -6.145241111516952515e-02 -2.524024844169616699e-01
1.782000000000000000e+03 2.467000961303710938e+01 7.038980960845947266e+00 2.949710004031658173e-03 -5.105772018432617188e-01 -1.522882580757141113e-01 5.155349522829055786e-02
1.783000000000000000e+03 1.056468963623046875e+01 -2.070406532287597656e+01 -1.031933934427797794e-03 -2.596871054265648127e-04 -3.874863032251596451e-04 1.981991663342341781e-04
1.784000000000000000e+03 3.003194808959960938e+00 -1.783061981201171875e+01 6.688963039778172970e-04 1.088944627554155886e-04 2.333372394787147641e-04 -5.244303611107170582e-05
1.785000000000000000e+03 4.155855178833007812e+00 -1.519646358489990234e+01 -5.991290672682225704e-04 -8.087025344138965011e-05 -2.039997925749048591e-04 1.180622784886509180e-04
1.786000000000000000e+03 4.413855075836181641e+00 2.222226905822753906e+01 -5.066481535322964191e-04 -2.276527993672061712e-05 -1.588240265846252441e-04 -9.417037654202431440e-05
1.787000000000000000e+03 3.242129564285278320e+00 2.067222023010253906e+01 -4.833436396438628435e-04 -2.286119342898018658e-05 -1.518614590167999268e-04 -3.807029861491173506e-05
1.788000000000000000e+03 4.203786373138427734e+00 -1.786408424377441406e+01 -5.670420359820127487e-04 -2.969280176330357790e-04 -2.591910306364297867e-04 -3.757186277653090656e-05
1.789000000000000000e+03 4.197104930877685547e+00 -1.654836463928222656e+01 5.234583513811230659e-04 1.928566780406981707e-04 2.148945059161633253e-04 -1.686588075244799256e-04
1.790000000000000000e+03 5.720137119293212891e+00 2.590168190002441406e+01 -6.400898564606904984e-04 -6.175841554068028927e-05 -2.105544699588790536e-04 6.790929546696133912e-06
1.791000000000000000e+03 4.667603492736816406e+00 2.870855712890625000e+01 7.578115328215062618e-04 -6.943827611394226551e-05 2.065119770122691989e-04 1.083822353393770754e-04
1.792000000000000000e+03 4.675460815429687500e+00 -2.761954689025878906e+01 1.060052425600588322e-03 7.840612670406699181e-04 5.532341310754418373e-04 4.883330257143825293e-05
1.793000000000000000e+03 3.330461978912353516e+00 -2.484345436096191406e+01 -7.403424242511391640e-04 -1.387280935887247324e-04 -2.637211582623422146e-04 3.947324294131249189e-04
1.794000000000000000e+03 4.563173294067382812e+00 -2.195306015014648438e+01 1.052654464729130268e-03 -2.542169568187091500e-05 3.081698087044060230e-04 -5.103628063807263970e-05
1.795000000000000000e+03 4.668819427490234375e+00 1.776182365417480469e+01 5.057253292761743069e-04 -3.680923327920027077e-05 1.406748342560604215e-04 6.496870628325268626e-05
1.796000000000000000e+03 4.601290702819824219e+00 1.928104019165039062e+01 -5.196793936192989349e-04 1.152446657215477899e-05 -1.524464896647259593e-04 -8.322003122884780169e-05
1.797000000000000000e+03 4.803755283355712891e+00 1.617685127258300781e+01 -4.890061100013554096e-04 3.788865069509483874e-05 -1.353352417936548591e-04 -2.168174069083761424e-05
1.798000000000000000e+03 4.410744190216064453e+00 -2.052707481384277344e+01 -8.487312006764113903e-04 2.238076267531141639e-04 -1.874770823633298278e-04 -1.790769019862636924e-04
1.799000000000000000e+03 4.219616413116455078e+00 -1.917220687866210938e+01 6.377561949193477631e-04 1.366555952699854970e-04 2.323235385119915009e-04 1.120537926908582449e-04
1.800000000000000000e+03 3.101872205734252930e+00 2.614144134521484375e+01 -6.344484863802790642e-04 2.129377207893412560e-05 -1.839464093791320920e-04 -7.914338493719696999e-05
1.801000000000000000e+03 4.209725379943847656e+00 2.479454803466796875e+01 -6.767025333829224110e-04 5.229004818829707801e-05 -1.873237488325685263e-04 -7.798913429724052548e-05
1.802000000000000000e+03 4.197165489196777344e+00 2.353879547119140625e+01 5.866589490324258804e-04 -3.217080302420072258e-05 1.663464354351162910e-04 8.357925980817526579e-05
1.803000000000000000e+03 4.726269245147705078e+00 -2.484654426574707031e+01 1.301966374740004539e-03 2.041381521848961711e-04 4.518313799053430557e-04 -6.201151409186422825e-04
1.804000000000000000e+03 3.321140527725219727e+00 1.476095485687255859e+01 -4.243082948960363865e-04 2.350168324483092874e-05 -1.202419807668775320e-04 5.488222086569294333e-06
1.805000000000000000e+03 4.230694293975830078e+00 1.179500579833984375e+01 3.318504313938319683e-04 5.819464149681152776e-06 1.013009677990339696e-04 -9.340071846963837743e-05
1.806000000000000000e+03 4.427784442901611328e+00 1.315981578826904297e+01 -3.738597442861646414e-04 4.027286195196211338e-05 -1.000760603346861899e-04 1.186392983072437346e-04
1.807000000000000000e+03 4.160720348358154297e+00 -1.107155323028564453e+01 5.645943456329405308e-04 -3.444934009166900069e-06 1.683448208495974541e-04 -1.236742828041315079e-04
1.808000000000000000e+03 4.173161506652832031e+00 -9.681042671203613281e+00 -5.678823217749595642e-04 -6.882650268380530179e-06 -1.724294852465391159e-04 9.045764454640448093e-05
1.809000000000000000e+03 4.138363361358642578e+00 -1.382797145843505859e+01 5.653076805174350739e-04 8.039570820983499289e-05 1.937110209837555885e-04 -1.267445477424189448e-04
1.810000000000000000e+03 4.832401752471923828e+00 3.637842941284179688e+01 -1.491459406679496169e-04 -3.168209223076701164e-04 -1.397900487063452601e-04 -2.403842227067798376e-04
1.811000000000000000e+03 3.377572059631347656e+00 3.604189682006835938e+01 3.094788989983499050e-04 1.447917311452329159e-04 1.362811890430748463e-04 2.480963485140819103e-05
1.812000000000000000e+03 3.209317684173583984e+00 -3.155907249450683594e+01 1.877779257483780384e-03 3.425585455261170864e-04 6.661013467237353325e-04 1.237375894561409950e-03
1.813000000000000000e+03 4.653452396392822266e+00 -2.896435928344726562e+01 2.920794067904353142e-04 -6.719829980283975601e-04 -1.139710802817717195e-04 4.836778680328279734e-04
1.814000000000000000e+03 4.156095027923583984e+00 -1.245201587677001953e+01 -5.692619015462696552e-04 -6.816566747147589922e-05 -1.912282750708982348e-04 1.117989013437181711e-04
1.815000000000000000e+03 5.415941238403320312e+00 -6.328188896179199219e+00 3.908923536073416471e-04 1.960610825335606933e-04 1.760860322974622250e-04 -1.327318459516391158e-04
1.816000000000000000e+03 4.120789527893066406e+00 1.049777984619140625e+01 -3.164359659422188997e-04 -2.393295108049642295e-05 -1.021106800180859864e-04 4.357301804702728987e-05
1.817000000000000000e+03 6.428836345672607422e+00 2.988308525085449219e+01 8.023333502933382988e-04 6.146886880742385983e-05 2.591406519059091806e-04 3.045444827876053751e-05
1.818000000000000000e+03 3.532290220260620117e+00 3.465973281860351562e+01 -3.967407392337918282e-04 -2.060613769572228193e-04 -1.808406377676874399e-04 -2.109471643052529544e-05
1.819000000000000000e+03 5.061447620391845703e+00 3.482522964477539062e+01 4.696838441304862499e-04 1.519747311249375343e-04 1.864975638454779983e-04 3.232949820812791586e-04
1.820000000000000000e+03 6.094751358032226562e+00 -3.338380813598632812e+01 1.713506877422332764e-03 -1.716374419629573822e-03 -8.602521575085120276e-07 2.832140307873487473e-03
1.821000000000000000e+03 4.198137760162353516e+00 -3.096788024902343750e+01 7.606771541759371758e-04 1.311522064497694373e-04 2.675488067325204611e-04 1.144059700891375542e-03
1.822000000000000000e+03 4.996296882629394531e+00 -3.219355773925781250e+01 2.446124562993645668e-03 -2.363927778787910938e-04 6.629195413552224636e-04 2.025005174800753593e-03
1.823000000000000000e+03 4.664665699005126953e+00 8.178044319152832031e+00 -1.660345442360267043e-04 3.454096804489381611e-05 -3.944807394873350859e-05 -8.963559230323880911e-05
1.824000000000000000e+03 3.807262897491455078e+00 5.261252880096435547e+00 -1.176787336589768529e-04 -6.147340172901749611e-05 -5.374563988880254328e-05 1.653925137361511588e-04
1.825000000000000000e+03 5.895096778869628906e+00 4.790147781372070312e+00 9.078045695787295699e-05 7.155475759645923972e-05 4.870056363870389760e-05 -5.304270962369628251e-05
1.826000000000000000e+03 1.309159374237060547e+01 -2.869571876525878906e+01 -2.308111870661377907e-03 -5.835210904479026794e-04 -8.674898999743163586e-04 6.276063504628837109e-04
1.827000000000000000e+03 1.153294181823730469e+01 -2.724026679992675781e+01 -9.679892100393772125e-04 -1.741478190524503589e-04 -3.426411130931228399e-04 1.032778818625956774e-04
1.828000000000000000e+03 3.998000144958496094e+00 -3.644492340087890625e+01 -1.098328037187457085e-03 2.770623657852411270e-03 5.016887444071471691e-04 3.748940769582986832e-03
1.829000000000000000e+03 6.447628974914550781e+00 -3.590349960327148438e+01 1.682723814155906439e-04 -2.514436375349760056e-03 -7.038491894491016865e-04 6.352514959871768951e-03
1.830000000000000000e+03 5.957477569580078125e+00 3.863004684448242188e+01 1.170669929706491530e-04 -3.013662935700267553e-04 -5.528979090740904212e-05 -4.926579422317445278e-04
1.831000000000000000e+03 2.312329483032226562e+01 -2.260349082946777344e+01 7.779817096889019012e-03 -2.073666900396347046e-01 -5.987605825066566467e-02 2.018435043282806873e-04
1.832000000000000000e+03 1.729988861083984375e+01 3.915568542480468750e+01 3.513520816341042519e-03 2.615416015032678843e-04 1.132518751546740532e-03 -2.561304718255996704e-03
1.833000000000000000e+03 1.123602390289306641e+01 3.900502014160156250e+01 -1.044188044033944607e-03 4.188394232187420130e-04 -1.876046007964760065e-04 -4.781168536283075809e-04
1.834000000000000000e+03 2.459030914306640625e+01 -1.525673866271972656e+01 -1.643265038728713989e-02 -3.167115896940231323e-02 -1.443114224821329117e-02 4.639725014567375183e-02
1.835000000000000000e+03 2.345437812805175781e+01 4.251901149749755859e+00 -2.271992713212966919e-02 -7.005791068077087402e-01 -2.169896960258483887e-01 4.972874373197555542e-02
1.836000000000000000e+03 2.480422019958496094e+01 1.540456175804138184e+00 2.122637815773487091e-04 -3.369337022304534912e-01 -1.010164320468902588e-01 9.848758578300476074e-02
1.837000000000000000e+03 2.467067527770996094e+01 5.644610881805419922e+00 -4.878783598542213440e-03 -4.788261055946350098e-01 -1.451114714145660400e-01 6.519051641225814819e-02
1.838000000000000000e+03 4.247422790527343750e+01 4.166608810424804688e+01 1.024754643440246582e+00 5.943769961595535278e-02 3.252577185630798340e-01 1.331183910369873047e-01
1.839000000000000000e+03 4.341018295288085938e+01 3.718387985229492188e+01 1.665308624505996704e-01 1.010244060307741165e-02 5.298999324440956116e-02 2.592058777809143066e-01
1.840000000000000000e+03 3.818962097167968750e+01 4.151982116699218750e+01 5.132873654365539551e-01 -3.821832239627838135e-01 3.933123499155044556e-02 4.762301594018936157e-02
1.841000000000000000e+03 3.534500503540039062e+01 4.063928985595703125e+01 2.169372588396072388e-01 -2.868300378322601318e-01 -2.096783369779586792e-02 1.415935307741165161e-01
1.842000000000000000e+03 1.262866592407226562e+01 3.630821609497070312e+01 -1.465741312131285667e-03 1.740705374686513096e-05 -4.345002525951713324e-04 3.507981600705534220e-04
1.843000000000000000e+03 7.756703376770019531e+00 2.921969032287597656e+01 -3.654575557447969913e-04 -4.563890397548675537e-04 -2.465539728291332722e-04 2.330735296709463000e-04
1.844000000000000000e+03 2.438807106018066406e+01 -1.113541030883789062e+01 -1.743073388934135437e-02 -1.315451860427856445e-01 -4.469277337193489075e-02 4.752669110894203186e-02
1.845000000000000000e+03 2.259951400756835938e+01 -3.098884201049804688e+01 -2.827995643019676208e-02 -2.845946550369262695e-01 -9.386238455772399902e-02 -2.554976381361484528e-02
1.846000000000000000e+03 2.266923904418945312e+01 -2.966366577148437500e+01 -8.328020572662353516e-03 -2.655253112316131592e-01 -8.215599507093429565e-02 -2.417421154677867889e-02
1.847000000000000000e+03 2.470627975463867188e+01 -4.311392307281494141e+00 5.671598948538303375e-03 -2.121750116348266602e-01 -6.195102632045745850e-02 7.711555808782577515e-02
1.848000000000000000e+03 2.961632537841796875e+01 4.092549896240234375e+01 2.604328095912933350e-02 -9.734133630990982056e-02 -2.138941548764705658e-02 -9.948521619662642479e-04
1.849000000000000000e+03 2.183057594299316406e+01 4.040128707885742188e+01 -1.460109138861298561e-03 2.158816670998930931e-03 2.096122771035879850e-04 -4.045712295919656754e-03
1.850000000000000000e+03 1.201942062377929688e+01 1.293529415130615234e+01 -2.854243502952158451e-04 -7.363228360190987587e-05 -1.077169945347122848e-04 -1.769830705597996712e-04
1.851000000000000000e+03 1.131682491302490234e+01 2.798873710632324219e+01 -7.785053458064794540e-04 -1.776742137735709548e-04 -2.868538722395896912e-04 5.727123789256438613e-05
1.852000000000000000e+03 1.129885864257812500e+01 2.691524887084960938e+01 7.719320710748434067e-04 1.255148526979610324e-04 2.692340640351176262e-04 -6.849703595435130410e-07
1.853000000000000000e+03 6.205613136291503906e+00 1.005775642395019531e+01 7.422012276947498322e-05 -2.106315660057589412e-04 -4.092343078809790313e-05 5.252357004792429507e-05
1.854000000000000000e+03 7.437227725982666016e+00 1.866331672668457031e+01 -1.531980960862711072e-04 3.629055572673678398e-05 -3.507226210786029696e-05 2.222435432486236095e-04
1.855000000000000000e+03 2.082546043395996094e+01 -3.840768432617187500e+01 3.140493528917431831e-03 -3.747438192367553711e-01 -1.114810034632682800e-01 2.637470141053199768e-02
1.856000000000000000e+03 2.360729789733886719e+01 -3.895415878295898438e+01 5.770216137170791626e-02 -2.640013024210929871e-02 9.390609338879585266e-03 6.512842327356338501e-02
1.857000000000000000e+03 2.314523315429687500e+01 -2.112863922119140625e+01 8.591062389314174652e-03 -2.148456126451492310e-01 -6.187636405229568481e-02 5.024625919759273529e-03
1.858000000000000000e+03 1.089864063262939453e+01 -3.345721435546875000e+01 7.315219379961490631e-03 -8.639941224828362465e-04 1.935367588885128498e-03 -3.660440444946289062e-03
1.859000000000000000e+03 1.221117782592773438e+01 -3.396423339843750000e+01 5.400565452873706818e-03 -1.115253893658518791e-03 1.285593374632298946e-03 -3.828058019280433655e-03
1.860000000000000000e+03 2.464483451843261719e+01 -2.576586532592773438e+01 -1.158009842038154602e-02 8.034292608499526978e-02 2.062884718179702759e-02 6.848572287708520889e-03
1.861000000000000000e+03 2.285859298706054688e+01 -2.691686630249023438e+01 -4.591107368469238281e-03 -2.238256782293319702e-01 -6.852503865957260132e-02 -1.190728414803743362e-02
1.862000000000000000e+03 1.226407623291015625e+01 2.446020126342773438e+01 -7.829283131286501884e-04 -3.072608524234965444e-05 -2.440963289700448513e-04 -6.004862007102929056e-05
1.863000000000000000e+03 3.246274948120117188e+01 4.153485488891601562e+01 1.232356354594230652e-01 -2.170308232307434082e-01 -2.813855931162834167e-02 5.984760448336601257e-02
1.864000000000000000e+03 3.926519012451171875e+01 3.956663131713867188e+01 5.079338550567626953e-01 -4.025922417640686035e-01 3.160248324275016785e-02 3.235121071338653564e-01
1.865000000000000000e+03 3.522262573242187500e+01 3.823447036743164062e+01 -4.737583454698324203e-03 -2.043725401163101196e-01 -6.273303925991058350e-02 2.329244613647460938e-01
1.866000000000000000e+03 4.953525924682617188e+01 2.963315010070800781e+01 3.318509578704833984e+00 2.812284231185913086e+00 1.839238047599792480e+00 3.907937765121459961e+00
1.867000000000000000e+03 5.044820785522460938e+01 3.002705383300781250e+01 4.446099281311035156e+00 5.007613182067871094e+00 2.836113691329956055e+00 5.892721176147460938e+00
1.868000000000000000e+03 5.119809722900390625e+01 3.396677017211914062e+01 6.141660213470458984e-01 1.078235912322998047e+01 3.418957471847534180e+00 -5.150316715240478516e+00
1.869000000000000000e+03 5.069929122924804688e+01 3.504135131835937500e+01 3.878583014011383057e-01 8.255128860473632812e+00 2.592896223068237305e+00 -3.861104488372802734e+00
1.870000000000000000e+03 5.130762100219726562e+01 2.990790557861328125e+01 3.504483222961425781e+00 1.174675464630126953e+01 4.575371742248535156e+00 7.376803398132324219e+00
1.871000000000000000e+03 4.699016952514648438e+01 2.903633308410644531e+01 1.518534541130065918e+00 8.991259336471557617e-01 7.252981066703796387e-01 1.577381849288940430e+00
1.872000000000000000e+03 4.559486770629882812e+01 2.876570510864257812e+01 9.183892011642456055e-01 5.729218721389770508e-01 4.473933279514312744e-01 9.582289457321166992e-01
1.873000000000000000e+03 5.250512313842773438e+01 2.917619132995605469e+01 1.212844252586364746e+00 1.605941390991210938e+01 5.181677341461181641e+00 3.303883552551269531e+00
1.874000000000000000e+03 5.055185699462890625e+01 3.581307220458984375e+01 2.079762220382690430e-01 7.847277164459228516e+00 2.416575908660888672e+00 -3.223815441131591797e+00
1.875000000000000000e+03 5.321107101440429688e+01 3.500250625610351562e+01 -4.276838600635528564e-01 1.567508697509765625e+01 4.574220657348632812e+00 -3.207270503044128418e-01
1.876000000000000000e+03 2.714509391784667969e+01 3.102192115783691406e+01 -1.831429302692413330e-01 -2.945382893085479736e-02 -6.377902626991271973e-02 -2.646839320659637451e-01
1.877000000000000000e+03 3.733218431472778320e+00 4.511651039123535156e+00 1.335560082225129008e-04 -2.680333818716462702e-05 3.202580046490766108e-05 -1.562167162774130702e-04
1.878000000000000000e+03 4.494815349578857422e+00 4.342957019805908203e+00 -1.120683082262985408e-04 -4.122231257497332990e-05 -4.598718442139215767e-05 8.034271741053089499e-05
1.879000000000000000e+03 6.671458244323730469e+00 4.235402107238769531e+00 8.658754086354747415e-05 9.374687215313315392e-05 5.410032099462114275e-05 3.281813042121939361e-05
1.880000000000000000e+03 5.424088478088378906e+00 5.594883441925048828e+00 7.140878733480349183e-05 1.705746399238705635e-05 2.653987576195504516e-05 -4.180564064881764352e-05
1.881000000000000000e+03 2.415109062194824219e+01 3.011834144592285156e+01 -5.952577292919158936e-02 -1.477086395025253296e-01 -6.217032298445701599e-02 -2.057115137577056885e-01
1.882000000000000000e+03 5.263802051544189453e+00 4.920989513397216797e+00 -7.952157466206699610e-05 -6.143749487819150090e-05 -4.228772013448178768e-05 6.762138946214690804e-05
1.883000000000000000e+03 9.037399291992187500e+00 5.639581680297851562e+00 -1.531423185952007771e-04 -5.121148205944336951e-05 -6.130614201538264751e-05 -3.199441925971768796e-05
1.884000000000000000e+03 4.432053375244140625e+01 2.895259857177734375e+01 3.991977572441101074e-01 3.538024127483367920e-01 2.259000539779663086e-01 4.859703481197357178e-01
1.885000000000000000e+03 4.439093017578125000e+01 2.950525665283203125e+01 5.136494711041450500e-02 2.282017469406127930e-01 8.387000858783721924e-02 3.583507537841796875e-01
1.886000000000000000e+03 7.431123256683349609e+00 4.270152091979980469e+00 -1.087461932911537588e-04 -7.124560943339020014e-05 -5.399754081736318767e-05 -1.242583675775676966e-05
1.887000000000000000e+03 8.267593383789062500e+00 4.952302932739257812e+00 -1.174733042716979980e-04 -5.578900527325458825e-05 -5.197869177209213376e-05 -5.148475975147448480e-05
1.888000000000000000e+03 2.994309234619140625e+01 3.086550521850585938e+01 -3.079728484153747559e-01 4.072052240371704102e-02 -8.017569780349731445e-02 -3.138501346111297607e-01
1.889000000000000000e+03 5.082572555541992188e+01 3.890131759643554688e+01 -7.536648511886596680e-01 8.595816612243652344e+00 2.352645635604858398e+00 -1.561859965324401855e+00
1.890000000000000000e+03 4.877194976806640625e+01 3.673311996459960938e+01 7.470024824142456055e-01 3.807618141174316406e+00 1.366386175155639648e+00 -1.817639708518981934e+00
1.891000000000000000e+03 2.784008026123046875e+01 3.100895881652832031e+01 -2.133595198392868042e-01 -1.203599944710731506e-02 -6.761865317821502686e-02 -2.800675928592681885e-01
1.892000000000000000e+03 2.923908233642578125e+01 3.092808914184570312e+01 -2.760389149188995361e-01 2.299328893423080444e-02 -7.591369003057479858e-02 -3.048043847084045410e-01
1.893000000000000000e+03 3.135549736022949219e+01 3.069683456420898438e+01 -3.689675033092498779e-01 6.960152834653854370e-02 -8.980979770421981812e-02 -3.279499709606170654e-01
1.894000000000000000e+03 3.206380462646484375e+01 3.059953117370605469e+01 -3.973850607872009277e-01 7.994080334901809692e-02 -9.523327648639678955e-02 -3.322667777538299561e-01
1.895000000000000000e+03 8.777548789978027344e+00 -4.282619476318359375e+00 -1.726065092952921987e-04 -3.062239920836873353e-05 -6.096867218730039895e-05 4.564414848573505878e-05
1.896000000000000000e+03 1.154368782043457031e+01 -9.055912017822265625e+00 -3.071282990276813507e-04 -1.386938238283619285e-04 -1.337466383120045066e-04 1.035805908031761646e-04
1.897000000000000000e+03 3.064848709106445312e+01 3.078682327270507812e+01 -3.388745188713073730e-01 5.409026518464088440e-02 -8.543527126312255859e-02 -3.223020732402801514e-01
1.898000000000000000e+03 2.853738212585449219e+01 3.097514343261718750e+01 -2.441932410001754761e-01 6.965241860598325729e-03 -7.116840034723281860e-02 -2.928695976734161377e-01
1.899000000000000000e+03 3.852224349975585938e+01 2.950632667541503906e+01 -4.273505210876464844e-01 1.660333424806594849e-01 -7.839515805244445801e-02 -2.242142409086227417e-01
1.900000000000000000e+03 3.277185058593750000e+01 3.049560165405273438e+01 -4.231209158897399902e-01 9.299030900001525879e-02 -9.903918206691741943e-02 -3.336492776870727539e-01
1.901000000000000000e+03 3.710906982421875000e+01 3.043294525146484375e+01 -6.440898776054382324e-01 1.218385249376296997e-01 -1.566754132509231567e-01 -2.536579072475433350e-01
1.902000000000000000e+03 4.000355911254882812e+01 2.929810523986816406e+01 -3.331583440303802490e-01 1.865333914756774902e-01 -4.398749023675918579e-02 -1.356688290834426880e-01
1.903000000000000000e+03 3.637749862670898438e+01 3.056871986389160156e+01 -6.354920864105224609e-01 1.204161718487739563e-01 -1.545227766036987305e-01 -2.681802511215209961e-01
1.904000000000000000e+03 3.347871017456054688e+01 3.038559722900390625e+01 -4.457814991474151611e-01 1.004174798727035522e-01 -1.036092042922973633e-01 -3.336812853813171387e-01
1.905000000000000000e+03 6.640351295471191406e+00 -5.082507610321044922e+00 -3.378854016773402691e-04 7.794223347445949912e-05 -7.798294973326846957e-05 2.050820694421418011e-05
1.906000000000000000e+03 3.947734355926513672e+00 -6.106360912322998047e+00 9.646088437875732780e-05 1.621045521460473537e-04 7.756963168503716588e-05 -2.429847154417075217e-05
1.907000000000000000e+03 3.770652770996093750e+01 2.896382331848144531e+01 -2.807197868824005127e-01 1.847019195556640625e-01 -2.880536019802093506e-02 -2.591958343982696533e-01
1.908000000000000000e+03 3.418571090698242188e+01 3.027078819274902344e+01 -4.643203914165496826e-01 1.122593507170677185e-01 -1.056183129549026489e-01 -3.303338587284088135e-01
1.909000000000000000e+03 3.489542007446289062e+01 3.015116691589355469e+01 -4.780378937721252441e-01 1.181849613785743713e-01 -1.079558804631233215e-01 -3.246870934963226318e-01
1.910000000000000000e+03 3.705477523803710938e+01 2.976177215576171875e+01 -4.765007495880126953e-01 1.480167657136917114e-01 -9.854519367218017578e-02 -2.806620895862579346e-01
1.911000000000000000e+03 8.048727035522460938e+00 -4.266257286071777344e+00 1.822790218284353614e-04 5.870336281077470630e-06 5.644480916089378297e-05 -2.470958315825555474e-05
1.912000000000000000e+03 7.851334095001220703e+00 -6.562243938446044922e+00 -4.851687699556350708e-04 -1.161799664259888232e-04 -1.804046187316998839e-04 1.666768948780372739e-04
1.913000000000000000e+03 4.551734161376953125e+01 3.956180572509765625e+01 8.186800479888916016e-01 1.772885680198669434e+00 7.774696946144104004e-01 -4.525879025459289551e-01
1.914000000000000000e+03 4.295073318481445312e+01 2.904108619689941406e+01 5.655799433588981628e-02 2.605849504470825195e-01 9.514288604259490967e-02 1.994658559560775757e-01
1.915000000000000000e+03 1.254675674438476562e+01 6.667014122009277344e+00 2.130251523340120912e-04 2.381382546445820481e-05 7.105169061105698347e-05 2.055753066088072956e-05
1.916000000000000000e+03 4.074953460693359375e+01 2.921459197998046875e+01 -2.631299197673797607e-01 1.929730176925659180e-01 -2.104706875979900360e-02 -7.385885715484619141e-02
1.917000000000000000e+03 4.148842239379882812e+01 2.914613342285156250e+01 -1.805986464023590088e-01 2.136196792125701904e-01 9.906307794153690338e-03 -1.891744206659495831e-03
1.918000000000000000e+03 7.328544139862060547e+00 -4.267797470092773438e+00 -2.119273995049297810e-04 2.863375266315415502e-05 -5.498809332493692636e-05 1.466679805162129924e-05
1.919000000000000000e+03 6.615179061889648438e+00 -5.950809955596923828e+00 4.027943650726228952e-04 2.250446232210379094e-05 1.275896502193063498e-04 -3.063509211642667651e-05
1.920000000000000000e+03 6.615808010101318359e+00 -4.281169414520263672e+00 2.381979284109547734e-04 -6.813535583205521107e-05 5.101877104607410729e-05 -5.231939940131269395e-05
1.921000000000000000e+03 4.497111129760742188e+01 2.888703727722167969e+01 6.284527182579040527e-01 4.321286976337432861e-01 3.181744217872619629e-01 6.869553327560424805e-01
1.922000000000000000e+03 1.256434917449951172e+01 -5.382056236267089844e+00 -2.523342845961451530e-04 1.515083476988365874e-05 -7.115503103705123067e-05 7.626241131220012903e-05
1.923000000000000000e+03 1.248820686340332031e+01 4.517382144927978516e+00 2.163660246878862381e-04 5.353794676921097562e-06 6.651594594586640596e-05 -3.054814897041069344e-06
1.924000000000000000e+03 1.031094932556152344e+01 7.888727664947509766e+00 -2.180711308028548956e-04 -5.591879380517639220e-05 -8.219697338063269854e-05 -5.858230724697932601e-05
1.925000000000000000e+03 5.566460418701171875e+01 3.430345535278320312e+01 2.472903490066528320e+00 1.376588153839111328e+01 4.871635437011718750e+00 2.245414495468139648e+00
1.926000000000000000e+03 5.463417434692382812e+01 2.916131019592285156e+01 2.974256038665771484e+00 1.466972064971923828e+01 5.293192863464355469e+00 -9.384939074516296387e-01
1.927000000000000000e+03 5.156121826171875000e+01 3.680436325073242188e+01 -7.347300052642822266e-01 1.055645179748535156e+01 2.946516513824462891e+00 -2.447200298309326172e+00
1.928000000000000000e+03 5.665780639648437500e+01 3.271622085571289062e+01 4.295161724090576172e+00 1.213781166076660156e+01 4.929892063140869141e+00 1.445189952850341797e+00
1.929000000000000000e+03 2.557267951965332031e+01 3.167176437377929688e+01 -1.316049695014953613e-01 -5.409022048115730286e-02 -5.570855736732482910e-02 -2.017769813537597656e-01
1.930000000000000000e+03 1.149652767181396484e+01 4.762685298919677734e+00 -2.217655710410326719e-04 -8.270173566415905952e-06 -6.901072629261761904e-05 -3.592573921196162701e-05
1.931000000000000000e+03 2.515861892700195312e+01 -1.395086884498596191e+00 3.936378750950098038e-03 -1.925829052925109863e-01 -5.659395828843116760e-02 9.707482904195785522e-02
1.932000000000000000e+03 2.653339576721191406e+01 6.413334012031555176e-01 2.858629915863275528e-03 1.235446147620677948e-02 4.563927650451660156e-03 1.339709758758544922e-01
1.933000000000000000e+03 2.800666570663452148e+00 6.243857860565185547e+00 -2.367281413171440363e-04 -4.454949521459639072e-05 -8.438328950433060527e-05 2.425264028715901077e-05
1.934000000000000000e+03 2.646963119506835938e+01 -1.798357009887695312e+01 -1.100590638816356659e-02 3.473510146141052246e-01 1.009035259485244751e-01 5.645627528429031372e-02
1.935000000000000000e+03 2.632401275634765625e+01 -1.650729370117187500e+01 -2.002994529902935028e-02 2.914652228355407715e-01 8.143058419227600098e-02 6.601707637310028076e-02
1.936000000000000000e+03 2.608904838562011719e+01 -4.448130607604980469e+00 1.335609471425414085e-03 4.966148361563682556e-02 1.529912836849689484e-02 1.066973879933357239e-01
1.937000000000000000e+03 2.439105796813964844e+01 -8.412570953369140625e+00 -4.969558678567409515e-03 -1.841045022010803223e-01 -5.672221630811691284e-02 5.266642570495605469e-02
1.938000000000000000e+03 1.011137866973876953e+01 -1.546801757812500000e+01 4.857850144617259502e-04 -2.895629040722269565e-05 1.370486133964732289e-04 -1.723290915833786130e-04
1.939000000000000000e+03 1.120190715789794922e+01 1.035204315185546875e+01 2.186365745728835464e-04 7.955818000482395291e-05 8.945843001129105687e-05 4.419788456289097667e-05
1.940000000000000000e+03 9.779315948486328125e+00 5.697412014007568359e+00 1.449417031835764647e-04 7.993153849383816123e-05 6.746197323082014918e-05 8.125624299282208085e-05
1.941000000000000000e+03 1.026317691802978516e+01 1.702161598205566406e+01 2.365412219660356641e-04 5.921776755712926388e-05 8.872769831214100122e-05 -6.185636448208242655e-05
1.942000000000000000e+03 1.102404117584228516e+01 2.463563156127929688e+01 7.047004764899611473e-04 -2.465727902745129541e-06 2.106704341713339090e-04 1.738042010401841253e-05
1.943000000000000000e+03 1.125510120391845703e+01 -1.132990932464599609e+01 -3.618303162511438131e-04 -1.367838995065540075e-04 -1.495842589065432549e-04 2.985295723192393780e-04
1.944000000000000000e+03 1.011684036254882812e+01 -1.206617069244384766e+01 -2.845775743480771780e-04 -1.922663359437137842e-04 -1.430531701771542430e-04 2.610504452604800463e-04
1.945000000000000000e+03 1.015803337097167969e+01 -3.436675643920898438e+01 1.212583854794502258e-02 -4.863775335252285004e-03 2.178618917241692543e-03 -1.235761301359161735e-04
1.946000000000000000e+03 6.092697620391845703e+00 -3.104992485046386719e+01 1.506091211922466755e-03 -8.498572860844433308e-04 1.968701690202578902e-04 1.355230226181447506e-03
1.947000000000000000e+03 1.535436248779296875e+01 4.032695388793945312e+01 -2.878704108297824860e-03 1.320552430115640163e-03 -4.674454976338893175e-04 3.813727234955877066e-04
1.948000000000000000e+03 1.835185432434082031e+01 3.858273696899414062e+01 -1.825331855798140168e-04 -7.458959007635712624e-04 -2.785287215374410152e-04 -2.273400081321597099e-03
1.949000000000000000e+03 2.580522155761718750e+01 -1.105301475524902344e+01 -1.782613806426525116e-02 1.262287199497222900e-01 3.252077475190162659e-02 6.961204856634140015e-02
1.950000000000000000e+03 2.437401008605957031e+01 -9.770038604736328125e+00 -1.210005581378936768e-02 -1.591839194297790527e-01 -5.138519406318664551e-02 4.887471720576286316e-02
1.951000000000000000e+03 7.505095672607421875e+01 -2.753747177124023438e+01 -1.222576294094324112e-02 8.946726799011230469e+00 2.680350303649902344e+00 -2.919667772948741913e-02
1.952000000000000000e+03 2.578805160522460938e+01 -7.098982810974121094e+00 -3.735858947038650513e-03 4.711692407727241516e-02 1.301431935280561447e-02 8.767440170049667358e-02
1.953000000000000000e+03 7.324596405029296875e+01 2.596128654479980469e+01 1.982532739639282227e-01 6.456062316894531250e+00 1.996294736862182617e+00 -9.208176732063293457e-01
1.954000000000000000e+03 7.430760192871093750e+01 2.201388168334960938e+01 4.840705916285514832e-02 6.593477249145507812e+00 1.992565274238586426e+00 -9.449880123138427734e-01
1.955000000000000000e+03 7.427951049804687500e+01 1.937679672241210938e+01 -2.151601761579513550e-02 6.885325431823730469e+00 2.059142827987670898e+00 -9.505152702331542969e-01
1.956000000000000000e+03 7.530428314208984375e+01 -2.084492874145507812e+01 -1.443628035485744476e-02 8.965956687927246094e+00 2.685456275939941406e+00 -5.276799574494361877e-02
1.957000000000000000e+03 7.398889923095703125e+01 -2.220428276062011719e+01 -2.186870202422142029e-02 8.745677947998046875e+00 2.617142677307128906e+00 -5.060702934861183167e-02
1.958000000000000000e+03 7.556407928466796875e+01 1.267896461486816406e+01 -7.268135249614715576e-02 7.508640766143798828e+00 2.230787754058837891e+00 -6.653416752815246582e-01
1.959000000000000000e+03 7.424960327148437500e+01 1.534804916381835938e+01 -8.674215525388717651e-02 7.306295394897460938e+00 2.165865898132324219e+00 -8.791718482971191406e-01
1.960000000000000000e+03 7.556064605712890625e+01 1.670424270629882812e+01 -4.109185561537742615e-02 7.039363384246826172e+00 2.099481582641601562e+00 -7.653603553771972656e-01
1.961000000000000000e+03 7.397389984130859375e+01 2.471956825256347656e+01 1.310125142335891724e-01 6.380854606628417969e+00 1.953560113906860352e+00 -9.177449345588684082e-01
1.962000000000000000e+03 7.528147125244140625e+01 2.645401763916015625e+01 1.159971356391906738e-01 5.907042503356933594e+00 1.806911945343017578e+00 -7.125869393348693848e-01
1.963000000000000000e+03 7.526164245605468750e+01 2.500908660888671875e+01 8.459147810935974121e-02 6.045970916748046875e+00 1.839168787002563477e+00 -7.629007697105407715e-01
1.964000000000000000e+03 7.532192230224609375e+01 -1.391271495819091797e+01 -2.295755781233310699e-02 8.885558128356933594e+00 2.658780097961425781e+00 -1.012927368283271790e-01
1.965000000000000000e+03 7.388932037353515625e+01 -1.531513595581054688e+01 -3.428259864449501038e-02 8.667150497436523438e+00 2.589860200881958008e+00 -1.073930561542510986e-01
1.966000000000000000e+03 7.386338806152343750e+01 7.082673072814941406e+00 -1.310010403394699097e-01 7.959634304046630859e+00 2.348590135574340820e+00 -6.071114540100097656e-01
1.967000000000000000e+03 7.385533905029296875e+01 -2.862937927246093750e+00 -8.582987636327743530e-02 8.400450706481933594e+00 2.494386196136474609e+00 -3.028713166713714600e-01
1.968000000000000000e+03 7.405088043212890625e+01 8.573882102966308594e+00 -1.314410865306854248e-01 7.866409301757812500e+00 2.320490360260009766e+00 -6.548761725425720215e-01
1.969000000000000000e+03 7.535145568847656250e+01 -6.999949932098388672e+00 -3.739157691597938538e-02 8.738611221313476562e+00 2.610365867614746094e+00 -1.804253906011581421e-01
1.970000000000000000e+03 7.404529571533203125e+01 -8.437025070190429688e+00 -5.070028081536293030e-02 8.575892448425292969e+00 2.557557582855224609e+00 -1.924331486225128174e-01
1.971000000000000000e+03 7.393038177490234375e+01 5.582982063293457031e+00 -1.240172833204269409e-01 8.043862342834472656e+00 2.375953674316406250e+00 -5.514740943908691406e-01
1.972000000000000000e+03 7.426497650146484375e+01 1.137084674835205078e+01 -1.206415668129920959e-01 7.661502838134765625e+00 2.262258529663085938e+00 -7.445520162582397461e-01
1.973000000000000000e+03 7.417292022705078125e+01 4.165403842926025391e+00 -1.078467667102813721e-01 8.139739990234375000e+00 2.409568071365356445e+00 -4.891806244850158691e-01
1.974000000000000000e+03 7.537860870361328125e+01 1.418145775794982910e+00 -6.546532362699508667e-02 8.403113365173339844e+00 2.501294374465942383e+00 -3.435858786106109619e-01
1.975000000000000000e+03 7.390636444091796875e+01 -4.304305076599121094e+00 -7.360754907131195068e-02 8.452220916748046875e+00 2.513583898544311523e+00 -2.681899964809417725e-01
1.976000000000000000e+03 7.395351409912109375e+01 -5.717403411865234375e+00 -6.586591154336929321e-02 8.501084327697753906e+00 2.530565500259399414e+00 -2.388250976800918579e-01
1.977000000000000000e+03 7.407184600830078125e+01 -1.117221260070800781e+01 -4.259516298770904541e-02 8.631463050842285156e+00 2.576660394668579102e+00 -1.508609652519226074e-01
1.978000000000000000e+03 7.402815246582031250e+01 -1.254399967193603516e+01 -3.701483458280563354e-02 8.648869514465332031e+00 2.583556413650512695e+00 -1.352342963218688965e-01
1.979000000000000000e+03 7.380561828613281250e+01 -1.815778350830078125e+01 -2.889890596270561218e-02 8.677597045898437500e+00 2.594609260559082031e+00 -8.578903973102569580e-02
1.980000000000000000e+03 7.381737518310546875e+01 -1.957814598083496094e+01 -2.921941876411437988e-02 8.696232795715332031e+00 2.600103855133056641e+00 -7.886624336242675781e-02
1.981000000000000000e+03 7.424789428710937500e+01 1.667978858947753906e+01 -7.093320786952972412e-02 7.173650741577148438e+00 2.130815267562866211e+00 -9.127800464630126953e-01
1.982000000000000000e+03 7.405809783935546875e+01 -2.470601272583007812e+01 5.239841993898153305e-03 8.781060218811035156e+00 2.635890007019042969e+00 -4.641477763652801514e-02
1.983000000000000000e+03 7.367238616943359375e+01 -2.726375579833984375e+01 -8.278016000986099243e-03 8.718533515930175781e+00 2.613076686859130859e+00 -3.232395276427268982e-02
1.984000000000000000e+03 7.523432159423828125e+01 -2.614766311645507812e+01 1.030171406455338001e-03 8.982189178466796875e+00 2.694965839385986328e+00 -3.602290526032447815e-02
1.985000000000000000e+03 7.388629913330078125e+01 5.378544330596923828e-03 -9.705740958452224731e-02 8.309321403503417969e+00 2.463679075241088867e+00 -3.739225268363952637e-01
1.986000000000000000e+03 7.418578338623046875e+01 2.800624608993530273e+00 -1.047067344188690186e-01 8.212718009948730469e+00 2.432403326034545898e+00 -4.451923072338104248e-01
1.987000000000000000e+03 7.403730773925781250e+01 1.420771002769470215e+00 -1.002375334501266479e-01 8.263113975524902344e+00 2.448862791061401367e+00 -4.093348085880279541e-01
1.988000000000000000e+03 7.426702880859375000e+01 1.403734397888183594e+01 -1.042231768369674683e-01 7.428876876831054688e+00 2.197396039962768555e+00 -8.365294337272644043e-01
1.989000000000000000e+03 7.399891662597656250e+01 -7.088340759277343750e+00 -5.551042780280113220e-02 8.539236068725585938e+00 2.545117616653442383e+00 -2.105834931135177612e-01
1.990000000000000000e+03 7.396096801757812500e+01 -1.391781902313232422e+01 -3.650207072496414185e-02 8.658126831054687500e+00 2.586487531661987305e+00 -1.236253231763839722e-01
1.991000000000000000e+03 6.876742553710937500e+01 3.011680030822753906e+01 7.429302334785461426e-01 7.331223964691162109e+00 2.422246217727661133e+00 -7.322036623954772949e-01
1.992000000000000000e+03 7.387321472167968750e+01 -2.093958473205566406e+01 -2.836141176521778107e-02 8.728090286254882812e+00 2.609918594360351562e+00 -6.197392567992210388e-02
1.993000000000000000e+03 7.430258178710937500e+01 2.070328140258789062e+01 8.122742176055908203e-03 6.740919589996337891e+00 2.024712800979614258e+00 -9.551749229431152344e-01
1.994000000000000000e+03 7.383123016357421875e+01 -3.111769485473632812e+01 -1.002473291009664536e-02 8.731405258178710938e+00 2.616414070129394531e+00 -2.434212155640125275e-02
1.995000000000000000e+03 7.294502258300781250e+01 -3.438570022583007812e+01 -3.069048002362251282e-02 8.592516899108886719e+00 2.568547964096069336e+00 -2.481037192046642303e-02
1.996000000000000000e+03 6.460916996002197266e+00 -1.534563541412353516e+01 -3.994148573838174343e-04 -1.434021396562457085e-04 -1.628450991120189428e-04 3.496445715427398682e-04
1.997000000000000000e+03 7.252005767822265625e+01 3.061686897277832031e+01 3.826577663421630859e-01 6.418441772460937500e+00 2.040329933166503906e+00 -6.181628108024597168e-01
1.998000000000000000e+03 5.885227203369140625e+00 -2.905138397216796875e+01 1.212665229104459286e-03 7.178375381045043468e-04 5.791508592665195465e-04 4.701901052612811327e-04
1.999000000000000000e+03 1.173892879486083984e+01 -2.142813682556152344e+01 5.622085882350802422e-04 7.900741184130311012e-04 4.056848119944334030e-04 -3.678173525258898735e-04
2.000000000000000000e+03 4.914793968200683594e+00 3.014527320861816406e+01 -7.082061492837965488e-04 -1.377092848997563124e-05 -2.165931218769401312e-04 -1.543974649393931031e-04
2.001000000000000000e+03 1.025079822540283203e+01 3.080788421630859375e+01 7.465011440217494965e-04 -5.363199161365628242e-04 6.305438000708818436e-05 5.729261320084333420e-04
2.002000000000000000e+03 2.584651565551757812e+01 8.372938156127929688e+00 2.905843220651149750e-02 -3.002866804599761963e-01 -8.136847615242004395e-02 6.011793389916419983e-02
2.003000000000000000e+03 6.023054599761962891e+00 -2.500444793701171875e+01 -7.413789862766861916e-04 -5.167388590052723885e-04 -3.774353535845875740e-04 1.290849293582141399e-03
2.004000000000000000e+03 4.500393390655517578e+00 2.735677909851074219e+01 -7.186814327724277973e-04 2.900348408729769289e-05 -2.069033798761665821e-04 -4.158967203693464398e-05
2.005000000000000000e+03 5.947742938995361328e+00 2.847296714782714844e+01 -8.878718363121151924e-04 1.198424288304522634e-04 -2.304088266100734472e-04 -3.418501137275598012e-06
2.006000000000000000e+03 2.617538642883300781e+01 2.140708351135253906e+01 8.877437561750411987e-02 -3.083711266517639160e-01 -6.587902456521987915e-02 -2.702473998069763184e-01
2.007000000000000000e+03 2.617957878112792969e+01 1.822737503051757812e+01 1.099186912178993225e-01 -3.375493288040161133e-01 -6.828919053077697754e-02 -1.727965772151947021e-01
2.008000000000000000e+03 2.587822914123535156e+01 1.111692333221435547e+01 5.963169783353805542e-02 -3.421238660812377930e-01 -8.474765717983245850e-02 1.435008458793163300e-02
2.009000000000000000e+03 1.445312023162841797e+01 -2.894179153442382812e+01 3.239981364458799362e-03 -5.466760626404720824e-07 9.718303917907178402e-04 -5.056741647422313690e-04
2.010000000000000000e+03 2.477298355102539062e+01 1.543203544616699219e+01 6.167072802782058716e-02 -5.620541572570800781e-01 -1.501150280237197876e-01 -8.781635016202926636e-02
2.011000000000000000e+03 3.155367469787597656e+01 1.760670661926269531e+01 3.178656995296478271e-01 3.907285332679748535e-01 2.125782668590545654e-01 -2.693191543221473694e-02
2.012000000000000000e+03 6.540116786956787109e+00 2.311977005004882812e+01 -4.096725315321236849e-04 -1.878403854789212346e-04 -1.792538678273558617e-04 4.203886783216148615e-05
2.013000000000000000e+03 1.073883438110351562e+01 2.341633415222167969e+01 -6.010248907841742039e-04 -4.794691267306916416e-05 -1.946915435837581754e-04 -2.761158793873619288e-05
2.014000000000000000e+03 6.595135211944580078e+00 -1.114064598083496094e+01 1.988048607017844915e-04 -2.393521426711231470e-04 -1.216418422700371593e-05 3.779067264986224473e-05
2.015000000000000000e+03 5.348212242126464844e+00 -9.912858009338378906e+00 4.726035404019057751e-04 1.046232046064687893e-05 1.449197588954120874e-04 -4.007491588708944619e-05
2.016000000000000000e+03 2.583775329589843750e+01 7.016816616058349609e+00 1.443075854331254959e-02 -2.733226418495178223e-01 -7.766757160425186157e-02 7.694169878959655762e-02
2.017000000000000000e+03 2.535396957397460938e+01 2.672334098815917969e+01 -2.012422867119312286e-02 -2.317156791687011719e-01 -7.555197179317474365e-02 -3.123658597469329834e-01
2.018000000000000000e+03 2.588605117797851562e+01 3.017889404296875000e+01 -1.150428578257560730e-01 -8.738440275192260742e-02 -6.072818115353584290e-02 -2.631044983863830566e-01
2.019000000000000000e+03 2.592707061767578125e+01 1.388921546936035156e+01 8.261840790510177612e-02 -3.653654754161834717e-01 -8.482411503791809082e-02 -4.714608564972877502e-02
2.020000000000000000e+03 2.540952301025390625e+01 2.785307693481445312e+01 -4.716673120856285095e-02 -1.868863850831985474e-01 -7.021593302488327026e-02 -3.059763014316558838e-01
2.021000000000000000e+03 2.634800338745117188e+01 2.770542907714843750e+01 -5.605017021298408508e-02 -1.499670892953872681e-01 -6.180517747998237610e-02 -3.382804989814758301e-01
2.022000000000000000e+03 2.476510620117187500e+01 2.924165725708007812e+01 -6.201161071658134460e-02 -1.627936661243438721e-01 -6.744158267974853516e-02 -2.492423653602600098e-01
2.023000000000000000e+03 5.785934448242187500e+00 -2.203833007812500000e+01 -9.293646435253322124e-04 -2.201500756200402975e-04 -3.448544011916965246e-04 1.455839810660108924e-04
2.024000000000000000e+03 8.928936004638671875e+00 2.554570960998535156e+01 1.768640795489773154e-04 -6.155669689178466797e-05 3.459221625234931707e-05 -5.421763125923462212e-05
2.025000000000000000e+03 5.306755542755126953e+00 2.470140075683593750e+01 7.125633419491350651e-04 -9.131672413786873221e-05 1.863739744294434786e-04 -2.074736767099238932e-05
2.026000000000000000e+03 5.472181320190429688e+00 -1.664562606811523438e+01 -4.962334060110151768e-04 -1.699689310044050217e-04 -1.998606894630938768e-04 2.157324779545888305e-04
2.027000000000000000e+03 5.333870887756347656e+00 -1.528968238830566406e+01 5.036031943745911121e-04 1.346057542832568288e-04 1.914626773213967681e-04 -2.289282274432480335e-04
2.028000000000000000e+03 7.879951000213623047e+00 1.593395996093750000e+01 1.396748120896518230e-04 -6.786568701500073075e-05 2.154273897758685052e-05 1.962063397513702512e-04
2.029000000000000000e+03 4.576297760009765625e+00 2.078524589538574219e+01 5.048508755862712860e-04 3.637496774899773300e-05 1.623677526367828250e-04 9.938845323631539941e-05
2.030000000000000000e+03 7.331298828125000000e+00 -1.742508697509765625e+01 3.843322047032415867e-04 7.483068038709461689e-04 3.397917025722563267e-04 -3.035135450772941113e-04
2.031000000000000000e+03 4.681327819824218750e+00 -2.625376319885253906e+01 -4.585858841892331839e-04 -4.445939557626843452e-04 -2.709539548959583044e-04 8.097151876427233219e-04
2.032000000000000000e+03 4.725783824920654297e+00 1.461231422424316406e+01 4.593379562720656395e-04 -7.000600453466176987e-05 1.167995869764126837e-04 -8.002630056580528617e-05
2.033000000000000000e+03 5.835767745971679688e+00 2.722906494140625000e+01 7.761642336845397949e-04 -8.542161231162026525e-05 2.072227944154292345e-04 2.428745028737466782e-05
2.034000000000000000e+03 4.365160465240478516e+00 2.605829238891601562e+01 6.588770775124430656e-04 -8.326471288455650210e-06 1.951651793206110597e-04 8.406792767345905304e-05
2.035000000000000000e+03 2.690666770935058594e+01 2.314382171630859375e+01 7.243213057518005371e-02 -2.272416204214096069e-01 -4.644284769892692566e-02 -3.238541781902313232e-01
2.036000000000000000e+03 2.793450546264648438e+01 2.346549415588378906e+01 9.083033353090286255e-02 -1.318619102239608765e-01 -1.230947207659482956e-02 -3.453239798545837402e-01
2.037000000000000000e+03 6.697866916656494141e+00 3.157106781005859375e+01 -8.795998292043805122e-04 6.051962554920464754e-05 -2.457240479998290539e-04 -1.015798334265127778e-04
2.038000000000000000e+03 6.266718864440917969e+00 2.198788452148437500e+01 5.770655698142945766e-04 -8.361441723536700010e-05 1.480353384977206588e-04 -5.060855983174405992e-05
2.039000000000000000e+03 5.894449710845947266e+00 2.076112747192382812e+01 -5.233720876276493073e-04 -3.599652336561121047e-05 -1.678105763858184218e-04 -4.550638186628930271e-05
2.040000000000000000e+03 6.307313919067382812e+00 -2.100243949890136719e+01 5.950749036855995655e-04 5.962023278698325157e-04 3.573831927496939898e-04 -4.337728314567357302e-04
2.041000000000000000e+03 5.457976341247558594e+00 -1.796638870239257812e+01 4.388069501146674156e-04 5.952474311925470829e-04 3.102163318544626236e-04 -5.978583794785663486e-05
2.042000000000000000e+03 6.671173095703125000e+00 3.503980636596679688e+01 -6.111290422268211842e-04 -4.623272980097681284e-05 -1.972085301531478763e-04 -4.342603497207164764e-04
2.043000000000000000e+03 5.606059551239013672e+00 1.287383270263671875e+01 2.473967033438384533e-04 8.019998858799226582e-06 7.662500865990296006e-05 -1.819154422264546156e-04
2.044000000000000000e+03 6.071049690246582031e+00 1.413328456878662109e+01 -2.058387617580592632e-04 2.113067421305458993e-05 -5.541242717299610376e-05 2.013125631492584944e-04
2.045000000000000000e+03 6.102791786193847656e+00 -2.766978263854980469e+01 4.513715102802962065e-04 -1.435516984201967716e-03 -2.952436334453523159e-04 9.859036654233932495e-04
2.046000000000000000e+03 8.401662826538085938e+00 -3.289545440673828125e+01 4.152998328208923340e-03 -2.496712375432252884e-03 4.968857392668724060e-04 2.997167757712304592e-04
2.047000000000000000e+03 1.008866119384765625e+01 1.029658889770507812e+01 -2.369551657466217875e-04 -7.374260894721373916e-05 -9.320933168055489659e-05 -3.041558738914318383e-05
2.048000000000000000e+03 4.159760475158691406e+00 9.220850944519042969e+00 2.789201971609145403e-04 5.346769103198312223e-05 9.971636609407141805e-05 2.862321480279206298e-06
2.049000000000000000e+03 5.389125823974609375e+00 1.161786365509033203e+01 -2.352989540668204427e-04 -6.299476081039756536e-05 -8.948811591835692525e-05 1.522075326647609472e-04
2.050000000000000000e+03 5.309606552124023438e+00 -1.397273063659667969e+01 -5.885038408450782299e-04 -8.244477066909894347e-05 -2.012845798162743449e-04 1.925810647662729025e-04
2.051000000000000000e+03 5.413556098937988281e+00 -1.123625946044921875e+01 -5.491235642693936825e-04 9.605339437257498503e-05 -1.359210436930879951e-04 8.768791303737089038e-05
2.052000000000000000e+03 7.112974548339843750e+01 3.285283660888671875e+01 5.103929638862609863e-01 6.787109851837158203e+00 2.189250707626342773e+00 -4.332843422889709473e-01
2.053000000000000000e+03 7.113261413574218750e+01 3.507826232910156250e+01 3.873142600059509277e-01 6.768762588500976562e+00 2.146822929382324219e+00 -2.453031539916992188e-01
2.054000000000000000e+03 5.492261886596679688e+00 -8.716618537902832031e+00 -4.630156618077307940e-04 -1.514694304205477238e-04 -1.843455247581005096e-04 -9.073134606296662241e-06
2.055000000000000000e+03 4.081475257873535156e+00 7.294078350067138672e+00 -5.825909829582087696e-05 -4.344338958617299795e-05 -3.051074781978968531e-05 6.188981933519244194e-05
2.056000000000000000e+03 5.363534450531005859e+00 8.703863143920898438e+00 2.947243920061737299e-04 -1.491903094574809074e-04 4.366022403701208532e-05 3.269256012572441250e-06
2.057000000000000000e+03 7.640977859497070312e+00 -2.333518791198730469e+01 2.188952930737286806e-04 -7.625370635651051998e-04 -1.630925253266468644e-04 7.394677959382534027e-04
2.058000000000000000e+03 1.208760833740234375e+01 -2.558785057067871094e+01 -1.001449185423552990e-03 4.205437726341187954e-04 -1.742716121952980757e-04 1.629670296097174287e-04
2.059000000000000000e+03 1.028011608123779297e+01 -2.513630676269531250e+01 -1.125921029597520828e-03 6.809302140027284622e-04 -1.334972330369055271e-04 3.977248852606862783e-04
2.060000000000000000e+03 1.036279296875000000e+01 -2.720224761962890625e+01 1.170657109469175339e-03 2.013093559071421623e-03 9.551252005621790886e-04 -2.140561118721961975e-03
2.061000000000000000e+03 1.058980941772460938e+01 1.355816173553466797e+01 -1.396224542986601591e-04 1.712125049380119890e-05 -3.675035986816510558e-05 -2.061538543784990907e-04
2.062000000000000000e+03 2.589969062805175781e+01 -5.779004096984863281e+00 -1.442927517928183079e-03 4.421196505427360535e-02 1.283071096986532211e-02 9.740164130926132202e-02
2.063000000000000000e+03 2.637384414672851562e+01 -3.093547821044921875e+00 -4.170292522758245468e-04 6.908784061670303345e-02 2.060124464333057404e-02 1.184984073042869568e-01
2.064000000000000000e+03 2.592379570007324219e+01 -1.238083744049072266e+01 -2.150662429630756378e-02 1.724780350923538208e-01 4.529142379760742188e-02 7.034581154584884644e-02
2.065000000000000000e+03 2.574623107910156250e+01 -9.726840972900390625e+00 -1.788881234824657440e-02 9.609140455722808838e-02 2.346077747642993927e-02 7.325810194015502930e-02
2.066000000000000000e+03 1.015874004364013672e+01 -2.981208419799804688e+01 3.172983648255467415e-03 1.667924807406961918e-03 1.452272525057196617e-03 -2.351209986954927444e-03
2.067000000000000000e+03 2.468035125732421875e+01 4.260434150695800781e+00 -1.233282219618558884e-02 -4.491860866546630859e-01 -1.384556740522384644e-01 8.134503662586212158e-02
2.068000000000000000e+03 2.574074745178222656e+01 -8.411486625671386719e+00 -1.362392492592334747e-02 6.794246286153793335e-02 1.629556156694889069e-02 8.430548757314682007e-02
2.069000000000000000e+03 1.184251213073730469e+01 2.179386711120605469e+01 -6.341239204630255699e-04 -6.351877527777105570e-05 -2.092928043566644192e-04 -5.294206493999809027e-05
2.070000000000000000e+03 1.073043632507324219e+01 2.014659309387207031e+01 -2.235919964732602239e-04 -3.838050906779244542e-05 -7.859175093472003937e-05 -1.338091969955712557e-04
2.071000000000000000e+03 2.492990684509277344e+01 -2.117265510559082031e+01 4.736379254609346390e-03 9.212452173233032227e-02 2.905827201902866364e-02 2.123431675136089325e-02
2.072000000000000000e+03 2.306075096130371094e+01 -2.407494354248046875e+01 2.201776951551437378e-03 -2.020735442638397217e-01 -5.996152758598327637e-02 4.923752509057521820e-03
2.073000000000000000e+03 1.108141708374023438e+01 1.156389427185058594e+01 -1.939849171321839094e-04 -1.299184659728780389e-04 -9.717101056594401598e-05 -6.910219963174313307e-05
2.074000000000000000e+03 4.272143173217773438e+01 3.831025314331054688e+01 5.355870127677917480e-01 2.010509073734283447e-01 2.209913879632949829e-01 2.274206280708312988e-01
2.075000000000000000e+03 1.018582057952880859e+01 2.897031402587890625e+01 -7.517773192375898361e-04 -4.266172763891518116e-04 -3.535183786880224943e-04 4.991008900105953217e-04
2.076000000000000000e+03 1.068643951416015625e+01 1.807605171203613281e+01 -2.915003278758376837e-04 -1.221301936311647296e-04 -1.240891579072922468e-04 -1.134255307988496497e-05
2.077000000000000000e+03 1.092584037780761719e+01 1.912706184387207031e+01 3.647261182777583599e-04 1.431554846931248903e-04 1.523644750704988837e-04 1.364596100756898522e-04
2.078000000000000000e+03 9.093688964843750000e+00 -3.157913398742675781e+01 4.280313383787870407e-03 -1.978315180167555809e-03 6.905994378030300140e-04 -1.486891997046768665e-03
2.079000000000000000e+03 2.677921104431152344e+01 -1.678620696067810059e+00 -1.123683527112007141e-03 1.186764314770698547e-01 3.526582568883895874e-02 1.364586949348449707e-01
2.080000000000000000e+03 2.585396957397460938e+01 5.653985500335693359e+00 9.570527821779251099e-03 -2.345318496227264404e-01 -6.748839467763900757e-02 9.481856226921081543e-02
2.081000000000000000e+03 2.597464942932128906e+01 1.818645477294921875e+00 -4.963726270943880081e-03 -1.363993287086486816e-01 -4.240891709923744202e-02 1.162969172000885010e-01
2.082000000000000000e+03 2.607362174987792969e+01 -1.371634960174560547e+01 -1.916490495204925537e-02 2.139110565185546875e-01 5.842384696006774902e-02 6.663024425506591797e-02
2.083000000000000000e+03 2.415904426574707031e+01 -2.987528610229492188e+01 -1.244218368083238602e-02 2.950082346796989441e-02 5.117591936141252518e-03 -2.892799675464630127e-02
2.084000000000000000e+03 1.123113918304443359e+01 2.899481582641601562e+01 4.810888494830578566e-04 3.353211213834583759e-04 2.449229941703379154e-04 -4.142046964261680841e-05
2.085000000000000000e+03 8.172966003417968750e+00 2.441327285766601562e+01 -3.331440384499728680e-04 -1.894829620141535997e-04 -1.567880972288548946e-04 -2.199174559791572392e-05
2.086000000000000000e+03 6.709444522857666016e+00 3.331498336791992188e+01 7.734758546575903893e-04 -3.378588007763028145e-05 2.219070011051371694e-04 3.979728498961776495e-04
2.087000000000000000e+03 7.222364807128906250e+01 4.083057022094726562e+01 1.117854490876197815e-01 6.367054462432861328e+00 1.943651914596557617e+00 -6.401339918375015259e-02
2.088000000000000000e+03 4.990327835083007812e+01 2.912029647827148438e+01 3.193934917449951172e+00 4.961518287658691406e+00 2.446635961532592773e+00 4.907993793487548828e+00
2.089000000000000000e+03 5.034714126586914062e+01 2.922791290283203125e+01 3.200148344039916992e+00 6.360518455505371094e+00 2.868200063705444336e+00 5.617267131805419922e+00
2.090000000000000000e+03 5.074998855590820312e+01 2.946625518798828125e+01 3.375092506408691406e+00 8.200763702392578125e+00 3.472756862640380859e+00 6.298934459686279297e+00
2.091000000000000000e+03 4.844420623779296875e+01 2.943828582763671875e+01 2.347962856292724609e+00 1.354285240173339844e+00 1.110674500465393066e+00 2.480561971664428711e+00
2.092000000000000000e+03 5.029373168945312500e+01 2.964428329467773438e+01 3.881185770034790039e+00 5.447294235229492188e+00 2.798543930053710938e+00 5.645308017730712891e+00
2.093000000000000000e+03 4.618585586547851562e+01 2.853250503540039062e+01 1.315894365310668945e+00 8.620644211769104004e-01 6.533876061439514160e-01 1.348175168037414551e+00
2.094000000000000000e+03 5.180825424194335938e+01 3.526655960083007812e+01 -7.675982713699340820e-01 1.263308715820312500e+01 3.559646844863891602e+00 -3.146612167358398438e+00
2.095000000000000000e+03 5.120138168334960938e+01 3.435108184814453125e+01 4.509955346584320068e-01 1.082699203491210938e+01 3.383396387100219727e+00 -4.786336898803710938e+00
2.096000000000000000e+03 5.181744384765625000e+01 3.420826721191406250e+01 -2.938069105148315430e-01 1.432865238189697266e+01 4.210453510284423828e+00 -4.217852115631103516e+00
2.097000000000000000e+03 4.762082290649414062e+01 2.914797019958496094e+01 1.864573359489440918e+00 1.124578475952148438e+00 8.967455625534057617e-01 1.967807650566101074e+00
2.098000000000000000e+03 4.847235488891601562e+01 2.897280883789062500e+01 2.425143480300903320e+00 1.951776623725891113e+00 1.313076019287109375e+00 2.925363063812255859e+00
2.099000000000000000e+03 5.235098648071289062e+01 3.443632507324218750e+01 -6.099740862846374512e-01 1.633473014831542969e+01 4.717426776885986328e+00 -2.249653339385986328e+00
2.100000000000000000e+03 5.519797134399414062e+01 3.542385101318359375e+01 3.920176327228546143e-01 1.411313343048095703e+01 4.351545333862304688e+00 1.462497115135192871e+00
2.101000000000000000e+03 4.487487792968750000e+01 2.837060737609863281e+01 8.897004723548889160e-01 6.026631593704223633e-01 4.477090835571289062e-01 8.302255868911743164e-01
2.102000000000000000e+03 4.542678833007812500e+01 2.830495262145996094e+01 1.115883350372314453e+00 7.232050895690917969e-01 5.517265200614929199e-01 1.062509059906005859e+00
2.103000000000000000e+03 5.765548229217529297e+00 6.211065292358398438e+00 -1.904947384900879115e-05 9.161463094642385840e-05 2.176954694732557982e-05 3.736159851541742682e-05
2.104000000000000000e+03 8.365237236022949219e+00 5.648092746734619141e+00 1.855819864431396127e-04 -1.374913381368969567e-06 5.526212407858110964e-05 4.183950295555405319e-05
2.105000000000000000e+03 9.787244796752929688e+00 4.888428688049316406e+00 -1.697497500572353601e-04 -4.712942609330639243e-05 -6.506375211756676435e-05 -7.690437632845714688e-05
2.106000000000000000e+03 6.283254623413085938e+00 5.805325984954833984e+00 1.915287284646183252e-04 -1.050652572303079069e-04 2.593903991510160267e-05 -4.288336276658810675e-05
2.107000000000000000e+03 7.539655208587646484e+00 5.112036228179931641e+00 1.125125636463053524e-04 4.358385194791480899e-05 4.682892540586180985e-05 1.767042704159393907e-06
2.108000000000000000e+03 2.644244766235351562e+01 3.098801994323730469e+01 -1.546795815229415894e-01 -4.872007295489311218e-02 -6.101989746093750000e-02 -2.499761432409286499e-01
2.109000000000000000e+03 2.652478218078613281e+01 3.022336006164550781e+01 -1.358886808156967163e-01 -6.802008301019668579e-02 -6.117263063788414001e-02 -2.789774537086486816e-01
2.110000000000000000e+03 6.461446762084960938e+00 4.913719654083251953e+00 -2.898350066971033812e-05 -8.874889317667111754e-05 -3.531971742631867528e-05 -6.075494457036256790e-05
2.111000000000000000e+03 6.008196353912353516e+00 5.306669712066650391e+00 -1.425141672370955348e-04 7.348813232965767384e-05 -2.070781010843347758e-05 5.701007830793969333e-05
2.112000000000000000e+03 5.449618911743164062e+01 2.829936599731445312e+01 1.602497339248657227e+00 1.433327198028564453e+01 4.780730724334716797e+00 -3.793777823448181152e-01
2.113000000000000000e+03 9.461311340332031250e+00 -5.097239494323730469e+00 -1.873129367595538497e-04 -6.852203659946098924e-05 -7.675049710087478161e-05 5.235378193901851773e-05
2.114000000000000000e+03 8.037005424499511719e+00 -5.058421611785888672e+00 -2.108126354869455099e-04 3.841741545329568908e-06 -6.209126877365633845e-05 4.636107405531220138e-05
2.115000000000000000e+03 8.286561965942382812e+00 6.295959472656250000e+00 -2.734552545007318258e-04 3.029160689038690180e-05 -7.294909300981089473e-05 -5.011598841520026326e-05
2.116000000000000000e+03 1.060104751586914062e+01 5.751404285430908203e+00 -1.986593852052465081e-04 -3.978067616117186844e-05 -7.153202022891491652e-05 -7.624531281180679798e-05
2.117000000000000000e+03 2.997059059143066406e+01 3.009790420532226562e+01 -2.604840099811553955e-01 3.354380652308464050e-02 -6.808206439018249512e-02 -3.495106399059295654e-01
2.118000000000000000e+03 2.927200698852539062e+01 3.014901542663574219e+01 -2.361405193805694580e-01 1.596373319625854492e-02 -6.605303287506103516e-02 -3.392798900604248047e-01
2.119000000000000000e+03 3.066998672485351562e+01 3.003332710266113281e+01 -2.841252386569976807e-01 5.293821915984153748e-02 -6.935610622167587280e-02 -3.565900623798370361e-01
2.120000000000000000e+03 3.207016754150390625e+01 2.986913108825683594e+01 -3.242881894111633301e-01 8.414819836616516113e-02 -7.204199582338333130e-02 -3.647493124008178711e-01
2.121000000000000000e+03 2.857540702819824219e+01 3.018575477600097656e+01 -2.103631347417831421e-01 -5.698635708540678024e-03 -6.481853127479553223e-02 -3.282636404037475586e-01
2.122000000000000000e+03 2.788219261169433594e+01 3.020975875854492188e+01 -1.846914589405059814e-01 -2.579675242304801941e-02 -6.314646452665328979e-02 -3.136788904666900635e-01
2.123000000000000000e+03 2.719800949096679688e+01 3.022745895385742188e+01 -1.603357642889022827e-01 -4.790938273072242737e-02 -6.247354671359062195e-02 -2.981040179729461670e-01
2.124000000000000000e+03 3.276916885375976562e+01 2.977634239196777344e+01 -3.401360213756561279e-01 9.547447413206100464e-02 -7.339846342802047729e-02 -3.654129505157470703e-01
2.125000000000000000e+03 3.925992202758789062e+01 2.939605903625488281e+01 -3.861336708068847656e-01 1.699327826499938965e-01 -6.486026942729949951e-02 -1.851166039705276489e-01
2.126000000000000000e+03 3.632905960083007812e+01 2.989671707153320312e+01 -4.858986437320709229e-01 1.355332881212234497e-01 -1.051096022129058838e-01 -3.003499805927276611e-01
2.127000000000000000e+03 3.833423995971679688e+01 2.817523193359375000e+01 -6.159384548664093018e-02 2.396730482578277588e-01 5.342375859618186951e-02 -1.998682916164398193e-01
2.128000000000000000e+03 3.346541213989257812e+01 2.967946243286132812e+01 -3.518869280815124512e-01 1.097442433238029480e-01 -7.264280319213867188e-02 -3.623884320259094238e-01
2.129000000000000000e+03 3.993732452392578125e+01 2.863958930969238281e+01 -1.022571027278900146e-01 2.310616374015808105e-01 3.864135965704917908e-02 -1.052255481481552124e-01
2.130000000000000000e+03 5.388009071350097656e+00 -5.184212684631347656e+00 -8.515685294696595520e-06 2.549353230278939009e-04 7.392589031951501966e-05 5.610367952613160014e-05
2.131000000000000000e+03 3.560928344726562500e+01 3.002717208862304688e+01 -4.862676858901977539e-01 1.304539740085601807e-01 -1.067441180348396301e-01 -3.144881725311279297e-01
2.132000000000000000e+03 3.688771438598632812e+01 2.843665885925292969e+01 -1.694482713937759399e-01 1.979199647903442383e-01 8.541508577764034271e-03 -2.873976528644561768e-01
2.133000000000000000e+03 3.416025924682617188e+01 2.957897186279296875e+01 -3.593738079071044922e-01 1.186411231756210327e-01 -7.221980392932891846e-02 -3.578487932682037354e-01
2.134000000000000000e+03 3.485742950439453125e+01 2.947311210632324219e+01 -3.618750274181365967e-01 1.336921453475952148e-01 -6.845486164093017578e-02 -3.485459685325622559e-01
2.135000000000000000e+03 9.229547500610351562e+00 7.935876846313476562e+00 2.202609466621652246e-04 5.339762719813734293e-05 8.209757652366533875e-05 2.391007546975743026e-05
2.136000000000000000e+03 6.851408958435058594e+00 -8.156955718994140625e+00 -4.723549063783138990e-04 -1.973087928490713239e-04 -2.008991141337901354e-04 -3.756754085770808160e-05
2.137000000000000000e+03 8.035928726196289062e+00 -5.831280231475830078e+00 3.474436234682798386e-04 -1.192512718262150884e-04 6.845770258223637938e-05 -1.406239607604220510e-04
2.138000000000000000e+03 5.852893352508544922e+00 -5.685074806213378906e+00 -3.686647687572985888e-04 -1.685228344285860658e-04 -1.611562765901908278e-04 1.338800357189029455e-04
2.139000000000000000e+03 8.746610641479492188e+00 -5.067778110504150391e+00 2.247731608804315329e-04 -9.866841566008588416e-08 6.740234675817191601e-05 -2.865363603632431477e-05
2.140000000000000000e+03 4.359072113037109375e+01 2.840824317932128906e+01 5.071365237236022949e-01 4.194554388523101807e-01 2.779775857925415039e-01 4.544616639614105225e-01
2.141000000000000000e+03 4.222537612915039062e+01 2.908873176574707031e+01 -7.315222173929214478e-02 2.250520884990692139e-01 4.556996002793312073e-02 8.954474329948425293e-02
2.142000000000000000e+03 4.420367431640625000e+01 2.781933021545410156e+01 9.097165465354919434e-01 6.705561280250549316e-01 4.740818142890930176e-01 7.841813564300537109e-01
2.143000000000000000e+03 4.143207168579101562e+01 2.850795364379882812e+01 8.493679761886596680e-02 2.777912020683288574e-01 1.088183969259262085e-01 6.183911114931106567e-02
2.144000000000000000e+03 4.068774032592773438e+01 2.856539726257324219e+01 -1.785998232662677765e-02 2.588079273700714111e-01 7.228438556194305420e-02 -2.899901010096073151e-02
2.145000000000000000e+03 2.572141265869140625e+01 3.087249183654785156e+01 -1.241827756166458130e-01 -7.149453461170196533e-02 -5.870319530367851257e-02 -2.355873882770538330e-01
2.146000000000000000e+03 1.149180316925048828e+01 6.760648727416992188e+00 -2.060410915873944759e-04 -3.600079799070954323e-05 -7.261256541823968291e-05 -3.396561078261584044e-05
2.147000000000000000e+03 1.255499744415283203e+01 5.536292552947998047e+00 -2.091210335493087769e-04 -1.205720582220237702e-05 -6.635347381234169006e-05 -9.760879038367420435e-06
2.148000000000000000e+03 4.926858520507812500e+01 3.787490081787109375e+01 2.368405908346176147e-01 5.488340854644775391e+00 1.717554450035095215e+00 -1.641560912132263184e+00
2.149000000000000000e+03 5.556505966186523438e+01 3.083349418640136719e+01 6.003801345825195312e+00 1.291708850860595703e+01 5.676266670227050781e+00 -5.356838107109069824e-01
2.150000000000000000e+03 8.160915374755859375e+00 1.249274158477783203e+01 8.576811524108052254e-05 2.268839853059034795e-05 3.253695467719808221e-05 1.194456563098356128e-04
2.151000000000000000e+03 4.783466720581054688e+01 3.871679306030273438e+01 6.558076739311218262e-01 3.347247362136840820e+00 1.200916528701782227e+00 -1.070881247520446777e+00
2.152000000000000000e+03 5.792647552490234375e+01 3.364682769775390625e+01 2.961031198501586914e+00 1.149493885040283203e+01 4.336791038513183594e+00 1.361123442649841309e+00
2.153000000000000000e+03 5.722354507446289062e+01 3.180055427551269531e+01 4.281026363372802734e+00 1.130393505096435547e+01 4.675488471984863281e+00 4.148817360401153564e-01
2.154000000000000000e+03 5.079361915588378906e+00 6.740503787994384766e+00 3.803848449024371803e-05 9.014220267999917269e-06 1.411581160937203094e-05 -4.050420466228388250e-05
2.155000000000000000e+03 2.678088188171386719e+01 -1.954636192321777344e+01 -4.878028761595487595e-03 4.297120571136474609e-01 1.274502128362655640e-01 4.941129311919212341e-02
2.156000000000000000e+03 7.347107887268066406e+00 7.974239349365234375e+00 2.302006323589012027e-04 3.903914694092236459e-05 8.077193342614918947e-05 6.010189736116444692e-06
2.157000000000000000e+03 2.851338005065917969e+01 2.446897268295288086e+00 9.278054349124431610e-03 3.768028914928436279e-01 1.158242821693420410e-01 1.780588030815124512e-01
2.158000000000000000e+03 2.803161430358886719e+01 5.808339595794677734e+00 3.045746125280857086e-02 2.033636718988418579e-01 7.014633715152740479e-02 1.387546658515930176e-01
2.159000000000000000e+03 1.138711547851562500e+01 -1.019023132324218750e+01 2.958665136247873306e-04 1.715542166493833065e-04 1.402262278134003282e-04 -1.896778994705528021e-04
2.160000000000000000e+03 8.927354812622070312e+00 -8.803676605224609375e+00 4.809975962416501716e-06 2.019752282649278641e-04 6.203555676620453596e-05 -4.610522228176705539e-05
2.161000000000000000e+03 9.239710807800292969e+00 1.759831237792968750e+01 -1.490297727286815643e-04 -9.793011849978938699e-05 -7.408796955132856965e-05 3.608038241509348154e-05
2.162000000000000000e+03 8.814964294433593750e+00 1.511739349365234375e+01 -2.700148070289287716e-05 3.830139758065342903e-05 3.389975745449191891e-06 -2.346193068660795689e-04
2.163000000000000000e+03 7.416429519653320312e+00 2.176512145996093750e+01 -5.526231252588331699e-04 -2.319781378901097924e-05 -1.727462804410606623e-04 9.496718121226876974e-06
2.164000000000000000e+03 9.027951240539550781e+00 2.263261032104492188e+01 -3.756239893846213818e-04 -1.712065859464928508e-04 -1.640491682337597013e-04 -3.507683868519961834e-05
2.165000000000000000e+03 6.623405456542968750e+00 1.249475669860839844e+01 -1.466752291889861226e-04 -1.186815552500775084e-05 -4.756301495945081115e-05 1.476185716455802321e-04
2.166000000000000000e+03 2.744798469543457031e+01 -4.640737056732177734e+00 -6.296311039477586746e-03 3.176430761814117432e-01 9.340402483940124512e-02 1.350332051515579224e-01
2.167000000000000000e+03 2.778640937805175781e+01 -3.414336204528808594e+00 -9.458702988922595978e-03 3.586818277835845947e-01 1.047669425606727600e-01 1.546351462602615356e-01
2.168000000000000000e+03 1.062020778656005859e+01 -1.352307510375976562e+01 -2.949620538856834173e-04 -4.286754119675606489e-04 -2.170912339352071285e-04 2.570623473729938269e-04
2.169000000000000000e+03 6.968723297119140625e+01 -3.068983840942382812e+01 -1.055441331118345261e-02 8.022706031799316406e+00 2.403645515441894531e+00 -1.676034368574619293e-02
2.170000000000000000e+03 7.324506378173828125e+01 -3.261229324340820312e+01 -2.453864552080631256e-02 8.642644882202148438e+00 2.585431814193725586e+00 -2.740031294524669647e-02
2.171000000000000000e+03 7.243422698974609375e+01 2.508463096618652344e+01 2.214587926864624023e-01 6.726996421813964844e+00 2.084536552429199219e+00 -1.031994581222534180e+00
2.172000000000000000e+03 7.281939697265625000e+01 -2.349377250671386719e+01 -6.825767923146486282e-03 8.573513984680175781e+00 2.570006370544433594e+00 -6.129521876573562622e-02
2.173000000000000000e+03 7.157504272460937500e+01 1.664156532287597656e+01 -1.469346433877944946e-01 7.465855121612548828e+00 2.195676088333129883e+00 -1.126041293144226074e+00
2.174000000000000000e+03 7.290853118896484375e+01 1.664980888366699219e+01 -1.049250289797782898e-01 7.323232650756835938e+00 2.165492296218872070e+00 -1.035411953926086426e+00
2.175000000000000000e+03 7.236238861083984375e+01 -1.675993537902832031e+01 -4.787351191043853760e-02 8.431176185607910156e+00 2.514990806579589844e+00 -1.057686507701873779e-01
2.176000000000000000e+03 7.232234954833984375e+01 -1.822651481628417969e+01 -3.480864688754081726e-02 8.431108474731445312e+00 2.518889904022216797e+00 -9.135389328002929688e-02
2.177000000000000000e+03 7.279775238037109375e+01 -9.878990173339843750e+00 -6.559817492961883545e-02 8.408564567565917969e+00 2.502889871597290039e+00 -1.922742724418640137e-01
2.178000000000000000e+03 7.279547882080078125e+01 -1.121457767486572266e+01 -6.045980751514434814e-02 8.436688423156738281e+00 2.512868642807006836e+00 -1.705372184514999390e-01
2.179000000000000000e+03 7.241698455810546875e+01 -3.010872364044189453e+00 -1.171083226799964905e-01 8.226861953735351562e+00 2.432926177978515625e+00 -3.386920392513275146e-01
2.180000000000000000e+03 7.306901550292968750e+01 3.948093891143798828e+00 -1.355259567499160767e-01 8.073949813842773438e+00 2.381527185440063477e+00 -5.299962162971496582e-01
2.181000000000000000e+03 7.303707122802734375e+01 2.835512161254882812e+00 -1.401846408843994141e-01 8.113773345947265625e+00 2.392076730728149414e+00 -4.938890635967254639e-01
2.182000000000000000e+03 7.185279083251953125e+01 1.146866607666015625e+01 -2.145109027624130249e-01 7.707005500793457031e+00 2.247748374938964844e+00 -8.979582190513610840e-01
2.183000000000000000e+03 7.272902679443359375e+01 8.745842933654785156e+00 -1.781124919652938843e-01 7.837086200714111328e+00 2.297692060470581055e+00 -7.363038659095764160e-01
2.184000000000000000e+03 7.252058410644531250e+01 -4.461259365081787109e+00 -1.043248921632766724e-01 8.275252342224121094e+00 2.451278209686279297e+00 -3.018415272235870361e-01
2.185000000000000000e+03 7.428221893310546875e+01 1.271822929382324219e+01 -1.091247648000717163e-01 7.545986652374267578e+00 2.231058597564697266e+00 -7.910127043724060059e-01
2.186000000000000000e+03 7.175674438476562500e+01 1.025069999694824219e+01 -2.225567996501922607e-01 7.765676498413085938e+00 2.262935876846313477e+00 -8.485326170921325684e-01
2.187000000000000000e+03 8.456303596496582031e+00 3.708070373535156250e+01 -6.685045082122087479e-04 5.964151569060049951e-05 -1.826588995754718781e-04 -5.555190145969390869e-04
2.188000000000000000e+03 7.246721649169921875e+01 -2.677787780761718750e+01 -2.500754967331886292e-02 8.500244140625000000e+00 2.542571067810058594e+00 -3.408679366111755371e-02
2.189000000000000000e+03 7.205863952636718750e+01 2.687256240844726562e+01 2.981890439987182617e-01 6.697321891784667969e+00 2.098653316497802734e+00 -9.473732113838195801e-01
2.190000000000000000e+03 5.406415462493896484e+00 -1.262123870849609375e+01 5.451356992125511169e-04 1.141706816270016134e-04 1.977919164346531034e-04 -1.703548914520069957e-04
2.191000000000000000e+03 1.131683921813964844e+01 9.115191459655761719e+00 -2.179121511289849877e-04 -5.919087925576604903e-05 -8.313090802403166890e-05 -4.757141141453757882e-05
2.192000000000000000e+03 8.580097198486328125e+00 -1.888020515441894531e+01 7.781247841194272041e-04 1.474007003707811236e-04 2.776576438918709755e-04 -3.195571480318903923e-04
2.193000000000000000e+03 1.010919666290283203e+01 -1.681058883666992188e+01 -6.390902562998235226e-04 -1.387710944982245564e-04 -2.333584125153720379e-04 3.199489437974989414e-04
2.194000000000000000e+03 2.634811592102050781e+01 2.667028427124023438e+01 -2.283709682524204254e-02 -1.788526624441146851e-01 -6.050692871212959290e-02 -3.481633663177490234e-01
2.195000000000000000e+03 2.541645240783691406e+01 2.550683021545410156e+01 6.663000676780939102e-03 -2.731582224369049072e-01 -7.994856685400009155e-02 -3.157638311386108398e-01
2.196000000000000000e+03 2.853427124023437500e+01 1.616919708251953125e+01 1.812360435724258423e-01 8.736617863178253174e-03 5.699179694056510925e-02 -7.775183767080307007e-02
2.197000000000000000e+03 9.441362380981445312e+00 -2.020611572265625000e+01 1.053580548614263535e-03 2.759883645921945572e-04 3.988707030657678843e-04 -2.519904228392988443e-04
2.198000000000000000e+03 2.700611686706542969e+01 8.304547309875488281e+00 4.412643238902091980e-02 -7.309697568416595459e-02 -8.691161870956420898e-03 8.634687960147857666e-02
2.199000000000000000e+03 2.703559684753417969e+01 1.099852275848388672e+01 8.040910214185714722e-02 -1.225676536560058594e-01 -1.264756638556718826e-02 3.713339567184448242e-02
2.200000000000000000e+03 2.586182022094726562e+01 9.739016532897949219e+00 4.471464827656745911e-02 -3.245513141155242920e-01 -8.395100384950637817e-02 4.027239605784416199e-02
2.201000000000000000e+03 2.589547348022460938e+01 1.250120162963867188e+01 7.110279053449630737e-02 -3.563156127929687500e-01 -8.556384593248367310e-02 -1.338558923453092575e-02
2.202000000000000000e+03 2.934231185913085938e+01 8.109556198120117188e+00 7.683328539133071899e-02 4.050133228302001953e-01 1.445539891719818115e-01 1.516820043325424194e-01
2.203000000000000000e+03 5.526007175445556641e+00 2.265762519836425781e+01 1.748451904859393835e-04 1.346820936305448413e-04 9.285818669013679028e-05 8.069903742580208927e-06
2.204000000000000000e+03 9.848640441894531250e+00 2.095335960388183594e+01 -2.571569348219782114e-04 -6.903277972014620900e-05 -9.785691509023308754e-05 1.569468877278268337e-04
2.205000000000000000e+03 6.503374099731445312e+00 -9.035968780517578125e+00 3.865905164275318384e-04 1.906487741507589817e-04 1.731717929942533374e-04 6.695555930491536856e-05
2.206000000000000000e+03 2.598145103454589844e+01 1.529557991027832031e+01 9.311445802450180054e-02 -3.655082881450653076e-01 -8.171814680099487305e-02 -8.399989455938339233e-02
2.207000000000000000e+03 2.710473632812500000e+01 1.372325611114501953e+01 1.122992709279060364e-01 -1.631905585527420044e-01 -1.526738516986370087e-02 -2.798813767731189728e-02
2.208000000000000000e+03 6.998534202575683594e+00 2.527285194396972656e+01 1.341674651484936476e-04 2.702472556848078966e-04 1.213244177051819861e-04 -5.811492155771702528e-05
2.209000000000000000e+03 7.582456111907958984e+00 -1.542086982727050781e+01 3.254020994063466787e-04 1.686810574028640985e-04 1.482249499531462789e-04 -5.058301030658185482e-04
2.210000000000000000e+03 7.576313972473144531e+00 -2.749562835693359375e+01 1.552038593217730522e-03 8.910603937692940235e-04 7.329296786338090897e-04 -1.109328935854136944e-03
2.211000000000000000e+03 6.743235588073730469e+00 -2.253913879394531250e+01 5.871573375770822167e-05 9.964489145204424858e-04 3.165493835695087910e-04 -3.662398084998130798e-04
2.212000000000000000e+03 6.724831104278564453e+00 -1.841513061523437500e+01 -2.970764180645346642e-04 -7.738458807580173016e-04 -3.212766896467655897e-04 1.681952417129650712e-04
2.213000000000000000e+03 2.585434913635253906e+01 2.954747390747070312e+01 -9.587272256612777710e-02 -1.134023070335388184e-01 -6.278251111507415771e-02 -2.810296714305877686e-01
2.214000000000000000e+03 9.158923149108886719e+00 2.759906768798828125e+01 -3.653828753158450127e-04 1.155297577497549355e-04 -7.495593308703973889e-05 -4.418351090862415731e-05
2.215000000000000000e+03 7.005688190460205078e+00 2.779931259155273438e+01 1.644828298594802618e-04 1.646244054427370429e-04 9.873216913547366858e-05 -1.254701637662947178e-04
2.216000000000000000e+03 5.924690246582031250e+00 1.786597442626953125e+01 -5.008169100619852543e-04 1.463578882976435125e-05 -1.458543265471234918e-04 -1.371468824800103903e-04
2.217000000000000000e+03 1.069744205474853516e+01 -2.230508232116699219e+01 2.640005259308964014e-04 -5.378877976909279823e-04 -8.216617425205186009e-05 2.206331846537068486e-04
2.218000000000000000e+03 1.118565368652343750e+01 -2.330109596252441406e+01 -1.063753152266144753e-03 7.773357792757451534e-04 -8.592523226980119944e-05 4.564891569316387177e-04
2.219000000000000000e+03 6.975644111633300781e+00 1.946791076660156250e+01 -3.408960765227675438e-04 -1.653703948250040412e-04 -1.518799399491399527e-04 -1.412233104929327965e-04
2.220000000000000000e+03 5.868619441986083984e+00 1.933195495605468750e+01 5.129266646690666676e-04 1.116238854592666030e-05 1.572267065057530999e-04 9.081900498131290078e-05
2.221000000000000000e+03 6.897672176361083984e+00 1.516550636291503906e+01 -1.131855533458292484e-04 1.358317967969924212e-05 -2.988071355503052473e-05 -2.937765675596892834e-04
2.222000000000000000e+03 6.182665348052978516e+00 -1.943373680114746094e+01 2.871897595468908548e-05 9.794230572879314423e-04 3.024425823241472244e-04 -3.396434476599097252e-04
2.223000000000000000e+03 8.427700996398925781e+00 -1.980473899841308594e+01 -8.817634661681950092e-04 -2.276662708027288318e-04 -3.328289312776178122e-04 2.118095144396647811e-04
2.224000000000000000e+03 2.739025306701660156e+01 2.182448005676269531e+01 1.136463209986686707e-01 -1.925766617059707642e-01 -2.367910370230674744e-02 -2.943532466888427734e-01
2.225000000000000000e+03 2.793718910217285156e+01 -1.484207630157470703e+01 -2.355100587010383606e-02 5.666921734809875488e-01 1.629423350095748901e-01 8.298444747924804688e-02
2.226000000000000000e+03 6.437347412109375000e+00 -1.416490077972412109e+01 4.515440959949046373e-04 1.664643496042117476e-04 1.854025322245433927e-04 -3.631724393926560879e-04
2.227000000000000000e+03 2.556954765319824219e+01 2.423281288146972656e+01 3.147334977984428406e-02 -3.041798472404479980e-01 -8.181194961071014404e-02 -3.099209368228912354e-01
2.228000000000000000e+03 1.031768226623535156e+01 -2.849780464172363281e+01 -7.538718055002391338e-04 -1.039066934026777744e-03 -5.378816276788711548e-04 1.243983977474272251e-03
2.229000000000000000e+03 5.102993011474609375e+00 9.434285163879394531e+00 -1.887343969428911805e-04 -1.045991011778824031e-04 -8.800005161901935935e-05 8.874666673364117742e-05
2.230000000000000000e+03 6.429248809814453125e+00 8.667145729064941406e+00 2.232785918749868870e-04 -3.685181582113727927e-05 5.592803427134640515e-05 -5.656553184962831438e-05
2.231000000000000000e+03 5.927126884460449219e+00 8.177628517150878906e+00 -1.530525769339874387e-04 1.491833099862560630e-04 -1.160780129794147797e-06 -4.167559018242172897e-05
2.232000000000000000e+03 7.300421905517578125e+01 2.820928573608398438e+01 3.023125827312469482e-01 6.389293670654296875e+00 2.007481813430786133e+00 -8.008326292037963867e-01
2.233000000000000000e+03 7.177383422851562500e+01 2.911630821228027344e+01 3.946871459484100342e-01 6.649590015411376953e+00 2.113283157348632812e+00 -7.824869155883789062e-01
2.234000000000000000e+03 9.980833053588867188e+00 1.272119331359863281e+01 -1.735563855618238449e-04 -9.169397526420652866e-05 -7.957510388223454356e-05 8.242430340033024549e-05
2.235000000000000000e+03 6.587638378143310547e+00 -1.299524211883544922e+01 -4.545726405922323465e-04 -3.184358647558838129e-04 -2.319025516044348478e-04 3.319187380839139223e-04
2.236000000000000000e+03 7.216247558593750000e+00 8.907297134399414062e+00 -1.962207752512767911e-04 -7.403852214338257909e-05 -8.107778558041900396e-05 3.906991332769393921e-05
2.237000000000000000e+03 7.317191123962402344e+00 1.188767051696777344e+01 -1.138297520810738206e-04 -3.418564301682636142e-05 -4.440461998456157744e-05 1.569984306115657091e-05
2.238000000000000000e+03 7.919625759124755859e+00 -1.281100940704345703e+01 -4.025081871077418327e-04 -1.048032936523668468e-04 -1.521934464108198881e-04 1.806408254196867347e-04
2.239000000000000000e+03 5.863109111785888672e+00 -7.701920986175537109e+00 6.019609863869845867e-04 1.142910696216858923e-04 2.148756029782816768e-04 4.459181218408048153e-05
2.240000000000000000e+03 6.343545436859130859e+00 -6.831556797027587891e+00 -5.849787266924977303e-04 -8.272999548353254795e-05 -2.003126282943412662e-04 -1.239225980498304125e-06
2.241000000000000000e+03 2.853022384643554688e+01 -1.901584434509277344e+01 -1.939176768064498901e-02 7.410610914230346680e-01 2.165007889270782471e-01 6.555253267288208008e-02
2.242000000000000000e+03 2.708093643188476562e+01 -8.390263557434082031e+00 -1.625550910830497742e-02 3.127037584781646729e-01 8.893447369337081909e-02 1.046230569481849670e-01
2.243000000000000000e+03 2.621245765686035156e+01 -1.508899974822998047e+01 -2.306075580418109894e-02 2.504307627677917480e-01 6.821100413799285889e-02 6.667224317789077759e-02
2.244000000000000000e+03 2.698037910461425781e+01 6.997427940368652344e+00 2.761070616543292999e-02 -4.351528733968734741e-02 -4.771375097334384918e-03 1.032227501273155212e-01
2.245000000000000000e+03 2.594115257263183594e+01 4.264174461364746094e+00 -1.179944258183240891e-03 -1.857422143220901489e-01 -5.607664957642555237e-02 1.088748797774314880e-01
2.246000000000000000e+03 9.628966331481933594e+00 1.603241920471191406e+01 -9.960769239114597440e-05 -1.321829859080025926e-05 -3.384779483894817531e-05 1.814933202695101500e-04
2.247000000000000000e+03 8.878814697265625000e+00 -2.955857276916503906e+01 1.757739461027085781e-03 -2.294301521033048630e-03 -1.609686441952362657e-04 8.696936856722459197e-05
2.248000000000000000e+03 9.747903823852539062e+00 -1.420880317687988281e+01 -1.973406469915062189e-04 3.180596686434000731e-04 3.621570795075967908e-05 -7.973051833687350154e-05
2.249000000000000000e+03 1.083134078979492188e+01 2.983993721008300781e+01 -3.063902549911290407e-04 4.095238400623202324e-04 3.094007479376159608e-05 -7.033511064946651459e-04
2.250000000000000000e+03 2.686004447937011719e+01 -2.121885299682617188e+01 -7.968629710376262665e-03 4.579886496067047119e-01 1.350060105323791504e-01 3.822749853134155273e-02
2.251000000000000000e+03 2.477911186218261719e+01 -2.427534866333007812e+01 -2.963858714792877436e-04 9.759143739938735962e-02 2.918851561844348907e-02 9.756725281476974487e-03
2.252000000000000000e+03 2.770139694213867188e+01 3.343566179275512695e+00 2.987181302160024643e-03 1.899074912071228027e-01 5.786840245127677917e-02 1.491238027811050415e-01
2.253000000000000000e+03 2.684840774536132812e+01 2.505690097808837891e+00 -2.532416721805930138e-03 4.162829741835594177e-02 1.172876451164484024e-02 1.321139633655548096e-01
2.254000000000000000e+03 1.040049839019775391e+01 2.212856292724609375e+01 4.514812026172876358e-04 1.211776179843582213e-04 1.717976410873234272e-04 -3.019394353032112122e-05
2.255000000000000000e+03 2.631732368469238281e+01 1.980075263977050781e+01 1.089652776718139648e-01 -3.118378818035125732e-01 -6.086177751421928406e-02 -2.259811758995056152e-01
2.256000000000000000e+03 2.427108573913574219e+01 -2.852210426330566406e+01 -1.676815375685691833e-02 4.529219865798950195e-02 8.557213470339775085e-03 -1.811936125159263611e-02
2.257000000000000000e+03 2.610926055908203125e+01 -2.758684158325195312e+01 -2.975446917116641998e-02 3.385510146617889404e-01 9.263896197080612183e-02 1.176334824413061142e-02
2.258000000000000000e+03 1.172655773162841797e+01 3.477835464477539062e+01 1.199343707412481308e-03 1.369518577121198177e-04 4.008886753581464291e-04 -1.242697035195305943e-04
2.259000000000000000e+03 1.161723232269287109e+01 -6.843365669250488281e+00 -2.836869098246097565e-04 8.241113391704857349e-05 -6.038273204467259347e-05 2.767794467217754573e-05
2.260000000000000000e+03 8.728847503662109375e+00 -5.858107089996337891e+00 -3.301278629805892706e-04 6.742371624568477273e-05 -7.881124474806711078e-05 -8.615987462690100074e-05
2.261000000000000000e+03 1.007949447631835938e+01 2.696098136901855469e+01 -8.288575918413698673e-04 -4.693616938311606646e-05 -2.627381181810051203e-04 1.160384126706048846e-04
2.262000000000000000e+03 1.020567226409912109e+01 2.792314529418945312e+01 8.402743842452764511e-04 5.516704550245776772e-05 2.686324296519160271e-04 -3.719371743500232697e-04
2.263000000000000000e+03 7.257691192626953125e+01 -2.241750335693359375e+01 -3.604370355606079102e-02 8.498962402343750000e+00 2.538875579833984375e+00 -7.114143669605255127e-02
2.264000000000000000e+03 7.247581481933593750e+01 -1.530099201202392578e+01 -5.170736461877822876e-02 8.428942680358886719e+00 2.513170719146728516e+00 -1.278892606496810913e-01
2.265000000000000000e+03 9.025930404663085938e+00 -3.541486740112304688e+01 4.050991497933864594e-03 -6.673809140920639038e-03 -7.868452812545001507e-04 1.664953655563294888e-03
2.266000000000000000e+03 2.756369400024414062e+01 -3.672597110271453857e-01 -1.536524156108498573e-03 2.433900982141494751e-01 7.255607098340988159e-02 1.612420976161956787e-01
2.267000000000000000e+03 7.271084594726562500e+01 -8.551664352416992188e+00 -7.071889936923980713e-02 8.381612777709960938e+00 2.493268251419067383e+00 -2.102126181125640869e-01
2.268000000000000000e+03 4.674823760986328125e+01 4.149458694458007812e+01 5.870870351791381836e-01 3.450488090515136719e+00 1.211272478103637695e+00 -2.324976027011871338e-01
2.269000000000000000e+03 1.062245178222656250e+01 3.695409011840820312e+01 1.212751725688576698e-03 -8.176078699762001634e-05 3.392972867004573345e-04 3.699654480442404747e-04
2.270000000000000000e+03 1.014162158966064453e+01 3.515821456909179688e+01 -1.188783906400203705e-03 2.514382940717041492e-04 -2.812036836985498667e-04 -3.348359896335750818e-04
2.271000000000000000e+03 8.350843429565429688e+00 3.914036178588867188e+01 5.257306620478630066e-04 1.364749623462557793e-04 1.986616989597678185e-04 6.822274299338459969e-04
2.272000000000000000e+03 9.326450347900390625e+00 -1.206641960144042969e+01 -1.599297975189983845e-04 3.524986459524370730e-05 -3.740397733054123819e-05 -5.229187809163704515e-05
2.273000000000000000e+03 8.373202323913574219e+00 -1.350219440460205078e+01 -8.570171485189348459e-05 2.815274456224869937e-06 -2.486593257344793528e-05 3.914820990758016706e-05
2.274000000000000000e+03 7.012566089630126953e+00 -2.979798889160156250e+01 2.306414069607853889e-03 -1.430973643437027931e-03 2.626321511343121529e-04 -1.970061857718974352e-04
2.275000000000000000e+03 2.561728858947753906e+01 -3.005658149719238281e+01 -2.989057451486587524e-02 3.204878568649291992e-01 8.717918395996093750e-02 -1.194504182785749435e-02
2.276000000000000000e+03 7.159916400909423828e+00 -3.202542877197265625e+01 4.177719820290803909e-03 -2.695164177566766739e-03 4.447666869964450598e-04 8.681980543769896030e-04
2.277000000000000000e+03 4.925503921508789062e+01 2.956768608093261719e+01 3.238620281219482422e+00 2.353661060333251953e+00 1.677684426307678223e+00 3.601546525955200195e+00
2.278000000000000000e+03 4.683581542968750000e+01 2.832063865661621094e+01 1.692464709281921387e+00 1.291031599044799805e+00 8.950488567352294922e-01 1.835549831390380859e+00
2.279000000000000000e+03 4.923213577270507812e+01 2.914876174926757812e+01 3.004322528839111328e+00 3.059135675430297852e+00 1.819037437438964844e+00 3.861922025680541992e+00
2.280000000000000000e+03 5.264739608764648438e+01 2.819878196716308594e+01 6.294524669647216797e-01 1.404284286499023438e+01 4.401688575744628906e+00 2.870076656341552734e+00
2.281000000000000000e+03 5.317743301391601562e+01 2.780764961242675781e+01 3.656684458255767822e-01 1.413567066192626953e+01 4.350401878356933594e+00 1.816090583801269531e+00
2.282000000000000000e+03 5.137364196777343750e+01 3.595494079589843750e+01 -5.307791829109191895e-01 1.071538639068603516e+01 3.055382251739501953e+00 -2.989559650421142578e+00
2.283000000000000000e+03 5.127265930175781250e+01 2.850112915039062500e+01 1.588662505149841309e+00 1.085653972625732422e+01 3.733560800552368164e+00 5.130527973175048828e+00
2.284000000000000000e+03 5.339690399169921875e+01 3.610982513427734375e+01 -9.273683428764343262e-01 1.378242778778076172e+01 3.856518030166625977e+00 -5.673645734786987305e-01
2.285000000000000000e+03 4.748213195800781250e+01 2.809559822082519531e+01 1.994168043136596680e+00 1.870478868484497070e+00 1.159394025802612305e+00 2.375872611999511719e+00
2.286000000000000000e+03 4.792393493652343750e+01 2.866819572448730469e+01 2.130728244781494141e+00 1.818928837776184082e+00 1.184897184371948242e+00 2.504701137542724609e+00
2.287000000000000000e+03 5.312245178222656250e+01 3.946389389038085938e+01 -1.369514703750610352e+00 1.094949054718017578e+01 2.873992919921875000e+00 -8.945887684822082520e-01
2.288000000000000000e+03 5.382012939453125000e+01 3.548099136352539062e+01 -5.916229486465454102e-01 1.517178821563720703e+01 4.374049663543701172e+00 3.058222234249114990e-01
2.289000000000000000e+03 8.193855285644531250e+00 7.064608097076416016e+00 2.568963391240686178e-04 2.715735536185093224e-05 8.521611016476526856e-05 4.600267493515275419e-05
2.290000000000000000e+03 5.534241199493408203e+00 7.509419441223144531e+00 -1.759461702022235841e-05 -3.696831845445558429e-05 -1.636888009670656174e-05 6.137391028460115194e-05
2.291000000000000000e+03 2.720068550109863281e+01 2.856580352783203125e+01 -1.001802831888198853e-01 -8.970934152603149414e-02 -5.696688964962959290e-02 -3.468936979770660400e-01
2.292000000000000000e+03 7.795044422149658203e+00 5.881527900695800781e+00 -7.038917829049751163e-05 -1.185225301014725119e-05 -2.467243029968813062e-05 2.775788379949517548e-05
2.293000000000000000e+03 7.158710002899169922e+00 6.226062297821044922e+00 1.447785907657817006e-04 3.631722211139276624e-05 5.432874604593962431e-05 -4.222018469590693712e-05
2.294000000000000000e+03 2.644179916381835938e+01 2.554814720153808594e+01 1.027656905353069305e-02 -2.059305608272552490e-01 -5.869619920849800110e-02 -3.485055863857269287e-01
2.295000000000000000e+03 3.138828849792480469e+01 2.920962524414062500e+01 -2.379518300294876099e-01 6.861197948455810547e-02 -5.080195516347885132e-02 -3.862176835536956787e-01
2.296000000000000000e+03 3.136974525451660156e+01 2.995572090148925781e+01 -3.054560422897338867e-01 6.742880493402481079e-02 -7.140817493200302124e-02 -3.622387945652008057e-01
2.297000000000000000e+03 4.289749908447265625e+01 2.843074989318847656e+01 3.447052836418151855e-01 3.569667935371398926e-01 2.105016261339187622e-01 3.039987087249755859e-01
2.298000000000000000e+03 2.721386718750000000e+01 2.941295433044433594e+01 -1.312753707170486450e-01 -6.743553280830383301e-02 -5.961327254772186279e-02 -3.250095248222351074e-01
2.299000000000000000e+03 3.208172225952148438e+01 2.913427162170410156e+01 -2.481434047222137451e-01 8.444513380527496338e-02 -4.910948127508163452e-02 -3.879659771919250488e-01
2.300000000000000000e+03 3.141013526916503906e+01 2.846204185485839844e+01 -1.691373735666275024e-01 6.696116924285888672e-02 -3.065286390483379364e-02 -4.017617404460906982e-01
2.301000000000000000e+03 2.798344802856445312e+01 2.767658233642578125e+01 -7.559483498334884644e-02 -7.438303530216217041e-02 -4.499335959553718567e-02 -3.790467977523803711e-01
2.302000000000000000e+03 1.045752811431884766e+01 6.758111953735351562e+00 1.979770313482731581e-04 4.654474105336703360e-05 7.335653208428993821e-05 6.567001400981098413e-05
2.303000000000000000e+03 3.760110092163085938e+01 2.829832839965820312e+01 -1.195567846298217773e-01 2.118552476167678833e-01 2.768953889608383179e-02 -2.501353323459625244e-01
2.304000000000000000e+03 3.918545913696289062e+01 2.873214340209960938e+01 -1.752488166093826294e-01 2.163458913564682007e-01 1.232912577688694000e-02 -1.681410819292068481e-01
2.305000000000000000e+03 3.345951843261718750e+01 2.896955299377441406e+01 -2.581119239330291748e-01 1.154952794313430786e-01 -4.278499260544776917e-02 -3.803105056285858154e-01
2.306000000000000000e+03 3.626810455322265625e+01 2.923342323303222656e+01 -3.431498110294342041e-01 1.595611572265625000e-01 -5.507659167051315308e-02 -3.161083459854125977e-01
2.307000000000000000e+03 3.609553527832031250e+01 2.793279075622558594e+01 -8.660885691642761230e-02 2.088557332754135132e-01 3.667406365275382996e-02 -3.105671703815460205e-01
2.308000000000000000e+03 7.376077651977539062e+00 -5.919351577758789062e+00 -7.846390508348122239e-05 4.721688310382887721e-05 -9.374106411996763200e-06 -5.086263172415783629e-06
2.309000000000000000e+03 3.555992889404296875e+01 2.935945701599121094e+01 -3.570700585842132568e-01 1.426862925291061401e-01 -6.431513279676437378e-02 -3.358043730258941650e-01
2.310000000000000000e+03 3.619276809692382812e+01 2.857856559753417969e+01 -2.092828303575515747e-01 1.777496486902236938e-01 -9.459953755140304565e-03 -3.192939758300781250e-01
2.311000000000000000e+03 3.414001083374023438e+01 2.888629341125488281e+01 -2.559808492660522461e-01 1.308216303586959839e-01 -3.754776716232299805e-02 -3.711790144443511963e-01
2.312000000000000000e+03 3.481956481933593750e+01 2.880027770996093750e+01 -2.489743679761886597e-01 1.428456306457519531e-01 -3.183861821889877319e-02 -3.613638579845428467e-01
2.313000000000000000e+03 5.164609909057617188e+01 3.458157730102539062e+01 -2.141369730234146118e-01 1.287442016601562500e+01 3.798084735870361328e+00 -4.069657802581787109e+00
2.314000000000000000e+03 5.217767333984375000e+01 3.492616271972656250e+01 -8.260035514831542969e-01 1.450111007690429688e+01 4.102531909942626953e+00 -2.644654035568237305e+00
2.315000000000000000e+03 1.077975368499755859e+01 -7.033240318298339844e+00 2.811890444718301296e-04 1.119133776228409261e-05 8.771411376073956490e-05 -1.247100590262562037e-04
2.316000000000000000e+03 3.729951095581054688e+01 2.692721366882324219e+01 1.559244543313980103e-01 2.900065183639526367e-01 1.337792873382568359e-01 -1.994602978229522705e-01
2.317000000000000000e+03 3.984899139404296875e+01 2.798010635375976562e+01 9.681367874145507812e-02 2.955276668071746826e-01 1.177024021744728088e-01 -5.997781082987785339e-02
2.318000000000000000e+03 4.536469650268554688e+01 2.788690757751464844e+01 1.259629011154174805e+00 9.625674486160278320e-01 6.666589379310607910e-01 1.222559213638305664e+00
2.319000000000000000e+03 4.217343139648437500e+01 2.846368789672851562e+01 2.040732502937316895e-01 3.209107220172882080e-01 1.574951857328414917e-01 1.719636321067810059e-01
2.320000000000000000e+03 4.480588912963867188e+01 2.731608200073242188e+01 1.195896387100219727e+00 1.020958542823791504e+00 6.650564670562744141e-01 1.140255928039550781e+00
2.321000000000000000e+03 4.060499954223632812e+01 2.791376113891601562e+01 1.946186572313308716e-01 3.240655064582824707e-01 1.556052416563034058e-01 3.021112643182277679e-02
2.322000000000000000e+03 4.135966110229492188e+01 2.786379432678222656e+01 3.068162500858306885e-01 3.705198466777801514e-01 2.032008320093154907e-01 1.396360695362091064e-01
2.323000000000000000e+03 4.481857681274414062e+01 2.785136985778808594e+01 1.086638450622558594e+00 7.789688706398010254e-01 5.596821904182434082e-01 9.917379021644592285e-01
2.324000000000000000e+03 1.153760814666748047e+01 5.700766563415527344e+00 2.078661636915057898e-04 2.015027166635263711e-05 6.840493006166070700e-05 3.370912963873706758e-05
2.325000000000000000e+03 1.140859317779541016e+01 7.905972480773925781e+00 2.085027808789163828e-04 5.257227167021483183e-05 7.832251139916479588e-05 4.273894592188298702e-05
2.326000000000000000e+03 1.123936843872070312e+01 -5.981472492218017578e+00 1.643217401579022408e-04 -2.575255057308822870e-04 -2.796113039948977530e-05 2.036788064287975430e-04
2.327000000000000000e+03 1.054149723052978516e+01 -6.372262477874755859e+00 -1.273293601116165519e-04 2.893776982091367245e-04 4.861450361204333603e-05 -2.481704577803611755e-04
2.328000000000000000e+03 8.763930320739746094e+00 1.138450336456298828e+01 -1.925470278365537524e-04 -1.120138913393020630e-04 -9.136828157352283597e-05 -3.769604154513217509e-05
2.329000000000000000e+03 7.207859039306640625e+00 1.336547756195068359e+01 1.060731883626431227e-04 -4.153098416281864047e-05 1.936266016855370253e-05 -1.803721679607406259e-04
2.330000000000000000e+03 5.488091659545898438e+01 3.739541244506835938e+01 -9.785583019256591797e-01 1.307112026214599609e+01 3.627768516540527344e+00 3.445225656032562256e-01
2.331000000000000000e+03 9.784097671508789062e+00 1.432623958587646484e+01 7.258017285494133830e-05 -6.891642260598018765e-05 1.099124574466259219e-06 2.329454728169366717e-04
2.332000000000000000e+03 7.850405693054199219e+00 1.738195419311523438e+01 -5.841701204190030694e-05 -5.510274786502122879e-05 -3.405592724448069930e-05 1.674938175710849464e-06
2.333000000000000000e+03 7.525966167449951172e+00 -1.436355209350585938e+01 -3.694327897392213345e-04 -1.220897829625755548e-04 -1.474567689001560211e-04 3.925558412447571754e-04
2.334000000000000000e+03 9.033095359802246094e+00 -1.119601440429687500e+01 -2.679154567886143923e-05 1.434294972568750381e-04 3.499138620099984109e-05 1.277205010410398245e-04
2.335000000000000000e+03 5.506702423095703125e+01 2.853713607788085938e+01 2.184121608734130859e+00 1.365802764892578125e+01 4.752644538879394531e+00 -8.719421029090881348e-01
2.336000000000000000e+03 5.540220260620117188e+01 2.956524848937988281e+01 3.960900068283081055e+00 1.355042457580566406e+01 5.253397464752197266e+00 -1.269713759422302246e+00
2.337000000000000000e+03 1.022866249084472656e+01 9.083451271057128906e+00 2.296844759257510304e-04 5.885390055482275784e-05 8.656151476316154003e-05 4.567656651488505304e-05
2.338000000000000000e+03 5.846306991577148438e+01 3.239977264404296875e+01 3.482289075851440430e+00 1.071416854858398438e+01 4.258937358856201172e+00 6.251143217086791992e-01
2.339000000000000000e+03 2.898211288452148438e+01 5.562262058258056641e+00 3.882326930761337280e-02 4.201758801937103271e-01 1.376997381448745728e-01 1.722925007343292236e-01
2.340000000000000000e+03 5.879272937774658203e+00 9.248712539672851562e+00 -1.278459822060540318e-04 1.823118800530210137e-04 1.633977080928161740e-05 -4.623834684025496244e-05
2.341000000000000000e+03 9.905035972595214844e+00 1.155486392974853516e+01 2.356092154514044523e-04 1.140664317063055933e-04 1.049026905093342066e-04 -1.361229169560829177e-05
2.342000000000000000e+03 7.300624084472656250e+01 1.273785877227783203e+01 -1.619178056716918945e-01 7.599701881408691406e+00 2.231335163116455078e+00 -8.918038010597229004e-01
2.343000000000000000e+03 7.288365936279296875e+01 1.531161880493164062e+01 -1.337295472621917725e-01 7.423674106597900391e+00 2.186983346939086914e+00 -9.907128214836120605e-01
2.344000000000000000e+03 1.165791225433349609e+01 -7.939217567443847656e+00 3.065892378799617290e-04 4.148737571085803211e-05 1.044229866238310933e-04 -6.021119042998179793e-05
2.345000000000000000e+03 1.011805915832519531e+01 -1.108141708374023438e+01 2.860984532162547112e-04 7.578010990982875228e-05 1.085635667550377548e-04 -2.292299468535929918e-04
2.346000000000000000e+03 1.018538951873779297e+01 -9.933172225952148438e+00 -2.664123894646763802e-04 -2.377784403506666422e-04 -1.512572489446029067e-04 1.409170508850365877e-04
2.347000000000000000e+03 7.011411666870117188e+00 1.781700134277343750e+01 3.732914046850055456e-04 2.447813858452718705e-05 1.193308635265566409e-04 1.672451253398321569e-05
2.348000000000000000e+03 9.691523551940917969e+00 1.851381111145019531e+01 1.443080254830420017e-04 1.790231181075796485e-04 9.699934162199497223e-05 7.409035788441542536e-06
2.349000000000000000e+03 7.260967254638671875e+01 5.094706535339355469e+00 -1.653627902269363403e-01 7.997618198394775391e+00 2.349676609039306641e+00 -5.948587059974670410e-01
2.350000000000000000e+03 7.238083648681640625e+01 7.334872722625732422e+00 -1.925174295902252197e-01 7.896803379058837891e+00 2.311285734176635742e+00 -6.917473673820495605e-01
2.351000000000000000e+03 7.201297760009765625e+01 2.309478378295898438e+01 1.331816911697387695e-01 6.971506595611572266e+00 2.131406545639038086e+00 -1.136002302169799805e+00
2.352000000000000000e+03 7.232931518554687500e+01 -2.117490959167480469e+01 -3.461373224854469299e-02 8.436702728271484375e+00 2.520626544952392578e+00 -7.943819463253021240e-02
2.353000000000000000e+03 7.169676208496093750e+01 -2.592109870910644531e+01 -2.293562889099121094e-02 8.366285324096679688e+00 2.503004789352416992e+00 -4.038650169968605042e-02
2.354000000000000000e+03 5.780296707153320312e+01 3.786012268066406250e+01 -3.924326300621032715e-01 1.238402748107910156e+01 3.597478389739990234e+00 1.253705024719238281e+00
2.355000000000000000e+03 2.841131210327148438e+01 -8.343220710754394531e+00 -2.018164843320846558e-02 5.668113827705383301e-01 1.639889180660247803e-01 1.262566745281219482e-01
2.356000000000000000e+03 2.711026954650878906e+01 -7.139277458190917969e+00 -1.276667043566703796e-02 3.031739592552185059e-01 8.712218701839447021e-02 1.140407174825668335e-01
2.357000000000000000e+03 9.838068962097167969e+00 -7.615015029907226562e+00 2.575250109657645226e-04 1.330254017375409603e-04 1.171651238109916449e-04 -3.336955851409584284e-04
2.358000000000000000e+03 7.225612640380859375e+01 -1.505314588546752930e+00 -1.341844350099563599e-01 8.169361114501953125e+00 2.410552978515625000e+00 -3.852790296077728271e-01
2.359000000000000000e+03 6.970200347900390625e+01 -3.690272092819213867e+00 -1.797837466001510620e-01 7.907342910766601562e+00 2.318267822265625000e+00 -3.590213358402252197e-01
2.360000000000000000e+03 7.236118316650390625e+01 3.258822858333587646e-02 -1.419686079025268555e-01 8.139041900634765625e+00 2.399121999740600586e+00 -4.245350956916809082e-01
2.361000000000000000e+03 9.853756904602050781e+00 2.491325759887695312e+01 -6.547321099787950516e-04 7.863568316679447889e-05 -1.728289207676425576e-04 -1.633292777114547789e-05
2.362000000000000000e+03 3.114218521118164062e+01 -1.875957870483398438e+01 -3.719512373208999634e-02 1.195451855659484863e+00 3.474770188331604004e-01 9.194634854793548584e-02
2.363000000000000000e+03 2.810523796081542969e+01 -1.770678710937500000e+01 -2.255249395966529846e-02 6.135948896408081055e-01 1.773127168416976929e-01 7.440309971570968628e-02
2.364000000000000000e+03 6.407521247863769531e+00 -1.003294086456298828e+01 -3.023372555617243052e-04 -1.250710738531779498e-05 -9.445330942980945110e-05 -3.767591260839253664e-05
2.365000000000000000e+03 7.277884674072265625e+01 -2.577572059631347656e+01 -1.042879372835159302e-02 8.575369834899902344e+00 2.569482326507568359e+00 -4.441959783434867859e-02
2.366000000000000000e+03 9.785854339599609375e+00 -1.916040992736816406e+01 -8.793275919742882252e-04 -3.786928427871316671e-04 -3.774061333388090134e-04 3.945713106077164412e-04
2.367000000000000000e+03 8.939593315124511719e+00 -2.122731018066406250e+01 -1.098794629797339439e-03 -1.399612519890069962e-04 -3.716267528943717480e-04 5.563016748055815697e-04
2.368000000000000000e+03 7.083332824707031250e+01 -1.674658966064453125e+01 -6.132989004254341125e-02 8.157541275024414062e+00 2.428863525390625000e+00 -1.238109916448593140e-01
2.369000000000000000e+03 7.159945678710937500e+01 -1.000504112243652344e+01 -7.753579318523406982e-02 8.239874839782714844e+00 2.448701620101928711e+00 -2.050833106040954590e-01
2.370000000000000000e+03 7.116102600097656250e+01 -4.678858757019042969e+00 -1.344060152769088745e-01 8.105527877807617188e+00 2.391336679458618164e+00 -3.184896707534790039e-01
2.371000000000000000e+03 7.176689147949218750e+01 1.268605899810791016e+01 -2.125498503446578979e-01 7.660143375396728516e+00 2.234277963638305664e+00 -9.525432586669921875e-01
2.372000000000000000e+03 7.301911163330078125e+01 2.068560791015625000e+01 5.191573873162269592e-03 6.958549022674560547e+00 2.089122056961059570e+00 -1.078820228576660156e+00
2.373000000000000000e+03 7.163624572753906250e+01 1.800642395019531250e+01 -9.584182500839233398e-02 7.376445770263671875e+00 2.184181213378906250e+00 -1.162960648536682129e+00
2.374000000000000000e+03 7.262305450439453125e+01 -7.229220390319824219e+00 -7.958160340785980225e-02 8.350924491882324219e+00 2.481402873992919922e+00 -2.385210990905761719e-01
2.375000000000000000e+03 7.080424499511718750e+01 5.018334865570068359e+00 -2.380097359418869019e-01 7.907382011413574219e+00 2.300811529159545898e+00 -6.425821185111999512e-01
2.376000000000000000e+03 6.170020580291748047e+00 2.417521667480468750e+01 9.852275979937985539e-05 -6.751027103746309876e-05 9.303746992372907698e-06 9.897352720145136118e-05
2.377000000000000000e+03 2.702215194702148438e+01 9.642663002014160156e+00 6.546342372894287109e-02 -9.638078510761260986e-02 -9.275209158658981323e-03 6.252592056989669800e-02
2.378000000000000000e+03 2.717904090881347656e+01 1.509852695465087891e+01 1.265226155519485474e-01 -1.746041178703308105e-01 -1.442445255815982819e-02 -6.742273271083831787e-02
2.379000000000000000e+03 2.777922439575195312e+01 1.943704795837402344e+01 1.591680645942687988e-01 -1.448483467102050781e-01 4.295916296541690826e-03 -2.150420248508453369e-01
2.380000000000000000e+03 3.075958442687988281e+01 2.774390029907226562e+01 -1.030105799436569214e-01 4.457949101924896240e-02 -1.752932555973529816e-02 -4.059711098670959473e-01
2.381000000000000000e+03 2.935059356689453125e+01 1.198303031921386719e+01 1.480403244495391846e-01 2.679759860038757324e-01 1.248048916459083557e-01 7.525595277547836304e-02
2.382000000000000000e+03 3.038915634155273438e+01 1.816515731811523438e+01 2.691782414913177490e-01 2.098078131675720215e-01 1.436958163976669312e-01 -1.042098626494407654e-01
2.383000000000000000e+03 8.636379241943359375e+00 -1.781116676330566406e+01 -6.482208846136927605e-04 -3.939259622711688280e-04 -3.126440569758415222e-04 2.971254871226847172e-04
2.384000000000000000e+03 2.914755058288574219e+01 1.878229713439941406e+01 2.171009927988052368e-01 3.510465100407600403e-02 7.566168904304504395e-02 -1.660035103559494019e-01
2.385000000000000000e+03 2.748484802246093750e+01 1.794100952148437500e+01 1.483056545257568359e-01 -1.697171032428741455e-01 -6.423434242606163025e-03 -1.606211066246032715e-01
2.386000000000000000e+03 6.607928276062011719e+00 -1.653170967102050781e+01 1.831320842029526830e-04 -2.680433317436836660e-05 4.689832348958589137e-05 -4.609987663570791483e-04
2.387000000000000000e+03 7.259393310546875000e+01 -1.389343261718750000e+01 -4.683006554841995239e-02 8.434014320373535156e+00 2.516155242919921875e+00 -1.378256380558013916e-01
2.388000000000000000e+03 8.657055854797363281e+00 1.672883033752441406e+01 3.248683060519397259e-05 5.699565372196957469e-05 2.684474566194694489e-05 -1.089752040570601821e-04
2.389000000000000000e+03 7.895440578460693359e+00 1.941390037536621094e+01 1.562859251862391829e-04 2.128329069819301367e-04 1.107356511056423187e-04 -1.162556363851763308e-04
2.390000000000000000e+03 7.008042335510253906e+00 -2.008026885986328125e+01 -1.948682765942066908e-04 -7.998640649020671844e-04 -2.984197053592652082e-04 2.988356573041528463e-04
2.391000000000000000e+03 7.174231529235839844e+00 -1.211893653869628906e+01 2.194598200730979443e-04 3.412187215872108936e-04 1.682035654084756970e-04 -2.938487159553915262e-04
2.392000000000000000e+03 8.596380233764648438e+00 -1.240314769744873047e+01 2.378529170528054237e-04 3.711818499141372740e-05 8.249132952187210321e-05 -9.281939128413796425e-05
2.393000000000000000e+03 2.827458572387695312e+01 1.350715065002441406e+01 1.425813883543014526e-01 3.599958866834640503e-02 5.357429385185241699e-02 2.828958211466670036e-03
2.394000000000000000e+03 2.642649078369140625e+01 2.862526130676269531e+01 -8.537388592958450317e-02 -1.195566728711128235e-01 -6.147916615009307861e-02 -3.244965076446533203e-01
2.395000000000000000e+03 2.963721084594726562e+01 -2.666684865951538086e+00 -1.621571928262710571e-02 7.151100635528564453e-01 2.096682935953140259e-01 1.856640875339508057e-01
2.396000000000000000e+03 9.585837364196777344e+00 -2.266533851623535156e+01 -1.511696842499077320e-03 1.988505682675167918e-04 -3.938538720831274986e-04 4.892148426733911037e-04
2.397000000000000000e+03 9.942507743835449219e+00 -2.166746139526367188e+01 1.377583830617368221e-03 -7.198178354883566499e-05 3.916806017514318228e-04 -3.789743641391396523e-04
2.398000000000000000e+03 8.846940040588378906e+00 -2.573414611816406250e+01 1.695150858722627163e-03 1.373833511024713516e-04 5.497602978721261024e-04 -9.247261332347989082e-04
2.399000000000000000e+03 9.783024787902832031e+00 -2.385511398315429688e+01 1.436952967196702957e-03 -3.885610494762659073e-04 3.145175869576632977e-04 -3.399283450562506914e-04
2.400000000000000000e+03 8.786601066589355469e+00 -1.549930858612060547e+01 -4.649407637771219015e-04 1.968230208149179816e-05 -1.335775305051356554e-04 4.251576901879161596e-04
2.401000000000000000e+03 2.820989990234375000e+01 1.218759059906005859e+01 1.227892190217971802e-01 6.198313459753990173e-02 5.543170869350433350e-02 3.642725571990013123e-02
2.402000000000000000e+03 9.400138854980468750e+00 -5.807495594024658203e+00 1.168956223409622908e-04 1.389330573147162795e-04 7.674860535189509392e-05 5.022789264330640435e-05
2.403000000000000000e+03 8.768853187561035156e+00 -6.700364112854003906e+00 2.901946427300572395e-04 -4.712037116405554116e-05 7.292228110600262880e-05 6.293787009781226516e-05
2.404000000000000000e+03 9.045884132385253906e+00 -2.713898086547851562e+01 -4.584399866871535778e-04 -9.145574877038598061e-04 -4.118992364965379238e-04 1.042602816596627235e-03
2.405000000000000000e+03 6.794433593750000000e+00 1.067758274078369141e+01 -2.642305626068264246e-04 4.020003689220175147e-05 -6.720915553160011768e-05 3.408114935155026615e-05
2.406000000000000000e+03 2.912720108032226562e+01 2.269470405578613281e+01 1.573111712932586670e-01 -2.890578284859657288e-02 3.852161765098571777e-02 -3.163178265094757080e-01
2.407000000000000000e+03 7.406678676605224609e+00 -2.611777496337890625e+01 -5.629656370729207993e-04 -3.737787192221730947e-04 -2.810232981573790312e-04 9.883189341053366661e-04
2.408000000000000000e+03 2.722618865966796875e+01 -5.884014129638671875e+00 -7.469621021300554276e-03 2.978482842445373535e-01 8.711360394954681396e-02 1.231389194726943970e-01
2.409000000000000000e+03 2.970046997070312500e+01 1.993004035949707031e+01 2.323115170001983643e-01 6.945566833019256592e-02 9.053015708923339844e-02 -2.013524174690246582e-01
2.410000000000000000e+03 2.840375900268554688e+01 2.073808288574218750e+01 1.680957525968551636e-01 -8.891710638999938965e-02 2.375359274446964264e-02 -2.553659379482269287e-01
2.411000000000000000e+03 2.829359436035156250e+01 2.243833923339843750e+01 1.350916326045989990e-01 -9.751452505588531494e-02 1.127313263714313507e-02 -3.154158592224121094e-01
2.412000000000000000e+03 2.698486328125000000e+01 5.724904537200927734e+00 2.021070383489131927e-02 -1.783182285726070404e-02 7.136643980629742146e-04 1.141198128461837769e-01
2.413000000000000000e+03 2.813071823120117188e+01 6.937208175659179688e+00 3.636955842375755310e-02 1.795732229948043823e-01 6.478283554315567017e-02 1.297132074832916260e-01
2.414000000000000000e+03 8.313076972961425781e+00 3.344913482666015625e+01 -8.796684560365974903e-04 1.780273451004177332e-04 -2.104923332808539271e-04 -4.835690488107502460e-04
2.415000000000000000e+03 2.894255065917968750e+01 -1.172765064239501953e+01 -3.279690071940422058e-02 7.370969057083129883e-01 2.112900167703628540e-01 1.208641380071640015e-01
2.416000000000000000e+03 2.947200393676757812e+01 -1.296555805206298828e+01 -4.242705181241035461e-02 8.434384465217590332e-01 2.403034269809722900e-01 1.135118231177330017e-01
2.417000000000000000e+03 7.240692138671875000e+01 -3.019087791442871094e+01 -1.133081410080194473e-02 8.504351615905761719e+00 2.547906160354614258e+00 -2.889453060925006866e-02
2.418000000000000000e+03 2.715513610839843750e+01 4.463919162750244141e+00 1.134574506431818008e-02 5.842736735939979553e-02 2.093193307518959045e-02 1.334439367055892944e-01
2.419000000000000000e+03 7.746147632598876953e+00 1.100023269653320312e+01 1.836208393797278404e-04 6.426134495995938778e-05 7.436465239152312279e-05 -3.189612471032887697e-05
2.420000000000000000e+03 7.192261505126953125e+01 2.201420021057128906e+01 6.821935623884201050e-02 7.069377899169921875e+00 2.141279220581054688e+00 -1.165687680244445801e+00
2.421000000000000000e+03 7.163562011718750000e+01 1.937391853332519531e+01 -4.230140149593353271e-02 7.281308174133300781e+00 2.171701908111572266e+00 -1.184267759323120117e+00
2.422000000000000000e+03 7.171166992187500000e+01 -2.782902336120605469e+01 -1.126939244568347931e-02 8.374594688415527344e+00 2.508997678756713867e+00 -3.779216110706329346e-02
2.423000000000000000e+03 2.744113731384277344e+01 -1.215902805328369141e+01 -2.296379394829273224e-02 4.524869918823242188e-01 1.288569569587707520e-01 8.965367078781127930e-02
2.424000000000000000e+03 8.775657653808593750e+00 3.025456047058105469e+01 -6.990629481151700020e-04 4.549071018118411303e-04 -7.324675243580713868e-05 -5.905965808779001236e-04
2.425000000000000000e+03 2.890205955505371094e+01 -1.033004879951477051e+00 -1.371923927217721939e-02 5.332072377204895020e-01 1.558464020490646362e-01 1.773182749748229980e-01
2.426000000000000000e+03 7.149282073974609375e+01 2.564941787719726562e+01 3.002420365810394287e-01 6.878176212310791016e+00 2.153525590896606445e+00 -1.055520296096801758e+00
2.427000000000000000e+03 1.013410854339599609e+01 -3.102268409729003906e+01 1.208190733450464904e-04 -2.146890386939048767e-03 -6.078214501030743122e-04 2.646343782544136047e-04
2.428000000000000000e+03 7.149731445312500000e+01 1.677962422370910645e+00 -1.830513179302215576e-01 8.024419784545898438e+00 2.352410554885864258e+00 -5.014353990554809570e-01
2.429000000000000000e+03 6.995230865478515625e+01 -7.471947073936462402e-01 -2.057160437107086182e-01 7.919949054718017578e+00 2.314269781112670898e+00 -4.444175660610198975e-01
2.430000000000000000e+03 3.000380897521972656e+01 2.932297325134277344e+01 -2.089602351188659668e-01 2.922841534018516541e-02 -5.391954630613327026e-02 -3.762153983116149902e-01
2.431000000000000000e+03 2.945996284484863281e+01 1.750022411346435547e+00 1.173483580350875854e-02 5.893514752388000488e-01 1.803258806467056274e-01 2.055691182613372803e-01
2.432000000000000000e+03 2.819055366516113281e+01 4.880629062652587891e+00 2.705252729356288910e-02 2.748465240001678467e-01 9.056971967220306396e-02 1.549142003059387207e-01
2.433000000000000000e+03 7.167494964599609375e+01 6.049104213714599609e+00 -2.090107947587966919e-01 7.917813301086425781e+00 2.312640666961669922e+00 -6.626768112182617188e-01
2.434000000000000000e+03 7.119713592529296875e+01 -6.052506446838378906e+00 -1.225940287113189697e-01 8.131061553955078125e+00 2.402540206909179688e+00 -2.875481843948364258e-01
2.435000000000000000e+03 7.135488128662109375e+01 -8.756463050842285156e+00 -9.143406897783279419e-02 8.186244010925292969e+00 2.428442955017089844e+00 -2.287912368774414062e-01
2.436000000000000000e+03 1.222064113616943359e+01 3.300759887695312500e+01 4.384854983072727919e-04 4.468930128496140242e-04 2.656135475262999535e-04 -4.894398734904825687e-04
2.437000000000000000e+03 2.859356689453125000e+01 7.396487593650817871e-01 9.852884337306022644e-03 4.363571703433990479e-01 1.338630169630050659e-01 1.863710433244705200e-01
2.438000000000000000e+03 6.484914302825927734e+00 3.680094146728515625e+01 3.802038263529539108e-04 2.455384528730064631e-04 1.877226750366389751e-04 6.327180308289825916e-04
2.439000000000000000e+03 8.007425308227539062e+00 2.664118385314941406e+01 -6.002319059916771948e-05 -1.219719997607171535e-04 -5.459855674416758120e-05 1.008011604426428676e-04
2.440000000000000000e+03 7.149829864501953125e+01 1.392043685913085938e+01 -2.124500125646591187e-01 7.618459224700927734e+00 2.221802711486816406e+00 -1.028373241424560547e+00
2.441000000000000000e+03 7.292572784423828125e+01 1.402152633666992188e+01 -1.452676504850387573e-01 7.509845256805419922e+00 2.209373235702514648e+00 -9.461525678634643555e-01
2.442000000000000000e+03 7.108155059814453125e+01 -1.522643756866455078e+01 -6.602545082569122314e-02 8.195462226867675781e+00 2.438831090927124023e+00 -1.282651871442794800e-01
2.443000000000000000e+03 6.975537872314453125e+01 -2.033098602294921875e+01 -5.174264311790466309e-02 8.014710426330566406e+00 2.388890504837036133e+00 -1.002922952175140381e-01
2.444000000000000000e+03 7.167630004882812500e+01 2.077194023132324219e+01 1.367440540343523026e-02 7.179733753204345703e+00 2.158022403717041016e+00 -1.183838963508605957e+00
2.445000000000000000e+03 2.572688102722167969e+01 -2.884738349914550781e+01 -2.152232080698013306e-02 3.085527122020721436e-01 8.610911667346954346e-02 4.049394745379686356e-03
2.446000000000000000e+03 9.101594924926757812e+00 -2.842911338806152344e+01 2.489903476089239120e-03 1.053848653100430965e-03 1.063125673681497574e-03 -2.670588670298457146e-03
2.447000000000000000e+03 8.113942146301269531e+00 -3.073931694030761719e+01 2.058165613561868668e-03 -4.193480126559734344e-04 4.916453035548329353e-04 -3.039286457351408899e-05
2.448000000000000000e+03 7.076706695556640625e+01 -2.915377807617187500e+01 -1.954364590346813202e-02 8.212726593017578125e+00 2.457954883575439453e+00 -2.667728438973426819e-02
2.449000000000000000e+03 9.137713432312011719e+00 -1.321788406372070312e+01 -2.299633633811026812e-04 -2.869752825063187629e-05 -7.759826985420659184e-05 1.179551545646972954e-04
2.450000000000000000e+03 8.621723175048828125e+00 -1.441462707519531250e+01 3.092679544351994991e-04 -8.176638948498293757e-05 6.825046875746920705e-05 -2.331851719645783305e-04
2.451000000000000000e+03 2.771799850463867188e+01 -1.344993877410888672e+01 -2.962473034858703613e-02 5.123961567878723145e-01 1.448314338922500610e-01 8.699036389589309692e-02
2.452000000000000000e+03 7.096986770629882812e+00 2.060453605651855469e+01 4.736657720059156418e-04 7.193053897935897112e-05 1.636788947507739067e-04 8.897890074877068400e-05
2.453000000000000000e+03 9.795113563537597656e+00 -1.276846027374267578e+01 3.386261523701250553e-04 2.265285584144294262e-04 1.695464161457493901e-04 -6.928969378350302577e-05
2.454000000000000000e+03 9.432480812072753906e+00 2.383465194702148438e+01 4.641651175916194916e-04 8.582225564168766141e-05 1.649962068768218160e-04 7.262611325131729245e-05
2.455000000000000000e+03 7.722489356994628906e+00 2.305620193481445312e+01 4.213996580801904202e-04 2.149201172869652510e-04 1.908959384309127927e-04 -6.569093238795176148e-05
2.456000000000000000e+03 2.635972976684570312e+01 -2.611588668823242188e+01 -1.252945885062217712e-02 3.788410425186157227e-01 1.098934784531593323e-01 1.212595961987972260e-02
2.457000000000000000e+03 9.527154922485351562e+00 -3.769485855102539062e+01 -1.854207948781549931e-03 -8.713541552424430847e-03 -3.170324722304940224e-03 1.022338028997182846e-02
2.458000000000000000e+03 1.129170227050781250e+01 -3.771153259277343750e+01 1.062875334173440933e-02 -1.179492473602294922e-02 -3.498512378428131342e-04 1.276857033371925354e-02
2.459000000000000000e+03 4.868352127075195312e+01 2.857152175903320312e+01 2.487606525421142578e+00 2.737489223480224609e+00 1.567528605461120605e+00 3.369039773941040039e+00
2.460000000000000000e+03 4.881130981445312500e+01 2.926622581481933594e+01 2.742726564407348633e+00 2.248198747634887695e+00 1.497277617454528809e+00 3.123658657073974609e+00
2.461000000000000000e+03 4.828566360473632812e+01 2.830493545532226562e+01 2.354176044464111328e+00 2.480529069900512695e+00 1.450411438941955566e+00 3.024072885513305664e+00
2.462000000000000000e+03 5.306565856933593750e+01 2.876083374023437500e+01 8.860088586807250977e-01 1.627928352355957031e+01 5.149587631225585938e+00 1.733127117156982422e+00
2.463000000000000000e+03 4.584201431274414062e+01 2.806037902832031250e+01 1.381313204765319824e+00 9.978024959564208984e-01 7.137347459793090820e-01 1.391266345977783203e+00
2.464000000000000000e+03 5.095910263061523438e+01 2.898066520690917969e+01 2.319597482681274414e+00 9.803589820861816406e+00 3.636956214904785156e+00 5.923453807830810547e+00
2.465000000000000000e+03 5.111138153076171875e+01 2.752182388305664062e+01 1.076462149620056152e+00 9.716624259948730469e+00 3.237926006317138672e+00 4.341364860534667969e+00
2.466000000000000000e+03 4.644685363769531250e+01 2.688570022583007812e+01 1.683025240898132324e+00 1.959553360939025879e+00 1.092773556709289551e+00 2.055881738662719727e+00
2.467000000000000000e+03 5.358851623535156250e+01 2.831935119628906250e+01 1.013863325119018555e+00 1.500429344177246094e+01 4.805447101593017578e+00 6.169372200965881348e-01
2.468000000000000000e+03 5.558331680297851562e+01 2.745922088623046875e+01 1.278331398963928223e+00 1.263142395019531250e+01 4.172926425933837891e+00 -7.000272274017333984e-01
2.469000000000000000e+03 5.265708541870117188e+01 3.667023849487304688e+01 -1.192243814468383789e+00 1.268658161163330078e+01 3.448301315307617188e+00 -1.584293603897094727e+00
2.470000000000000000e+03 3.908768081665039062e+01 2.806785202026367188e+01 1.375098340213298798e-02 2.602968215942382812e-01 8.221434056758880615e-02 -1.369852274656295776e-01
2.471000000000000000e+03 3.973579025268554688e+01 2.731958961486816406e+01 2.650960385799407959e-01 3.583931326866149902e-01 1.870467513799667358e-01 -7.004978600889444351e-03
2.472000000000000000e+03 5.432390975952148438e+01 3.618441772460937500e+01 -7.100824117660522461e-01 1.406763553619384766e+01 4.007266044616699219e+00 4.729396998882293701e-01
2.473000000000000000e+03 5.307269668579101562e+01 3.785293579101562500e+01 -1.344539523124694824e+00 1.194999217987060547e+01 3.181635856628417969e+00 -9.704464077949523926e-01
2.474000000000000000e+03 3.072767257690429688e+01 2.851216888427734375e+01 -1.630592495203018188e-01 4.686597734689712524e-02 -3.485798090696334839e-02 -3.989134132862091064e-01
2.475000000000000000e+03 2.860923194885253906e+01 2.937780952453613281e+01 -1.713835597038269043e-01 -1.702882722020149231e-02 -5.652371793985366821e-02 -3.558757901191711426e-01
2.476000000000000000e+03 3.077904510498046875e+01 2.694059371948242188e+01 -3.700101748108863831e-02 4.646487534046173096e-02 2.839158289134502411e-03 -4.050055444240570068e-01
2.477000000000000000e+03 3.278717422485351562e+01 2.832758522033691406e+01 -1.692347228527069092e-01 1.077812016010284424e-01 -1.843605749309062958e-02 -3.955776095390319824e-01
2.478000000000000000e+03 3.277339553833007812e+01 2.905295562744140625e+01 -2.549800574779510498e-01 1.030014008283615112e-01 -4.559359699487686157e-02 -3.855036497116088867e-01
2.479000000000000000e+03 4.353471755981445312e+01 2.780255508422851562e+01 7.376435399055480957e-01 5.573163628578186035e-01 3.884879648685455322e-01 5.907428264617919922e-01
2.480000000000000000e+03 2.791219520568847656e+01 2.939366722106933594e+01 -1.512719690799713135e-01 -4.305704310536384583e-02 -5.829870328307151794e-02 -3.428138196468353271e-01
2.481000000000000000e+03 2.941226768493652344e+01 2.778421211242675781e+01 -9.213137626647949219e-02 -9.150473400950431824e-03 -3.038455545902252197e-02 -4.002656638622283936e-01
2.482000000000000000e+03 2.720285415649414062e+01 2.766184616088867188e+01 -6.464865803718566895e-02 -1.099990233778953552e-01 -5.239430442452430725e-02 -3.622319400310516357e-01
2.483000000000000000e+03 2.864780616760253906e+01 2.855693626403808594e+01 -1.275787204504013062e-01 -3.111917525529861450e-02 -4.760936647653579712e-02 -3.782469332218170166e-01
2.484000000000000000e+03 3.820234298706054688e+01 2.750187873840332031e+01 9.487439692020416260e-02 2.791301012039184570e-01 1.122013553977012634e-01 -1.703777462244033813e-01
2.485000000000000000e+03 4.283359527587890625e+01 2.780680847167968750e+01 5.806567668914794922e-01 4.927311241626739502e-01 3.220163583755493164e-01 4.179570674896240234e-01
2.486000000000000000e+03 3.550457763671875000e+01 2.870177268981933594e+01 -2.357714027166366577e-01 1.640710383653640747e-01 -2.151011116802692413e-02 -3.432717323303222656e-01
2.487000000000000000e+03 3.413282775878906250e+01 2.818648719787597656e+01 -1.574276983737945557e-01 1.420884430408477783e-01 -4.601779393851757050e-03 -3.752925395965576172e-01
2.488000000000000000e+03 3.346575927734375000e+01 2.825278663635253906e+01 -1.640293747186660767e-01 1.277977526187896729e-01 -1.086948625743389130e-02 -3.872929215431213379e-01
2.489000000000000000e+03 3.479009246826171875e+01 2.812898826599121094e+01 -1.441051065921783447e-01 1.587180942296981812e-01 4.383894614875316620e-03 -3.585413992404937744e-01
2.490000000000000000e+03 3.746529006958007812e+01 2.762215232849121094e+01 2.293348871171474457e-02 2.535389959812164307e-01 8.294174075126647949e-02 -2.274648398160934448e-01
2.491000000000000000e+03 4.210831832885742188e+01 2.782850456237792969e+01 4.370694160461425781e-01 4.167942404747009277e-01 2.561590969562530518e-01 2.671982645988464355e-01
2.492000000000000000e+03 4.417659759521484375e+01 2.722358703613281250e+01 1.067768216133117676e+00 8.412169218063354492e-01 5.726955533027648926e-01 9.338400959968566895e-01
2.493000000000000000e+03 8.976034164428710938e+00 6.346629142761230469e+00 2.098962431773543358e-04 -2.026761421802802943e-06 6.236084300326183438e-05 -4.882587381871417165e-05
2.494000000000000000e+03 4.202582168579101562e+01 2.718376922607421875e+01 6.185339689254760742e-01 5.426846146583557129e-01 3.483655750751495361e-01 3.680864870548248291e-01
2.495000000000000000e+03 4.276472091674804688e+01 2.716996955871582031e+01 7.628121376037597656e-01 6.229109764099121094e-01 4.157169461250305176e-01 5.310111641883850098e-01
2.496000000000000000e+03 4.050341796875000000e+01 2.725804901123046875e+01 3.691461086273193359e-01 4.103884696960449219e-01 2.338603734970092773e-01 9.840723872184753418e-02
2.497000000000000000e+03 2.726687049865722656e+01 2.668149948120117188e+01 -2.833929471671581268e-02 -1.293482035398483276e-01 -4.730625078082084656e-02 -3.712671101093292236e-01
2.498000000000000000e+03 6.986286926269531250e+01 -4.915475845336914062e+00 -1.619049310684204102e-01 7.946109294891357422e+00 2.335261344909667969e+00 -3.309098482131958008e-01
2.499000000000000000e+03 7.095732879638671875e+01 4.065272808074951172e-01 -1.843634992837905884e-01 8.000294685363769531e+00 2.344779491424560547e+00 -4.667488038539886475e-01
2.500000000000000000e+03 7.220956420898437500e+01 3.355772495269775391e+00 -1.681682020425796509e-01 8.026111602783203125e+00 2.357383012771606445e+00 -5.446499586105346680e-01
2.501000000000000000e+03 1.094909095764160156e+01 -5.258200645446777344e+00 -2.193567343056201935e-04 -1.450124818802578375e-05 -7.015739538474008441e-05 7.614657806698232889e-05
2.502000000000000000e+03 8.028353691101074219e+00 1.001184177398681641e+01 -1.820398902054876089e-04 -9.559930913383141160e-05 -8.329175761900842190e-05 -1.733649878588039428e-05
2.503000000000000000e+03 9.030407905578613281e+00 1.018659782409667969e+01 2.186294441344216466e-04 8.818420610623434186e-05 9.204409434460103512e-05 4.120027369935996830e-05
2.504000000000000000e+03 5.766641616821289062e+01 3.074003028869628906e+01 3.972662687301635742e+00 1.097867298126220703e+01 4.485400676727294922e+00 -4.153670370578765869e-01
2.505000000000000000e+03 5.639766693115234375e+01 3.013622474670410156e+01 4.365989208221435547e+00 1.207078456878662109e+01 4.931032180786132812e+00 -8.819084167480468750e-01
2.506000000000000000e+03 9.114699363708496094e+00 -9.651551246643066406e+00 1.422002969775348902e-04 5.153163219802081585e-04 1.972549944184720516e-04 -4.942805753671564162e-05
2.507000000000000000e+03 1.046686744689941406e+01 -8.833148956298828125e+00 3.428578493185341358e-04 1.632857602089643478e-04 1.518430799478664994e-04 -1.043736701831221581e-04
2.508000000000000000e+03 2.877762985229492188e+01 1.750020027160644531e+01 1.980824768543243408e-01 1.344168279320001602e-02 6.345724314451217651e-02 -1.231295019388198853e-01
2.509000000000000000e+03 2.902149963378906250e+01 2.174831581115722656e+01 1.747189313173294067e-01 -3.380858898162841797e-02 4.227310419082641602e-02 -2.849665284156799316e-01
2.510000000000000000e+03 9.070826530456542969e+00 7.035077095031738281e+00 -2.621944004204124212e-04 2.587464950920548290e-05 -7.089592691045254469e-05 4.400478792376816273e-05
2.511000000000000000e+03 7.321089267730712891e+00 7.076015949249267578e+00 -2.038540696958079934e-04 -5.459938984131440520e-05 -7.753603858873248100e-05 1.097164840757614002e-06
2.512000000000000000e+03 7.076782226562500000e+01 1.147696495056152344e+01 -2.625271379947662354e-01 7.738518714904785156e+00 2.242797374725341797e+00 -9.462534189224243164e-01
2.513000000000000000e+03 3.009144020080566406e+01 2.778047370910644531e+01 -1.006441116333007812e-01 2.283598110079765320e-02 -2.334243990480899811e-02 -4.052338600158691406e-01
2.514000000000000000e+03 7.137729644775390625e+01 2.702026367187500000e+00 -1.980178058147430420e-01 7.992894649505615234e+00 2.338463068008422852e+00 -5.443673729896545410e-01
2.515000000000000000e+03 7.100833892822265625e+01 -3.298256874084472656e+00 -1.498854458332061768e-01 8.070159912109375000e+00 2.376082181930541992e+00 -3.575782775878906250e-01
2.516000000000000000e+03 2.817674064636230469e+01 1.086068439483642578e+01 1.040524467825889587e-01 9.208467602729797363e-02 5.884113535284996033e-02 6.702134013175964355e-02
2.517000000000000000e+03 2.837617492675781250e+01 1.483330631256103516e+01 1.624273806810379028e-01 1.901289261877536774e-02 5.443207919597625732e-02 -3.630391135811805725e-02
2.518000000000000000e+03 7.058410644531250000e+01 -1.019762039184570312e+01 -9.082964807748794556e-02 8.098880767822265625e+00 2.402415275573730469e+00 -2.061481177806854248e-01
2.519000000000000000e+03 7.050588226318359375e+01 -1.114429473876953125e+01 -9.807187318801879883e-02 8.085475921630859375e+00 2.396221160888671875e+00 -1.923939883708953857e-01
2.520000000000000000e+03 6.989430999755859375e+01 -2.485415267944335938e+01 -4.562745615839958191e-02 8.043327331542968750e+00 2.399310111999511719e+00 -6.894615292549133301e-02
2.521000000000000000e+03 6.929318237304687500e+01 -2.785600090026855469e+01 -3.043034486472606659e-02 7.979603290557861328e+00 2.384751796722412109e+00 -3.167976066470146179e-02
2.522000000000000000e+03 6.947716522216796875e+01 -1.635841178894042969e+01 -7.220394164323806763e-02 7.945244789123535156e+00 2.361912250518798828e+00 -1.286560893058776855e-01
2.523000000000000000e+03 6.926661682128906250e+01 -1.882287788391113281e+01 -6.629493832588195801e-02 7.901515960693359375e+00 2.350566387176513672e+00 -1.121183112263679504e-01
2.524000000000000000e+03 7.148566436767578125e+01 9.025135993957519531e+00 -2.357716709375381470e-01 7.812500953674316406e+00 2.273018836975097656e+00 -8.033903241157531738e-01
2.525000000000000000e+03 7.368896484375000000e+00 -7.330618381500244141e+00 4.682894214056432247e-04 1.666069438215345144e-04 1.904689124785363674e-04 -3.739276871783658862e-05
2.526000000000000000e+03 7.046704864501953125e+01 2.550618743896484375e+01 3.301306664943695068e-01 7.119991302490234375e+00 2.235036611557006836e+00 -1.129737854003906250e+00
2.527000000000000000e+03 7.201207733154296875e+01 2.416481018066406250e+01 1.904668956995010376e-01 6.912722110748291016e+00 2.130956649780273438e+00 -1.108564496040344238e+00
2.528000000000000000e+03 5.903090667724609375e+01 3.611049270629882812e+01 8.721160292625427246e-01 1.147987079620361328e+01 3.705596208572387695e+00 1.236601233482360840e+00
2.529000000000000000e+03 5.722830200195312500e+01 3.505151367187500000e+01 1.689341783523559570e+00 1.241544055938720703e+01 4.231434822082519531e+00 1.871521949768066406e+00
2.530000000000000000e+03 7.039248657226562500e+01 1.797953033447265625e+01 -1.336139738559722900e-01 7.536369323730468750e+00 2.220826625823974609e+00 -1.220536231994628906e+00
2.531000000000000000e+03 7.141864013671875000e+01 1.524931240081787109e+01 -1.861996501684188843e-01 7.557424545288085938e+00 2.211367607116699219e+00 -1.084198117256164551e+00
2.532000000000000000e+03 6.979099273681640625e+01 -1.509413433074951172e+01 -7.629597187042236328e-02 8.004841804504394531e+00 2.378563642501831055e+00 -1.482272744178771973e-01
2.533000000000000000e+03 7.138546752929687500e+01 -1.248947429656982422e+01 -7.278754562139511108e-02 8.238383293151855469e+00 2.449678659439086914e+00 -1.660557687282562256e-01
2.534000000000000000e+03 2.876036071777343750e+01 -4.879855155944824219e+00 -1.666373573243618011e-02 5.831875205039978027e-01 1.699571311473846436e-01 1.659529805183410645e-01
2.535000000000000000e+03 3.080733489990234375e+01 -4.841707050800323486e-01 -2.547490224242210388e-02 8.796183466911315918e-01 2.562430500984191895e-01 2.216643691062927246e-01
2.536000000000000000e+03 3.049111747741699219e+01 1.173228740692138672e+01 1.691880673170089722e-01 4.814147651195526123e-01 1.951808482408523560e-01 1.247722133994102478e-01
2.537000000000000000e+03 2.817305183410644531e+01 8.212568283081054688e+00 6.324478983879089355e-02 1.662193238735198975e-01 6.883923709392547607e-02 1.143140494823455811e-01
2.538000000000000000e+03 2.929742240905761719e+01 1.071160984039306641e+01 1.267400085926055908e-01 3.042025864124298096e-01 1.292827725410461426e-01 1.041094139218330383e-01
2.539000000000000000e+03 8.418635368347167969e+00 -2.232762908935546875e+01 7.375205168500542641e-04 9.509932133369147778e-04 5.065541481599211693e-04 -7.668021717108786106e-04
2.540000000000000000e+03 8.523141860961914062e+00 -1.036878585815429688e+01 -8.515099762007594109e-05 -3.889812796842306852e-04 -1.422396890120580792e-04 -4.788968908542301506e-06
2.541000000000000000e+03 7.286919593811035156e+00 -1.000467300415039062e+01 1.375945576000958681e-04 -8.414970943704247475e-05 1.603345299372449517e-05 -3.043262040591798723e-05
2.542000000000000000e+03 7.967254638671875000e+00 1.423854160308837891e+01 -2.972337097162380815e-05 1.687168150965590030e-05 -3.855506747640902176e-06 2.287350507685914636e-04
2.543000000000000000e+03 2.957504463195800781e+01 1.450712871551513672e+01 1.982080489397048950e-01 2.182736098766326904e-01 1.249444931745529175e-01 1.044147647917270660e-02
2.544000000000000000e+03 2.849534225463867188e+01 -6.003782749176025391e+00 -1.983739063143730164e-02 5.595369935035705566e-01 1.619098782539367676e-01 1.462985724210739136e-01
2.545000000000000000e+03 7.324921607971191406e+00 -9.297918319702148438e+00 -2.047650486929342151e-04 -3.626479592639952898e-04 -1.702239096630364656e-04 -1.419946638634428382e-04
2.546000000000000000e+03 7.648129940032958984e+00 -1.920049095153808594e+01 -5.642972610075958073e-05 9.527502697892487049e-04 2.688961685635149479e-04 1.148599112639203668e-04
2.547000000000000000e+03 7.929902076721191406e+00 -2.070227813720703125e+01 5.568370106630027294e-04 6.801160634495317936e-04 3.710859164129942656e-04 -3.126260708086192608e-04
2.548000000000000000e+03 2.962951660156250000e+01 -6.124947071075439453e+00 -4.047418385744094849e-02 7.606545686721801758e-01 2.160541117191314697e-01 1.660702675580978394e-01
2.549000000000000000e+03 7.556282520294189453e+00 -1.343853855133056641e+01 3.243754035793244839e-04 3.105319919995963573e-04 1.904722157632932067e-04 -2.989704953506588936e-04
2.550000000000000000e+03 8.208209991455078125e+00 2.037187385559082031e+01 -3.076129360124468803e-04 -1.200286278617568314e-04 -1.282924786210060120e-04 6.703474355163052678e-05
2.551000000000000000e+03 7.173442840576171875e+00 -2.495178604125976562e+01 1.367571298032999039e-03 -9.643934754421934485e-05 3.813395742326974869e-04 -5.808501737192273140e-04
2.552000000000000000e+03 7.356424808502197266e+00 -2.164965057373046875e+01 -4.542033711913973093e-04 -5.918359383940696716e-04 -3.138117899652570486e-04 2.505840675439685583e-04
2.553000000000000000e+03 8.393220901489257812e+00 -2.440667152404785156e+01 -8.660345338284969330e-04 6.637214100919663906e-04 -6.069393930374644697e-05 9.461391891818493605e-05
2.554000000000000000e+03 6.974185943603515625e+01 5.537155151367187500e+00 -2.848468720912933350e-01 7.836687564849853516e+00 2.265552282333374023e+00 -6.822322607040405273e-01
2.555000000000000000e+03 3.004514503479003906e+01 2.854884338378906250e+01 -1.545454859733581543e-01 2.305593527853488922e-02 -3.944686427712440491e-02 -3.945606648921966553e-01
2.556000000000000000e+03 9.899701118469238281e+00 3.209275054931640625e+01 -9.765544091351330280e-04 4.286046605557203293e-04 -1.643849100219085813e-04 -4.997184732928872108e-04
2.557000000000000000e+03 7.027569580078125000e+01 1.933519363403320312e+01 -6.510826200246810913e-02 7.492002487182617188e+00 2.228068351745605469e+00 -1.261612057685852051e+00
2.558000000000000000e+03 7.067263793945312500e+01 1.249617862701416016e+01 -2.509030699729919434e-01 7.698236465454101562e+00 2.234200000762939453e+00 -9.891488552093505859e-01
2.559000000000000000e+03 2.972533035278320312e+01 -2.015544891357421875e+01 -2.965608797967433929e-02 9.283198714256286621e-01 2.695991396903991699e-01 6.667009741067886353e-02
2.560000000000000000e+03 3.016517639160156250e+01 -2.232944107055664062e+01 -2.351384982466697693e-02 1.051454186439514160e+00 3.083820939064025879e-01 6.079667434096336365e-02
2.561000000000000000e+03 6.844667816162109375e+01 -2.093462562561035156e+01 -7.124410569667816162e-02 7.788632392883300781e+00 2.315216541290283203e+00 -8.980187773704528809e-02
2.562000000000000000e+03 7.096625518798828125e+01 -1.981332778930664062e+01 -4.576510936021804810e-02 8.221198081970214844e+00 2.452629804611206055e+00 -8.785907924175262451e-02
2.563000000000000000e+03 2.933264732360839844e+01 6.736567974090576172e+00 4.952904582023620605e-02 4.501420557498931885e-01 1.499013304710388184e-01 1.673125028610229492e-01
2.564000000000000000e+03 7.110449981689453125e+01 2.268486022949218750e+01 1.189119666814804077e-01 7.169689655303955078e+00 2.186580419540405273e+00 -1.196916103363037109e+00
2.565000000000000000e+03 2.721731185913085938e+01 -1.090197467803955078e+01 -2.667167037725448608e-02 3.964349031448364258e-01 1.109289750456809998e-01 9.463920444250106812e-02
2.566000000000000000e+03 1.004298686981201172e+01 -3.208483886718750000e+01 6.199923343956470490e-03 -8.906458970159292221e-04 1.592783140949904919e-03 -1.804494881071150303e-03
2.567000000000000000e+03 2.870427513122558594e+01 -2.160394859313964844e+01 -1.832282170653343201e-02 7.822306752204895020e-01 2.291723489761352539e-01 4.504011571407318115e-02
2.568000000000000000e+03 2.650788307189941406e+01 -2.454376602172851562e+01 -8.063323795795440674e-03 4.045924544334411621e-01 1.189587414264678955e-01 1.543428748846054077e-02
2.569000000000000000e+03 7.110626220703125000e+01 2.459804534912109375e+01 2.285929322242736816e-01 7.057974338531494141e+00 2.185970306396484375e+00 -1.138170599937438965e+00
2.570000000000000000e+03 2.765945434570312500e+01 2.455733108520507812e+01 5.410987511277198792e-02 -1.442291736602783203e-01 -2.703578956425189972e-02 -3.631506264209747314e-01
2.571000000000000000e+03 5.145243453979492188e+01 3.771700286865234375e+01 -8.347051143646240234e-01 9.560590744018554688e+00 2.617765903472900391e+00 -2.158935546875000000e+00
2.572000000000000000e+03 2.930486869812011719e+01 9.424847602844238281e+00 1.013354510068893433e-01 3.517718613147735596e-01 1.359321922063827515e-01 1.312282979488372803e-01
2.573000000000000000e+03 2.742147445678710938e+01 2.563694000244140625e+01 1.549346745014190674e-02 -1.407826542854309082e-01 -3.758675605058670044e-02 -3.728416562080383301e-01
2.574000000000000000e+03 2.793643379211425781e+01 2.855273246765136719e+01 -1.140094473958015442e-01 -5.889096111059188843e-02 -5.187012255191802979e-02 -3.632481396198272705e-01
2.575000000000000000e+03 2.869376373291015625e+01 4.023088932037353516e+00 1.413800567388534546e-02 3.646279871463775635e-01 1.136298030614852905e-01 1.696262657642364502e-01
2.576000000000000000e+03 7.981235980987548828e+00 -2.877536964416503906e+01 6.010092329233884811e-04 -5.617805290967226028e-04 1.176861132989870384e-05 9.405604796484112740e-04
2.577000000000000000e+03 7.164619445800781250e+01 -2.327814865112304688e+01 -2.719137631356716156e-02 8.359476089477539062e+00 2.499685525894165039e+00 -6.281401216983795166e-02
2.578000000000000000e+03 7.074526977539062500e+01 -2.120567893981933594e+01 -3.687212988734245300e-02 8.173022270202636719e+00 2.440845012664794922e+00 -8.034096658229827881e-02
2.579000000000000000e+03 2.944579887390136719e+01 1.324383640289306641e+01 1.714164316654205322e-01 2.421711832284927368e-01 1.240762844681739807e-01 4.496984183788299561e-02
2.580000000000000000e+03 8.078228950500488281e+00 -1.161263751983642578e+01 -7.698645276832394302e-06 -2.905497385654598475e-04 -8.947451715357601643e-05 8.589507342549040914e-05
2.581000000000000000e+03 7.004717254638671875e+01 1.543463611602783203e+01 -2.391528040170669556e-01 7.670439720153808594e+00 2.229386091232299805e+00 -1.139270782470703125e+00
2.582000000000000000e+03 7.085063934326171875e+01 2.778215026855468750e+01 4.414009749889373779e-01 6.908882617950439453e+00 2.205085039138793945e+00 -9.320498704910278320e-01
2.583000000000000000e+03 6.844374084472656250e+01 -1.745181465148925781e+01 -7.726370543241500854e-02 7.803145408630371094e+00 2.317764520645141602e+00 -1.183609142899513245e-01
2.584000000000000000e+03 2.975932884216308594e+01 -1.452054786682128906e+01 -3.848410770297050476e-02 9.267532229423522949e-01 2.664807438850402832e-01 1.051890403032302856e-01
2.585000000000000000e+03 5.633714294433593750e+01 3.642896652221679688e+01 1.548913866281509399e-01 1.295890235900878906e+01 3.934138059616088867e+00 1.507367014884948730e+00
2.586000000000000000e+03 8.391833305358886719e+00 3.520792770385742188e+01 8.153825765475630760e-04 -2.060857013930217363e-06 2.439965028315782547e-04 6.010505603626370430e-04
2.587000000000000000e+03 7.066524505615234375e+01 1.042800426483154297e+01 -2.747162878513336182e-01 7.771625995635986328e+00 2.249072790145874023e+00 -8.942531347274780273e-01
2.588000000000000000e+03 6.930403137207031250e+01 9.756261825561523438e+00 -3.354877531528472900e-01 7.791370391845703125e+00 2.236764669418334961e+00 -8.864039182662963867e-01
2.589000000000000000e+03 7.045700073242187500e+01 -2.659212112426757812e+01 -2.524072863161563873e-02 8.145889282226562500e+00 2.436194419860839844e+00 -4.442707076668739319e-02
2.590000000000000000e+03 6.757350921630859375e+01 -2.723012733459472656e+01 -6.390438973903656006e-02 7.652308940887451172e+00 2.276521444320678711e+00 -6.006263568997383118e-02
2.591000000000000000e+03 2.926632499694824219e+01 3.210401773452758789e+00 1.625079289078712463e-02 4.968710541725158691e-01 1.539365500211715698e-01 1.973467767238616943e-01
2.592000000000000000e+03 2.969063949584960938e+01 4.729723930358886719e+00 3.671384230256080627e-02 5.737938284873962402e-01 1.831523030996322632e-01 1.949007809162139893e-01
2.593000000000000000e+03 2.699200820922851562e+01 -2.967295646667480469e+01 -3.759122267365455627e-02 5.560721755027770996e-01 1.555442810058593750e-01 2.396667562425136566e-02
2.594000000000000000e+03 3.087202072143554688e+01 1.920882225036621094e+01 2.916914820671081543e-01 2.294185310602188110e-01 1.563329994678497314e-01 -1.283472031354904175e-01
2.595000000000000000e+03 3.042463111877441406e+01 2.077769279479980469e+01 2.443360686302185059e-01 1.138010099530220032e-01 1.074411273002624512e-01 -2.180282026529312134e-01
2.596000000000000000e+03 2.978432846069335938e+01 -1.074807262420654297e+01 -4.248712211847305298e-02 8.736407756805419922e-01 2.493461072444915771e-01 1.262506097555160522e-01
2.597000000000000000e+03 2.972046279907226562e+01 -8.248062133789062500e+00 -2.993679232895374298e-02 8.336410522460937500e-01 2.411112785339355469e-01 1.469235420227050781e-01
2.598000000000000000e+03 7.072886657714843750e+01 -3.363719558715820312e+01 -3.509812429547309875e-02 8.172424316406250000e+00 2.441197872161865234e+00 -2.689001150429248810e-02
2.599000000000000000e+03 8.981121063232421875e+00 1.335094261169433594e+01 9.655897883931174874e-06 3.874797766911797225e-05 1.452116248401580378e-05 -1.409387332387268543e-04
2.600000000000000000e+03 2.811699104309082031e+01 -2.652719116210937500e+01 -1.062251999974250793e-02 6.957395672798156738e-01 2.055351287126541138e-01 2.014856226742267609e-02
2.601000000000000000e+03 8.617359161376953125e+00 2.145419883728027344e+01 3.796426171902567148e-04 8.741050260141491890e-05 1.401159388478845358e-04 -4.470827479963190854e-05
2.602000000000000000e+03 5.223271179199218750e+01 2.758313179016113281e+01 4.668862521648406982e-01 1.234771156311035156e+01 3.844379186630249023e+00 3.302640438079833984e+00
2.603000000000000000e+03 5.213871765136718750e+01 2.859329795837402344e+01 9.300199151039123535e-01 1.400365066528320312e+01 4.480101108551025391e+00 3.795164823532104492e+00
2.604000000000000000e+03 4.589891433715820312e+01 2.690763282775878906e+01 1.588279843330383301e+00 1.594081759452819824e+00 9.547084569931030273e-01 1.779031395912170410e+00
2.605000000000000000e+03 5.407897186279296875e+01 2.788762092590332031e+01 9.684864282608032227e-01 1.404599761962890625e+01 4.504344940185546875e+00 3.499907553195953369e-01
2.606000000000000000e+03 4.802521514892578125e+01 2.780838012695312500e+01 2.229462862014770508e+00 2.720943450927734375e+00 1.485121846199035645e+00 3.008162498474121094e+00
2.607000000000000000e+03 3.896286773681640625e+01 2.740170478820800781e+01 1.709539145231246948e-01 3.211183249950408936e-01 1.476216763257980347e-01 -9.754168242216110229e-02
2.608000000000000000e+03 4.126867675781250000e+01 2.721347045898437500e+01 4.874992370605468750e-01 4.617591798305511475e-01 2.847775220870971680e-01 2.201703786849975586e-01
2.609000000000000000e+03 3.209911727905273438e+01 2.839981079101562500e+01 -1.714120060205459595e-01 9.012246876955032349e-02 -2.438686229288578033e-02 -3.999679982662200928e-01
2.610000000000000000e+03 3.214921951293945312e+01 2.699462318420410156e+01 -2.760818600654602051e-02 9.892918914556503296e-02 2.139630168676376343e-02 -3.974017798900604248e-01
2.611000000000000000e+03 3.143537330627441406e+01 2.771790122985839844e+01 -9.968581050634384155e-02 6.915528327226638794e-02 -9.159158915281295776e-03 -4.056254923343658447e-01
2.612000000000000000e+03 2.935090637207031250e+01 2.856246185302734375e+01 -1.431274265050888062e-01 -1.279262593016028404e-03 -4.332200810313224792e-02 -3.875550329685211182e-01
2.613000000000000000e+03 4.598781585693359375e+01 2.754276084899902344e+01 1.549245119094848633e+00 1.296766877174377441e+00 8.538036346435546875e-01 1.635224580764770508e+00
2.614000000000000000e+03 2.884626770019531250e+01 2.689260482788085938e+01 -4.156687110662460327e-02 -4.461838677525520325e-02 -2.585557848215103149e-02 -3.978681862354278564e-01
2.615000000000000000e+03 3.882419967651367188e+01 2.672824668884277344e+01 3.050413131713867188e-01 3.811928629875183105e-01 2.058702558279037476e-01 -5.121799558401107788e-02
2.616000000000000000e+03 3.805145645141601562e+01 2.681391525268554688e+01 2.220911234617233276e-01 3.322333991527557373e-01 1.662973612546920776e-01 -1.352441608905792236e-01
2.617000000000000000e+03 3.675911712646484375e+01 2.776873207092285156e+01 -3.704203665256500244e-02 2.217317968606948853e-01 5.540692806243896484e-02 -2.754034996032714844e-01
2.618000000000000000e+03 4.348731231689453125e+01 2.717853927612304688e+01 9.178003668785095215e-01 7.508410215377807617e-01 5.005924105644226074e-01 7.318632006645202637e-01
2.619000000000000000e+03 4.418399429321289062e+01 2.658108139038085938e+01 1.194598674774169922e+00 1.102451324462890625e+00 6.891150474548339844e-01 1.103721141815185547e+00
2.620000000000000000e+03 3.544595718383789062e+01 2.805895614624023438e+01 -1.221222653985023499e-01 1.783991307020187378e-01 1.688306033611297607e-02 -3.423604965209960938e-01
2.621000000000000000e+03 3.656355667114257812e+01 2.707177352905273438e+01 8.568190783262252808e-02 2.606188356876373291e-01 1.038902252912521362e-01 -2.533538639545440674e-01
2.622000000000000000e+03 3.212243270874023438e+01 2.767754173278808594e+01 -9.494950622320175171e-02 9.316816926002502441e-02 -5.344023811630904675e-04 -4.046995341777801514e-01
2.623000000000000000e+03 3.594013977050781250e+01 2.730364036560058594e+01 1.992873474955558777e-02 2.307518124580383301e-01 7.520416378974914551e-02 -2.980632185935974121e-01
2.624000000000000000e+03 3.479258346557617188e+01 2.744535827636718750e+01 -4.517279937863349915e-02 1.781438291072845459e-01 3.989130631089210510e-02 -3.512964844703674316e-01
2.625000000000000000e+03 3.539571380615234375e+01 2.745139122009277344e+01 -3.260212019085884094e-02 1.974926590919494629e-01 4.946715757250785828e-02 -3.281217217445373535e-01
2.626000000000000000e+03 4.514632797241210938e+01 2.639841842651367188e+01 1.418770909309387207e+00 1.495997667312622070e+00 8.744305968284606934e-01 1.520535945892333984e+00
2.627000000000000000e+03 4.268206787109375000e+01 2.652064514160156250e+01 8.912047743797302246e-01 7.822967767715454102e-01 5.020504593849182129e-01 6.436089873313903809e-01
2.628000000000000000e+03 4.115834808349609375e+01 2.655490112304687500e+01 6.263927817344665527e-01 5.737723708152770996e-01 3.600495457649230957e-01 3.031147420406341553e-01
2.629000000000000000e+03 4.256974792480468750e+01 2.585169792175292969e+01 9.705365896224975586e-01 9.362635612487792969e-01 5.720400214195251465e-01 7.308462858200073242e-01
2.630000000000000000e+03 2.651753997802734375e+01 2.944836044311523438e+01 -1.128210052847862244e-01 -9.348373860120773315e-02 -6.189142167568206787e-02 -3.060552477836608887e-01
2.631000000000000000e+03 4.038636016845703125e+01 2.659720039367675781e+01 5.092254877090454102e-01 4.938365817070007324e-01 3.009186089038848877e-01 1.666356623172760010e-01
2.632000000000000000e+03 8.989700317382812500e+00 -7.575921058654785156e+00 -4.929298665956594050e-05 9.913805843098089099e-05 1.495352262281812727e-05 -1.923838499351404607e-05
2.633000000000000000e+03 2.898610305786132812e+01 2.370953178405761719e+01 1.129560768604278564e-01 -4.376462474465370178e-02 2.075743675231933594e-02 -3.491404652595520020e-01
2.634000000000000000e+03 5.504423522949218750e+01 2.699421882629394531e+01 6.750974655151367188e-01 1.269473743438720703e+01 4.010950565338134766e+00 -1.457996517419815063e-01
2.635000000000000000e+03 6.936029815673828125e+01 3.608908891677856445e+00 -2.853707075119018555e-01 7.836017608642578125e+00 2.265193939208984375e+00 -6.075778007507324219e-01
2.636000000000000000e+03 7.080659866333007812e+00 9.836915969848632812e+00 1.591263862792402506e-04 1.186137087643146515e-04 8.332202560268342495e-05 -1.515162512077949941e-05
2.637000000000000000e+03 6.814247894287109375e+01 -3.260152578353881836e+00 -2.343760877847671509e-01 7.723744392395019531e+00 2.246810436248779297e+00 -3.805359005928039551e-01
2.638000000000000000e+03 6.855629730224609375e+01 -6.244638919830322266e+00 -1.833946853876113892e-01 7.772916793823242188e+00 2.276856660842895508e+00 -3.030847907066345215e-01
2.639000000000000000e+03 5.590301895141601562e+01 2.878657722473144531e+01 2.773024559020996094e+00 1.278110885620117188e+01 4.666240215301513672e+00 -1.187944054603576660e+00
2.640000000000000000e+03 6.970181274414062500e+01 1.065282440185546875e+01 -3.198361992835998535e-01 7.779973506927490234e+00 2.238041162490844727e+00 -9.213611483573913574e-01
2.641000000000000000e+03 6.979624938964843750e+01 1.148208427429199219e+01 -3.175421357154846191e-01 7.772778511047363281e+00 2.236570835113525391e+00 -9.700309038162231445e-01
2.642000000000000000e+03 6.976129150390625000e+01 -1.064538478851318359e+01 -1.073012724518775940e-01 7.974858283996582031e+00 2.360267162322998047e+00 -2.067484259605407715e-01
2.643000000000000000e+03 6.885682678222656250e+01 -1.147361469268798828e+01 -1.201900392770767212e-01 7.831107139587402344e+00 2.313275098800659180e+00 -2.026452124118804932e-01
2.644000000000000000e+03 1.071129608154296875e+01 -7.871308326721191406e+00 -3.153039724566042423e-04 -7.663208816666156054e-05 -1.175808210973627865e-04 1.889032719191163778e-04
2.645000000000000000e+03 2.871243667602539062e+01 2.773035049438476562e+01 -8.552383631467819214e-02 -4.065733030438423157e-02 -3.785435110330581665e-02 -3.895449638366699219e-01
2.646000000000000000e+03 3.199069595336914062e+01 1.861953353881835938e+01 3.403044939041137695e-01 3.942393958568572998e-01 2.203631699085235596e-01 -5.270572006702423096e-02
2.647000000000000000e+03 3.002267456054687500e+01 1.700425910949707031e+01 2.465169131755828857e-01 2.030977010726928711e-01 1.348843872547149658e-01 -6.753181666135787964e-02
2.648000000000000000e+03 3.051753807067871094e+01 -4.226301670074462891e+00 -2.670719474554061890e-02 9.233757257461547852e-01 2.690005600452423096e-01 1.933670341968536377e-01
2.649000000000000000e+03 3.146565818786621094e+01 -1.951878070831298828e+00 -3.080840595066547394e-02 1.081935524940490723e+00 3.153381347656250000e-01 2.284343689680099487e-01
2.650000000000000000e+03 6.898855590820312500e+01 1.899127769470214844e+01 -1.131044030189514160e-01 7.689689159393310547e+00 2.272975444793701172e+00 -1.302560687065124512e+00
2.651000000000000000e+03 6.921504211425781250e+01 1.782531166076660156e+01 -1.728526353836059570e-01 7.684706211090087891e+00 2.253556013107299805e+00 -1.258488893508911133e+00
2.652000000000000000e+03 5.634629440307617188e+01 2.791682815551757812e+01 1.874811768531799316e+00 1.214825153350830078e+01 4.206919193267822266e+00 -1.082916140556335449e+00
2.653000000000000000e+03 5.908360290527343750e+01 3.135889625549316406e+01 3.049490451812744141e+00 1.022973155975341797e+01 3.983766794204711914e+00 -8.236937969923019409e-02
2.654000000000000000e+03 6.711508178710937500e+01 -1.847403144836425781e+01 -8.947554975748062134e-02 7.574996471405029297e+00 2.245656251907348633e+00 -1.091322004795074463e-01
2.655000000000000000e+03 6.798712921142578125e+01 -1.962155151367187500e+01 -6.405285000801086426e-02 7.716880798339843750e+00 2.295848369598388672e+00 -9.391818940639495850e-02
2.656000000000000000e+03 6.433853149414062500e+00 7.187033176422119141e+00 1.563903351780027151e-04 5.922211494180373847e-05 6.468373612733557820e-05 2.380796786383143626e-06
2.657000000000000000e+03 6.382187366485595703e+00 6.427510738372802734e+00 -1.873267028713598847e-04 -5.533050352823920548e-05 -7.279716373886913061e-05 1.251896264875540510e-05
2.658000000000000000e+03 3.062560272216796875e+01 1.292799282073974609e+01 2.000720202922821045e-01 4.520785510540008545e-01 1.956451833248138428e-01 9.881179034709930420e-02
2.659000000000000000e+03 2.975864410400390625e+01 1.577064323425292969e+01 2.219421565532684326e-01 2.060383111238479614e-01 1.283941417932510376e-01 -2.863865718245506287e-02
2.660000000000000000e+03 3.121006965637207031e+01 1.651448249816894531e+01 2.890350222587585449e-01 3.947507739067077637e-01 2.051357328891754150e-01 7.217390812002122402e-04
2.661000000000000000e+03 3.147603416442871094e+01 2.699363327026367188e+01 -3.647252544760704041e-02 7.281352579593658447e-02 1.090229954570531845e-02 -4.034453332424163818e-01
2.662000000000000000e+03 4.961785507202148438e+01 4.047332763671875000e+01 -1.933944821357727051e-01 6.470580101013183594e+00 1.883155703544616699e+00 -6.338209509849548340e-01
2.663000000000000000e+03 7.104132080078125000e+01 7.810350894927978516e+00 -2.545426189899444580e-01 7.839906692504882812e+00 2.275609254837036133e+00 -7.641119360923767090e-01
2.664000000000000000e+03 7.041163635253906250e+01 6.640133857727050781e+00 -2.764545381069183350e-01 7.847121238708496094e+00 2.271199941635131836e+00 -7.251992225646972656e-01
2.665000000000000000e+03 3.038433074951171875e+01 1.055356884002685547e+01 1.470175981521606445e-01 5.118215084075927734e-01 1.976517289876937866e-01 1.444833427667617798e-01
2.666000000000000000e+03 6.957637786865234375e+01 2.465997886657714844e+01 3.258185982704162598e-01 7.351583480834960938e+00 2.303220510482788086e+00 -1.239381909370422363e+00
2.667000000000000000e+03 6.137575531005859375e+01 3.036130714416503906e+01 2.278015851974487305e+00 9.351060867309570312e+00 3.488723039627075195e+00 -5.610861778259277344e-01
2.668000000000000000e+03 5.983180618286132812e+01 3.256629943847656250e+01 2.763244628906250000e+00 1.012544441223144531e+01 3.866606712341308594e+00 4.011375904083251953e-01
2.669000000000000000e+03 7.034687805175781250e+01 1.670867347717285156e+01 -1.790773570537567139e-01 7.590846538543701172e+00 2.223530769348144531e+00 -1.185568571090698242e+00
2.670000000000000000e+03 6.797599029541015625e+01 -2.492838287353515625e+01 -5.534232035279273987e-02 7.718349933624267578e+00 2.298902273178100586e+00 -7.167790085077285767e-02
2.671000000000000000e+03 6.829470825195312500e+01 -2.272529029846191406e+01 -3.666489943861961365e-02 7.782302856445312500e+00 2.323691368103027344e+00 -6.674440950155258179e-02
2.672000000000000000e+03 6.930522155761718750e+01 -2.592491388320922852e+00 -2.131372541189193726e-01 7.852994441986083984e+00 2.291957139968872070e+00 -3.956028819084167480e-01
2.673000000000000000e+03 6.984439849853515625e+01 8.256233215332031250e+00 -3.090210258960723877e-01 7.808438777923583984e+00 2.249825239181518555e+00 -8.084529042243957520e-01
2.674000000000000000e+03 7.118042755126953125e+01 -7.430860996246337891e+00 -1.095989122986793518e-01 8.148546218872070312e+00 2.411684036254882812e+00 -2.532201111316680908e-01
2.675000000000000000e+03 7.025036621093750000e+01 -9.240254402160644531e+00 -1.085402444005012512e-01 8.048729896545410156e+00 2.382056713104248047e+00 -2.250315696001052856e-01
2.676000000000000000e+03 9.545518875122070312e+00 -8.347360610961914062e+00 -2.325958339497447014e-04 -1.995979837374761701e-04 -1.296581467613577843e-04 1.335333945462480187e-04
2.677000000000000000e+03 7.621069908142089844e+00 -1.647496223449707031e+01 -5.067063611932098866e-04 -8.624563633929938078e-05 -1.778855948941782117e-04 6.312654004432260990e-04
2.678000000000000000e+03 8.796212196350097656e+00 -1.665749931335449219e+01 5.255757714621722698e-04 1.753061660565435886e-04 2.102645812556147575e-04 -3.252670867368578911e-04
2.679000000000000000e+03 8.330098152160644531e+00 1.815276527404785156e+01 1.779436570359393954e-04 5.246588989393785596e-05 6.912286335136741400e-05 -5.500216138898395002e-05
2.680000000000000000e+03 6.818094635009765625e+01 -1.392485046386718750e+01 -1.034448668360710144e-01 7.737877845764160156e+00 2.290329933166503906e+00 -1.696207970380783081e-01
2.681000000000000000e+03 7.120664978027343750e+01 -1.381317710876464844e+01 -6.308708339929580688e-02 8.225547790527343750e+00 2.448738098144531250e+00 -1.488052904605865479e-01
2.682000000000000000e+03 3.194257736206054688e+01 -1.583638954162597656e+01 -5.059493333101272583e-02 1.324627757072448730e+00 3.822098374366760254e-01 1.143507063388824463e-01
2.683000000000000000e+03 2.966926193237304688e+01 -1.781356239318847656e+01 -3.568662703037261963e-02 9.566252827644348145e-01 2.762815952301025391e-01 8.310952037572860718e-02
2.684000000000000000e+03 7.034321594238281250e+01 9.357151985168457031e+00 -2.872213423252105713e-01 7.795047283172607422e+00 2.252347707748413086e+00 -8.508527278900146484e-01
2.685000000000000000e+03 3.039596176147460938e+01 9.358031272888183594e+00 1.222360655665397644e-01 5.612902641296386719e-01 2.050579041242599487e-01 1.723257899284362793e-01
2.686000000000000000e+03 3.076860427856445312e+01 1.414263820648193359e+01 2.310637533664703369e-01 4.305621683597564697e-01 1.984877735376358032e-01 6.611194461584091187e-02
2.687000000000000000e+03 3.085703468322753906e+01 5.227876186370849609e+00 4.781318083405494690e-02 7.825743556022644043e-01 2.491162568330764771e-01 2.302383482456207275e-01
2.688000000000000000e+03 3.061081314086914062e+01 6.674135684967041016e+00 6.688466668128967285e-02 6.893708705902099609e-01 2.268766611814498901e-01 2.092131376266479492e-01
2.689000000000000000e+03 3.095353698730468750e+01 1.535009670257568359e+01 2.602842748165130615e-01 4.090771377086639404e-01 2.008084207773208618e-01 3.346693888306617737e-02
2.690000000000000000e+03 5.278668975830078125e+01 4.143133544921875000e+01 -1.340944290161132812e+00 1.010607337951660156e+01 2.629538774490356445e+00 -3.928439021110534668e-01
2.691000000000000000e+03 6.976078033447265625e+01 2.663878250122070312e+01 4.654949009418487549e-01 7.203155994415283203e+00 2.300595283508300781e+00 -1.086346983909606934e+00
2.692000000000000000e+03 6.870355987548828125e+01 2.561076354980468750e+01 4.715708196163177490e-01 7.504864215850830078e+00 2.392930507659912109e+00 -1.221264600753784180e+00
2.693000000000000000e+03 9.698239326477050781e+00 -3.324906539916992188e+01 3.291228320449590683e-03 -4.303891677409410477e-03 -3.037989954464137554e-04 -1.510518370196223259e-03
2.694000000000000000e+03 3.000642013549804688e+01 2.163219070434570312e+01 2.078022658824920654e-01 5.170761048793792725e-02 7.785296440124511719e-02 -2.694395780563354492e-01
2.695000000000000000e+03 7.112921905517578125e+01 3.112633514404296875e+01 4.823554456233978271e-01 6.745974063873291016e+00 2.168498992919921875e+00 -6.068935394287109375e-01
2.696000000000000000e+03 3.160455513000488281e+01 -1.410759925842285156e+01 -5.561245232820510864e-02 1.237947463989257812e+00 3.547005057334899902e-01 1.249912902712821960e-01
2.697000000000000000e+03 2.996339035034179688e+01 -1.619138717651367188e+01 -3.766559809446334839e-02 9.774147272109985352e-01 2.819247543811798096e-01 9.392394125461578369e-02
2.698000000000000000e+03 7.067041778564453125e+01 2.990160369873046875e+01 5.350632071495056152e-01 6.874888896942138672e+00 2.222985506057739258e+00 -7.339088916778564453e-01
2.699000000000000000e+03 6.976805114746093750e+01 2.886450767517089844e+01 5.712325572967529297e-01 7.117938041687011719e+00 2.306751251220703125e+00 -8.797371387481689453e-01
2.700000000000000000e+03 5.684779357910156250e+01 4.127525711059570312e+01 -1.429882526397705078e+00 1.216421699523925781e+01 3.220300197601318359e+00 3.092160522937774658e-01
2.701000000000000000e+03 2.839743614196777344e+01 -7.168938159942626953e+00 -2.297452464699745178e-02 5.466970801353454590e-01 1.571167707443237305e-01 1.301348358392715454e-01
2.702000000000000000e+03 2.962095451354980469e+01 -7.149889945983886719e+00 -2.875882014632225037e-02 7.918758988380432129e-01 2.289351224899291992e-01 1.557575762271881104e-01
2.703000000000000000e+03 3.215275192260742188e+01 5.499120712280273438e+00 5.880264192819595337e-02 1.037748098373413086e+00 3.289652168750762939e-01 2.723719477653503418e-01
2.704000000000000000e+03 3.164601516723632812e+01 -3.558660888671875000e+01 -5.324482917785644531e-03 1.361565589904785156e+00 4.068723618984222412e-01 3.432065993547439575e-02
2.705000000000000000e+03 2.820157432556152344e+01 -2.484172821044921875e+01 -1.398196630179882050e-02 7.061237096786499023e-01 2.076425254344940186e-01 2.151802182197570801e-02
2.706000000000000000e+03 7.057639312744140625e+01 2.066425085067749023e+00 -2.287721186876296997e-01 7.934412956237792969e+00 2.311692237854003906e+00 -5.397213697433471680e-01
2.707000000000000000e+03 6.982697296142578125e+01 1.155782222747802734e+00 -2.450235933065414429e-01 7.873407363891601562e+00 2.288515090942382812e+00 -5.130326151847839355e-01
2.708000000000000000e+03 7.013066101074218750e+01 4.170785903930664062e+00 -2.570107579231262207e-01 7.880456924438476562e+00 2.287033796310424805e+00 -6.241720318794250488e-01
2.709000000000000000e+03 6.884671020507812500e+01 2.372935485839843750e+01 2.672615647315979004e-01 7.542443752288818359e+00 2.342911481857299805e+00 -1.292983174324035645e+00
2.710000000000000000e+03 7.027854919433593750e+01 2.079692077636718750e+01 1.814835146069526672e-02 7.414669036865234375e+00 2.229845046997070312e+00 -1.274076819419860840e+00
2.711000000000000000e+03 6.803304290771484375e+01 -2.919680023193359375e+01 -3.256390616297721863e-02 7.723515033721923828e+00 2.307285308837890625e+00 -2.960026264190673828e-02
2.712000000000000000e+03 6.852108764648437500e+01 -3.248876571655273438e+01 -1.838619634509086609e-02 7.815298080444335938e+00 2.339073657989501953e+00 -1.234905142337083817e-02
2.713000000000000000e+03 7.913097381591796875e+00 -3.689101028442382812e+01 7.164334878325462341e-03 -8.882243186235427856e-03 -5.153726669959723949e-04 7.099789101630449295e-03
2.714000000000000000e+03 5.168809890747070312e+01 2.800776863098144531e+01 9.073403477668762207e-01 1.155134963989257812e+01 3.737607002258300781e+00 4.307836532592773438e+00
2.715000000000000000e+03 5.045737457275390625e+01 2.867104911804199219e+01 2.519528865814208984e+00 7.541195869445800781e+00 3.018217325210571289e+00 5.385563373565673828e+00
2.716000000000000000e+03 4.985570144653320312e+01 2.857642555236816406e+01 2.688333034515380859e+00 5.523832798004150391e+00 2.463649749755859375e+00 4.793296337127685547e+00
2.717000000000000000e+03 4.660839843750000000e+01 2.757089042663574219e+01 1.723535776138305664e+00 1.631917953491210938e+00 1.006636142730712891e+00 1.962791085243225098e+00
2.718000000000000000e+03 4.923426055908203125e+01 2.863005638122558594e+01 2.693355560302734375e+00 3.726634979248046875e+00 1.925997138023376465e+00 3.983594894409179688e+00
2.719000000000000000e+03 4.721254730224609375e+01 2.741606330871582031e+01 1.912280678749084473e+00 2.159412622451782227e+00 1.221508026123046875e+00 2.412617921829223633e+00
2.720000000000000000e+03 5.369424819946289062e+01 2.742242050170898438e+01 4.224280714988708496e-01 1.355173683166503906e+01 4.192249298095703125e+00 9.698491096496582031e-01
2.721000000000000000e+03 4.025266265869140625e+01 2.592714691162109375e+01 6.179493665695190430e-01 5.919136404991149902e-01 3.629589080810546875e-01 2.356089353561401367e-01
2.722000000000000000e+03 3.960781097412109375e+01 2.665604400634765625e+01 4.020999073982238770e-01 4.377446770668029785e-01 2.519533634185791016e-01 5.139098316431045532e-02
2.723000000000000000e+03 4.970286941528320312e+01 2.712010002136230469e+01 1.720804452896118164e+00 6.003369331359863281e+00 2.317252159118652344e+00 4.105483055114746094e+00
2.724000000000000000e+03 3.348185348510742188e+01 2.752464675903320312e+01 -7.218575477600097656e-02 1.383422464132308960e-01 1.984694786369800568e-02 -3.823058009147644043e-01
2.725000000000000000e+03 3.010988616943359375e+01 2.701470756530761719e+01 -4.392621293663978577e-02 2.192174084484577179e-02 -6.601342000067234039e-03 -4.064071178436279297e-01
2.726000000000000000e+03 2.979491424560546875e+01 2.642742729187011719e+01 -8.032102137804031372e-03 3.774957032874226570e-03 -1.277143368497490883e-03 -4.028583168983459473e-01
2.727000000000000000e+03 3.711660385131835938e+01 2.620117759704589844e+01 2.547377049922943115e-01 3.285876810550689697e-01 1.749976128339767456e-01 -1.649884283542633057e-01
2.728000000000000000e+03 3.789484405517578125e+01 2.610741233825683594e+01 3.323043286800384521e-01 3.898351192474365234e-01 2.166418284177780151e-01 -9.221114218235015869e-02
2.729000000000000000e+03 2.869459342956542969e+01 2.478340339660644531e+01 6.508371233940124512e-02 -6.542281061410903931e-02 -1.017281683743931353e-04 -3.758581578731536865e-01
2.730000000000000000e+03 2.809890937805175781e+01 2.675626564025878906e+01 -3.232759609818458557e-02 -8.364664763212203979e-02 -3.479227423667907715e-02 -3.872860074043273926e-01
2.731000000000000000e+03 5.282850265502929688e+01 2.724563026428222656e+01 2.344092428684234619e-01 1.273432922363281250e+01 3.890621662139892578e+00 2.375118732452392578e+00
2.732000000000000000e+03 3.640415191650390625e+01 2.635945320129394531e+01 1.885196268558502197e-01 3.004975318908691406e-01 1.467051357030868530e-01 -2.206665128469467163e-01
2.733000000000000000e+03 3.552476119995117188e+01 2.689382362365722656e+01 7.043854147195816040e-02 2.296032607555389404e-01 9.001253545284271240e-02 -3.019447028636932373e-01
2.734000000000000000e+03 3.575362777709960938e+01 2.628235435485839844e+01 1.575680524110794067e-01 2.737846374511718750e-01 1.294058114290237427e-01 -2.678599357604980469e-01
2.735000000000000000e+03 5.256903457641601562e+01 2.665600585937500000e+01 7.991250604391098022e-02 1.183460426330566406e+01 3.574354887008666992e+00 2.594316720962524414e+00
2.736000000000000000e+03 4.628524780273437500e+01 2.627563667297363281e+01 1.624675869941711426e+00 2.191260337829589844e+00 1.144780755043029785e+00 2.100643396377563477e+00
2.737000000000000000e+03 4.537011718750000000e+01 2.690922355651855469e+01 1.461666703224182129e+00 1.352744698524475098e+00 8.443234562873840332e-01 1.507963538169860840e+00
2.738000000000000000e+03 4.343308258056640625e+01 2.653356742858886719e+01 1.033336520195007324e+00 9.266824126243591309e-01 5.880056619644165039e-01 8.477073907852172852e-01
2.739000000000000000e+03 4.410206222534179688e+01 2.586774826049804688e+01 1.244156241416931152e+00 1.331998229026794434e+00 7.728463411331176758e-01 1.209370136260986328e+00
2.740000000000000000e+03 4.192459487915039062e+01 2.652929496765136719e+01 7.522019147872924805e-01 6.617671847343444824e-01 4.241907298564910889e-01 4.564599990844726562e-01
2.741000000000000000e+03 4.481534576416015625e+01 2.577930641174316406e+01 1.379517078399658203e+00 1.617665052413940430e+00 8.991546034812927246e-01 1.498564124107360840e+00
2.742000000000000000e+03 4.456348419189453125e+01 2.504675102233886719e+01 1.321014642715454102e+00 1.823955297470092773e+00 9.434909820556640625e-01 1.511060714721679688e+00
2.743000000000000000e+03 4.180326080322265625e+01 2.585845756530761719e+01 8.472714424133300781e-01 7.975313067436218262e-01 4.934408366680145264e-01 5.419680476188659668e-01
2.744000000000000000e+03 3.868640136718750000e+01 2.605004692077636719e+01 4.162572920322418213e-01 4.523355662822723389e-01 2.605778574943542480e-01 1.266189385205507278e-03
2.745000000000000000e+03 4.102998352050781250e+01 2.588183975219726562e+01 7.276107072830200195e-01 6.808792948722839355e-01 4.225470125675201416e-01 3.752921819686889648e-01
2.746000000000000000e+03 5.601323699951171875e+01 2.672685241699218750e+01 8.615705370903015137e-01 1.192258358001708984e+01 3.835246086120605469e+00 -6.976741552352905273e-01
2.747000000000000000e+03 6.894216918945312500e+01 1.115884971618652344e+01 -3.591882884502410889e-01 7.794744014739990234e+00 2.230666637420654297e+00 -9.547830820083618164e-01
2.748000000000000000e+03 3.280670928955078125e+01 2.760777091979980469e+01 -8.766463398933410645e-02 1.209198310971260071e-01 9.976559318602085114e-03 -3.957511484622955322e-01
2.749000000000000000e+03 3.118177032470703125e+01 2.352895736694335938e+01 2.031904309988021851e-01 1.189516782760620117e-01 9.664262831211090088e-02 -3.178273737430572510e-01
2.750000000000000000e+03 3.008143806457519531e+01 2.367523574829101562e+01 1.490276455879211426e-01 2.619263343513011932e-02 5.256608501076698303e-02 -3.425005972385406494e-01
2.751000000000000000e+03 6.935463714599609375e+01 -9.755110740661621094e+00 -1.253145039081573486e-01 7.907251834869384766e+00 2.334581136703491211e+00 -2.347902655601501465e-01
2.752000000000000000e+03 6.824624633789062500e+01 -1.016878986358642578e+01 -1.431116759777069092e-01 7.745221138000488281e+00 2.280632734298706055e+00 -2.246403843164443970e-01
2.753000000000000000e+03 8.233368873596191406e+00 7.996607780456542969e+00 -2.179970761062577367e-04 -5.905315629206597805e-05 -8.311506826430559158e-05 -3.649183054221794009e-05
2.754000000000000000e+03 8.180337905883789062e+00 8.992135047912597656e+00 1.896464964374899864e-04 8.628294744994491339e-05 8.277883171103894711e-05 2.102092730638105422e-05
2.755000000000000000e+03 6.697771453857421875e+01 1.985650634765625000e+01 -1.095805913209915161e-01 8.008525848388671875e+00 2.369683504104614258e+00 -1.345745563507080078e+00
2.756000000000000000e+03 6.929403686523437500e+01 1.679154968261718750e+01 -2.180318832397460938e-01 7.706381797790527344e+00 2.246505022048950195e+00 -1.216292858123779297e+00
2.757000000000000000e+03 7.019066619873046875e+01 1.340904521942138672e+01 -2.722806036472320557e-01 7.710936546325683594e+00 2.231596708297729492e+00 -1.046978235244750977e+00
2.758000000000000000e+03 3.187959098815917969e+01 -4.586635112762451172e+00 -4.129835218191146851e-02 1.210866332054138184e+00 3.508703708648681641e-01 2.104008346796035767e-01
2.759000000000000000e+03 3.064072608947753906e+01 -5.973356723785400391e+00 -3.652010113000869751e-02 9.718770384788513184e-01 2.806070744991302490e-01 1.857717037200927734e-01
2.760000000000000000e+03 3.264994049072265625e+01 1.710494995117187500e+01 3.567745387554168701e-01 5.755301117897033691e-01 2.796913981437683105e-01 5.431400611996650696e-02
2.761000000000000000e+03 3.305303192138671875e+01 1.808151626586914062e+01 3.898835480213165283e-01 5.694230794906616211e-01 2.877919971942901611e-01 3.935732319951057434e-02
2.762000000000000000e+03 2.949969482421875000e+01 2.704930877685546875e+01 -5.211358889937400818e-02 -1.254089269787073135e-02 -1.939634419977664948e-02 -4.032679796218872070e-01
2.763000000000000000e+03 2.832839202880859375e+01 2.579773712158203125e+01 1.300941035151481628e-02 -8.482012152671813965e-02 -2.154321223497390747e-02 -3.883476257324218750e-01
2.764000000000000000e+03 6.878928375244140625e+01 8.733220100402832031e+00 -3.617730140686035156e-01 7.794352054595947266e+00 2.229773759841918945e+00 -8.381118178367614746e-01
2.765000000000000000e+03 6.918859863281250000e+01 7.122657775878906250e+00 -3.356618583202362061e-01 7.802381038665771484e+00 2.240015745162963867e+00 -7.612683773040771484e-01
2.766000000000000000e+03 3.233953475952148438e+01 1.606093025207519531e+01 3.262912333011627197e-01 5.914018750190734863e-01 2.753079235553741455e-01 7.838425785303115845e-02
2.767000000000000000e+03 3.164562034606933594e+01 1.138773536682128906e+01 1.844429820775985718e-01 6.964191198348999023e-01 2.642586231231689453e-01 1.792427897453308105e-01
2.768000000000000000e+03 3.181478118896484375e+01 1.256335735321044922e+01 2.250810265541076660e-01 6.856628656387329102e-01 2.732231616973876953e-01 1.579794138669967651e-01
2.769000000000000000e+03 6.966955566406250000e+01 1.244350242614746094e+01 -3.078168332576751709e-01 7.762088775634765625e+00 2.236281633377075195e+00 -1.025016188621520996e+00
2.770000000000000000e+03 3.231571578979492188e+01 9.815033912658691406e+00 1.616142094135284424e-01 9.236197471618652344e-01 3.255701959133148193e-01 2.388942390680313110e-01
2.771000000000000000e+03 5.734212875366210938e+01 2.825975227355957031e+01 2.293214321136474609e+00 1.139753532409667969e+01 4.107224941253662109e+00 -1.213055491447448730e+00
2.772000000000000000e+03 5.694620132446289062e+01 2.922192955017089844e+01 3.188513040542602539e+00 1.162418746948242188e+01 4.443809986114501953e+00 -1.121187686920166016e+00
2.773000000000000000e+03 3.144412422180175781e+01 2.015918159484863281e+01 3.035644888877868652e-01 2.551961243152618408e-01 1.676281839609146118e-01 -1.496028900146484375e-01
2.774000000000000000e+03 3.094988250732421875e+01 2.154474830627441406e+01 2.624687552452087402e-01 1.528373360633850098e-01 1.245918273925781250e-01 -2.363063991069793701e-01
2.775000000000000000e+03 6.899508666992187500e+01 2.105314826965332031e+01 3.935591503977775574e-02 7.638316154479980469e+00 2.303301572799682617e+00 -1.332960128784179688e+00
2.776000000000000000e+03 8.781361579895019531e+00 1.900193023681640625e+01 -1.107556017814204097e-04 -2.018467639572918415e-04 -9.378071263199672103e-05 9.751115430844947696e-05
2.777000000000000000e+03 5.497704505920410156e+00 -2.018475914001464844e+01 1.729621289996430278e-04 -3.672369057312607765e-04 -5.828242865391075611e-05 2.265401999466121197e-04
2.778000000000000000e+03 6.590439605712890625e+01 -2.463170242309570312e+01 -5.481574311852455139e-02 7.372321605682373047e+00 2.195251941680908203e+00 -5.187969654798507690e-02
2.779000000000000000e+03 5.819026184082031250e+01 2.965360832214355469e+01 3.230306148529052734e+00 1.073847007751464844e+01 4.190632820129394531e+00 -9.244261384010314941e-01
2.780000000000000000e+03 6.772399139404296875e+01 2.662038612365722656e+01 6.489915251731872559e-01 7.668487071990966797e+00 2.495243549346923828e+00 -1.180231809616088867e+00
2.781000000000000000e+03 3.050786590576171875e+01 8.086952209472656250e+00 8.452784270048141479e-02 6.262939572334289551e-01 2.132465392351150513e-01 1.903045177459716797e-01
2.782000000000000000e+03 3.141146659851074219e+01 1.035645294189453125e+01 1.656134128570556641e-01 7.068189978599548340e-01 2.617297172546386719e-01 1.917654424905776978e-01
2.783000000000000000e+03 3.251356506347656250e+01 1.958802795410156250e+01 3.625108599662780762e-01 4.013214409351348877e-01 2.291496843099594116e-01 -7.009474933147430420e-02
2.784000000000000000e+03 6.298419189453125000e+01 3.033202552795410156e+01 1.795040845870971680e+00 8.856051445007324219e+00 3.195327758789062500e+00 -5.976026058197021484e-01
2.785000000000000000e+03 3.116633605957031250e+01 3.849910259246826172e+00 2.987275086343288422e-02 9.001897573471069336e-01 2.790187597274780273e-01 2.453450113534927368e-01
2.786000000000000000e+03 6.926235961914062500e+01 2.217912101745605469e+01 1.228914558887481689e-01 7.530652046203613281e+00 2.296062946319580078e+00 -1.307928681373596191e+00
2.787000000000000000e+03 6.837836456298828125e+01 2.000297355651855469e+01 -5.291803926229476929e-02 7.760421276092529297e+00 2.312250852584838867e+00 -1.337758421897888184e+00
2.788000000000000000e+03 3.008186531066894531e+01 2.265106582641601562e+01 1.816125214099884033e-01 3.257386386394500732e-02 6.425591558218002319e-02 -3.088994324207305908e-01
2.789000000000000000e+03 3.218513870239257812e+01 2.372089576721191406e+01 2.296770364046096802e-01 1.824653446674346924e-01 1.236427128314971924e-01 -2.932325601577758789e-01
2.790000000000000000e+03 3.192057037353515625e+01 6.896178245544433594e+00 8.686937391757965088e-02 9.432758688926696777e-01 3.090435564517974854e-01 2.559782266616821289e-01
2.791000000000000000e+03 2.984601783752441406e+01 -9.431172370910644531e+00 -3.766649961471557617e-02 8.728721737861633301e-01 2.505616843700408936e-01 1.360505521297454834e-01
2.792000000000000000e+03 3.072203254699707031e+01 -7.015016078948974609e+00 -4.694911465048789978e-02 1.005164027214050293e+00 2.874644696712493896e-01 1.835714280605316162e-01
2.793000000000000000e+03 3.194651794433593750e+01 1.376902770996093750e+01 2.591637372970581055e-01 6.520780920982360840e-01 2.733725309371948242e-01 1.322967857122421265e-01
2.794000000000000000e+03 3.211020278930664062e+01 1.494438076019287109e+01 2.920465767383575439e-01 6.176084280014038086e-01 2.728964984416961670e-01 1.051225140690803528e-01
2.795000000000000000e+03 3.133427619934082031e+01 -1.246935081481933594e+01 -5.507067963480949402e-02 1.176559567451477051e+00 3.364466726779937744e-01 1.361610740423202515e-01
2.796000000000000000e+03 2.854756546020507812e+01 -1.068032455444335938e+01 -4.053051024675369263e-02 6.145226359367370605e-01 1.721976250410079956e-01 1.216358914971351624e-01
2.797000000000000000e+03 3.121431732177734375e+01 2.466768503189086914e+00 1.190674118697643280e-02 9.383684396743774414e-01 2.850825488567352295e-01 2.442264705896377563e-01
2.798000000000000000e+03 3.241568374633789062e+01 4.086589813232421875e+00 3.378366306424140930e-02 1.121585488319396973e+00 3.466107547283172607e-01 2.819106280803680420e-01
2.799000000000000000e+03 6.928342437744140625e+01 3.261163330078125000e+01 6.981498003005981445e-01 7.223292350769042969e+00 2.376432657241821289e+00 -4.418262243270874023e-01
2.800000000000000000e+03 6.989150238037109375e+01 3.095530891418457031e+01 5.960552692413330078e-01 7.088364124298095703e+00 2.305325746536254883e+00 -6.365883350372314453e-01
2.801000000000000000e+03 7.016993713378906250e+01 -2.288274383544921875e+01 -4.202202335000038147e-02 8.080098152160644531e+00 2.411422967910766602e+00 -8.827289938926696777e-02
2.802000000000000000e+03 6.121914291381835938e+01 3.705391311645507812e+01 6.311076879501342773e-01 1.046409606933593750e+01 3.328561067581176758e+00 8.121190667152404785e-01
2.803000000000000000e+03 3.117330360412597656e+01 -2.126917648315429688e+01 -3.480850160121917725e-02 1.216454386711120605e+00 3.544937670230865479e-01 7.193377614021301270e-02
2.804000000000000000e+03 6.790290832519531250e+01 2.165399932861328125e+01 9.301296621561050415e-02 7.822472572326660156e+00 2.374645709991455078e+00 -1.374307274818420410e+00
2.805000000000000000e+03 6.969106292724609375e+01 2.300418472290039062e+01 1.836358755826950073e-01 7.403947830200195312e+00 2.276275157928466797e+00 -1.281280875205993652e+00
2.806000000000000000e+03 6.930076599121093750e+01 4.517652511596679688e+00 -2.973250746726989746e-01 7.826237201690673828e+00 2.258673667907714844e+00 -6.451445221900939941e-01
2.807000000000000000e+03 6.984529113769531250e+01 -6.193985939025878906e+00 -1.545034945011138916e-01 7.956566333770751953e+00 2.340618848800659180e+00 -2.973686754703521729e-01
2.808000000000000000e+03 6.812065124511718750e+01 -8.811827659606933594e+00 -1.510624289512634277e-01 7.724199771881103516e+00 2.271941184997558594e+00 -2.504117190837860107e-01
2.809000000000000000e+03 6.858438873291015625e+01 -4.061261653900146484e+00 -1.986974477767944336e-01 7.784067153930664062e+00 2.275610923767089844e+00 -3.587269186973571777e-01
2.810000000000000000e+03 6.866448974609375000e+01 -5.098188877105712891e+00 -1.942043751478195190e-01 7.788654804229736328e+00 2.278335094451904297e+00 -3.309860229492187500e-01
2.811000000000000000e+03 2.767867088317871094e+01 -3.377201080322265625e+01 -7.972869090735912323e-03 6.702899336814880371e-01 1.986951231956481934e-01 3.630378842353820801e-02
2.812000000000000000e+03 2.765235710144042969e+01 -3.142923927307128906e+01 -3.214758262038230896e-02 6.746485829353332520e-01 1.927503049373626709e-01 3.140308335423469543e-02
2.813000000000000000e+03 3.158741378784179688e+01 -2.487357139587402344e+01 -2.740276418626308441e-02 1.327071547508239746e+00 3.899006247520446777e-01 5.312263965606689453e-02
2.814000000000000000e+03 4.698503875732421875e+01 2.677361869812011719e+01 1.791307568550109863e+00 2.423490047454833984e+00 1.264439225196838379e+00 2.421257734298706055e+00
2.815000000000000000e+03 5.135364151000976562e+01 2.689387321472167969e+01 7.066172957420349121e-01 9.873666763305664062e+00 3.174085378646850586e+00 3.836831808090209961e+00
2.816000000000000000e+03 4.915007781982421875e+01 2.810599327087402344e+01 2.458314180374145508e+00 4.226644992828369141e+00 2.005487680435180664e+00 4.028125762939453125e+00
2.817000000000000000e+03 4.968750000000000000e+01 2.795649719238281250e+01 2.266620635986328125e+00 5.662684917449951172e+00 2.378791809082031250e+00 4.495795726776123047e+00
2.818000000000000000e+03 4.867035675048828125e+01 2.816200065612792969e+01 2.469944238662719727e+00 3.236426353454589844e+00 1.711911201477050781e+00 3.517361402511596680e+00
2.819000000000000000e+03 5.188922882080078125e+01 2.630258941650390625e+01 2.742415070533752441e-01 1.031334114074707031e+01 3.176274776458740234e+00 3.119791269302368164e+00
2.820000000000000000e+03 4.572024917602539062e+01 2.627228927612304688e+01 1.529701948165893555e+00 1.867296695709228516e+00 1.019099593162536621e+00 1.823463678359985352e+00
2.821000000000000000e+03 4.749470138549804688e+01 2.655659484863281250e+01 1.805155038833618164e+00 3.068259716033935547e+00 1.462024450302124023e+00 2.754158735275268555e+00
2.822000000000000000e+03 4.798973464965820312e+01 2.630876922607421875e+01 1.739737272262573242e+00 3.760583639144897461e+00 1.650096297264099121e+00 3.065170049667358398e+00
2.823000000000000000e+03 5.198076248168945312e+01 2.691473960876464844e+01 3.699006438255310059e-01 1.107169246673583984e+01 3.432477951049804688e+00 3.408502101898193359e+00
2.824000000000000000e+03 3.026860237121582031e+01 2.577305221557617188e+01 3.783915191888809204e-02 2.973615564405918121e-02 2.027259208261966705e-02 -3.934239149093627930e-01
2.825000000000000000e+03 3.947243118286132812e+01 2.599003410339355469e+01 5.106277465820312500e-01 5.150156021118164062e-01 3.076930046081542969e-01 1.083122491836547852e-01
2.826000000000000000e+03 4.088211822509765625e+01 2.518505859375000000e+01 7.999452352523803711e-01 8.003991842269897461e-01 4.801033437252044678e-01 4.439052343368530273e-01
2.827000000000000000e+03 2.957244682312011719e+01 2.520897483825683594e+01 6.333976238965988159e-02 -9.790159761905670166e-03 1.606488227844238281e-02 -3.856822848320007324e-01
2.828000000000000000e+03 5.387762069702148438e+01 2.656638336181640625e+01 1.055196225643157959e-01 1.249796199798583984e+01 3.781044244766235352e+00 1.005517601966857910e+00
2.829000000000000000e+03 5.418306732177734375e+01 2.704559326171875000e+01 3.902564644813537598e-01 1.305244541168212891e+01 4.032810688018798828e+00 5.791950225830078125e-01
2.830000000000000000e+03 3.687857818603515625e+01 2.541835975646972656e+01 3.492515683174133301e-01 3.899089097976684570e-01 2.217481434345245361e-01 -1.280299872159957886e-01
2.831000000000000000e+03 2.912167549133300781e+01 2.606169700622558594e+01 7.053639274090528488e-03 -3.635640814900398254e-02 -8.790831081569194794e-03 -3.987408280372619629e-01
2.832000000000000000e+03 3.487462234497070312e+01 2.674546813964843750e+01 6.498563289642333984e-02 2.110555171966552734e-01 8.281234651803970337e-02 -3.245794177055358887e-01
2.833000000000000000e+03 3.612127685546875000e+01 2.568965339660644531e+01 2.764123678207397461e-01 3.375573158264160156e-01 1.841908991336822510e-01 -1.997737139463424683e-01
2.834000000000000000e+03 3.418930435180664062e+01 2.670522499084472656e+01 3.840968385338783264e-02 1.800027936697006226e-01 6.552374362945556641e-02 -3.466023206710815430e-01
2.835000000000000000e+03 3.505499267578125000e+01 2.599997138977050781e+01 1.567864567041397095e-01 2.423302084207534790e-01 1.197350025177001953e-01 -2.838271558284759521e-01
2.836000000000000000e+03 3.932961273193359375e+01 2.532132911682128906e+01 5.933918356895446777e-01 6.080182194709777832e-01 3.604230284690856934e-01 1.660166531801223755e-01
2.837000000000000000e+03 3.414739227294921875e+01 2.746466445922851562e+01 -5.458690598607063293e-02 1.603078842163085938e-01 3.171629458665847778e-02 -3.687332570552825928e-01
2.838000000000000000e+03 3.281023025512695312e+01 2.690938186645507812e+01 -6.768235471099615097e-03 1.309527605772018433e-01 3.725535422563552856e-02 -3.908907473087310791e-01
2.839000000000000000e+03 3.776408004760742188e+01 2.539180564880371094e+01 4.275425672531127930e-01 4.549878835678100586e-01 2.647591233253479004e-01 -3.235312551259994507e-02
2.840000000000000000e+03 3.856988143920898438e+01 2.538016128540039062e+01 5.070434212684631348e-01 5.157376527786254883e-01 3.068343400955200195e-01 4.925093799829483032e-02
2.841000000000000000e+03 5.763360977172851562e+01 2.728912544250488281e+01 1.514620900154113770e+00 1.113596439361572266e+01 3.795175552368164062e+00 -1.178486108779907227e+00
2.842000000000000000e+03 4.640812683105468750e+01 2.580526542663574219e+01 1.566475629806518555e+00 2.508232593536376953e+00 1.222412467002868652e+00 2.209359169006347656e+00
2.843000000000000000e+03 4.333292388916015625e+01 2.585759353637695312e+01 1.104172110557556152e+00 1.101255297660827637e+00 6.616282463073730469e-01 9.464800953865051270e-01
2.844000000000000000e+03 4.390452575683593750e+01 2.512382698059082031e+01 1.242978453636169434e+00 1.537206888198852539e+00 8.340556025505065918e-01 1.265714526176452637e+00
2.845000000000000000e+03 4.435705184936523438e+01 2.431418609619140625e+01 1.246862530708312988e+00 2.001306533813476562e+00 9.744507670402526855e-01 1.502272009849548340e+00
2.846000000000000000e+03 4.166443634033203125e+01 2.516558074951171875e+01 9.078435301780700684e-01 9.321282505989074707e-01 5.519915223121643066e-01 6.139421463012695312e-01
2.847000000000000000e+03 3.199651145935058594e+01 2.114534378051757812e+01 3.112811148166656494e-01 2.638317942619323730e-01 1.725338846445083618e-01 -1.797186732292175293e-01
2.848000000000000000e+03 6.622308349609375000e+01 2.018101882934570312e+01 -8.868918567895889282e-02 8.133764266967773438e+00 2.413522481918334961e+00 -1.363078355789184570e+00
2.849000000000000000e+03 3.026326751708984375e+01 2.455499839782714844e+01 1.123379021883010864e-01 3.303433582186698914e-02 4.361167177557945251e-02 -3.667358160018920898e-01
2.850000000000000000e+03 3.368441772460937500e+01 2.471876907348632812e+01 2.181486040353775024e-01 2.276002466678619385e-01 1.337246596813201904e-01 -2.896852791309356689e-01
2.851000000000000000e+03 3.463553237915039062e+01 1.627338027954101562e+01 4.118119478225708008e-01 9.578948020935058594e-01 4.109120368957519531e-01 2.246220558881759644e-01
2.852000000000000000e+03 5.847303009033203125e+01 2.851999855041503906e+01 2.369076728820800781e+00 1.061794376373291016e+01 3.896106243133544922e+00 -1.120816946029663086e+00
2.853000000000000000e+03 6.784693908691406250e+01 1.846296310424804688e+01 -1.861051023006439209e-01 7.882880687713623047e+00 2.309032678604125977e+00 -1.304180502891540527e+00
2.854000000000000000e+03 6.836818695068359375e+01 1.655299377441406250e+01 -2.665111720561981201e-01 7.818858623504638672e+00 2.265704393386840820e+00 -1.230084300041198730e+00
2.855000000000000000e+03 6.834213256835937500e+01 1.027484321594238281e+01 -3.862914144992828369e-01 7.799976348876953125e+00 2.224105596542358398e+00 -9.154094457626342773e-01
2.856000000000000000e+03 6.788399505615234375e+01 9.224096298217773438e+00 -4.119961559772491455e-01 7.793481826782226562e+00 2.214445829391479492e+00 -8.536059856414794922e-01
2.857000000000000000e+03 3.128658103942871094e+01 -1.081778621673583984e+01 -4.964078962802886963e-02 1.156123757362365723e+00 3.319449126720428467e-01 1.528404802083969116e-01
2.858000000000000000e+03 3.116440963745117188e+01 2.251549911499023438e+01 2.331786900758743286e-01 1.444152444601058960e-01 1.132781803607940674e-01 -2.742382586002349854e-01
2.859000000000000000e+03 3.290567779541015625e+01 8.644154548645019531e+00 1.356815099716186523e-01 1.079071879386901855e+00 3.644260168075561523e-01 2.758186757564544678e-01
2.860000000000000000e+03 5.970254516601562500e+01 2.860669517517089844e+01 2.124933958053588867e+00 9.988392829895019531e+00 3.633998155593872070e+00 -1.087039589881896973e+00
2.861000000000000000e+03 3.354815673828125000e+01 1.900822830200195312e+01 4.174674451351165771e-01 5.732694268226623535e-01 2.972210645675659180e-01 2.584656700491905212e-02
2.862000000000000000e+03 3.309347534179687500e+01 1.342738246917724609e+01 2.817317843437194824e-01 8.758888840675354004e-01 3.472861945629119873e-01 2.070205062627792358e-01
2.863000000000000000e+03 3.404898071289062500e+01 1.758305358886718750e+01 4.241353273391723633e-01 7.565096616744995117e-01 3.541935086250305176e-01 1.316320896148681641e-01
2.864000000000000000e+03 6.792071533203125000e+01 -7.635354399681091309e-01 -2.676257193088531494e-01 7.710858345031738281e+00 2.232969760894775391e+00 -4.532894194126129150e-01
2.865000000000000000e+03 6.891921234130859375e+01 1.730029284954071045e-01 -2.528752088546752930e-01 7.810610771179199219e+00 2.267320632934570312e+00 -4.831852018833160400e-01
2.866000000000000000e+03 3.169622802734375000e+01 8.242379188537597656e+00 1.016535982489585876e-01 8.398797512054443359e-01 2.824600040912628174e-01 2.268050014972686768e-01
2.867000000000000000e+03 3.282446670532226562e+01 1.087129116058349609e+01 1.933680921792984009e-01 9.688339233398437500e-01 3.486605882644653320e-01 2.446741014719009399e-01
2.868000000000000000e+03 6.972148132324218750e+01 -1.367418956756591797e+01 -8.775958418846130371e-02 7.977081775665283203e+00 2.366796731948852539e+00 -1.607264727354049683e-01
2.869000000000000000e+03 6.941780853271484375e+01 -8.734894752502441406e+00 -1.271272599697113037e-01 7.920219421386718750e+00 2.337927579879760742e+00 -2.509504854679107666e-01
2.870000000000000000e+03 6.924414825439453125e+01 1.423382091522216797e+01 -3.006718754768371582e-01 7.752583503723144531e+00 2.235573530197143555e+00 -1.104364752769470215e+00
2.871000000000000000e+03 6.899901580810546875e+01 1.589349079132080078e+01 -2.712482810020446777e-01 7.763901710510253906e+00 2.247796058654785156e+00 -1.188948512077331543e+00
2.872000000000000000e+03 2.972619056701660156e+01 9.176773577928543091e-02 -1.336552761495113373e-02 6.850420832633972168e-01 2.015029788017272949e-01 2.047830373048782349e-01
2.873000000000000000e+03 3.066467094421386719e+01 1.204082489013671875e+00 9.436741471290588379e-03 8.681693077087402344e-01 2.632818222045898438e-01 2.314117550849914551e-01
2.874000000000000000e+03 3.225014114379882812e+01 -3.437382221221923828e+00 -3.524377569556236267e-02 1.262962222099304199e+00 3.683155477046966553e-01 2.287835627794265747e-01
2.875000000000000000e+03 3.176662063598632812e+01 4.055615961551666260e-01 -1.243353448808193207e-02 1.098792314529418945e+00 3.259076476097106934e-01 2.441176772117614746e-01
2.876000000000000000e+03 6.831421661376953125e+01 -7.483987808227539062e+00 -1.714189052581787109e-01 7.740765571594238281e+00 2.270803928375244141e+00 -2.784638702869415283e-01
2.877000000000000000e+03 6.726756286621093750e+01 2.333744430541992188e+01 2.731604576110839844e-01 7.893096446990966797e+00 2.449877023696899414e+00 -1.370489597320556641e+00
2.878000000000000000e+03 6.808325195312500000e+01 4.555772781372070312e+00 -3.502532839775085449e-01 7.744993686676025391e+00 2.218422174453735352e+00 -6.438482999801635742e-01
2.879000000000000000e+03 6.823683166503906250e+01 3.182443857192993164e+00 -3.257778584957122803e-01 7.747642040252685547e+00 2.226559400558471680e+00 -5.851274132728576660e-01
2.880000000000000000e+03 3.322229003906250000e+01 1.458641052246093750e+01 3.198994994163513184e-01 8.266766071319580078e-01 3.439728319644927979e-01 1.801382750272750854e-01
2.881000000000000000e+03 6.760099029541015625e+01 -4.133320331573486328e+00 -2.348370254039764404e-01 7.660306453704833984e+00 2.227640867233276367e+00 -3.503902554512023926e-01
2.882000000000000000e+03 6.868707275390625000e+01 -1.638252139091491699e+00 -2.340821325778961182e-01 7.794623374938964844e+00 2.268162250518798828e+00 -4.258477091789245605e-01
2.883000000000000000e+03 3.339791107177734375e+01 -1.362829113006591797e+01 -7.418740540742874146e-02 1.577291488647460938e+00 4.509312212467193604e-01 1.381790935993194580e-01
2.884000000000000000e+03 6.747357940673828125e+01 -1.615591239929199219e+01 -9.878619015216827393e-02 7.631214141845703125e+00 2.259728431701660156e+00 -1.340752840042114258e-01
2.885000000000000000e+03 6.709684753417968750e+01 -2.069628334045410156e+01 -7.328558713197708130e-02 7.562389850616455078e+00 2.246731281280517578e+00 -9.179802238941192627e-02
2.886000000000000000e+03 3.474974060058593750e+01 6.082110404968261719e+00 6.493257731199264526e-02 1.545982956886291504e+00 4.832746684551239014e-01 3.459062874317169189e-01
2.887000000000000000e+03 3.343854904174804688e+01 5.800528526306152344e+00 6.425951421260833740e-02 1.285554528236389160e+00 4.049442112445831299e-01 3.081053495407104492e-01
2.888000000000000000e+03 6.770056915283203125e+01 2.898820495605468750e+01 8.281045556068420410e-01 7.591379165649414062e+00 2.525845050811767578e+00 -9.071909785270690918e-01
2.889000000000000000e+03 6.874873352050781250e+01 2.777915763854980469e+01 6.368580460548400879e-01 7.382394790649414062e+00 2.405776023864746094e+00 -1.013736128807067871e+00
2.890000000000000000e+03 5.969945907592773438e+01 3.006010246276855469e+01 2.837535858154296875e+00 9.901906013488769531e+00 3.821832656860351562e+00 -6.769974827766418457e-01
2.891000000000000000e+03 3.273983383178710938e+01 -1.751255989074707031e+01 -5.167568475008010864e-02 1.475205540657043457e+00 4.270589649677276611e-01 1.078201904892921448e-01
2.892000000000000000e+03 6.721074676513671875e+01 6.529388427734375000e+00 -4.129733741283416748e-01 7.723611831665039062e+00 2.193191528320312500e+00 -7.140088677406311035e-01
2.893000000000000000e+03 6.809439849853515625e+01 7.661087036132812500e+00 -3.862529397010803223e-01 7.776792049407958984e+00 2.217161893844604492e+00 -7.819767594337463379e-01
2.894000000000000000e+03 6.842337799072265625e+01 3.487211608886718750e+01 6.303976178169250488e-01 7.622080326080322266e+00 2.475743532180786133e+00 -1.623882949352264404e-01
2.895000000000000000e+03 9.233214378356933594e+00 1.995057678222656250e+01 7.981264934642240405e-05 2.304825029568746686e-04 9.308854350820183754e-05 -1.333664840785786510e-04
2.896000000000000000e+03 6.851242065429687500e+01 1.217378902435302734e+01 -3.717831969261169434e-01 7.807354927062988281e+00 2.230671405792236328e+00 -1.008464813232421875e+00
2.897000000000000000e+03 6.687312316894531250e+01 2.217214584350585938e+01 1.472780108451843262e-01 8.018674850463867188e+00 2.449785947799682617e+00 -1.405163288116455078e+00
2.898000000000000000e+03 6.786789703369140625e+01 2.451127243041992188e+01 3.841562867164611816e-01 7.722535610198974609e+00 2.432007551193237305e+00 -1.311915040016174316e+00
2.899000000000000000e+03 6.634980010986328125e+01 -2.242497253417968750e+01 -7.014518976211547852e-02 7.444516658782958984e+00 2.212311267852783203e+00 -8.106549084186553955e-02
2.900000000000000000e+03 6.746308135986328125e+01 2.067135620117187500e+01 -3.629725659266114235e-03 7.924113750457763672e+00 2.376145124435424805e+00 -1.376405715942382812e+00
2.901000000000000000e+03 2.979572677612304688e+01 -2.352713012695312500e+01 -2.150972373783588409e-02 9.862986803054809570e-01 2.894366979598999023e-01 4.574464261531829834e-02
2.902000000000000000e+03 3.107325172424316406e+01 -2.335897254943847656e+01 -3.377907723188400269e-02 1.228666901588439941e+00 3.584663569927215576e-01 5.800675973296165466e-02
2.903000000000000000e+03 6.036593437194824219e+00 -2.627371597290039062e+01 1.383561990223824978e-03 6.736292853020131588e-04 6.171573768369853497e-04 -1.022118143737316132e-03
2.904000000000000000e+03 3.179304504394531250e+01 -5.830254554748535156e+00 -4.807212576270103455e-02 1.207610130310058594e+00 3.478613793849945068e-01 1.883924901485443115e-01
2.905000000000000000e+03 4.863304138183593750e+01 2.732040023803710938e+01 2.098710775375366211e+00 3.984463453292846680e+00 1.824952363967895508e+00 3.558187484741210938e+00
2.906000000000000000e+03 5.166590881347656250e+01 2.583738136291503906e+01 2.439053356647491455e-01 9.680277824401855469e+00 2.977254867553710938e+00 3.113030910491943359e+00
2.907000000000000000e+03 4.676335906982421875e+01 2.621529197692871094e+01 1.679155468940734863e+00 2.606873989105224609e+00 1.285808801651000977e+00 2.380306959152221680e+00
2.908000000000000000e+03 4.777118301391601562e+01 2.719162368774414062e+01 1.998591184616088867e+00 2.921151638031005859e+00 1.475922822952270508e+00 2.918442010879516602e+00
2.909000000000000000e+03 5.072060775756835938e+01 2.808527565002441406e+01 1.765935897827148438e+00 8.616024971008300781e+00 3.114588260650634766e+00 5.013662338256835938e+00
2.910000000000000000e+03 5.236312866210937500e+01 2.606225967407226562e+01 5.146990716457366943e-02 1.080788707733154297e+01 3.257807016372680664e+00 2.749491453170776367e+00
2.911000000000000000e+03 5.311241149902343750e+01 2.633592033386230469e+01 -2.473478578031063080e-02 1.189317131042480469e+01 3.560531139373779297e+00 1.941761255264282227e+00
2.912000000000000000e+03 4.544119644165039062e+01 2.561200332641601562e+01 1.474575757980346680e+00 2.013159036636352539e+00 1.046320438385009766e+00 1.807136058807373047e+00
2.913000000000000000e+03 4.596535491943359375e+01 2.535995864868164062e+01 1.493244051933288574e+00 2.445668697357177734e+00 1.181673765182495117e+00 2.044062614440917969e+00
2.914000000000000000e+03 5.016419601440429688e+01 2.761782264709472656e+01 1.844202518463134766e+00 7.026380538940429688e+00 2.661175012588500977e+00 4.552587985992431641e+00
2.915000000000000000e+03 5.000794601440429688e+01 2.671286010742187500e+01 1.403216838836669922e+00 6.846796512603759766e+00 2.475003957748413086e+00 4.058544158935546875e+00
2.916000000000000000e+03 3.093876647949218750e+01 2.615104293823242188e+01 2.250620536506175995e-02 5.276545137166976929e-02 2.258149720728397369e-02 -3.966291844844818115e-01
2.917000000000000000e+03 4.072494888305664062e+01 2.446481132507324219e+01 8.492558598518371582e-01 9.183977246284484863e-01 5.302960872650146484e-01 5.073162913322448730e-01
2.918000000000000000e+03 4.009341812133789062e+01 2.523544502258300781e+01 6.940492391586303711e-01 6.835580468177795410e-01 4.132822155952453613e-01 2.950000166893005371e-01
2.919000000000000000e+03 3.584146118164062500e+01 2.426159286499023438e+01 3.879136145114898682e-01 4.101020395755767822e-01 2.394046932458877563e-01 -1.288640052080154419e-01
2.920000000000000000e+03 3.683652496337890625e+01 2.459995269775390625e+01 4.352502226829528809e-01 4.596130847930908203e-01 2.684589922428131104e-01 -6.990625709295272827e-02
2.921000000000000000e+03 3.538373565673828125e+01 2.515999794006347656e+01 2.821572124958038330e-01 3.143048286437988281e-01 1.789386123418807983e-01 -2.149046510457992554e-01
2.922000000000000000e+03 3.348712539672851562e+01 2.677666282653808594e+01 1.463317312300205231e-02 1.612740457057952881e-01 5.277216807007789612e-02 -3.707857728004455566e-01
2.923000000000000000e+03 3.316199493408203125e+01 2.524564552307128906e+01 1.576297283172607422e-01 1.919419914484024048e-01 1.048715189099311829e-01 -3.229664564132690430e-01
2.924000000000000000e+03 4.243058776855468750e+01 2.515920829772949219e+01 1.018748402595520020e+00 1.089457750320434570e+00 6.324618458747863770e-01 8.028675913810729980e-01
2.925000000000000000e+03 5.541728591918945312e+01 2.633196640014648438e+01 4.136288762092590332e-01 1.204849147796630859e+01 3.738636016845703125e+00 -1.954533457756042480e-01
2.926000000000000000e+03 5.461771774291992188e+01 2.665463829040527344e+01 3.576045632362365723e-01 1.256491947174072266e+01 3.876757144927978516e+00 2.436408996582031250e-01
2.927000000000000000e+03 4.563130187988281250e+01 2.480633735656738281e+01 1.376216769218444824e+00 2.436978101730346680e+00 1.143958449363708496e+00 1.925698637962341309e+00
2.928000000000000000e+03 4.318234252929687500e+01 2.515192604064941406e+01 1.135140299797058105e+00 1.281462669372558594e+00 7.249808907508850098e-01 1.023444175720214844e+00
2.929000000000000000e+03 4.371054077148437500e+01 2.439763832092285156e+01 1.196229577064514160e+00 1.699395179748535156e+00 8.686874508857727051e-01 1.287330746650695801e+00
2.930000000000000000e+03 3.773757934570312500e+01 2.468641090393066406e+01 5.097586512565612793e-01 5.284792780876159668e-01 3.114713728427886963e-01 2.453678660094738007e-02
2.931000000000000000e+03 3.849925613403320312e+01 2.474206924438476562e+01 5.610775947570800781e-01 5.721957683563232422e-01 3.399820029735565186e-01 1.001617982983589172e-01
2.932000000000000000e+03 4.228097152709960938e+01 2.445226478576660156e+01 1.031082034111022949e+00 1.245530962944030762e+00 6.829838752746582031e-01 8.613271713256835938e-01
2.933000000000000000e+03 4.152082061767578125e+01 2.445363426208496094e+01 9.421883821487426758e-01 1.065790295600891113e+00 6.023935675621032715e-01 6.711723208427429199e-01
2.934000000000000000e+03 5.655096817016601562e+01 2.460974693298339844e+01 5.242456216365098953e-03 1.085067749023437500e+01 3.256775856018066406e+00 -4.237737655639648438e-01
2.935000000000000000e+03 5.674510955810546875e+01 2.705956459045410156e+01 1.237551212310791016e+00 1.163796520233154297e+01 3.862654924392700195e+00 -9.874464869499206543e-01
2.936000000000000000e+03 6.683966064453125000e+01 1.702639961242675781e+01 -3.197812139987945557e-01 7.993678569793701172e+00 2.302169084548950195e+00 -1.232033133506774902e+00
2.937000000000000000e+03 6.822528839111328125e+01 1.505103015899658203e+01 -3.340353965759277344e-01 7.826798439025878906e+00 2.247828960418701172e+00 -1.149905920028686523e+00
2.938000000000000000e+03 6.748728942871093750e+01 -2.466644763946533203e+00 -2.628774344921112061e-01 7.652193546295166016e+00 2.216794967651367188e+00 -3.972450196743011475e-01
2.939000000000000000e+03 5.864049911499023438e+01 2.740485763549804688e+01 1.584380984306335449e+00 1.052550411224365234e+01 3.632965564727783203e+00 -1.277925968170166016e+00
2.940000000000000000e+03 3.078386116027832031e+01 2.509473609924316406e+01 8.880129456520080566e-02 5.690397694706916809e-02 4.371158033609390259e-02 -3.760654032230377197e-01
2.941000000000000000e+03 3.109214782714843750e+01 2.441016578674316406e+01 1.453550457954406738e-01 8.972582966089248657e-02 7.052426785230636597e-02 -3.490325510501861572e-01
2.942000000000000000e+03 6.724111938476562500e+01 1.164292812347412109e+01 -4.403807520866394043e-01 7.839592456817626953e+00 2.219763517379760742e+00 -9.657910466194152832e-01
2.943000000000000000e+03 6.631512451171875000e+01 9.571324348449707031e+00 -4.881911277770996094e-01 7.778198242187500000e+00 2.187002182006835938e+00 -8.378586769104003906e-01
2.944000000000000000e+03 3.130741119384765625e+01 2.548415756225585938e+01 8.070960640907287598e-02 7.954914867877960205e-02 4.807762801647186279e-02 -3.789163827896118164e-01
2.945000000000000000e+03 6.549214172363281250e+01 2.047577857971191406e+01 -8.688753843307495117e-02 8.245459556579589844e+00 2.447571754455566406e+00 -1.351453900337219238e+00
2.946000000000000000e+03 3.227779388427734375e+01 2.219182777404785156e+01 3.085570335388183594e-01 2.498295903205871582e-01 1.675159931182861328e-01 -2.168684154748916626e-01
2.947000000000000000e+03 3.173644065856933594e+01 -7.126358509063720703e+00 -5.140700936317443848e-02 1.215084791183471680e+00 3.491033315658569336e-01 1.736231148242950439e-01
2.948000000000000000e+03 3.452770614624023438e+01 1.844976806640625000e+01 4.656190574169158936e-01 7.627746462821960449e-01 3.685181140899658203e-01 1.321553736925125122e-01
2.949000000000000000e+03 3.425187683105468750e+01 2.587001991271972656e+01 1.455329805612564087e-01 2.251397967338562012e-01 1.112018302083015442e-01 -3.146703541278839111e-01
2.950000000000000000e+03 3.273329162597656250e+01 2.626330184936523438e+01 4.972411692142486572e-02 1.388548910617828369e-01 5.657370388507843018e-02 -3.754857182502746582e-01
2.951000000000000000e+03 3.572285079956054688e+01 1.672792053222656250e+01 4.623412787914276123e-01 1.099798560142517090e+00 4.686419367790222168e-01 3.012383580207824707e-01
2.952000000000000000e+03 6.884511566162109375e+01 2.039191484451293945e+00 -2.889288961887359619e-01 7.789885044097900391e+00 2.250286817550659180e+00 -5.462864041328430176e-01
2.953000000000000000e+03 3.414165878295898438e+01 1.192529010772705078e+01 2.516340911388397217e-01 1.160918474197387695e+00 4.237657785415649414e-01 2.989093065261840820e-01
2.954000000000000000e+03 3.419929504394531250e+01 8.979957580566406250e+00 1.550358980894088745e-01 1.323614358901977539e+00 4.435950815677642822e-01 3.270885944366455078e-01
2.955000000000000000e+03 3.429069519042968750e+01 1.429873371124267578e+01 3.429270684719085693e-01 1.038388609886169434e+00 4.143947064876556396e-01 2.601311802864074707e-01
2.956000000000000000e+03 3.443700408935546875e+01 1.533570575714111328e+01 3.781913220882415771e-01 9.869632720947265625e-01 4.095463752746582031e-01 2.394034266471862793e-01
2.957000000000000000e+03 6.845040130615234375e+01 5.905858516693115234e+00 -3.539056777954101562e-01 7.770005702972412109e+00 2.224830150604248047e+00 -7.025409340858459473e-01
2.958000000000000000e+03 6.787635040283203125e+01 1.051620841026306152e+00 -3.107127547264099121e-01 7.710117816925048828e+00 2.219821453094482422e+00 -5.155912041664123535e-01
2.959000000000000000e+03 3.318753051757812500e+01 -1.209503459930419922e+01 -6.873179227113723755e-02 1.529485344886779785e+00 4.382260739803314209e-01 1.529039740562438965e-01
2.960000000000000000e+03 6.804031372070312500e+01 1.329732990264892578e+01 -3.768183887004852295e-01 7.830482482910156250e+00 2.236099243164062500e+00 -1.059497237205505371e+00
2.961000000000000000e+03 6.684503173828125000e+01 1.263689327239990234e+01 -4.531380832195281982e-01 7.877193927764892578e+00 2.227216720581054688e+00 -1.009230613708496094e+00
2.962000000000000000e+03 3.419669342041015625e+01 1.316425514221191406e+01 3.005690574645996094e-01 1.098908543586730957e+00 4.198432862758636475e-01 2.817792594432830811e-01
2.963000000000000000e+03 6.736480712890625000e+01 -6.117464542388916016e+00 -2.099423259496688843e-01 7.604043960571289062e+00 2.218230485916137695e+00 -3.014186918735504150e-01
2.964000000000000000e+03 6.761729431152343750e+01 -5.145153999328613281e+00 -2.173942476511001587e-01 7.653216838836669922e+00 2.230746746063232422e+00 -3.263261616230010986e-01
2.965000000000000000e+03 6.390427398681640625e+01 -8.175387382507324219e+00 -2.464549839496612549e-01 7.131924629211425781e+00 2.065640926361083984e+00 -2.301081717014312744e-01
2.966000000000000000e+03 6.680744934082031250e+01 -1.068089675903320312e+01 -1.624165326356887817e-01 7.523323535919189453e+00 2.208271980285644531e+00 -2.136760950088500977e-01
2.967000000000000000e+03 3.549597549438476562e+01 -1.794743537902832031e+01 -7.925261557102203369e-02 1.986821651458740234e+00 5.722706913948059082e-01 1.087864711880683899e-01
2.968000000000000000e+03 3.373690032958984375e+01 -1.514709281921386719e+01 -6.460476666688919067e-02 1.662503361701965332e+00 4.793695807456970215e-01 1.307490915060043335e-01
2.969000000000000000e+03 3.323837280273437500e+01 1.164632320404052734e+00 -8.862239308655261993e-03 1.372239589691162109e+00 4.090132117271423340e-01 2.855586707592010498e-01
2.970000000000000000e+03 3.267843246459960938e+01 2.620189189910888672e+00 6.805599667131900787e-03 1.223852872848510742e+00 3.691975176334381104e-01 2.809710800647735596e-01
2.971000000000000000e+03 6.674631500244140625e+01 2.535302925109863281e+01 5.667024254798889160e-01 7.967088699340820312e+00 2.560137271881103516e+00 -1.316155076026916504e+00
2.972000000000000000e+03 6.598637390136718750e+01 -1.312399864196777344e+01 -1.452612578868865967e-01 7.404375553131103516e+00 2.177734375000000000e+00 -1.790016591548919678e-01
2.973000000000000000e+03 6.440250396728515625e+01 2.981158638000488281e+01 1.431520581245422363e+00 8.491429328918457031e+00 2.976885080337524414e+00 -7.345468997955322266e-01
2.974000000000000000e+03 6.152695846557617188e+01 3.243516921997070312e+01 2.163485288619995117e+00 9.437409400939941406e+00 3.480268478393554688e+00 5.614271759986877441e-02
2.975000000000000000e+03 6.479004669189453125e+01 2.052293968200683594e+01 -1.079313829541206360e-01 8.381164550781250000e+00 2.481969833374023438e+00 -1.337729454040527344e+00
2.976000000000000000e+03 6.582771301269531250e+01 2.254143714904785156e+01 1.735595762729644775e-01 8.224595069885253906e+00 2.519446372985839844e+00 -1.401959538459777832e+00
2.977000000000000000e+03 3.313542556762695312e+01 -5.898213863372802734e+00 -6.281631439924240112e-02 1.468780875205993652e+00 4.217893779277801514e-01 2.164461612701416016e-01
2.978000000000000000e+03 3.403726577758789062e+01 -2.759345293045043945e+00 -5.444306507706642151e-02 1.617352843284606934e+00 4.688729345798492432e-01 2.713933587074279785e-01
2.979000000000000000e+03 6.720938873291015625e+01 8.286137580871582031e+00 -4.303058683872222900e-01 7.761466026306152344e+00 2.199347972869873047e+00 -7.965376973152160645e-01
2.980000000000000000e+03 6.631210327148437500e+01 3.345875549316406250e+01 9.700303673744201660e-01 8.151432037353515625e+00 2.736438751220703125e+00 -2.072572410106658936e-01
2.981000000000000000e+03 6.727209472656250000e+01 1.422294807434082031e+01 -3.940068483352661133e-01 7.881530284881591797e+00 2.246257066726684570e+00 -1.106131196022033691e+00
2.982000000000000000e+03 6.753977203369140625e+01 1.931904792785644531e+01 -1.427786499261856079e-01 7.919543266296386719e+00 2.333029270172119141e+00 -1.329789280891418457e+00
2.983000000000000000e+03 6.101342391967773438e+01 -2.339307594299316406e+01 -9.371870011091232300e-02 6.527333259582519531e+00 1.930084347724914551e+00 -5.661116912961006165e-02
2.984000000000000000e+03 4.934183883666992188e+01 2.743309593200683594e+01 2.028078794479370117e+00 5.227526187896728516e+00 2.176681518554687500e+00 4.020720958709716797e+00
2.985000000000000000e+03 4.720491790771484375e+01 2.595574188232421875e+01 1.648111104965209961e+00 3.049400568008422852e+00 1.409253478050231934e+00 2.603712797164916992e+00
2.986000000000000000e+03 5.077472686767578125e+01 2.659548187255859375e+01 9.068080782890319824e-01 8.533647537231445312e+00 2.832136631011962891e+00 3.984083414077758789e+00
2.987000000000000000e+03 5.051478958129882812e+01 2.712447929382324219e+01 1.312979221343994141e+00 7.971706390380859375e+00 2.785405635833740234e+00 4.337088108062744141e+00
2.988000000000000000e+03 4.852610015869140625e+01 2.771428108215332031e+01 2.288542985916137695e+00 3.463829278945922852e+00 1.725711703300476074e+00 3.459022045135498047e+00
2.989000000000000000e+03 4.895610046386718750e+01 2.765187644958496094e+01 2.280803442001342773e+00 4.380033969879150391e+00 1.998251199722290039e+00 3.892234802246093750e+00
2.990000000000000000e+03 5.098463821411132812e+01 2.605265617370605469e+01 6.034841537475585938e-01 8.832414627075195312e+00 2.830769777297973633e+00 3.594057559967041016e+00
2.991000000000000000e+03 5.144681549072265625e+01 2.629451370239257812e+01 4.290505945682525635e-01 9.675261497497558594e+00 3.031293630599975586e+00 3.428226709365844727e+00
2.992000000000000000e+03 5.122966766357421875e+01 2.552484321594238281e+01 3.306201696395874023e-01 9.000447273254394531e+00 2.799320459365844727e+00 3.160535335540771484e+00
2.993000000000000000e+03 4.681853485107421875e+01 2.544354248046875000e+01 1.533086538314819336e+00 3.030146360397338867e+00 1.368969917297363281e+00 2.439690113067626953e+00
2.994000000000000000e+03 5.632869338989257812e+01 2.603232955932617188e+01 5.380032062530517578e-01 1.156104946136474609e+01 3.629715919494628906e+00 -6.354665756225585938e-01
2.995000000000000000e+03 5.969873046875000000e+01 2.740559387207031250e+01 1.621363162994384766e+00 1.000994682312011719e+01 3.489392995834350586e+00 -1.275605440139770508e+00
2.996000000000000000e+03 3.636230850219726562e+01 2.342938995361328125e+01 4.964691400527954102e-01 5.350157022476196289e-01 3.094454407691955566e-01 -1.820754818618297577e-02
2.997000000000000000e+03 3.988149261474609375e+01 2.449671936035156250e+01 7.496619820594787598e-01 7.882097363471984863e-01 4.613614976406097412e-01 3.469834327697753906e-01
2.998000000000000000e+03 4.058649444580078125e+01 2.372721290588378906e+01 8.643679618835449219e-01 1.030147194862365723e+00 5.683545470237731934e-01 5.583223104476928711e-01
2.999000000000000000e+03 5.364579772949218750e+01 2.601441192626953125e+01 -1.451932191848754883e-01 1.193349170684814453e+01 3.536489486694335938e+00 1.363578796386718750e+00
3.000000000000000000e+03 3.914782714843750000e+01 2.464914512634277344e+01 6.489085555076599121e-01 6.981030702590942383e-01 4.041034877300262451e-01 2.124120295047760010e-01
3.001000000000000000e+03 3.959159469604492188e+01 2.308034896850585938e+01 7.907927632331848145e-01 1.008409500122070312e+00 5.397606492042541504e-01 4.446839690208435059e-01
3.002000000000000000e+03 5.435548019409179688e+01 2.626414871215820312e+01 4.637825116515159607e-02 1.229084396362304688e+01 3.701166629791259766e+00 6.346809864044189453e-01
3.003000000000000000e+03 5.486677169799804688e+01 2.612673377990722656e+01 1.653742790222167969e-01 1.206456661224365234e+01 3.668982267379760742e+00 2.237781882286071777e-01
3.004000000000000000e+03 3.190982627868652344e+01 2.454693984985351562e+01 1.606561243534088135e-01 1.298939585685729980e-01 8.716502040624618530e-02 -3.398796021938323975e-01
3.005000000000000000e+03 3.784263610839843750e+01 2.399184989929199219e+01 5.788472890853881836e-01 6.315119266510009766e-01 3.631077706813812256e-01 1.002639755606651306e-01
3.006000000000000000e+03 4.285764694213867188e+01 2.374194526672363281e+01 1.089148044586181641e+00 1.609598636627197266e+00 8.096240162849426270e-01 1.097253322601318359e+00
3.007000000000000000e+03 3.863764572143554688e+01 2.413264656066894531e+01 6.434692144393920898e-01 6.887232065200805664e-01 3.996577262878417969e-01 1.941111683845520020e-01
3.008000000000000000e+03 4.553880691528320312e+01 2.424712753295898438e+01 1.302051544189453125e+00 2.626011848449707031e+00 1.178418993949890137e+00 1.920562863349914551e+00
3.009000000000000000e+03 4.301431655883789062e+01 2.444007873535156250e+01 1.123970508575439453e+00 1.454215049743652344e+00 7.734556794166564941e-01 1.074408173561096191e+00
3.010000000000000000e+03 4.353159332275390625e+01 2.370255661010742188e+01 1.145517110824584961e+00 1.847903132438659668e+00 8.980260491371154785e-01 1.300474882125854492e+00
3.011000000000000000e+03 3.178200340270996094e+01 2.574784660339355469e+01 6.956802308559417725e-02 9.664789587259292603e-02 4.986477643251419067e-02 -3.791672587394714355e-01
3.012000000000000000e+03 4.416470336914062500e+01 2.361397171020507812e+01 1.177633881568908691e+00 2.114371538162231445e+00 9.876016378402709961e-01 1.480468034744262695e+00
3.013000000000000000e+03 4.139147567749023438e+01 2.372534751892089844e+01 9.457326531410217285e-01 1.208613038063049316e+00 6.463037133216857910e-01 7.269876003265380859e-01
3.014000000000000000e+03 4.214468765258789062e+01 2.374259567260742188e+01 1.029041171073913574e+00 1.396643757820129395e+00 7.277054786682128906e-01 9.078610539436340332e-01
3.015000000000000000e+03 3.450931930541992188e+01 7.466725826263427734e+00 1.096385344862937927e-01 1.459141850471496582e+00 4.706341326236724854e-01 3.417328894138336182e-01
3.016000000000000000e+03 3.272579956054687500e+01 2.298381614685058594e+01 2.876534461975097656e-01 2.391093671321868896e-01 1.580288410186767578e-01 -2.409328520298004150e-01
3.017000000000000000e+03 3.273388671875000000e+01 -2.309833526611328125e+00 -3.910149633884429932e-02 1.333415865898132324e+00 3.882943093776702881e-01 2.466960847377777100e-01
3.018000000000000000e+03 6.488397216796875000e+01 1.457328319549560547e+01 -5.185308456420898438e-01 8.042251586914062500e+00 2.257116317749023438e+00 -1.027396440505981445e+00
3.019000000000000000e+03 6.608448791503906250e+01 1.127387428283691406e+01 -5.087699294090270996e-01 7.847920417785644531e+00 2.201745271682739258e+00 -9.067209959030151367e-01
3.020000000000000000e+03 3.310279464721679688e+01 2.056614303588867188e+01 3.818786442279815674e-01 4.127832949161529541e-01 2.383985817432403564e-01 -8.939836174249649048e-02
3.021000000000000000e+03 6.474092864990234375e+01 2.268172836303710938e+01 1.782549321651458740e-01 8.429375648498535156e+00 2.582289218902587891e+00 -1.392482876777648926e+00
3.022000000000000000e+03 3.553761672973632812e+01 2.142455101013183594e+01 5.135267376899719238e-01 6.290863752365112305e-01 3.427839279174804688e-01 4.506351426243782043e-02
3.023000000000000000e+03 6.731287384033203125e+01 1.055068969726562500e+01 -4.403716921806335449e-01 7.812631130218505859e+00 2.211677789688110352e+00 -9.144520759582519531e-01
3.024000000000000000e+03 3.639112854003906250e+01 1.184319400787353516e+01 2.679041922092437744e-01 1.638082385063171387e+00 5.717960000038146973e-01 4.375125169754028320e-01
3.025000000000000000e+03 6.689086914062500000e+01 -1.568126797676086426e+00 -2.934909462928771973e-01 7.592690944671630859e+00 2.189759969711303711e+00 -4.195646643638610840e-01
3.026000000000000000e+03 3.217888641357421875e+01 2.639484024047851562e+01 2.238443493843078613e-02 1.010874956846237183e-01 3.704157844185829163e-02 -3.890126645565032959e-01
3.027000000000000000e+03 3.158327865600585938e+01 2.632031059265136719e+01 1.959686540067195892e-02 8.638107031583786011e-02 3.179338201880455017e-02 -3.937433063983917236e-01
3.028000000000000000e+03 3.019178962707519531e+01 -1.556194901466369629e+00 -1.109392102807760239e-02 8.073331713676452637e-01 2.388717681169509888e-01 2.068112045526504517e-01
3.029000000000000000e+03 3.527353286743164062e+01 1.181570243835449219e+01 2.577245831489562988e-01 1.396627545356750488e+00 4.963056445121765137e-01 3.644992113113403320e-01
3.030000000000000000e+03 3.628270339965820312e+01 1.293825340270996094e+01 3.159320950508117676e-01 1.536784052848815918e+00 5.558148026466369629e-01 4.229274988174438477e-01
3.031000000000000000e+03 6.564620208740234375e+01 2.141589736938476562e+01 3.052001819014549255e-02 8.240450859069824219e+00 2.481291055679321289e+00 -1.384913086891174316e+00
3.032000000000000000e+03 6.452373504638671875e+01 1.843906211853027344e+01 -3.471967279911041260e-01 8.309170722961425781e+00 2.388592243194580078e+00 -1.213149428367614746e+00
3.033000000000000000e+03 6.626583862304687500e+01 -7.839684486389160156e-01 -3.183003067970275879e-01 7.543886661529541016e+00 2.167675971984863281e+00 -4.368675351142883301e-01
3.034000000000000000e+03 3.304278945922851562e+01 -1.053866481781005859e+01 -6.652559340000152588e-02 1.491278409957885742e+00 4.274258613586425781e-01 1.611011773347854614e-01
3.035000000000000000e+03 3.132069778442382812e+01 -9.206165313720703125e+00 -4.966074600815773010e-02 1.152745366096496582e+00 3.309254050254821777e-01 1.666539162397384644e-01
3.036000000000000000e+03 3.494131851196289062e+01 2.360033416748046875e+01 3.774868249893188477e-01 3.873173296451568604e-01 2.294412404298782349e-01 -1.516430974006652832e-01
3.037000000000000000e+03 6.665518951416015625e+01 4.269207477569580078e+00 -4.008949697017669678e-01 7.654959201812744141e+00 2.176219224929809570e+00 -6.178180575370788574e-01
3.038000000000000000e+03 6.704385375976562500e+01 1.860094070434570312e-02 -3.145819306373596191e-01 7.620756626129150391e+00 2.191852331161499023e+00 -4.698118865489959717e-01
3.039000000000000000e+03 3.410361099243164062e+01 3.188647270202636719e+00 1.070064865052700043e-02 1.525126218795776367e+00 4.607480764389038086e-01 3.198932409286499023e-01
3.040000000000000000e+03 6.692871093750000000e+01 -7.356226921081542969e+00 -2.007413208484649658e-01 7.547349452972412109e+00 2.203982591629028320e+00 -2.777018547058105469e-01
3.041000000000000000e+03 3.529224014282226562e+01 3.858565807342529297e+00 1.357680745422840118e-02 1.771781206130981445e+00 5.356073975563049316e-01 3.538540303707122803e-01
3.042000000000000000e+03 6.555352783203125000e+01 1.815232086181640625e+01 -3.110356032848358154e-01 8.179513931274414062e+00 2.360543489456176758e+00 -1.247788906097412109e+00
3.043000000000000000e+03 6.864984130859375000e+01 -1.536063861846923828e+01 -9.223857522010803223e-02 7.809155464172363281e+00 2.315075159072875977e+00 -1.431831121444702148e-01
3.044000000000000000e+03 6.753788757324218750e+01 -1.232596492767333984e+01 -1.335847824811935425e-01 7.642943382263183594e+00 2.252807617187500000e+00 -1.866470724344253540e-01
3.045000000000000000e+03 6.471523284912109375e+01 2.150697326660156250e+01 1.408460456877946854e-02 8.414318084716796875e+00 2.528520822525024414e+00 -1.362296819686889648e+00
3.046000000000000000e+03 3.625460052490234375e+01 1.619909477233886719e+01 4.561233222484588623e-01 1.257038354873657227e+00 5.139485001564025879e-01 3.631332218647003174e-01
3.047000000000000000e+03 3.553157043457031250e+01 1.600571060180664062e+01 4.347908198833465576e-01 1.142773985862731934e+00 4.732694327831268311e-01 3.097668588161468506e-01
3.048000000000000000e+03 3.099513435363769531e+01 -7.978822708129882812e+00 -4.039324074983596802e-02 1.089800357818603516e+00 3.148221373558044434e-01 1.731683760881423950e-01
3.049000000000000000e+03 3.683349227905273438e+01 1.676761817932128906e+01 4.972206056118011475e-01 1.328838109970092773e+00 5.478175878524780273e-01 4.038541615009307861e-01
3.050000000000000000e+03 3.495372772216796875e+01 1.712907791137695312e+01 4.513677358627319336e-01 9.465607404708862305e-01 4.193785488605499268e-01 2.252534031867980957e-01
3.051000000000000000e+03 6.316901779174804688e+01 2.782646751403808594e+01 1.420580267906188965e+00 8.840276718139648438e+00 3.078257083892822266e+00 -1.172394871711730957e+00
3.052000000000000000e+03 6.481476593017578125e+01 2.409861564636230469e+01 4.275019168853759766e-01 8.426652908325195312e+00 2.656246423721313477e+00 -1.393718600273132324e+00
3.053000000000000000e+03 6.411785888671875000e+01 3.460162734985351562e+01 1.141457200050354004e+00 8.915418624877929688e+00 3.017062664031982422e+00 1.887408494949340820e-01
3.054000000000000000e+03 6.453152465820312500e+01 2.556870460510253906e+01 7.338324785232543945e-01 8.490169525146484375e+00 2.767200469970703125e+00 -1.351882338523864746e+00
3.055000000000000000e+03 6.284023284912109375e+01 2.888845252990722656e+01 1.718333601951599121e+00 8.908912658691406250e+00 3.188174009323120117e+00 -9.441350698471069336e-01
3.056000000000000000e+03 6.663872528076171875e+01 -8.969322204589843750e+00 -1.839199662208557129e-01 7.498859882354736328e+00 2.194481849670410156e+00 -2.425746470689773560e-01
3.057000000000000000e+03 6.314675140380859375e+01 -9.110263824462890625e+00 -2.429434359073638916e-01 6.995783805847167969e+00 2.025851964950561523e+00 -2.013986259698867798e-01
3.058000000000000000e+03 3.380413436889648438e+01 -2.168474960327148438e+01 -5.072220042347908020e-02 1.704532861709594727e+00 4.961431920528411865e-01 7.672067731618881226e-02
3.059000000000000000e+03 6.585444641113281250e+01 1.924658966064453125e+01 -2.156783044338226318e-01 8.182699203491210938e+00 2.390106439590454102e+00 -1.309100389480590820e+00
3.060000000000000000e+03 6.533222961425781250e+01 -4.603666305541992188e+00 -2.847036123275756836e-01 7.364141464233398438e+00 2.123831272125244141e+00 -3.227565884590148926e-01
3.061000000000000000e+03 6.605294799804687500e+01 5.521565437316894531e+00 -4.402548372745513916e-01 7.651650905609130859e+00 2.163418769836425781e+00 -6.488338112831115723e-01
3.062000000000000000e+03 6.374647140502929688e+01 3.889696598052978516e+00 -4.979135692119598389e-01 7.411135196685791016e+00 2.073966503143310547e+00 -5.032497048377990723e-01
3.063000000000000000e+03 6.669618988037109375e+01 2.772564506530761719e+01 8.687614202499389648e-01 7.883578777313232422e+00 2.625701904296875000e+00 -1.094166517257690430e+00
3.064000000000000000e+03 4.825517654418945312e+01 2.691730308532714844e+01 1.956358551979064941e+00 3.740256071090698242e+00 1.708984375000000000e+00 3.306669950485229492e+00
3.065000000000000000e+03 5.288264465332031250e+01 2.573717880249023438e+01 -1.504829227924346924e-01 1.111664199829101562e+01 3.289847612380981445e+00 2.092499732971191406e+00
3.066000000000000000e+03 5.026568222045898438e+01 2.624166488647460938e+01 1.073517084121704102e+00 7.407259464263916016e+00 2.544233083724975586e+00 3.848104000091552734e+00
3.067000000000000000e+03 4.928501892089843750e+01 2.671738433837890625e+01 1.669289231300354004e+00 5.480605602264404297e+00 2.144968509674072266e+00 3.774023294448852539e+00
3.068000000000000000e+03 4.598679733276367188e+01 2.455799484252929688e+01 1.357809782028198242e+00 2.821830034255981445e+00 1.253891944885253906e+00 2.113700151443481445e+00
3.069000000000000000e+03 4.514369583129882812e+01 2.493180465698242188e+01 1.378963351249694824e+00 2.137956142425537109e+00 1.055075764656066895e+00 1.753880977630615234e+00
3.070000000000000000e+03 3.698324966430664062e+01 2.274625015258789062e+01 5.825876593589782715e-01 6.736691594123840332e-01 3.768770396709442139e-01 1.010169759392738342e-01
3.071000000000000000e+03 3.388696289062500000e+01 2.142796897888183594e+01 4.118587076663970947e-01 4.408375024795532227e-01 2.558088600635528564e-01 -9.097097069025039673e-02
3.072000000000000000e+03 3.425276565551757812e+01 2.418665504455566406e+01 3.010610342025756836e-01 3.065903484821319580e-01 1.822954118251800537e-01 -2.260897606611251831e-01
3.073000000000000000e+03 4.758100509643554688e+01 2.446054267883300781e+01 1.261726856231689453e+00 4.054875373840332031e+00 1.594980716705322266e+00 2.681594610214233398e+00
3.074000000000000000e+03 4.770639038085937500e+01 2.562410926818847656e+01 1.527176737785339355e+00 3.799293756484985352e+00 1.597941160202026367e+00 2.857522964477539062e+00
3.075000000000000000e+03 3.976951599121093750e+01 2.377090644836425781e+01 7.725863456726074219e-01 8.952798843383789062e-01 5.003598928451538086e-01 4.034959971904754639e-01
3.076000000000000000e+03 4.043615722656250000e+01 2.294870376586914062e+01 8.689606189727783203e-01 1.167528867721557617e+00 6.109468340873718262e-01 6.084190607070922852e-01
3.077000000000000000e+03 4.130104446411132812e+01 2.297865104675292969e+01 9.489114880561828613e-01 1.356553435325622559e+00 6.916394829750061035e-01 7.877078056335449219e-01
3.078000000000000000e+03 5.581870651245117188e+01 2.562618446350097656e+01 2.161774933338165283e-01 1.146435451507568359e+01 3.504159688949584961e+00 -2.806494235992431641e-01
3.079000000000000000e+03 3.900498580932617188e+01 2.352640151977539062e+01 7.091869115829467773e-01 8.203161358833312988e-01 4.588509202003479004e-01 2.888236641883850098e-01
3.080000000000000000e+03 3.832922363281250000e+01 2.287892341613769531e+01 6.762833595275878906e-01 8.162006735801696777e-01 4.477452039718627930e-01 2.582349777221679688e-01
3.081000000000000000e+03 6.379683303833007812e+01 1.902406883239746094e+01 -3.421639204025268555e-01 8.447461128234863281e+00 2.431589126586914062e+00 -1.197335600852966309e+00
3.082000000000000000e+03 4.477834701538085938e+01 2.345850563049316406e+01 1.178249001502990723e+00 2.492517948150634766e+00 1.101230025291442871e+00 1.686566114425659180e+00
3.083000000000000000e+03 3.525899505615234375e+01 1.299978542327880859e+01 3.115265369415283203e-01 1.318126916885375977e+00 4.888960123062133789e-01 3.534201383590698242e-01
3.084000000000000000e+03 4.204908370971679688e+01 2.303430557250976562e+01 9.977184534072875977e-01 1.536984324455261230e+00 7.604108452796936035e-01 9.373354315757751465e-01
3.085000000000000000e+03 4.130966186523437500e+01 2.218412208557128906e+01 9.238944053649902344e-01 1.528771638870239258e+00 7.357997894287109375e-01 8.506120443344116211e-01
3.086000000000000000e+03 6.542120361328125000e+01 -1.236413359642028809e+00 -3.424836397171020508e-01 7.432092666625976562e+00 2.126882553100585938e+00 -4.031202793121337891e-01
3.087000000000000000e+03 5.714251327514648438e+01 2.546658134460449219e+01 3.985738754272460938e-01 1.091923809051513672e+01 3.395343780517578125e+00 -7.764727473258972168e-01
3.088000000000000000e+03 5.971204757690429688e+01 2.618069076538085938e+01 1.060699820518493652e+00 9.988010406494140625e+00 3.314612865447998047e+00 -1.279359102249145508e+00
3.089000000000000000e+03 6.569947814941406250e+01 1.422842979431152344e+01 -4.822750985622406006e-01 7.982947826385498047e+00 2.250201702117919922e+00 -1.049311876296997070e+00
3.090000000000000000e+03 5.724705505371093750e+01 2.477782821655273438e+01 1.956651657819747925e-01 1.074322319030761719e+01 3.281666278839111328e+00 -6.773848533630371094e-01
3.091000000000000000e+03 5.700622177124023438e+01 2.623652839660644531e+01 8.000379800796508789e-01 1.124196338653564453e+01 3.612600564956665039e+00 -8.822789788246154785e-01
3.092000000000000000e+03 5.781172943115234375e+01 2.635697937011718750e+01 9.700932502746582031e-01 1.086161994934082031e+01 3.549513816833496094e+00 -1.121905803680419922e+00
3.093000000000000000e+03 6.575048065185546875e+01 1.211899185180664062e+01 -5.164630413055419922e-01 7.892253398895263672e+00 2.212737083435058594e+00 -9.343659877777099609e-01
3.094000000000000000e+03 6.511685180664062500e+01 1.088848114013671875e+01 -5.531724095344543457e-01 7.838439941406250000e+00 2.185580253601074219e+00 -8.443300127983093262e-01
3.095000000000000000e+03 6.540364074707031250e+01 1.484027028083801270e+00 -3.906599879264831543e-01 7.488318443298339844e+00 2.129297494888305664e+00 -4.869976341724395752e-01
3.096000000000000000e+03 6.298537826538085938e+01 1.302575874328613281e+01 -6.416364312171936035e-01 7.968447208404541016e+00 2.198043107986450195e+00 -7.998194098472595215e-01
3.097000000000000000e+03 6.638336181640625000e+01 1.509027099609375000e+01 -4.236539304256439209e-01 7.979674816131591797e+00 2.266806364059448242e+00 -1.123443245887756348e+00
3.098000000000000000e+03 3.301688766479492188e+01 2.418096542358398438e+01 2.328029572963714600e-01 2.127856612205505371e-01 1.336765885353088379e-01 -2.886549532413482666e-01
3.099000000000000000e+03 3.264862060546875000e+01 2.477261543273925781e+01 1.795926839113235474e-01 1.820938587188720703e-01 1.085059642791748047e-01 -3.205471336841583252e-01
3.100000000000000000e+03 6.136591339111328125e+01 2.669917869567871094e+01 1.221054673194885254e+00 9.378973960876464844e+00 3.180008411407470703e+00 -1.293945550918579102e+00
3.101000000000000000e+03 6.359408569335937500e+01 2.260962104797363281e+01 1.433377563953399658e-01 8.668458938598632812e+00 2.643539190292358398e+00 -1.360509991645812988e+00
3.102000000000000000e+03 3.412528228759765625e+01 1.988393783569335938e+01 4.515364468097686768e-01 5.894934535026550293e-01 3.123089671134948730e-01 2.260321006178855896e-02
3.103000000000000000e+03 3.509349060058593750e+01 1.925824928283691406e+01 5.014811158180236816e-01 7.713865041732788086e-01 3.818602859973907471e-01 1.354787498712539673e-01
3.104000000000000000e+03 6.384624099731445312e+01 2.856321525573730469e+01 1.453409075736999512e+00 8.609395980834960938e+00 3.018841505050659180e+00 -9.900358915328979492e-01
3.105000000000000000e+03 6.167680740356445312e+01 2.863693428039550781e+01 1.862096786499023438e+00 9.238907814025878906e+00 3.330301284790039062e+00 -1.043214678764343262e+00
3.106000000000000000e+03 3.326709747314453125e+01 2.225292968750000000e+01 3.536747694015502930e-01 3.343258798122406006e-01 2.064002007246017456e-01 -1.711643338203430176e-01
3.107000000000000000e+03 6.524449920654296875e+01 1.011114120483398438e+01 -5.462605953216552734e-01 7.794399738311767578e+00 2.174441814422607422e+00 -8.132984638214111328e-01
3.108000000000000000e+03 6.540638732910156250e+01 9.280372619628906250e+00 -5.357313752174377441e-01 7.760250568389892578e+00 2.167355775833129883e+00 -7.833408713340759277e-01
3.109000000000000000e+03 6.064444351196289062e+01 2.789929389953613281e+01 1.748612165451049805e+00 9.628292083740234375e+00 3.413071393966674805e+00 -1.202066183090209961e+00
3.110000000000000000e+03 7.000019836425781250e+01 -1.226859283447265625e+01 -9.803601354360580444e-02 8.009215354919433594e+00 2.373353719711303711e+00 -1.788565665483474731e-01
3.111000000000000000e+03 6.620458984375000000e+01 7.466848850250244141e+00 -4.709831774234771729e-01 7.706358432769775391e+00 2.170612573623657227e+00 -7.300586104393005371e-01
3.112000000000000000e+03 6.659065246582031250e+01 8.901912689208984375e+00 -4.722092747688293457e-01 7.763297080993652344e+00 2.187326431274414062e+00 -8.069496154785156250e-01
3.113000000000000000e+03 3.443216323852539062e+01 2.498083305358886719e+01 2.471709400415420532e-01 2.793458104133605957e-01 1.579550206661224365e-01 -2.604532837867736816e-01
3.114000000000000000e+03 3.535151672363281250e+01 1.051799869537353516e+01 2.115174233913421631e-01 1.497742414474487305e+00 5.127779245376586914e-01 3.800830543041229248e-01
3.115000000000000000e+03 3.637711715698242188e+01 2.074507522583007812e+01 5.770618915557861328e-01 8.135100603103637695e-01 4.171715974807739258e-01 1.751204580068588257e-01
3.116000000000000000e+03 6.466177368164062500e+01 -2.551415681838989258e+00 -3.293991684913635254e-01 7.319154739379882812e+00 2.096926689147949219e+00 -3.581393659114837646e-01
3.117000000000000000e+03 6.734365844726562500e+01 1.594259738922119141e+01 -3.479813933372497559e-01 7.924353122711181641e+00 2.272911548614501953e+00 -1.192646622657775879e+00
3.118000000000000000e+03 6.672216796875000000e+01 1.814509391784667969e+01 -2.624975442886352539e-01 8.032373428344726562e+00 2.330962657928466797e+00 -1.278905510902404785e+00
3.119000000000000000e+03 6.670880889892578125e+01 1.602490067481994629e+00 -3.507121801376342773e-01 7.625856876373291016e+00 2.182543516159057617e+00 -5.222827792167663574e-01
3.120000000000000000e+03 3.452645492553710938e+01 -8.700274467468261719e+00 -8.368176221847534180e-02 1.780894994735717773e+00 5.091639757156372070e-01 1.897452622652053833e-01
3.121000000000000000e+03 6.265244293212890625e+01 2.109710502624511719e+01 -1.478780061006546021e-01 8.797305107116699219e+00 2.594828367233276367e+00 -1.241037607192993164e+00
3.122000000000000000e+03 6.670639801025390625e+01 -1.469515895843505859e+01 -1.262395828962326050e-01 7.506262302398681641e+00 2.214006900787353516e+00 -1.488599181175231934e-01
3.123000000000000000e+03 3.476182556152343750e+01 1.986845970153808594e+00 -1.758354902267456055e-02 1.689403533935546875e+00 5.015459656715393066e-01 3.182268738746643066e-01
3.124000000000000000e+03 3.642282104492187500e+01 1.484657764434814453e+01 4.171651303768157959e-01 1.406652331352233887e+00 5.471452474594116211e-01 4.135420918464660645e-01
3.125000000000000000e+03 3.565980911254882812e+01 7.411748766899108887e-01 -4.687454551458358765e-02 1.896597862243652344e+00 5.549169778823852539e-01 3.215944766998291016e-01
3.126000000000000000e+03 6.522678375244140625e+01 -1.148421859741210938e+01 -1.737633794546127319e-01 7.294215679168701172e+00 2.136135578155517578e+00 -1.973000913858413696e-01
3.127000000000000000e+03 6.568394470214843750e+01 2.645455551147460938e+01 7.996501922607421875e-01 8.193219184875488281e+00 2.697860717773437500e+00 -1.266157746315002441e+00
3.128000000000000000e+03 3.537171554565429688e+01 -3.516356706619262695e+00 -8.354831486940383911e-02 1.904453039169311523e+00 5.462714433670043945e-01 2.600423991680145264e-01
3.129000000000000000e+03 6.515383148193359375e+01 -8.738105773925781250e+00 -2.135472297668457031e-01 7.308638572692871094e+00 2.128527402877807617e+00 -2.389152497053146362e-01
3.130000000000000000e+03 6.667108917236328125e+01 -5.416327953338623047e+00 -2.347887754440307617e-01 7.528791427612304688e+00 2.188200712203979492e+00 -3.168386220932006836e-01
3.131000000000000000e+03 6.554885864257812500e+01 -7.174655437469482422e+00 -2.218044400215148926e-01 7.383061408996582031e+00 2.148376941680908203e+00 -2.715484201908111572e-01
3.132000000000000000e+03 6.516045379638671875e+01 3.146882057189941406e+01 1.335950851440429688e+00 8.393311500549316406e+00 2.918778657913208008e+00 -4.432974457740783691e-01
3.133000000000000000e+03 6.650592803955078125e+01 -4.236298561096191406e+00 -2.624383568763732910e-01 7.515346050262451172e+00 2.175872325897216797e+00 -3.496932089328765869e-01
3.134000000000000000e+03 6.580548858642578125e+01 -2.149308443069458008e+00 -3.159015774726867676e-01 7.461963653564453125e+00 2.143818616867065430e+00 -3.863323926925659180e-01
3.135000000000000000e+03 6.343615722656250000e+01 3.222454071044921875e+01 1.677379488945007324e+00 8.834562301635742188e+00 3.153582334518432617e+00 -1.829942911863327026e-01
3.136000000000000000e+03 3.634149932861328125e+01 -9.761213302612304688e+00 -1.018390655517578125e-01 2.159438610076904297e+00 6.172798871994018555e-01 1.950341463088989258e-01
3.137000000000000000e+03 3.489716339111328125e+01 4.847320079803466797e+00 4.077142849564552307e-02 1.628506422042846680e+00 5.007833242416381836e-01 3.534597754478454590e-01
3.138000000000000000e+03 3.554635620117187500e+01 9.130669593811035156e+00 1.641209721565246582e-01 1.611444115638732910e+00 5.326695442199707031e-01 3.947520852088928223e-01
3.139000000000000000e+03 6.561929321289062500e+01 2.886159515380859375e+01 1.132517337799072266e+00 8.179162979125976562e+00 2.793503999710083008e+00 -9.270643591880798340e-01
3.140000000000000000e+03 4.897551727294921875e+01 2.702938079833984375e+01 1.857044219970703125e+00 4.746694087982177734e+00 1.981121420860290527e+00 3.702940225601196289e+00
3.141000000000000000e+03 5.210406494140625000e+01 2.548714065551757812e+01 4.436996579170227051e-02 9.974544525146484375e+00 3.005674123764038086e+00 2.708013296127319336e+00
3.142000000000000000e+03 4.954604339599609375e+01 2.633501434326171875e+01 1.440845489501953125e+00 5.989803314208984375e+00 2.229194641113281250e+00 3.746443986892700195e+00
3.143000000000000000e+03 4.674650192260742188e+01 2.459997749328613281e+01 1.359170675277709961e+00 3.339010000228881836e+00 1.409454226493835449e+00 2.380008220672607422e+00
3.144000000000000000e+03 4.908940887451171875e+01 2.601646804809570312e+01 1.451720595359802246e+00 5.415295600891113281e+00 2.060104846954345703e+00 3.520474672317504883e+00
3.145000000000000000e+03 4.578922653198242188e+01 2.375101661682128906e+01 1.216104984283447266e+00 2.921963214874267578e+00 1.241420507431030273e+00 2.009917736053466797e+00
3.146000000000000000e+03 4.725417709350585938e+01 2.503242111206054688e+01 1.425557971000671387e+00 3.595085144042968750e+00 1.506192922592163086e+00 2.604772090911865234e+00
3.147000000000000000e+03 4.823775863647460938e+01 2.534082794189453125e+01 1.417276740074157715e+00 4.487805843353271484e+00 1.771524667739868164e+00 3.046382427215576172e+00
3.148000000000000000e+03 3.558192062377929688e+01 2.283302116394042969e+01 4.742308557033538818e-01 5.082304477691650391e-01 2.947383821010589600e-01 -4.409201070666313171e-02
3.149000000000000000e+03 3.762548446655273438e+01 2.334644317626953125e+01 6.015915274620056152e-01 6.771068572998046875e-01 3.836095035076141357e-01 1.308925002813339233e-01
3.150000000000000000e+03 5.479611968994140625e+01 2.552168464660644531e+01 -3.756893053650856018e-02 1.172940731048583984e+01 3.507551670074462891e+00 3.820269107818603516e-01
3.151000000000000000e+03 5.419509887695312500e+01 2.573185729980468750e+01 -6.891653686761856079e-02 1.176985836029052734e+01 3.510282516479492188e+00 8.535746932029724121e-01
3.152000000000000000e+03 5.788607788085937500e+01 2.549824523925781250e+01 6.147866249084472656e-01 1.061831951141357422e+01 3.369931697845458984e+00 -9.736133217811584473e-01
3.153000000000000000e+03 4.704077529907226562e+01 2.412904357910156250e+01 1.227838635444641113e+00 3.767292737960815430e+00 1.498539447784423828e+00 2.437148571014404297e+00
3.154000000000000000e+03 3.413334274291992188e+01 2.287516975402832031e+01 3.712052702903747559e-01 3.815451860427856445e-01 2.258251309394836426e-01 -1.551638692617416382e-01
3.155000000000000000e+03 4.043265533447265625e+01 2.218950462341308594e+01 8.572619557380676270e-01 1.306768774986267090e+00 6.492092013359069824e-01 6.563633084297180176e-01
3.156000000000000000e+03 3.907022094726562500e+01 2.236086273193359375e+01 7.606250643730163574e-01 1.027150750160217285e+00 5.363327860832214355e-01 4.247805178165435791e-01
3.157000000000000000e+03 3.769048690795898438e+01 2.216054916381835938e+01 6.528748869895935059e-01 8.392276167869567871e-01 4.476307630538940430e-01 2.286687940359115601e-01
3.158000000000000000e+03 3.844467544555664062e+01 2.161408233642578125e+01 7.103027701377868652e-01 1.032180666923522949e+00 5.227450728416442871e-01 3.793833851814270020e-01
3.159000000000000000e+03 6.170331192016601562e+01 2.040536308288574219e+01 -2.969754636287689209e-01 8.880929946899414062e+00 2.575186252593994141e+00 -1.099479317665100098e+00
3.160000000000000000e+03 6.546923065185546875e+01 1.685813713073730469e+01 -4.035564363002777100e-01 8.126669883728027344e+00 2.316933870315551758e+00 -1.173351645469665527e+00
3.161000000000000000e+03 5.642261123657226562e+01 2.535836410522460938e+01 2.281734496355056763e-01 1.116936111450195312e+01 3.419260501861572266e+00 -4.963598251342773438e-01
3.162000000000000000e+03 4.396701431274414062e+01 2.298829841613769531e+01 1.119540572166442871e+00 2.206969738006591797e+00 9.979530572891235352e-01 1.455263018608093262e+00
3.163000000000000000e+03 4.445239639282226562e+01 2.277632141113281250e+01 1.084967017173767090e+00 2.532986402511596680e+00 1.085386037826538086e+00 1.592841744422912598e+00
3.164000000000000000e+03 4.205781936645507812e+01 2.232108116149902344e+01 9.710276126861572266e-01 1.727948546409606934e+00 8.096928596496582031e-01 9.923589229583740234e-01
3.165000000000000000e+03 4.328070831298828125e+01 2.239488792419433594e+01 1.036933660507202148e+00 2.113506793975830078e+00 9.451321363449096680e-01 1.279035568237304688e+00
3.166000000000000000e+03 6.372572708129882812e+01 2.139324951171875000e+01 -2.730908989906311035e-02 8.604075431823730469e+00 2.573029756546020508e+00 -1.334838986396789551e+00
3.167000000000000000e+03 3.607343673706054688e+01 4.845914363861083984e+00 2.547139488160610199e-02 1.911890625953674316e+00 5.812085866928100586e-01 3.850244283676147461e-01
3.168000000000000000e+03 3.970725631713867188e+01 1.991646575927734375e+01 7.478278279304504395e-01 1.539338827133178711e+00 6.861500144004821777e-01 6.694091558456420898e-01
3.169000000000000000e+03 3.477711868286132812e+01 2.214628601074218750e+01 4.506467580795288086e-01 4.779396355152130127e-01 2.785758972167968750e-01 -6.686849147081375122e-02
3.170000000000000000e+03 3.479822921752929688e+01 2.068680381774902344e+01 4.808199405670166016e-01 6.058163642883300781e-01 3.259908854961395264e-01 2.823502756655216217e-02
3.171000000000000000e+03 6.289548492431640625e+01 1.039974117279052734e+01 -6.460311412811279297e-01 7.748543262481689453e+00 2.130753755569458008e+00 -6.750073432922363281e-01
3.172000000000000000e+03 6.473866271972656250e+01 1.162972927093505859e+01 -5.697717070579528809e-01 7.873862266540527344e+00 2.191227197647094727e+00 -8.588603138923645020e-01
3.173000000000000000e+03 6.440457153320312500e+01 1.029179286956787109e+01 -5.767632722854614258e-01 7.792299747467041016e+00 2.164660930633544922e+00 -7.821994423866271973e-01
3.174000000000000000e+03 3.542811203002929688e+01 1.791318702697753906e+01 4.913286864757537842e-01 9.497778415679931641e-01 4.323319494724273682e-01 2.346315681934356689e-01
3.175000000000000000e+03 6.513559722900390625e+01 1.973347663879394531e+01 -1.987648755311965942e-01 8.300389289855957031e+00 2.430487155914306641e+00 -1.317513823509216309e+00
3.176000000000000000e+03 6.227683639526367188e+01 2.735016250610351562e+01 1.329551339149475098e+00 9.096520423889160156e+00 3.127821683883666992e+00 -1.236601352691650391e+00
3.177000000000000000e+03 3.420050430297851562e+01 -1.371218413114547729e-01 -3.562470152974128723e-02 1.604558706283569336e+00 4.706802070140838623e-01 2.768491208553314209e-01
3.178000000000000000e+03 3.606383895874023438e+01 2.940937042236328125e+00 -1.887036114931106567e-02 1.937506794929504395e+00 5.755909085273742676e-01 3.528249859809875488e-01
3.179000000000000000e+03 6.402836608886718750e+01 2.030172920227050781e+01 -1.795148700475692749e-01 8.503225326538085938e+00 2.497113227844238281e+00 -1.294013500213623047e+00
3.180000000000000000e+03 6.156597137451171875e+01 2.507346916198730469e+01 6.964727044105529785e-01 9.291425704956054688e+00 2.996369600296020508e+00 -1.338380336761474609e+00
3.181000000000000000e+03 3.727561187744140625e+01 1.301648330688476562e+01 3.245883882045745850e-01 1.753756046295166016e+00 6.235033273696899414e-01 4.972001910209655762e-01
3.182000000000000000e+03 3.341578292846679688e+01 2.598048019409179688e+01 1.068751439452171326e-01 1.789392679929733276e-01 8.574432879686355591e-02 -3.487042486667633057e-01
3.183000000000000000e+03 3.185175895690917969e+01 2.521564483642578125e+01 1.100013777613639832e-01 1.114397197961807251e-01 6.643233448266983032e-02 -3.613440692424774170e-01
3.184000000000000000e+03 6.340712356567382812e+01 2.138713836669921875e+00 -4.685789048671722412e-01 7.321323394775390625e+00 2.055823326110839844e+00 -4.415648877620697021e-01
3.185000000000000000e+03 3.749342346191406250e+01 1.201034736633300781e+01 2.770147025585174561e-01 1.873185276985168457e+00 6.450600028038024902e-01 5.111938714981079102e-01
3.186000000000000000e+03 6.380992507934570312e+01 -3.993612051010131836e+00 -3.205006122589111328e-01 7.195722103118896484e+00 2.062566518783569336e+00 -3.161464631557464600e-01
3.187000000000000000e+03 6.558349609375000000e+01 -5.791806221008300781e+00 -2.584335505962371826e-01 7.395030498504638672e+00 2.140979051589965820e+00 -2.976652681827545166e-01
3.188000000000000000e+03 6.545430755615234375e+01 2.673536300659179688e+00 -4.238350689411163330e-01 7.516942501068115234e+00 2.127932310104370117e+00 -5.242974758148193359e-01
3.189000000000000000e+03 3.454119110107421875e+01 -1.453862786293029785e+00 -4.709558188915252686e-02 1.703221321105957031e+00 4.968377351760864258e-01 2.802485823631286621e-01
3.190000000000000000e+03 6.480325317382812500e+01 4.707884788513183594e+00 -4.759952127933502197e-01 7.540807247161865234e+00 2.119443655014038086e+00 -5.785260796546936035e-01
3.191000000000000000e+03 3.617301940917968750e+01 6.228127002716064453e+00 6.160813570022583008e-02 1.886728525161743164e+00 5.845010280609130859e-01 3.998661041259765625e-01
3.192000000000000000e+03 3.585517501831054688e+01 7.699942111968994141e+00 1.105432137846946716e-01 1.746997833251953125e+00 5.572623014450073242e-01 4.015180766582489014e-01
3.193000000000000000e+03 6.476500701904296875e+01 2.766178703308105469e+01 1.154159307479858398e+00 8.404374122619628906e+00 2.867560148239135742e+00 -1.134576678276062012e+00
3.194000000000000000e+03 3.659542465209960938e+01 -4.583193302154541016e+00 -9.923061728477478027e-02 2.114705324172973633e+00 6.046424508094787598e-01 2.630581259727478027e-01
3.195000000000000000e+03 3.343425369262695312e+01 -3.795526504516601562e+00 -5.260451138019561768e-02 1.526841878890991211e+00 4.422712028026580811e-01 2.433056533336639404e-01
3.196000000000000000e+03 3.429884719848632812e+01 -4.508879184722900391e+00 -7.279419898986816406e-02 1.708320260047912598e+00 4.906578063964843750e-01 2.409077137708663940e-01
3.197000000000000000e+03 3.712417602539062500e+01 1.385901165008544922e+01 3.687401711940765381e-01 1.656505823135375977e+00 6.075738072395324707e-01 4.885716140270233154e-01
3.198000000000000000e+03 3.665712356567382812e+01 1.935943603515625000e+01 5.853867530822753906e-01 1.007560610771179199e+00 4.778842031955718994e-01 2.840647101402282715e-01
3.199000000000000000e+03 6.291654968261718750e+01 -1.113384151458740234e+01 -2.021880894899368286e-01 6.949574470520019531e+00 2.024215936660766602e+00 -1.744106262922286987e-01
3.200000000000000000e+03 6.393149566650390625e+01 9.628580212593078613e-01 -4.249910116195678711e-01 7.337892055511474609e+00 2.073870420455932617e+00 -4.346318840980529785e-01
3.201000000000000000e+03 6.540364074707031250e+01 -2.840971946716308594e-01 -3.583342432975769043e-01 7.452887535095214844e+00 2.128365993499755859e+00 -4.378432333469390869e-01
3.202000000000000000e+03 6.655558013916015625e+01 3.027137184143066406e+01 1.038558363914489746e+00 7.926794052124023438e+00 2.689605712890625000e+00 -7.301302552223205566e-01
3.203000000000000000e+03 6.423045349121093750e+01 -6.980432987213134766e+00 -2.566517591476440430e-01 7.199162960052490234e+00 2.082753419876098633e+00 -2.663511037826538086e-01
3.204000000000000000e+03 3.293520736694335938e+01 -8.925753593444824219e+00 -5.964346230030059814e-02 1.452931642532348633e+00 4.179864525794982910e-01 1.753339320421218872e-01
3.205000000000000000e+03 3.474007034301757812e+01 -1.020197772979736328e+01 -7.543148100376129150e-02 1.824302196502685547e+00 5.246611833572387695e-01 1.758358180522918701e-01
3.206000000000000000e+03 6.337219238281250000e+01 2.514297676086425781e+01 6.623610258102416992e-01 8.811293601989746094e+00 2.842096328735351562e+00 -1.369272708892822266e+00
3.207000000000000000e+03 6.355657196044921875e+01 2.389866828918457031e+01 4.131803214550018311e-01 8.737370491027832031e+00 2.745165348052978516e+00 -1.378880500793457031e+00
3.208000000000000000e+03 3.441905212402343750e+01 -1.657976531982421875e+01 -6.692148000001907349e-02 1.802074193954467773e+00 5.205457806587219238e-01 1.243810877203941345e-01
3.209000000000000000e+03 3.660598754882812500e+01 -1.463108825683593750e+01 -9.236817806959152222e-02 2.217975378036499023e+00 6.376821398735046387e-01 1.364932060241699219e-01
3.210000000000000000e+03 5.050104522705078125e+01 2.573706626892089844e+01 7.632917165756225586e-01 7.840401172637939453e+00 2.581107854843139648e+00 3.568053960800170898e+00
3.211000000000000000e+03 4.859918594360351562e+01 2.577330207824707031e+01 1.457947850227355957e+00 4.686435699462890625e+00 1.843315124511718750e+00 3.276527643203735352e+00
3.212000000000000000e+03 4.977999114990234375e+01 2.588524055480957031e+01 1.153266072273254395e+00 6.563466548919677734e+00 2.315019845962524414e+00 3.644938945770263672e+00
3.213000000000000000e+03 5.073982620239257812e+01 2.523808097839355469e+01 4.981911182403564453e-01 8.065157890319824219e+00 2.569004774093627930e+00 3.260169267654418945e+00
3.214000000000000000e+03 5.403522109985351562e+01 2.511234855651855469e+01 -2.847218215465545654e-01 1.122118759155273438e+01 3.280939579010009766e+00 1.103405594825744629e+00
3.215000000000000000e+03 5.343587875366210938e+01 2.539849662780761719e+01 -2.237786650657653809e-01 1.121819210052490234e+01 3.298323869705200195e+00 1.577928900718688965e+00
3.216000000000000000e+03 4.928250503540039062e+01 2.556336212158203125e+01 1.197770953178405762e+00 5.767698764801025391e+00 2.089640855789184570e+00 3.414753437042236328e+00
3.217000000000000000e+03 5.757715606689453125e+01 2.420534133911132812e+01 2.200854569673538208e-02 1.043269729614257812e+01 3.136411905288696289e+00 -7.028666734695434570e-01
3.218000000000000000e+03 4.620707321166992188e+01 2.339942550659179688e+01 1.173564195632934570e+00 3.286773443222045898e+00 1.338101267814636230e+00 2.145551681518554688e+00
3.219000000000000000e+03 3.627436065673828125e+01 2.211361312866210938e+01 5.526538491249084473e-01 6.552839875221252441e-01 3.623813688755035400e-01 7.161696255207061768e-02
3.220000000000000000e+03 4.819054412841796875e+01 2.463961410522460938e+01 1.192402720451354980e+00 4.664244651794433594e+00 1.756994247436523438e+00 2.896860837936401367e+00
3.221000000000000000e+03 3.703612136840820312e+01 2.145882034301757812e+01 6.135416626930236816e-01 8.281738162040710449e-01 4.325146377086639404e-01 1.997887790203094482e-01
3.222000000000000000e+03 5.469948959350585938e+01 2.487325859069824219e+01 -2.510361671447753906e-01 1.106429100036621094e+01 3.243976354598999023e+00 5.802226066589355469e-01
3.223000000000000000e+03 5.533049392700195312e+01 2.504679870605468750e+01 -1.019206270575523376e-01 1.126373481750488281e+01 3.348544120788574219e+00 1.161009743809700012e-01
3.224000000000000000e+03 3.786233901977539062e+01 2.085161590576171875e+01 6.676718592643737793e-01 1.041936635971069336e+00 5.128825306892395020e-01 3.412440121173858643e-01
3.225000000000000000e+03 6.393855667114257812e+01 1.772706604003906250e+01 -4.254321455955505371e-01 8.316150665283203125e+00 2.367215394973754883e+00 -1.139624953269958496e+00
3.226000000000000000e+03 6.333155441284179688e+01 1.708239555358886719e+01 -5.069697499275207520e-01 8.337640762329101562e+00 2.349201202392578125e+00 -1.050582766532897949e+00
3.227000000000000000e+03 3.972789764404296875e+01 2.184967041015625000e+01 8.086935281753540039e-01 1.225505352020263672e+00 6.102596521377563477e-01 5.644457936286926270e-01
3.228000000000000000e+03 4.122613143920898438e+01 2.133661651611328125e+01 8.768569231033325195e-01 1.672818660736083984e+00 7.649026513099670410e-01 8.689301609992980957e-01
3.229000000000000000e+03 4.654777145385742188e+01 2.300983238220214844e+01 1.039437294006347656e+00 3.689895153045654297e+00 1.418799757957458496e+00 2.183425188064575195e+00
3.230000000000000000e+03 4.628236770629882812e+01 2.419058990478515625e+01 1.309347629547119141e+00 3.116193771362304688e+00 1.327662467956542969e+00 2.205134630203247070e+00
3.231000000000000000e+03 5.320119094848632812e+01 2.469273376464843750e+01 -3.295773863792419434e-01 1.052518177032470703e+01 3.058681249618530273e+00 1.696137428283691406e+00
3.232000000000000000e+03 3.683257293701171875e+01 1.560732269287109375e+01 4.546530544757843018e-01 1.416781783103942871e+00 5.614304542541503906e-01 4.319141507148742676e-01
3.233000000000000000e+03 4.005605316162109375e+01 2.075181770324707031e+01 8.026896119117736816e-01 1.494233012199401855e+00 6.890767812728881836e-01 6.958484053611755371e-01
3.234000000000000000e+03 4.215030670166015625e+01 2.109593963623046875e+01 8.932082653045654297e-01 2.009255409240722656e+00 8.707391023635864258e-01 1.065229535102844238e+00
3.235000000000000000e+03 4.266247940063476562e+01 2.243381118774414062e+01 1.029190659523010254e+00 1.880865454673767090e+00 8.730168342590332031e-01 1.152724266052246094e+00
3.236000000000000000e+03 3.572132110595703125e+01 2.001680374145507812e+01 5.403439998626708984e-01 7.921586632728576660e-01 3.997507989406585693e-01 1.517671942710876465e-01
3.237000000000000000e+03 4.304349517822265625e+01 2.098384284973144531e+01 8.885364532470703125e-01 2.368951082229614258e+00 9.772462248802185059e-01 1.246086120605468750e+00
3.238000000000000000e+03 3.697468185424804688e+01 1.897804379463195801e+00 -4.117312282323837280e-02 2.169696807861328125e+00 6.385571360588073730e-01 3.712399899959564209e-01
3.239000000000000000e+03 3.718548965454101562e+01 4.120301246643066406e+00 -4.123892635107040405e-03 2.169210195541381836e+00 6.495258808135986328e-01 4.090269804000854492e-01
3.240000000000000000e+03 4.393844604492187500e+01 2.242167663574218750e+01 1.045367956161499023e+00 2.395868062973022461e+00 1.032370805740356445e+00 1.466495633125305176e+00
3.241000000000000000e+03 3.657006454467773438e+01 1.064342212677001953e+01 2.191052734851837158e-01 1.751758337020874023e+00 5.912590622901916504e-01 4.514305591583251953e-01
3.242000000000000000e+03 5.875477218627929688e+01 2.357609748840332031e+01 1.969082653522491455e-02 9.957966804504394531e+00 2.993297100067138672e+00 -9.063633680343627930e-01
3.243000000000000000e+03 5.864800262451171875e+01 2.543124961853027344e+01 6.479840874671936035e-01 1.038740444183349609e+01 3.310616731643676758e+00 -1.114542484283447266e+00
3.244000000000000000e+03 3.601294708251953125e+01 1.864709472656250000e+01 5.442606210708618164e-01 9.800001382827758789e-01 4.572782218456268311e-01 2.572307884693145752e-01
3.245000000000000000e+03 3.621457290649414062e+01 1.736300849914550781e+01 5.023772716522216797e-01 1.138938903808593750e+00 4.923948645591735840e-01 3.216883838176727295e-01
3.246000000000000000e+03 6.533796691894531250e+01 1.293794536590576172e+01 -5.332818031311035156e-01 7.939709186553955078e+00 2.221928358078002930e+00 -9.564486145973205566e-01
3.247000000000000000e+03 6.523929595947265625e+01 1.560329341888427734e+01 -4.621775150299072266e-01 8.068500518798828125e+00 2.281896829605102539e+00 -1.099400281906127930e+00
3.248000000000000000e+03 6.364315032958984375e+01 9.412223815917968750e+00 -6.067581176757812500e-01 7.706989288330078125e+00 2.130069255828857422e+00 -6.910749673843383789e-01
3.249000000000000000e+03 6.319377517700195312e+01 1.845854187011718750e+01 -4.081645011901855469e-01 8.469923973083496094e+00 2.418528079986572266e+00 -1.125833749771118164e+00
3.250000000000000000e+03 3.823249053955078125e+01 1.331108188629150391e+01 3.384331464767456055e-01 1.955978393554687500e+00 6.883234977722167969e-01 5.698075890541076660e-01
3.251000000000000000e+03 3.783015823364257812e+01 1.408429145812988281e+01 3.841234743595123291e-01 1.818360090255737305e+00 6.607450842857360840e-01 5.452067255973815918e-01
3.252000000000000000e+03 6.239674758911132812e+01 -2.813737630844116211e+00 -3.737393915653228760e-01 7.024811744689941406e+00 1.995321750640869141e+00 -2.936682403087615967e-01
3.253000000000000000e+03 6.500814056396484375e+01 -3.561845302581787109e+00 -3.026967942714691162e-01 7.338249206542968750e+00 2.110665798187255859e+00 -3.400208652019500732e-01
3.254000000000000000e+03 6.442661285400390625e+01 -5.871042728424072266e+00 -2.749280035495758057e-01 7.229094028472900391e+00 2.086249828338623047e+00 -2.888734936714172363e-01
3.255000000000000000e+03 6.272159194946289062e+01 -7.969042301177978516e+00 -2.765966057777404785e-01 6.943562030792236328e+00 2.000089645385742188e+00 -2.162377983331680298e-01
3.256000000000000000e+03 3.775527191162109375e+01 1.089113807678222656e+01 2.257806807756423950e-01 2.008410215377807617e+00 6.702572703361511230e-01 5.234404802322387695e-01
3.257000000000000000e+03 6.344449234008789062e+01 -5.556966781616210938e+00 -2.981895208358764648e-01 7.097712993621826172e+00 2.039857149124145508e+00 -2.737658321857452393e-01
3.258000000000000000e+03 6.494908142089843750e+01 1.373529911041259766e+01 -5.371828079223632812e-01 7.997045516967773438e+00 2.237958908081054688e+00 -9.804074168205261230e-01
3.259000000000000000e+03 6.507375335693359375e+01 6.597756385803222656e+00 -5.030571222305297852e-01 7.632761955261230469e+00 2.138911485671997070e+00 -6.636998653411865234e-01
3.260000000000000000e+03 6.568057250976562500e+01 8.419730186462402344e+00 -5.065930485725402832e-01 7.715629100799560547e+00 2.162710905075073242e+00 -7.522423863410949707e-01
3.261000000000000000e+03 3.839101409912109375e+01 5.235417842864990234e+00 3.238392062485218048e-03 2.402542114257812500e+00 7.217341661453247070e-01 4.591989219188690186e-01
3.262000000000000000e+03 3.684156799316406250e+01 -3.774961233139038086e-01 -7.449778169393539429e-02 2.163048267364501953e+00 6.265651583671569824e-01 3.311108946800231934e-01
3.263000000000000000e+03 6.537056732177734375e+01 3.743747711181640625e+00 -4.387599229812622070e-01 7.551211833953857422e+00 2.133735656738281250e+00 -5.620059370994567871e-01
3.264000000000000000e+03 6.444388580322265625e+01 2.997541427612304688e+00 -4.586904644966125488e-01 7.442594528198242188e+00 2.095171213150024414e+00 -5.059186220169067383e-01
3.265000000000000000e+03 3.453016662597656250e+01 -5.759206771850585938e+00 -7.645875960588455200e-02 1.746956348419189453e+00 5.011492967605590820e-01 2.274885326623916626e-01
3.266000000000000000e+03 3.764962387084960938e+01 6.584755420684814453e+00 5.325117707252502441e-02 2.193294048309326172e+00 6.739635467529296875e-01 4.609132707118988037e-01
3.267000000000000000e+03 6.370877456665039062e+01 -1.248462486267089844e+01 -1.871018111705780029e-01 7.038876056671142578e+00 2.055532217025756836e+00 -1.675099879503250122e-01
3.268000000000000000e+03 6.240515899658203125e+01 2.379997634887695312e+01 3.723273575305938721e-01 9.014732360839843750e+00 2.816118001937866211e+00 -1.344390273094177246e+00
3.269000000000000000e+03 6.592335510253906250e+01 -1.970985412597656250e+01 -8.192192763090133667e-02 7.400568008422851562e+00 2.195593833923339844e+00 -1.040668264031410217e-01
3.270000000000000000e+03 6.447042083740234375e+01 -1.402293586730957031e+01 -1.611589789390563965e-01 7.150801658630371094e+00 2.096892833709716797e+00 -1.523157209157943726e-01
3.271000000000000000e+03 3.733259963989257812e+01 -7.845228672027587891e+00 -1.165810972452163696e-01 2.341351985931396484e+00 6.674312949180603027e-01 2.251544445753097534e-01
3.272000000000000000e+03 3.499020385742187500e+01 -1.171602249145507812e+01 -8.585597574710845947e-02 1.871383309364318848e+00 5.356581807136535645e-01 1.614759266376495361e-01
3.273000000000000000e+03 3.598720169067382812e+01 -8.352511405944824219e+00 -9.703371673822402954e-02 2.048789024353027344e+00 5.855266451835632324e-01 2.121619582176208496e-01
3.274000000000000000e+03 6.179023742675781250e+01 1.857096099853515625e+01 -4.935824871063232422e-01 8.644018173217773438e+00 2.445130825042724609e+00 -9.853779077529907227e-01
3.275000000000000000e+03 6.322834777832031250e+01 1.993583679199218750e+01 -2.742204368114471436e-01 8.579926490783691406e+00 2.491711854934692383e+00 -1.204074501991271973e+00
3.276000000000000000e+03 6.301364898681640625e+01 4.766939640045166016e+00 -5.378367304801940918e-01 7.392918109893798828e+00 2.056524515151977539e+00 -4.939164221286773682e-01
3.277000000000000000e+03 6.236837768554687500e+01 2.246179771423339844e+01 8.007368445396423340e-02 8.948589324951171875e+00 2.708598852157592773e+00 -1.286719918251037598e+00
3.278000000000000000e+03 6.290871429443359375e+01 2.626486778259277344e+01 9.971187710762023926e-01 8.931968688964843750e+00 2.978726387023925781e+00 -1.317650437355041504e+00
3.279000000000000000e+03 3.719759750366210938e+01 8.018013954162597656e+00 1.096902191638946533e-01 2.026544570922851562e+00 6.408703923225402832e-01 4.632145166397094727e-01
3.280000000000000000e+03 3.683535385131835938e+01 9.363371849060058594e+00 1.682123988866806030e-01 1.882160663604736328e+00 6.151119470596313477e-01 4.593611955642700195e-01
3.281000000000000000e+03 3.575387954711914062e+01 -7.073665142059326172e+00 -9.513827413320541382e-02 1.984586238861083984e+00 5.668343901634216309e-01 2.213689535856246948e-01
3.282000000000000000e+03 3.444750595092773438e+01 -7.226714134216308594e+00 -7.742562890052795410e-02 1.759053230285644531e+00 5.044882893562316895e-01 2.083446681499481201e-01
3.283000000000000000e+03 6.772840881347656250e+01 3.165224838256835938e+01 8.560346364974975586e-01 7.578207015991210938e+00 2.530272483825683594e+00 -5.622078776359558105e-01
3.284000000000000000e+03 5.001008987426757812e+01 2.538549613952636719e+01 8.653243184089660645e-01 6.949994564056396484e+00 2.344595670700073242e+00 3.461214542388916016e+00
3.285000000000000000e+03 4.876383209228515625e+01 2.532618904113769531e+01 1.271682977676391602e+00 5.181880950927734375e+00 1.936069130897521973e+00 3.229458332061767578e+00
3.286000000000000000e+03 4.912639999389648438e+01 2.406761741638183594e+01 8.030241131782531738e-01 5.815059185028076172e+00 1.985424995422363281e+00 2.936772823333740234e+00
3.287000000000000000e+03 4.889849472045898438e+01 2.639360427856445312e+01 1.637275695800781250e+00 4.979053497314453125e+00 1.984898805618286133e+00 3.541764736175537109e+00
3.288000000000000000e+03 4.570649337768554688e+01 2.222034454345703125e+01 9.830010533332824707e-01 3.343357801437377930e+00 1.297907590866088867e+00 1.933403134346008301e+00
3.289000000000000000e+03 4.748556518554687500e+01 2.329836273193359375e+01 9.898024797439575195e-01 4.399712562561035156e+00 1.616854548454284668e+00 2.506117820739746094e+00
3.290000000000000000e+03 4.850816345214843750e+01 2.355710411071777344e+01 8.496325612068176270e-01 5.220545291900634766e+00 1.821053385734558105e+00 2.710148334503173828e+00
3.291000000000000000e+03 5.262551116943359375e+01 2.512542533874511719e+01 -1.425562351942062378e-01 1.027300548553466797e+01 3.039134740829467773e+00 2.221971750259399414e+00
3.292000000000000000e+03 6.247981643676757812e+01 1.935062217712402344e+01 -3.756966292858123779e-01 8.629553794860839844e+00 2.476157188415527344e+00 -1.120149970054626465e+00
3.293000000000000000e+03 6.280944061279296875e+01 1.612445640563964844e+01 -5.783314108848571777e-01 8.274979591369628906e+00 2.308994531631469727e+00 -9.488617777824401855e-01
3.294000000000000000e+03 5.098327255249023438e+01 2.478858566284179688e+01 3.096162378787994385e-01 8.295284271240234375e+00 2.581470251083374023e+00 3.009719610214233398e+00
3.295000000000000000e+03 5.187049484252929688e+01 2.493770027160644531e+01 2.735515870153903961e-02 9.452326774597167969e+00 2.843904733657836914e+00 2.716670751571655273e+00
3.296000000000000000e+03 3.727967834472656250e+01 2.008951568603515625e+01 6.256396770477294922e-01 1.026305437088012695e+00 4.955835342407226562e-01 3.117509186267852783e-01
3.297000000000000000e+03 3.922548675537109375e+01 2.112224578857421875e+01 7.623444199562072754e-01 1.234804511070251465e+00 5.991446971893310547e-01 5.294646024703979492e-01
3.298000000000000000e+03 5.584235000610351562e+01 2.422114753723144531e+01 -2.182470113039016724e-01 1.078623199462890625e+01 3.170395374298095703e+00 -1.824932731688022614e-02
3.299000000000000000e+03 3.684942626953125000e+01 1.799426460266113281e+01 5.460482239723205566e-01 1.209887266159057617e+00 5.267806649208068848e-01 3.656994700431823730e-01
3.300000000000000000e+03 3.795062637329101562e+01 1.583254337310791016e+01 4.768745899200439453e-01 1.647923350334167480e+00 6.374393701553344727e-01 5.385129451751708984e-01
3.301000000000000000e+03 3.875715255737304688e+01 2.030889701843261719e+01 7.223252654075622559e-01 1.280876398086547852e+00 6.009604930877685547e-01 5.123711228370666504e-01
3.302000000000000000e+03 4.182697677612304688e+01 2.022912025451660156e+01 8.148065209388732910e-01 2.074448108673095703e+00 8.667763471603393555e-01 1.018904685974121094e+00
3.303000000000000000e+03 4.384864807128906250e+01 2.105788612365722656e+01 8.939045071601867676e-01 2.715196847915649414e+00 1.082730412483215332e+00 1.451722860336303711e+00
3.304000000000000000e+03 4.244975280761718750e+01 2.184783554077148438e+01 9.582563638687133789e-01 1.940356731414794922e+00 8.695839047431945801e-01 1.105484366416931152e+00
3.305000000000000000e+03 6.134904098510742188e+01 -7.896315097808837891e+00 -2.932703197002410889e-01 6.753380775451660156e+00 1.938033223152160645e+00 -1.909165084362030029e-01
3.306000000000000000e+03 4.394321441650390625e+01 2.177770996093750000e+01 9.666309356689453125e-01 2.561403751373291016e+00 1.058410406112670898e+00 1.459250330924987793e+00
3.307000000000000000e+03 6.069462966918945312e+01 2.568209457397460938e+01 9.117622971534729004e-01 9.628775596618652344e+00 3.162161350250244141e+00 -1.337709307670593262e+00
3.308000000000000000e+03 5.871017837524414062e+01 2.457700157165527344e+01 3.253457248210906982e-01 1.013613224029541016e+01 3.138443470001220703e+00 -1.015353560447692871e+00
3.309000000000000000e+03 3.791030120849609375e+01 1.654117012023925781e+01 5.273382663726806641e-01 1.573873519897460938e+00 6.303635239601135254e-01 5.261715650558471680e-01
3.310000000000000000e+03 3.818756484985351562e+01 3.028669834136962891e+00 -4.503199458122253418e-02 2.424670457839965820e+00 7.138915061950683594e-01 4.170314371585845947e-01
3.311000000000000000e+03 6.068617248535156250e+01 2.128297615051269531e+01 -2.451364248991012573e-01 9.152737617492675781e+00 2.672280550003051758e+00 -1.038339138031005859e+00
3.312000000000000000e+03 6.395173645019531250e+01 7.548211097717285156e+00 -5.639973282814025879e-01 7.616745471954345703e+00 2.115824460983276367e+00 -6.436808109283447266e-01
3.313000000000000000e+03 4.296026229858398438e+01 1.057575607299804688e+01 5.127421021461486816e-02 3.439221382141113281e+00 1.047148704528808594e+00 7.814296483993530273e-01
3.314000000000000000e+03 6.434551239013671875e+01 1.247972393035888672e+01 -5.820897817611694336e-01 7.922846317291259766e+00 2.202226877212524414e+00 -8.741981387138366699e-01
3.315000000000000000e+03 6.338702011108398438e+01 1.199919891357421875e+01 -6.283274888992309570e-01 7.879509925842285156e+00 2.175354719161987305e+00 -7.831249237060546875e-01
3.316000000000000000e+03 5.684653854370117188e+01 2.228013038635253906e+01 -4.534150063991546631e-01 9.839144706726074219e+00 2.815718889236450195e+00 -2.017960399389266968e-01
3.317000000000000000e+03 3.807861328125000000e+01 9.704294204711914062e+00 1.668894886970520020e-01 2.155109167098999023e+00 6.965996026992797852e-01 5.286762714385986328e-01
3.318000000000000000e+03 6.393545913696289062e+01 1.572200584411621094e+01 -5.391041040420532227e-01 8.179471015930175781e+00 2.292109966278076172e+00 -1.021000623703002930e+00
3.319000000000000000e+03 5.694028091430664062e+01 2.394127273559570312e+01 -1.256704479455947876e-01 1.049343681335449219e+01 3.110329866409301758e+00 -4.331001341342926025e-01
3.320000000000000000e+03 5.790680313110351562e+01 2.358697700500488281e+01 -5.246266350150108337e-02 1.018594932556152344e+01 3.040045976638793945e+00 -7.139998078346252441e-01
3.321000000000000000e+03 6.433153533935546875e+01 -1.495516300201416016e+00 -3.648426234722137451e-01 7.304576396942138672e+00 2.081920146942138672e+00 -3.808106780052185059e-01
3.322000000000000000e+03 6.172593688964843750e+01 -5.108948230743408203e+00 -3.372640907764434814e-01 6.863902091979980469e+00 1.957991361618041992e+00 -2.337353378534317017e-01
3.323000000000000000e+03 6.131012344360351562e+01 2.398009300231933594e+01 3.964848220348358154e-01 9.328270912170410156e+00 2.917426824569702148e+00 -1.309205651283264160e+00
3.324000000000000000e+03 3.733814239501953125e+01 1.619137001037597656e+01 4.942196309566497803e-01 1.457495093345642090e+00 5.855144262313842773e-01 4.703051447868347168e-01
3.325000000000000000e+03 3.941633605957031250e+01 1.790924263000488281e+01 6.226142644882202148e-01 1.761130690574645996e+00 7.151234745979309082e-01 6.746299862861633301e-01
3.326000000000000000e+03 6.239854431152343750e+01 4.448110163211822510e-01 -4.556369781494140625e-01 7.131618976593017578e+00 2.002794504165649414e+00 -3.558979928493499756e-01
3.327000000000000000e+03 6.268089294433593750e+01 -8.004193305969238281e-01 -4.106282293796539307e-01 7.126031875610351562e+00 2.014621019363403320e+00 -3.432114124298095703e-01
3.328000000000000000e+03 6.413695526123046875e+01 -3.267514407634735107e-01 -3.834458291530609131e-01 7.323541164398193359e+00 2.082028627395629883e+00 -4.045949876308441162e-01
3.329000000000000000e+03 6.297156143188476562e+01 -1.488170623779296875e+01 -1.648417264223098755e-01 6.892803192138671875e+00 2.018388509750366211e+00 -1.327511221170425415e-01
3.330000000000000000e+03 6.374364852905273438e+01 -1.663531112670898438e+01 -1.276815682649612427e-01 7.008174419403076172e+00 2.064147710800170898e+00 -1.220287010073661804e-01
3.331000000000000000e+03 6.132864761352539062e+01 4.698787689208984375e+00 -5.792983174324035645e-01 7.234954833984375000e+00 1.996696949005126953e+00 -3.930222690105438232e-01
3.332000000000000000e+03 6.275301742553710938e+01 3.109715461730957031e+00 -5.182389020919799805e-01 7.293152809143066406e+00 2.032474279403686523e+00 -4.356625676155090332e-01
3.333000000000000000e+03 3.690301132202148438e+01 -6.611891269683837891e+00 -1.062096208333969116e-01 2.264821052551269531e+00 6.475834250450134277e-01 2.392294555902481079e-01
3.334000000000000000e+03 3.586874389648437500e+01 -5.849395275115966797e+00 -8.736912161111831665e-02 2.015969514846801758e+00 5.785800814628601074e-01 2.398104816675186157e-01
3.335000000000000000e+03 6.613957977294921875e+01 -1.715587997436523438e+01 -1.028875783085823059e-01 7.427164554595947266e+00 2.197283029556274414e+00 -1.227615699172019958e-01
3.336000000000000000e+03 3.847037124633789062e+01 1.468314838409423828e+01 4.213403165340423584e-01 1.914789676666259766e+00 7.008390426635742188e-01 6.042363643646240234e-01
3.337000000000000000e+03 3.916904067993164062e+01 1.384796428680419922e+01 3.675849437713623047e-01 2.150244474411010742e+00 7.553488016128540039e-01 6.545059680938720703e-01
3.338000000000000000e+03 3.901712799072265625e+01 7.260118961334228516e+00 5.204143747687339783e-02 2.505722284317016602e+00 7.673290967941284180e-01 5.219572782516479492e-01
3.339000000000000000e+03 6.350778198242187500e+01 -2.928450584411621094e+00 -3.467892110347747803e-01 7.168696880340576172e+00 2.046572208404541016e+00 -3.307945728302001953e-01
3.340000000000000000e+03 3.699067306518554688e+01 -1.306016635894775391e+01 -1.015791967511177063e-01 2.284652948379516602e+00 6.549221277236938477e-01 1.549354046583175659e-01
3.341000000000000000e+03 6.399376296997070312e+01 1.343776607513427734e+01 -5.935885906219482422e-01 7.990474700927734375e+00 2.219065904617309570e+00 -8.967669010162353516e-01
3.342000000000000000e+03 6.465748596191406250e+01 8.601941108703613281e+00 -5.463530421257019043e-01 7.698259830474853516e+00 2.145572185516357422e+00 -7.213677167892456055e-01
3.343000000000000000e+03 6.095953369140625000e+01 -1.059120368957519531e+01 -2.361697554588317871e-01 6.651976108551025391e+00 1.924741864204406738e+00 -1.541016548871994019e-01
3.344000000000000000e+03 3.800082015991210938e+01 8.511241078376770020e-01 -7.970768958330154419e-02 2.402983427047729492e+00 6.969826817512512207e-01 3.700532615184783936e-01
3.345000000000000000e+03 3.905936431884765625e+01 -1.603396683931350708e-01 -1.157941147685050964e-01 2.639140605926513672e+00 7.570039629936218262e-01 3.496075570583343506e-01
3.346000000000000000e+03 3.607973098754882812e+01 -1.928060770034790039e+00 -6.831044703722000122e-02 2.029917001724243164e+00 5.884819626808166504e-01 2.837603390216827393e-01
3.347000000000000000e+03 5.228585815429687500e+01 2.457958221435546875e+01 -1.535484641790390015e-01 9.638048171997070312e+00 2.845349788665771484e+00 2.317336559295654297e+00
3.348000000000000000e+03 4.948091506958007812e+01 2.503159904479980469e+01 9.615530371665954590e-01 6.223666667938232422e+00 2.155565977096557617e+00 3.288106918334960938e+00
3.349000000000000000e+03 4.797878646850585938e+01 2.397024726867675781e+01 1.060989141464233398e+00 4.648729324340820312e+00 1.712915539741516113e+00 2.718627929687500000e+00
3.350000000000000000e+03 5.059347152709960938e+01 2.438088035583496094e+01 3.745535612106323242e-01 7.639852523803710938e+00 2.404321908950805664e+00 2.971346378326416016e+00
3.351000000000000000e+03 4.577112197875976562e+01 2.125650405883789062e+01 8.086106777191162109e-01 3.602148056030273438e+00 1.323227643966674805e+00 1.833461284637451172e+00
3.352000000000000000e+03 4.799236297607421875e+01 2.296545410156250000e+01 8.368441462516784668e-01 4.793218135833740234e+00 1.689018726348876953e+00 2.500401735305786133e+00
3.353000000000000000e+03 5.400970840454101562e+01 2.371255493164062500e+01 -4.548602402210235596e-01 1.023417472839355469e+01 2.933794260025024414e+00 1.114735484123229980e+00
3.354000000000000000e+03 5.277696990966796875e+01 2.403068923950195312e+01 -3.056475520133972168e-01 9.730042457580566406e+00 2.827318429946899414e+00 1.887109518051147461e+00
3.355000000000000000e+03 3.834478759765625000e+01 1.771286201477050781e+01 5.918774604797363281e-01 1.544890761375427246e+00 6.410304903984069824e-01 5.536454319953918457e-01
3.356000000000000000e+03 3.749918746948242188e+01 1.727617263793945312e+01 5.462332367897033691e-01 1.400698781013488770e+00 5.840796232223510742e-01 4.583436846733093262e-01
3.357000000000000000e+03 6.401040649414062500e+01 5.651161193847656250e+00 -5.215220451354980469e-01 7.520222187042236328e+00 2.099610090255737305e+00 -5.768119692802429199e-01
3.358000000000000000e+03 6.217334747314453125e+01 5.581283092498779297e+00 -5.796481966972351074e-01 7.370320796966552734e+00 2.037201881408691406e+00 -4.718699753284454346e-01
3.359000000000000000e+03 3.762068176269531250e+01 1.862977218627929688e+01 6.090623736381530762e-01 1.287866711616516113e+00 5.690787434577941895e-01 4.375040233135223389e-01
3.360000000000000000e+03 5.026755905151367188e+01 2.487352180480957031e+01 6.189571022987365723e-01 7.311355113983154297e+00 2.379093647003173828e+00 3.233750581741333008e+00
3.361000000000000000e+03 5.453779983520507812e+01 2.416993713378906250e+01 -4.044121503829956055e-01 1.070910358428955078e+01 3.091407299041748047e+00 7.424404025077819824e-01
3.362000000000000000e+03 5.523019790649414062e+01 2.351591110229492188e+01 -4.440613389015197754e-01 1.042719841003417969e+01 2.994940996170043945e+00 4.097738265991210938e-01
3.363000000000000000e+03 4.639459991455078125e+01 2.178868103027343750e+01 8.391746282577514648e-01 3.890020132064819336e+00 1.418758392333984375e+00 2.039512634277343750e+00
3.364000000000000000e+03 4.383446502685546875e+01 2.039342880249023438e+01 8.170188665390014648e-01 2.815902233123779297e+00 1.089876413345336914e+00 1.422637820243835449e+00
3.365000000000000000e+03 5.717787170410156250e+01 2.333981132507324219e+01 -2.412523180246353149e-01 1.018082523345947266e+01 2.981871843338012695e+00 -4.275389909744262695e-01
3.366000000000000000e+03 5.937494659423828125e+01 2.506210327148437500e+01 5.500931739807128906e-01 1.000059795379638672e+01 3.165207386016845703e+00 -1.171999096870422363e+00
3.367000000000000000e+03 6.240613555908203125e+01 2.490741920471191406e+01 6.446704268455505371e-01 9.049785614013671875e+00 2.908336877822875977e+00 -1.353309750556945801e+00
3.368000000000000000e+03 4.037693786621093750e+01 2.149152565002441406e+01 8.407443165779113770e-01 1.435665845870971680e+00 6.829230189323425293e-01 7.034972310066223145e-01
3.369000000000000000e+03 3.871234512329101562e+01 1.667863082885742188e+01 5.430752038955688477e-01 1.767988562583923340e+00 6.933190822601318359e-01 6.185222268104553223e-01
3.370000000000000000e+03 3.848987960815429688e+01 8.480721473693847656e+00 1.062828302383422852e-01 2.316143989562988281e+00 7.267280220985412598e-01 5.219594836235046387e-01
3.371000000000000000e+03 6.109093093872070312e+01 2.263043594360351562e+01 2.225270681083202362e-02 9.243680953979492188e+00 2.779780149459838867e+00 -1.187052726745605469e+00
3.372000000000000000e+03 3.882315063476562500e+01 1.560829257965087891e+01 4.655193984508514404e-01 1.908874273300170898e+00 7.123180627822875977e-01 6.290407180786132812e-01
3.373000000000000000e+03 3.762595748901367188e+01 1.516377353668212891e+01 4.464229643344879150e-01 1.638663649559020996e+00 6.255259513854980469e-01 5.197440385818481445e-01
3.374000000000000000e+03 6.098640823364257812e+01 1.941337013244628906e+01 -4.781039059162139893e-01 8.846327781677246094e+00 2.510467052459716797e+00 -9.285476207733154297e-01
3.375000000000000000e+03 6.255826950073242188e+01 1.775095176696777344e+01 -5.045385360717773438e-01 8.448883056640625000e+00 2.383303403854370117e+00 -1.019561409950256348e+00
3.376000000000000000e+03 3.857564544677734375e+01 1.232683181762695312e+01 2.896054983139038086e-01 2.112252235412597656e+00 7.205572724342346191e-01 5.931432247161865234e-01
3.377000000000000000e+03 6.155652236938476562e+01 1.104375743865966797e+01 -6.984182596206665039e-01 7.748965263366699219e+00 2.115164041519165039e+00 -5.935487151145935059e-01
3.378000000000000000e+03 6.089648056030273438e+01 9.780254364013671875e+00 -7.065721154212951660e-01 7.577900409698486328e+00 2.061398506164550781e+00 -4.797928631305694580e-01
3.379000000000000000e+03 3.890734100341796875e+01 1.124629592895507812e+01 2.264183759689331055e-01 2.274631738662719727e+00 7.503150105476379395e-01 6.019737720489501953e-01
3.380000000000000000e+03 6.196867370605468750e+01 1.515032577514648438e+01 -6.599436402320861816e-01 8.209708213806152344e+00 2.264929533004760742e+00 -8.051093816757202148e-01
3.381000000000000000e+03 4.159372711181640625e+01 1.803801155090332031e+01 6.304978728294372559e-01 2.369537830352783203e+00 9.000107645988464355e-01 9.669047594070434570e-01
3.382000000000000000e+03 6.205680084228515625e+01 1.559866905212402344e+00 -4.816242456436157227e-01 7.154200077056884766e+00 2.001772880554199219e+00 -3.727913498878479004e-01
3.383000000000000000e+03 6.099286270141601562e+01 8.033059537410736084e-02 -4.648167788982391357e-01 6.951039314270019531e+00 1.945866703987121582e+00 -2.947103381156921387e-01
3.384000000000000000e+03 4.149056625366210938e+01 4.016652107238769531e+00 -1.101021170616149902e-01 3.170807123184204102e+00 9.182114601135253906e-01 4.829456508159637451e-01
3.385000000000000000e+03 3.970896911621093750e+01 6.106985092163085938e+00 -2.154657850041985512e-03 2.701569795608520508e+00 8.098245263099670410e-01 5.170087218284606934e-01
3.386000000000000000e+03 6.201707458496093750e+01 1.249555587768554688e+01 -6.895645260810852051e-01 7.916097164154052734e+00 2.167959690093994141e+00 -6.888590455055236816e-01
3.387000000000000000e+03 6.191597747802734375e+01 1.689312934875488281e+01 -6.052907109260559082e-01 8.423920631408691406e+00 2.345589160919189453e+00 -8.894490599632263184e-01
3.388000000000000000e+03 6.211059570312500000e+01 -9.947834014892578125e+00 -2.377705127000808716e-01 6.850100040435791016e+00 1.983698844909667969e+00 -1.802592575550079346e-01
3.389000000000000000e+03 6.221238708496093750e+01 -1.333072853088378906e+01 -1.945774406194686890e-01 6.800033092498779297e+00 1.981636643409729004e+00 -1.333125531673431396e-01
3.390000000000000000e+03 3.886821365356445312e+01 -2.118479251861572266e+00 -1.230994984507560730e-01 2.630054473876953125e+00 7.520865201950073242e-01 3.064360618591308594e-01
3.391000000000000000e+03 6.377362823486328125e+01 1.453478717803955078e+01 -5.775236487388610840e-01 8.092063903808593750e+00 2.254362106323242188e+00 -9.449033737182617188e-01
3.392000000000000000e+03 3.770919418334960938e+01 -9.106829643249511719e+00 -1.216211766004562378e-01 2.400134325027465820e+00 6.835539340972900391e-01 1.984381824731826782e-01
3.393000000000000000e+03 6.101255798339843750e+01 -9.301199913024902344e+00 -2.688700258731842041e-01 6.684784412384033203e+00 1.924774408340454102e+00 -1.742074042558670044e-01
3.394000000000000000e+03 3.759603881835937500e+01 -2.424262285232543945e+00 -9.613361954689025879e-02 2.361537694931030273e+00 6.796212196350097656e-01 3.011182248592376709e-01
3.395000000000000000e+03 3.855234527587890625e+01 -1.042971134185791016e+01 -1.288782507181167603e-01 2.564191341400146484e+00 7.305939197540283203e-01 1.792185902595520020e-01
3.396000000000000000e+03 3.975784683227539062e+01 -8.997613906860351562e+00 -1.478554308414459229e-01 2.835277080535888672e+00 8.062264919281005859e-01 2.053619474172592163e-01
3.397000000000000000e+03 6.122764968872070312e+01 -1.162884354591369629e+00 -4.218864440917968750e-01 6.930788993835449219e+00 1.952670812606811523e+00 -2.887224555015563965e-01
3.398000000000000000e+03 6.275894927978515625e+01 8.377902030944824219e+00 -6.220464110374450684e-01 7.592237949371337891e+00 2.091057300567626953e+00 -5.957865118980407715e-01
3.399000000000000000e+03 6.061867141723632812e+01 2.371074199676513672e+00 -5.341431498527526855e-01 6.998757839202880859e+00 1.939384460449218750e+00 -3.074930012226104736e-01
3.400000000000000000e+03 6.208250808715820312e+01 3.955261230468750000e+00 -5.469651222229003906e-01 7.265651226043701172e+00 2.015605688095092773e+00 -4.242195785045623779e-01
3.401000000000000000e+03 6.065268707275390625e+01 1.272566556930541992e+00 -5.092517137527465820e-01 6.955228328704833984e+00 1.933792948722839355e+00 -2.937231063842773438e-01
3.402000000000000000e+03 4.885834884643554688e+01 2.471693992614746094e+01 1.073260068893432617e+00 5.419632434844970703e+00 1.947867751121520996e+00 3.096911430358886719e+00
3.403000000000000000e+03 4.835295104980468750e+01 2.252826881408691406e+01 6.332486867904663086e-01 5.248812198638916016e+00 1.764618158340454102e+00 2.441491842269897461e+00
3.404000000000000000e+03 5.385826492309570312e+01 2.442494010925292969e+01 -3.805727660655975342e-01 1.062062358856201172e+01 3.072015285491943359e+00 1.238023042678833008e+00
3.405000000000000000e+03 5.604910278320312500e+01 2.280520439147949219e+01 -4.782327413558959961e-01 1.008201026916503906e+01 2.881133317947387695e+00 5.883201956748962402e-02
3.406000000000000000e+03 5.647340774536132812e+01 2.351639175415039062e+01 -2.870870530605316162e-01 1.032719707489013672e+01 3.012032985687255859e+00 -1.933844834566116333e-01
3.407000000000000000e+03 4.596568298339843750e+01 2.287553977966308594e+01 1.077971339225769043e+00 3.334425449371337891e+00 1.323719024658203125e+00 2.038809061050415039e+00
3.408000000000000000e+03 3.828190231323242188e+01 1.941891098022460938e+01 6.638810634613037109e-01 1.316313982009887695e+00 5.940585136413574219e-01 4.848528504371643066e-01
3.409000000000000000e+03 3.940488815307617188e+01 1.897591781616210938e+01 6.851543784141540527e-01 1.619407296180725098e+00 6.913684606552124023e-01 6.578384637832641602e-01
3.410000000000000000e+03 5.984568023681640625e+01 2.314501571655273438e+01 4.571821168065071106e-02 9.624183654785156250e+00 2.900970458984375000e+00 -1.056785583496093750e+00
3.411000000000000000e+03 3.969153213500976562e+01 1.677564430236816406e+01 5.462299585342407227e-01 1.978190422058105469e+00 7.573261260986328125e-01 7.168090939521789551e-01
3.412000000000000000e+03 4.523484039306640625e+01 2.042099761962890625e+01 7.418953776359558105e-01 3.431472063064575195e+00 1.252010226249694824e+00 1.663558006286621094e+00
3.413000000000000000e+03 5.334082412719726562e+01 2.334209251403808594e+01 -4.491706788539886475e-01 9.711356163024902344e+00 2.778655767440795898e+00 1.451348304748535156e+00
3.414000000000000000e+03 4.022082901000976562e+01 1.434049510955810547e+01 3.828580677509307861e-01 2.377487897872924805e+00 8.281037807464599609e-01 7.504208087921142578e-01
3.415000000000000000e+03 4.145700454711914062e+01 1.950045394897460938e+01 7.512409090995788574e-01 2.099598646163940430e+00 8.552518486976623535e-01 9.634365439414978027e-01
3.416000000000000000e+03 4.769095993041992188e+01 2.229314994812011719e+01 7.404703497886657715e-01 4.663543701171875000e+00 1.621204137802124023e+00 2.310489416122436523e+00
3.417000000000000000e+03 4.932126998901367188e+01 2.239893722534179688e+01 3.845584690570831299e-01 6.118349552154541016e+00 1.950872302055358887e+00 2.469437837600708008e+00
3.418000000000000000e+03 5.898982620239257812e+01 1.815808105468750000e+01 -7.028009891510009766e-01 8.701659202575683594e+00 2.399657487869262695e+00 -4.834659099578857422e-01
3.419000000000000000e+03 6.024511337280273438e+01 2.445191001892089844e+01 4.376983344554901123e-01 9.694735527038574219e+00 3.039730072021484375e+00 -1.229134917259216309e+00
3.420000000000000000e+03 4.064048767089843750e+01 1.968414688110351562e+01 7.562095522880554199e-01 1.839630365371704102e+00 7.787519693374633789e-01 8.313279151916503906e-01
3.421000000000000000e+03 6.018816375732421875e+01 6.952352523803710938e+00 -6.612868905067443848e-01 7.275370597839355469e+00 1.984225153923034668e+00 -3.600068092346191406e-01
3.422000000000000000e+03 6.304998779296875000e+01 6.529484272003173828e+00 -5.726706385612487793e-01 7.496139526367187500e+00 2.077040672302246094e+00 -5.552487969398498535e-01
3.423000000000000000e+03 6.117098236083984375e+01 1.600161743164062500e+01 -6.776847243309020996e-01 8.337228775024414062e+00 2.297863245010375977e+00 -7.500589489936828613e-01
3.424000000000000000e+03 4.519011306762695312e+01 2.104878616333007812e+01 8.241894245147705078e-01 3.297833681106567383e+00 1.236606955528259277e+00 1.709366083145141602e+00
3.425000000000000000e+03 4.085462188720703125e+01 9.575310707092285156e+00 9.272892028093338013e-02 2.873248100280761719e+00 8.897930979728698730e-01 6.589118838310241699e-01
3.426000000000000000e+03 4.330087280273437500e+01 1.906536865234375000e+01 6.822100281715393066e-01 2.847309827804565430e+00 1.058856010437011719e+00 1.266165137290954590e+00
3.427000000000000000e+03 4.369311904907226562e+01 1.978207588195800781e+01 7.359542250633239746e-01 2.879014253616333008e+00 1.084490537643432617e+00 1.352759957313537598e+00
3.428000000000000000e+03 3.971171569824218750e+01 9.019292831420898438e+00 9.936393052339553833e-02 2.603869676589965820e+00 8.109701275825500488e-01 5.937112569808959961e-01
3.429000000000000000e+03 5.971521377563476562e+01 1.752773094177246094e+01 -6.940744519233703613e-01 8.582913398742675781e+00 2.366651535034179688e+00 -5.954998135566711426e-01
3.430000000000000000e+03 4.035267639160156250e+01 2.996806383132934570e+00 -9.736140072345733643e-02 2.914301872253417969e+00 8.450821638107299805e-01 4.424704015254974365e-01
3.431000000000000000e+03 6.047580337524414062e+01 3.849564075469970703e+00 -5.711348652839660645e-01 7.109332084655761719e+00 1.961459159851074219e+00 -3.306496739387512207e-01
3.432000000000000000e+03 6.038367080688476562e+01 1.138867092132568359e+01 -7.393534779548645020e-01 7.718101501464843750e+00 2.093624353408813477e+00 -4.694976210594177246e-01
3.433000000000000000e+03 6.072592163085937500e+01 1.069582271575927734e+01 -7.196881771087646484e-01 7.656784057617187500e+00 2.081128835678100586e+00 -4.851599633693695068e-01
3.434000000000000000e+03 3.936960220336914062e+01 4.079749584197998047e+00 -4.846955463290214539e-02 2.667878627777099609e+00 7.858227491378784180e-01 4.528906047344207764e-01
3.435000000000000000e+03 6.152138137817382812e+01 1.344615745544433594e+01 -7.116780877113342285e-01 8.012968063354492188e+00 2.190387248992919922e+00 -6.625961661338806152e-01
3.436000000000000000e+03 6.060243606567382812e+01 1.274546527862548828e+01 -7.395002245903015137e-01 7.893480777740478516e+00 2.146194219589233398e+00 -5.356259346008300781e-01
3.437000000000000000e+03 6.258688735961914062e+01 1.413264369964599609e+01 -6.492068171501159668e-01 8.088184356689453125e+00 2.231693267822265625e+00 -8.232478499412536621e-01
3.438000000000000000e+03 6.172394180297851562e+01 2.511740684509277344e+00 -5.174955129623413086e-01 7.157614231109619141e+00 1.992035627365112305e+00 -3.803648054599761963e-01
3.439000000000000000e+03 5.845967483520507812e+01 -7.325096130371093750e+00 -3.332961201667785645e-01 6.326731204986572266e+00 1.798030495643615723e+00 -1.220723688602447510e-01
3.440000000000000000e+03 6.148784637451171875e+01 -1.191420173645019531e+01 -2.219572067260742188e-01 6.712765216827392578e+00 1.947242379188537598e+00 -1.416697651147842407e-01
3.441000000000000000e+03 6.235677719116210938e+01 -2.080899620056152344e+01 -1.110971122980117798e-01 6.759360790252685547e+00 1.994479060173034668e+00 -7.491060346364974976e-02
3.442000000000000000e+03 3.931604003906250000e+01 -6.399252891540527344e+00 -1.392970085144042969e-01 2.725742101669311523e+00 7.759335041046142578e-01 2.322403788566589355e-01
3.443000000000000000e+03 6.158465194702148438e+01 9.033904075622558594e+00 -6.738258004188537598e-01 7.577357769012451172e+00 2.071059465408325195e+00 -5.261127352714538574e-01
3.444000000000000000e+03 5.896054458618164062e+01 3.982002019882202148e+00 -5.941469073295593262e-01 6.897003650665283203e+00 1.890857100486755371e+00 -2.308352887630462646e-01
3.445000000000000000e+03 5.972246170043945312e+01 -1.891916543245315552e-01 -4.705538153648376465e-01 6.775873184204101562e+00 1.891595840454101562e+00 -2.447722405195236206e-01
3.446000000000000000e+03 6.149857330322265625e+01 -1.559703159332275391e+01 -1.580776423215866089e-01 6.667713165283203125e+00 1.952890753746032715e+00 -1.098005995154380798e-01
3.447000000000000000e+03 3.578263473510742188e+01 -1.572300624847412109e+01 -8.283152431249618530e-02 2.046542406082153320e+00 5.891132950782775879e-01 1.298483759164810181e-01
3.448000000000000000e+03 3.685771560668945312e+01 -1.676119041442871094e+01 -8.989860862493515015e-02 2.242694616317749023e+00 6.458387970924377441e-01 1.191010251641273499e-01
3.449000000000000000e+03 5.994326400756835938e+01 -2.430022716522216797e+00 -4.361465275287628174e-01 6.721394538879394531e+00 1.885574460029602051e+00 -2.150909900665283203e-01
3.450000000000000000e+03 5.181097412109375000e+01 2.437765502929687500e+01 -2.472429163753986359e-02 9.003295898437500000e+00 2.693571567535400391e+00 2.498048782348632812e+00
3.451000000000000000e+03 5.010899353027343750e+01 2.392364120483398438e+01 4.399915933609008789e-01 6.999869823455810547e+00 2.231958389282226562e+00 2.898594617843627930e+00
3.452000000000000000e+03 5.105138778686523438e+01 2.394256591796875000e+01 1.148878112435340881e-01 8.086040496826171875e+00 2.460278272628784180e+00 2.675245046615600586e+00
3.453000000000000000e+03 4.953679275512695312e+01 2.346824073791503906e+01 5.292943716049194336e-01 6.341628551483154297e+00 2.061276912689208984e+00 2.758683204650878906e+00
3.454000000000000000e+03 3.990003585815429688e+01 1.557510375976562500e+01 4.656328260898590088e-01 2.174081563949584961e+00 7.919142842292785645e-01 7.357646226882934570e-01
3.455000000000000000e+03 4.974565124511718750e+01 2.447636032104492188e+01 7.145981192588806152e-01 6.587001800537109375e+00 2.190479993820190430e+00 3.116144895553588867e+00
3.456000000000000000e+03 5.454529953002929688e+01 2.292362976074218750e+01 -5.501993298530578613e-01 9.922713279724121094e+00 2.811754226684570312e+00 7.942170500755310059e-01
3.457000000000000000e+03 4.442496490478515625e+01 1.962218093872070312e+01 6.977153420448303223e-01 3.181139945983886719e+00 1.163656592369079590e+00 1.476789712905883789e+00
3.458000000000000000e+03 4.450860214233398438e+01 2.036590957641601562e+01 7.802743315696716309e-01 3.097238063812255859e+00 1.163253784179687500e+00 1.529322862625122070e+00
3.459000000000000000e+03 4.600542831420898438e+01 2.064509010314941406e+01 7.045282721519470215e-01 3.786530494689941406e+00 1.347317576408386230e+00 1.813045859336853027e+00
3.460000000000000000e+03 4.686228561401367188e+01 2.103731727600097656e+01 6.491476893424987793e-01 4.323697090148925781e+00 1.491853356361389160e+00 2.013399124145507812e+00
3.461000000000000000e+03 5.167219161987304688e+01 2.373955535888671875e+01 -7.784143090248107910e-02 8.609651565551757812e+00 2.559543132781982422e+00 2.375981330871582031e+00
3.462000000000000000e+03 4.103792190551757812e+01 1.579687023162841797e+01 4.663966894149780273e-01 2.475773811340332031e+00 8.826511502265930176e-01 8.622979521751403809e-01
3.463000000000000000e+03 4.259066772460937500e+01 1.972064208984375000e+01 7.745432853698730469e-01 2.413901567459106445e+00 9.565334320068359375e-01 1.155529856681823730e+00
3.464000000000000000e+03 4.090396118164062500e+01 6.915042400360107422e+00 -1.017823629081249237e-02 2.976429462432861328e+00 8.898754119873046875e-01 5.698162317276000977e-01
3.465000000000000000e+03 3.927396392822265625e+01 1.013242530822753906e+01 1.629725694656372070e-01 2.431842327117919922e+00 7.784444689750671387e-01 5.962549448013305664e-01
3.466000000000000000e+03 4.055093002319335938e+01 1.791549682617187500e+01 6.332443356513977051e-01 2.074651718139648438e+00 8.123688101768493652e-01 8.343242406845092773e-01
3.467000000000000000e+03 5.904925537109375000e+01 1.668456268310546875e+01 -7.560254335403442383e-01 8.413425445556640625e+00 2.297219991683959961e+00 -4.306275546550750732e-01
3.468000000000000000e+03 6.030033874511718750e+01 1.514005565643310547e+01 -7.394843697547912598e-01 8.210882186889648438e+00 2.241419315338134766e+00 -5.826731324195861816e-01
3.469000000000000000e+03 5.157596588134765625e+01 1.998016738891601562e+01 -3.630973994731903076e-01 7.397104263305664062e+00 2.110202074050903320e+00 1.601255893707275391e+00
3.470000000000000000e+03 6.051197814941406250e+01 5.377788543701171875e+00 -6.160613894462585449e-01 7.198197364807128906e+00 1.974640727043151855e+00 -3.577877283096313477e-01
3.471000000000000000e+03 5.906569671630859375e+01 7.474321842193603516e+00 -6.811002492904663086e-01 7.185244560241699219e+00 1.951243281364440918e+00 -2.707121670246124268e-01
3.472000000000000000e+03 6.010551452636718750e+01 2.012685966491699219e+01 -4.801183938980102539e-01 9.038064002990722656e+00 2.567383766174316406e+00 -8.209777474403381348e-01
3.473000000000000000e+03 5.847153854370117188e+01 2.199927902221679688e+01 -3.364773690700531006e-01 9.603496551513671875e+00 2.780105829238891602e+00 -6.499364376068115234e-01
3.474000000000000000e+03 5.840811538696289062e+01 1.732046127319335938e+01 -7.621245980262756348e-01 8.517444610595703125e+00 2.326596021652221680e+00 -3.300249874591827393e-01
3.475000000000000000e+03 4.067576217651367188e+01 1.318511009216308594e+01 2.938852012157440186e-01 2.613145828247070312e+00 8.721092939376831055e-01 7.623046040534973145e-01
3.476000000000000000e+03 4.137052536010742188e+01 1.467269229888916016e+01 3.789063692092895508e-01 2.687160968780517578e+00 9.198202490806579590e-01 8.708490133285522461e-01
3.477000000000000000e+03 5.827702713012695312e+01 2.095677947998046875e+01 -5.097301602363586426e-01 9.359772682189941406e+00 2.655012607574462891e+00 -5.162149667739868164e-01
3.478000000000000000e+03 4.108836364746093750e+01 1.210676574707031250e+01 2.134578526020050049e-01 2.808823585510253906e+00 9.066843986511230469e-01 7.583061456680297852e-01
3.479000000000000000e+03 4.001390075683593750e+01 1.166868019104003906e+01 2.231177538633346558e-01 2.539279937744140625e+00 8.287193179130554199e-01 6.755411624908447266e-01
3.480000000000000000e+03 5.854742050170898438e+01 -1.216072589159011841e-01 -4.942744672298431396e-01 6.597260475158691406e+00 1.830895781517028809e+00 -1.701074987649917603e-01
3.481000000000000000e+03 5.741328811645507812e+01 2.268501281738281250e+01 -3.522587418556213379e-01 9.937088012695312500e+00 2.875448942184448242e+00 -4.010709226131439209e-01
3.482000000000000000e+03 6.122818374633789062e+01 6.314917564392089844e+00 -6.209191083908081055e-01 7.331683158874511719e+00 2.013229131698608398e+00 -4.275572001934051514e-01
3.483000000000000000e+03 6.197894287109375000e+01 7.310656547546386719e+00 -6.251711249351501465e-01 7.469600677490234375e+00 2.053328990936279297e+00 -5.096851587295532227e-01
3.484000000000000000e+03 4.048662567138671875e+01 1.883675384521484375e+01 6.955592036247253418e-01 1.942597031593322754e+00 7.914468646049499512e-01 8.209844827651977539e-01
3.485000000000000000e+03 4.168844985961914062e+01 5.949108123779296875e+00 -6.844551116228103638e-02 3.195764541625976562e+00 9.381957054138183594e-01 5.517206788063049316e-01
3.486000000000000000e+03 6.034748458862304688e+01 1.844502830505371094e+01 -6.063054203987121582e-01 8.729033470153808594e+00 2.436818599700927734e+00 -7.487097382545471191e-01
3.487000000000000000e+03 6.094408035278320312e+01 1.432127094268798828e+01 -7.270788550376892090e-01 8.101129531860351562e+00 2.212215185165405273e+00 -6.323245763778686523e-01
3.488000000000000000e+03 3.805984878540039062e+01 -1.181923985481262207e+00 -1.068543940782546997e-01 2.438098907470703125e+00 6.993733644485473633e-01 3.272671103477478027e-01
3.489000000000000000e+03 4.176197433471679688e+01 1.357636451721191406e+01 2.810306251049041748e-01 2.899416685104370117e+00 9.541341662406921387e-01 8.592795133590698242e-01
3.490000000000000000e+03 3.786529159545898438e+01 -5.486905097961425781e+00 -1.166623085737228394e-01 2.445020914077758789e+00 6.985076069831848145e-01 2.489542961120605469e-01
3.491000000000000000e+03 4.582332992553710938e+01 -6.546301841735839844e+00 -2.535657584667205811e-01 4.046106338500976562e+00 1.137762188911437988e+00 1.960026770830154419e-01
3.492000000000000000e+03 4.069427871704101562e+01 -7.538047790527343750e+00 -1.603862643241882324e-01 3.030138254165649414e+00 8.609256148338317871e-01 2.186050266027450562e-01
3.493000000000000000e+03 5.981801605224609375e+01 -1.330015778541564941e+00 -4.407828748226165771e-01 6.755520343780517578e+00 1.894421339035034180e+00 -2.318017482757568359e-01
3.494000000000000000e+03 6.160210800170898438e+01 -6.417610645294189453e+00 -3.184430897235870361e-01 6.820475101470947266e+00 1.950609683990478516e+00 -2.146524935960769653e-01
3.495000000000000000e+03 6.198099136352539062e+01 -3.986242294311523438e+00 -3.636917173862457275e-01 6.935792446136474609e+00 1.971630096435546875e+00 -2.601141333580017090e-01
3.496000000000000000e+03 3.857525253295898438e+01 -7.979686260223388672e+00 -1.338181644678115845e-01 2.565716981887817383e+00 7.295696139335632324e-01 2.060088217258453369e-01
3.497000000000000000e+03 5.982648468017578125e+01 9.686249732971191406e+00 -7.292091250419616699e-01 7.497156143188476562e+00 2.030384063720703125e+00 -3.741073310375213623e-01
3.498000000000000000e+03 6.000589752197265625e+01 1.350974655151367188e+01 -7.634769678115844727e-01 7.958464622497558594e+00 2.158496379852294922e+00 -4.790771007537841797e-01
3.499000000000000000e+03 6.224034500122070312e+01 -1.910688018798828125e+01 -1.184609234333038330e-01 6.757929801940917969e+00 1.991840600967407227e+00 -8.665350079536437988e-02
3.500000000000000000e+03 3.821388626098632812e+01 -1.799110412597656250e+01 -9.631353616714477539e-02 2.484172821044921875e+00 7.163578271865844727e-01 1.106828302145004272e-01
3.501000000000000000e+03 5.057405471801757812e+01 2.336558151245117188e+01 1.768171489238739014e-01 7.454941272735595703e+00 2.289527416229248047e+00 2.618792057037353516e+00
3.502000000000000000e+03 4.894118118286132812e+01 2.299355888366699219e+01 5.899834632873535156e-01 5.771812915802001953e+00 1.908538937568664551e+00 2.621393203735351562e+00
3.503000000000000000e+03 4.779579925537109375e+01 2.147976303100585938e+01 5.834504961967468262e-01 4.852406024932861328e+00 1.630756974220275879e+00 2.192649364471435547e+00
3.504000000000000000e+03 5.035866165161132812e+01 2.223835945129394531e+01 8.819928765296936035e-02 7.000922203063964844e+00 2.126736402511596680e+00 2.340013980865478516e+00
3.505000000000000000e+03 5.225306701660156250e+01 2.346192169189453125e+01 -2.635630369186401367e-01 9.031190872192382812e+00 2.630288362503051758e+00 2.048501253128051758e+00
3.506000000000000000e+03 5.378905868530273438e+01 2.256040382385253906e+01 -5.437840223312377930e-01 9.467213630676269531e+00 2.677028894424438477e+00 1.150504231452941895e+00
3.507000000000000000e+03 4.618601608276367188e+01 1.899429512023925781e+01 4.551013410091400146e-01 4.166042327880859375e+00 1.386343002319335938e+00 1.670916318893432617e+00
3.508000000000000000e+03 4.525934219360351562e+01 1.966892623901367188e+01 6.396781802177429199e-01 3.556158304214477539e+00 1.258750915527343750e+00 1.594210028648376465e+00
3.509000000000000000e+03 4.258460235595703125e+01 1.839484024047851562e+01 6.463350653648376465e-01 2.669719457626342773e+00 9.948163032531738281e-01 1.145838141441345215e+00
3.510000000000000000e+03 4.423190307617187500e+01 1.874278068542480469e+01 6.075410246849060059e-01 3.232997179031372070e+00 1.152161478996276855e+00 1.379490733146667480e+00
3.511000000000000000e+03 5.757358169555664062e+01 2.199394798278808594e+01 -4.447128176689147949e-01 9.701451301574707031e+00 2.777021646499633789e+00 -4.115558862686157227e-01
3.512000000000000000e+03 5.824516296386718750e+01 2.288570213317871094e+01 -1.867868304252624512e-01 9.855258941650390625e+00 2.900541543960571289e+00 -7.130867242813110352e-01
3.513000000000000000e+03 5.934191131591796875e+01 1.428145313262939453e+01 -7.812708020210266113e-01 8.027293205261230469e+00 2.173806667327880859e+00 -4.057244956493377686e-01
3.514000000000000000e+03 5.953131866455078125e+01 2.181431007385253906e+01 -2.782311439514160156e-01 9.456929206848144531e+00 2.753609418869018555e+00 -8.659140467643737793e-01
3.515000000000000000e+03 4.205563735961914062e+01 1.910413169860839844e+01 7.273259758949279785e-01 2.337671279907226562e+00 9.194991588592529297e-01 1.063531994819641113e+00
3.516000000000000000e+03 5.410554122924804688e+01 2.180452346801757812e+01 -6.088413000106811523e-01 9.278381347656250000e+00 2.600862264633178711e+00 9.840217828750610352e-01
3.517000000000000000e+03 5.102084732055664062e+01 2.270732879638671875e+01 -3.557710722088813782e-02 7.702881813049316406e+00 2.300191402435302734e+00 2.311790227890014648e+00
3.518000000000000000e+03 4.076660156250000000e+01 1.689625358581542969e+01 5.470758080482482910e-01 2.256345510482788086e+00 8.410263657569885254e-01 8.426473736763000488e-01
3.519000000000000000e+03 5.909447479248046875e+01 4.997734546661376953e+00 -6.265020966529846191e-01 6.983420848846435547e+00 1.907075643539428711e+00 -2.501824200153350830e-01
3.520000000000000000e+03 4.149861526489257812e+01 1.108224964141845703e+01 1.433696299791336060e-01 2.983950614929199219e+00 9.381960630416870117e-01 7.404834032058715820e-01
3.521000000000000000e+03 4.216197204589843750e+01 1.252556324005126953e+01 1.965971738100051880e-01 3.092923879623413086e+00 9.868563413619995117e-01 8.403866291046142578e-01
3.522000000000000000e+03 4.024703598022460938e+01 7.939645290374755859e+00 4.408398270606994629e-02 2.779528856277465820e+00 8.470838665962219238e-01 5.838431715965270996e-01
3.523000000000000000e+03 5.486552047729492188e+01 2.200009536743164062e+01 -6.156163215637207031e-01 9.612375259399414062e+00 2.699027538299560547e+00 6.285291910171508789e-01
3.524000000000000000e+03 5.656509017944335938e+01 2.152513313293457031e+01 -5.889964103698730469e-01 9.632798194885253906e+00 2.713140726089477539e+00 -5.047684162855148315e-02
3.525000000000000000e+03 5.976161193847656250e+01 -3.422586679458618164e+00 -4.003673195838928223e-01 6.640923976898193359e+00 1.872167110443115234e+00 -1.976014226675033569e-01
3.526000000000000000e+03 6.082569885253906250e+01 8.018375396728515625e+00 -6.684784293174743652e-01 7.426182746887207031e+00 2.027311325073242188e+00 -4.373009204864501953e-01
3.527000000000000000e+03 5.913694763183593750e+01 1.109900474548339844e+01 -7.625590562820434570e-01 7.579651832580566406e+00 2.045127868652343750e+00 -3.150234520435333252e-01
3.528000000000000000e+03 5.825549316406250000e+01 1.867670440673828125e+01 -7.090705633163452148e-01 8.806177139282226562e+00 2.429132223129272461e+00 -3.568310737609863281e-01
3.529000000000000000e+03 4.197523880004882812e+01 7.678593635559082031e+00 -2.563299424946308136e-02 3.235889196395874023e+00 9.630768299102783203e-01 6.246477365493774414e-01
3.530000000000000000e+03 4.289336013793945312e+01 8.369037628173828125e+00 -4.585004970431327820e-02 3.450687646865844727e+00 1.021451234817504883e+00 6.694164276123046875e-01
3.531000000000000000e+03 4.020458221435546875e+01 8.723464012145996094e-01 -1.304440200328826904e-01 2.900538444519042969e+00 8.310283422470092773e-01 3.815105259418487549e-01
3.532000000000000000e+03 4.257749938964843750e+01 5.034677982330322266e+00 -1.286515891551971436e-01 3.433448076248168945e+00 9.914389252662658691e-01 5.279424786567687988e-01
3.533000000000000000e+03 5.683004760742187500e+01 -1.757365107536315918e+00 -4.572760760784149170e-01 6.265280723571777344e+00 1.742401361465454102e+00 -9.240205585956573486e-02
3.534000000000000000e+03 5.886992645263671875e+01 -5.856389045715332031e+00 -3.605209589004516602e-01 6.437227725982666016e+00 1.823012113571166992e+00 -1.447901725769042969e-01
3.535000000000000000e+03 6.051981735229492188e+01 -4.900316238403320312e+00 -3.541929721832275391e-01 6.704504013061523438e+00 1.905093312263488770e+00 -2.081728428602218628e-01
3.536000000000000000e+03 6.295449829101562500e+01 -6.663230419158935547e+00 -2.954793572425842285e-01 6.997559070587158203e+00 2.010623931884765625e+00 -2.398199588060379028e-01
3.537000000000000000e+03 6.276416015625000000e+01 -4.700316429138183594e+00 -3.324469923973083496e-01 7.021535873413085938e+00 2.006726741790771484e+00 -2.707903385162353516e-01
3.538000000000000000e+03 4.217388153076171875e+01 1.607296752929687500e+01 4.569299817085266113e-01 2.801618099212646484e+00 9.775643944740295410e-01 1.003864765167236328e+00
3.539000000000000000e+03 5.626692199707031250e+01 1.103497147560119629e+00 -5.310994386672973633e-01 6.315200805664062500e+00 1.735230445861816406e+00 -5.993317440152168274e-02
3.540000000000000000e+03 5.953692245483398438e+01 2.951636791229248047e+00 -5.620535016059875488e-01 6.911701202392578125e+00 1.904894232749938965e+00 -2.532640993595123291e-01
3.541000000000000000e+03 4.086140060424804688e+01 -2.516328096389770508e+00 -1.624383479356765747e-01 3.070326089859008789e+00 8.723663687705993652e-01 3.075835406780242920e-01
3.542000000000000000e+03 4.000817489624023438e+01 -1.267600059509277344e+00 -1.476185321807861328e-01 2.873457431793212891e+00 8.177516460418701172e-01 3.310512602329254150e-01
3.543000000000000000e+03 5.868393707275390625e+01 1.005669784545898438e+01 -7.517743706703186035e-01 7.400318622589111328e+00 1.994563341140747070e+00 -2.439658790826797485e-01
3.544000000000000000e+03 5.918757247924804688e+01 1.265441703796386719e+01 -7.764042615890502930e-01 7.798004627227783203e+00 2.106480121612548828e+00 -3.596571981906890869e-01
3.545000000000000000e+03 4.337436676025390625e+01 -9.600816726684570312e+00 -1.992467343807220459e-01 3.532728433609008789e+00 1.000044465065002441e+00 1.723700612783432007e-01
3.546000000000000000e+03 5.955618286132812500e+01 -9.168632507324218750e+00 -2.851946055889129639e-01 6.447887420654296875e+00 1.848807930946350098e+00 -1.359661221504211426e-01
3.547000000000000000e+03 5.596006393432617188e+01 -1.018407535552978516e+01 -2.885211706161499023e-01 5.863261699676513672e+00 1.672422170639038086e+00 -5.948206409811973572e-02
3.548000000000000000e+03 3.398991012573242188e+01 -1.903826141357421875e+01 -5.946458131074905396e-02 1.721323013305664062e+00 4.985575079917907715e-01 9.661313891410827637e-02
3.549000000000000000e+03 3.682532501220703125e+01 -1.938434028625488281e+01 -8.054354786872863770e-02 2.238174676895141602e+00 6.472893357276916504e-01 1.017088070511817932e-01
3.550000000000000000e+03 5.931382751464843750e+01 -1.496065998077392578e+01 -1.821669191122055054e-01 6.348197460174560547e+00 1.849809169769287109e+00 -9.280084073543548584e-02
3.551000000000000000e+03 6.063016891479492188e+01 -1.760282897949218750e+01 -1.538406163454055786e-01 6.508412837982177734e+00 1.906371712684631348e+00 -8.605173230171203613e-02
3.552000000000000000e+03 5.842684936523437500e+01 -1.364842700958251953e+01 -2.264895588159561157e-01 6.191401958465576172e+00 1.789473652839660645e+00 -8.305350691080093384e-02
3.553000000000000000e+03 6.073395919799804688e+01 -1.409247493743896484e+01 -1.941036880016326904e-01 6.561729907989501953e+00 1.910287857055664062e+00 -1.128829196095466614e-01
3.554000000000000000e+03 4.863189697265625000e+01 2.192845535278320312e+01 4.788329899311065674e-01 5.565247535705566406e+00 1.813224196434020996e+00 2.366800069808959961e+00
3.555000000000000000e+03 4.995526885986328125e+01 2.287139511108398438e+01 2.884348630905151367e-01 6.737769126892089844e+00 2.107861042022705078e+00 2.554493188858032227e+00
3.556000000000000000e+03 4.776677322387695312e+01 2.010533905029296875e+01 3.809788227081298828e-01 4.962043285369873047e+00 1.602906584739685059e+00 1.955794215202331543e+00
3.557000000000000000e+03 4.826762390136718750e+01 2.077637100219726562e+01 3.732900023460388184e-01 5.241445541381835938e+00 1.684420585632324219e+00 2.078078269958496094e+00
3.558000000000000000e+03 4.419740295410156250e+01 1.772227287292480469e+01 5.028154850006103516e-01 3.358021020889282227e+00 1.158250927925109863e+00 1.315793037414550781e+00
3.559000000000000000e+03 5.269999313354492188e+01 2.284697723388671875e+01 -4.018709063529968262e-01 9.054096221923828125e+00 2.595667600631713867e+00 1.747229576110839844e+00
3.560000000000000000e+03 4.699348449707031250e+01 2.011487007141113281e+01 4.933501482009887695e-01 4.520742893218994141e+00 1.504227876663208008e+00 1.900647044181823730e+00
3.561000000000000000e+03 5.032360458374023438e+01 1.971579360961914062e+01 -1.643361151218414307e-01 6.652438163757324219e+00 1.946430563926696777e+00 1.772058725357055664e+00
3.562000000000000000e+03 5.532313919067382812e+01 2.007722663879394531e+01 -7.136043310165405273e-01 8.915176391601562500e+00 2.460471630096435547e+00 4.487391114234924316e-01
3.563000000000000000e+03 5.956604003906250000e+01 8.562177658081054688e+00 -7.087440490722656250e-01 7.359663486480712891e+00 1.995275855064392090e+00 -3.324996232986450195e-01
3.564000000000000000e+03 5.571925735473632812e+01 2.189483451843261719e+01 -6.002004742622375488e-01 9.701420783996582031e+00 2.730366230010986328e+00 2.855539917945861816e-01
3.565000000000000000e+03 5.425442123413085938e+01 2.111495399475097656e+01 -6.491854190826416016e-01 9.065931320190429688e+00 2.525023937225341797e+00 8.618355989456176758e-01
3.566000000000000000e+03 5.852102279663085938e+01 1.333891773223876953e+01 -7.959172725677490234e-01 7.821424007415771484e+00 2.107651948928833008e+00 -2.642350196838378906e-01
3.567000000000000000e+03 5.844715118408203125e+01 1.178041076660156250e+01 -7.803213596343994141e-01 7.594006061553955078e+00 2.044105529785156250e+00 -2.295982539653778076e-01
3.568000000000000000e+03 4.525587081909179688e+01 1.880525588989257812e+01 5.316255092620849609e-01 3.711961269378662109e+00 1.273076057434082031e+00 1.533508300781250000e+00
3.569000000000000000e+03 4.250386047363281250e+01 1.500289726257324219e+01 3.537425398826599121e-01 3.026828527450561523e+00 1.014171361923217773e+00 9.854190945625305176e-01
3.570000000000000000e+03 4.187801361083984375e+01 1.710584640502929688e+01 5.503249168395996094e-01 2.575154542922973633e+00 9.376438260078430176e-01 9.932373166084289551e-01
3.571000000000000000e+03 4.719524002075195312e+01 1.835152435302734375e+01 2.513241767883300781e-01 4.726849079132080078e+00 1.493451952934265137e+00 1.641430020332336426e+00
3.572000000000000000e+03 5.310158538818359375e+01 2.215823554992675781e+01 -5.106195211410522461e-01 8.993420600891113281e+00 2.544840097427368164e+00 1.450709700584411621e+00
3.573000000000000000e+03 5.374575042724609375e+01 2.090709114074707031e+01 -6.192696094512939453e-01 8.782186508178710938e+00 2.448875188827514648e+00 1.069805979728698730e+00
3.574000000000000000e+03 5.793130111694335938e+01 2.000384902954101562e+01 -6.343727707862854004e-01 9.132765769958496094e+00 2.549518108367919922e+00 -3.578320443630218506e-01
3.575000000000000000e+03 5.739936447143554688e+01 2.120703506469726562e+01 -5.360556840896606445e-01 9.490635871887207031e+00 2.686374187469482422e+00 -2.997952401638031006e-01
3.576000000000000000e+03 4.531459426879882812e+01 1.787938690185546875e+01 4.280081689357757568e-01 3.843779802322387695e+00 1.281536340713500977e+00 1.459448099136352539e+00
3.577000000000000000e+03 5.884722137451171875e+01 -2.805343627929687500e+00 -4.302443861961364746e-01 6.516171932220458984e+00 1.825778245925903320e+00 -1.649026721715927124e-01
3.578000000000000000e+03 4.302133560180664062e+01 1.745179748535156250e+01 5.413935184478759766e-01 2.944377899169921875e+00 1.045731425285339355e+00 1.162067651748657227e+00
3.579000000000000000e+03 5.674409866333007812e+01 1.635049057006835938e+01 -8.078835010528564453e-01 8.157555580139160156e+00 2.204901695251464844e+00 3.395697101950645447e-02
3.580000000000000000e+03 5.834532928466796875e+01 1.597189140319824219e+01 -7.948448657989501953e-01 8.247307777404785156e+00 2.235738992691040039e+00 -2.773661613464355469e-01
3.581000000000000000e+03 4.390571975708007812e+01 1.097262859344482422e+01 1.403371989727020264e-02 3.685162067413330078e+00 1.109758734703063965e+00 8.420587778091430664e-01
3.582000000000000000e+03 4.240692138671875000e+01 9.196662902832031250e+00 1.318456511944532394e-02 3.311505556106567383e+00 9.974070191383361816e-01 6.969150900840759277e-01
3.583000000000000000e+03 5.764783096313476562e+01 -1.077690315246582031e+01 -2.668114006519317627e-01 6.127023696899414062e+00 1.758063673973083496e+00 -8.547927439212799072e-02
3.584000000000000000e+03 4.120902252197265625e+01 -2.591882944107055664e-01 -1.665631532669067383e-01 3.142692804336547852e+00 8.928388953208923340e-01 3.569845259189605713e-01
3.585000000000000000e+03 4.242713165283203125e+01 8.308452367782592773e-01 -1.907231509685516357e-01 3.415678024291992188e+00 9.674864411354064941e-01 3.932466208934783936e-01
3.586000000000000000e+03 4.249246597290039062e+01 3.018495321273803711e+00 -1.630915850400924683e-01 3.420745372772216797e+00 9.772961735725402832e-01 4.580842554569244385e-01
3.587000000000000000e+03 6.020906829833984375e+01 -6.209083557128906250e+00 -3.400873541831970215e-01 6.624755859375000000e+00 1.885400533676147461e+00 -1.842360496520996094e-01
3.588000000000000000e+03 5.929715347290039062e+01 -4.528378486633300781e+00 -3.754634559154510498e-01 6.547040462493896484e+00 1.851473212242126465e+00 -1.756144165992736816e-01
3.589000000000000000e+03 5.773229217529296875e+01 -1.534815883636474609e+01 -1.901435554027557373e-01 6.055487632751464844e+00 1.759603142738342285e+00 -5.658439546823501587e-02
3.590000000000000000e+03 4.136671066284179688e+01 8.597291946411132812e+00 2.825521305203437805e-02 3.046240329742431641e+00 9.223486185073852539e-01 6.427400112152099609e-01
3.591000000000000000e+03 5.767645645141601562e+01 1.371463298797607422e+01 -8.052841424942016602e-01 7.791019916534423828e+00 2.095720767974853516e+00 -1.386786103248596191e-01
3.592000000000000000e+03 4.400862884521484375e+01 -8.228299140930175781e+00 -2.070305943489074707e-01 3.672569990158081055e+00 1.039661884307861328e+00 1.777435541152954102e-01
3.593000000000000000e+03 3.949097061157226562e+01 -3.504109621047973633e+00 -1.431483924388885498e-01 2.778458118438720703e+00 7.905929088592529297e-01 2.901495695114135742e-01
3.594000000000000000e+03 3.985852432250976562e+01 -1.177129650115966797e+01 -1.329277902841567993e-01 2.818465232849121094e+00 8.056612014770507812e-01 1.669068932533264160e-01
3.595000000000000000e+03 5.959542465209960938e+01 5.951289653778076172e+00 -6.388755440711975098e-01 7.120010852813720703e+00 1.944340586662292480e+00 -3.010263442993164062e-01
3.596000000000000000e+03 5.857154464721679688e+01 6.413173198699951172e+00 -6.620675921440124512e-01 7.035953521728515625e+00 1.912165760993957520e+00 -2.218946665525436401e-01
3.597000000000000000e+03 5.621065139770507812e+01 2.391347408294677734e+00 -5.456466078758239746e-01 6.389863014221191406e+00 1.753264904022216797e+00 -5.642906948924064636e-02
3.598000000000000000e+03 4.390023422241210938e+01 -1.699985504150390625e+01 -1.402685493230819702e-01 3.588101863861083984e+00 1.034349918365478516e+00 8.474133163690567017e-02
3.599000000000000000e+03 3.942844009399414062e+01 -1.640152740478515625e+01 -1.130158230662345886e-01 2.722610473632812500e+00 7.828783988952636719e-01 1.222817078232765198e-01
3.600000000000000000e+03 3.978491210937500000e+01 -1.942061614990234375e+01 -1.038167998194694519e-01 2.785375118255615234e+00 8.044674992561340332e-01 9.809377044439315796e-02
3.601000000000000000e+03 5.179503631591796875e+01 2.123579788208007812e+01 -3.312882483005523682e-01 7.855540752410888672e+00 2.257275819778442383e+00 1.763283610343933105e+00
3.602000000000000000e+03 4.900086593627929688e+01 2.131421470642089844e+01 3.055829703807830811e-01 5.794698238372802734e+00 1.830084323883056641e+00 2.221545457839965820e+00
3.603000000000000000e+03 5.007824707031250000e+01 2.114217376708984375e+01 2.911764569580554962e-02 6.639873504638671875e+00 2.000697374343872070e+00 2.096652984619140625e+00
3.604000000000000000e+03 5.486495971679687500e+01 2.109290313720703125e+01 -6.677703261375427246e-01 9.189311027526855469e+00 2.556462049484252930e+00 6.187805533409118652e-01
3.605000000000000000e+03 5.635282135009765625e+01 1.862503623962402344e+01 -7.758771777153015137e-01 8.654804229736328125e+00 2.363677978515625000e+00 1.324968934059143066e-01
3.606000000000000000e+03 5.205801010131835938e+01 2.239237403869628906e+01 -3.047949075698852539e-01 8.373391151428222656e+00 2.420578718185424805e+00 1.920350551605224609e+00
3.607000000000000000e+03 5.751123046875000000e+01 1.910616683959960938e+01 -7.288323640823364258e-01 8.898487091064453125e+00 2.450896263122558594e+00 -1.963297575712203979e-01
3.608000000000000000e+03 4.942174148559570312e+01 2.070990753173828125e+01 1.179557815194129944e-01 6.085438728332519531e+00 1.861018419265747070e+00 2.052273273468017578e+00
3.609000000000000000e+03 4.969711685180664062e+01 2.178831100463867188e+01 2.026039808988571167e-01 6.413958549499511719e+00 1.984968781471252441e+00 2.288130998611450195e+00
3.610000000000000000e+03 4.330401229858398438e+01 1.638723373413085938e+01 4.243630468845367432e-01 3.183412790298461914e+00 1.082332730293273926e+00 1.136229872703552246e+00
3.611000000000000000e+03 5.168993759155273438e+01 2.306358337402343750e+01 -1.627194434404373169e-01 8.322989463806152344e+00 2.448081016540527344e+00 2.203932046890258789e+00
3.612000000000000000e+03 5.074237060546875000e+01 2.153896141052246094e+01 -8.712320774793624878e-02 7.208722114562988281e+00 2.136479616165161133e+00 2.097779512405395508e+00
3.613000000000000000e+03 4.137721252441406250e+01 1.882234382629394531e+01 7.047749161720275879e-01 2.197673559188842773e+00 8.707345724105834961e-01 9.568886160850524902e-01
3.614000000000000000e+03 4.630670166015625000e+01 1.809715843200683594e+01 3.342836797237396240e-01 4.309091567993164062e+00 1.393012523651123047e+00 1.559282541275024414e+00
3.615000000000000000e+03 4.441171646118164062e+01 1.667581367492675781e+01 3.743910789489746094e-01 3.559926509857177734e+00 1.180295348167419434e+00 1.259229421615600586e+00
3.616000000000000000e+03 4.548273468017578125e+01 1.693083953857421875e+01 3.085179030895233154e-01 3.985726833343505859e+00 1.288273453712463379e+00 1.376712679862976074e+00
3.617000000000000000e+03 5.657778930664062500e+01 1.745559501647949219e+01 -7.994686961174011230e-01 8.386198997497558594e+00 2.276019096374511719e+00 7.566834241151809692e-02
3.618000000000000000e+03 5.591054153442382812e+01 1.780919075012207031e+01 -7.840204834938049316e-01 8.361416816711425781e+00 2.273218870162963867e+00 2.405157983303070068e-01
3.619000000000000000e+03 5.813929367065429688e+01 5.312883853912353516e+00 -6.378133296966552734e-01 6.894486904144287109e+00 1.877002000808715820e+00 -1.824709326028823853e-01
3.620000000000000000e+03 4.287028884887695312e+01 1.394191741943359375e+01 2.545623481273651123e-01 3.229684829711914062e+00 1.045274138450622559e+00 9.555505514144897461e-01
3.621000000000000000e+03 4.137042999267578125e+01 1.927613258361816406e+00 -1.454706639051437378e-01 3.161728858947753906e+00 9.048774838447570801e-01 4.174389243125915527e-01
3.622000000000000000e+03 5.541233062744140625e+01 -3.307742118835449219e+00 -4.249485433101654053e-01 5.975221157073974609e+00 1.665081739425659180e+00 -3.707874938845634460e-02
3.623000000000000000e+03 5.675003051757812500e+01 -3.429995059967041016e+00 -4.182426929473876953e-01 6.189894199371337891e+00 1.731495499610900879e+00 -9.058027714490890503e-02
3.624000000000000000e+03 4.449758529663085938e+01 7.175033569335937500e+00 -1.556809097528457642e-01 3.922936439514160156e+00 1.130176663398742676e+00 6.352472305297851562e-01
3.625000000000000000e+03 5.711535644531250000e+01 2.034694290161132812e+01 -6.646965146064758301e-01 9.243146896362304688e+00 2.573535203933715820e+00 -1.531800031661987305e-01
3.626000000000000000e+03 5.556111907958984375e+01 2.094138717651367188e+01 -6.809496283531188965e-01 9.263437271118164062e+00 2.574746370315551758e+00 3.768852651119232178e-01
3.627000000000000000e+03 5.773874282836914062e+01 1.783467674255371094e+01 -7.734862565994262695e-01 8.597596168518066406e+00 2.347233057022094727e+00 -2.006531506776809692e-01
3.628000000000000000e+03 5.766044616699218750e+01 1.550297164916992188e+01 -8.052891492843627930e-01 8.102298736572265625e+00 2.189102888107299805e+00 -1.486181616783142090e-01
3.629000000000000000e+03 5.655301666259765625e+01 -8.487949371337890625e+00 -3.115111589431762695e-01 5.998792648315429688e+00 1.706184506416320801e+00 -7.859818637371063232e-02
3.630000000000000000e+03 5.494097518920898438e+01 -1.684145927429199219e+01 -1.899532973766326904e-01 5.588981151580810547e+00 1.619708418846130371e+00 -2.877830527722835541e-02
3.631000000000000000e+03 5.915324020385742188e+01 -1.918153381347656250e+01 -1.463588178157806396e-01 6.232748985290527344e+00 1.825917124748229980e+00 -5.177187919616699219e-02
3.632000000000000000e+03 5.833385086059570312e+01 8.976685523986816406e+00 -7.273263931274414062e-01 7.236345767974853516e+00 1.952705860137939453e+00 -2.005817741155624390e-01
3.633000000000000000e+03 5.793407440185546875e+01 1.247288036346435547e+01 -7.933971285820007324e-01 7.628458023071289062e+00 2.050518274307250977e+00 -1.605694442987442017e-01
3.634000000000000000e+03 5.791090774536132812e+01 7.925971984863281250e+00 -7.004069685935974121e-01 7.088575839996337891e+00 1.916450738906860352e+00 -1.680326312780380249e-01
3.635000000000000000e+03 5.747623062133789062e+01 6.849045276641845703e+00 -6.748823523521423340e-01 6.926596164703369141e+00 1.875514149665832520e+00 -1.244413629174232483e-01
3.636000000000000000e+03 4.453074264526367188e+01 5.287254333496093750e+00 -2.019910514354705811e-01 3.933406591415405273e+00 1.119424581527709961e+00 5.422867536544799805e-01
3.637000000000000000e+03 4.358667373657226562e+01 6.072127819061279297e+00 -1.386020332574844360e-01 3.676772356033325195e+00 1.061451077461242676e+00 5.724295973777770996e-01
3.638000000000000000e+03 5.645381164550781250e+01 -2.318923324346542358e-01 -4.861594736576080322e-01 6.277231216430664062e+00 1.737321496009826660e+00 -7.737969607114791870e-02
3.639000000000000000e+03 5.807157897949218750e+01 -3.914855957031250000e+00 -4.045662879943847656e-01 6.373292446136474609e+00 1.790617823600769043e+00 -1.337130814790725708e-01
3.640000000000000000e+03 5.631166839599609375e+01 -4.942154884338378906e+00 -3.871330320835113525e-01 6.056193828582763672e+00 1.700718283653259277e+00 -7.340321689844131470e-02
3.641000000000000000e+03 4.215650939941406250e+01 -1.450064539909362793e+00 -1.949093490839004517e-01 3.350030660629272461e+00 9.465363621711730957e-01 3.307562768459320068e-01
3.642000000000000000e+03 5.987815475463867188e+01 -7.637690544128417969e+00 -3.155287802219390869e-01 6.536510944366455078e+00 1.866294622421264648e+00 -1.591547727584838867e-01
3.643000000000000000e+03 5.804645156860351562e+01 -8.936646461486816406e+00 -2.980618476867675781e-01 6.235658645629882812e+00 1.781278967857360840e+00 -1.092540547251701355e-01
3.644000000000000000e+03 5.521406936645507812e+01 -1.197666835784912109e+01 -2.566806674003601074e-01 5.704360008239746094e+00 1.634303808212280273e+00 -4.374084621667861938e-02
3.645000000000000000e+03 5.708086395263671875e+01 -6.906088352203369141e+00 -3.455645442008972168e-01 6.126388072967529297e+00 1.734247088432312012e+00 -9.398165345191955566e-02
3.646000000000000000e+03 4.251568603515625000e+01 -1.119362068176269531e+01 -1.750211119651794434e-01 3.359139204025268555e+00 9.552354216575622559e-01 1.571104079484939575e-01
3.647000000000000000e+03 4.380830383300781250e+01 -6.179135322570800781e+00 -2.231751829385757446e-01 3.676967859268188477e+00 1.036137819290161133e+00 2.186666280031204224e-01
3.648000000000000000e+03 4.303665924072265625e+01 -2.690618515014648438e+00 -2.113961577415466309e-01 3.523778915405273438e+00 9.937148094177246094e-01 3.030422627925872803e-01
3.649000000000000000e+03 3.880368041992187500e+01 -1.357824897766113281e+01 -1.155443117022514343e-01 2.614633560180664062e+00 7.497267723083496094e-01 1.488927155733108521e-01
3.650000000000000000e+03 4.150474166870117188e+01 -1.290932178497314453e+01 -1.454649418592453003e-01 3.150632381439208984e+00 9.015502333641052246e-01 1.388114988803863525e-01
3.651000000000000000e+03 5.930432510375976562e+01 -1.746857452392578125e+01 -1.776146590709686279e-01 6.296558856964111328e+00 1.835683345794677734e+00 -5.585240945219993591e-02
3.652000000000000000e+03 5.776325988769531250e+01 -1.719374465942382812e+01 -1.862557083368301392e-01 6.041483402252197266e+00 1.756568312644958496e+00 -5.469946935772895813e-02
3.653000000000000000e+03 4.272284317016601562e+01 6.847424030303955078e+00 -8.304531127214431763e-02 3.457677125930786133e+00 1.012389540672302246e+00 6.010304093360900879e-01
3.654000000000000000e+03 4.828450012207031250e+01 1.969550132751464844e+01 2.282052785158157349e-01 5.355177402496337891e+00 1.675014853477478027e+00 1.906615972518920898e+00
3.655000000000000000e+03 5.244556427001953125e+01 2.170951843261718750e+01 -4.238302111625671387e-01 8.404626846313476562e+00 2.394239187240600586e+00 1.655144095420837402e+00
3.656000000000000000e+03 5.140156936645507812e+01 2.196385002136230469e+01 -1.958003044128417969e-01 7.759647369384765625e+00 2.269154071807861328e+00 2.011660337448120117e+00
3.657000000000000000e+03 5.611831283569335938e+01 1.667599487304687500e+01 -7.971889376640319824e-01 8.122796058654785156e+00 2.197682142257690430e+00 1.747041195631027222e-01
3.658000000000000000e+03 4.773474502563476562e+01 1.937775611877441406e+01 2.930639684200286865e-01 4.947142601013183594e+00 1.572061896324157715e+00 1.823032855987548828e+00
3.659000000000000000e+03 4.867688369750976562e+01 1.909077644348144531e+01 9.871761500835418701e-02 5.558443546295166016e+00 1.697148323059082031e+00 1.793133974075317383e+00
3.660000000000000000e+03 4.356356811523437500e+01 2.019610881805419922e+00 -2.090378552675247192e-01 3.665073633193969727e+00 1.036810755729675293e+00 4.221217930316925049e-01
3.661000000000000000e+03 5.283814620971679688e+01 2.105508995056152344e+01 -5.169010758399963379e-01 8.416780471801757812e+00 2.369963884353637695e+00 1.412844300270080566e+00
3.662000000000000000e+03 5.326387786865234375e+01 2.046478271484375000e+01 -5.882843136787414551e-01 8.418146133422851562e+00 2.348958492279052734e+00 1.183076858520507812e+00
3.663000000000000000e+03 5.344571685791015625e+01 2.148871040344238281e+01 -5.675566196441650391e-01 8.854596138000488281e+00 2.486111879348754883e+00 1.224469661712646484e+00
3.664000000000000000e+03 5.782189941406250000e+01 1.659812927246093750e+01 -7.994331717491149902e-01 8.334564208984375000e+00 2.260539531707763672e+00 -1.862459033727645874e-01
3.665000000000000000e+03 5.705139160156250000e+01 1.825790596008300781e+01 -7.743716835975646973e-01 8.642589569091796875e+00 2.360465526580810547e+00 -4.784116521477699280e-02
3.666000000000000000e+03 4.361640930175781250e+01 1.533361721038818359e+01 3.146361410617828369e-01 3.385156869888305664e+00 1.109937906265258789e+00 1.095714569091796875e+00
3.667000000000000000e+03 4.396820449829101562e+01 1.428669929504394531e+01 2.109756469726562500e-01 3.588128328323364258e+00 1.139731168746948242e+00 1.049582600593566895e+00
3.668000000000000000e+03 4.360595321655273438e+01 1.190766239166259766e+01 8.292613178491592407e-02 3.565682172775268555e+00 1.094582438468933105e+00 8.762096166610717773e-01
3.669000000000000000e+03 4.503527450561523438e+01 1.462492561340332031e+01 1.539561897516250610e-01 3.959094762802124023e+00 1.233915328979492188e+00 1.136025190353393555e+00
3.670000000000000000e+03 5.672621917724609375e+01 1.380152797698974609e+01 -8.072260618209838867e-01 7.672979354858398438e+00 2.059725999832153320e+00 2.969784475862979889e-02
3.671000000000000000e+03 5.111148071289062500e+01 2.074724578857421875e+01 -2.335745543241500854e-01 7.278881072998046875e+00 2.113591909408569336e+00 1.834421634674072266e+00
3.672000000000000000e+03 5.468615341186523438e+01 2.031106758117675781e+01 -6.973795294761657715e-01 8.843170166015625000e+00 2.443737268447875977e+00 6.673140525817871094e-01
3.673000000000000000e+03 5.762681579589843750e+01 1.125391292572021484e+01 -7.718753814697265625e-01 7.427556991577148438e+00 1.996704578399658203e+00 -1.258173882961273193e-01
3.674000000000000000e+03 5.676051712036132812e+01 1.947479057312011719e+01 -7.347249984741210938e-01 8.953658103942871094e+00 2.465679883956909180e+00 1.938056666404008865e-03
3.675000000000000000e+03 5.649484634399414062e+01 1.284262084960937500e+01 -7.857528924942016602e-01 7.476457118988037109e+00 2.007211208343505859e+00 4.947768524289131165e-02
3.676000000000000000e+03 5.545581054687500000e+01 1.701126480102539062e+01 -7.872273325920104980e-01 8.077881813049316406e+00 2.187196254730224609e+00 3.362296521663665771e-01
3.677000000000000000e+03 4.598605728149414062e+01 1.110720157623291016e+01 -1.198851093649864197e-01 4.363531112670898438e+00 1.273093819618225098e+00 8.687415719032287598e-01
3.678000000000000000e+03 4.255560302734375000e+01 1.152710056304931641e+01 1.149290874600410461e-01 3.268911600112915039e+00 1.015152215957641602e+00 8.151944279670715332e-01
3.679000000000000000e+03 5.506356048583984375e+01 -4.434745907783508301e-01 -4.744549393653869629e-01 6.025894641876220703e+00 1.665431976318359375e+00 -1.470134127885103226e-02
3.680000000000000000e+03 4.382241439819335938e+01 8.761491775512695312e+00 -7.744330167770385742e-02 3.723407506942749023e+00 1.093789339065551758e+00 6.968019604682922363e-01
3.681000000000000000e+03 4.473254394531250000e+01 1.025567054748535156e+00 -2.553461194038391113e-01 3.938130378723144531e+00 1.104835271835327148e+00 3.787807524204254150e-01
3.682000000000000000e+03 4.354878234863281250e+01 4.144727230072021484e+00 -1.781854629516601562e-01 3.672514200210571289e+00 1.048298597335815430e+00 4.942268729209899902e-01
3.683000000000000000e+03 5.841334152221679688e+01 1.897203683853149414e+00 -5.404778718948364258e-01 6.705808162689208984e+00 1.849599123001098633e+00 -1.895484030246734619e-01
3.684000000000000000e+03 5.732484054565429688e+01 2.895403861999511719e+00 -5.721060037612915039e-01 6.591874599456787109e+00 1.805930495262145996e+00 -1.225022822618484497e-01
3.685000000000000000e+03 4.341207504272460938e+01 9.682512283325195312e+00 -1.407769415527582169e-02 3.609839916229248047e+00 1.078728675842285156e+00 7.443726062774658203e-01
3.686000000000000000e+03 5.784806442260742188e+01 4.089060306549072266e+00 -5.986661314964294434e-01 6.752439022064208984e+00 1.846131920814514160e+00 -1.667618900537490845e-01
3.687000000000000000e+03 5.437938308715820312e+01 -9.453701019287109375e+00 -3.002333641052246094e-01 5.608645915985107422e+00 1.592523694038391113e+00 -2.471228316426277161e-02
3.688000000000000000e+03 5.558640670776367188e+01 1.294303798675537109e+01 -7.716562151908874512e-01 7.340457916259765625e+00 1.970640540122985840e+00 1.898524761199951172e-01
3.689000000000000000e+03 5.431199264526367188e+01 -1.383807086944580078e+01 -2.270829528570175171e-01 5.516499042510986328e+00 1.586824893951416016e+00 -2.263761684298515320e-02
3.690000000000000000e+03 5.599498367309570312e+01 -1.478458595275878906e+01 -2.120396047830581665e-01 5.792002677917480469e+00 1.673988938331604004e+00 -4.892724007368087769e-02
3.691000000000000000e+03 4.352537536621093750e+01 -3.269160985946655273e-01 -2.281836271286010742e-01 3.663235902786254883e+00 1.030515670776367188e+00 3.544370830059051514e-01
3.692000000000000000e+03 4.532580947875976562e+01 -8.629213333129882812e+00 -2.279141098260879517e-01 3.952466487884521484e+00 1.117365717887878418e+00 1.597425490617752075e-01
3.693000000000000000e+03 4.176766586303710938e+01 -3.788919687271118164e+00 -1.856035888195037842e-01 3.260163784027099609e+00 9.223680496215820312e-01 2.796083390712738037e-01
3.694000000000000000e+03 4.477192306518554688e+01 -7.289110660552978516e+00 -2.284123450517654419e-01 3.869925737380981445e+00 1.092453956604003906e+00 1.885338574647903442e-01
3.695000000000000000e+03 4.284961700439453125e+01 -7.297255039215087891e+00 -1.915621459484100342e-01 3.457294225692749023e+00 9.797196388244628906e-01 2.095162272453308105e-01
3.696000000000000000e+03 5.507387161254882812e+01 3.893316984176635742e+00 -5.799646377563476562e-01 6.277239322662353516e+00 1.709182500839233398e+00 4.244695603847503662e-02
3.697000000000000000e+03 5.635344314575195312e+01 -1.806175041198730469e+01 -1.705426871776580811e-01 5.810081005096435547e+00 1.691861510276794434e+00 -3.514978289604187012e-02
3.698000000000000000e+03 6.068099594116210938e+01 -1.924073410034179688e+01 -1.414012312889099121e-01 6.509355545043945312e+00 1.910386323928833008e+00 -6.672654300928115845e-02
3.699000000000000000e+03 4.542357635498046875e+01 6.413831233978271484e+00 -2.221345901489257812e-01 4.198063850402832031e+00 1.192778825759887695e+00 5.867295861244201660e-01
3.700000000000000000e+03 5.041817474365234375e+01 2.043681716918945312e+01 -1.235708892345428467e-01 6.787441253662109375e+00 1.999161005020141602e+00 1.886060237884521484e+00
3.701000000000000000e+03 4.798708343505859375e+01 1.866359329223632812e+01 1.682777255773544312e-01 5.150602340698242188e+00 1.595664024353027344e+00 1.726092219352722168e+00
3.702000000000000000e+03 5.219940185546875000e+01 1.805835151672363281e+01 -5.269099473953247070e-01 7.296863555908203125e+00 2.030986070632934570e+00 1.169583082199096680e+00
3.703000000000000000e+03 5.565585708618164062e+01 1.895942687988281250e+01 -7.569226026535034180e-01 8.630438804626464844e+00 2.362054824829101562e+00 3.270461261272430420e-01
3.704000000000000000e+03 5.609917068481445312e+01 1.481215286254882812e+01 -8.052238821983337402e-01 7.737008571624755859e+00 2.079535245895385742e+00 1.542892009019851685e-01
3.705000000000000000e+03 5.570353698730468750e+01 1.588319587707519531e+01 -7.973061800003051758e-01 7.875113964080810547e+00 2.123342275619506836e+00 2.525254786014556885e-01
3.706000000000000000e+03 5.273048782348632812e+01 1.993087387084960938e+01 -5.460891723632812500e-01 8.003041267395019531e+00 2.237085580825805664e+00 1.291688442230224609e+00
3.707000000000000000e+03 4.927954483032226562e+01 1.961184501647949219e+01 3.902304172515869141e-02 5.969883441925048828e+00 1.802672028541564941e+00 1.852663636207580566e+00
3.708000000000000000e+03 4.880863571166992188e+01 2.020541763305664062e+01 1.897407770156860352e-01 5.654468059539794922e+00 1.753262639045715332e+00 1.978395581245422363e+00
3.709000000000000000e+03 4.650316619873046875e+01 1.719699478149414062e+01 2.270631790161132812e-01 4.441534519195556641e+00 1.400579333305358887e+00 1.457623839378356934e+00
3.710000000000000000e+03 4.834228897094726562e+01 1.789288520812988281e+01 4.223614931106567383e-02 5.330825328826904297e+00 1.611918568611145020e+00 1.600281357765197754e+00
3.711000000000000000e+03 4.572919845581054688e+01 1.597031402587890625e+01 1.952861696481704712e-01 4.144913196563720703e+00 1.302059769630432129e+00 1.297433137893676758e+00
3.712000000000000000e+03 5.534103393554687500e+01 1.505284214019775391e+01 -7.816992402076721191e-01 7.634312152862548828e+00 2.055783987045288086e+00 2.990111708641052246e-01
3.713000000000000000e+03 5.584392929077148438e+01 1.393203163146972656e+01 -7.892020940780639648e-01 7.537647724151611328e+00 2.024533510208129883e+00 1.783492863178253174e-01
3.714000000000000000e+03 5.634284973144531250e+01 7.301510810852050781e+00 -6.769444942474365234e-01 6.787627696990966797e+00 1.833204865455627441e+00 -1.877686567604541779e-02
3.715000000000000000e+03 5.764409637451171875e+01 1.038250064849853516e+01 -7.616306543350219727e-01 7.302233695983886719e+00 1.962180972099304199e+00 -1.242356821894645691e-01
3.716000000000000000e+03 5.730127716064453125e+01 1.601051902770996094e+01 -8.078343868255615234e-01 8.160010337829589844e+00 2.205652952194213867e+00 -7.987125217914581299e-02
3.717000000000000000e+03 4.541884613037109375e+01 1.356791114807128906e+01 4.763918370008468628e-02 4.144736289978027344e+00 1.257712602615356445e+00 1.060461401939392090e+00
3.718000000000000000e+03 4.324940490722656250e+01 1.290658187866210938e+01 1.635191589593887329e-01 3.417745113372802734e+00 1.074379324913024902e+00 9.198591709136962891e-01
3.719000000000000000e+03 4.540872573852539062e+01 8.127354621887207031e+00 -1.807567477226257324e-01 4.169371604919433594e+00 1.196584463119506836e+00 6.795213818550109863e-01
3.720000000000000000e+03 4.605125427246093750e+01 1.498657131195068359e+01 9.119676053524017334e-02 4.332592010498046875e+00 1.327136635780334473e+00 1.220171570777893066e+00
3.721000000000000000e+03 4.469293594360351562e+01 1.565392589569091797e+01 2.631179392337799072e-01 3.763894557952880859e+00 1.208103775978088379e+00 1.202064514160156250e+00
3.722000000000000000e+03 5.528313827514648438e+01 -1.936909556388854980e+00 -4.473384022712707520e-01 5.997260093688964844e+00 1.664976596832275391e+00 -2.986442111432552338e-02
3.723000000000000000e+03 5.746694946289062500e+01 6.115688085556030273e-01 -5.174097418785095215e-01 6.476796150207519531e+00 1.787815809249877930e+00 -1.201737448573112488e-01
3.724000000000000000e+03 5.242550659179687500e+01 -6.227343082427978516e-01 -4.403045177459716797e-01 5.548850536346435547e+00 1.532563686370849609e+00 1.039823740720748901e-01
3.725000000000000000e+03 5.382007598876953125e+01 -2.214702367782592773e+00 -4.311556518077850342e-01 5.722059249877929688e+00 1.587271094322204590e+00 2.764324285089969635e-02
3.726000000000000000e+03 5.602166366577148438e+01 1.979936027526855469e+01 -7.366440892219543457e-01 8.954733848571777344e+00 2.465426921844482422e+00 2.266342490911483765e-01
3.727000000000000000e+03 5.434628295898437500e+01 1.960452461242675781e+01 -6.971038579940795898e-01 8.509963035583496094e+00 2.343857526779174805e+00 7.410436272621154785e-01
3.728000000000000000e+03 4.613986968994140625e+01 3.431250154972076416e-01 -2.955074310302734375e-01 4.230476379394531250e+00 1.180490732192993164e+00 3.375677466392517090e-01
3.729000000000000000e+03 5.706734085083007812e+01 5.730715274810791016e+00 -6.407822370529174805e-01 6.762882232666015625e+00 1.836629986763000488e+00 -1.003877297043800354e-01
3.730000000000000000e+03 5.668222045898437500e+01 4.589221477508544922e+00 -6.129711270332336426e-01 6.582451343536376953e+00 1.790844082832336426e+00 -6.117896363139152527e-02
3.731000000000000000e+03 4.567588424682617188e+01 2.481560707092285156e+00 -2.767989635467529297e-01 4.194273948669433594e+00 1.175242424011230469e+00 4.149838387966156006e-01
3.732000000000000000e+03 4.506917190551757812e+01 -3.092686653137207031e+00 -2.623597383499145508e-01 3.969503164291381836e+00 1.112143039703369141e+00 2.597999870777130127e-01
3.733000000000000000e+03 4.438128662109375000e+01 -1.673116683959960938e+00 -2.488627731800079346e-01 3.841287612915039062e+00 1.077727437019348145e+00 3.164111971855163574e-01
3.734000000000000000e+03 5.732054519653320312e+01 1.279266929626464844e+01 -7.966870069503784180e-01 7.584081649780273438e+00 2.036218404769897461e+00 -8.713319152593612671e-02
3.735000000000000000e+03 5.757028961181640625e+01 -5.404605388641357422e+00 -3.753848373889923096e-01 6.235042095184326172e+00 1.757897138595581055e+00 -1.058328673243522644e-01
3.736000000000000000e+03 5.574131774902343750e+01 -6.375633239746093750e+00 -3.524305820465087891e-01 5.917223453521728516e+00 1.669437766075134277e+00 -6.092936918139457703e-02
3.737000000000000000e+03 4.617371749877929688e+01 7.456448554992675781e+00 -2.438052892684936523e-01 4.386508464813232422e+00 1.242810964584350586e+00 6.326146721839904785e-01
3.738000000000000000e+03 5.356762313842773438e+01 -1.112199115753173828e+01 -2.713307738304138184e-01 5.428599834442138672e+00 1.547180652618408203e+00 -9.257845580577850342e-03
3.739000000000000000e+03 5.327776718139648438e+01 -1.571907234191894531e+01 -2.053078860044479370e-01 5.314155578613281250e+00 1.532654285430908203e+00 -7.696192711591720581e-03
3.740000000000000000e+03 5.765843582153320312e+01 -1.889684677124023438e+01 -1.483230441808700562e-01 6.022042274475097656e+00 1.762115836143493652e+00 -5.479902774095535278e-02
3.741000000000000000e+03 5.717637634277343750e+01 -2.075628280639648438e+01 -1.328026503324508667e-01 5.930535793304443359e+00 1.739319920539855957e+00 -3.753567114472389221e-02
3.742000000000000000e+03 4.486466217041015625e+01 -5.243217945098876953e+00 -2.532041370868682861e-01 3.898908376693725586e+00 1.093711256980895996e+00 2.260188758373260498e-01
3.743000000000000000e+03 4.501919174194335938e+01 -1.033267593383789062e+01 -2.155075371265411377e-01 3.870621442794799805e+00 1.096534132957458496e+00 1.440718024969100952e-01
3.744000000000000000e+03 5.676274490356445312e+01 8.386924743652343750e+00 -7.107535600662231445e-01 6.963334560394287109e+00 1.875774383544921875e+00 -4.625558108091354370e-02
3.745000000000000000e+03 5.595802307128906250e+01 6.189230918884277344e+00 -6.408434510231018066e-01 6.616881370544433594e+00 1.792811393737792969e+00 7.445753552019596100e-03
3.746000000000000000e+03 4.215602874755859375e+01 -1.584678077697753906e+01 -1.343079507350921631e-01 3.251778602600097656e+00 9.352412223815917969e-01 1.029309257864952087e-01
3.747000000000000000e+03 4.316326522827148438e+01 -1.398875713348388672e+01 -1.593689769506454468e-01 3.471266269683837891e+00 9.935691356658935547e-01 1.170144379138946533e-01
3.748000000000000000e+03 5.500983428955078125e+01 1.620665740966796875e+01 -7.700399756431579590e-01 7.794388294219970703e+00 2.107304573059082031e+00 4.051412343978881836e-01
3.749000000000000000e+03 5.215677642822265625e+01 1.933098602294921875e+01 -4.831657409667968750e-01 7.555859565734863281e+00 2.121808052062988281e+00 1.349002599716186523e+00
3.750000000000000000e+03 5.458657455444335938e+01 1.537322902679443359e+01 -7.571686506271362305e-01 7.530902385711669922e+00 2.032119989395141602e+00 4.553180038928985596e-01
3.751000000000000000e+03 5.222954559326171875e+01 2.054881286621093750e+01 -4.440861046314239502e-01 7.921914100646972656e+00 2.243348360061645508e+00 1.527051806449890137e+00
3.752000000000000000e+03 4.651156616210937500e+01 1.396054172515869141e+01 -2.735822461545467377e-02 4.544088840484619141e+00 1.355019211769104004e+00 1.122901082038879395e+00
3.753000000000000000e+03 4.742504501342773438e+01 1.460061359405517578e+01 -8.751643449068069458e-02 4.901138305664062500e+00 1.444086670875549316e+00 1.175650238990783691e+00
3.754000000000000000e+03 4.746342468261718750e+01 1.749294662475585938e+01 1.298109740018844604e-01 4.909643650054931641e+00 1.511836290359497070e+00 1.539016127586364746e+00
3.755000000000000000e+03 5.523263549804687500e+01 1.815741348266601562e+01 -7.694090008735656738e-01 8.318897247314453125e+00 2.264846563339233398e+00 4.274263978004455566e-01
3.756000000000000000e+03 4.911395645141601562e+01 1.843108177185058594e+01 -4.632877558469772339e-02 5.796526432037353516e+00 1.725059270858764648e+00 1.649597287178039551e+00
3.757000000000000000e+03 4.982298660278320312e+01 2.012800407409667969e+01 -1.578348129987716675e-02 6.305356025695800781e+00 1.886871695518493652e+00 1.918797731399536133e+00
3.758000000000000000e+03 4.674136734008789062e+01 1.628654098510742188e+01 1.172266453504562378e-01 4.557777881622314453e+00 1.402501463890075684e+00 1.360320687294006348e+00
3.759000000000000000e+03 5.556963729858398438e+01 5.060103893280029297e+00 -6.228765845298767090e-01 6.466788768768310547e+00 1.753173589706420898e+00 3.242326900362968445e-02
3.760000000000000000e+03 4.433604812622070312e+01 1.324152374267578125e+01 1.127052605152130127e-01 3.770174503326416016e+00 1.164863944053649902e+00 9.914198517799377441e-01
3.761000000000000000e+03 4.484840011596679688e+01 1.106784820556640625e+01 -4.109873622655868530e-02 3.991365909576416016e+00 1.185080170631408691e+00 8.486129641532897949e-01
3.762000000000000000e+03 5.405587005615234375e+01 4.610243797302246094e+00 -5.741267800331115723e-01 6.123831272125244141e+00 1.664911270141601562e+00 1.245601102709770203e-01
3.763000000000000000e+03 5.627779388427734375e+01 3.508398056030273438e+00 -5.944521427154541016e-01 6.466874599456787109e+00 1.761726737022399902e+00 -4.027147218585014343e-02
3.764000000000000000e+03 4.642867660522460938e+01 5.725434780120849609e+00 -2.817515730857849121e-01 4.427900314331054688e+00 1.243844628334045410e+00 5.291195511817932129e-01
3.765000000000000000e+03 5.467902755737304688e+01 1.319155502319335938e+01 -7.383399009704589844e-01 7.177207469940185547e+00 1.931660175323486328e+00 3.336064219474792480e-01
3.766000000000000000e+03 5.612950134277343750e+01 1.000684452056884766e+01 -7.336294054985046387e-01 7.027946949005126953e+00 1.888295292854309082e+00 4.949859529733657837e-02
3.767000000000000000e+03 5.517734527587890625e+01 7.761333465576171875e+00 -6.647772192955017090e-01 6.610445499420166016e+00 1.783700585365295410e+00 9.992592036724090576e-02
3.768000000000000000e+03 5.509480667114257812e+01 -7.867482662200927734e+00 -3.287350535392761230e-01 5.773833274841308594e+00 1.633529424667358398e+00 -4.386971518397331238e-02
3.769000000000000000e+03 5.488274383544921875e+01 1.056489467620849609e+00 -5.117614269256591797e-01 6.071903705596923828e+00 1.668042659759521484e+00 1.635129936039447784e-02
3.770000000000000000e+03 5.370112991333007812e+01 -5.726048350334167480e-01 -4.599449932575225830e-01 5.765241146087646484e+00 1.591588854789733887e+00 5.537254735827445984e-02
3.771000000000000000e+03 4.439719009399414062e+01 1.019273185729980469e+01 -4.933074489235877991e-02 3.883301734924316406e+00 1.150191307067871094e+00 8.052868247032165527e-01
3.772000000000000000e+03 4.392132949829101562e+01 -3.971458196640014648e+00 -2.346425056457519531e-01 3.720271110534667969e+00 1.045688629150390625e+00 2.649520635604858398e-01
3.773000000000000000e+03 4.582378387451171875e+01 -1.185935378074645996e+00 -2.870833575725555420e-01 4.136326789855957031e+00 1.154773116111755371e+00 3.013413846492767334e-01
3.774000000000000000e+03 4.458529663085937500e+01 3.275058031082153320e+00 -2.307993769645690918e-01 3.930879354476928711e+00 1.110023975372314453e+00 4.541637301445007324e-01
3.775000000000000000e+03 4.690472793579101562e+01 1.276663017272949219e+01 -1.253263503313064575e-01 4.685940742492675781e+00 1.368184328079223633e+00 1.012200593948364258e+00
3.776000000000000000e+03 5.109561538696289062e+01 -5.356972694396972656e+00 -3.451824486255645752e-01 5.122365474700927734e+00 1.433154821395874023e+00 8.548717200756072998e-02
3.777000000000000000e+03 5.103034210205078125e+01 -1.179918003082275391e+01 -2.498520463705062866e-01 4.958415508270263672e+00 1.412569046020507812e+00 3.520294278860092163e-02
3.778000000000000000e+03 4.578200149536132812e+01 -1.309257602691650391e+01 -1.970776617527008057e-01 3.969730377197265625e+00 1.131795883178710938e+00 1.046011671423912048e-01
3.779000000000000000e+03 4.048064041137695312e+01 -1.467413520812988281e+01 -1.275901198387145996e-01 2.947596788406372070e+00 8.460019826889038086e-01 1.351645141839981079e-01
3.780000000000000000e+03 5.373707962036132812e+01 -1.883956909179687500e+01 -1.681869179010391235e-01 5.347753047943115234e+00 1.553869962692260742e+00 -1.190547086298465729e-02
3.781000000000000000e+03 5.541490173339843750e+01 -1.995062828063964844e+01 -1.468483656644821167e-01 5.624496459960937500e+00 1.643294453620910645e+00 -1.942607201635837555e-02
3.782000000000000000e+03 5.094225692749023438e+01 1.926832580566406250e+01 -2.899252474308013916e-01 6.907789230346679688e+00 1.985359191894531250e+00 1.593743443489074707e+00
3.783000000000000000e+03 5.096237564086914062e+01 1.650298690795898438e+01 -4.154792726039886475e-01 6.487549781799316406e+00 1.821621179580688477e+00 1.186635613441467285e+00
3.784000000000000000e+03 5.032635498046875000e+01 1.848830604553222656e+01 -2.409476637840270996e-01 6.457960605621337891e+00 1.865103960037231445e+00 1.551197171211242676e+00
3.785000000000000000e+03 5.500832366943359375e+01 1.416304397583007812e+01 -7.692149281501770020e-01 7.413209915161132812e+00 1.993198513984680176e+00 3.247884511947631836e-01
3.786000000000000000e+03 5.477200317382812500e+01 1.737495613098144531e+01 -7.542349100112915039e-01 8.004926681518554688e+00 2.175207376480102539e+00 5.085359215736389160e-01
3.787000000000000000e+03 5.329587936401367188e+01 1.938638687133789062e+01 -6.243705153465270996e-01 8.086427688598632812e+00 2.238617181777954102e+00 1.049992561340332031e+00
3.788000000000000000e+03 5.341220855712890625e+01 1.823480224609375000e+01 -6.555157899856567383e-01 7.815350055694580078e+00 2.147950172424316406e+00 9.051890373229980469e-01
3.789000000000000000e+03 4.787733840942382812e+01 1.554199886322021484e+01 -8.052281290292739868e-02 5.122714519500732422e+00 1.512657523155212402e+00 1.282248377799987793e+00
3.790000000000000000e+03 4.494032287597656250e+01 9.219728469848632812e+00 -1.206884011626243591e-01 4.030335426330566406e+00 1.172894120216369629e+00 7.445029616355895996e-01
3.791000000000000000e+03 4.643591308593750000e+01 8.498600006103515625e+00 -2.323551476001739502e-01 4.464636802673339844e+00 1.269684433937072754e+00 6.928504109382629395e-01
3.792000000000000000e+03 5.455958175659179688e+01 1.852336120605468750e+01 -7.299235463142395020e-01 8.248824119567871094e+00 2.255670309066772461e+00 6.197837591171264648e-01
3.793000000000000000e+03 4.779079437255859375e+01 1.655953598022460938e+01 3.492510877549648285e-03 5.075674057006835938e+00 1.523749947547912598e+00 1.402771830558776855e+00
3.794000000000000000e+03 4.879333877563476562e+01 1.703893661499023438e+01 -9.883776307106018066e-02 5.550720214843750000e+00 1.635564684867858887e+00 1.453318238258361816e+00
3.795000000000000000e+03 4.764381790161132812e+01 8.398289680480957031e+00 -3.136867880821228027e-01 4.818911075592041016e+00 1.351567268371582031e+00 6.471164822578430176e-01
3.796000000000000000e+03 5.482728958129882812e+01 6.627871513366699219e+00 -6.378756165504455566e-01 6.459109306335449219e+00 1.746370077133178711e+00 1.031942740082740784e-01
3.797000000000000000e+03 5.225319290161132812e+01 9.204913377761840820e-01 -4.646030664443969727e-01 5.573040008544921875e+00 1.532531142234802246e+00 1.443164199590682983e-01
3.798000000000000000e+03 5.304703521728515625e+01 4.071950435638427734e+00 -5.426363348960876465e-01 5.922310352325439453e+00 1.613902211189270020e+00 1.693896949291229248e-01
3.799000000000000000e+03 4.466589736938476562e+01 1.217869091033935547e+01 2.827919088304042816e-02 3.928549766540527344e+00 1.187048673629760742e+00 9.256970882415771484e-01
3.800000000000000000e+03 5.561294174194335938e+01 8.890090942382812500e+00 -7.030237317085266113e-01 6.806055068969726562e+00 1.830909371376037598e+00 8.575629442930221558e-02
3.801000000000000000e+03 5.421842956542968750e+01 -3.643399238586425781e+00 -4.082117080688476562e-01 5.731355190277099609e+00 1.596943140029907227e+00 3.936717286705970764e-03
3.802000000000000000e+03 5.368631362915039062e+01 -7.099391937255859375e+00 -3.386722803115844727e-01 5.549282073974609375e+00 1.563182950019836426e+00 3.000402939505875111e-04
3.803000000000000000e+03 5.155976486206054688e+01 1.864992523193359375e+01 -4.270873069763183594e-01 7.141009330749511719e+00 2.014176607131958008e+00 1.384119629859924316e+00
3.804000000000000000e+03 4.977446365356445312e+01 1.904604911804199219e+01 -1.103068068623542786e-01 6.236687660217285156e+00 1.837914228439331055e+00 1.703996062278747559e+00
3.805000000000000000e+03 5.537308120727539062e+01 1.180022430419921875e+01 -7.461128234863281250e-01 7.117255687713623047e+00 1.911342978477478027e+00 1.877714991569519043e-01
3.806000000000000000e+03 5.500743865966796875e+01 1.058347988128662109e+01 -7.203251719474792480e-01 6.893027305603027344e+00 1.851810693740844727e+00 1.972415745258331299e-01
3.807000000000000000e+03 5.455735778808593750e+01 5.533792972564697266e+00 -6.111304163932800293e-01 6.333855152130126953e+00 1.716817498207092285e+00 1.004097312688827515e-01
3.808000000000000000e+03 4.744507217407226562e+01 4.988207340240478516e+00 -3.301333785057067871e-01 4.645107746124267578e+00 1.294492244720458984e+00 4.803204536437988281e-01
3.809000000000000000e+03 5.321344375610351562e+01 -4.743047714233398438e+00 -3.776826262474060059e-01 5.533773422241210938e+00 1.546827197074890137e+00 2.699754573404788971e-02
3.810000000000000000e+03 5.512868499755859375e+01 -4.477570533752441406e+00 -3.904403150081634521e-01 5.871799945831298828e+00 1.644407868385314941e+00 -3.335671871900558472e-02
3.811000000000000000e+03 5.147076034545898438e+01 -7.696218967437744141e+00 -3.119389414787292480e-01 5.125708103179931641e+00 1.444130778312683105e+00 5.259656906127929688e-02
3.812000000000000000e+03 4.592488861083984375e+01 -4.393617630004882812e+00 -2.661887407302856445e-01 4.097557067871093750e+00 1.149410605430603027e+00 2.249556779861450195e-01
3.813000000000000000e+03 4.778779602050781250e+01 -2.729062557220458984e+00 -3.298153877258300781e-01 4.551825523376464844e+00 1.266603112220764160e+00 2.222484946250915527e-01
3.814000000000000000e+03 4.657299041748046875e+01 3.781568765640258789e+00 -3.045961856842041016e-01 4.420714378356933594e+00 1.234835386276245117e+00 4.490486681461334229e-01
3.815000000000000000e+03 4.675394439697265625e+01 -1.119903564453125000e+01 -2.231324762105941772e-01 4.173996448516845703e+00 1.185259103775024414e+00 1.137408837676048279e-01
3.816000000000000000e+03 5.198863220214843750e+01 -1.018643569946289062e+01 -2.800562977790832520e-01 5.163715839385986328e+00 1.465097904205322266e+00 2.444606833159923553e-02
3.817000000000000000e+03 5.265558624267578125e+01 -1.284102153778076172e+01 -2.423961907625198364e-01 5.238097190856933594e+00 1.498710274696350098e+00 -1.107064963434822857e-05
3.818000000000000000e+03 5.017779922485351562e+01 -6.737018585205078125e+00 -3.145360052585601807e-01 4.909654140472412109e+00 1.378535509109497070e+00 9.699515253305435181e-02
3.819000000000000000e+03 5.072167205810546875e+01 -1.952436065673828125e+01 -1.541013568639755249e-01 4.810620307922363281e+00 1.396955728530883789e+00 1.244382560253143311e-02
3.820000000000000000e+03 5.259387207031250000e+01 -2.090796470642089844e+01 -1.351864039897918701e-01 5.140774726867675781e+00 1.501676440238952637e+00 -5.278654862195253372e-03
3.821000000000000000e+03 5.666932296752929688e+01 -2.299254226684570312e+01 -1.162928715348243713e-01 5.818668365478515625e+00 1.710712671279907227e+00 -2.456452697515487671e-02
3.822000000000000000e+03 5.899470138549804688e+01 -2.114857864379882812e+01 -1.165305003523826599e-01 6.213579654693603516e+00 1.829114794731140137e+00 -5.216081067919731140e-02
3.823000000000000000e+03 4.948387527465820312e+01 -2.626332521438598633e+00 -3.640973865985870361e-01 4.886347770690917969e+00 1.356675028800964355e+00 1.850680410861968994e-01
3.824000000000000000e+03 4.989147949218750000e+01 -4.530189037322998047e+00 -3.420580029487609863e-01 4.918954372406005859e+00 1.373068809509277344e+00 1.338454782962799072e-01
3.825000000000000000e+03 5.117955780029296875e+01 1.506812286376953125e+01 -4.792500734329223633e-01 6.400939464569091797e+00 1.776506781578063965e+00 9.873991012573242188e-01
3.826000000000000000e+03 5.429625701904296875e+01 1.658582115173339844e+01 -7.401566505432128906e-01 7.703873157501220703e+00 2.089114904403686523e+00 5.796105861663818359e-01
3.827000000000000000e+03 5.276756668090820312e+01 1.874970054626464844e+01 -5.838354825973510742e-01 7.705233097076416016e+00 2.136419296264648438e+00 1.127418160438537598e+00
3.828000000000000000e+03 5.390987396240234375e+01 1.892440986633300781e+01 -6.908974647521972656e-01 8.178607940673828125e+00 2.246313333511352539e+00 8.319573402404785156e-01
3.829000000000000000e+03 5.357826232910156250e+01 1.702141189575195312e+01 -6.839463710784912109e-01 7.583224296569824219e+00 2.069783449172973633e+00 7.626715898513793945e-01
3.830000000000000000e+03 5.094191360473632812e+01 6.335003376007080078e+00 -5.021762847900390625e-01 5.604280948638916016e+00 1.530631422996520996e+00 3.883995711803436279e-01
3.831000000000000000e+03 5.172153854370117188e+01 3.927496671676635742e+00 -4.938538074493408203e-01 5.598417282104492188e+00 1.531369090080261230e+00 2.483035624027252197e-01
3.832000000000000000e+03 5.024277114868164062e+01 1.711369514465332031e+01 -2.969067096710205078e-01 6.255733013153076172e+00 1.787647843360900879e+00 1.360147356986999512e+00
3.833000000000000000e+03 5.418373107910156250e+01 1.449388790130615234e+01 -7.263652682304382324e-01 7.266765117645263672e+00 1.962120056152343750e+00 4.781598448753356934e-01
3.834000000000000000e+03 4.576306533813476562e+01 1.242193126678466797e+01 -3.973667696118354797e-02 4.282143115997314453e+00 1.272721886634826660e+00 9.771642088890075684e-01
3.835000000000000000e+03 5.433005142211914062e+01 1.214245796203613281e+01 -7.160581946372985840e-01 6.939619064331054688e+00 1.867068171501159668e+00 3.455857336521148682e-01
3.836000000000000000e+03 5.396515274047851562e+01 8.211841583251953125e+00 -6.421911120414733887e-01 6.409306526184082031e+00 1.730134606361389160e+00 2.274358570575714111e-01
3.837000000000000000e+03 5.446261596679687500e+01 9.398142814636230469e+00 -6.745954155921936035e-01 6.625819206237792969e+00 1.785367012023925781e+00 2.206568866968154907e-01
3.838000000000000000e+03 5.336277389526367188e+01 1.258493804931640625e+01 -6.698226928710937500e-01 6.767391204833984375e+00 1.829270601272583008e+00 4.964490830898284912e-01
3.839000000000000000e+03 4.944572067260742188e+01 7.075209617614746094e+00 -4.197827577590942383e-01 5.223773956298828125e+00 1.441197395324707031e+00 5.098998546600341797e-01
3.840000000000000000e+03 4.725903701782226562e+01 6.978300094604492188e+00 -3.094094097614288330e-01 4.674210071563720703e+00 1.309440255165100098e+00 5.787103176116943359e-01
3.841000000000000000e+03 4.621619033813476562e+01 9.727661132812500000e+00 -1.836037337779998779e-01 4.424954891204833984e+00 1.272405266761779785e+00 7.655433416366577148e-01
3.842000000000000000e+03 4.863269424438476562e+01 6.186663508415222168e-01 -3.709321320056915283e-01 4.813633918762207031e+00 1.332810521125793457e+00 2.714262902736663818e-01
3.843000000000000000e+03 5.062800598144531250e+01 -3.267659425735473633e+00 -3.781031072139739990e-01 5.098279953002929688e+00 1.416053175926208496e+00 1.333942711353302002e-01
3.844000000000000000e+03 4.898878479003906250e+01 -5.737617969512939453e+00 -3.122233450412750244e-01 4.704854488372802734e+00 1.317789316177368164e+00 1.390452235937118530e-01
3.845000000000000000e+03 4.741524124145507812e+01 -1.408530139923095703e+01 -2.001422792673110962e-01 4.257461547851562500e+00 1.217195868492126465e+00 8.694061636924743652e-02
3.846000000000000000e+03 5.353916549682617188e+01 1.013609647750854492e+00 -4.880849719047546387e-01 5.822514057159423828e+00 1.600328683853149414e+00 8.340892195701599121e-02
3.847000000000000000e+03 4.794819641113281250e+01 -6.911592483520507812e+00 -2.829797863960266113e-01 4.483180046081542969e+00 1.260060071945190430e+00 1.398787796497344971e-01
3.848000000000000000e+03 4.944799423217773438e+01 -1.070246410369873047e+01 -2.537504434585571289e-01 4.684338569641113281e+00 1.329176545143127441e+00 6.799732148647308350e-02
3.849000000000000000e+03 5.287661361694335938e+01 -8.613383293151855469e+00 -3.101403117179870605e-01 5.356790065765380859e+00 1.513994932174682617e+00 1.460250467061996460e-02
3.850000000000000000e+03 5.232607650756835938e+01 1.055097198486328125e+01 -5.970100760459899902e-01 6.279303550720214844e+00 1.704687952995300293e+00 4.932726621627807617e-01
3.851000000000000000e+03 4.764096450805664062e+01 3.055872678756713867e+00 -3.399347960948944092e-01 4.647042751312255859e+00 1.292132377624511719e+00 3.958027660846710205e-01
3.852000000000000000e+03 5.003429031372070312e+01 -1.345132446289062500e+01 -2.225223034620285034e-01 4.752820491790771484e+00 1.359089374542236328e+00 3.459012880921363831e-02
3.853000000000000000e+03 4.758209609985351562e+01 1.797721087932586670e-01 -3.370861411094665527e-01 4.551486492156982422e+00 1.264320135116577148e+00 2.949784994125366211e-01
3.854000000000000000e+03 4.996209335327148438e+01 -1.555891036987304688e+00 -3.870081007480621338e-01 5.032228946685791016e+00 1.393566250801086426e+00 1.886430978775024414e-01
3.855000000000000000e+03 5.125466156005859375e+01 -5.921956300735473633e-01 -4.174220561981201172e-01 5.319532871246337891e+00 1.470633149147033691e+00 1.507986038923263550e-01
3.856000000000000000e+03 4.689498519897460938e+01 -5.653680324554443359e+00 -2.781602442264556885e-01 4.275388717651367188e+00 1.199168562889099121e+00 1.836764067411422729e-01
3.857000000000000000e+03 4.692515945434570312e+01 -3.569569349288940430e+00 -2.961775660514831543e-01 4.319115161895751953e+00 1.206881165504455566e+00 2.324576973915100098e-01
3.858000000000000000e+03 5.093118667602539062e+01 1.789825630187988281e+01 -3.574569225311279297e-01 6.682891368865966797e+00 1.897630333900451660e+00 1.385112524032592773e+00
3.859000000000000000e+03 4.947274780273437500e+01 1.626350784301757812e+01 -2.275187671184539795e-01 5.807286739349365234e+00 1.673930406570434570e+00 1.309212088584899902e+00
3.860000000000000000e+03 5.336178207397460938e+01 1.491010475158691406e+01 -6.806836128234863281e-01 7.114479541778564453e+00 1.930138826370239258e+00 6.471559405326843262e-01
3.861000000000000000e+03 5.032621765136718750e+01 1.564489078521728516e+01 -3.678811788558959961e-01 6.128657817840576172e+00 1.728232979774475098e+00 1.145830154418945312e+00
3.862000000000000000e+03 4.925270843505859375e+01 1.370170974731445312e+01 -3.197997212409973145e-01 5.566762447357177734e+00 1.574088931083679199e+00 1.022415161132812500e+00
3.863000000000000000e+03 5.008293533325195312e+01 1.088291263580322266e+01 -4.475815296173095703e-01 5.638745307922363281e+00 1.557349085807800293e+00 7.148619890213012695e-01
3.864000000000000000e+03 4.724996948242187500e+01 1.139342117309570312e+01 -2.160054892301559448e-01 4.804320812225341797e+00 1.376494646072387695e+00 8.647745847702026367e-01
3.865000000000000000e+03 5.382429504394531250e+01 1.576768016815185547e+01 -7.077319622039794922e-01 7.399330139160156250e+00 2.007479429244995117e+00 6.210198402404785156e-01
3.866000000000000000e+03 5.408415222167968750e+01 1.778022766113281250e+01 -7.182523608207702637e-01 7.923637390136718750e+00 2.161615610122680664e+00 7.037689089775085449e-01
3.867000000000000000e+03 5.264991760253906250e+01 5.375682830810546875e+00 -5.602880716323852539e-01 5.902162075042724609e+00 1.602562189102172852e+00 2.556526064872741699e-01
3.868000000000000000e+03 5.268129730224609375e+01 8.718669891357421875e+00 -5.924491882324218750e-01 6.168540954589843750e+00 1.672827482223510742e+00 3.752253651618957520e-01
3.869000000000000000e+03 5.190365219116210938e+01 2.457829713821411133e+00 -4.812230169773101807e-01 5.570967674255371094e+00 1.526923298835754395e+00 2.001517117023468018e-01
3.870000000000000000e+03 4.833195877075195312e+01 6.184259414672851562e+00 -3.662587404251098633e-01 4.913538455963134766e+00 1.364183902740478516e+00 5.105667710304260254e-01
3.871000000000000000e+03 4.784273147583007812e+01 -1.010110735893249512e+00 -3.337576091289520264e-01 4.583838462829589844e+00 1.275024294853210449e+00 2.625404894351959229e-01
3.872000000000000000e+03 4.849141693115234375e+01 4.155680656433105469e+00 -3.819274008274078369e-01 4.891425132751464844e+00 1.352849364280700684e+00 4.165193140506744385e-01
3.873000000000000000e+03 5.336501693725585938e+01 2.592568635940551758e+00 -5.203562378883361816e-01 5.890705108642578125e+00 1.611104607582092285e+00 1.212690025568008423e-01
3.874000000000000000e+03 4.882408523559570312e+01 1.523416137695312500e+01 -1.977369189262390137e-01 5.469393730163574219e+00 1.581497073173522949e+00 1.228517532348632812e+00
3.875000000000000000e+03 4.962601089477539062e+01 1.776067733764648438e+01 -1.755251586437225342e-01 6.034087657928466797e+00 1.757568717002868652e+00 1.505239129066467285e+00
3.876000000000000000e+03 5.000794219970703125e+01 9.934936523437500000e+00 -4.469716846942901611e-01 5.573274612426757812e+00 1.537890911102294922e+00 6.521196365356445312e-01
3.877000000000000000e+03 5.378356552124023438e+01 1.356082439422607422e+01 -7.017028331756591797e-01 7.013582229614257812e+00 1.893563866615295410e+00 4.924888908863067627e-01
3.878000000000000000e+03 5.022021102905273438e+01 -5.148400068283081055e-01 -3.980450034141540527e-01 5.116223812103271484e+00 1.415453553199768066e+00 1.942988932132720947e-01
3.879000000000000000e+03 5.357293701171875000e+01 5.707205295562744141e+00 -5.870935916900634766e-01 6.099026679992675781e+00 1.653579950332641602e+00 1.938101202249526978e-01
3.880000000000000000e+03 5.109966659545898438e+01 -1.943038225173950195e+00 -3.999904394149780273e-01 5.232603073120117188e+00 1.449783682823181152e+00 1.343282610177993774e-01
3.881000000000000000e+03 5.049863433837890625e+01 -9.181877136230468750e+00 -2.861664891242980957e-01 4.905716896057128906e+00 1.385865211486816406e+00 6.485961377620697021e-02
3.882000000000000000e+03 5.193077087402343750e+01 -3.884694814682006836e+00 -3.838694393634796143e-01 5.333843708038330078e+00 1.484992265701293945e+00 7.765842229127883911e-02
3.883000000000000000e+03 4.694511032104492188e+01 -1.712896823883056641e+00 -3.153331577777862549e-01 4.379183769226074219e+00 1.219155192375183105e+00 2.851192355155944824e-01
3.884000000000000000e+03 4.850774765014648438e+01 -1.935253262519836426e+00 -3.452470004558563232e-01 4.686123847961425781e+00 1.302263021469116211e+00 2.175671160221099854e-01
3.885000000000000000e+03 5.235438537597656250e+01 -6.223116397857666016e+00 -3.452918827533721924e-01 5.321825027465820312e+00 1.492959976196289062e+00 4.623901471495628357e-02
3.886000000000000000e+03 5.389654541015625000e+01 1.105133152008056641e+01 -6.811711192131042480e-01 6.708471775054931641e+00 1.808190226554870605e+00 3.565737009048461914e-01
3.887000000000000000e+03 4.755489349365234375e+01 9.927065849304199219e+00 -2.701994776725769043e-01 4.854777336120605469e+00 1.375373363494873047e+00 7.632149457931518555e-01
3.888000000000000000e+03 4.613530731201171875e+01 -2.450578689575195312e+00 -2.844320833683013916e-01 4.152331352233886719e+00 1.160369873046875000e+00 2.644200325012207031e-01
3.889000000000000000e+03 4.913677597045898438e+01 -8.100344657897949219e+00 -2.833467125892639160e-01 4.681437969207763672e+00 1.319427371025085449e+00 1.055085062980651855e-01
3.890000000000000000e+03 5.058369445800781250e+01 2.077121496200561523e+00 -4.448115229606628418e-01 5.294072628021240234e+00 1.454778313636779785e+00 2.497737705707550049e-01
3.891000000000000000e+03 5.287431716918945312e+01 1.751248741149902344e+01 -6.193289160728454590e-01 7.456289291381835938e+00 2.051088094711303711e+00 9.651656746864318848e-01
3.892000000000000000e+03 4.796786117553710938e+01 1.297356033325195312e+01 -2.079266607761383057e-01 5.028833389282226562e+00 1.446272015571594238e+00 9.966477155685424805e-01
3.893000000000000000e+03 5.015507888793945312e+01 1.321875381469726562e+01 -4.096709489822387695e-01 5.855849266052246094e+00 1.633853435516357422e+00 9.168485403060913086e-01
3.894000000000000000e+03 5.243926239013671875e+01 1.308927536010742188e+01 -6.116093397140502930e-01 6.573610782623291016e+00 1.788600325584411621e+00 6.483465433120727539e-01
3.895000000000000000e+03 5.174008178710937500e+01 1.592772483825683594e+01 -5.271145105361938477e-01 6.732531070709228516e+00 1.861624956130981445e+00 1.003256082534790039e+00
3.896000000000000000e+03 4.964622879028320312e+01 3.237534284591674805e+00 -4.262377619743347168e-01 5.142390251159667969e+00 1.414845824241638184e+00 3.185957372188568115e-01
3.897000000000000000e+03 5.004781723022460938e+01 6.007283687591552734e+00 -4.507251679897308350e-01 5.353609561920166016e+00 1.470865368843078613e+00 4.135272204875946045e-01
3.898000000000000000e+03 5.082020187377929688e+01 7.490030765533447266e+00 -5.043200850486755371e-01 5.646039485931396484e+00 1.542515873908996582e+00 4.602736830711364746e-01
3.899000000000000000e+03 4.902029418945312500e+01 8.453995704650878906e+00 -3.902397155761718750e-01 5.174535274505615234e+00 1.435288667678833008e+00 6.025140285491943359e-01
3.900000000000000000e+03 5.175608062744140625e+01 5.162826538085937500e+00 -5.138362646102905273e-01 5.667681217193603516e+00 1.546153545379638672e+00 2.882954776287078857e-01
3.901000000000000000e+03 4.828174972534179688e+01 1.410144901275634766e+01 -1.902797818183898926e-01 5.170846462249755859e+00 1.494170069694519043e+00 1.096309781074523926e+00
3.902000000000000000e+03 4.974963760375976562e+01 1.470136642456054688e+01 -3.359295129776000977e-01 5.823890686035156250e+00 1.646388292312622070e+00 1.093968629837036133e+00
3.903000000000000000e+03 5.080575561523437500e+01 5.386829853057861328e+00 -4.811617434024810791e-01 5.512557029724121094e+00 1.509418606758117676e+00 3.396492898464202881e-01
3.904000000000000000e+03 5.039328384399414062e+01 4.318593978881835938e+00 -4.598895907402038574e-01 5.350893974304199219e+00 1.467301249504089355e+00 3.203926384449005127e-01
3.905000000000000000e+03 4.892524337768554688e+01 -1.068493008613586426e+00 -3.670913875102996826e-01 4.814451694488525391e+00 1.334208130836486816e+00 2.411033213138580322e-01
3.906000000000000000e+03 5.008373641967773438e+01 4.461064636707305908e-01 -4.034941792488098145e-01 5.124448299407958984e+00 1.416286230087280273e+00 2.316430509090423584e-01
3.907000000000000000e+03 5.334209060668945312e+01 9.925954818725585938e+00 -6.440861821174621582e-01 6.458497524261474609e+00 1.744323372840881348e+00 3.688264787197113037e-01
3.908000000000000000e+03 5.108274078369140625e+01 7.412982583045959473e-01 -4.360314905643463135e-01 5.347029209136962891e+00 1.473299264907836914e+00 1.898123472929000854e-01
3.909000000000000000e+03 5.195259094238281250e+01 1.214721679687500000e+01 -5.784583687782287598e-01 6.322309970855712891e+00 1.723155498504638672e+00 6.342880129814147949e-01
3.910000000000000000e+03 5.142445755004882812e+01 1.121464347839355469e+01 -5.423166155815124512e-01 6.069574356079101562e+00 1.658177256584167480e+00 6.168050765991210938e-01
3.911000000000000000e+03 4.931834411621093750e+01 -1.468491852283477783e-01 -3.738227784633636475e-01 4.923190593719482422e+00 1.364810347557067871e+00 2.466477602720260620e-01
3.912000000000000000e+03 4.827128982543945312e+01 1.190510177612304688e+01 -2.780327498912811279e-01 5.117585182189941406e+00 1.451865792274475098e+00 8.972232341766357422e-01
3.913000000000000000e+03 4.877392959594726562e+01 -3.665377140045166016e+00 -3.346306681632995605e-01 4.708188056945800781e+00 1.312067151069641113e+00 1.773370802402496338e-01
3.914000000000000000e+03 4.868075561523437500e+01 2.282569408416748047e+00 -3.845548331737518311e-01 4.861814975738525391e+00 1.343178033828735352e+00 3.217882215976715088e-01
3.915000000000000000e+03 5.165563201904296875e+01 -1.458580780029296875e+01 -2.184655517339706421e-01 5.038866043090820312e+00 1.446120142936706543e+00 1.229051221162080765e-02
3.916000000000000000e+03 5.306076812744140625e+01 1.622802162170410156e+01 -6.525244712829589844e-01 7.257714271545410156e+00 1.981557011604309082e+00 8.057210445404052734e-01
3.917000000000000000e+03 5.231197357177734375e+01 1.674267768859863281e+01 -5.696588754653930664e-01 7.080962657928466797e+00 1.953391075134277344e+00 9.948244094848632812e-01
3.918000000000000000e+03 4.886060333251953125e+01 9.941021919250488281e+00 -3.590761423110961914e-01 5.220304489135742188e+00 1.458368420600891113e+00 7.163100838661193848e-01
3.919000000000000000e+03 5.064987182617187500e+01 1.416254043579101562e+01 -4.457993805408477783e-01 6.112001895904541016e+00 1.699860811233520508e+00 9.526742696762084961e-01
3.920000000000000000e+03 5.224884796142578125e+01 7.354327201843261719e+00 -5.661807060241699219e-01 5.957443237304687500e+00 1.617378711700439453e+00 3.573769330978393555e-01
3.921000000000000000e+03 5.158103561401367188e+01 9.502165794372558594e+00 -5.473082661628723145e-01 5.976989269256591797e+00 1.628904342651367188e+00 5.031194090843200684e-01
3.922000000000000000e+03 4.928258895874023438e+01 5.181458473205566406e+00 -4.131199419498443604e-01 5.121400356292724609e+00 1.412484169006347656e+00 4.219024479389190674e-01
3.923000000000000000e+03 4.884637832641601562e+01 1.272826957702636719e+01 -3.069911301136016846e-01 5.399745941162109375e+00 1.527826428413391113e+00 9.526299834251403809e-01
3.924000000000000000e+03 5.254449462890625000e+01 1.539372253417968750e+01 -6.091791987419128418e-01 6.932518482208251953e+00 1.897001862525939941e+00 8.217142820358276367e-01
3.925000000000000000e+03 4.572218322753906250e+01 -1.799221801757812500e+01 -1.414645314216613770e-01 3.909694433212280273e+00 1.130468964576721191e+00 6.077241897583007812e-02
3.926000000000000000e+03 4.902905654907226562e+01 -1.513857078552246094e+01 -1.965370774269104004e-01 4.525267124176025391e+00 1.298618912696838379e+00 4.367154091596603394e-02
3.927000000000000000e+03 4.966860580444335938e+01 1.224904441833496094e+01 -3.872633278369903564e-01 5.611379146575927734e+00 1.567234754562377930e+00 8.764553666114807129e-01
3.928000000000000000e+03 5.104555511474609375e+01 1.270129108428955078e+01 -4.974556267261505127e-01 6.091511249542236328e+00 1.678216695785522461e+00 7.772126793861389160e-01
3.929000000000000000e+03 4.697109603881835938e+01 1.538159847259521484e+01 3.314379602670669556e-02 4.655713558197021484e+00 1.406657218933105469e+00 1.279828429222106934e+00
3.930000000000000000e+03 4.911700439453125000e+01 1.121392631530761719e+01 -3.597233295440673828e-01 5.348594188690185547e+00 1.496661305427551270e+00 8.089315891265869141e-01
3.931000000000000000e+03 5.054598236083984375e+01 1.177817058563232422e+01 -4.680183827877044678e-01 5.833155632019042969e+00 1.609541177749633789e+00 7.531109452247619629e-01
3.932000000000000000e+03 5.056807708740234375e+01 -1.633344078063964844e+01 -1.914733499288558960e-01 4.829054355621337891e+00 1.391274333000183105e+00 9.627932682633399963e-03
3.933000000000000000e+03 5.203720092773437500e+01 1.452309036254882812e+01 -5.742869973182678223e-01 6.637522697448730469e+00 1.818970799446105957e+00 8.198669552803039551e-01
3.934000000000000000e+03 5.083211135864257812e+01 1.037388229370117188e+01 -5.007420778274536133e-01 5.825199604034423828e+00 1.597337365150451660e+00 6.212852597236633301e-01
3.935000000000000000e+03 3.320836257934570312e+01 -1.084292173385620117e+00 -4.278418049216270447e-02 1.392787098884582520e+00 4.050008952617645264e-01 2.662952244281768799e-01
3.936000000000000000e+03 6.357749557495117188e+01 -1.975965690612792969e+01 -1.073569059371948242e-01 6.955986499786376953e+00 2.054588794708251953e+00 -9.215993434190750122e-02
3.937000000000000000e+03 6.309310531616210938e+01 -2.273073196411132812e+01 -9.265337139368057251e-02 6.867294788360595703e+00 2.032392501831054688e+00 -6.708989292383193970e-02
3.938000000000000000e+03 4.806663894653320312e+01 -1.677575492858886719e+01 -1.758421361446380615e-01 4.336300849914550781e+00 1.248137712478637695e+00 6.227045878767967224e-02
3.939000000000000000e+03 4.731848144531250000e+01 -2.093955039978027344e+01 -1.353528201580047607e-01 4.154077053070068359e+00 1.205617308616638184e+00 2.521989122033119202e-02
3.940000000000000000e+03 7.035444641113281250e+01 -3.814241790771484375e+01 -7.021731231361627579e-03 8.187629699707031250e+00 2.454182386398315430e+00 -1.064031478017568588e-02
3.941000000000000000e+03 7.019761657714843750e+01 -3.570735931396484375e+01 -2.960803359746932983e-02 8.110130310058593750e+00 2.424156665802001953e+00 -1.704131253063678741e-02
3.942000000000000000e+03 3.532469177246093750e+01 -2.060190773010253906e+01 -7.000311464071273804e-02 1.968987703323364258e+00 5.696953535079956055e-01 8.751153945922851562e-02
3.943000000000000000e+03 2.832151412963867188e+01 -2.321411323547363281e+01 -1.525499299168586731e-02 7.132755517959594727e-01 2.094061672687530518e-01 3.626293316483497620e-02
3.944000000000000000e+03 3.225547027587890625e+01 -2.890871238708496094e+01 -1.816954463720321655e-02 1.479407429695129395e+00 4.383713603019714355e-01 1.949186436831951141e-02
3.945000000000000000e+03 2.990138816833496094e+01 -3.105344963073730469e+01 -3.399691358208656311e-02 9.807638525962829590e-01 2.840300798416137695e-01 4.466211795806884766e-02
3.946000000000000000e+03 8.046644210815429688e+00 -4.142422485351562500e+01 -1.175119355320930481e-02 8.650429663248360157e-05 -3.499406855553388596e-03 7.008876651525497437e-03
3.947000000000000000e+03 2.778411865234375000e+01 -3.886421585083007812e+01 3.676835447549819946e-02 6.597127914428710938e-01 2.089443355798721313e-01 2.977685257792472839e-02
3.948000000000000000e+03 2.772518157958984375e+01 -3.629030609130859375e+01 -7.023738697171211243e-03 6.483204364776611328e-01 1.923889964818954468e-01 3.796914964914321899e-02
3.949000000000000000e+03 4.157131576538085938e+01 -2.103803253173828125e+01 -1.100403293967247009e-01 3.103905677795410156e+00 8.981596231460571289e-01 8.100078999996185303e-02
3.950000000000000000e+03 1.818836021423339844e+01 -4.126409530639648438e+01 9.103497862815856934e-02 -3.090725243091583252e-01 -6.541126221418380737e-02 -4.755416885018348694e-02
3.951000000000000000e+03 6.213970184326171875e+01 -1.730057525634765625e+01 -1.439724415540695190e-01 6.750795841217041016e+00 1.982047080993652344e+00 -1.015217751264572144e-01
3.952000000000000000e+03 3.250468063354492188e+01 -2.015266227722167969e+01 -5.133204534649848938e-02 1.462252378463745117e+00 4.232760965824127197e-01 8.663920313119888306e-02
3.953000000000000000e+03 4.483267211914062500e+01 -1.500281906127929688e+01 -1.663324832916259766e-01 3.778406858444213867e+00 1.083622336387634277e+00 9.240324050188064575e-02
3.954000000000000000e+03 3.236072921752929688e+01 -2.262921524047851562e+01 -3.877343237400054932e-02 1.454799532890319824e+00 4.248078465461730957e-01 7.002160698175430298e-02
3.955000000000000000e+03 4.943223571777343750e+01 -2.159642791748046875e+01 -1.304880231618881226e-01 4.592892646789550781e+00 1.338721275329589844e+00 1.961788535118103027e-02
3.956000000000000000e+03 6.163502120971679688e+01 -2.940895462036132812e+01 -6.583146750926971436e-02 6.627806663513183594e+00 1.968592524528503418e+00 -2.432220242917537689e-02
3.957000000000000000e+03 5.982759475708007812e+01 3.968517684936523438e+01 -5.602631568908691406e-01 1.154674339294433594e+01 3.295943975448608398e+00 5.432724952697753906e-01
3.958000000000000000e+03 6.222214889526367188e+01 -3.700931167602539062e+01 -3.713149949908256531e-02 6.740084648132324219e+00 2.010885953903198242e+00 -1.308948174118995667e-02
3.959000000000000000e+03 5.762625122070312500e+01 -3.657769012451171875e+01 -4.898583516478538513e-02 5.919944763183593750e+00 1.761287689208984375e+00 -1.425905898213386536e-02
3.960000000000000000e+03 2.761095619201660156e+01 -4.131941604614257812e+01 4.958933964371681213e-02 6.440855264663696289e-01 2.081024646759033203e-01 6.861762609332799911e-03
3.961000000000000000e+03 4.111514282226562500e+01 -3.702497863769531250e+01 -2.699724026024341583e-02 3.019445419311523438e+00 8.977344632148742676e-01 8.154648356139659882e-03
3.962000000000000000e+03 3.665857315063476562e+01 -3.782425308227539062e+01 -1.131074596196413040e-02 2.221410751342773438e+00 6.630299687385559082e-01 1.962600834667682648e-02
3.963000000000000000e+03 6.660319519042968750e+01 -3.758511352539062500e+01 -1.473246794193983078e-02 7.487832069396972656e+00 2.241930007934570312e+00 -1.014676876366138458e-02
3.964000000000000000e+03 7.160156250000000000e+01 -4.098765563964843750e+01 -4.488226026296615601e-03 8.406163215637207031e+00 2.520502567291259766e+00 -9.540929459035396576e-03
3.965000000000000000e+03 7.867123603820800781e+00 4.136218643188476562e+01 2.603487882879562676e-05 -4.082193845533765852e-05 -4.436117251316318288e-06 -6.529234815388917923e-04
3.966000000000000000e+03 3.501293563842773438e+01 -2.345065307617187500e+01 -5.422714352607727051e-02 1.929568767547607422e+00 5.626024603843688965e-01 7.198852300643920898e-02
3.967000000000000000e+03 3.329867935180664062e+01 -2.431418800354003906e+01 -4.445713758468627930e-02 1.631186246871948242e+00 4.760187268257141113e-01 5.885657295584678650e-02
3.968000000000000000e+03 3.670694732666015625e+01 -2.233157157897949219e+01 -6.301130354404449463e-02 2.226188421249389648e+00 6.489531397819519043e-01 8.095830678939819336e-02
3.969000000000000000e+03 6.474793243408203125e+01 -2.131925773620605469e+01 -8.815319836139678955e-02 7.176912784576416016e+00 2.126627922058105469e+00 -9.487347304821014404e-02
3.970000000000000000e+03 3.472244262695312500e+01 -2.866837310791015625e+01 -4.248891770839691162e-02 1.901473045349121094e+00 5.576952695846557617e-01 5.604387074708938599e-02
3.971000000000000000e+03 3.221239471435546875e+01 -3.137085914611816406e+01 -2.167099900543689728e-02 1.453838825225830078e+00 4.296503365039825439e-01 1.516807358711957932e-02
3.972000000000000000e+03 6.490579223632812500e+01 -3.248704147338867188e+01 -4.488899186253547668e-02 7.173759460449218750e+00 2.138661146163940430e+00 -3.126018121838569641e-02
3.973000000000000000e+03 2.569026374816894531e+01 -3.155040740966796875e+01 -2.786335349082946777e-02 3.331538438796997070e-01 9.158714860677719116e-02 -1.845760084688663483e-02
3.974000000000000000e+03 5.886179733276367188e+01 -2.344944572448730469e+01 -1.014840602874755859e-01 6.185797214508056641e+00 1.825293898582458496e+00 -3.252515941858291626e-02
3.975000000000000000e+03 6.074880218505859375e+01 -2.115436172485351562e+01 -1.101778671145439148e-01 6.508606433868408203e+00 1.919528484344482422e+00 -5.269735679030418396e-02
3.976000000000000000e+03 4.105848693847656250e+01 -1.768744659423828125e+01 -1.199831068515777588e-01 3.028756141662597656e+00 8.726319670677185059e-01 1.090144068002700806e-01
3.977000000000000000e+03 4.763198852539062500e+01 -1.858864402770996094e+01 -1.544306427240371704e-01 4.247994422912597656e+00 1.228069186210632324e+00 4.214684292674064636e-02
3.978000000000000000e+03 4.497688674926757812e+01 -2.040919685363769531e+01 -1.286285519599914551e-01 3.748452663421630859e+00 1.085947275161743164e+00 6.597346067428588867e-02
3.979000000000000000e+03 4.992756271362304688e+01 -2.541156959533691406e+01 -1.136614605784416199e-01 4.621305942535400391e+00 1.352293252944946289e+00 1.291212718933820724e-02
3.980000000000000000e+03 5.360618972778320312e+01 -2.452212142944335938e+01 -1.115485578775405884e-01 5.285261154174804688e+00 1.552113771438598633e+00 -7.742455694824457169e-03
3.981000000000000000e+03 3.199457931518554688e+01 -2.673783302307128906e+01 -3.963691368699073792e-02 1.401485800743103027e+00 4.085546433925628662e-01 4.055598005652427673e-02
3.982000000000000000e+03 3.510768890380859375e+01 -3.151132392883300781e+01 -1.978911831974983215e-02 1.954597592353820801e+00 5.804425477981567383e-01 4.386395961046218872e-02
3.983000000000000000e+03 4.649203491210937500e+01 -1.594513893127441406e+01 -1.739758551120758057e-01 4.083481788635253906e+00 1.172851800918579102e+00 7.375206798315048218e-02
3.984000000000000000e+03 3.832055664062500000e+01 -2.097820091247558594e+01 -8.737658709287643433e-02 2.507273674011230469e+00 7.259690761566162109e-01 8.699785172939300537e-02
3.985000000000000000e+03 6.721138763427734375e+01 -3.467738723754882812e+01 -3.997544571757316589e-02 7.570339679718017578e+00 2.259109258651733398e+00 -7.047303486615419388e-03
3.986000000000000000e+03 4.930884170532226562e+01 -1.798159217834472656e+01 -1.778924316167831421e-01 4.555590152740478516e+00 1.313309311866760254e+00 1.935887709259986877e-02
3.987000000000000000e+03 3.996091842651367188e+01 -2.278725051879882812e+01 -7.943185418844223022e-02 2.820502996444702148e+00 8.223212957382202148e-01 7.265141606330871582e-02
3.988000000000000000e+03 3.407886123657226562e+01 -2.631314468383789062e+01 -4.330500215291976929e-02 1.785181164741516113e+00 5.225628614425659180e-01 5.570554360747337341e-02
3.989000000000000000e+03 6.144163894653320312e+01 -2.610749435424804688e+01 -7.927850633859634399e-02 6.579789161682128906e+00 1.950153231620788574e+00 -3.518846258521080017e-02
3.990000000000000000e+03 5.872363662719726562e+01 -2.613978958129882812e+01 -9.420431405305862427e-02 6.141451358795166016e+00 1.814174175262451172e+00 -2.684177272021770477e-02
3.991000000000000000e+03 4.788289642333984375e+01 -2.335600090026855469e+01 -1.141107305884361267e-01 4.238769054412841797e+00 1.237397551536560059e+00 2.395086362957954407e-02
3.992000000000000000e+03 4.811420822143554688e+01 -2.775240707397460938e+01 -8.122690021991729736e-02 4.278483390808105469e+00 1.259176850318908691e+00 -6.916504935361444950e-04
3.993000000000000000e+03 4.583433151245117188e+01 -2.514194297790527344e+01 -9.391362220048904419e-02 3.867766618728637695e+00 1.132155895233154297e+00 3.048995509743690491e-02
3.994000000000000000e+03 5.845119476318359375e+01 -2.928030967712402344e+01 -6.712462007999420166e-02 6.078649520874023438e+00 1.803457498550415039e+00 -2.383445389568805695e-02
3.995000000000000000e+03 5.426467514038085938e+01 -3.184343147277832031e+01 -6.288101524114608765e-02 5.330007076263427734e+00 1.580137848854064941e+00 5.287022795528173447e-03
3.996000000000000000e+03 6.449003601074218750e+01 -2.953146362304687500e+01 -5.195124447345733643e-02 7.095859050750732422e+00 2.113172292709350586e+00 -6.070942431688308716e-02
3.997000000000000000e+03 4.369766235351562500e+01 -2.730250740051269531e+01 -7.827106118202209473e-02 3.471338033676147461e+00 1.017920136451721191e+00 4.537608474493026733e-02
3.998000000000000000e+03 3.963109970092773438e+01 -2.654833030700683594e+01 -6.734370440244674683e-02 2.758836030960083008e+00 8.074477314949035645e-01 5.287518352270126343e-02
3.999000000000000000e+03 4.594091796875000000e+01 -3.012693405151367188e+01 -7.327899336814880371e-02 3.849701404571533203e+00 1.132926702499389648e+00 2.272455021739006042e-02
4.000000000000000000e+03 4.884461212158203125e+01 -3.330899429321289062e+01 -5.456920340657234192e-02 4.393671989440917969e+00 1.301730871200561523e+00 5.762559361755847931e-03
4.001000000000000000e+03 4.126395797729492188e+01 -2.914057731628417969e+01 -6.813154369592666626e-02 3.054860115051269531e+00 8.960185647010803223e-01 4.292744025588035583e-02
4.002000000000000000e+03 3.813290023803710938e+01 -2.429981040954589844e+01 -6.468705832958221436e-02 2.476882934570312500e+00 7.236587405204772949e-01 6.792876869440078735e-02
4.003000000000000000e+03 5.805170059204101562e+01 -3.282151031494140625e+01 -5.827311426401138306e-02 5.984087944030761719e+00 1.777744412422180176e+00 -1.981511712074279785e-02
4.004000000000000000e+03 5.291875457763671875e+01 -3.562700271606445312e+01 -4.898925125598907471e-02 5.067761898040771484e+00 1.505631804466247559e+00 5.571056623011827469e-03
4.005000000000000000e+03 4.973102951049804688e+01 3.406490325927734375e+01 1.391596674919128418e+00 3.043075084686279297e+00 1.330401539802551270e+00 -2.862441062927246094e+00
4.006000000000000000e+03 5.027993392944335938e+01 3.373438262939453125e+01 1.343790411949157715e+00 4.296839237213134766e+00 1.692188978195190430e+00 -3.381157636642456055e+00
4.007000000000000000e+03 5.069661712646484375e+01 3.365768814086914062e+01 1.787574648857116699e+00 6.407711029052734375e+00 2.458585739135742188e+00 -4.907282829284667969e+00
4.008000000000000000e+03 5.156374359130859375e+01 2.969386482238769531e+01 2.327067852020263672e+00 1.455854415893554688e+01 5.065683364868164062e+00 6.739137172698974609e+00
4.009000000000000000e+03 5.058862686157226562e+01 2.983261108398437500e+01 4.145083904266357422e+00 6.643985271453857422e+00 3.236720800399780273e+00 6.361353874206542969e+00
4.010000000000000000e+03 4.955540847778320312e+01 3.037508392333984375e+01 3.083926677703857422e+00 1.354427218437194824e+00 1.331506133079528809e+00 2.903581380844116211e+00
4.011000000000000000e+03 4.934556198120117188e+01 3.041332054138183594e+01 2.680107593536376953e+00 1.067761301994323730e+00 1.124360680580139160e+00 2.517603397369384766e+00
4.012000000000000000e+03 1.268408179283142090e+00 2.704725980758666992e+00 -3.285456114099361002e-05 5.242414044914767146e-05 5.870873792446218431e-06 1.765478373272344470e-06
4.013000000000000000e+03 2.117959785461425781e+01 3.421229934692382812e+01 -7.383673451840877533e-03 -1.454727258533239365e-02 -6.579283624887466431e-03 -1.054056361317634583e-02
4.014000000000000000e+03 3.840513992309570312e+01 3.592840957641601562e+01 -4.362355172634124756e-01 -2.029348015785217285e-01 -1.917510926723480225e-01 4.097134172916412354e-01
4.015000000000000000e+03 2.698273277282714844e+01 3.933432769775390625e+01 -1.229053130373358727e-03 -1.949799805879592896e-02 -6.218115333467721939e-03 7.947953417897224426e-03
4.016000000000000000e+03 1.046143531799316406e+01 -3.643745803833007812e+01 2.231696248054504395e-02 -1.275702286511659622e-02 2.867982024326920509e-03 2.439529169350862503e-03
4.017000000000000000e+03 4.382199478149414062e+01 3.614056396484375000e+01 -2.315708845853805542e-01 -8.759073168039321899e-02 -9.574848413467407227e-02 3.496153056621551514e-01
4.018000000000000000e+03 3.101269912719726562e+01 3.854414749145507812e+01 -1.203065924346446991e-02 -7.553101330995559692e-02 -2.626850269734859467e-02 1.000048965215682983e-01
4.019000000000000000e+03 3.406978607177734375e+01 3.922159957885742188e+01 2.666490711271762848e-02 -2.044604718685150146e-01 -5.333866924047470093e-02 1.741108447313308716e-01
4.020000000000000000e+03 3.321056747436523438e+01 3.816482162475585938e+01 -3.911493718624114990e-02 -1.203896105289459229e-01 -4.785136505961418152e-02 1.608652323484420776e-01
4.021000000000000000e+03 1.897936248779296875e+01 3.815295028686523438e+01 2.697440097108483315e-03 3.380916547030210495e-03 1.823507016524672508e-03 -1.281168195419013500e-03
4.022000000000000000e+03 1.916154861450195312e+01 3.905496597290039062e+01 2.336871111765503883e-03 2.427921630442142487e-03 1.429437776096165180e-03 -3.237914992496371269e-03
4.023000000000000000e+03 4.974748611450195312e+01 3.684675979614257812e+01 1.194182112812995911e-01 6.460172653198242188e+00 1.973877310752868652e+00 -2.289197206497192383e+00
4.024000000000000000e+03 5.065975189208984375e+01 3.689699935913085938e+01 -3.122139275074005127e-01 8.219275474548339844e+00 2.372118473052978516e+00 -2.643257141113281250e+00
4.025000000000000000e+03 4.455821609497070312e+01 3.802265167236328125e+01 5.880663394927978516e-01 6.654839515686035156e-01 3.760650753974914551e-01 -1.060429364442825317e-01
4.026000000000000000e+03 4.998814392089843750e+01 3.402285385131835938e+01 1.390833258628845215e+00 3.159996032714843750e+00 1.365248799324035645e+00 -3.060535192489624023e+00
4.027000000000000000e+03 1.393555068969726562e+01 3.529611968994140625e+01 4.534236795734614134e-04 9.144306532107293606e-04 4.103562969248741865e-04 -3.929845406673848629e-04
4.028000000000000000e+03 1.217502498626708984e+01 -3.284257173538208008e+00 -1.434127334505319595e-04 -9.685299301054328680e-05 -7.207971793832257390e-05 7.920613279566168785e-05
4.029000000000000000e+03 1.121492290496826172e+01 3.348086929321289062e+01 -1.264123944565653801e-03 1.723589230095967650e-04 -3.275295021012425423e-04 -1.516938209533691406e-04
4.030000000000000000e+03 4.923465728759765625e+01 2.988661575317382812e+01 2.877075433731079102e+00 1.764734029769897461e+00 1.392542839050292969e+00 3.131972789764404297e+00
4.031000000000000000e+03 4.876122283935546875e+01 2.987826347351074219e+01 2.320800065994262695e+00 1.306632876396179199e+00 1.088229894638061523e+00 2.410381078720092773e+00
4.032000000000000000e+03 4.722620773315429688e+01 3.616896820068359375e+01 4.532297253608703613e-01 1.140689849853515625e+00 4.781758785247802734e-01 -7.586922645568847656e-01
4.033000000000000000e+03 4.669297409057617188e+01 3.577545166015625000e+01 2.540291249752044678e-01 6.594159603118896484e-01 2.740335166454315186e-01 -4.926197230815887451e-01
4.034000000000000000e+03 4.997814559936523438e+01 3.011009025573730469e+01 4.005362033843994141e+00 3.118582487106323242e+00 2.137183427810668945e+00 4.435883998870849609e+00
4.035000000000000000e+03 5.008595275878906250e+01 2.994069290161132812e+01 4.080661773681640625e+00 3.982986688613891602e+00 2.419094562530517578e+00 4.993879795074462891e+00
4.036000000000000000e+03 7.801744842529296875e+01 -3.578004074096679688e+01 -1.504881214350461960e-02 9.518796920776367188e+00 2.851124525070190430e+00 2.269995212554931641e-02
4.037000000000000000e+03 7.642050170898437500e+01 3.809841537475585938e+01 1.500788033008575439e-01 4.802595615386962891e+00 1.485802412033081055e+00 -6.752853840589523315e-02
4.038000000000000000e+03 5.143719100952148438e+01 3.493422317504882812e+01 -2.946625351905822754e-01 1.147490406036376953e+01 3.354072570800781250e+00 -3.833382844924926758e+00
4.039000000000000000e+03 5.040042400360107422e+00 -3.491613006591796875e+01 2.092656679451465607e-03 -5.826255073770880699e-05 6.103182095102965832e-04 4.155620001256465912e-03
4.040000000000000000e+03 2.377176094055175781e+01 -3.253171157836914062e+01 -6.586205214262008667e-02 -4.967618733644485474e-02 -3.466147184371948242e-02 -1.900242082774639130e-02
4.041000000000000000e+03 4.986832427978515625e+01 2.944727325439453125e+01 3.553854465484619141e+00 4.400497436523437500e+00 2.386305570602416992e+00 5.013390064239501953e+00
4.042000000000000000e+03 5.100612258911132812e+01 3.465916442871093750e+01 3.484569787979125977e-01 9.556112289428710938e+00 2.971370697021484375e+00 -4.403404235839843750e+00
4.043000000000000000e+03 9.970360755920410156e+00 2.594138717651367188e+01 7.164159324020147324e-04 6.123013736214488745e-05 2.332938165636733174e-04 -3.106249278062023222e-05
4.044000000000000000e+03 4.961473083496093750e+01 2.927804374694824219e+01 3.240490913391113281e+00 4.002850055694580078e+00 2.173002243041992188e+00 4.364315032958984375e+00
4.045000000000000000e+03 5.337078094482421875e+01 2.690121078491210938e+01 6.835051625967025757e-02 1.285343456268310547e+01 3.876535654067993164e+00 1.619671344757080078e+00
4.046000000000000000e+03 5.173854827880859375e+00 -4.446253299713134766e+00 4.507752601057291031e-05 -8.560420246794819832e-05 -1.215800239151576534e-05 -1.245229359483346343e-04
4.047000000000000000e+03 9.864620208740234375e+00 3.354734039306640625e+01 1.002385746687650681e-03 -1.572683686390519142e-04 2.535352250561118126e-04 4.608917515724897385e-04
4.048000000000000000e+03 5.273211288452148438e+01 3.544559860229492188e+01 -9.941905736923217773e-01 1.441721820831298828e+01 4.026908397674560547e+00 -1.589873909950256348e+00
4.049000000000000000e+03 8.351657867431640625e+00 3.172405242919921875e+01 7.464112131856381893e-04 -1.437983009964227676e-04 1.807838852982968092e-04 4.417879390530288219e-04
4.050000000000000000e+03 8.993242263793945312e+00 2.891580390930175781e+01 6.050835363566875458e-04 2.846492861863225698e-04 2.669198438525199890e-04 1.149480449385009706e-04
4.051000000000000000e+03 5.118818759918212891e+00 -3.008777999877929688e+01 1.602184842340648174e-03 -3.067939542233943939e-04 3.886172489728778601e-04 1.275104237720370293e-03
4.052000000000000000e+03 3.823786497116088867e+00 6.197276592254638672e+00 7.359497249126434326e-05 9.326359577244147658e-05 5.005756975151598454e-05 -8.427124703302979469e-05
4.053000000000000000e+03 7.181375026702880859e+00 1.681739044189453125e+01 -3.241140511818230152e-04 3.325186116853728890e-05 -8.725865336600691080e-05 -8.123997395159676671e-05
4.054000000000000000e+03 2.253117942810058594e+01 -3.221856307983398438e+01 -5.821301043033599854e-02 -2.759881019592285156e-01 -1.002603322267532349e-01 -3.605065867304801941e-02
4.055000000000000000e+03 2.526569938659667969e+01 -3.337691879272460938e+01 -3.814018145203590393e-02 2.482935488224029541e-01 6.304600834846496582e-02 1.343045965768396854e-03
4.056000000000000000e+03 3.063848876953125000e+01 -3.316452407836914062e+01 -1.655602827668190002e-02 1.186772823333740234e+00 3.510650396347045898e-01 3.650576993823051453e-02
4.057000000000000000e+03 5.214638900756835938e+01 3.584261322021484375e+01 -9.918722510337829590e-01 1.290949249267578125e+01 3.575285911560058594e+00 -2.461562633514404297e+00
4.058000000000000000e+03 5.888628959655761719e+00 -2.317035102844238281e+01 1.199752790853381157e-03 -7.230538758449256420e-04 1.430096890544518828e-04 2.477281668689101934e-04
4.059000000000000000e+03 2.560948562622070312e+01 2.881121063232421875e+01 -7.296687364578247070e-02 -1.494538933038711548e-01 -6.672623008489608765e-02 -2.950346469879150391e-01
4.060000000000000000e+03 1.106006145477294922e+01 -1.245177268981933594e+01 3.794176154769957066e-04 2.021218242589384317e-04 1.744618348311632872e-04 -3.407515177968889475e-04
4.061000000000000000e+03 5.284562587738037109e+00 -1.913476181030273438e+01 -5.000636447221040726e-04 -3.052756364922970533e-04 -2.416017814539372921e-04 -1.677501713857054710e-04
4.062000000000000000e+03 2.998532867431640625e+01 -2.679533195495605469e+01 -1.610041595995426178e-02 1.031783342361450195e+00 3.047048747539520264e-01 2.875908091664314270e-02
4.063000000000000000e+03 6.141992568969726562e+00 1.639212036132812500e+01 4.049338458571583033e-04 -3.764746224987902679e-06 1.203507272293791175e-04 1.731087249936535954e-04
4.064000000000000000e+03 2.930679321289062500e+01 2.935596084594726562e+01 -1.900817155838012695e-01 5.263914354145526886e-03 -5.544533953070640564e-02 -3.679799437522888184e-01
4.065000000000000000e+03 9.630878448486328125e+00 6.536841869354248047e+00 -6.379653495969250798e-05 -9.227525151800364256e-05 -4.682153667090460658e-05 -6.156872404972091317e-05
4.066000000000000000e+03 1.000847816467285156e+01 -5.931535243988037109e+00 -1.131235549109987915e-04 -2.582114248070865870e-04 -1.114004990085959435e-04 2.691647969186306000e-04
4.067000000000000000e+03 9.542596817016601562e+00 -6.430836200714111328e+00 -1.321832241956144571e-04 3.127893724013119936e-04 5.418184809968806803e-05 -1.336516288574784994e-04
4.068000000000000000e+03 6.573826789855957031e+00 7.954049587249755859e+00 -1.784525084076449275e-04 -4.935119795845821500e-05 -6.834111263742670417e-05 4.975941465090727434e-06
4.069000000000000000e+03 5.871841430664062500e+01 2.634806060791015625e+01 1.100727677345275879e+00 1.044698047637939453e+01 3.464312553405761719e+00 -1.214629650115966797e+00
4.070000000000000000e+03 6.207796859741210938e+01 2.579445838928222656e+01 8.827055692672729492e-01 9.160168647766113281e+00 3.012862205505371094e+00 -1.346848130226135254e+00
4.071000000000000000e+03 6.453451156616210938e+00 1.156496429443359375e+01 2.379045181442052126e-04 5.787935879197902977e-05 8.873516344465315342e-05 -1.325127232121303678e-04
4.072000000000000000e+03 7.607014179229736328e+00 -1.079687118530273438e+01 -1.678683038335293531e-04 3.788564645219594240e-04 6.329645111691206694e-05 2.292958640737197129e-07
4.073000000000000000e+03 2.988467788696289062e+01 -2.502925109863281250e+01 -2.411992475390434265e-02 1.002818107604980469e+00 2.936094403266906738e-01 4.323178157210350037e-02
4.074000000000000000e+03 9.182023048400878906e+00 9.046689987182617188e+00 -2.246332733193412423e-04 -6.441620644181966782e-05 -8.671484101796522737e-05 -3.273371839895844460e-05
4.075000000000000000e+03 5.235853195190429688e+00 2.370704650878906250e+01 -5.452482728287577629e-04 4.425271981745027006e-05 -1.502986560808494687e-04 1.397848063788842410e-05
4.076000000000000000e+03 1.006030178070068359e+01 -6.901702880859375000e+00 -1.059791538864374161e-04 -3.236398624721914530e-04 -1.288857019972056150e-04 2.957108081318438053e-04
4.077000000000000000e+03 5.790683364868164062e+01 2.471923637390136719e+01 2.273752987384796143e-01 1.041034984588623047e+01 3.191317558288574219e+00 -8.214184641838073730e-01
4.078000000000000000e+03 3.096929931640625000e+01 -3.081558227539062500e+00 -2.266330644488334656e-02 1.005938053131103516e+00 2.949824035167694092e-01 2.097822725772857666e-01
4.079000000000000000e+03 7.930561542510986328e+00 -9.723268508911132812e+00 5.273325950838625431e-05 4.069453279953449965e-04 1.379035820718854666e-04 2.264424110762774944e-04
4.080000000000000000e+03 7.695432186126708984e+00 -8.645507812500000000e+00 2.033946511801332235e-04 3.874100511893630028e-04 1.772414107108488679e-04 5.438010339275933802e-05
4.081000000000000000e+03 5.139356613159179688e+01 2.500100708007812500e+01 1.866435557603836060e-01 8.955749511718750000e+00 2.742717981338500977e+00 2.892208337783813477e+00
4.082000000000000000e+03 7.309909820556640625e+01 2.194548988342285156e+01 5.903296545147895813e-02 6.838143348693847656e+00 2.069152832031250000e+00 -1.074433922767639160e+00
4.083000000000000000e+03 7.042141723632812500e+01 2.373341560363769531e+01 2.203258275985717773e-01 7.225432395935058594e+00 2.233727455139160156e+00 -1.214904069900512695e+00
4.084000000000000000e+03 8.376689910888671875e+00 -9.209725379943847656e+00 4.939619248034432530e-05 -5.876379436813294888e-04 -1.614725188119336963e-04 -1.877647446235641837e-04
4.085000000000000000e+03 4.539525604248046875e+01 2.742013549804687500e+01 1.335572361946105957e+00 1.139883160591125488e+00 7.426366806030273438e-01 1.360453128814697266e+00
4.086000000000000000e+03 5.131853866577148438e+01 2.449988174438476562e+01 1.254803538322448730e-01 8.610738754272460938e+00 2.620865821838378906e+00 2.728772878646850586e+00
4.087000000000000000e+03 6.830532073974609375e+01 2.271758842468261719e+01 1.814095675945281982e-01 7.702177047729492188e+00 2.365076065063476562e+00 -1.343753933906555176e+00
4.088000000000000000e+03 4.863713073730468750e+01 2.666550445556640625e+01 1.806085109710693359e+00 4.427389621734619141e+00 1.870042443275451660e+00 3.457676887512207031e+00
4.089000000000000000e+03 2.997785758972167969e+01 -5.224426269531250000e+00 -2.401866763830184937e-02 8.408191800117492676e-01 2.450401484966278076e-01 1.753528863191604614e-01
4.090000000000000000e+03 4.483620834350585938e+01 2.676204299926757812e+01 1.303131580352783203e+00 1.224535226821899414e+00 7.583000063896179199e-01 1.282660245895385742e+00
4.091000000000000000e+03 3.299621582031250000e+01 -7.326308727264404297e+00 -5.811860784888267517e-02 1.448121070861816406e+00 4.170007407665252686e-01 1.994328349828720093e-01
4.092000000000000000e+03 4.847393417358398438e+01 2.621722793579101562e+01 1.656880140304565430e+00 4.435544490814208984e+00 1.827727317810058594e+00 3.332386255264282227e+00
4.093000000000000000e+03 3.003927421569824219e+01 2.702610015869140625e+00 1.202987972646951675e-02 6.877295374870300293e-01 2.099278271198272705e-01 2.145902365446090698e-01
4.094000000000000000e+03 7.075544738769531250e+01 3.498121261596679688e+00 -2.256141602993011475e-01 7.932087898254394531e+00 2.311942100524902344e+00 -5.929952859878540039e-01
4.095000000000000000e+03 7.022507476806640625e+01 2.210025978088378906e+01 1.140474304556846619e-01 7.352742671966552734e+00 2.240036964416503906e+00 -1.268091320991516113e+00
4.096000000000000000e+03 4.638429260253906250e+01 2.499376869201660156e+01 1.448286294937133789e+00 2.930557966232299805e+00 1.313653230667114258e+00 2.255714178085327148e+00
4.097000000000000000e+03 6.655151367187500000e+01 2.112826347351074219e+01 1.575577259063720703e-02 8.082651138305664062e+00 2.429522275924682617e+00 -1.383114099502563477e+00
4.098000000000000000e+03 3.009168243408203125e+01 3.669049501419067383e+00 2.710956707596778870e-02 6.865831017494201660e-01 2.141078114509582520e-01 2.115601897239685059e-01
4.099000000000000000e+03 6.987543487548828125e+01 2.795001506805419922e+00 -2.589519619941711426e-01 7.871290683746337891e+00 2.283701658248901367e+00 -5.714790225028991699e-01
4.100000000000000000e+03 4.659600067138671875e+01 2.382653808593750000e+01 1.199118971824645996e+00 3.381786823272705078e+00 1.374271750450134277e+00 2.229559898376464844e+00
4.101000000000000000e+03 5.874296569824218750e+01 1.960240745544433594e+01 -6.215607523918151855e-01 9.012571334838867188e+00 2.517303228378295898e+00 -5.208625197410583496e-01
4.102000000000000000e+03 5.918354034423828125e+01 2.063200187683105469e+01 -4.782802760601043701e-01 9.200071334838867188e+00 2.616537094116210938e+00 -6.838649511337280273e-01
4.103000000000000000e+03 5.376569747924804688e+01 1.998059272766113281e+01 -6.575838327407836914e-01 8.462008476257324219e+00 2.341327190399169922e+00 9.601770043373107910e-01
4.104000000000000000e+03 6.807135772705078125e+01 1.747592163085937500e+01 -2.387337684631347656e-01 7.846884250640869141e+00 2.282445192337036133e+00 -1.266943573951721191e+00
4.105000000000000000e+03 6.971607208251953125e+01 -7.518334865570068359e+00 -1.399059891700744629e-01 7.949450016021728516e+00 2.342863321304321289e+00 -2.684216201305389404e-01
4.106000000000000000e+03 3.235946273803710938e+01 2.588029289245605469e+01 7.040610164403915405e-02 1.249828413128852844e-01 5.861668288707733154e-02 -3.732247054576873779e-01
4.107000000000000000e+03 5.413631057739257812e+01 2.053350067138671875e+01 -6.662464141845703125e-01 8.772928237915039062e+00 2.432004451751708984e+00 8.648509979248046875e-01
4.108000000000000000e+03 5.498085403442382812e+01 1.927857208251953125e+01 -7.400175929069519043e-01 8.581826210021972656e+00 2.352542638778686523e+00 5.374743342399597168e-01
4.109000000000000000e+03 5.955098724365234375e+01 1.909193229675292969e+01 -6.028609871864318848e-01 8.871205329895019531e+00 2.480503320693969727e+00 -6.527552008628845215e-01
4.110000000000000000e+03 4.698695755004882812e+01 2.356351470947265625e+01 1.109630227088928223e+00 3.910745620727539062e+00 1.506112694740295410e+00 2.387066364288330078e+00
4.111000000000000000e+03 3.250833892822265625e+01 2.533901977539062500e+01 1.220572441816329956e-01 1.424419134855270386e-01 7.934974879026412964e-02 -3.539778888225555420e-01
4.112000000000000000e+03 4.497268295288085938e+01 2.420505142211914062e+01 1.272211670875549316e+00 2.338587045669555664e+00 1.083239555358886719e+00 1.728990674018859863e+00
4.113000000000000000e+03 3.793128967285156250e+01 -3.955963373184204102e+00 -1.179094016551971436e-01 2.429316043853759766e+00 6.934219598770141602e-01 2.681748867034912109e-01
4.114000000000000000e+03 4.536263275146484375e+01 2.317825317382812500e+01 1.155596494674682617e+00 2.856156110763549805e+00 1.203525781631469727e+00 1.853463888168334961e+00
4.115000000000000000e+03 3.142761611938476562e+01 9.392112731933593750e+00 1.379564553499221802e-01 7.613765001296997070e-01 2.697998881340026855e-01 2.076727747917175293e-01
4.116000000000000000e+03 4.167773437500000000e+01 -6.195335388183593750e+00 -1.832596957683563232e-01 3.223926782608032227e+00 9.122001528739929199e-01 2.305659502744674683e-01
4.117000000000000000e+03 4.700060653686523438e+01 2.252298355102539062e+01 8.886849880218505859e-01 4.142964363098144531e+00 1.509494781494140625e+00 2.235801696777343750e+00
4.118000000000000000e+03 6.043316268920898438e+01 1.679649353027343750e+01 -6.916731595993041992e-01 8.462467193603515625e+00 2.331238269805908203e+00 -6.762306690216064453e-01
4.119000000000000000e+03 3.353619384765625000e+01 2.354492950439453125e+01 3.041339814662933350e-01 2.773971855640411377e-01 1.744593530893325806e-01 -2.339415550231933594e-01
4.120000000000000000e+03 6.709696197509765625e+01 9.586037635803222656e+00 -4.435546398162841797e-01 7.787361145019531250e+00 2.203141927719116211e+00 -8.576005697250366211e-01
4.121000000000000000e+03 3.531340408325195312e+01 1.408677101135253906e+01 3.601592481136322021e-01 1.253064274787902832e+00 4.839670658111572266e-01 3.401332497596740723e-01
4.122000000000000000e+03 5.721963500976562500e+01 1.706886482238769531e+01 -7.989671230316162109e-01 8.377181053161621094e+00 2.273464202880859375e+00 -6.951277703046798706e-02
4.123000000000000000e+03 5.966590499877929688e+01 1.593705272674560547e+01 -7.475178837776184082e-01 8.309213638305664062e+00 2.268508672714233398e+00 -5.215342044830322266e-01
4.124000000000000000e+03 4.499486160278320312e+01 2.247333908081054688e+01 1.049783706665039062e+00 2.844737291336059570e+00 1.168356299400329590e+00 1.736913800239562988e+00
4.125000000000000000e+03 5.159606933593750000e+01 1.730500602722167969e+01 -4.763490855693817139e-01 6.901862621307373047e+00 1.927654027938842773e+00 1.192487597465515137e+00
4.126000000000000000e+03 6.427523040771484375e+01 -4.937250614166259766e+00 -2.998751401901245117e-01 7.230088710784912109e+00 2.079064130783081055e+00 -3.023498058319091797e-01
4.127000000000000000e+03 6.424222564697265625e+01 1.686068725585937500e+01 -4.614767432212829590e-01 8.239209175109863281e+00 2.333319664001464844e+00 -1.107715368270874023e+00
4.128000000000000000e+03 3.545534515380859375e+01 1.510436153411865234e+01 4.003934562206268311e-01 1.198329687118530273e+00 4.796169698238372803e-01 3.245710730552673340e-01
4.129000000000000000e+03 4.273401260375976562e+01 2.306600570678710938e+01 1.055954575538635254e+00 1.769635915756225586e+00 8.476771712303161621e-01 1.124318480491638184e+00
4.130000000000000000e+03 6.120868682861328125e+01 3.224408864974975586e+00 -5.561344027519226074e-01 7.131232261657714844e+00 1.972529411315917969e+00 -3.578351438045501709e-01
4.131000000000000000e+03 5.444199752807617188e+01 -5.687387943267822266e+00 -3.637549877166748047e-01 5.729983806610107422e+00 1.609868645668029785e+00 -2.175208181142807007e-02
4.132000000000000000e+03 3.627034759521484375e+01 1.393164062500000000e+01 3.692505657672882080e-01 1.458550095558166504e+00 5.483402013778686523e-01 4.158870875835418701e-01
4.133000000000000000e+03 4.468835830688476562e+01 2.175926589965820312e+01 9.714894294738769531e-01 2.902980566024780273e+00 1.162340998649597168e+00 1.659629583358764648e+00
4.134000000000000000e+03 5.878566360473632812e+01 1.514115238189697266e+01 -7.902696728706359863e-01 8.123847007751464844e+00 2.200073242187500000e+00 -3.363872468471527100e-01
4.135000000000000000e+03 4.532976150512695312e+01 2.160365676879882812e+01 9.164921641349792480e-01 3.293589830398559570e+00 1.263024568557739258e+00 1.797934770584106445e+00
4.136000000000000000e+03 3.710164642333984375e+01 2.386147499084472656e+01 5.134060978889465332e-01 5.501489639282226562e-01 3.190665245056152344e-01 1.745361648499965668e-02
4.137000000000000000e+03 6.119500350952148438e+01 -2.459180593490600586e+00 -4.072960317134857178e-01 6.885528564453125000e+00 1.943469762802124023e+00 -2.678861320018768311e-01
4.138000000000000000e+03 4.337941360473632812e+01 2.304047966003417969e+01 1.102912664413452148e+00 1.980711936950683594e+00 9.250873923301696777e-01 1.302259802818298340e+00
4.139000000000000000e+03 6.246061706542968750e+01 1.148686981201171875e+01 -6.723349690437316895e-01 7.831053733825683594e+00 2.147615671157836914e+00 -6.855857968330383301e-01
4.140000000000000000e+03 4.455599594116210938e+01 2.105934715270996094e+01 8.686972260475158691e-01 3.007140874862670898e+00 1.162751436233520508e+00 1.588532328605651855e+00
4.141000000000000000e+03 6.382782363891601562e+01 1.106234073638916016e+01 -6.049957871437072754e-01 7.820038318634033203e+00 2.164512872695922852e+00 -7.764389514923095703e-01
4.142000000000000000e+03 4.681721115112304688e+01 1.824247241020202637e+00 -3.203437626361846924e-01 4.428753376007080078e+00 1.232522845268249512e+00 3.764510154724121094e-01
4.143000000000000000e+03 4.788545608520507812e+01 1.301887273788452148e+00 -3.550043404102325439e-01 4.628097534179687500e+00 1.281927943229675293e+00 3.207735419273376465e-01
4.144000000000000000e+03 5.701849746704101562e+01 1.541864109039306641e+01 -8.075414299964904785e-01 7.988331794738769531e+00 2.154237270355224609e+00 -1.823660358786582947e-02
4.145000000000000000e+03 5.782419204711914062e+01 1.470198822021484375e+01 -8.077260851860046387e-01 7.963597774505615234e+00 2.146761417388916016e+00 -1.708532720804214478e-01
4.146000000000000000e+03 5.690946197509765625e+01 1.467593574523925781e+01 -8.107720613479614258e-01 7.832423686981201172e+00 2.106495618820190430e+00 1.018172595649957657e-02
4.147000000000000000e+03 4.317244338989257812e+01 2.173290634155273438e+01 9.518098831176757812e-01 2.228579282760620117e+00 9.541167616844177246e-01 1.261365771293640137e+00
4.148000000000000000e+03 6.187535476684570312e+01 1.003310775756835938e+01 -6.697657108306884766e-01 7.681438446044921875e+00 2.103501796722412109e+00 -5.921030044555664062e-01
4.149000000000000000e+03 3.724190902709960938e+01 1.453781414031982422e+01 4.213109314441680908e-01 1.628343820571899414e+00 6.148964166641235352e-01 4.986451864242553711e-01
4.150000000000000000e+03 5.637301254272460938e+01 1.561283779144287109e+01 -8.034693598747253418e-01 7.929207801818847656e+00 2.137721538543701172e+00 1.116632595658302307e-01
4.151000000000000000e+03 4.041034317016601562e+01 1.060531616210937500e+01 1.560849547386169434e-01 2.708195209503173828e+00 8.592840433120727539e-01 6.714990139007568359e-01
4.152000000000000000e+03 5.153969955444335938e+01 1.362218856811523438e+01 -5.325495004653930664e-01 6.357930660247802734e+00 1.747614264488220215e+00 8.055462241172790527e-01
4.153000000000000000e+03 5.994637680053710938e+01 1.068193912506103516e+01 -7.473202347755432129e-01 7.608279705047607422e+00 2.058287858963012695e+00 -3.971687555313110352e-01
4.154000000000000000e+03 4.360083770751953125e+01 7.782238483428955078e+00 -9.629350900650024414e-02 3.678558111190795898e+00 1.074679374694824219e+00 6.583860516548156738e-01
4.155000000000000000e+03 5.290397262573242188e+01 1.401483345031738281e+01 -6.427702903747558594e-01 6.835956573486328125e+00 1.857955932617187500e+00 6.542540788650512695e-01
4.156000000000000000e+03 4.317743682861328125e+01 2.024774932861328125e+01 8.136646151542663574e-01 2.561280250549316406e+00 1.012483477592468262e+00 1.264566540718078613e+00
4.157000000000000000e+03 5.480329132080078125e+01 2.549336194992065430e+00 -5.411438345909118652e-01 6.135089874267578125e+00 1.678183794021606445e+00 4.256611317396163940e-02
4.158000000000000000e+03 5.721355438232421875e+01 9.418533325195312500e+00 -7.329562902450561523e-01 7.138852119445800781e+00 1.921768784523010254e+00 -9.308016300201416016e-02
4.159000000000000000e+03 5.679165649414062500e+01 1.085900497436523438e+01 -7.620118856430053711e-01 7.223922252655029297e+00 1.938573122024536133e+00 -5.093611776828765869e-03
4.160000000000000000e+03 5.729066085815429688e+01 1.202278709411621094e+01 -7.799124121665954590e-01 7.487900733947753906e+00 2.012396574020385742e+00 -8.874841034412384033e-02
4.161000000000000000e+03 4.951856231689453125e+01 1.392570972442626953e+00 -4.068408012390136719e-01 5.031157970428466797e+00 1.387295126914978027e+00 2.692315876483917236e-01
4.162000000000000000e+03 5.641594696044921875e+01 1.179423141479492188e+01 -7.659693360328674316e-01 7.288911819458007812e+00 1.956882834434509277e+00 3.893478587269783020e-02
4.163000000000000000e+03 5.360485839843750000e+01 6.961628437042236328e+00 -6.065285205841064453e-01 6.223159313201904297e+00 1.684989213943481445e+00 2.189451903104782104e-01
4.164000000000000000e+03 5.044079208374023438e+01 8.790390968322753906e+00 -4.826005101203918457e-01 5.627716541290283203e+00 1.543534755706787109e+00 5.457441210746765137e-01
4.165000000000000000e+03 5.196710968017578125e+01 6.163356781005859375e+00 -5.390211343765258789e-01 5.802006244659423828e+00 1.578895449638366699e+00 3.235264420509338379e-01
4.166000000000000000e+03 1.426702117919921875e+01 1.252673983573913574e+00 -6.118520832387730479e-05 -2.393766180830425583e-07 -1.842737401602789760e-05 -5.285547376843169332e-05
4.167000000000000000e+03 1.462149238586425781e+01 1.164639949798583984e+00 1.533269096398726106e-04 1.617200541659258306e-05 5.084967779112048447e-05 -1.976273415493778884e-05
4.168000000000000000e+03 1.332876110076904297e+01 1.093653082847595215e+00 -1.835819603002164513e-05 -2.782978299364913255e-05 -1.385639370710123330e-05 -2.036926161963492632e-05
4.169000000000000000e+03 1.406522464752197266e+01 3.572364747524261475e-01 -1.807145781640429050e-05 -1.760616396495606750e-05 -1.070328653440810740e-05 -2.101834297718596645e-06
4.170000000000000000e+03 1.336003494262695312e+01 3.511472940444946289e-01 8.233712833316531032e-06 2.920486804214306176e-05 1.123157471738522872e-05 8.246696779679041356e-06
4.171000000000000000e+03 1.476313018798828125e+01 5.016638040542602539e-01 7.244793778227176517e-06 9.561891602061223239e-06 5.042005341238109395e-06 4.389160494611132890e-06
4.172000000000000000e+03 1.414069938659667969e+01 9.322270154953002930e-01 9.133392450166866183e-05 -2.982223486469592899e-05 1.845350561779923737e-05 4.229355909046716988e-05
4.173000000000000000e+03 1.384797477722167969e+01 1.187353014945983887e+00 1.396236439177300781e-05 8.846199307299684733e-06 6.842568836873397231e-06 2.086746280838269740e-05
4.174000000000000000e+03 1.112969017028808594e+01 3.708996772766113281e-01 -1.195720687974244356e-05 -2.251111072837375104e-05 -1.034049546433379874e-05 5.570258508669212461e-06
4.175000000000000000e+03 1.113907623291015625e+01 1.110847473144531250e+00 3.892527456628158689e-05 1.603502641955856234e-05 1.648809120524674654e-05 -1.512431117589585483e-05
4.176000000000000000e+03 1.263169097900390625e+01 3.451149165630340576e-01 -8.992636139737442136e-06 -3.563840073184110224e-05 -1.338931087957462296e-05 -2.346999679048167309e-07
4.177000000000000000e+03 1.037880802154541016e+01 3.837110698223114014e-01 1.350778711639577523e-05 1.379484820063225925e-05 8.190790140361059457e-06 -3.966881649830611423e-06
4.178000000000000000e+03 1.188065242767333984e+01 3.580341637134552002e-01 1.033508942782646045e-05 3.172722063027322292e-05 1.261869329027831554e-05 -4.138310941925738007e-06
4.179000000000000000e+03 1.264514160156250000e+01 1.084993243217468262e+00 2.029851566476281732e-05 2.816367668856400996e-05 1.453865752409910783e-05 -8.486784963679383509e-07
4.180000000000000000e+03 1.038616180419921875e+01 1.123693704605102539e+00 -4.238807377987541258e-05 -1.268345386051805690e-05 -1.652145874686539173e-05 8.851590791891794652e-06
4.181000000000000000e+03 1.189207077026367188e+01 1.097947120666503906e+00 -2.862153087335173041e-05 -2.369086178077850491e-05 -1.569371852383483201e-05 1.417078965459950268e-05
4.182000000000000000e+03 9.625078201293945312e+00 3.871397972106933594e-01 -1.375470765196951106e-05 -1.024430548568489030e-05 -7.199703759397380054e-06 2.555596267939108657e-07
4.183000000000000000e+03 8.868724822998046875e+00 3.828192353248596191e-01 1.363597311865305528e-05 1.270229040528647602e-05 7.901478966232389212e-06 2.645979520821128972e-06
4.184000000000000000e+03 9.644926071166992188e+00 1.127139806747436523e+00 4.337489008321426809e-05 1.335012984782224521e-05 1.701750625215936452e-05 -5.729478971261414699e-07
4.185000000000000000e+03 8.112174034118652344e+00 3.804100155830383301e-01 -1.356817210762528703e-05 -1.832738234952557832e-05 -9.568666428094729781e-06 -4.574537342705298215e-06
4.186000000000000000e+03 7.356014251708984375e+00 3.793691694736480713e-01 1.358597364742308855e-05 2.446342659823130816e-05 1.141481970989843830e-05 5.580084689427167177e-06
4.187000000000000000e+03 5.843623161315917969e+00 3.767499327659606934e-01 1.278788658964913338e-05 2.822140231728553772e-05 1.230278667208040133e-05 3.729584022948984057e-06
4.188000000000000000e+03 5.088051319122314453e+00 3.757717311382293701e-01 -9.903402315103448927e-06 -2.237586704723071307e-05 -9.683781172498129308e-06 2.808863257541815983e-07
4.189000000000000000e+03 3.576755046844482422e+00 3.680583238601684570e-01 -1.297475319006480277e-05 -3.152438694087322801e-06 -4.838157565245637670e-06 3.732397090061567724e-06
4.190000000000000000e+03 2.822042465209960938e+00 3.613462746143341064e-01 1.862782301031984389e-05 4.669114161970355781e-07 5.728420546802226454e-06 -2.368177689504591399e-07
4.191000000000000000e+03 2.068703651428222656e+00 3.577998280525207520e-01 -1.375563533656531945e-05 -2.238391971332021058e-06 -4.798208465217612684e-06 -8.405010589740413707e-07
4.192000000000000000e+03 2.358754634857177734e+00 1.097799897193908691e+00 4.254265877534635365e-05 8.433957191300578415e-06 1.529298424429725856e-05 6.026065420883242041e-06
4.193000000000000000e+03 1.327708005905151367e+00 3.658417165279388428e-01 1.358858298772247508e-06 -3.103694552919478156e-06 -5.234509217189042829e-07 -1.003791385301155970e-05
4.194000000000000000e+03 1.644779324531555176e+00 1.105841755867004395e+00 -2.201479401264805347e-05 -2.568342824815772474e-05 -1.430946667824173346e-05 -4.350367817096412182e-06
4.195000000000000000e+03 6.509408354759216309e-01 3.937322795391082764e-01 4.226191958878189325e-05 3.433101301197893918e-05 2.297787978022824973e-05 4.724685641122050583e-05
4.196000000000000000e+03 3.482567369937896729e-01 9.569563269615173340e-01 -6.741008110111579299e-05 -4.329623334342613816e-05 -3.321189433336257935e-05 -1.353683819615980610e-05
4.197000000000000000e+03 3.085073232650756836e+00 1.101346254348754883e+00 -4.782238465850241482e-05 -5.180224434297997504e-06 -1.590078318258747458e-05 1.062728074430197012e-06
4.198000000000000000e+03 3.812765598297119141e+00 1.108058333396911621e+00 4.108559005544520915e-05 1.085633448383305222e-05 1.558257645228877664e-05 -1.007343325909459963e-05
4.199000000000000000e+03 4.332499980926513672e+00 3.732680678367614746e-01 1.240541496372316033e-05 1.212018742080545053e-05 7.357680715358583257e-06 -3.456531203482882120e-06
4.200000000000000000e+03 5.998572826385498047e+00 1.116749882698059082e+00 -3.069594094995409250e-05 -2.489099279046058655e-05 -1.667608012212440372e-05 2.351360706143168500e-07
4.201000000000000000e+03 6.600036144256591797e+00 3.784387111663818359e-01 -1.289760530198691413e-05 -2.836763451341539621e-05 -1.237957167177228257e-05 -5.285717634251341224e-06
4.202000000000000000e+03 8.186062812805175781e+00 1.120409965515136719e+00 3.850561552098952234e-05 1.914231688715517521e-05 1.729438008624128997e-05 8.438959412160329521e-06
4.203000000000000000e+03 8.915593147277832031e+00 1.122819185256958008e+00 -4.055597673868760467e-05 -1.569295636727474630e-05 -1.687467920419294387e-05 -5.681081347574945539e-06
4.204000000000000000e+03 7.456923484802246094e+00 1.119369149208068848e+00 -3.668923454824835062e-05 -2.219513953605201095e-05 -1.766531204339116812e-05 -8.031231118366122246e-06
4.205000000000000000e+03 6.727965354919433594e+00 1.118438720703125000e+00 3.444642788963392377e-05 2.458419294271152467e-05 1.770918606780469418e-05 5.603019872069125995e-06
4.206000000000000000e+03 5.270021438598632812e+00 1.115771770477294922e+00 2.839427543221972883e-05 2.364010833844076842e-05 1.561031604069285095e-05 -6.093418960517738014e-06
4.207000000000000000e+03 4.541490077972412109e+00 1.113268017768859863e+00 -3.010198270203545690e-05 -1.918315683724358678e-05 -1.478554167988477275e-05 1.182891537609975785e-05
4.208000000000000000e+03 9.950323700904846191e-01 1.133732318878173828e+00 -1.415311999153345823e-05 6.456507981056347489e-05 1.512358903710264713e-05 -1.977950523723848164e-05
4.209000000000000000e+03 7.951600551605224609e+00 -3.791473805904388428e-01 -2.509306250431109220e-05 -1.147262883023358881e-04 -4.194580469629727304e-05 2.779239184746984392e-05
4.210000000000000000e+03 8.812386512756347656e+00 -1.121279358863830566e+00 -6.417595432139933109e-05 -5.230942042544484138e-05 -3.494560951367020607e-05 3.347989331814460456e-05
4.211000000000000000e+03 9.587816238403320312e+00 -3.863115906715393066e-01 -1.964076363947242498e-05 -7.896168972365558147e-05 -2.958073673653416336e-05 1.330085433437488973e-05
4.212000000000000000e+03 7.132064342498779297e+00 -3.779651820659637451e-01 3.532101618475280702e-05 1.392551930621266365e-04 5.237286313786171377e-05 -3.891665619448758662e-05
4.213000000000000000e+03 6.306247234344482422e+00 -3.772793114185333252e-01 -2.934926851594354957e-05 -1.663890579948201776e-04 -5.872149631613865495e-05 4.744484613183885813e-05
4.214000000000000000e+03 5.442752361297607422e+00 -3.835102021694183350e-01 -1.799466372176539153e-05 1.640885748201981187e-04 4.382817496662028134e-05 -1.009537845675367862e-05
4.215000000000000000e+03 4.552286148071289062e+00 -3.399353623390197754e-01 -3.092364568146876991e-05 -1.557791692903265357e-04 -5.601084558293223381e-05 -1.806180625862907618e-05
4.216000000000000000e+03 4.371328830718994141e+00 -8.708365559577941895e-01 2.991086512338370085e-04 1.418646716047078371e-04 1.322919997619464993e-04 1.751935051288455725e-04
4.217000000000000000e+03 2.785328388214111328e+00 -7.796061038970947266e-01 6.438637501560151577e-05 -1.244053128175437450e-04 -1.800568315957207233e-05 2.468316233716905117e-04
4.218000000000000000e+03 1.180722951889038086e+00 -3.608860373497009277e-01 -1.889831328298896551e-04 1.075567997759208083e-04 -2.442790173518005759e-05 -1.695885657682083547e-05
4.219000000000000000e+03 4.099212884902954102e-01 -5.526853203773498535e-01 -2.094935916829854250e-05 -9.335819777334108949e-05 -3.429226853768341243e-05 -5.380438597057946026e-05
4.220000000000000000e+03 7.477942705154418945e-01 -1.100885987281799316e+00 6.332867196761071682e-04 1.369816600345075130e-04 2.310805139131844044e-04 1.686022878857329488e-04
4.221000000000000000e+03 9.597747802734375000e+00 -1.126311540603637695e+00 6.366312300087884068e-05 5.284031794872134924e-05 3.495103374007157981e-05 -3.139243199257180095e-05
4.222000000000000000e+03 8.026608467102050781e+00 -1.119147419929504395e+00 7.110029400791972876e-05 4.541481030173599720e-05 3.495452983770519495e-05 -3.563138670870102942e-05
4.223000000000000000e+03 7.239610195159912109e+00 -1.117965221405029297e+00 -7.143212860682979226e-05 -2.754533852566964924e-05 -2.969323941215407103e-05 3.283721162006258965e-05
4.224000000000000000e+03 6.446331024169921875e+00 -1.117279291152954102e+00 4.736955088446848094e-05 -1.527141102997120470e-05 9.629442502046003938e-06 -9.483730536885559559e-06
4.225000000000000000e+03 5.615375041961669922e+00 -1.123510241508483887e+00 5.140360735822468996e-05 4.608940071193501353e-05 2.924790169345214963e-05 -2.319829218322411180e-05
4.226000000000000000e+03 4.879715442657470703e+00 -1.221276640892028809e+00 -2.120157005265355110e-04 -2.164302131859585643e-04 -1.285337784793227911e-04 -8.713824354344978929e-05
4.227000000000000000e+03 4.223337173461914062e+00 -1.290901184082031250e+00 -1.426785311195999384e-04 2.131298388121649623e-04 2.113539449055679142e-05 -3.278215444879606366e-05
4.228000000000000000e+03 3.489140987396240234e+00 -1.263193726539611816e+00 1.435608573956415057e-04 -8.404936670558527112e-05 1.785344647942110896e-05 1.771708193700760603e-04
4.229000000000000000e+03 2.723763942718505859e+00 -1.258556365966796875e+00 1.675367275311145931e-05 -1.070450161932967603e-04 -2.708740430534817278e-05 -2.341711369808763266e-04
4.230000000000000000e+03 1.357383847236633301e+00 -1.202877521514892578e+00 -6.014609243720769882e-04 -3.513406554702669382e-04 -2.858404768630862236e-04 -9.520120511297136545e-05
4.231000000000000000e+03 8.769917488098144531e+00 -3.812793791294097900e-01 2.614574805193115026e-05 9.490384400123730302e-05 3.631487561506219208e-05 -1.975943632714916021e-05
4.232000000000000000e+03 3.581377506256103516e+00 -7.854385375976562500e-01 -1.081162336049601436e-04 -5.085910379420965910e-05 -4.769259976455941796e-05 -1.772539544617757201e-04
4.233000000000000000e+03 3.695749998092651367e+00 -2.822447717189788818e-01 8.437430551566649228e-06 1.478692283853888512e-04 4.689199704444035888e-05 4.940036888001486659e-05
4.234000000000000000e+03 2.864297151565551758e+00 -2.810497581958770752e-01 -7.490069401683285832e-05 -1.068171477527357638e-04 -5.451535253087058663e-05 -6.036330159986391664e-05
4.235000000000000000e+03 1.994235515594482422e+00 -3.319245874881744385e-01 -1.113701091526309028e-05 1.835329749155789614e-05 2.164885927413706668e-06 9.293760376749560237e-05
4.236000000000000000e+03 1.981270551681518555e+00 -1.274680376052856445e+00 -3.332372898512403481e-06 3.554319555405527353e-04 1.056298788171261549e-04 1.808970409911125898e-04
4.237000000000000000e+03 1.973554253578186035e+00 -8.466050028800964355e-01 3.234664909541606903e-04 1.879226329037919641e-04 1.534167386125773191e-04 -3.393784572836011648e-04
4.238000000000000000e+03 1.332448291778564453e+01 -3.621845245361328125e-01 1.086767861124826595e-05 4.587561852531507611e-05 1.702298868622165173e-05 8.185336810129228979e-06
4.239000000000000000e+03 1.426397991180419922e+01 -1.317608714103698730e+00 -3.798833131440915167e-05 -3.545092476997524500e-05 -2.203177609771955758e-05 1.373599843645934016e-05
4.240000000000000000e+03 1.327361392974853516e+01 -1.248556852340698242e+00 -1.665862073423340917e-04 -1.964433431567158550e-05 -5.586916086031123996e-05 7.411278784275054932e-05
4.241000000000000000e+03 1.480296707153320312e+01 -1.047354817390441895e+00 1.736049284772889223e-06 1.218042712025635410e-06 8.862276104082411621e-07 -1.575675196363590658e-05
4.242000000000000000e+03 1.356446647644042969e+01 -7.579438090324401855e-01 1.156702346634119749e-04 2.770319952105637640e-05 4.301203080103732646e-05 -4.822397022508084774e-05
4.243000000000000000e+03 1.393659019470214844e+01 -3.302382230758666992e-01 -2.542882793932221830e-05 -4.383318446343764663e-05 -2.077860335703007877e-05 1.316821453656302765e-05
4.244000000000000000e+03 1.449034786224365234e+01 -4.399540424346923828e-01 3.473580727586522698e-05 1.531500129203777760e-05 1.501524275226984173e-05 5.367111953091807663e-06
4.245000000000000000e+03 1.380024147033691406e+01 -1.352263331413269043e+00 1.652913633733987808e-04 1.561448698339518160e-05 5.427175710792653263e-05 -4.677442120737396181e-05
4.246000000000000000e+03 1.402595424652099609e+01 -9.610455632209777832e-01 -9.518119622953236103e-05 -2.482417403371073306e-05 -3.600160925998352468e-05 3.633083179011009634e-05
4.247000000000000000e+03 1.185737037658691406e+01 -1.162281751632690430e+00 -4.005752998637035489e-05 -5.973469887976534665e-05 -2.993766793224494904e-05 2.907213456637691706e-05
4.248000000000000000e+03 1.112013435363769531e+01 -4.102526009082794189e-01 -1.697483821772038937e-05 -6.020528962835669518e-05 -2.315403799002524465e-05 8.525896191713400185e-06
4.249000000000000000e+03 1.261753940582275391e+01 -4.348734915256500244e-01 -3.051262319786474109e-05 -3.458348510321229696e-05 -1.952883212652523071e-05 5.700286237697582692e-06
4.250000000000000000e+03 1.037124824523925781e+01 -3.971002995967864990e-01 2.039034916379023343e-05 7.166316208895295858e-05 2.761605355772189796e-05 -1.072164377546869218e-05
4.251000000000000000e+03 1.036389350891113281e+01 -1.137082934379577637e+00 -6.127902452135458589e-05 -5.657787187374196947e-05 -3.535706855473108590e-05 2.464981844241265208e-05
4.252000000000000000e+03 1.260408973693847656e+01 -1.174751639366149902e+00 7.387936057057231665e-05 4.514791362453252077e-05 3.570818444131873548e-05 -3.578729592845775187e-05
4.253000000000000000e+03 1.111074829101562500e+01 -1.150200366973876953e+00 4.921279833070002496e-05 5.737394167226739228e-05 3.197602200089022517e-05 -2.452679109410382807e-05
4.254000000000000000e+03 1.186878871917724609e+01 -4.223687946796417236e-01 1.235030686075333506e-05 4.597491715685464442e-05 1.749756665958557278e-05 -1.379035802528960630e-05
4.255000000000000000e+03 5.181042480468750000e+01 3.177971839904785156e+01 3.553500366210937500e+01 3.734111785888671875e+00 1.178073501586914062e+01 8.695518493652343750e+00
4.256000000000000000e+03 5.181172943115234375e+01 3.176029396057128906e+01 3.602993774414062500e+01 1.329760646820068359e+01 1.479826354980468750e+01 2.183457565307617188e+01
4.257000000000000000e+03 5.181679153442382812e+01 3.174149513244628906e+01 3.490738677978515625e+01 2.441129112243652344e+01 1.779560279846191406e+01 2.758824729919433594e+01
4.258000000000000000e+03 5.182541656494140625e+01 3.172404289245605469e+01 3.167847061157226562e+01 3.681804275512695312e+01 2.054895401000976562e+01 3.078135871887207031e+01
4.259000000000000000e+03 5.183727264404296875e+01 3.170860099792480469e+01 2.793420410156250000e+01 4.885314559936523438e+01 2.303620338439941406e+01 3.084282112121582031e+01
4.260000000000000000e+03 5.185190963745117188e+01 3.169576454162597656e+01 2.385992813110351562e+01 5.985514068603515625e+01 2.511452102661132812e+01 2.816521835327148438e+01
4.261000000000000000e+03 5.186876678466796875e+01 3.168602371215820312e+01 2.078019523620605469e+01 6.887532043457031250e+01 2.689665603637695312e+01 2.302900123596191406e+01
4.262000000000000000e+03 5.188719558715820312e+01 3.167975044250488281e+01 1.900710296630859375e+01 7.484288787841796875e+01 2.815499687194824219e+01 1.630863952636718750e+01
4.263000000000000000e+03 5.190649414062500000e+01 3.167718505859375000e+01 1.937745475769042969e+01 7.763360595703125000e+01 2.910331916809082031e+01 8.844730377197265625e+00
4.264000000000000000e+03 5.192592239379882812e+01 3.167842674255371094e+01 2.172365379333496094e+01 7.722097778320312500e+01 2.968338966369628906e+01 1.949830412864685059e+00
4.265000000000000000e+03 5.194473648071289062e+01 3.168342590332031250e+01 2.598686790466308594e+01 7.413594055175781250e+01 3.003684234619140625e+01 -3.855194807052612305e+00
4.266000000000000000e+03 5.196221923828125000e+01 3.169199180603027344e+01 3.073691940307617188e+01 6.932794952392578125e+01 3.001946067810058594e+01 -7.521274566650390625e+00
4.267000000000000000e+03 5.197769927978515625e+01 3.170379829406738281e+01 3.618471908569335938e+01 6.379655838012695312e+01 2.999438285827636719e+01 -9.017544746398925781e+00
4.268000000000000000e+03 5.199058532714843750e+01 3.171839332580566406e+01 4.154584121704101562e+01 5.878408813476562500e+01 3.009897804260253906e+01 -8.284760475158691406e+00
4.269000000000000000e+03 5.200038146972656250e+01 3.173521614074707031e+01 4.504808425903320312e+01 5.341592025756835938e+01 2.953919982910156250e+01 -6.186550617218017578e+00
4.270000000000000000e+03 5.200671768188476562e+01 3.175362396240234375e+01 4.806389617919921875e+01 5.160263061523437500e+01 2.989995765686035156e+01 -2.691621541976928711e+00
4.271000000000000000e+03 5.200934600830078125e+01 3.177291488647460938e+01 4.923757171630859375e+01 4.997493362426757812e+01 2.976375198364257812e+01 2.041949272155761719e+00
4.272000000000000000e+03 5.200817108154296875e+01 3.179234695434570312e+01 4.862810897827148438e+01 5.027466964721679688e+01 2.967083358764648438e+01 6.235803127288818359e+00
4.273000000000000000e+03 5.200323486328125000e+01 3.181117820739746094e+01 4.663711547851562500e+01 5.344923782348632812e+01 3.002590560913085938e+01 1.032534313201904297e+01
4.274000000000000000e+03 5.199472427368164062e+01 3.182868957519531250e+01 4.262802886962890625e+01 5.772330474853515625e+01 3.010540008544921875e+01 1.350758647918701172e+01
4.275000000000000000e+03 5.198297119140625000e+01 3.184420776367187500e+01 3.723370361328125000e+01 6.298885726928710938e+01 3.006676864624023438e+01 1.503747653961181641e+01
4.276000000000000000e+03 5.196841812133789062e+01 3.185714149475097656e+01 3.141684150695800781e+01 6.909271240234375000e+01 3.015286636352539062e+01 1.429340267181396484e+01
4.277000000000000000e+03 5.195162963867187500e+01 3.186699485778808594e+01 2.508083534240722656e+01 7.469427490234375000e+01 2.993253135681152344e+01 1.117527961730957031e+01
4.278000000000000000e+03 5.193324279785156250e+01 3.187339210510253906e+01 1.932683372497558594e+01 7.839273834228515625e+01 2.931587028503417969e+01 5.982666015625000000e+00
4.279000000000000000e+03 5.191395950317382812e+01 3.187608528137207031e+01 1.556031894683837891e+01 7.982819366455078125e+01 2.861655426025390625e+01 -1.029018998146057129e+00
4.280000000000000000e+03 5.189452362060546875e+01 3.187497329711914062e+01 1.337923240661621094e+01 7.784992218017578125e+01 2.736874580383300781e+01 -8.845921516418457031e+00
4.281000000000000000e+03 5.187567520141601562e+01 3.187010002136230469e+01 1.338872051239013672e+01 7.246903991699218750e+01 2.575732803344726562e+01 -1.635118865966796875e+01
4.282000000000000000e+03 5.185813903808593750e+01 3.186165046691894531e+01 1.546817493438720703e+01 6.399394226074218750e+01 2.383863639831542969e+01 -2.251694869995117188e+01
4.283000000000000000e+03 5.184257888793945312e+01 3.184994697570800781e+01 1.847916603088378906e+01 5.285405349731445312e+01 2.139996528625488281e+01 -2.655772972106933594e+01
4.284000000000000000e+03 5.182959747314453125e+01 3.183543968200683594e+01 2.279566001892089844e+01 4.004327774047851562e+01 1.885168075561523438e+01 -2.766801261901855469e+01
4.285000000000000000e+03 5.181968688964843750e+01 3.181868171691894531e+01 2.633956146240234375e+01 2.639229202270507812e+01 1.581955623626708984e+01 -2.569395828247070312e+01
4.286000000000000000e+03 5.181323242187500000e+01 3.180031585693359375e+01 3.228470611572265625e+01 1.086941909790039062e+01 1.294623756408691406e+01 -1.647546195983886719e+01
