# el_label, x, y, sXX, sYY, sZZ, sXY
1.000000000000000000e+00 1.114653110504150391e+01 1.993262022733688354e-01 -1.762810707092285156e+00 -1.592072397470474243e-01 -5.766053795814514160e-01 5.343894362449645996e-01
2.000000000000000000e+00 1.121876430511474609e+01 9.378392100334167480e-01 -7.900303006172180176e-01 -3.503116071224212646e-01 -3.421025872230529785e-01 6.287872791290283203e-01
3.000000000000000000e+00 1.040455722808837891e+01 3.265222907066345215e-01 -1.415367364883422852e+00 -1.541737765073776245e-01 -4.708623588085174561e-01 3.816803991794586182e-01
4.000000000000000000e+00 1.188854217529296875e+01 7.071893662214279175e-02 -2.268975973129272461e+00 -2.228075712919235229e-01 -7.475350499153137207e-01 6.947824358940124512e-01
5.000000000000000000e+00 1.271423625946044922e+01 6.772393584251403809e-01 -9.346035718917846680e-01 -2.822487056255340576e-01 -3.650556802749633789e-01 8.817136287689208984e-01
6.000000000000000000e+00 1.263056278228759766e+01 -5.929099395871162415e-02 -2.850014448165893555e+00 -1.236898228526115417e-01 -8.921112418174743652e-01 7.924328446388244629e-01
7.000000000000000000e+00 1.047107124328613281e+01 1.066026568412780762e+00 -6.715549826622009277e-01 -2.946479320526123047e-01 -2.898608744144439697e-01 4.872723221778869629e-01
8.000000000000000000e+00 1.196649551391601562e+01 8.082405924797058105e-01 -8.132936358451843262e-01 -3.177877068519592285e-01 -3.393244147300720215e-01 7.304953336715698242e-01
9.000000000000000000e+00 9.729189872741699219e+00 1.127164006233215332e+00 -6.004267930984497070e-01 -2.094685286283493042e-01 -2.429685890674591064e-01 4.168559908866882324e-01
1.000000000000000000e+01 8.895327568054199219e+00 3.831142485141754150e-01 -7.415561676025390625e-01 -1.692355796694755554e-02 -2.275439202785491943e-01 1.140182539820671082e-01
1.100000000000000000e+01 8.136641502380371094e+00 3.810497522354125977e-01 -5.441790223121643066e-01 -1.751974970102310181e-02 -1.685096472501754761e-01 7.718006521463394165e-02
1.200000000000000000e+01 6.620836257934570312e+00 3.807873129844665527e-01 -2.986865043640136719e-01 -9.087664075195789337e-03 -9.233224391937255859e-02 4.362807422876358032e-02
1.300000000000000000e+01 5.863287925720214844e+00 3.776997327804565430e-01 -2.166582942008972168e-01 -9.108012309297919273e-04 -6.527072936296463013e-02 3.507310524582862854e-02
1.400000000000000000e+01 5.318057060241699219e+00 1.113143682479858398e+00 -1.581570506095886230e-01 -1.287842635065317154e-02 -5.131064355373382568e-02 8.237909525632858276e-02
1.500000000000000000e+01 4.347108364105224609e+00 3.710222244262695312e-01 -1.000530570745468140e-01 -2.573794336058199406e-04 -3.009313158690929413e-02 2.218775637447834015e-02
1.600000000000000000e+01 2.831648826599121094e+00 3.605549633502960205e-01 -2.892281860113143921e-02 -1.153931254521012306e-03 -9.023024700582027435e-03 1.230015605688095093e-02
1.700000000000000000e+01 2.076205492019653320e+00 3.576604425907135010e-01 -9.795648045837879181e-03 -3.007991705089807510e-03 -3.841092111542820930e-03 6.623958237469196320e-03
1.800000000000000000e+01 2.380630016326904297e+00 1.097660422325134277e+00 -3.013319149613380432e-02 -1.078374125063419342e-02 -1.227507926523685455e-02 2.735896222293376923e-02
1.900000000000000000e+01 1.660435199737548828e+00 1.106024146080017090e+00 -1.435993146151304245e-02 -1.186950691044330597e-02 -7.868831977248191833e-03 1.509248651564121246e-02
2.000000000000000000e+01 3.527803719043731689e-01 9.533014893531799316e-01 1.612135019968263805e-05 -3.847297921311110258e-04 -1.105825285776518285e-04 1.143385889008641243e-03
2.100000000000000000e+01 1.333080053329467773e+00 3.660241663455963135e-01 -1.247964450158178806e-03 -1.352117047645151615e-03 -7.800244493409991264e-04 2.576441736891865730e-03
2.200000000000000000e+01 3.113142728805541992e+00 1.100554943084716797e+00 -5.237468332052230835e-02 -1.169444993138313293e-02 -1.922073960304260254e-02 3.999807313084602356e-02
2.300000000000000000e+01 3.588813781738281250e+00 3.676732182502746582e-01 -5.958889797329902649e-02 -3.669357392936944962e-03 -1.897747628390789032e-02 1.659663207828998566e-02
2.400000000000000000e+01 5.105354309082031250e+00 3.731436431407928467e-01 -1.522726267576217651e-01 -5.511007271707057953e-03 -4.733509197831153870e-02 2.672665566205978394e-02
2.500000000000000000e+01 6.053060054779052734e+00 1.117699742317199707e+00 -2.105571329593658447e-01 -2.217316254973411560e-02 -6.981909275054931641e-02 1.023348867893218994e-01
2.600000000000000000e+01 7.522262096405029297e+00 1.121038198471069336e+00 -3.507843613624572754e-01 -4.259660094976425171e-02 -1.180142909288406372e-01 1.640483886003494263e-01
2.700000000000000000e+01 7.378351211547851562e+00 3.810381293296813965e-01 -4.034398794174194336e-01 -3.069326281547546387e-03 -1.219527572393417358e-01 5.793345719575881958e-02
2.800000000000000000e+01 8.257620811462402344e+00 1.121049761772155762e+00 -4.452260732650756836e-01 -5.340084806084632874e-02 -1.495880782604217529e-01 2.159736454486846924e-01
2.900000000000000000e+01 8.993377685546875000e+00 1.123114228248596191e+00 -5.624253749847412109e-01 -1.143413558602333069e-01 -2.030300199985504150e-01 3.049135506153106689e-01
3.000000000000000000e+01 9.654070854187011719e+00 3.871639966964721680e-01 -1.074300646781921387e+00 -8.408398926258087158e-02 -3.475153744220733643e-01 2.125499993562698364e-01
3.100000000000000000e+01 1.005846381187438965e+00 1.130276560783386230e+00 -4.847708158195018768e-03 -8.960959501564502716e-03 -4.142600111663341522e-03 6.334248464554548264e-03
3.200000000000000000e+01 6.555606126785278320e-01 3.902765512466430664e-01 -9.364868164993822575e-04 -1.445966423489153385e-03 -7.147360011003911495e-04 -6.495997076854109764e-04
3.300000000000000000e+01 6.787677288055419922e+00 1.120787262916564941e+00 -2.733135223388671875e-01 -2.311432175338268280e-02 -8.892835676670074463e-02 1.281598657369613647e-01
3.400000000000000000e+01 4.582741260528564453e+00 1.111022233963012695e+00 -1.155471727252006531e-01 -1.421831268817186356e-02 -3.892964497208595276e-02 6.625465303659439087e-02
3.500000000000000000e+01 3.847377300262451172e+00 1.107673168182373047e+00 -8.071403950452804565e-02 -9.204677306115627289e-03 -2.697561681270599365e-02 5.275823548436164856e-02
3.600000000000000000e+01 9.574274063110351562e+00 -3.935540616512298584e-01 -2.954314649105072021e-01 6.231216248124837875e-03 -8.676008135080337524e-02 -1.103542186319828033e-02
3.700000000000000000e+01 8.789978027343750000e+00 -3.986168801784515381e-01 -2.642532289028167725e-01 2.906073117628693581e-03 -7.840415090322494507e-02 -2.109585702419281006e-02
3.800000000000000000e+01 8.686211585998535156e+00 -1.138616919517517090e+00 -2.585462033748626709e-01 1.245481777004897594e-03 -7.719021290540695190e-02 -6.376507133245468140e-02
3.900000000000000000e+01 8.006248474121093750e+00 -3.998050093650817871e-01 -2.202677577733993530e-01 -1.821184298023581505e-03 -6.662668287754058838e-02 -2.267308719456195831e-02
4.000000000000000000e+01 7.223060607910156250e+00 -3.997795581817626953e-01 -1.759219169616699219e-01 3.934096603188663721e-04 -5.265855416655540466e-02 -2.109995484352111816e-02
4.100000000000000000e+01 6.439927577972412109e+00 -4.006183743476867676e-01 -1.342544108629226685e-01 -2.076098695397377014e-03 -4.089915379881858826e-02 -1.970080286264419556e-02
4.200000000000000000e+01 5.657042503356933594e+00 -4.034312665462493896e-01 -9.685546904802322388e-02 -6.090953247621655464e-04 -2.923936955630779266e-02 -1.689517498016357422e-02
4.300000000000000000e+01 4.874185085296630859e+00 -4.075828790664672852e-01 -6.472475081682205200e-02 -1.996716950088739395e-03 -2.001644112169742584e-02 -1.444691140204668045e-02
4.400000000000000000e+01 4.091480255126953125e+00 -4.106692969799041748e-01 -3.860707208514213562e-02 -1.469453913159668446e-03 -1.202295813709497452e-02 -1.113265939056873322e-02
4.500000000000000000e+01 3.310033082962036133e+00 -4.133046567440032959e-01 -1.868373714387416840e-02 -2.007464645430445671e-03 -6.207360886037349701e-03 -7.651679217815399170e-03
4.600000000000000000e+01 2.531398296356201172e+00 -4.163123965263366699e-01 -5.957293789833784103e-03 -1.483640982769429684e-03 -2.232280327007174492e-03 -4.314478486776351929e-03
4.700000000000000000e+01 6.962535381317138672e-01 -1.126455783843994141e+00 -3.623979864642024040e-04 5.267642554827034473e-04 4.930988507112488151e-05 8.200473967008292675e-04
4.800000000000000000e+01 3.739950358867645264e-01 -5.643373131752014160e-01 3.632082371041178703e-04 1.093268743716180325e-03 4.369430826045572758e-04 6.101889885030686855e-04
4.900000000000000000e+01 9.497249603271484375e+00 -1.133554100990295410e+00 -3.255113959312438965e-01 1.764770224690437317e-02 -9.235910326242446899e-02 -6.037934124469757080e-02
5.000000000000000000e+01 7.875741004943847656e+00 -1.139804959297180176e+00 -2.127858400344848633e-01 -6.062433240003883839e-04 -6.401762366294860840e-02 -6.363907456398010254e-02
5.100000000000000000e+01 7.065812587738037109e+00 -1.139779567718505859e+00 -1.698306351900100708e-01 -5.516096018254756927e-03 -5.260401964187622070e-02 -5.996639281511306763e-02
5.200000000000000000e+01 6.255938053131103516e+00 -1.140618443489074707e+00 -1.319903135299682617e-01 -4.458738025277853012e-03 -4.093471542000770569e-02 -5.344310775399208069e-02
5.300000000000000000e+01 5.446311473846435547e+00 -1.143431305885314941e+00 -9.816340357065200806e-02 -7.063881494104862213e-03 -3.156818822026252747e-02 -4.677595198154449463e-02
5.400000000000000000e+01 4.636712551116943359e+00 -1.147582888603210449e+00 -6.971008330583572388e-02 -6.666478235274553299e-03 -2.291296981275081635e-02 -3.853839263319969177e-02
5.500000000000000000e+01 3.827266693115234375e+00 -1.150669336318969727e+00 -4.575791582465171814e-02 -7.966288365423679352e-03 -1.611725986003875732e-02 -2.959125488996505737e-02
5.600000000000000000e+01 3.019078254699707031e+00 -1.153304696083068848e+00 -2.811672538518905640e-02 -7.618131581693887711e-03 -1.072045695036649704e-02 -2.064301818609237671e-02
5.700000000000000000e+01 2.213702201843261719e+00 -1.156312346458435059e+00 -1.428985316306352615e-02 -7.042810786515474319e-03 -6.399799138307571411e-03 -1.080508530139923096e-02
5.800000000000000000e+01 1.420517802238464355e+00 -1.151062846183776855e+00 -7.324093487113714218e-03 -4.806229379028081894e-03 -3.639096859842538834e-03 -3.968317992985248566e-03
5.900000000000000000e+01 1.764955043792724609e+00 -4.110628962516784668e-01 8.933970821090042591e-04 -1.505278283730149269e-03 -1.835643779486417770e-04 -1.183243817649781704e-03
6.000000000000000000e+01 1.067432165145874023e+00 -3.864558041095733643e-01 1.741895684972405434e-03 -4.175408685114234686e-04 3.973064594902098179e-04 9.423118899576365948e-04
6.100000000000000000e+01 1.107046413421630859e+01 -5.791122317314147949e-01 -4.743171930313110352e-01 -2.794570988044142723e-03 -1.431335210800170898e-01 2.033624425530433655e-02
6.200000000000000000e+01 1.172848224639892578e+01 -1.444193720817565918e+00 -6.049326658248901367e-01 -1.528071123175323009e-03 -1.819382160902023315e-01 -1.235492676496505737e-01
6.300000000000000000e+01 1.026795482635498047e+01 -1.192459702491760254e+00 -4.001825451850891113e-01 1.708597131073474884e-02 -1.149289757013320923e-01 -7.267096638679504395e-02
6.400000000000000000e+01 1.245870399475097656e+01 -1.572161674499511719e+00 -7.179716229438781738e-01 -1.868958212435245514e-02 -2.209983468055725098e-01 -1.774686723947525024e-01
6.500000000000000000e+01 1.254237651824951172e+01 -8.356313705444335938e-01 -8.294610381126403809e-01 -1.879926398396492004e-02 -2.544780969619750977e-01 1.367589365690946579e-02
6.600000000000000000e+01 1.180643558502197266e+01 -7.066720724105834961e-01 -6.169024705886840820e-01 8.360701613128185272e-04 -1.848199218511581421e-01 2.655542641878128052e-02
6.700000000000000000e+01 1.099823093414306641e+01 -1.317625284194946289e+00 -4.854945540428161621e-01 1.925479434430599213e-02 -1.398719251155853271e-01 -9.107489883899688721e-02
6.800000000000000000e+01 1.033446884155273438e+01 -4.529553353786468506e-01 -3.593385815620422363e-01 1.112664490938186646e-02 -1.044635847210884094e-01 8.022425696253776550e-03
6.900000000000000000e+01 1.412816143035888672e+01 -9.967193007469177246e-01 -1.353570342063903809e+00 -3.176397830247879028e-02 -4.156002998352050781e-01 -1.051204726099967957e-01
7.000000000000000000e+01 1.524391746520996094e+01 -1.466321945190429688e+00 -1.671658277511596680e+00 -3.373956680297851562e-01 -6.027161478996276855e-01 -7.024334669113159180e-01
7.100000000000000000e+01 1.616965675354003906e+01 -1.725686669349670410e+00 -1.132865309715270996e+00 -6.883764863014221191e-01 -5.463725328445434570e-01 -6.457687020301818848e-01
7.200000000000000000e+01 1.574865627288818359e+01 -1.673639893531799316e+00 -1.091806173324584961e+00 -6.494127511978149414e-01 -5.223656892776489258e-01 -5.659815669059753418e-01
7.300000000000000000e+01 1.561703586578369141e+01 -9.138993620872497559e-01 -2.922688245773315430e+00 -3.402330577373504639e-01 -9.788764119148254395e-01 -4.303908646106719971e-01
7.400000000000000000e+01 1.330834674835205078e+01 -9.333403110504150391e-01 -1.071401953697204590e+00 -2.996076643466949463e-02 -3.304088413715362549e-01 -3.733611479401588440e-02
7.500000000000000000e+01 1.325672912597656250e+01 -1.671557903289794922e+00 -8.643640875816345215e-01 -7.122731208801269531e-02 -2.806774079799652100e-01 -2.372882813215255737e-01
7.600000000000000000e+01 1.414637279510498047e+01 -1.739302992820739746e+00 -1.052676796913146973e+00 -8.915401250123977661e-02 -3.425492346286773682e-01 -3.388024270534515381e-01
7.700000000000000000e+01 1.646326637268066406e+01 -1.909508228302001953e+00 -7.925079464912414551e-01 -6.105767488479614258e-01 -4.209254086017608643e-01 -4.287461042404174805e-01
7.800000000000000000e+01 1.418178272247314453e+01 -1.953972876071929932e-01 -4.832845687866210938e+00 1.088765338063240051e-01 -1.417190670967102051e+00 7.927947640419006348e-01
7.900000000000000000e+01 1.349144268035888672e+01 5.892523527145385742e-01 -5.902807712554931641e-01 9.546867012977600098e-02 -1.484436243772506714e-01 7.872588634490966797e-01
8.000000000000000000e+01 1.338910770416259766e+01 -1.457942724227905273e-01 -3.748211860656738281e+00 -1.204907521605491638e-01 -1.160610795021057129e+00 8.447784781455993652e-01
8.100000000000000000e+01 1.596013927459716797e+01 -4.917357265949249268e-01 -3.065877199172973633e+00 1.312694251537322998e-01 -8.803823590278625488e-01 -1.230350494384765625e+00
8.200000000000000000e+01 1.431572246551513672e+01 5.376732945442199707e-01 1.023850083351135254e+00 1.116517066955566406e+00 6.421101689338684082e-01 -3.172131776809692383e-01
8.300000000000000000e+01 2.158379554748535156e+01 4.007653713226318359e+00 -1.734900712966918945e+00 -1.006180644035339355e+00 -8.223243951797485352e-01 -1.354539394378662109e+00
8.400000000000000000e+01 2.389938735961914062e+01 5.596128940582275391e+00 -3.737895250320434570e+00 -1.812312006950378418e+00 -1.665062189102172852e+00 -2.539411783218383789e+00
8.500000000000000000e+01 2.412469482421875000e+01 4.887041091918945312e+00 8.094226717948913574e-01 -1.195310950279235840e-01 2.069674730300903320e-01 3.058083653450012207e-01
8.600000000000000000e+01 1.952696228027343750e+01 2.294706106185913086e+00 -4.307027459144592285e-01 -7.483946681022644043e-01 -3.537292182445526123e-01 -7.477175593376159668e-01
8.700000000000000000e+01 2.090165901184082031e+01 2.503118991851806641e+00 -3.585714995861053467e-01 -2.473082393407821655e-01 -1.817639172077178955e-01 -3.178251385688781738e-01
8.800000000000000000e+01 2.118664169311523438e+01 2.724352836608886719e+00 3.608943894505500793e-02 -1.342879682779312134e-01 -2.945956028997898102e-02 -1.637236624956130981e-01
8.900000000000000000e+01 1.607040214538574219e+01 3.258794546127319336e-01 -5.937238410115242004e-02 3.695721924304962158e-01 9.305994212627410889e-02 -6.839041113853454590e-01
9.000000000000000000e+01 2.620583724975585938e+01 6.980413436889648438e+00 -2.503918886184692383e+00 -1.410152554512023926e+00 -1.174221396446228027e+00 -1.888547539710998535e+00
9.100000000000000000e+01 2.673943328857421875e+01 7.604229450225830078e+00 -3.193968534469604492e+00 -1.979682087898254395e+00 -1.552095174789428711e+00 -2.540743350982666016e+00
9.200000000000000000e+01 2.781135368347167969e+01 8.301845550537109375e+00 -2.386437177658081055e+00 -1.090733528137207031e+00 -1.043151259422302246e+00 -1.917577266693115234e+00
9.300000000000000000e+01 2.843750381469726562e+01 8.249814033508300781e+00 -1.452340841293334961e+00 5.598782300949096680e-01 -2.677387893199920654e-01 -5.513891577720642090e-01
9.400000000000000000e+01 2.872324943542480469e+01 8.505600929260253906e+00 -1.622469425201416016e+00 -3.115707635879516602e-01 -5.802120566368103027e-01 -4.231016635894775391e-01
9.500000000000000000e+01 2.901180076599121094e+01 8.513568878173828125e+00 -1.367562532424926758e+00 2.017435431480407715e-01 -3.497456908226013184e-01 -1.162957772612571716e-01
9.600000000000000000e+01 2.951800727844238281e+01 8.114252090454101562e+00 -2.875523865222930908e-01 2.523085772991180420e-01 -1.057314593344926834e-02 3.588390350341796875e-01
9.700000000000000000e+01 2.974779701232910156e+01 7.457363605499267578e+00 4.819688498973846436e-01 -1.013509333133697510e-01 1.141853779554367065e-01 9.332606196403503418e-02
9.800000000000000000e+01 2.969834518432617188e+01 6.596699714660644531e+00 3.047932386398315430e-01 1.460025608539581299e-01 1.352387368679046631e-01 -3.163691461086273193e-01
9.900000000000000000e+01 2.914324760437011719e+01 6.185403347015380859e+00 1.087606605142354965e-02 2.695487439632415771e-01 8.412744849920272827e-02 -1.915933638811111450e-01
1.000000000000000000e+02 2.731749725341796875e+01 6.180770397186279297e+00 -2.311698496341705322e-01 -1.236945763230323792e-01 -1.064593270421028137e-01 -1.725311130285263062e-01
1.010000000000000000e+02 2.667770767211914062e+01 5.437873363494873047e+00 -6.888346374034881592e-02 -9.873446822166442871e-02 -5.028538033366203308e-02 -1.004948168992996216e-01
1.020000000000000000e+02 2.510387229919433594e+01 4.538621902465820312e+00 6.465505063533782959e-02 -3.405721858143806458e-02 9.179349988698959351e-03 -5.165663547813892365e-03
1.030000000000000000e+02 2.605690193176269531e+01 5.097530364990234375e+00 -2.458669058978557587e-02 -7.787561416625976562e-02 -3.073869273066520691e-02 -6.232113763689994812e-02
1.040000000000000000e+02 2.561135482788085938e+01 5.157556533813476562e+00 -2.015092223882675171e-02 -2.188841626048088074e-02 -1.261180173605680466e-02 -3.245928511023521423e-02
1.050000000000000000e+02 2.728079605102539062e+01 4.737926959991455078e+00 2.747662924230098724e-02 -1.351138651371002197e-01 -3.229117020964622498e-02 -9.066559374332427979e-02
1.060000000000000000e+02 2.848536109924316406e+01 5.469244956970214844e+00 -5.028824321925640106e-03 -1.482718158513307571e-02 -5.956801585853099823e-03 -6.354569643735885620e-02
1.070000000000000000e+02 2.787462043762207031e+01 6.200993061065673828e+00 -1.608447581529617310e-01 -1.942228972911834717e-01 -1.065202951431274414e-01 -1.736082285642623901e-01
1.080000000000000000e+02 2.656365203857421875e+01 6.553928852081298828e+00 6.799125075340270996e-01 1.289010196924209595e-01 2.426440566778182983e-01 3.829796314239501953e-01
1.090000000000000000e+02 2.734725570678710938e+01 6.544473648071289062e+00 3.051014423370361328e+00 1.146527886390686035e+00 1.259262681007385254e+00 1.874117016792297363e+00
1.100000000000000000e+02 2.702345657348632812e+01 6.701479911804199219e+00 1.251515507698059082e+00 5.675665736198425293e-01 5.457246303558349609e-01 8.319697380065917969e-01
1.110000000000000000e+02 2.627173042297363281e+01 4.064880847930908203e+00 5.768027156591415405e-02 -1.333832591772079468e-01 -2.271089889109134674e-02 -8.283018320798873901e-02
1.120000000000000000e+02 2.386675453186035156e+01 2.603332996368408203e+00 8.010331541299819946e-02 -1.099502816796302795e-01 -8.954088203608989716e-03 -3.355583921074867249e-02
1.130000000000000000e+02 2.220455932617187500e+01 3.039056539535522461e+00 3.753398656845092773e-01 1.358505338430404663e-01 1.533571183681488037e-01 2.152240723371505737e-01
1.140000000000000000e+02 2.217053604125976562e+01 1.547746300697326660e+00 -1.248794272541999817e-01 -8.364334702491760254e-02 -6.255683302879333496e-02 5.435188487172126770e-02
1.150000000000000000e+02 2.025352096557617188e+01 4.149144887924194336e-01 -1.211312532424926758e+00 3.735165297985076904e-01 -2.513388097286224365e-01 4.601538777351379395e-01
1.160000000000000000e+02 1.814858818054199219e+01 4.918190240859985352e-01 -1.742262125015258789e+00 -5.450240969657897949e-01 -6.861858963966369629e-01 -9.326592087745666504e-01
1.170000000000000000e+02 1.820799827575683594e+01 -8.796090483665466309e-01 -1.186735033988952637e+00 3.352715969085693359e-01 -2.554390430450439453e-01 -3.942921757698059082e-01
1.180000000000000000e+02 2.170348358154296875e+01 2.723834276199340820e+00 4.026049077510833740e-01 1.428605169057846069e-01 1.636396199464797974e-01 2.527107298374176025e-01
1.190000000000000000e+02 2.102823257446289062e+01 2.260757684707641602e+00 3.780095875263214111e-01 1.504883468151092529e-01 1.585493832826614380e-01 2.600689530372619629e-01
1.200000000000000000e+02 1.607972335815429688e+01 -8.520542383193969727e-01 -3.564888477325439453e+00 -1.068180680274963379e+00 -1.389920711517333984e+00 -1.192797422409057617e+00
1.210000000000000000e+02 1.663420677185058594e+01 -1.785859823226928711e+00 -9.488081932067871094e-01 -5.022274255752563477e-01 -4.353106915950775146e-01 -4.083559811115264893e-01
1.220000000000000000e+02 1.890606498718261719e+01 -4.218147695064544678e-01 -1.416170239448547363e+00 7.937452197074890137e-01 -1.867275238037109375e-01 -2.371198982000350952e-01
1.230000000000000000e+02 2.062004280090332031e+01 6.062549352645874023e-01 -9.058482646942138672e-01 1.578600406646728516e-01 -2.243964672088623047e-01 3.366503119468688965e-01
1.240000000000000000e+02 2.088251113891601562e+01 1.380865573883056641e+00 -2.696061432361602783e-01 8.846579492092132568e-02 -5.434210225939750671e-02 1.714061051607131958e-01
1.250000000000000000e+02 2.300205802917480469e+01 2.110841751098632812e+00 3.771480545401573181e-02 -6.861387938261032104e-02 -9.269722737371921539e-03 -1.259830407798290253e-02
1.260000000000000000e+02 2.438932991027832031e+01 2.960635662078857422e+00 9.904763847589492798e-02 -9.646076709032058716e-02 7.760626613162457943e-04 -5.058912932872772217e-02
1.270000000000000000e+02 2.521880340576171875e+01 3.450610637664794922e+00 8.643238991498947144e-02 -1.212932765483856201e-01 -1.045826636254787445e-02 -6.019511446356773376e-02
1.280000000000000000e+02 2.289822006225585938e+01 3.422800064086914062e+00 3.025372922420501709e-01 1.009935960173606873e-01 1.210592687129974365e-01 1.578466445207595825e-01
1.290000000000000000e+02 2.307255363464355469e+01 3.524418592453002930e+00 2.763079404830932617e-01 7.741341739892959595e-02 1.061163991689682007e-01 1.577233970165252686e-01
1.300000000000000000e+02 2.407131767272949219e+01 4.178638458251953125e+00 1.578607857227325439e-01 3.468932956457138062e-02 5.776503682136535645e-02 8.355218172073364258e-02
1.310000000000000000e+02 1.780057334899902344e+01 1.568861842155456543e+00 1.387607812881469727e+00 2.897545099258422852e-01 5.032086968421936035e-01 6.343962550163269043e-01
1.320000000000000000e+02 2.510248374938964844e+01 4.799768447875976562e+00 3.762645646929740906e-02 -1.892623864114284515e-02 5.610065534710884094e-03 7.431294303387403488e-03
1.330000000000000000e+02 2.383655929565429688e+01 3.735404729843139648e+00 1.893499493598937988e-01 1.767284236848354340e-02 6.210684031248092651e-02 6.253197789192199707e-02
1.340000000000000000e+02 2.356903648376464844e+01 3.872204303741455078e+00 2.197686284780502319e-01 7.356403768062591553e-02 8.799979835748672485e-02 1.126425489783287048e-01
1.350000000000000000e+02 2.272424316406250000e+01 3.322763919830322266e+00 3.196241557598114014e-01 8.288194984197616577e-02 1.207518354058265686e-01 1.845437288284301758e-01
1.360000000000000000e+02 2.186722183227539062e+01 2.835867881774902344e+00 4.004279375076293945e-01 1.531410962343215942e-01 1.660707145929336548e-01 2.378921359777450562e-01
1.370000000000000000e+02 1.797665786743164062e+01 3.892868459224700928e-01 -1.814054131507873535e+00 -5.370177626609802246e-01 -7.053215503692626953e-01 -1.077263593673706055e+00
1.380000000000000000e+02 1.780901718139648438e+01 2.828388810157775879e-01 -1.939057946205139160e+00 -6.763706207275390625e-01 -7.846285700798034668e-01 -1.096391558647155762e+00
1.390000000000000000e+02 1.786056327819824219e+01 -7.438153028488159180e-01 -1.442253232002258301e+00 -1.495569571852684021e-02 -4.371626973152160645e-01 -5.741755962371826172e-01
1.400000000000000000e+02 1.490975666046142578e+01 -9.672126770019531250e-01 -1.722918272018432617e+00 8.399833738803863525e-02 -4.916760027408599854e-01 -9.706013649702072144e-02
1.410000000000000000e+02 1.491816425323486328e+01 -3.337910771369934082e-01 -5.535465717315673828e+00 1.219554916024208069e-01 -1.624053001403808594e+00 4.722569882869720459e-01
1.420000000000000000e+02 2.761832046508789062e+01 7.929619789123535156e+00 -1.845522522926330566e+00 -7.039895057678222656e-01 -7.648535966873168945e-01 -1.393810868263244629e+00
1.430000000000000000e+02 2.491514778137207031e+01 6.318301677703857422e+00 -3.443407773971557617e+00 -1.990471959114074707e+00 -1.630163908004760742e+00 -2.681975603103637695e+00
1.440000000000000000e+02 2.509577369689941406e+01 5.497867107391357422e+00 1.261506319046020508e+00 5.013449192047119141e-01 5.288553833961486816e-01 5.790399312973022461e-01
1.450000000000000000e+02 2.355749130249023438e+01 5.373768806457519531e+00 -3.714638471603393555e+00 -1.645994186401367188e+00 -1.608189821243286133e+00 -2.428719520568847656e+00
1.460000000000000000e+02 2.223867607116699219e+01 4.491712570190429688e+00 -2.289094924926757812e+00 -1.142125129699707031e+00 -1.029366016387939453e+00 -1.633352041244506836e+00
1.470000000000000000e+02 2.088263511657714844e+01 3.571154356002807617e+00 -1.436652302742004395e+00 -8.226697444915771484e-01 -6.777966022491455078e-01 -1.144231796264648438e+00
1.480000000000000000e+02 2.072345542907714844e+01 3.060364723205566406e+00 -5.585519075393676758e-01 -7.716513276100158691e-01 -3.990609645843505859e-01 -8.154224157333374023e-01
1.490000000000000000e+02 2.016937065124511719e+01 3.137684822082519531e+00 -9.530351161956787109e-01 -6.219249963760375977e-01 -4.724880158901214600e-01 -8.085569143295288086e-01
1.500000000000000000e+02 2.013906860351562500e+01 2.411746025085449219e+00 -6.031458973884582520e-01 -7.651577591896057129e-01 -4.104911088943481445e-01 -8.001509904861450195e-01
1.510000000000000000e+02 1.905763244628906250e+01 1.327909350395202637e+00 -2.756431818008422852e+00 -1.018792867660522461e+00 -1.132567405700683594e+00 -1.626276612281799316e+00
1.520000000000000000e+02 1.744408226013183594e+01 1.316854238510131836e+00 1.749383568763732910e+00 3.459719121456146240e-01 6.286066770553588867e-01 6.961870193481445312e-01
1.530000000000000000e+02 1.666087722778320312e+01 9.457327127456665039e-01 2.784062385559082031e+00 2.603402435779571533e-01 9.133207798004150391e-01 8.119085431098937988e-01
1.540000000000000000e+02 1.628556823730468750e+01 8.199198842048645020e-01 3.159530639648437500e+00 2.493732571601867676e-01 1.022671222686767578e+00 9.445568919181823730e-01
1.550000000000000000e+02 1.591288185119628906e+01 7.126332521438598633e-01 3.527882814407348633e+00 4.591764211654663086e-01 1.196117758750915527e+00 5.420438051223754883e-01
1.560000000000000000e+02 1.561679458618164062e+01 6.325902938842773438e-01 3.881836414337158203e+00 1.121533274650573730e+00 1.501010894775390625e+00 -2.775509357452392578e-01
1.570000000000000000e+02 1.660693168640136719e+01 -5.270656663924455643e-03 -4.185537815093994141e+00 -1.288924694061279297e+00 -1.642338752746582031e+00 -2.337985515594482422e+00
1.580000000000000000e+02 1.869605064392089844e+01 1.178080439567565918e+00 -2.908171415328979492e+00 -1.274940371513366699e+00 -1.254933476448059082e+00 -1.860061287879943848e+00
1.590000000000000000e+02 1.813280105590820312e+01 1.811058282852172852e+00 1.059284210205078125e+00 1.893662214279174805e-01 3.745951354503631592e-01 4.782209396362304688e-01
1.600000000000000000e+02 1.866950035095214844e+01 1.793685317039489746e+00 -1.178820356726646423e-01 -5.895288586616516113e-01 -2.122232764959335327e-01 -5.131005644798278809e-01
1.610000000000000000e+02 2.021993064880371094e+01 2.136752128601074219e+00 -9.648209214210510254e-01 -5.805770158767700195e-01 -4.636193811893463135e-01 -7.425163984298706055e-01
1.620000000000000000e+02 2.072165107727050781e+01 2.411862134933471680e+00 -4.910842180252075195e-01 -2.812810242176055908e-01 -2.317095845937728882e-01 -3.897163569927215576e-01
1.630000000000000000e+02 2.135259246826171875e+01 2.860334873199462891e+00 1.861216574907302856e-01 -1.332326382398605347e-01 1.586670428514480591e-02 -4.783648997545242310e-02
1.640000000000000000e+02 2.053167343139648438e+01 3.346694707870483398e+00 -1.250483274459838867e+00 -7.861446738243103027e-01 -6.109883785247802734e-01 -9.798003435134887695e-01
1.650000000000000000e+02 2.187592887878417969e+01 3.150550603866577148e+00 6.467424035072326660e-01 6.781253963708877563e-02 2.143664807081222534e-01 2.386271804571151733e-01
1.660000000000000000e+02 2.165188217163085938e+01 3.314744234085083008e+00 5.954391672275960445e-04 -3.218351006507873535e-01 -9.637189656496047974e-02 -2.877831757068634033e-01
1.670000000000000000e+02 2.218885040283203125e+01 3.759723901748657227e+00 -1.253390461206436157e-01 -4.516589641571044922e-01 -1.730993986129760742e-01 -4.371365308761596680e-01
1.680000000000000000e+02 2.309059143066406250e+01 3.885622262954711914e+00 1.523988485336303711e+00 4.770478010177612305e-01 6.003109216690063477e-01 7.926951646804809570e-01
1.690000000000000000e+02 2.343357658386230469e+01 4.924826622009277344e+00 -1.567540168762207031e+00 -1.092463850975036621e+00 -7.980012297630310059e-01 -1.365761756896972656e+00
1.700000000000000000e+02 2.389833831787109375e+01 4.438695430755615234e+00 2.324368715286254883e+00 6.610321402549743652e-01 8.956202864646911621e-01 1.212108969688415527e+00
1.710000000000000000e+02 2.493474960327148438e+01 5.057280540466308594e+00 2.737907648086547852e+00 9.127672314643859863e-01 1.095202445983886719e+00 1.654675006866455078e+00
1.720000000000000000e+02 2.634426879882812500e+01 5.881010055541992188e+00 3.179090976715087891e+00 1.080312609672546387e+00 1.277821063995361328e+00 1.899098157882690430e+00
1.730000000000000000e+02 2.651091766357421875e+01 6.220260620117187500e+00 2.393058538436889648e+00 7.660583853721618652e-01 9.477350711822509766e-01 1.438207030296325684e+00
1.740000000000000000e+02 2.752478599548339844e+01 6.642788410186767578e+00 3.063396930694580078e+00 1.155166983604431152e+00 1.265569210052490234e+00 1.872926473617553711e+00
1.750000000000000000e+02 2.770777130126953125e+01 6.731273174285888672e+00 3.116012573242187500e+00 1.154764175415039062e+00 1.281233072280883789e+00 1.869757175445556641e+00
1.760000000000000000e+02 2.837801170349121094e+01 8.509162902832031250e+00 -2.002564907073974609e+00 -2.107693105936050415e-01 -6.640002727508544922e-01 -1.079136490821838379e+00
1.770000000000000000e+02 2.877238655090332031e+01 8.255836486816406250e+00 -9.036695361137390137e-01 6.042806506156921387e-01 -8.981665968894958496e-02 3.907689079642295837e-02
1.780000000000000000e+02 2.819168090820312500e+01 8.265731811523437500e+00 -1.900274634361267090e+00 -2.878831923007965088e-01 -6.564473509788513184e-01 -1.058508753776550293e+00
1.790000000000000000e+02 2.762304496765136719e+01 6.936243057250976562e+00 1.984984278678894043e+00 7.588874697685241699e-01 8.231615424156188965e-01 1.258642911911010742e+00
1.800000000000000000e+02 2.782902908325195312e+01 6.540134429931640625e+00 -3.357310295104980469e-01 -1.968213915824890137e-01 -1.597657203674316406e-01 -2.575376033782958984e-01
1.810000000000000000e+02 2.816375541687011719e+01 6.255253791809082031e+00 -1.096295118331909180e-01 -1.894098967313766479e-01 -8.971182256937026978e-02 -1.381239891052246094e-01
1.820000000000000000e+02 2.855319404602050781e+01 6.142180919647216797e+00 -5.520731210708618164e-02 1.004945137538015842e-03 -1.626070961356163025e-02 -6.159340217709541321e-02
1.830000000000000000e+02 2.994088172912597656e+01 7.355839729309082031e+00 4.514809846878051758e-01 -1.352075636386871338e-01 9.488203376531600952e-02 -3.766512265428900719e-03
1.840000000000000000e+02 2.965469932556152344e+01 6.280673980712890625e+00 1.685060411691665649e-01 2.055782228708267212e-01 1.122252792119979858e-01 -3.176863491535186768e-01
1.850000000000000000e+02 2.813894844055175781e+01 5.262156963348388672e+00 9.679040871560573578e-03 -7.942213118076324463e-02 -2.092292718589305878e-02 -7.291860878467559814e-02
1.860000000000000000e+02 2.796563339233398438e+01 5.154746055603027344e+00 1.455202605575323105e-02 -1.058418527245521545e-01 -2.738694846630096436e-02 -7.683154940605163574e-02
1.870000000000000000e+02 2.745028686523437500e+01 4.845677852630615234e+00 2.606647461652755737e-02 -1.232228875160217285e-01 -2.914692461490631104e-02 -9.021572768688201904e-02
1.880000000000000000e+02 2.690469741821289062e+01 4.545875072479248047e+00 3.229235485196113586e-02 -1.333636045455932617e-01 -3.032137639820575714e-02 -8.939769119024276733e-02
1.890000000000000000e+02 2.642532920837402344e+01 4.458956241607666016e+00 4.261967167258262634e-02 -1.210528835654258728e-01 -2.352996356785297394e-02 -8.767037838697433472e-02
1.900000000000000000e+02 2.658790779113769531e+01 4.286829948425292969e+00 4.669056832790374756e-02 -1.326693743467330933e-01 -2.579364180564880371e-02 -8.360989391803741455e-02
1.910000000000000000e+02 2.574311637878417969e+01 3.786098003387451172e+00 7.609517872333526611e-02 -1.150845438241958618e-01 -1.169680990278720856e-02 -7.682722061872482300e-02
1.920000000000000000e+02 2.541836547851562500e+01 3.930738449096679688e+00 8.595757931470870972e-02 -9.572710096836090088e-02 -2.930855378508567810e-03 -5.780194327235221863e-02
1.930000000000000000e+02 2.420208168029785156e+01 2.860757350921630859e+00 9.630461782217025757e-02 -1.071038320660591125e-01 -3.239765763282775879e-03 -3.825076669454574585e-02
1.940000000000000000e+02 2.345994377136230469e+01 2.607226133346557617e+00 1.106653884053230286e-01 -7.011577486991882324e-02 1.216488424688577652e-02 -1.173343136906623840e-02
1.950000000000000000e+02 2.318541145324707031e+01 2.221759319305419922e+00 5.382415279746055603e-02 -9.770169109106063843e-02 -1.316326111555099487e-02 -8.721019141376018524e-03
1.960000000000000000e+02 2.254116249084472656e+01 2.054912328720092773e+00 3.309747576713562012e-02 -6.781925261020660400e-02 -1.041653379797935486e-02 3.398391604423522949e-02
1.970000000000000000e+02 2.216105842590332031e+01 1.763288617134094238e+00 -7.158736139535903931e-02 -5.129794031381607056e-02 -3.686558827757835388e-02 5.224597454071044922e-02
1.980000000000000000e+02 2.199205207824707031e+01 1.458675265312194824e+00 -1.946597397327423096e-01 -3.403467312455177307e-02 -6.860832124948501587e-02 5.321864038705825806e-02
1.990000000000000000e+02 2.183944702148437500e+01 1.690778493881225586e+00 -7.700003683567047119e-02 -2.860846742987632751e-02 -3.168255090713500977e-02 9.255430847406387329e-02
2.000000000000000000e+02 2.182098770141601562e+01 1.338136911392211914e+00 -2.476447671651840210e-01 -6.628531217575073242e-02 -9.417901933193206787e-02 7.847468554973602295e-02
2.010000000000000000e+02 2.131197357177734375e+01 1.024908065795898438e+00 -4.697870910167694092e-01 1.825102791190147400e-02 -1.354608237743377686e-01 1.506730616092681885e-01
2.020000000000000000e+02 2.114123344421386719e+01 9.171155691146850586e-01 -5.210349559783935547e-01 -2.677782252430915833e-02 -1.643438339233398438e-01 1.931789219379425049e-01
2.030000000000000000e+02 2.067724800109863281e+01 9.409630894660949707e-01 -6.542888283729553223e-01 1.591174453496932983e-01 -1.485514193773269653e-01 2.529891431331634521e-01
2.040000000000000000e+02 2.001682472229003906e+01 1.637134432792663574e+00 3.486080467700958252e-02 1.249661073088645935e-01 4.794807359576225281e-02 1.055618450045585632e-01
2.050000000000000000e+02 2.044163322448730469e+01 5.099294185638427734e-01 -9.410783052444458008e-01 1.610231548547744751e-01 -2.340165525674819946e-01 3.788477480411529541e-01
2.060000000000000000e+02 1.973522758483886719e+01 4.402073472738265991e-02 -1.339165449142456055e+00 7.920680642127990723e-01 -1.641292273998260498e-01 2.437851279973983765e-01
2.070000000000000000e+02 2.007245063781738281e+01 2.987338006496429443e-01 -1.243607759475708008e+00 5.689105987548828125e-01 -2.024091333150863647e-01 3.395318388938903809e-01
2.080000000000000000e+02 1.928709983825683594e+01 -2.650651633739471436e-01 -1.446412324905395508e+00 8.132392168045043945e-01 -1.899519413709640503e-01 2.197103202342987061e-02
2.090000000000000000e+02 1.904242515563964844e+01 -6.172461062669754028e-02 -1.531932473182678223e+00 6.903252601623535156e-01 -2.524821460247039795e-01 -1.411162018775939941e-01
2.100000000000000000e+02 1.837055206298828125e+01 -4.188842475414276123e-01 -1.509018898010253906e+00 3.117559254169464111e-01 -3.591789007186889648e-01 -5.369600057601928711e-01
2.110000000000000000e+02 1.854799652099609375e+01 -6.623200178146362305e-01 -1.258484721183776855e+00 5.211237668991088867e-01 -2.212082892656326294e-01 -3.840070664882659912e-01
2.120000000000000000e+02 1.837671661376953125e+01 -7.712314128875732422e-01 -1.225881218910217285e+00 4.275196790695190430e-01 -2.395084798336029053e-01 -4.271793961524963379e-01
2.130000000000000000e+02 2.548284721374511719e+01 6.817771911621093750e+00 -4.083399295806884766e+00 -2.041726350784301758e+00 -1.837537646293640137e+00 -2.880078792572021484e+00
2.140000000000000000e+02 2.752005386352539062e+01 8.118174552917480469e+00 -2.767988443374633789e+00 -1.457554817199707031e+00 -1.267663002014160156e+00 -2.017700195312500000e+00
2.150000000000000000e+02 2.774612045288085938e+01 8.091667175292968750e+00 -2.129338741302490234e+00 -8.641179800033569336e-01 -8.980370163917541504e-01 -1.407618761062622070e+00
2.160000000000000000e+02 2.640801429748535156e+01 7.399222850799560547e+00 -3.562278509140014648e+00 -2.272960662841796875e+00 -1.750571727752685547e+00 -2.746083498001098633e+00
2.170000000000000000e+02 2.607052230834960938e+01 7.192498207092285156e+00 -3.987246990203857422e+00 -2.280313730239868164e+00 -1.880268216133117676e+00 -2.874122381210327148e+00
2.180000000000000000e+02 2.798365592956542969e+01 8.158408164978027344e+00 -2.001539945602416992e+00 -5.684061646461486816e-01 -7.709838151931762695e-01 -1.306719541549682617e+00
2.190000000000000000e+02 2.766333580017089844e+01 7.593861103057861328e+00 -6.652739644050598145e-01 -7.081751525402069092e-02 -2.208274304866790771e-01 -5.942883491516113281e-01
2.200000000000000000e+02 2.922995376586914062e+01 8.264119148254394531e+00 -7.096565961837768555e-01 1.718282252550125122e-01 -1.613485217094421387e-01 2.563702762126922607e-01
2.210000000000000000e+02 2.787312507629394531e+01 7.956251621246337891e+00 -1.622279763221740723e+00 -1.105129420757293701e-01 -5.198377966880798340e-01 -1.116447567939758301e+00
2.220000000000000000e+02 2.732859992980957031e+01 7.842535972595214844e+00 -2.335497856140136719e+00 -1.149548292160034180e+00 -1.045513868331909180e+00 -1.768553972244262695e+00
2.230000000000000000e+02 2.705788612365722656e+01 7.522804737091064453e+00 -1.885517358779907227e+00 -1.091548800468444824e+00 -8.931198716163635254e-01 -1.448075294494628906e+00
2.240000000000000000e+02 2.968653678894042969e+01 7.849141120910644531e+00 1.254770606756210327e-01 2.745300903916358948e-02 4.587902128696441650e-02 2.015152871608734131e-01
2.250000000000000000e+02 2.835629081726074219e+01 6.176811218261718750e+00 -5.740639567375183105e-02 -1.079543381929397583e-01 -4.960821941494941711e-02 -8.709332346916198730e-02
2.260000000000000000e+02 2.950033187866210938e+01 6.448091506958007812e+00 2.034823149442672729e-01 2.820168435573577881e-01 1.456497460603713989e-01 -3.824047148227691650e-01
2.270000000000000000e+02 2.894675827026367188e+01 6.136587142944335938e+00 -4.192060604691505432e-02 2.204469889402389526e-01 5.355791375041007996e-02 -1.284700036048889160e-01
2.280000000000000000e+02 2.874980735778808594e+01 6.135490417480468750e+00 -5.056159570813179016e-02 1.225777417421340942e-01 2.160484343767166138e-02 -6.969752907752990723e-02
2.290000000000000000e+02 2.767642974853515625e+01 6.402858257293701172e+00 -2.815672159194946289e-01 -1.697589904069900513e-01 -1.353978663682937622e-01 -2.248001247644424438e-01
2.300000000000000000e+02 2.937743759155273438e+01 6.025830745697021484e+00 4.947710037231445312e-02 2.195390760898590088e-01 8.070485293865203857e-02 -2.004567980766296387e-01
2.310000000000000000e+02 2.971186447143554688e+01 7.641345977783203125e+00 5.896005034446716309e-01 -5.139525234699249268e-02 1.614615768194198608e-01 2.444266825914382935e-01
2.320000000000000000e+02 1.526794338226318359e+01 7.157207280397415161e-02 -1.751565217971801758e+00 1.156268596649169922e+00 -1.785890012979507446e-01 -9.342319965362548828e-01
2.330000000000000000e+02 2.408653259277343750e+01 4.547322750091552734e+00 2.495029449462890625e+00 6.822103857994079590e-01 9.531719684600830078e-01 1.308506250381469727e+00
2.340000000000000000e+02 2.038170051574707031e+01 2.863835573196411133e+00 -6.134281158447265625e-01 -7.970507144927978516e-01 -4.231436252593994141e-01 -7.974965572357177734e-01
2.350000000000000000e+02 2.262034606933593750e+01 3.930513858795166016e+00 5.485087037086486816e-01 -1.971672326326370239e-01 1.054024472832679749e-01 -1.189042697660624981e-03
2.360000000000000000e+02 2.190175628662109375e+01 4.254426479339599609e+00 -1.960990667343139648e+00 -1.044676065444946289e+00 -9.017000198364257812e-01 -1.479009985923767090e+00
2.370000000000000000e+02 1.715509414672851562e+01 2.470718175172805786e-01 -4.322415351867675781e+00 -1.500245213508605957e+00 -1.746798157691955566e+00 -2.784756660461425781e+00
2.380000000000000000e+02 1.699776649475097656e+01 1.242234408855438232e-01 -4.480199337005615234e+00 -1.385357737541198730e+00 -1.759667158126831055e+00 -2.596463680267333984e+00
2.390000000000000000e+02 1.885087203979492188e+01 2.235836982727050781e+00 3.431366682052612305e-01 -1.587503105401992798e-01 5.531590804457664490e-02 -6.178756058216094971e-02
2.400000000000000000e+02 1.881642341613769531e+01 1.580783247947692871e+00 -1.080069303512573242e+00 -9.489351511001586914e-01 -6.087013483047485352e-01 -1.138618469238281250e+00
2.410000000000000000e+02 1.847772598266601562e+01 2.026355266571044922e+00 7.181600928306579590e-01 -3.881288319826126099e-02 2.038041651248931885e-01 2.450234740972518921e-01
2.420000000000000000e+02 2.543025588989257812e+01 5.708180427551269531e+00 9.365996718406677246e-01 1.205759719014167786e-01 3.171527087688446045e-01 4.945540428161621094e-01
2.430000000000000000e+02 2.457435989379882812e+01 5.008898735046386719e+00 1.961719870567321777e+00 3.787699937820434570e-01 7.021469473838806152e-01 9.072293639183044434e-01
2.440000000000000000e+02 2.325520515441894531e+01 3.987203359603881836e+00 1.716423869132995605e+00 4.589268863201141357e-01 6.526052355766296387e-01 8.396310806274414062e-01
2.450000000000000000e+02 2.463897705078125000e+01 4.825175762176513672e+00 2.609953641891479492e+00 9.494630694389343262e-01 1.067824959754943848e+00 1.706568360328674316e+00
2.460000000000000000e+02 2.104919242858886719e+01 2.598430395126342773e+00 -2.035206556320190430e-01 -1.840886324644088745e-01 -1.162827908992767334e-01 -2.022732049226760864e-01
2.470000000000000000e+02 2.219873237609863281e+01 3.392785549163818359e+00 9.478429555892944336e-01 1.828851401805877686e-01 3.392184376716613770e-01 3.495156168937683105e-01
2.480000000000000000e+02 2.275607299804687500e+01 3.693712711334228516e+00 1.302150607109069824e+00 2.971435189247131348e-01 4.797882139682769775e-01 6.578189730644226074e-01
2.490000000000000000e+02 2.427520942687988281e+01 4.646491527557373047e+00 2.665760278701782227e+00 7.367116212844848633e-01 1.020741581916809082e+00 1.426501035690307617e+00
2.500000000000000000e+02 2.446108818054199219e+01 4.740171909332275391e+00 2.737269639968872070e+00 8.028678894042968750e-01 1.062041282653808594e+00 1.590994954109191895e+00
2.510000000000000000e+02 2.528679275512695312e+01 5.271512985229492188e+00 2.830224752426147461e+00 1.029700756072998047e+00 1.157977700233459473e+00 1.605975151062011719e+00
2.520000000000000000e+02 2.716679000854492188e+01 6.444947242736816406e+00 3.048292160034179688e+00 1.068894267082214355e+00 1.235155940055847168e+00 1.863620281219482422e+00
2.530000000000000000e+02 1.733172035217285156e+01 3.661053478717803955e-01 -4.388493061065673828e+00 -1.842759490013122559e+00 -1.869375705718994141e+00 -2.548710107803344727e+00
2.540000000000000000e+02 1.705261802673339844e+01 1.103424906730651855e+00 2.236807107925415039e+00 3.453219234943389893e-01 7.746387124061584473e-01 7.216437458992004395e-01
2.550000000000000000e+02 1.820428657531738281e+01 1.019336104393005371e+00 -2.323209762573242188e+00 -1.337522506713867188e+00 -1.098219752311706543e+00 -1.877615451812744141e+00
2.560000000000000000e+02 1.934683418273925781e+01 1.523873209953308105e+00 -2.148939371109008789e+00 -9.810909628868103027e-01 -9.390091300010681152e-01 -1.401859402656555176e+00
2.570000000000000000e+02 1.629348754882812500e+01 -3.259726464748382568e-01 -3.776404142379760742e+00 -9.531415104866027832e-01 -1.418863654136657715e+00 -2.401430130004882812e+00
2.580000000000000000e+02 1.641945075988769531e+01 -1.624784767627716064e-01 -4.073818683624267578e+00 -1.448237061500549316e+00 -1.656616806983947754e+00 -2.214038610458374023e+00
2.590000000000000000e+02 1.682494926452636719e+01 6.190179660916328430e-02 -4.320623874664306641e+00 -1.356025695800781250e+00 -1.702994942665100098e+00 -2.409153699874877930e+00
2.600000000000000000e+02 2.680738449096679688e+01 6.218151569366455078e+00 2.957885265350341797e+00 1.195658802986145020e+00 1.246063232421875000e+00 1.871786236763000488e+00
2.610000000000000000e+02 2.041069030761718750e+01 2.208036661148071289e+00 -7.981718182563781738e-01 -4.676216542720794678e-01 -3.797380328178405762e-01 -6.119291186332702637e-01
2.620000000000000000e+02 1.647114562988281250e+01 -6.173247694969177246e-01 -2.545118570327758789e+00 -8.745999932289123535e-01 -1.025915622711181641e+00 -1.387186408042907715e+00
2.630000000000000000e+02 2.714648437500000000e+01 6.079617023468017578e+00 -2.090872973203659058e-01 -1.164389625191688538e-01 -9.765788167715072632e-02 -1.527143120765686035e-01
2.640000000000000000e+02 2.610667991638183594e+01 3.989916086196899414e+00 5.997475236654281616e-02 -1.183693930506706238e-01 -1.751839183270931244e-02 -8.232270926237106323e-02
2.650000000000000000e+02 1.833070755004882812e+01 5.895792841911315918e-01 -1.579034328460693359e+00 -3.968753218650817871e-01 -5.927729010581970215e-01 -8.875746726989746094e-01
2.660000000000000000e+02 2.237835693359375000e+01 3.131584405899047852e+00 3.545736968517303467e-01 1.081447526812553406e-01 1.388155370950698853e-01 2.107909470796585083e-01
2.670000000000000000e+02 1.764385032653808594e+01 1.744001954793930054e-01 -1.973770022392272949e+00 -6.487063765525817871e-01 -7.867429256439208984e-01 -1.206842064857482910e+00
2.680000000000000000e+02 1.916730690002441406e+01 1.125744342803955078e+00 -7.662037611007690430e-01 -8.465826511383056641e-02 -2.552586197853088379e-01 -2.971974909305572510e-01
2.690000000000000000e+02 2.649093246459960938e+01 5.643176078796386719e+00 -1.123261004686355591e-01 -7.794030010700225830e-02 -5.707991868257522583e-02 -9.326204657554626465e-02
2.700000000000000000e+02 2.631550598144531250e+01 5.527283191680908203e+00 -9.289363771677017212e-02 -6.542014330625534058e-02 -4.749413207173347473e-02 -8.368487656116485596e-02
2.710000000000000000e+02 2.612833976745605469e+01 5.438388347625732422e+00 -7.798220217227935791e-02 -6.221017241477966309e-02 -4.205771163105964661e-02 -6.419662386178970337e-02
2.720000000000000000e+02 2.492999267578125000e+01 4.705292224884033203e+00 6.126581132411956787e-02 6.682235281914472580e-03 2.038441412150859833e-02 1.733000949025154114e-02
2.730000000000000000e+02 2.546989440917968750e+01 4.657116889953613281e+00 3.635259717702865601e-02 -5.662340298295021057e-02 -6.081242114305496216e-03 -2.887531742453575134e-02
2.740000000000000000e+02 2.545153236389160156e+01 5.036966800689697266e+00 1.133181740442523733e-05 -2.547076530754566193e-02 -7.637829985469579697e-03 -1.648144982755184174e-02
2.750000000000000000e+02 2.459490013122558594e+01 4.509659290313720703e+00 1.006076559424400330e-01 2.378528565168380737e-02 3.731787949800491333e-02 4.057737067341804504e-02
2.760000000000000000e+02 2.469862174987792969e+01 4.145606040954589844e+00 1.142541468143463135e-01 -3.349430859088897705e-02 2.422795072197914124e-02 6.589120719581842422e-03
2.770000000000000000e+02 2.373550224304199219e+01 3.974582195281982422e+00 1.944280713796615601e-01 4.579893127083778381e-02 7.206810265779495239e-02 1.105856522917747498e-01
2.780000000000000000e+02 2.424369049072265625e+01 4.286685943603515625e+00 1.398644298315048218e-01 3.324514999985694885e-02 5.193287506699562073e-02 6.675042957067489624e-02
2.790000000000000000e+02 2.339944267272949219e+01 3.365537881851196289e+00 2.199118584394454956e-01 4.039774648845195770e-03 6.718549132347106934e-02 8.698309212923049927e-02
2.800000000000000000e+02 1.737028121948242188e+01 -1.417335867881774902e+00 -1.171912908554077148e+00 -9.518150240182876587e-02 -3.801283240318298340e-01 -4.511767327785491943e-01
2.810000000000000000e+02 1.628935050964355469e+01 -7.278177142143249512e-01 -2.789754867553710938e+00 -8.403617143630981445e-01 -1.089035034179687500e+00 -1.429171323776245117e+00
2.820000000000000000e+02 1.664281463623046875e+01 -5.031195878982543945e-01 -2.384336233139038086e+00 -7.848895192146301270e-01 -9.507676959037780762e-01 -1.399400830268859863e+00
2.830000000000000000e+02 2.750169563293457031e+01 6.282786369323730469e+00 -2.582295536994934082e-01 -1.590662598609924316e-01 -1.251887381076812744e-01 -1.900404095649719238e-01
2.840000000000000000e+02 2.573222351074218750e+01 4.982469081878662109e+00 -2.038535661995410919e-03 -5.701463669538497925e-02 -1.771595142781734467e-02 -3.942718356847763062e-02
2.850000000000000000e+02 2.255205917358398438e+01 3.223788022994995117e+00 3.405679464340209961e-01 1.180134266614913940e-01 1.375744044780731201e-01 1.898986846208572388e-01
2.860000000000000000e+02 2.247628593444824219e+01 2.902311563491821289e+00 2.986940145492553711e-01 7.353096455335617065e-02 1.116674914956092834e-01 1.465526223182678223e-01
2.870000000000000000e+02 2.120512962341308594e+01 2.366119623184204102e+00 3.969007730484008789e-01 1.629920005798339844e-01 1.679678410291671753e-01 2.510589063167572021e-01
2.880000000000000000e+02 1.982842826843261719e+01 1.562138557434082031e+00 -7.288270443677902222e-02 7.941985875368118286e-02 1.961146946996450424e-03 5.511984601616859436e-02
2.890000000000000000e+02 1.685240936279296875e+01 -8.052365779876708984e-01 -2.060749530792236328e+00 -5.839965939521789551e-01 -7.934238314628601074e-01 -9.476019740104675293e-01
2.900000000000000000e+02 2.866297340393066406e+01 5.560963630676269531e+00 -4.044920206069946289e-03 2.389602735638618469e-02 5.955332424491643906e-03 -6.675953418016433716e-02
2.910000000000000000e+02 2.709033966064453125e+01 4.650040626525878906e+00 3.247150406241416931e-02 -1.283970922231674194e-01 -2.877767570316791534e-02 -9.341148287057876587e-02
2.920000000000000000e+02 1.701620674133300781e+01 -1.598754167556762695e+00 -1.028192877769470215e+00 -3.213220536708831787e-01 -4.048544764518737793e-01 -3.699802756309509277e-01
2.930000000000000000e+02 1.990662193298339844e+01 1.681541800498962402e-01 -1.513823986053466797e+00 5.621507763862609863e-01 -2.855019569396972656e-01 3.177098631858825684e-01
2.940000000000000000e+02 2.402393531799316406e+01 2.738673686981201172e+00 9.606043994426727295e-02 -8.828678727149963379e-02 2.332096686586737633e-03 -4.367950558662414551e-02
2.950000000000000000e+02 2.919072723388671875e+01 5.915001869201660156e+00 -8.274009451270103455e-03 2.097179442644119263e-01 6.043317914009094238e-02 -1.661915630102157593e-01
2.960000000000000000e+02 2.800765800476074219e+01 5.494798660278320312e+00 -1.132698450237512589e-02 -1.195327043533325195e-01 -3.925790637731552124e-02 -8.535329252481460571e-02
2.970000000000000000e+02 2.761833190917968750e+01 4.951700210571289062e+00 2.097354456782341003e-02 -1.254806667566299438e-01 -3.135213628411293030e-02 -8.579882979393005371e-02
2.980000000000000000e+02 2.456723022460937500e+01 3.055789470672607422e+00 9.259370714426040649e-02 -1.136525198817253113e-01 -6.317644845694303513e-03 -4.957292601466178894e-02
2.990000000000000000e+02 2.249617195129394531e+01 1.752540349960327148e+00 -7.228153198957443237e-02 -9.114122390747070312e-02 -4.902682825922966003e-02 2.404836565256118774e-02
3.000000000000000000e+02 2.233315849304199219e+01 1.638239860534667969e+00 -1.013162359595298767e-01 -4.732908681035041809e-02 -4.459359869360923767e-02 2.593877352774143219e-02
3.010000000000000000e+02 2.148179817199707031e+01 1.128484606742858887e+00 -3.808951079845428467e-01 -4.389429837465286255e-02 -1.274368315935134888e-01 1.415637135505676270e-01
3.020000000000000000e+02 2.096979713439941406e+01 8.090916872024536133e-01 -6.811720728874206543e-01 6.100664287805557251e-02 -1.860496252775192261e-01 2.581220567226409912e-01
3.030000000000000000e+02 2.354416084289550781e+01 2.388252258300781250e+00 6.477271020412445068e-02 -1.104063093662261963e-01 -1.369008049368858337e-02 -2.465698309242725372e-02
3.040000000000000000e+02 2.522423934936523438e+01 4.140122890472412109e+00 8.160647749900817871e-02 -7.778409868478775024e-02 1.146715134382247925e-03 -3.220928460359573364e-02
3.050000000000000000e+02 2.577788734436035156e+01 4.142484188079833984e+00 6.610354781150817871e-02 -1.048556566238403320e-01 -1.162563450634479523e-02 -7.084155827760696411e-02
3.060000000000000000e+02 2.091345596313476562e+01 1.713690042495727539e+00 -6.438871473073959351e-02 1.099645420908927917e-01 1.367274858057498932e-02 1.546515673398971558e-01
3.070000000000000000e+02 2.337233734130859375e+01 2.300741434097290039e+00 5.654085054993629456e-02 -7.759083807468414307e-02 -6.314995698630809784e-03 -2.287194319069385529e-02
3.080000000000000000e+02 2.489199066162109375e+01 3.406341314315795898e+00 9.672003239393234253e-02 -9.853790700435638428e-02 -5.453641060739755630e-04 -4.868231341242790222e-02
3.090000000000000000e+02 2.883820724487304688e+01 5.658454418182373047e+00 -1.624744012951850891e-02 9.131912887096405029e-02 2.252150699496269226e-02 -8.215682953596115112e-02
3.100000000000000000e+02 2.854191970825195312e+01 5.962574481964111328e+00 -2.996022626757621765e-02 1.678442466072738171e-03 -8.484534919261932373e-03 -6.202942132949829102e-02
3.110000000000000000e+02 2.817785644531250000e+01 5.623554706573486328e+00 -1.516119204461574554e-02 -9.233734011650085449e-02 -3.224955871701240540e-02 -7.688359916210174561e-02
3.120000000000000000e+02 2.474594879150390625e+01 3.141265630722045898e+00 9.269182384014129639e-02 -1.024570539593696594e-01 -2.929568989202380180e-03 -5.995729565620422363e-02
3.130000000000000000e+02 2.469014930725097656e+01 3.378220081329345703e+00 1.120495647192001343e-01 -9.781644493341445923e-02 4.269934725016355515e-03 -3.884940221905708313e-02
3.140000000000000000e+02 2.319405364990234375e+01 2.760295867919921875e+00 1.935921609401702881e-01 -3.091233596205711365e-02 4.880394786596298218e-02 3.353926166892051697e-02
3.150000000000000000e+02 2.271275901794433594e+01 2.695827960968017578e+00 2.101058661937713623e-01 1.066863723099231720e-02 6.623235344886779785e-02 8.721282333135604858e-02
3.160000000000000000e+02 2.165103340148925781e+01 1.230265378952026367e+00 -3.165919184684753418e-01 -8.391436189413070679e-03 -9.749501198530197144e-02 8.978836983442306519e-02
3.170000000000000000e+02 2.101836776733398438e+01 1.156368136405944824e+00 -4.204401671886444092e-01 8.773496747016906738e-02 -9.981156140565872192e-02 1.852461099624633789e-01
3.180000000000000000e+02 1.959152603149414062e+01 -8.714351803064346313e-02 -1.615489721298217773e+00 7.775486707687377930e-01 -2.513822913169860840e-01 2.209380567073822021e-01
3.190000000000000000e+02 1.910376167297363281e+01 -3.396536111831665039e-01 -1.482281565666198730e+00 9.250785112380981445e-01 -1.671609282493591309e-01 -1.334440112113952637e-01
3.200000000000000000e+02 1.737996482849121094e+01 -1.082728028297424316e+00 -1.430406212806701660e+00 -1.563592255115509033e-01 -4.760296344757080078e-01 -5.768350958824157715e-01
3.210000000000000000e+02 1.665299797058105469e+01 -1.366106986999511719e+00 -1.397066950798034668e+00 -5.619680285453796387e-01 -5.877104997634887695e-01 -4.580947160720825195e-01
3.220000000000000000e+02 2.560299110412597656e+01 4.036937236785888672e+00 7.349849492311477661e-02 -1.094430238008499146e-01 -1.078335847705602646e-02 -5.682546272873878479e-02
3.230000000000000000e+02 2.556997489929199219e+01 3.676821708679199219e+00 7.565439492464065552e-02 -1.252892017364501953e-01 -1.489044260233640671e-02 -6.879329681396484375e-02
3.240000000000000000e+02 2.267225265502929688e+01 1.856473326683044434e+00 -3.100948780775070190e-02 -6.498771905899047852e-02 -2.879916317760944366e-02 -1.732608187012374401e-03
3.250000000000000000e+02 1.875694274902343750e+01 1.500918716192245483e-01 -1.515964150428771973e+00 2.657529413700103760e-01 -3.750633597373962402e-01 -3.403519392013549805e-01
3.260000000000000000e+02 1.945619201660156250e+01 -1.930207461118698120e-01 -1.541065216064453125e+00 9.700699448585510254e-01 -1.712985783815383911e-01 2.752647176384925842e-02
3.270000000000000000e+02 2.010481643676757812e+01 1.357575654983520508e+00 -3.847271502017974854e-01 1.821494698524475098e-01 -6.077330186963081360e-02 1.005442440509796143e-01
3.280000000000000000e+02 1.841072654724121094e+01 5.619067698717117310e-02 -1.655091762542724609e+00 4.839308187365531921e-02 -4.820096194744110107e-01 -5.965248942375183105e-01
3.290000000000000000e+02 2.293866729736328125e+01 3.778874397277832031e+00 1.360497713088989258e+00 3.618899881839752197e-01 5.167163014411926270e-01 7.719827294349670410e-01
3.300000000000000000e+02 2.319166755676269531e+01 4.172183036804199219e+00 1.056964039802551270e+00 8.318948745727539062e-02 3.420460522174835205e-01 3.861574828624725342e-01
3.310000000000000000e+02 2.230008888244628906e+01 2.838378667831420898e+00 3.160170316696166992e-01 6.993969529867172241e-02 1.157870218157768250e-01 1.701810657978057861e-01
3.320000000000000000e+02 2.168866348266601562e+01 2.394690036773681641e+00 2.876489162445068359e-01 8.425810933113098145e-02 1.115721091628074646e-01 1.882945895195007324e-01
3.330000000000000000e+02 1.698637390136718750e+01 4.995565116405487061e-01 -1.665378212928771973e+00 -6.125334501266479492e-01 -6.833735108375549316e-01 -1.076160073280334473e+00
3.340000000000000000e+02 1.766860771179199219e+01 5.410300493240356445e-01 -4.025284767150878906e+00 -1.767483234405517578e+00 -1.737830281257629395e+00 -2.621845245361328125e+00
3.350000000000000000e+02 2.321248435974121094e+01 5.169768810272216797e+00 -3.500208139419555664e+00 -1.460317492485046387e+00 -1.488157749176025391e+00 -2.253126382827758789e+00
3.360000000000000000e+02 2.459801292419433594e+01 6.050942897796630859e+00 -3.498970270156860352e+00 -2.006079673767089844e+00 -1.651515007019042969e+00 -2.554640293121337891e+00
3.370000000000000000e+02 2.424345207214355469e+01 5.820100307464599609e+00 -3.615656137466430664e+00 -1.887870907783508301e+00 -1.651058077812194824e+00 -2.580916643142700195e+00
3.380000000000000000e+02 2.288636207580566406e+01 4.957041740417480469e+00 -3.063660621643066406e+00 -1.320876359939575195e+00 -1.315361142158508301e+00 -2.065195322036743164e+00
3.390000000000000000e+02 2.257477378845214844e+01 4.721511363983154297e+00 -2.597711801528930664e+00 -1.231839299201965332e+00 -1.148865342140197754e+00 -1.826885104179382324e+00
3.400000000000000000e+02 1.947767448425292969e+01 2.024341344833374023e+00 -7.671350836753845215e-01 -8.405159115791320801e-01 -4.822953045368194580e-01 -9.111691713333129883e-01
3.410000000000000000e+02 1.982674598693847656e+01 2.928190231323242188e+00 -7.002862691879272461e-01 -5.080914497375488281e-01 -3.625133335590362549e-01 -5.792109966278076172e-01
3.420000000000000000e+02 2.083442115783691406e+01 2.682156801223754883e+00 -2.846908569335937500e-01 -4.669256508350372314e-01 -2.254849523305892944e-01 -4.499490857124328613e-01
3.430000000000000000e+02 1.949725914001464844e+01 2.715313673019409180e+00 -3.943502604961395264e-01 -3.376702368259429932e-01 -2.196061462163925171e-01 -4.178550243377685547e-01
3.440000000000000000e+02 1.919201087951660156e+01 2.472706556320190430e+00 -3.573185205459594727e-02 -2.562004327774047852e-01 -8.757968246936798096e-02 -2.221830934286117554e-01
3.450000000000000000e+02 2.123161125183105469e+01 3.793642282485961914e+00 -1.647664308547973633e+00 -9.566884636878967285e-01 -7.813058495521545410e-01 -1.209148406982421875e+00
3.460000000000000000e+02 2.519911766052246094e+01 6.583121299743652344e+00 -3.760635852813720703e+00 -1.962359666824340820e+00 -1.716898679733276367e+00 -2.782919883728027344e+00
3.470000000000000000e+02 2.067097282409667969e+01 2.069600105285644531e+00 3.205925822257995605e-01 1.520148366689682007e-01 1.417822241783142090e-01 2.341400682926177979e-01
3.480000000000000000e+02 1.747878456115722656e+01 6.543330848217010498e-02 -2.080405950546264648e+00 -7.588185667991638184e-01 -8.517673015594482422e-01 -1.196494579315185547e+00
3.490000000000000000e+02 2.746684837341308594e+01 5.217572212219238281e+00 -4.220890346914529800e-03 -1.315580755472183228e-01 -4.073369130492210388e-02 -1.006717607378959656e-01
3.500000000000000000e+02 2.720338058471679688e+01 7.950963973999023438e+00 -2.865727186203002930e+00 -1.896847128868103027e+00 -1.428772211074829102e+00 -2.342923164367675781e+00
3.510000000000000000e+02 2.720269012451171875e+01 7.672007083892822266e+00 -2.087553262710571289e+00 -1.255152106285095215e+00 -1.002811670303344727e+00 -1.609178781509399414e+00
3.520000000000000000e+02 2.690032768249511719e+01 7.717124938964843750e+00 -3.148744344711303711e+00 -2.013976573944091797e+00 -1.548816204071044922e+00 -2.429805994033813477e+00
3.530000000000000000e+02 2.759150505065917969e+01 7.386180400848388672e+00 -6.172540411353111267e-02 2.355233766138553619e-02 -1.145192049443721771e-02 -9.466748684644699097e-02
3.540000000000000000e+02 2.735485839843750000e+01 8.030984878540039062e+00 -2.616611957550048828e+00 -1.453163623809814453e+00 -1.220932722091674805e+00 -2.076123476028442383e+00
3.550000000000000000e+02 2.757517623901367188e+01 7.160485267639160156e+00 8.621767163276672363e-01 4.655385017395019531e-01 3.983145654201507568e-01 5.474780201911926270e-01
3.560000000000000000e+02 1.912985038757324219e+01 1.708161234855651855e+00 -1.249863147735595703e+00 -9.426125884056091309e-01 -6.577427387237548828e-01 -1.151005268096923828e+00
3.570000000000000000e+02 1.783235549926757812e+01 6.705010533332824707e-01 -3.880341291427612305e+00 -1.636531829833984375e+00 -1.655061960220336914e+00 -2.477799415588378906e+00
3.580000000000000000e+02 2.203299331665039062e+01 3.273705720901489258e+00 7.391020059585571289e-01 1.050520986318588257e-01 2.532462179660797119e-01 3.431095778942108154e-01
3.590000000000000000e+02 2.494163131713867188e+01 5.372772693634033203e+00 1.211951613426208496e+00 2.984456419944763184e-01 4.531191885471343994e-01 7.546550035476684570e-01
3.600000000000000000e+02 2.355601692199707031e+01 4.197513103485107422e+00 2.022823095321655273e+00 5.940836668014526367e-01 7.850720286369323730e-01 1.076191544532775879e+00
3.610000000000000000e+02 1.835728263854980469e+01 9.194188714027404785e-01 -3.346979141235351562e+00 -1.343471765518188477e+00 -1.407135248184204102e+00 -2.163285970687866211e+00
3.620000000000000000e+02 1.981199645996093750e+01 1.908822417259216309e+00 -1.247472763061523438e+00 -6.989657282829284668e-01 -5.839315652847290039e-01 -1.029842019081115723e+00
3.630000000000000000e+02 1.889115905761718750e+01 1.260292053222656250e+00 -2.799602746963500977e+00 -1.113389730453491211e+00 -1.173897743225097656e+00 -1.757003068923950195e+00
3.640000000000000000e+02 2.579266738891601562e+01 5.605177879333496094e+00 2.932321786880493164e+00 1.097424507141113281e+00 1.208923935890197754e+00 1.724460959434509277e+00
3.650000000000000000e+02 2.328178405761718750e+01 4.355814933776855469e+00 7.088977694511413574e-01 -2.004565000534057617e-01 1.525323837995529175e-01 5.544633418321609497e-02
3.660000000000000000e+02 1.962951850891113281e+01 1.788788914680480957e+00 -1.572234988212585449e+00 -8.492712378501892090e-01 -7.264518737792968750e-01 -1.106506228446960449e+00
3.670000000000000000e+02 2.154993438720703125e+01 2.953193902969360352e+00 2.867916226387023926e-01 -8.457069098949432373e-02 6.066628172993659973e-02 4.336884245276451111e-02
3.680000000000000000e+02 2.562567520141601562e+01 5.489073276519775391e+00 2.871375560760498047e+00 9.924701452255249023e-01 1.159153699874877930e+00 1.777619123458862305e+00
3.690000000000000000e+02 2.241230773925781250e+01 3.824958324432373047e+00 3.275133669376373291e-01 -3.452481627464294434e-01 -5.320433992892503738e-03 -1.642775088548660278e-01
3.700000000000000000e+02 1.945280456542968750e+01 1.662253856658935547e+00 -1.642962932586669922e+00 -8.615028858184814453e-01 -7.513397336006164551e-01 -1.305884718894958496e+00
3.710000000000000000e+02 2.344691658020019531e+01 4.526849746704101562e+00 4.621351361274719238e-01 -3.172409236431121826e-01 4.346826672554016113e-02 -1.248621344566345215e-01
3.720000000000000000e+02 2.002874565124511719e+01 2.681237459182739258e+00 -5.207187533378601074e-01 -7.308253049850463867e-01 -3.754632174968719482e-01 -7.455104589462280273e-01
3.730000000000000000e+02 1.999522399902343750e+01 2.037669897079467773e+00 -1.118678927421569824e+00 -6.949359774589538574e-01 -5.440844297409057617e-01 -8.687075972557067871e-01
3.740000000000000000e+02 2.488024902343750000e+01 5.749177455902099609e+00 -9.499903917312622070e-01 -6.614996790885925293e-01 -4.834470152854919434e-01 -7.895547747611999512e-01
3.750000000000000000e+02 1.850674629211425781e+01 1.045465350151062012e+00 -3.052179574966430664e+00 -1.310984611511230469e+00 -1.308949232101440430e+00 -2.042932271957397461e+00
3.760000000000000000e+02 1.832545661926269531e+01 1.211668729782104492e+00 -1.825648784637451172e+00 -1.179797172546386719e+00 -9.016337990760803223e-01 -1.488488197326660156e+00
3.770000000000000000e+02 2.476746559143066406e+01 5.282284736633300781e+00 9.731479287147521973e-01 1.293304860591888428e-01 3.307435214519500732e-01 5.209101438522338867e-01
3.780000000000000000e+02 1.854427909851074219e+01 1.397612333297729492e+00 -1.280460834503173828e+00 -1.076232910156250000e+00 -7.070081233978271484e-01 -1.262517690658569336e+00
3.790000000000000000e+02 1.802554512023925781e+01 7.684018015861511230e-01 -3.767402410507202148e+00 -1.524602055549621582e+00 -1.587601304054260254e+00 -2.375103950500488281e+00
3.800000000000000000e+02 1.751262092590332031e+01 4.453945159912109375e-01 -4.280098438262939453e+00 -1.322433352470397949e+00 -1.680759549140930176e+00 -2.737754821777343750e+00
3.810000000000000000e+02 1.748292541503906250e+01 7.150260210037231445e-01 -1.699146509170532227e+00 -7.923687100410461426e-01 -7.474545240402221680e-01 -1.545058369636535645e+00
3.820000000000000000e+02 2.172837066650390625e+01 3.033134937286376953e+00 4.754288494586944580e-01 2.114356681704521179e-02 1.489717215299606323e-01 1.537919640541076660e-01
3.830000000000000000e+02 2.176622200012207031e+01 3.483426332473754883e+00 -2.051221877336502075e-01 -5.217606425285339355e-01 -2.180648446083068848e-01 -4.705144762992858887e-01
3.840000000000000000e+02 2.697494125366210938e+01 6.344817638397216797e+00 3.041867733001708984e+00 1.187679409980773926e+00 1.268864154815673828e+00 1.790209889411926270e+00
3.850000000000000000e+02 2.316300010681152344e+01 4.730761051177978516e+00 -1.375756740570068359e+00 -9.749685525894165039e-01 -7.052175998687744141e-01 -1.241175413131713867e+00
3.860000000000000000e+02 2.390306663513183594e+01 4.072781562805175781e+00 1.800680160522460938e-01 5.353762209415435791e-02 7.008168846368789673e-02 8.989321440458297729e-02
3.870000000000000000e+02 2.434104156494140625e+01 4.051373481750488281e+00 1.384287774562835693e-01 -1.045793853700160980e-02 3.839125111699104309e-02 4.141597077250480652e-02
3.880000000000000000e+02 1.749348831176757812e+01 -2.773938775062561035e-01 -1.907144427299499512e+00 -5.233762860298156738e-01 -7.291561961174011230e-01 -9.925761222839355469e-01
3.890000000000000000e+02 1.681100463867187500e+01 -3.843196630477905273e-01 -2.311666250228881836e+00 -8.515574932098388672e-01 -9.489670991897583008e-01 -1.319050073623657227e+00
3.900000000000000000e+02 2.064845657348632812e+01 1.720833301544189453e+00 -1.039920840412378311e-03 1.461336761713027954e-01 4.352812841534614563e-02 1.633566021919250488e-01
3.910000000000000000e+02 2.354714202880859375e+01 3.523911237716674805e+00 2.178779989480972290e-01 2.789918333292007446e-02 7.373315095901489258e-02 7.813733071088790894e-02
3.920000000000000000e+02 2.284470939636230469e+01 3.051742553710937500e+00 2.642017006874084473e-01 5.069632455706596375e-02 9.446940571069717407e-02 1.134200319647789001e-01
3.930000000000000000e+02 2.114830780029296875e+01 1.961969375610351562e+00 1.428177654743194580e-01 1.133494228124618530e-01 7.685015350580215454e-02 1.590585857629776001e-01
3.940000000000000000e+02 2.664954948425292969e+01 5.772653579711914062e+00 -1.351940929889678955e-01 -7.697242498397827148e-02 -6.364995241165161133e-02 -1.124278008937835693e-01
3.950000000000000000e+02 2.085013771057128906e+01 2.169435262680053711e+00 3.550609052181243896e-01 1.738585531711578369e-01 1.586758345365524292e-01 2.443026453256607056e-01
3.960000000000000000e+02 2.347192382812500000e+01 2.782396554946899414e+00 1.628738194704055786e-01 -6.871491670608520508e-02 2.824766933917999268e-02 7.976278662681579590e-03
3.970000000000000000e+02 2.442706489562988281e+01 4.389493942260742188e+00 1.183690875768661499e-01 1.799667067825794220e-02 4.090972617268562317e-02 5.573813989758491516e-02
3.980000000000000000e+02 1.697849273681640625e+01 -2.681143581867218018e-01 -2.197487354278564453e+00 -7.656465768814086914e-01 -8.889402151107788086e-01 -1.348998904228210449e+00
3.990000000000000000e+02 1.953655624389648438e+01 1.334767699241638184e+00 -4.452651441097259521e-01 -1.051146443933248520e-02 -1.367329806089401245e-01 -8.533643186092376709e-02
4.000000000000000000e+02 1.868786430358886719e+01 5.500091910362243652e-01 -1.347044348716735840e+00 -6.781564652919769287e-02 -4.244579970836639404e-01 -5.145326256752014160e-01
4.010000000000000000e+02 1.882062339782714844e+01 9.368521571159362793e-01 -1.091969132423400879e+00 -2.722241580486297607e-01 -4.092579782009124756e-01 -5.439092516899108887e-01
4.020000000000000000e+02 2.038509559631347656e+01 1.609160423278808594e+00 -1.087127327919006348e-01 1.450855284929275513e-01 1.091183815151453018e-02 1.487593948841094971e-01
4.030000000000000000e+02 2.033870124816894531e+01 1.899681448936462402e+00 2.228533178567886353e-01 1.094853729009628296e-01 9.970160573720932007e-02 1.963642835617065430e-01
4.040000000000000000e+02 1.850164413452148438e+01 7.063417434692382812e-01 -1.493746519088745117e+00 -4.033942222595214844e-01 -5.691422224044799805e-01 -7.343524694442749023e-01
4.050000000000000000e+02 2.476949882507324219e+01 4.374063491821289062e+00 9.640000015497207642e-02 -1.597678475081920624e-02 2.412696555256843567e-02 1.612458564341068268e-02
4.060000000000000000e+02 2.643661117553710938e+01 5.221018314361572266e+00 -3.808127716183662415e-02 -1.007385253906250000e-01 -4.164594039320945740e-02 -8.510517328977584839e-02
4.070000000000000000e+02 1.714562606811523438e+01 -1.553380340337753296e-01 -2.176473140716552734e+00 -8.161362409591674805e-01 -8.977828025817871094e-01 -1.272796034812927246e+00
4.080000000000000000e+02 2.687044715881347656e+01 5.361169338226318359e+00 -4.793398082256317139e-02 -1.248156577348709106e-01 -5.182489007711410522e-02 -1.099045649170875549e-01
4.090000000000000000e+02 2.709128570556640625e+01 5.285356521606445312e+00 -2.907317131757736206e-02 -1.318941116333007812e-01 -4.829018563032150269e-02 -1.100821718573570251e-01
4.100000000000000000e+02 2.118954086303710938e+01 1.274497270584106445e+00 -3.214359283447265625e-01 2.503944747149944305e-02 -8.891893923282623291e-02 1.525981724262237549e-01
4.110000000000000000e+02 2.019433784484863281e+01 1.759514331817626953e+00 1.069179251790046692e-01 1.324111670255661011e-01 7.179872691631317139e-02 1.583872586488723755e-01
4.120000000000000000e+02 2.018190765380859375e+01 1.064736366271972656e+00 -6.352182626724243164e-01 2.728666663169860840e-01 -1.087054833769798279e-01 1.691599935293197632e-01
4.130000000000000000e+02 1.935871696472167969e+01 1.216935992240905762e+00 -5.843237042427062988e-01 -3.655239474028348923e-03 -1.763936877250671387e-01 -1.968158036470413208e-01
4.140000000000000000e+02 2.539921188354492188e+01 3.561335802078247070e+00 8.275018632411956787e-02 -1.095590218901634216e-01 -8.042650297284126282e-03 -7.138811796903610229e-02
4.150000000000000000e+02 1.571566581726074219e+01 -1.323912382125854492e+00 -1.788798451423645020e+00 -6.319494247436523438e-01 -7.262243628501892090e-01 -7.510818243026733398e-01
4.160000000000000000e+02 2.263900375366210938e+01 2.504871845245361328e+00 1.932663768529891968e-01 -4.036562051624059677e-03 5.676894634962081909e-02 6.365942955017089844e-02
4.170000000000000000e+02 2.800488471984863281e+01 5.848486900329589844e+00 -5.489341914653778076e-02 -1.464363634586334229e-01 -6.039893254637718201e-02 -1.036181449890136719e-01
4.180000000000000000e+02 1.719545364379882812e+01 -1.510667562484741211e+00 -1.090546011924743652e+00 -2.663169205188751221e-01 -4.070588648319244385e-01 -3.801065385341644287e-01
4.190000000000000000e+02 1.787138938903808594e+01 -1.097423791885375977e+00 -1.199606060981750488e+00 1.085091307759284973e-01 -3.273290693759918213e-01 -4.038387238979339600e-01
4.200000000000000000e+02 2.079612731933593750e+01 7.050688266754150391e-01 -7.394354343414306641e-01 6.412424892187118530e-02 -2.025933563709259033e-01 2.779572606086730957e-01
4.210000000000000000e+02 2.169133377075195312e+01 1.558170557022094727e+00 -1.362494081258773804e-01 1.708306185901165009e-02 -3.574990481138229370e-02 8.784051239490509033e-02
4.220000000000000000e+02 2.729758262634277344e+01 5.097759246826171875e+00 -1.903556170873343945e-03 -1.391318291425704956e-01 -4.231061413884162903e-02 -9.750764071941375732e-02
4.230000000000000000e+02 2.415109443664550781e+01 3.541301012039184570e+00 1.674566715955734253e-01 -3.550453484058380127e-02 3.958563879132270813e-02 1.294581871479749680e-02
4.240000000000000000e+02 2.448440170288085938e+01 3.341402530670166016e+00 1.239682137966156006e-01 -7.746002823114395142e-02 1.395245641469955444e-02 -3.008942492306232452e-02
4.250000000000000000e+02 1.683305740356445312e+01 -1.691916942596435547e+00 -1.048531413078308105e+00 -4.383677840232849121e-01 -4.460697770118713379e-01 -4.680049419403076172e-01
4.260000000000000000e+02 2.624137306213378906e+01 7.295894145965576172e+00 -3.782971143722534180e+00 -2.206492662429809570e+00 -1.796839118003845215e+00 -2.856261730194091797e+00
4.270000000000000000e+02 2.697657012939453125e+01 5.983730792999267578e+00 -1.840673983097076416e-01 -9.894258528947830200e-02 -8.490299433469772339e-02 -1.397316753864288330e-01
4.280000000000000000e+02 2.779113769531250000e+01 5.052097320556640625e+00 1.731874048709869385e-02 -1.108429431915283203e-01 -2.805726043879985809e-02 -8.550206571817398071e-02
4.290000000000000000e+02 2.248641395568847656e+01 4.194641113281250000e+00 -7.885863184928894043e-01 -7.601317167282104492e-01 -4.646154344081878662e-01 -8.539099693298339844e-01
4.300000000000000000e+02 2.810100364685058594e+01 6.046474933624267578e+00 -6.518001109361648560e-02 -1.532251536846160889e-01 -6.552154570817947388e-02 -1.177850589156150818e-01
4.310000000000000000e+02 2.771772384643554688e+01 5.859869003295898438e+00 -8.758913725614547729e-02 -1.577974706888198853e-01 -7.361598312854766846e-02 -1.273302435874938965e-01
4.320000000000000000e+02 2.727552604675292969e+01 5.811677932739257812e+00 -1.193806529045104980e-01 -1.364959180355072021e-01 -7.676297426223754883e-02 -1.434390842914581299e-01
4.330000000000000000e+02 1.802574157714843750e+01 -6.289025545120239258e-01 -1.454111099243164062e+00 9.082368016242980957e-02 -4.089862406253814697e-01 -6.060049533843994141e-01
4.340000000000000000e+02 2.210570907592773438e+01 2.492837190628051758e+00 2.648456990718841553e-01 6.195837259292602539e-02 9.804121404886245728e-02 1.339084953069686890e-01
4.350000000000000000e+02 2.648065948486328125e+01 6.891820907592773438e+00 -1.238225460052490234e+00 -1.077039361000061035e+00 -6.945794224739074707e-01 -1.111364245414733887e+00
4.360000000000000000e+02 2.137590599060058594e+01 2.484710216522216797e+00 4.004061520099639893e-01 1.531187593936920166e-01 1.660574674606323242e-01 2.554529011249542236e-01
4.370000000000000000e+02 2.203787803649902344e+01 2.063200950622558594e+00 7.370631396770477295e-02 -5.637750960886478424e-03 2.042056806385517120e-02 9.548714756965637207e-02
4.380000000000000000e+02 2.509796905517578125e+01 3.919186592102050781e+00 1.053464710712432861e-01 -8.341082930564880371e-02 6.580691318958997726e-03 -3.568297624588012695e-02
4.390000000000000000e+02 2.195049285888671875e+01 1.871048808097839355e+00 2.372367493808269501e-02 7.969377562403678894e-03 9.507915936410427094e-03 6.386416405439376831e-02
4.400000000000000000e+02 2.650896263122558594e+01 5.975163936614990234e+00 3.133666992187500000e+00 1.166626214981079102e+00 1.290087938308715820e+00 1.962314486503601074e+00
4.410000000000000000e+02 2.526243782043457031e+01 3.778376102447509766e+00 8.930840343236923218e-02 -1.076663583517074585e-01 -5.507387686520814896e-03 -5.025613307952880859e-02
4.420000000000000000e+02 2.581401443481445312e+01 5.986171722412109375e+00 1.004504680633544922e+00 2.458720654249191284e-01 3.751130104064941406e-01 4.494408071041107178e-01
4.430000000000000000e+02 2.056540489196777344e+01 2.614430665969848633e+00 -4.106100499629974365e-01 -6.341676712036132812e-01 -3.134333193302154541e-01 -6.275107264518737793e-01
4.440000000000000000e+02 2.517492866516113281e+01 5.828060626983642578e+00 -6.269009709358215332e-01 -3.283737897872924805e-01 -2.865824103355407715e-01 -4.771945476531982422e-01
4.450000000000000000e+02 2.220976829528808594e+01 4.010453701019287109e+00 -7.887239456176757812e-01 -6.988846063613891602e-01 -4.462825655937194824e-01 -8.383968472480773926e-01
4.460000000000000000e+02 2.293684959411621094e+01 4.500972270965576172e+00 -8.726794719696044922e-01 -7.706018090248107910e-01 -4.929843842983245850e-01 -9.318627119064331055e-01
4.470000000000000000e+02 2.442095947265625000e+01 5.519741535186767578e+00 -1.505163788795471191e+00 -1.050297617912292480e+00 -7.666384577751159668e-01 -1.158659577369689941e+00
4.480000000000000000e+02 2.092343711853027344e+01 2.869950294494628906e+00 -2.694267630577087402e-01 -5.298438668251037598e-01 -2.397811859846115112e-01 -5.462608337402343750e-01
4.490000000000000000e+02 2.146965408325195312e+01 3.503608942031860352e+00 -5.483193397521972656e-01 -7.952514886856079102e-01 -4.030712544918060303e-01 -8.046868443489074707e-01
4.500000000000000000e+02 2.412411117553710938e+01 5.373174667358398438e+00 -1.794613480567932129e+00 -1.123275518417358398e+00 -8.753667473793029785e-01 -1.354395508766174316e+00
4.510000000000000000e+02 2.121040153503417969e+01 3.301757574081420898e+00 -5.412796735763549805e-01 -7.733873724937438965e-01 -3.944001197814941406e-01 -7.480408549308776855e-01
4.520000000000000000e+02 2.105927658081054688e+01 3.067036390304565430e+00 -3.785802423954010010e-01 -6.312108635902404785e-01 -3.029373288154602051e-01 -6.453624367713928223e-01
4.530000000000000000e+02 1.512353992462158203e+01 5.533342957496643066e-01 2.837749719619750977e+00 1.004525780677795410e+00 1.152682662010192871e+00 -1.002176165580749512e+00
4.540000000000000000e+02 2.783670806884765625e+01 5.383440017700195312e+00 -1.009508222341537476e-02 -1.211645603179931641e-01 -3.937789052724838257e-02 -9.392356872558593750e-02
4.550000000000000000e+02 1.819314384460449219e+01 -5.126250386238098145e-01 -1.473855853080749512e+00 1.860014498233795166e-01 -3.863563239574432373e-01 -5.270682573318481445e-01
4.560000000000000000e+02 2.597472000122070312e+01 5.709102630615234375e+00 3.014524698257446289e+00 1.043040871620178223e+00 1.217269659042358398e+00 1.746946692466735840e+00
4.570000000000000000e+02 1.796248435974121094e+01 1.058284044265747070e+00 -1.196944832801818848e+00 -9.648719429969787598e-01 -6.485450267791748047e-01 -1.290551662445068359e+00
4.580000000000000000e+02 2.721030426025390625e+01 6.787711143493652344e+00 1.495408296585083008e+00 5.194567441940307617e-01 6.044595241546630859e-01 9.468671679496765137e-01
4.590000000000000000e+02 1.720328140258789062e+01 6.996676325798034668e-01 -1.197725653648376465e+00 -6.200256347656250000e-01 -5.453253984451293945e-01 -1.071591377258300781e+00
4.600000000000000000e+02 1.673883247375488281e+01 5.451579689979553223e-01 -7.918072938919067383e-01 -2.772378027439117432e-01 -3.207135200500488281e-01 -6.025719642639160156e-01
4.610000000000000000e+02 2.389290237426757812e+01 4.802040100097656250e+00 5.904939174652099609e-01 -1.658164113759994507e-01 1.274032592773437500e-01 -1.696397922933101654e-02
4.620000000000000000e+02 1.612993621826171875e+01 -1.333520049229264259e-03 -3.059435606002807617e+00 5.177160501480102539e-01 -7.625158429145812988e-01 -1.476716279983520508e+00
4.630000000000000000e+02 2.368414306640625000e+01 3.659442424774169922e+00 2.073070853948593140e-01 1.165773812681436539e-02 6.568944454193115234e-02 8.302199095487594604e-02
4.640000000000000000e+02 2.561004066467285156e+01 4.838339805603027344e+00 1.946664042770862579e-02 -4.728781431913375854e-02 -8.346351794898509979e-03 -3.995263576507568359e-02
4.650000000000000000e+02 2.371541023254394531e+01 2.803117275238037109e+00 1.326279342174530029e-01 -7.098314166069030762e-02 1.849343627691268921e-02 -2.020489983260631561e-02
4.660000000000000000e+02 2.558269309997558594e+01 4.275063514709472656e+00 6.421558558940887451e-02 -9.183528274297714233e-02 -8.285908959805965424e-03 -5.274906009435653687e-02
4.670000000000000000e+02 2.534510612487792969e+01 4.405199050903320312e+00 7.038643956184387207e-02 -6.436793506145477295e-02 1.805549720302224159e-03 -3.338102623820304871e-02
4.680000000000000000e+02 2.360383987426757812e+01 3.146109819412231445e+00 1.956005990505218506e-01 -2.831201441586017609e-02 5.018657818436622620e-02 2.807249501347541809e-02
4.690000000000000000e+02 2.136069869995117188e+01 1.376713991165161133e+00 -2.560491859912872314e-01 4.006470367312431335e-02 -6.479534506797790527e-02 1.132632717490196228e-01
4.700000000000000000e+02 1.911192321777343750e+01 8.317236304283142090e-01 -1.150804638862609863e+00 6.836605817079544067e-02 -3.247315883636474609e-01 -2.961164116859436035e-01
4.710000000000000000e+02 2.709817886352539062e+01 5.751211166381835938e+00 -1.158973053097724915e-01 -1.285842508077621460e-01 -7.334446161985397339e-02 -1.295473724603652954e-01
4.720000000000000000e+02 2.756222724914550781e+01 5.541855812072753906e+00 -4.296924918889999390e-02 -1.426061838865280151e-01 -5.567263066768646240e-02 -1.130607798695564270e-01
4.730000000000000000e+02 1.706620979309082031e+01 -1.017040967941284180e+00 -1.750826597213745117e+00 -3.513280153274536133e-01 -6.306464076042175293e-01 -7.246577739715576172e-01
4.740000000000000000e+02 2.030491447448730469e+01 7.856969833374023438e-01 -8.980987071990966797e-01 2.721074521541595459e-01 -1.877973675727844238e-01 3.071280419826507568e-01
4.750000000000000000e+02 2.607737541198730469e+01 4.842619895935058594e+00 8.143399842083454132e-03 -9.028443694114685059e-02 -2.464231103658676147e-02 -7.055871933698654175e-02
4.760000000000000000e+02 2.666492843627929688e+01 4.805519580841064453e+00 2.156098186969757080e-02 -1.222259327769279480e-01 -3.019948489964008331e-02 -9.023878723382949829e-02
4.770000000000000000e+02 2.630720329284667969e+01 4.768382549285888672e+00 2.196539938449859619e-02 -1.090104281902313232e-01 -2.611350826919078827e-02 -7.918701320886611938e-02
4.780000000000000000e+02 2.283657073974609375e+01 1.973399281501770020e+00 -6.094616372138261795e-03 -9.979122132062911987e-02 -3.176575154066085815e-02 5.460820160806179047e-03
4.790000000000000000e+02 2.334562683105468750e+01 2.934128522872924805e+00 1.752900630235671997e-01 -4.051964357495307922e-02 4.043112695217132568e-02 4.180033132433891296e-02
4.800000000000000000e+02 1.984938049316406250e+01 5.231701135635375977e-01 -1.246490478515625000e+00 4.599817991256713867e-01 -2.359526157379150391e-01 2.269212752580642700e-01
4.810000000000000000e+02 2.011395072937011719e+01 7.077939510345458984e-01 -9.563307166099548340e-01 4.037588834762573242e-01 -1.657715588808059692e-01 2.338518649339675903e-01
4.820000000000000000e+02 1.963491249084472656e+01 7.110378742218017578e-01 -1.087987899780273438e+00 4.308308362960815430e-01 -1.971471011638641357e-01 4.001226648688316345e-02
4.830000000000000000e+02 1.723280715942382812e+01 -1.188942551612854004e+00 -1.379807114601135254e+00 -2.840400934219360352e-01 -4.991541802883148193e-01 -5.366243124008178711e-01
4.840000000000000000e+02 1.616164016723632812e+01 -1.410947084426879883e+00 -1.484587669372558594e+00 -8.341932296752929688e-01 -6.956343054771423340e-01 -5.665538311004638672e-01
4.850000000000000000e+02 2.569254302978515625e+01 4.493881225585937500e+00 5.446678772568702698e-02 -8.320198953151702881e-02 -8.620561100542545319e-03 -5.223227292299270630e-02
4.860000000000000000e+02 1.685601615905761719e+01 -1.279227972030639648e+00 -1.581435680389404297e+00 -4.811852574348449707e-01 -6.187862753868103027e-01 -5.208780765533447266e-01
4.870000000000000000e+02 1.799986267089843750e+01 -2.705654203891754150e-01 -1.635627508163452148e+00 -9.904465824365615845e-02 -5.204016566276550293e-01 -7.534611225128173828e-01
4.880000000000000000e+02 2.143686676025390625e+01 1.690131187438964844e+00 -6.844086199998855591e-02 6.054139137268066406e-02 -2.369842026382684708e-03 1.236406639218330383e-01
4.890000000000000000e+02 2.631417846679687500e+01 6.504552841186523438e+00 2.178111374378204346e-01 -1.144559234380722046e-01 3.100656345486640930e-02 1.469998359680175781e-01
4.900000000000000000e+02 2.584378433227539062e+01 6.532279491424560547e+00 -1.634430170059204102e+00 -1.011151790618896484e+00 -7.936745882034301758e-01 -1.287745714187622070e+00
4.910000000000000000e+02 2.690328025817871094e+01 7.372483253479003906e+00 -1.870471239089965820e+00 -1.135282516479492188e+00 -9.017261266708374023e-01 -1.400120139122009277e+00
4.920000000000000000e+02 2.740107727050781250e+01 6.885983943939208984e+00 1.673232436180114746e+00 6.706001162528991699e-01 7.031497955322265625e-01 1.010945081710815430e+00
4.930000000000000000e+02 2.546499824523925781e+01 6.373282432556152344e+00 -2.037987232208251953e+00 -1.213615298271179199e+00 -9.754807353019714355e-01 -1.640738844871520996e+00
4.940000000000000000e+02 2.563428306579589844e+01 6.620205879211425781e+00 -2.645202159881591797e+00 -1.518489837646484375e+00 -1.249107599258422852e+00 -2.042255878448486328e+00
4.950000000000000000e+02 2.224742889404296875e+01 2.353343725204467773e+00 1.640112251043319702e-01 1.444420870393514633e-02 5.353663116693496704e-02 1.029028445482254028e-01
4.960000000000000000e+02 1.846948242187500000e+01 3.501643538475036621e-01 -1.571514606475830078e+00 -1.085016578435897827e-01 -5.040048360824584961e-01 -5.925823450088500977e-01
4.970000000000000000e+02 2.639283370971679688e+01 7.074961662292480469e+00 -2.416302919387817383e+00 -1.408838152885437012e+00 -1.147542357444763184e+00 -1.625697374343872070e+00
4.980000000000000000e+02 1.812079811096191406e+01 1.768802553415298462e-01 -1.748056888580322266e+00 -3.144135177135467529e-01 -6.187410950660705566e-01 -8.037917017936706543e-01
4.990000000000000000e+02 2.571863365173339844e+01 6.979248523712158203e+00 -4.239396572113037109e+00 -2.181278228759765625e+00 -1.926202416419982910e+00 -2.971912145614624023e+00
5.000000000000000000e+02 2.287430191040039062e+01 3.977885246276855469e+00 9.555277824401855469e-01 -8.006450533866882324e-02 2.626389861106872559e-01 2.560978233814239502e-01
5.010000000000000000e+02 1.582933235168457031e+01 -2.527323924005031586e-02 -2.655420303344726562e+00 1.192990422248840332e+00 -4.387289583683013916e-01 -1.566416025161743164e+00
5.020000000000000000e+02 1.614954376220703125e+01 -4.254071414470672607e-01 -3.742376804351806641e+00 -7.226533293724060059e-01 -1.339509129524230957e+00 -1.677296876907348633e+00
5.030000000000000000e+02 1.644632148742675781e+01 -1.453485488891601562e+00 -1.407363653182983398e+00 -6.854575276374816895e-01 -6.278463602066040039e-01 -5.928003787994384766e-01
5.040000000000000000e+02 1.625562286376953125e+01 -1.167083740234375000e+00 -2.107092142105102539e+00 -8.124168515205383301e-01 -8.758526444435119629e-01 -4.700444042682647705e-01
5.050000000000000000e+02 1.570451831817626953e+01 2.519189417362213135e-01 3.891281187534332275e-01 1.330737829208374023e+00 5.159597992897033691e-01 -1.183200955390930176e+00
5.060000000000000000e+02 1.905913162231445312e+01 1.955779910087585449e+00 -4.663517773151397705e-01 -7.157579660415649414e-01 -3.546329140663146973e-01 -7.573227286338806152e-01
5.070000000000000000e+02 1.830961990356445312e+01 -2.198664695024490356e-01 -1.514361739158630371e+00 1.617006361484527588e-01 -4.057983458042144775e-01 -5.013367533683776855e-01
5.080000000000000000e+02 1.897157478332519531e+01 5.663049221038818359e-01 -1.290600776672363281e+00 2.090453803539276123e-01 -3.244666159152984619e-01 -2.539361417293548584e-01
5.090000000000000000e+02 2.714145660400390625e+01 5.515115261077880859e+00 -6.419216841459274292e-02 -1.337825357913970947e-01 -5.939241126179695129e-02 -1.179679855704307556e-01
5.100000000000000000e+02 2.736359596252441406e+01 5.513992786407470703e+00 -4.846284538507461548e-02 -1.462430208921432495e-01 -5.841175839304924011e-02 -1.164198145270347595e-01
5.110000000000000000e+02 2.710676574707031250e+01 7.178796291351318359e+00 -6.613107919692993164e-01 -2.467542886734008789e-01 -2.724195122718811035e-01 -3.549908101558685303e-01
5.120000000000000000e+02 2.039383125305175781e+01 1.114218592643737793e+00 -5.865468382835388184e-01 2.093095481395721436e-01 -1.131711900234222412e-01 2.089333385229110718e-01
5.130000000000000000e+02 2.417414855957031250e+01 3.933209896087646484e+00 1.593506336212158203e-01 2.883040346205234528e-03 4.867010191082954407e-02 4.416135326027870178e-02
5.140000000000000000e+02 2.251664733886718750e+01 2.358477115631103516e+00 1.376649439334869385e-01 -2.407970838248729706e-02 3.407557308673858643e-02 7.059548795223236084e-02
5.150000000000000000e+02 1.867271995544433594e+01 3.759214282035827637e-01 -1.597125053405761719e+00 9.168181568384170532e-02 -4.516329467296600342e-01 -5.076882243156433105e-01
5.160000000000000000e+02 1.949674224853515625e+01 9.525567889213562012e-01 -9.257813096046447754e-01 1.808124780654907227e-01 -2.234906554222106934e-01 -5.244347080588340759e-02
5.170000000000000000e+02 1.783939170837402344e+01 -3.905213475227355957e-01 -1.672283768653869629e+00 -1.874422132968902588e-01 -5.579177737236022949e-01 -7.378542423248291016e-01
5.180000000000000000e+02 2.321898460388183594e+01 3.217948198318481445e+00 2.415747046470642090e-01 2.525174804031848907e-02 8.004793524742126465e-02 8.113241940736770630e-02
5.190000000000000000e+02 2.300796318054199219e+01 2.877877712249755859e+00 2.018097937107086182e-01 -3.966062795370817184e-03 5.935312062501907349e-02 7.177113741636276245e-02
5.200000000000000000e+02 2.580160903930664062e+01 4.695583820343017578e+00 2.693754620850086212e-02 -8.114252239465713501e-02 -1.626149192452430725e-02 -5.358198657631874084e-02
5.210000000000000000e+02 2.489657402038574219e+01 4.026909351348876953e+00 1.012517586350440979e-01 -5.879389867186546326e-02 1.273735798895359039e-02 -1.450859103351831436e-02
5.220000000000000000e+02 1.720486450195312500e+01 -8.704810738563537598e-01 -1.786235094070434570e+00 -3.778197765350341797e-01 -6.492164731025695801e-01 -7.688484191894531250e-01
5.230000000000000000e+02 1.967807006835937500e+01 1.468261122703552246e+00 -2.273445725440979004e-01 3.943251445889472961e-02 -5.637361854314804077e-02 -4.133990406990051270e-02
5.240000000000000000e+02 1.999178695678710938e+01 9.750122427940368652e-01 -7.784922719001770020e-01 2.743918895721435547e-01 -1.512301266193389893e-01 1.624963283538818359e-01
5.250000000000000000e+02 1.881453514099121094e+01 -1.145941466093063354e-01 -1.585331320762634277e+00 4.736767411231994629e-01 -3.334963619709014893e-01 -3.593603968620300293e-01
5.260000000000000000e+02 2.476461601257324219e+01 3.816526651382446289e+00 1.271728873252868652e-01 -6.814318895339965820e-02 1.770890876650810242e-02 -1.807747222483158112e-02
5.270000000000000000e+02 2.222923851013183594e+01 2.596244335174560547e+00 2.673550248146057129e-01 4.365706443786621094e-02 9.330362826585769653e-02 1.393659859895706177e-01
5.280000000000000000e+02 2.157818603515625000e+01 1.730562210083007812e+00 -6.709074229001998901e-02 1.222265139222145081e-02 -1.646042615175247192e-02 1.178545355796813965e-01
5.290000000000000000e+02 1.753607368469238281e+01 -9.707576036453247070e-01 -1.465098977088928223e+00 -1.516882181167602539e-01 -4.850361645221710205e-01 -5.760290622711181641e-01
5.300000000000000000e+02 1.555265045166015625e+01 -4.846250414848327637e-01 -4.730591773986816406e+00 2.519628405570983887e-01 -1.343588590621948242e+00 -2.560589313507080078e-01
5.310000000000000000e+02 1.588486289978027344e+01 -2.464228421449661255e-01 -4.852348327636718750e+00 9.338082671165466309e-01 -1.175562024116516113e+00 -1.154020428657531738e+00
5.320000000000000000e+02 1.580789661407470703e+01 -2.014942407608032227e+00 -8.101927638053894043e-01 -6.379482150077819824e-01 -4.344422817230224609e-01 -5.858626961708068848e-01
5.330000000000000000e+02 2.779977416992187500e+01 6.011123180389404297e+00 -1.114026308059692383e-01 -1.731389462947845459e-01 -8.536247909069061279e-02 -1.521449387073516846e-01
5.340000000000000000e+02 2.430105209350585938e+01 3.707533121109008789e+00 1.450261920690536499e-01 -4.375071823596954346e-02 3.038264438509941101e-02 1.963821426033973694e-02
5.350000000000000000e+02 1.976152992248535156e+01 8.037325739860534668e-01 -1.048660874366760254e+00 3.462849259376525879e-01 -2.107128053903579712e-01 1.348638087511062622e-01
5.360000000000000000e+02 2.400750732421875000e+01 3.809019565582275391e+00 1.711545139551162720e-01 -2.741218544542789459e-03 5.052398890256881714e-02 5.982821434736251831e-02
5.370000000000000000e+02 2.675825881958007812e+01 7.033214569091796875e+00 -1.056770682334899902e+00 -6.641172170639038086e-01 -5.162663459777832031e-01 -7.200224995613098145e-01
5.380000000000000000e+02 2.656147956848144531e+01 7.180101394653320312e+00 -2.217334747314453125e+00 -1.295891880989074707e+00 -1.053967952728271484e+00 -1.567090749740600586e+00
5.390000000000000000e+02 1.628826141357421875e+01 -2.017508745193481445e+00 -7.232254743576049805e-01 -5.461186170578002930e-01 -3.808032274246215820e-01 -4.706217050552368164e-01
5.400000000000000000e+02 2.591839790344238281e+01 4.346871852874755859e+00 5.187780410051345825e-02 -1.095101162791252136e-01 -1.728969253599643707e-02 -6.773072481155395508e-02
5.410000000000000000e+02 1.501998519897460938e+01 -1.876763939857482910e+00 -1.168183207511901855e+00 -3.048137426376342773e-01 -4.418990910053253174e-01 -5.827531218528747559e-01
5.420000000000000000e+02 2.733691596984863281e+01 7.138818740844726562e+00 2.376515120267868042e-01 2.186306565999984741e-01 1.368846446275711060e-01 2.957835495471954346e-01
5.430000000000000000e+02 2.680967140197753906e+01 6.619683265686035156e+00 1.038641810417175293e+00 4.286424815654754639e-01 4.401853084564208984e-01 6.646351814270019531e-01
5.440000000000000000e+02 2.666334533691406250e+01 6.085372924804687500e+00 3.030575990676879883e+00 1.210519075393676758e+00 1.272328495979309082e+00 1.930740833282470703e+00
5.450000000000000000e+02 2.625729751586914062e+01 6.057101726531982422e+00 2.105510234832763672e+00 5.969659686088562012e-01 8.107428550720214844e-01 1.226928830146789551e+00
5.460000000000000000e+02 2.616484069824218750e+01 5.797074317932128906e+00 3.110755681991577148e+00 1.042659521102905273e+00 1.246024608612060547e+00 1.802354931831359863e+00
5.470000000000000000e+02 2.606507492065429688e+01 6.028557300567626953e+00 1.598688602447509766e+00 4.311603009700775146e-01 6.089546680450439453e-01 8.593286275863647461e-01
5.480000000000000000e+02 2.557998275756835938e+01 5.872692108154296875e+00 8.431518077850341797e-01 1.239694058895111084e-01 2.901363670825958252e-01 3.164406120777130127e-01
5.490000000000000000e+02 2.527947998046875000e+01 5.594168186187744141e+00 1.125701785087585449e+00 3.165306150913238525e-01 4.326697289943695068e-01 6.295171380043029785e-01
5.500000000000000000e+02 2.545771217346191406e+01 5.377488613128662109e+00 2.906268596649169922e+00 9.494918584823608398e-01 1.156728148460388184e+00 1.687638401985168457e+00
5.510000000000000000e+02 2.511773872375488281e+01 5.163169384002685547e+00 2.711592435836791992e+00 9.956188201904296875e-01 1.112163424491882324e+00 1.666152596473693848e+00
5.520000000000000000e+02 2.478059196472167969e+01 4.935232162475585938e+00 2.759026288986206055e+00 1.067581534385681152e+00 1.147982358932495117e+00 1.530759334564208984e+00
5.530000000000000000e+02 2.434778404235839844e+01 4.955839157104492188e+00 1.146746873855590820e+00 1.298676878213882446e-01 3.829843699932098389e-01 6.145378351211547852e-01
5.540000000000000000e+02 2.371853446960449219e+01 4.320669651031494141e+00 2.151842117309570312e+00 6.159414052963256836e-01 8.303350806236267090e-01 1.155514121055603027e+00
5.550000000000000000e+02 2.365929985046386719e+01 4.679715633392333984e+00 4.035694897174835205e-01 -3.026299774646759033e-01 3.028185293078422546e-02 -1.274944096803665161e-01
5.560000000000000000e+02 2.341917037963867188e+01 4.077093124389648438e+00 1.856070399284362793e+00 4.849532246589660645e-01 7.023070454597473145e-01 1.035774469375610352e+00
5.570000000000000000e+02 2.257275199890136719e+01 3.593480110168457031e+00 1.176185369491577148e+00 2.667208313941955566e-01 4.328718483448028564e-01 5.597613453865051270e-01
5.580000000000000000e+02 2.238462829589843750e+01 3.495437622070312500e+00 1.035595417022705078e+00 1.454204916954040527e-01 3.543047904968261719e-01 4.977750182151794434e-01
5.590000000000000000e+02 2.151326560974121094e+01 3.153324127197265625e+00 1.683909296989440918e-01 -2.262151837348937988e-01 -1.734727434813976288e-02 -1.386348456144332886e-01
5.600000000000000000e+02 2.039759445190429688e+01 2.419662237167358398e+00 -5.961814522743225098e-01 -6.528261303901672363e-01 -3.747022747993469238e-01 -6.892448067665100098e-01
5.610000000000000000e+02 2.056424522399902344e+01 2.295498132705688477e+00 -6.155630350112915039e-01 -3.551204800605773926e-01 -2.912050485610961914e-01 -4.569932818412780762e-01
5.620000000000000000e+02 1.985030937194824219e+01 2.300760984420776367e+00 -6.808512210845947266e-01 -8.251016139984130859e-01 -4.517858624458312988e-01 -8.860064148902893066e-01
5.630000000000000000e+02 1.921605873107910156e+01 1.423104047775268555e+00 -2.474648237228393555e+00 -9.489381909370422363e-01 -1.027076005935668945e+00 -1.666183114051818848e+00
5.640000000000000000e+02 1.915296363830566406e+01 1.539981007575988770e+00 -1.765419125556945801e+00 -9.872990250587463379e-01 -8.258154392242431641e-01 -1.415043711662292480e+00
5.650000000000000000e+02 1.834639358520507812e+01 1.594456911087036133e+00 1.288570165634155273e-01 -5.954150557518005371e-01 -1.399674117565155029e-01 -3.882946074008941650e-01
5.660000000000000000e+02 1.820818710327148438e+01 8.321108222007751465e-01 -3.630430459976196289e+00 -1.430270075798034668e+00 -1.518210172653198242e+00 -2.277899742126464844e+00
5.670000000000000000e+02 1.684709167480468750e+01 2.988256812095642090e-01 -2.618785858154296875e+00 -1.145651698112487793e+00 -1.129331231117248535e+00 -2.093317270278930664e+00
5.680000000000000000e+02 1.642491722106933594e+01 4.125265181064605713e-01 -3.879265785217285156e-01 -2.352885156869888306e-01 -1.869645267724990845e-01 -5.369291305541992188e-01
5.690000000000000000e+02 1.610481452941894531e+01 -2.321939468383789062e-01 -4.155755519866943359e+00 1.946673393249511719e-01 -1.188326478004455566e+00 -1.798186779022216797e+00
5.700000000000000000e+02 2.798352813720703125e+01 6.378621101379394531e+00 -1.999364942312240601e-01 -2.115120142698287964e-01 -1.234345510601997375e-01 -2.165912687778472900e-01
5.710000000000000000e+02 2.744732856750488281e+01 5.919847488403320312e+00 -1.316496580839157104e-01 -1.617619097232818604e-01 -8.802346885204315186e-02 -1.539361327886581421e-01
5.720000000000000000e+02 2.681096076965332031e+01 5.881733417510986328e+00 -1.636158227920532227e-01 -9.380639344453811646e-02 -7.722666114568710327e-02 -1.201267242431640625e-01
5.730000000000000000e+02 2.695290946960449219e+01 5.657287120819091797e+00 -9.873277693986892700e-02 -1.117779910564422607e-01 -6.315322965383529663e-02 -1.212078183889389038e-01
5.740000000000000000e+02 2.680890464782714844e+01 5.554503917694091797e+00 -9.296421706676483154e-02 -1.093126609921455383e-01 -6.068306043744087219e-02 -1.077399402856826782e-01
5.750000000000000000e+02 2.595121192932128906e+01 5.348055839538574219e+00 -5.845008417963981628e-02 -4.071385785937309265e-02 -2.974918298423290253e-02 -5.678393319249153137e-02
5.760000000000000000e+02 2.624352073669433594e+01 5.168264389038085938e+00 -3.087708167731761932e-02 -7.893528789281845093e-02 -3.294371068477630615e-02 -7.495913654565811157e-02
5.770000000000000000e+02 2.577732086181640625e+01 5.259509563446044922e+00 -4.385805130004882812e-02 -4.196020215749740601e-02 -2.574547566473484039e-02 -3.834724053740501404e-02
5.780000000000000000e+02 2.587140464782714844e+01 5.063723564147949219e+00 -1.489038486033678055e-02 -5.403440445661544800e-02 -2.067743614315986633e-02 -5.392269790172576904e-02
5.790000000000000000e+02 2.528497123718261719e+01 4.897889137268066406e+00 2.423541620373725891e-02 -1.215906161814928055e-02 3.622906282544136047e-03 -1.010619662702083588e-02
5.800000000000000000e+02 2.476001930236816406e+01 4.607118606567382812e+00 7.359819859266281128e-02 1.322294701822102070e-03 2.247614786028862000e-02 3.330273553729057312e-02
5.810000000000000000e+02 2.340548515319824219e+01 3.757633924484252930e+00 2.399032711982727051e-01 6.046621501445770264e-02 9.011084586381912231e-02 1.329645663499832153e-01
5.820000000000000000e+02 2.324150848388671875e+01 3.638243675231933594e+00 2.620464265346527100e-01 8.238318562507629395e-02 1.033288836479187012e-01 1.402211934328079224e-01
5.830000000000000000e+02 2.301863098144531250e+01 3.138655900955200195e+00 2.533200681209564209e-01 1.715702190995216370e-02 8.114312589168548584e-02 1.076309680938720703e-01
5.840000000000000000e+02 2.266702651977539062e+01 2.957285165786743164e+00 2.776795029640197754e-01 3.188282996416091919e-02 9.286870062351226807e-02 1.286361217498779297e-01
5.850000000000000000e+02 2.203386688232421875e+01 2.941110372543334961e+00 3.862845003604888916e-01 1.268091201782226562e-01 1.539280861616134644e-01 2.365990728139877319e-01
5.860000000000000000e+02 2.213482093811035156e+01 2.759301662445068359e+00 3.271948695182800293e-01 9.924580901861190796e-02 1.279322057962417603e-01 1.763549447059631348e-01
5.870000000000000000e+02 2.154034233093261719e+01 2.606009721755981445e+00 4.043912887573242188e-01 1.615037322044372559e-01 1.697684973478317261e-01 2.502178847789764404e-01
5.880000000000000000e+02 2.183447265625000000e+01 2.533674716949462891e+00 3.197786211967468262e-01 1.052939072251319885e-01 1.275217533111572266e-01 1.808998882770538330e-01
5.890000000000000000e+02 2.136129570007324219e+01 2.078829288482666016e+00 1.727078557014465332e-01 8.825018256902694702e-02 7.828741520643234253e-02 1.671486645936965942e-01
5.900000000000000000e+02 2.154104804992675781e+01 2.237478971481323242e+00 2.416492998600006104e-01 1.070198267698287964e-01 1.046007424592971802e-01 1.642817109823226929e-01
5.910000000000000000e+02 2.077692985534667969e+01 1.859538793563842773e+00 1.490885764360427856e-01 1.527753919363021851e-01 9.055919200181961060e-02 1.806569248437881470e-01
5.920000000000000000e+02 2.049374771118164062e+01 1.987400770187377930e+00 3.011798560619354248e-01 1.642625778913497925e-01 1.396327316761016846e-01 1.990551203489303589e-01
5.930000000000000000e+02 2.048386955261230469e+01 1.801054954528808594e+00 1.414738595485687256e-01 1.612368524074554443e-01 9.081321209669113159e-02 1.938724815845489502e-01
5.940000000000000000e+02 2.034474945068359375e+01 1.374484896659851074e+00 -2.921919822692871094e-01 2.007496803998947144e-01 -2.743269503116607666e-02 1.482406109571456909e-01
5.950000000000000000e+02 1.986848831176757812e+01 1.354785084724426270e+00 -3.799979984760284424e-01 1.878967285156250000e-01 -5.763038247823715210e-02 4.383846372365951538e-02
5.960000000000000000e+02 1.977758979797363281e+01 1.160026073455810547e+00 -6.313233971595764160e-01 2.180394530296325684e-01 -1.239851862192153931e-01 4.944396018981933594e-02
5.970000000000000000e+02 1.899002265930175781e+01 1.033178091049194336e+00 -9.179601669311523438e-01 -1.487001478672027588e-01 -3.199981153011322021e-01 -4.505041539669036865e-01
5.980000000000000000e+02 1.865701293945312500e+01 8.324456810951232910e-01 -1.254077672958374023e+00 -3.243072330951690674e-01 -4.735154509544372559e-01 -6.658941507339477539e-01
5.990000000000000000e+02 1.796325874328613281e+01 6.934621185064315796e-02 -1.773945689201354980e+00 -3.161049187183380127e-01 -6.270151734352111816e-01 -9.131520986557006836e-01
6.000000000000000000e+02 1.781099510192871094e+01 -4.681610688567161560e-02 -1.857293486595153809e+00 -4.298863708972930908e-01 -6.861539483070373535e-01 -9.171167016029357910e-01
6.010000000000000000e+02 1.731255149841308594e+01 -4.446045309305191040e-02 -2.090808153152465820e+00 -7.124179005622863770e-01 -8.409678339958190918e-01 -1.296640396118164062e+00
6.020000000000000000e+02 1.716968917846679688e+01 -5.165702104568481445e-01 -1.995864987373352051e+00 -5.869653224945068359e-01 -7.748491168022155762e-01 -1.029910683631896973e+00
6.030000000000000000e+02 1.733124160766601562e+01 -3.948403298854827881e-01 -1.920598268508911133e+00 -4.936011433601379395e-01 -7.242597937583923340e-01 -1.066959023475646973e+00
6.040000000000000000e+02 1.700969696044921875e+01 -6.479260325431823730e-01 -1.989762306213378906e+00 -5.433445572853088379e-01 -7.599320411682128906e-01 -1.060043215751647949e+00
6.050000000000000000e+02 1.667558479309082031e+01 -9.449340701103210449e-01 -2.163706064224243164e+00 -5.106583833694458008e-01 -8.023093342781066895e-01 -9.114907979965209961e-01
6.060000000000000000e+02 2.749153137207031250e+01 7.730781078338623047e+00 -1.559284448623657227e+00 -7.615757584571838379e-01 -6.962580680847167969e-01 -1.220942139625549316e+00
6.070000000000000000e+02 2.737932205200195312e+01 7.512938976287841797e+00 -1.086799502372741699e+00 -4.268040359020233154e-01 -4.540810883045196533e-01 -8.046328425407409668e-01
6.080000000000000000e+02 2.775922775268554688e+01 7.781668186187744141e+00 -1.164736270904541016e+00 -3.308759331703186035e-01 -4.486836493015289307e-01 -9.179443717002868652e-01
6.090000000000000000e+02 2.767362213134765625e+01 8.236194610595703125e+00 -2.746597290039062500e+00 -1.178849339485168457e+00 -1.177634000778198242e+00 -2.015044689178466797e+00
6.100000000000000000e+02 2.705738639831542969e+01 7.834152221679687500e+00 -3.047646760940551758e+00 -1.779014348983764648e+00 -1.447998404502868652e+00 -2.354777336120605469e+00
6.110000000000000000e+02 2.657385826110839844e+01 7.500745773315429688e+00 -3.429354429244995117e+00 -2.119318723678588867e+00 -1.664602041244506836e+00 -2.640272140502929688e+00
6.120000000000000000e+02 2.672637748718261719e+01 7.269994258880615234e+00 -1.939074516296386719e+00 -1.149119138717651367e+00 -9.264581203460693359e-01 -1.448247551918029785e+00
6.130000000000000000e+02 2.589825439453125000e+01 7.085566520690917969e+00 -4.022377490997314453e+00 -2.160315752029418945e+00 -1.854807972908020020e+00 -2.985093832015991211e+00
6.140000000000000000e+02 2.602713012695312500e+01 6.856099605560302734e+00 -2.598102092742919922e+00 -1.564416170120239258e+00 -1.248755455017089844e+00 -1.924114942550659180e+00
6.150000000000000000e+02 2.582640457153320312e+01 6.754924774169921875e+00 -2.700374603271484375e+00 -1.569087028503417969e+00 -1.280838489532470703e+00 -1.960854649543762207e+00
6.160000000000000000e+02 2.861095428466796875e+01 8.252856254577636719e+00 -1.309925317764282227e+00 3.000850081443786621e-01 -3.029520809650421143e-01 -4.900708496570587158e-01
6.170000000000000000e+02 2.853674888610839844e+01 8.360008239746093750e+00 -1.440413117408752441e+00 4.337864518165588379e-01 -3.019880056381225586e-01 -5.801457166671752930e-01
6.180000000000000000e+02 2.883415985107421875e+01 8.333746910095214844e+00 -1.043362736701965332e+00 4.127660393714904785e-01 -1.891789883375167847e-01 2.918808460235595703e-01
6.190000000000000000e+02 2.870514488220214844e+01 8.375977516174316406e+00 -1.486495375633239746e+00 -8.383943140506744385e-02 -4.711004495620727539e-01 -5.072855949401855469e-01
6.200000000000000000e+02 1.971924209594726562e+01 2.516355991363525391e+00 -3.547766506671905518e-01 -6.838076114654541016e-01 -3.115752935409545898e-01 -6.270349025726318359e-01
6.210000000000000000e+02 2.373726081848144531e+01 5.086805343627929688e+00 -1.472147107124328613e+00 -1.004425406455993652e+00 -7.429717779159545898e-01 -1.224806785583496094e+00
6.220000000000000000e+02 2.900718116760253906e+01 8.279201507568359375e+00 -1.025970458984375000e+00 5.807353854179382324e-01 -1.335705369710922241e-01 1.143013760447502136e-01
6.230000000000000000e+02 2.995883560180664062e+01 7.631362438201904297e+00 3.581578135490417480e-01 -1.638195961713790894e-01 5.830146372318267822e-02 1.320202797651290894e-01
6.240000000000000000e+02 2.986109924316406250e+01 7.173797130584716797e+00 5.649350285530090332e-01 -1.211935207247734070e-01 1.331224590539932251e-01 -1.274168491363525391e-01
6.250000000000000000e+02 2.977012825012207031e+01 7.303269386291503906e+00 7.451692819595336914e-01 -1.286471188068389893e-01 1.849566549062728882e-01 -8.091616630554199219e-02
6.260000000000000000e+02 1.753824615478515625e+01 -1.313276886940002441e+00 -1.156165122985839844e+00 -5.871048197150230408e-02 -3.644627034664154053e-01 -4.235587418079376221e-01
6.270000000000000000e+02 1.770430946350097656e+01 -1.205825805664062500e+00 -1.178712010383605957e+00 8.035708218812942505e-02 -3.295064866542816162e-01 -4.334733486175537109e-01
6.280000000000000000e+02 1.803942489624023438e+01 -9.887551069259643555e-01 -1.199094057083129883e+00 2.265708297491073608e-01 -2.917569875717163086e-01 -4.354957342147827148e-01
6.290000000000000000e+02 1.769699668884277344e+01 -8.576623797416687012e-01 -1.443528890609741211e+00 -4.092427343130111694e-02 -4.453359246253967285e-01 -6.094663143157958984e-01
6.300000000000000000e+02 1.871887207031250000e+01 -5.354961752891540527e-01 -1.386309623718261719e+00 6.118416786193847656e-01 -2.323403954505920410e-01 -3.640109300613403320e-01
6.310000000000000000e+02 1.851503944396972656e+01 -2.948162555694580078e-01 -1.570633888244628906e+00 3.599466979503631592e-01 -3.632061779499053955e-01 -4.320520758628845215e-01
6.320000000000000000e+02 1.856393241882324219e+01 1.237389743328094482e-01 -1.666177988052368164e+00 2.115586698055267334e-01 -4.363857805728912354e-01 -5.127711892127990723e-01
6.330000000000000000e+02 1.924990653991699219e+01 -5.019795522093772888e-02 -1.589115142822265625e+00 7.455207705497741699e-01 -2.530783116817474365e-01 -4.026437923312187195e-02
6.340000000000000000e+02 1.943012428283691406e+01 -4.136993363499641418e-02 -1.517284631729125977e+00 8.297869563102722168e-01 -2.062492817640304565e-01 1.177019402384757996e-01
6.350000000000000000e+02 1.920506477355957031e+01 2.889018356800079346e-01 -1.512754201889038086e+00 5.037588477134704590e-01 -3.026986122131347656e-01 -5.747207626700401306e-02
6.360000000000000000e+02 1.935403060913085938e+01 1.091038063168525696e-01 -1.396579861640930176e+00 7.002204656600952148e-01 -2.089078128337860107e-01 -1.993104442954063416e-02
6.370000000000000000e+02 1.970587158203125000e+01 3.779152035713195801e-01 -1.243144392967224121e+00 6.254866719245910645e-01 -1.852973103523254395e-01 2.144617885351181030e-01
6.380000000000000000e+02 2.085043907165527344e+01 1.039960861206054688e+00 -4.892007708549499512e-01 6.716909259557723999e-02 -1.266095042228698730e-01 2.038919180631637573e-01
6.390000000000000000e+02 2.049315261840820312e+01 8.613141179084777832e-01 -7.069740295410156250e-01 1.743592768907546997e-01 -1.597844362258911133e-01 2.581126391887664795e-01
6.400000000000000000e+02 2.152845191955566406e+01 1.460379362106323242e+00 -1.865814030170440674e-01 -8.190014399588108063e-03 -5.843142420053482056e-02 1.102961078286170959e-01
6.410000000000000000e+02 2.228789710998535156e+01 2.100796222686767578e+00 6.668975204229354858e-02 -1.754684746265411377e-02 1.474287081509828568e-02 7.012631744146347046e-02
6.420000000000000000e+02 2.268266296386718750e+01 2.183539867401123047e+00 8.396282047033309937e-02 -4.373537749052047729e-02 1.206823252141475677e-02 1.619965769350528717e-02
6.430000000000000000e+02 2.282362365722656250e+01 2.349183797836303711e+00 9.937179833650588989e-02 -5.900685116648674011e-02 1.210948359221220016e-02 3.645007684826850891e-02
6.440000000000000000e+02 2.291903305053710938e+01 2.602031946182250977e+00 1.811517179012298584e-01 -3.007582388818264008e-02 4.532276839017868042e-02 3.853718563914299011e-02
6.450000000000000000e+02 2.312372589111328125e+01 2.517670631408691406e+00 1.189925000071525574e-01 -4.941957071423530579e-02 2.087187953293323517e-02 1.885980367660522461e-02
6.460000000000000000e+02 2.329864883422851562e+01 2.554312467575073242e+00 1.089259535074234009e-01 -7.847423106431961060e-02 9.135517291724681854e-03 -5.493025761097669601e-03
6.470000000000000000e+02 2.370875740051269531e+01 2.486496210098266602e+00 7.364520430564880371e-02 -8.848189562559127808e-02 -4.451006650924682617e-03 -4.179371148347854614e-02
6.480000000000000000e+02 2.360039710998535156e+01 2.670200109481811523e+00 1.078025102615356445e-01 -8.671538531780242920e-02 6.326137110590934753e-03 -9.677549824118614197e-03
6.490000000000000000e+02 2.383144950866699219e+01 2.970955133438110352e+00 1.331179440021514893e-01 -7.759221643209457397e-02 1.665771566331386566e-02 -1.402964349836111069e-03
6.500000000000000000e+02 2.428691291809082031e+01 3.261617898941040039e+00 1.280197203159332275e-01 -8.712030202150344849e-02 1.226982474327087402e-02 -1.920462585985660553e-02
6.510000000000000000e+02 2.491758537292480469e+01 3.217509746551513672e+00 8.989781886339187622e-02 -1.204658746719360352e-01 -9.170414879918098450e-03 -5.765824019908905029e-02
6.520000000000000000e+02 2.506211090087890625e+01 3.325509548187255859e+00 8.787965774536132812e-02 -1.071993112564086914e-01 -5.795896053314208984e-03 -6.728205084800720215e-02
6.530000000000000000e+02 2.508978843688964844e+01 3.686359405517578125e+00 9.763683378696441650e-02 -8.958568423986434937e-02 2.415345516055822372e-03 -4.875284433364868164e-02
6.540000000000000000e+02 2.592293930053710938e+01 3.904886245727539062e+00 6.823363900184631348e-02 -1.287036091089248657e-01 -1.814099028706550598e-02 -7.395493984222412109e-02
6.550000000000000000e+02 2.642688369750976562e+01 4.173763751983642578e+00 5.606345459818840027e-02 -1.252405792474746704e-01 -2.075313590466976166e-02 -8.918563276529312134e-02
6.560000000000000000e+02 2.612514495849609375e+01 4.211234092712402344e+00 5.982473865151405334e-02 -1.192987486720085144e-01 -1.784220337867736816e-02 -7.999917119741439819e-02
6.570000000000000000e+02 2.628206062316894531e+01 4.349055767059326172e+00 4.656437784433364868e-02 -1.237810552120208740e-01 -2.316500432789325714e-02 -7.656062394380569458e-02
6.580000000000000000e+02 2.674450492858886719e+01 4.412423610687255859e+00 4.385630413889884949e-02 -1.272828876972198486e-01 -2.502797544002532959e-02 -9.232865273952484131e-02
6.590000000000000000e+02 2.653885078430175781e+01 4.620157718658447266e+00 2.795349992811679840e-02 -1.251043230295181274e-01 -2.914524450898170471e-02 -8.408101648092269897e-02
6.600000000000000000e+02 2.699238395690917969e+01 4.901086807250976562e+00 1.367368921637535095e-02 -1.321233958005905151e-01 -3.553491458296775818e-02 -9.169409424066543579e-02
6.610000000000000000e+02 2.765724372863769531e+01 5.295273303985595703e+00 -6.556483916938304901e-03 -1.361077129840850830e-01 -4.279925674200057983e-02 -9.421089291572570801e-02
6.620000000000000000e+02 2.831085968017578125e+01 5.369943618774414062e+00 3.645920660346746445e-03 -5.521776527166366577e-02 -1.547155342996120453e-02 -6.539422273635864258e-02
6.630000000000000000e+02 2.837192344665527344e+01 5.715072154998779297e+00 -1.442572381347417831e-02 -5.957129970192909241e-02 -2.219910733401775360e-02 -6.662842631340026855e-02
6.640000000000000000e+02 2.900979804992675781e+01 5.785435676574707031e+00 -1.320318970829248428e-02 1.502123475074768066e-01 4.110274836421012878e-02 -1.065168008208274841e-01
6.650000000000000000e+02 2.888737106323242188e+01 5.938385963439941406e+00 -2.755150385200977325e-02 1.502173990011215210e-01 3.679976612329483032e-02 -1.020659729838371277e-01
6.660000000000000000e+02 2.932737922668457031e+01 6.294694900512695312e+00 1.081560328602790833e-01 2.701904773712158203e-01 1.135039478540420532e-01 -3.045163452625274658e-01
6.670000000000000000e+02 2.987050247192382812e+01 6.886860370635986328e+00 5.185089707374572754e-01 -5.479031242430210114e-03 1.539089828729629517e-01 -2.448840588331222534e-01
6.680000000000000000e+02 2.857546615600585938e+01 5.763775825500488281e+00 -2.272357046604156494e-02 1.508852280676364899e-02 -2.290514297783374786e-03 -6.481629610061645508e-02
6.690000000000000000e+02 2.832865715026855469e+01 5.965070724487304688e+00 -4.440032690763473511e-02 -8.678299188613891602e-02 -3.935499489307403564e-02 -7.677357643842697144e-02
6.700000000000000000e+02 2.701212310791015625e+01 6.951656341552734375e+00 5.166869238018989563e-02 1.214110627770423889e-01 5.192392691969871521e-02 7.630151510238647461e-02
6.710000000000000000e+02 1.560991954803466797e+01 -1.873006373643875122e-01 -4.466063499450683594e+00 8.026568293571472168e-01 -1.099022030830383301e+00 -1.010798573493957520e+00
6.720000000000000000e+02 1.895212554931640625e+01 1.434223294258117676e+00 -1.999065995216369629e+00 -1.160272955894470215e+00 -9.478017091751098633e-01 -1.618542194366455078e+00
6.730000000000000000e+02 1.807287979125976562e+01 1.352229118347167969e+00 -1.259238868951797485e-01 -7.164815068244934082e-01 -2.527216076850891113e-01 -6.444382667541503906e-01
6.740000000000000000e+02 1.766105270385742188e+01 9.649593830108642578e-01 -1.000250101089477539e+00 -9.598655104637145996e-01 -5.880346894264221191e-01 -1.077138781547546387e+00
6.750000000000000000e+02 2.659040641784667969e+01 6.355190277099609375e+00 1.806917428970336914e+00 4.798738062381744385e-01 6.860373616218566895e-01 9.956594705581665039e-01
6.760000000000000000e+02 2.665956497192382812e+01 6.836556434631347656e+00 -3.791754841804504395e-01 -3.009829223155975342e-01 -2.040475159883499146e-01 -3.173520863056182861e-01
6.770000000000000000e+02 2.638608551025390625e+01 6.338057994842529297e+00 1.080893516540527344e+00 1.081974431872367859e-01 3.567272722721099854e-01 5.050054788589477539e-01
6.780000000000000000e+02 2.633861923217773438e+01 6.805911540985107422e+00 -1.254294872283935547e+00 -9.290755987167358398e-01 -6.550111174583435059e-01 -1.064464807510375977e+00
6.790000000000000000e+02 2.619130325317382812e+01 6.673766613006591797e+00 -1.198164701461791992e+00 -7.882575988769531250e-01 -5.959267020225524902e-01 -8.653103709220886230e-01
6.800000000000000000e+02 2.639469909667968750e+01 6.117772102355957031e+00 2.367751836776733398e+00 7.089705467224121094e-01 9.230167269706726074e-01 1.432681202888488770e+00
6.810000000000000000e+02 2.626125335693359375e+01 6.219287395477294922e+00 1.269892692565917969e+00 2.287466526031494141e-01 4.495917856693267822e-01 7.028445005416870117e-01
6.820000000000000000e+02 2.605279350280761719e+01 6.262856483459472656e+00 5.347318649291992188e-01 -4.246977716684341431e-02 1.476786285638809204e-01 1.971127837896347046e-01
6.830000000000000000e+02 2.526868247985839844e+01 6.093012332916259766e+00 -1.437348604202270508e+00 -7.362045645713806152e-01 -6.520659327507019043e-01 -1.117255449295043945e+00
6.840000000000000000e+02 2.472299385070800781e+01 5.525127887725830078e+00 -6.342849135398864746e-01 -6.480665802955627441e-01 -3.847054541110992432e-01 -5.324016809463500977e-01
6.850000000000000000e+02 2.451846313476562500e+01 5.238303184509277344e+00 6.013680100440979004e-01 -8.299394696950912476e-02 1.555122137069702148e-01 1.658630669116973877e-01
6.860000000000000000e+02 2.402700805664062500e+01 5.146468162536621094e+00 -9.548003077507019043e-01 -8.776750564575195312e-01 -5.497426390647888184e-01 -8.367344141006469727e-01
6.870000000000000000e+02 2.285524177551269531e+01 4.230445384979248047e+00 -8.094011992216110229e-02 -4.681007266044616699e-01 -1.647122502326965332e-01 -4.215330481529235840e-01
6.880000000000000000e+02 2.192633438110351562e+01 3.668358802795410156e+00 -2.884273827075958252e-01 -5.254219770431518555e-01 -2.441547960042953491e-01 -5.517878532409667969e-01
6.890000000000000000e+02 2.426756858825683594e+01 5.176110744476318359e+00 1.253456771373748779e-01 -4.824276268482208252e-01 -1.071245819330215454e-01 -2.633081376552581787e-01
6.900000000000000000e+02 2.872770690917968750e+01 5.972564697265625000e+00 -3.856460005044937134e-02 9.292779117822647095e-02 1.630895771086215973e-02 -7.370507717132568359e-02
6.910000000000000000e+02 2.875193977355957031e+01 5.821742534637451172e+00 -1.849007420241832733e-02 7.261971384286880493e-02 1.623889245092868805e-02 -7.334433495998382568e-02
6.920000000000000000e+02 2.641004180908203125e+01 4.976247310638427734e+00 -1.151417009532451630e-02 -1.073592007160186768e-01 -3.566201031208038330e-02 -8.547856658697128296e-02
6.930000000000000000e+02 2.723721313476562500e+01 7.346735477447509766e+00 -9.542591571807861328e-01 -4.948546886444091797e-01 -4.347341656684875488e-01 -7.157896757125854492e-01
6.940000000000000000e+02 2.677645301818847656e+01 4.986546516418457031e+00 -4.780991468578577042e-03 -1.239723563194274902e-01 -3.862600401043891907e-02 -9.018567949533462524e-02
6.950000000000000000e+02 2.664482498168945312e+01 5.213761329650878906e+00 -3.846195712685585022e-02 -1.055981442332267761e-01 -4.321803152561187744e-02 -9.743361920118331909e-02
6.960000000000000000e+02 2.577103233337402344e+01 6.274388790130615234e+00 -6.204249858856201172e-01 -3.454802036285400391e-01 -2.897715568542480469e-01 -5.265737771987915039e-01
6.970000000000000000e+02 2.608579826354980469e+01 6.492398262023925781e+00 -6.739593148231506348e-01 -4.816069602966308594e-01 -3.466698825359344482e-01 -4.862475395202636719e-01
6.980000000000000000e+02 1.970203399658203125e+01 9.767117500305175781e-01 -8.445515036582946777e-01 3.092780113220214844e-01 -1.605820506811141968e-01 4.682562127709388733e-02
6.990000000000000000e+02 2.451392555236816406e+01 4.150055408477783203e+00 1.230983734130859375e-01 -4.612288437783718109e-03 3.554582595825195312e-02 2.719701081514358521e-02
7.000000000000000000e+02 2.222106933593750000e+01 1.953441381454467773e+00 5.048932135105133057e-02 -2.730447985231876373e-02 6.955452729016542435e-03 4.298287630081176758e-02
7.010000000000000000e+02 2.499477386474609375e+01 4.285282135009765625e+00 9.183863550424575806e-02 -4.646107926964759827e-02 1.361326780170202255e-02 -1.173445675522089005e-02
7.020000000000000000e+02 2.772571945190429688e+01 5.587497234344482422e+00 -3.396206349134445190e-02 -1.444318592548370361e-01 -5.351817607879638672e-02 -1.068734079599380493e-01
7.030000000000000000e+02 2.786710739135742188e+01 5.700411319732666016e+00 -3.876695409417152405e-02 -1.380854845046997070e-01 -5.305573344230651855e-02 -1.072959080338478088e-01
7.040000000000000000e+02 2.761308097839355469e+01 6.036466598510742188e+00 -1.405927389860153198e-01 -1.714961975812911987e-01 -9.362667798995971680e-02 -1.671550571918487549e-01
7.050000000000000000e+02 2.683716011047363281e+01 5.168988704681396484e+00 -2.420195378363132477e-02 -1.267550140619277954e-01 -4.528709128499031067e-02 -1.066056936979293823e-01
7.060000000000000000e+02 2.701836776733398438e+01 5.092906475067138672e+00 -1.323065627366304398e-02 -1.282784789800643921e-01 -4.245273768901824951e-02 -9.877916425466537476e-02
7.070000000000000000e+02 2.715846061706542969e+01 4.960176944732666016e+00 1.012951135635375977e-02 -1.283122897148132324e-01 -3.545483574271202087e-02 -9.645458310842514038e-02
7.080000000000000000e+02 2.239185333251953125e+01 1.953694581985473633e+00 1.990948244929313660e-02 -4.201718792319297791e-02 -6.632311269640922546e-03 3.092450089752674103e-02
7.090000000000000000e+02 2.253596496582031250e+01 2.679699420928955078e+00 2.418913543224334717e-01 1.840615458786487579e-02 7.808925211429595947e-02 1.070722043514251709e-01
7.100000000000000000e+02 2.059241485595703125e+01 1.542418837547302246e+00 -1.470709890127182007e-01 1.673497259616851807e-01 6.083617918193340302e-03 1.616284549236297607e-01
7.110000000000000000e+02 1.705965614318847656e+01 -1.238278031349182129e+00 -1.515659689903259277e+00 -2.993308603763580322e-01 -5.444971323013305664e-01 -5.742254853248596191e-01
7.120000000000000000e+02 1.735778236389160156e+01 -7.449176907539367676e-01 -1.713108181953430176e+00 -2.970959544181823730e-01 -6.030612587928771973e-01 -8.228511214256286621e-01
7.130000000000000000e+02 1.751641082763671875e+01 -6.253772377967834473e-01 -1.712502002716064453e+00 -3.126654922962188721e-01 -6.075502634048461914e-01 -7.865428924560546875e-01
7.140000000000000000e+02 1.767763137817382812e+01 -5.077363848686218262e-01 -1.676274657249450684e+00 -2.063669264316558838e-01 -5.647924542427062988e-01 -8.144119977951049805e-01
7.150000000000000000e+02 1.858691024780273438e+01 -9.391445666551589966e-02 -1.465411782264709473e+00 3.515126109123229980e-01 -3.341697752475738525e-01 -4.279784262180328369e-01
7.160000000000000000e+02 1.897811508178710938e+01 2.083240002393722534e-01 -1.496247768402099609e+00 4.357278645038604736e-01 -3.181559741497039795e-01 -2.791525423526763916e-01
7.170000000000000000e+02 1.828685569763183594e+01 2.713023126125335693e-01 -1.659616470336914062e+00 -1.965215355157852173e-01 -5.568413734436035156e-01 -7.633904814720153809e-01
7.180000000000000000e+02 2.410520935058593750e+01 3.153629302978515625e+00 1.397981345653533936e-01 -6.790424883365631104e-02 2.156816795468330383e-02 -1.576768793165683746e-02
7.190000000000000000e+02 2.391318130493164062e+01 3.180729627609252930e+00 1.662658751010894775e-01 -5.849905312061309814e-02 3.233004733920097351e-02 -1.107847667299211025e-03
7.200000000000000000e+02 2.399816131591796875e+01 3.385308742523193359e+00 1.592143923044204712e-01 -4.551420733332633972e-02 3.411005809903144836e-02 2.474387362599372864e-02
7.210000000000000000e+02 2.488282585144042969e+01 3.632354021072387695e+00 1.082429289817810059e-01 -9.513782709836959839e-02 3.931531216949224472e-03 -3.900402039289474487e-02
7.220000000000000000e+02 2.444554328918457031e+01 3.841858625411987305e+00 1.380242854356765747e-01 -3.355047479271888733e-02 3.134214505553245544e-02 4.508260171860456467e-03
7.230000000000000000e+02 2.601859092712402344e+01 4.594632148742675781e+00 4.060672223567962646e-02 -1.025468334555625916e-01 -1.858203299343585968e-02 -6.899152696132659912e-02
7.240000000000000000e+02 2.623686027526855469e+01 4.541726589202880859e+00 3.694342821836471558e-02 -1.124736517667770386e-01 -2.265906706452369690e-02 -7.718515396118164062e-02
7.250000000000000000e+02 1.928930854797363281e+01 8.976932168006896973e-01 -1.010920166969299316e+00 1.864100992679595947e-01 -2.473530173301696777e-01 -1.909391134977340698e-01
7.260000000000000000e+02 1.927956962585449219e+01 6.948968768119812012e-01 -1.144451022148132324e+00 2.980488836765289307e-01 -2.539206445217132568e-01 -1.097263172268867493e-01
7.270000000000000000e+02 1.991943740844726562e+01 6.985806822776794434e-01 -1.045327067375183105e+00 3.397822976112365723e-01 -2.116634398698806763e-01 2.075911760330200195e-01
7.280000000000000000e+02 2.460322952270507812e+01 3.955327272415161133e+00 1.202855333685874939e-01 -4.359282180666923523e-02 2.300781384110450745e-02 6.696044467389583588e-03
7.290000000000000000e+02 2.382778739929199219e+01 3.521178722381591797e+00 1.916442662477493286e-01 -1.207100506871938705e-02 5.387198179960250854e-02 4.355733469128608704e-02
7.300000000000000000e+02 2.198137664794921875e+01 2.655979156494140625e+00 3.267190158367156982e-01 8.485841751098632812e-02 1.234732270240783691e-01 1.897258162498474121e-01
7.310000000000000000e+02 2.185815811157226562e+01 2.212323427200317383e+00 1.919656544923782349e-01 5.636816099286079407e-02 7.450014352798461914e-02 1.140688806772232056e-01
7.320000000000000000e+02 2.198051834106445312e+01 2.364504098892211914e+00 2.203288227319717407e-01 4.185963794589042664e-02 7.865653932094573975e-02 1.437811106443405151e-01
7.330000000000000000e+02 2.148756027221679688e+01 1.866619586944580078e+00 7.419922202825546265e-02 5.897841975092887878e-02 3.995329141616821289e-02 1.191390156745910645e-01
7.340000000000000000e+02 2.106024551391601562e+01 1.529556989669799805e+00 -1.386138945817947388e-01 1.094916537404060364e-01 -8.736670017242431641e-03 1.519445478916168213e-01
7.350000000000000000e+02 2.125181007385253906e+01 1.653330326080322266e+00 -6.811134517192840576e-02 6.725127249956130981e-02 -2.580211439635604620e-04 1.445561796426773071e-01
7.360000000000000000e+02 2.094637107849121094e+01 1.918027877807617188e+00 1.630212515592575073e-01 1.176822632551193237e-01 8.421105146408081055e-02 1.728975921869277954e-01
7.370000000000000000e+02 2.076650810241699219e+01 1.574730277061462402e+00 -1.251666843891143799e-01 1.452009379863739014e-01 6.010278593748807907e-03 1.767456978559494019e-01
7.380000000000000000e+02 2.587970352172851562e+01 4.881956577301025391e+00 8.607574738562107086e-03 -7.285382598638534546e-02 -1.927387528121471405e-02 -5.725644528865814209e-02
7.390000000000000000e+02 1.765451049804687500e+01 -1.619453579187393188e-01 -1.845110774040222168e+00 -4.219824075698852539e-01 -6.801279187202453613e-01 -1.012744665145874023e+00
7.400000000000000000e+02 1.812890052795410156e+01 -1.340038925409317017e-01 -1.692792057991027832e+00 -1.105709224939346313e-01 -5.410088896751403809e-01 -6.926505565643310547e-01
7.410000000000000000e+02 1.826277923583984375e+01 -2.977999858558177948e-02 -1.648010849952697754e+00 -3.248194232583045959e-02 -5.041478276252746582e-01 -6.826772093772888184e-01
7.420000000000000000e+02 1.880193901062011719e+01 6.758607029914855957e-01 -1.415346145629882812e+00 -9.255427867174148560e-02 -4.523701369762420654e-01 -5.058492422103881836e-01
7.430000000000000000e+02 1.894854354858398438e+01 7.549192905426025391e-01 -1.241065263748168945e+00 4.109498485922813416e-02 -3.599910736083984375e-01 -4.108568727970123291e-01
7.440000000000000000e+02 2.650539016723632812e+01 6.744709491729736328e+00 -3.207386136054992676e-01 -2.519772946834564209e-01 -1.718147695064544678e-01 -1.814891695976257324e-01
7.450000000000000000e+02 2.073003196716308594e+01 1.245025277137756348e+00 -3.874970376491546631e-01 1.624177247285842896e-01 -6.752379238605499268e-02 1.921356767416000366e-01
7.460000000000000000e+02 2.058207511901855469e+01 1.154570817947387695e+00 -4.515234529972076416e-01 1.461391001939773560e-01 -9.161530435085296631e-02 1.919452995061874390e-01
7.470000000000000000e+02 2.174007797241210938e+01 2.035988092422485352e+00 9.985045343637466431e-02 2.635521069169044495e-02 3.786169737577438354e-02 1.251027435064315796e-01
7.480000000000000000e+02 1.986181449890136719e+01 8.778309226036071777e-01 -8.268301486968994141e-01 3.025100529193878174e-01 -1.572960317134857178e-01 1.105214282870292664e-01
7.490000000000000000e+02 1.949866867065429688e+01 5.670157074928283691e-01 -1.312007904052734375e+00 4.069324135780334473e-01 -2.715226411819458008e-01 7.933283224701881409e-03
7.500000000000000000e+02 1.954581260681152344e+01 2.329013496637344360e-01 -1.530134081840515137e+00 5.982223749160766602e-01 -2.795735001564025879e-01 1.218541860580444336e-01
7.510000000000000000e+02 2.056551742553710938e+01 1.350121736526489258e+00 -3.302780389785766602e-01 1.442429274320602417e-01 -5.581053346395492554e-02 1.871242076158523560e-01
7.520000000000000000e+02 2.213665390014648438e+01 2.220813751220703125e+00 1.642472445964813232e-01 1.609045639634132385e-02 5.410130694508552551e-02 7.783994078636169434e-02
7.530000000000000000e+02 2.759283638000488281e+01 5.736433982849121094e+00 -6.505111604928970337e-02 -1.499319970607757568e-01 -6.449493020772933960e-02 -1.230927109718322754e-01
7.540000000000000000e+02 1.647349929809570312e+01 -1.049277424812316895e+00 -2.455794334411621094e+00 -6.317871212959289551e-01 -9.262744188308715820e-01 -7.304356098175048828e-01
7.550000000000000000e+02 2.371811103820800781e+01 3.334536314010620117e+00 1.793919950723648071e-01 -2.825769968330860138e-02 4.534028843045234680e-02 4.570697620511054993e-02
7.560000000000000000e+02 1.918312644958496094e+01 5.033789277076721191e-01 -1.417775869369506836e+00 3.281672298908233643e-01 -3.268826007843017578e-01 -2.186883836984634399e-01
7.570000000000000000e+02 2.467941284179687500e+01 3.614620447158813477e+00 1.197417229413986206e-01 -7.328476756811141968e-02 1.393708679825067520e-02 -2.253957651555538177e-02
7.580000000000000000e+02 1.937634086608886719e+01 4.028036594390869141e-01 -1.309101581573486328e+00 5.644243359565734863e-01 -2.234031856060028076e-01 2.055037952959537506e-02
7.590000000000000000e+02 1.885597801208496094e+01 4.195890128612518311e-01 -1.544434189796447754e+00 2.242546230554580688e-01 -3.960538804531097412e-01 -3.141174614429473877e-01
7.600000000000000000e+02 2.240024375915527344e+01 2.218441963195800781e+00 1.350632756948471069e-01 -1.448429189622402191e-02 3.617369383573532104e-02 5.325329676270484924e-02
7.610000000000000000e+02 2.447861862182617188e+01 3.615789175033569336e+00 1.397515684366226196e-01 -6.757400929927825928e-02 2.165326848626136780e-02 -6.707192864269018173e-03
7.620000000000000000e+02 2.235301589965820312e+01 2.481110811233520508e+00 2.252799719572067261e-01 2.746587805449962616e-02 7.582375407218933105e-02 1.026211082935333252e-01
7.630000000000000000e+02 2.166055107116699219e+01 1.858121275901794434e+00 5.909472703933715820e-02 4.830110818147659302e-02 3.221875056624412537e-02 9.191375970840454102e-02
7.640000000000000000e+02 2.237258148193359375e+01 2.643537998199462891e+00 2.529304921627044678e-01 4.714644700288772583e-02 9.002308547496795654e-02 1.216307058930397034e-01
7.650000000000000000e+02 2.353147506713867188e+01 2.949220895767211914e+00 1.613319516181945801e-01 -4.007494822144508362e-02 3.637709841132164001e-02 2.659001387655735016e-02
7.660000000000000000e+02 2.845718574523925781e+01 7.030216693878173828e+00 -1.134053826332092285e+00 -8.087266087532043457e-01 -5.828341245651245117e-01 -9.129288792610168457e-01
7.670000000000000000e+02 2.829931449890136719e+01 6.909000873565673828e+00 -6.648094058036804199e-01 -3.553414940834045410e-01 -3.060452640056610107e-01 -5.011731386184692383e-01
7.680000000000000000e+02 2.814144515991210938e+01 6.787785530090332031e+00 -5.075119137763977051e-01 -2.894320487976074219e-01 -2.390831857919692993e-01 -3.727038502693176270e-01
7.690000000000000000e+02 2.798357582092285156e+01 6.666570186614990234e+00 -4.073702692985534668e-01 -2.217907756567001343e-01 -1.887483149766921997e-01 -3.088310062885284424e-01
7.700000000000000000e+02 2.849719047546386719e+01 6.987525463104248047e+00 -4.777493178844451904e-01 -7.250802516937255859e-01 -3.608488738536834717e-01 -5.604633092880249023e-01
7.710000000000000000e+02 2.836599349975585938e+01 6.837849140167236328e+00 -4.062969684600830078e-01 -4.939489066600799561e-01 -2.700737714767456055e-01 -4.126105010509490967e-01
7.720000000000000000e+02 2.823479461669921875e+01 6.688172817230224609e+00 -3.042647540569305420e-01 -2.971568107604980469e-01 -1.804264634847640991e-01 -3.083966672420501709e-01
7.730000000000000000e+02 2.810359573364257812e+01 6.538496494293212891e+00 -2.513929903507232666e-01 -2.644093334674835205e-01 -1.547406911849975586e-01 -2.484449148178100586e-01
7.740000000000000000e+02 2.854475593566894531e+01 6.953455924987792969e+00 -2.375218123197555542e-01 -4.898830354213714600e-01 -2.182214558124542236e-01 -3.106274902820587158e-01
7.750000000000000000e+02 2.844526672363281250e+01 6.781066894531250000e+00 -2.046596854925155640e-01 -3.814043998718261719e-01 -1.758192330598831177e-01 -2.159487158060073853e-01
7.760000000000000000e+02 2.834577941894531250e+01 6.608678340911865234e+00 -1.682832092046737671e-01 -2.925428748130798340e-01 -1.382478326559066772e-01 -2.059523165225982666e-01
7.770000000000000000e+02 2.824629020690917969e+01 6.436289310455322266e+00 -1.366972774267196655e-01 -2.161044031381607056e-01 -1.058405041694641113e-01 -1.703250855207443237e-01
7.780000000000000000e+02 2.859805107116699219e+01 6.929316997528076172e+00 -1.154025569558143616e-01 -1.753012090921401978e-01 -8.721113204956054688e-02 -1.233791261911392212e-01
7.790000000000000000e+02 2.853409385681152344e+01 6.740835666656494141e+00 -1.449588239192962646e-01 -1.721388399600982666e-01 -9.512930363416671753e-02 -1.027121245861053467e-01
7.800000000000000000e+02 2.847013473510742188e+01 6.552354335784912109e+00 -9.484581649303436279e-02 -1.522208601236343384e-01 -7.412000000476837158e-02 -9.512733668088912964e-02
7.810000000000000000e+02 2.840617561340332031e+01 6.363872528076171875e+00 -8.421462029218673706e-02 -1.352422088384628296e-01 -6.583704799413681030e-02 -9.575282037258148193e-02
7.820000000000000000e+02 2.865503120422363281e+01 6.916035652160644531e+00 -1.184685081243515015e-01 1.925779879093170166e-01 2.223284356296062469e-02 -5.863953381776809692e-02
7.830000000000000000e+02 2.862905883789062500e+01 6.718699932098388672e+00 -1.142792850732803345e-01 8.684070408344268799e-02 -8.231573738157749176e-03 -6.141804158687591553e-02
7.840000000000000000e+02 2.860308647155761719e+01 6.521364212036132812e+00 -8.996003866195678711e-02 2.655079029500484467e-02 -1.902277395129203796e-02 -5.849256366491317749e-02
7.850000000000000000e+02 2.857711601257324219e+01 6.324028491973876953e+00 -6.271792203187942505e-02 1.308267470449209213e-02 -1.489057391881942749e-02 -5.438534915447235107e-02
7.860000000000000000e+02 2.871350669860839844e+01 6.914121627807617188e+00 -1.195664480328559875e-01 5.674680471420288086e-01 1.343704909086227417e-01 -1.269712001085281372e-01
7.870000000000000000e+02 2.872651863098144531e+01 6.715509891510009766e+00 -1.120242103934288025e-01 3.228732645511627197e-01 6.325471401214599609e-02 -1.119460687041282654e-01
7.880000000000000000e+02 2.873953056335449219e+01 6.516898155212402344e+00 -7.800465822219848633e-02 2.261328846216201782e-01 4.443846642971038818e-02 -8.737802505493164062e-02
7.890000000000000000e+02 2.875254249572753906e+01 6.318286418914794922e+00 -6.509801745414733887e-02 1.569014936685562134e-01 2.754104137420654297e-02 -7.969058305025100708e-02
7.900000000000000000e+02 2.877123260498046875e+01 6.923648357391357422e+00 -9.315253794193267822e-02 8.503747582435607910e-01 2.271666675806045532e-01 -3.179605305194854736e-01
7.910000000000000000e+02 2.882272911071777344e+01 6.731388092041015625e+00 -5.210004374384880066e-02 5.254597663879394531e-01 1.420079171657562256e-01 -2.330816090106964111e-01
7.920000000000000000e+02 2.887422561645507812e+01 6.539127349853515625e+00 -5.800154805183410645e-02 3.675830066204071045e-01 9.287443757057189941e-02 -1.812266856431961060e-01
7.930000000000000000e+02 2.892572212219238281e+01 6.346867084503173828e+00 -3.385517373681068420e-02 2.930311858654022217e-01 7.775279879570007324e-02 -1.510133892297744751e-01
7.940000000000000000e+02 2.882599258422851562e+01 6.944250583648681641e+00 8.842840045690536499e-02 1.012694716453552246e+00 3.303369581699371338e-01 -5.822812914848327637e-01
7.950000000000000000e+02 2.891399574279785156e+01 6.765724658966064453e+00 3.738901764154434204e-02 6.223421096801757812e-01 1.979193389415740967e-01 -3.899713456630706787e-01
7.960000000000000000e+02 2.900199890136718750e+01 6.587198734283447266e+00 3.781582415103912354e-02 4.713757038116455078e-01 1.527574509382247925e-01 -3.115575015544891357e-01
7.970000000000000000e+02 2.909000015258789062e+01 6.408672809600830078e+00 2.389813773334026337e-02 3.463524281978607178e-01 1.110751703381538391e-01 -2.601032853126525879e-01
7.980000000000000000e+02 2.887568473815917969e+01 6.975136280059814453e+00 3.354733884334564209e-01 9.981644749641418457e-01 4.000913500785827637e-01 -8.377747535705566406e-01
7.990000000000000000e+02 2.899681282043457031e+01 6.817201137542724609e+00 2.652928829193115234e-01 6.440553069114685059e-01 2.728044390678405762e-01 -5.505372285842895508e-01
8.000000000000000000e+02 2.911794281005859375e+01 6.659265518188476562e+00 1.481442898511886597e-01 4.657700657844543457e-01 1.841742992401123047e-01 -4.283633828163146973e-01
8.010000000000000000e+02 2.923907279968261719e+01 6.501330375671386719e+00 1.464729458093643188e-01 3.796162009239196777e-01 1.578267365694046021e-01 -3.771564364433288574e-01
8.020000000000000000e+02 2.891839790344238281e+01 7.015120029449462891e+00 7.861089110374450684e-01 8.702172040939331055e-01 4.968978464603424072e-01 -9.937842488288879395e-01
8.030000000000000000e+02 2.906800079345703125e+01 6.883840560913085938e+00 4.663800895214080811e-01 5.556089878082275391e-01 3.065967261791229248e-01 -6.760493516921997070e-01
8.040000000000000000e+02 2.921760559082031250e+01 6.752560615539550781e+00 4.051158428192138672e-01 4.061577916145324707e-01 2.433820962905883789e-01 -5.149154663085937500e-01
8.050000000000000000e+02 2.936721229553222656e+01 6.621281147003173828e+00 2.490903586149215698e-01 3.098139762878417969e-01 1.676713079214096069e-01 -4.204954504966735840e-01
8.060000000000000000e+02 2.895249176025390625e+01 7.062665939331054688e+00 1.181136608123779297e+00 6.225934624671936035e-01 5.411190390586853027e-01 -1.046262979507446289e+00
8.070000000000000000e+02 2.912482643127441406e+01 6.963083744049072266e+00 8.061134815216064453e-01 4.437583088874816895e-01 3.749615252017974854e-01 -6.894388794898986816e-01
8.080000000000000000e+02 2.929716110229492188e+01 6.863501071929931641e+00 5.770730376243591309e-01 2.747877538204193115e-01 2.555582523345947266e-01 -5.715647935867309570e-01
8.090000000000000000e+02 2.946949577331542969e+01 6.763918876647949219e+00 5.423212647438049316e-01 1.841081678867340088e-01 2.179288268089294434e-01 -4.215200841426849365e-01
8.100000000000000000e+02 2.897665977478027344e+01 7.115948200225830078e+00 1.657113552093505859e+00 4.387596249580383301e-01 6.287619471549987793e-01 -8.969504237174987793e-01
8.110000000000000000e+02 2.916510581970214844e+01 7.051887512207031250e+00 1.038971662521362305e+00 2.519790232181549072e-01 3.872852325439453125e-01 -6.581683158874511719e-01
8.120000000000000000e+02 2.935355186462402344e+01 6.987826824188232422e+00 8.271722793579101562e-01 1.784962117671966553e-01 3.017005622386932373e-01 -4.907312095165252686e-01
8.130000000000000000e+02 2.954199981689453125e+01 6.923766136169433594e+00 6.848958730697631836e-01 6.349165737628936768e-02 2.245162576436996460e-01 -4.676582217216491699e-01
8.140000000000000000e+02 2.898997116088867188e+01 7.172920703887939453e+00 1.933622241020202637e+00 2.056236863136291504e-01 6.417737603187561035e-01 -6.918523907661437988e-01
8.150000000000000000e+02 2.918729400634765625e+01 7.146841526031494141e+00 1.322205066680908203e+00 1.908587813377380371e-01 4.539191424846649170e-01 -4.714252650737762451e-01
8.160000000000000000e+02 2.938461494445800781e+01 7.120762348175048828e+00 9.564912915229797363e-01 4.154013469815254211e-03 2.881935834884643555e-01 -3.953506350517272949e-01
8.170000000000000000e+02 2.958193588256835938e+01 7.094683170318603516e+00 7.369608879089355469e-01 6.679657101631164551e-02 2.411272376775741577e-01 -3.060491085052490234e-01
8.180000000000000000e+02 2.899191665649414062e+01 7.231395721435546875e+00 2.181140422821044922e+00 2.714227735996246338e-01 7.357689738273620605e-01 -3.492747545242309570e-01
8.190000000000000000e+02 2.919053649902343750e+01 7.244299411773681641e+00 1.433627128601074219e+00 4.154312890022993088e-03 4.313344359397888184e-01 -2.861360013484954834e-01
8.200000000000000000e+02 2.938915443420410156e+01 7.257203578948974609e+00 1.086000919342041016e+00 4.965839534997940063e-02 3.406977951526641846e-01 -1.696805059909820557e-01
8.210000000000000000e+02 2.958777427673339844e+01 7.270107746124267578e+00 7.363967895507812500e-01 -1.124519184231758118e-01 1.871834546327590942e-01 -8.713801950216293335e-02
8.220000000000000000e+02 2.898242187500000000e+01 7.289126873016357422e+00 2.201197862625122070e+00 1.895399838685989380e-01 7.172213792800903320e-01 -5.058545991778373718e-02
8.230000000000000000e+02 2.917471122741699219e+01 7.340518474578857422e+00 1.526077032089233398e+00 1.534663140773773193e-01 5.038630366325378418e-01 -1.624994724988937378e-02
8.240000000000000000e+02 2.936699867248535156e+01 7.391910076141357422e+00 1.043393492698669434e+00 -8.643087744712829590e-02 2.870887815952301025e-01 3.947858884930610657e-02
8.250000000000000000e+02 2.955928802490234375e+01 7.443301677703857422e+00 8.342429399490356445e-01 -3.958672657608985901e-02 2.383968681097030640e-01 1.280184537172317505e-01
8.260000000000000000e+02 2.896185111999511719e+01 7.343897819519042969e+00 2.199566364288330078e+00 4.698082804679870605e-01 8.008123636245727539e-01 2.145507037639617920e-01
8.270000000000000000e+02 2.914042282104492188e+01 7.431803703308105469e+00 1.448134064674377441e+00 1.158803477883338928e-01 4.692043066024780273e-01 2.357305735349655151e-01
8.280000000000000000e+02 2.931899642944335938e+01 7.519709587097167969e+00 9.867074489593505859e-01 1.188695281744003296e-01 3.316730856895446777e-01 2.706336379051208496e-01
8.290000000000000000e+02 2.949757194519042969e+01 7.607614994049072266e+00 6.335288286209106445e-01 -9.251438826322555542e-02 1.623043268918991089e-01 2.294571697711944580e-01
8.300000000000000000e+02 2.893099212646484375e+01 7.393605232238769531e+00 2.073460817337036133e+00 5.558223128318786621e-01 7.887849807739257812e-01 4.144982695579528809e-01
8.310000000000000000e+02 2.908899307250976562e+01 7.514648914337158203e+00 1.337167143821716309e+00 3.871061503887176514e-01 5.172819495201110840e-01 4.532314836978912354e-01
8.320000000000000000e+02 2.924699401855468750e+01 7.635693073272705078e+00 8.160640597343444824e-01 1.662284731864929199e-01 2.946877777576446533e-01 4.432931244373321533e-01
8.330000000000000000e+02 2.940499496459960938e+01 7.756736755371093750e+00 3.262754976749420166e-01 2.028624564409255981e-01 1.587413847446441650e-01 4.331553876399993896e-01
8.340000000000000000e+02 2.889103126525878906e+01 7.436339855194091797e+00 1.976901531219482422e+00 9.024552702903747559e-01 8.638070225715637207e-01 5.124118924140930176e-01
8.350000000000000000e+02 2.902239227294921875e+01 7.585873603820800781e+00 1.134750127792358398e+00 4.684263765811920166e-01 4.809529483318328857e-01 6.271880865097045898e-01
8.360000000000000000e+02 2.915375137329101562e+01 7.735406875610351562e+00 5.517370104789733887e-01 4.871009886264801025e-01 3.116513788700103760e-01 5.349028110504150391e-01
8.370000000000000000e+02 2.928511238098144531e+01 7.884940624237060547e+00 2.556389570236206055e-01 2.523887753486633301e-01 1.524083167314529419e-01 6.043080687522888184e-01
8.380000000000000000e+02 2.884350395202636719e+01 7.470460414886474609e+00 1.796838521957397461e+00 1.007447242736816406e+00 8.412857055664062500e-01 6.400319337844848633e-01
8.390000000000000000e+02 2.894317817687988281e+01 7.642741680145263672e+00 9.578906893730163574e-01 8.138012886047363281e-01 5.315076112747192383e-01 6.135877370834350586e-01
8.400000000000000000e+02 2.904285430908203125e+01 7.815021991729736328e+00 2.546792030334472656e-01 5.500839948654174805e-01 2.414289563894271851e-01 6.592916250228881836e-01
8.410000000000000000e+02 2.914253044128417969e+01 7.987303256988525391e+00 7.457285374402999878e-02 4.987558722496032715e-01 1.719986200332641602e-01 4.124512374401092529e-01
8.420000000000000000e+02 2.879023361206054688e+01 7.494657516479492188e+00 1.788666129112243652e+00 1.264780044555664062e+00 9.160338640213012695e-01 6.253856420516967773e-01
8.430000000000000000e+02 2.885439682006835938e+01 7.683069229125976562e+00 6.391777992248535156e-01 1.005988717079162598e+00 4.935499727725982666e-01 6.525819301605224609e-01
8.440000000000000000e+02 2.891856002807617188e+01 7.871481418609619141e+00 9.955070912837982178e-02 7.623093724250793457e-01 2.585580348968505859e-01 4.872283637523651123e-01
8.450000000000000000e+02 2.898272323608398438e+01 8.059893608093261719e+00 -4.905891716480255127e-01 5.154272913932800293e-01 7.451436482369899750e-03 2.889464795589447021e-01
8.460000000000000000e+02 2.873326873779296875e+01 7.508000850677490234e+00 1.702447533607482910e+00 1.484598278999328613e+00 9.561137557029724121e-01 5.964165925979614258e-01
8.470000000000000000e+02 2.875945472717285156e+01 7.705308437347412109e+00 4.729634821414947510e-01 1.171586990356445312e+00 4.933651387691497803e-01 5.490819215774536133e-01
8.480000000000000000e+02 2.878564071655273438e+01 7.902615547180175781e+00 -1.817892640829086304e-01 9.166266918182373047e-01 2.204512357711791992e-01 3.239609301090240479e-01
8.490000000000000000e+02 2.881182670593261719e+01 8.099923133850097656e+00 -8.589364886283874512e-01 6.930831670761108398e-01 -4.975600168108940125e-02 8.631004393100738525e-02
8.500000000000000000e+02 2.867479515075683594e+01 7.509978294372558594e+00 1.493183612823486328e+00 1.617654323577880859e+00 9.332513809204101562e-01 5.471379756927490234e-01
8.510000000000000000e+02 2.866199874877929688e+01 7.708603858947753906e+00 5.490124225616455078e-01 1.318929672241210938e+00 5.603826642036437988e-01 3.711981475353240967e-01
8.520000000000000000e+02 2.864920234680175781e+01 7.907229900360107422e+00 -5.405096411705017090e-01 9.735532999038696289e-01 1.299131065607070923e-01 1.484660804271697998e-01
8.530000000000000000e+02 2.863640785217285156e+01 8.105855941772460938e+00 -9.176220893859863281e-01 7.783276438713073730e-01 -4.178833216428756714e-02 -7.227793335914611816e-02
8.540000000000000000e+02 2.861705780029296875e+01 7.500514030456542969e+00 1.723629236221313477e+00 1.818923711776733398e+00 1.062765836715698242e+00 4.861065745353698730e-01
8.550000000000000000e+02 2.856577110290527344e+01 7.692830562591552734e+00 3.292919099330902100e-01 1.324421525001525879e+00 4.961140155792236328e-01 1.309121847152709961e-01
8.560000000000000000e+02 2.851448440551757812e+01 7.885146617889404297e+00 -3.117062449455261230e-01 1.025836586952209473e+00 2.142390906810760498e-01 2.720446325838565826e-02
8.570000000000000000e+02 2.846319770812988281e+01 8.077463150024414062e+00 -1.330469250679016113e+00 5.141793489456176758e-01 -2.448869794607162476e-01 -3.708778917789459229e-01
8.580000000000000000e+02 2.856227684020996094e+01 7.479971885681152344e+00 1.800641775131225586e+00 1.768734455108642578e+00 1.070812821388244629e+00 2.554848492145538330e-01
8.590000000000000000e+02 2.847446632385253906e+01 7.658593177795410156e+00 5.335324406623840332e-01 1.355504155158996582e+00 5.667110085487365723e-01 8.400133252143859863e-02
8.600000000000000000e+02 2.838665962219238281e+01 7.837214469909667969e+00 -3.056609630584716797e-01 8.559485077857971191e-01 1.650862693786621094e-01 -2.322273403406143188e-01
8.610000000000000000e+02 2.829885101318359375e+01 8.015835762023925781e+00 -1.164378643035888672e+00 7.075237035751342773e-01 -1.370564699172973633e-01 -4.707464575767517090e-01
8.620000000000000000e+02 2.851255226135253906e+01 7.449139595031738281e+00 1.917359709739685059e+00 1.686131715774536133e+00 1.081047415733337402e+00 1.183574646711349487e-01
8.630000000000000000e+02 2.839159393310546875e+01 7.607206821441650391e+00 9.523326158523559570e-01 1.220942020416259766e+00 6.519823670387268066e-01 6.435683369636535645e-02
8.640000000000000000e+02 2.827063560485839844e+01 7.765273571014404297e+00 -2.859202623367309570e-01 8.040625452995300293e-01 1.554426997900009155e-01 -3.606653213500976562e-01
8.650000000000000000e+02 2.814967727661132812e+01 7.923340797424316406e+00 -7.591996788978576660e-01 5.260130763053894043e-01 -6.995597481727600098e-02 -4.024458229541778564e-01
8.660000000000000000e+02 2.846979522705078125e+01 7.409202575683593750e+00 2.556353807449340820e+00 1.633318662643432617e+00 1.256901741027832031e+00 1.896153539419174194e-01
8.670000000000000000e+02 2.832033348083496094e+01 7.540644645690917969e+00 1.120401144027709961e+00 9.084236025810241699e-01 6.086474657058715820e-01 -1.928843185305595398e-02
8.680000000000000000e+02 2.817087173461914062e+01 7.672087192535400391e+00 2.148399502038955688e-01 8.823465704917907715e-01 3.291559517383575439e-01 -8.800195157527923584e-02
8.690000000000000000e+02 2.802140998840332031e+01 7.803529262542724609e+00 -6.865320205688476562e-01 -3.624987974762916565e-02 -2.168345749378204346e-01 -6.407539248466491699e-01
8.700000000000000000e+02 2.843564987182617188e+01 7.361693859100341797e+00 2.873288393020629883e+00 1.051651954650878906e+00 1.177482128143310547e+00 2.136119604110717773e-01
8.710000000000000000e+02 2.826342201232910156e+01 7.461463451385498047e+00 1.684478521347045898e+00 1.062874197959899902e+00 8.242058157920837402e-01 2.934650182723999023e-01
8.720000000000000000e+02 2.809119606018066406e+01 7.561233043670654297e+00 5.673162937164306641e-01 4.350226521492004395e-01 3.007016777992248535e-01 -1.194753777235746384e-02
8.730000000000000000e+02 2.791897010803222656e+01 7.661002635955810547e+00 -2.971137464046478271e-01 3.073771595954895020e-01 3.079023910686373711e-03 -4.287733435630798340e-01
8.740000000000000000e+02 2.841142272949218750e+01 7.308437824249267578e+00 3.484821557998657227e+00 1.091372609138488770e+00 1.372858285903930664e+00 5.792576670646667480e-01
8.750000000000000000e+02 2.822304725646972656e+01 7.372703552246093750e+00 2.020119905471801758e+00 6.651021838188171387e-01 8.055666685104370117e-01 5.495235323905944824e-01
8.760000000000000000e+02 2.803466987609863281e+01 7.436968803405761719e+00 1.150618314743041992e+00 6.717132925987243652e-01 5.466994643211364746e-01 3.231517076492309570e-01
8.770000000000000000e+02 2.784629249572753906e+01 7.501234531402587891e+00 1.617105156183242798e-01 2.173183113336563110e-01 1.137086451053619385e-01 -8.191312104463577271e-02
8.780000000000000000e+02 2.839804840087890625e+01 7.251480102539062500e+00 3.764279603958129883e+00 6.717336177825927734e-01 1.330803990364074707e+00 1.061130404472351074e+00
8.790000000000000000e+02 2.820075607299804688e+01 7.277773380279541016e+00 2.505081892013549805e+00 8.983957171440124512e-01 1.021043300628662109e+00 9.374784231185913086e-01
8.800000000000000000e+02 2.800346374511718750e+01 7.304067134857177734e+00 1.604661107063293457e+00 5.114006996154785156e-01 6.348185539245605469e-01 6.855495572090148926e-01
8.810000000000000000e+02 2.780616950988769531e+01 7.330360889434814453e+00 9.239729642868041992e-01 5.699870586395263672e-01 4.481880068778991699e-01 4.331663250923156738e-01
8.820000000000000000e+02 2.839603996276855469e+01 7.193007469177246094e+00 4.000806808471679688e+00 8.773282170295715332e-01 1.463440537452697754e+00 1.572667360305786133e+00
8.830000000000000000e+02 2.819740867614746094e+01 7.180319309234619141e+00 2.791614532470703125e+00 8.015552759170532227e-01 1.077950954437255859e+00 1.368506789207458496e+00
8.840000000000000000e+02 2.799877548217773438e+01 7.167631149291992188e+00 2.173242807388305664e+00 8.504150509834289551e-01 9.070973396301269531e-01 1.102084875106811523e+00
8.850000000000000000e+02 2.780014228820800781e+01 7.154942989349365234e+00 1.625267267227172852e+00 5.629910230636596680e-01 6.564775109291076660e-01 9.125514030456542969e-01
8.860000000000000000e+02 2.840547180175781250e+01 7.135265827178955078e+00 3.860698223114013672e+00 9.659882187843322754e-01 1.448005914688110352e+00 2.113988876342773438e+00
8.870000000000000000e+02 2.821312904357910156e+01 7.084083080291748047e+00 3.116093397140502930e+00 1.090643882751464844e+00 1.262021183967590332e+00 1.671019315719604492e+00
8.880000000000000000e+02 2.802078437805175781e+01 7.032900810241699219e+00 2.721019268035888672e+00 9.285403490066528320e-01 1.094867944717407227e+00 1.562748908996582031e+00
8.890000000000000000e+02 2.782843971252441406e+01 6.981718063354492188e+00 2.334724664688110352e+00 9.167491197586059570e-01 9.754421114921569824e-01 1.423582434654235840e+00
8.900000000000000000e+02 2.842598533630371094e+01 7.080472469329833984e+00 3.612297058105468750e+00 1.306270480155944824e+00 1.475570321083068848e+00 2.263421058654785156e+00
8.910000000000000000e+02 2.824731636047363281e+01 6.992761135101318359e+00 3.474419832229614258e+00 1.210940361022949219e+00 1.405608057975769043e+00 2.009688138961791992e+00
8.920000000000000000e+02 2.806864738464355469e+01 6.905049324035644531e+00 3.224399566650390625e+00 1.205045104026794434e+00 1.328833460807800293e+00 1.957009434700012207e+00
8.930000000000000000e+02 2.788997840881347656e+01 6.817337989807128906e+00 3.164937257766723633e+00 1.137523174285888672e+00 1.290738105773925781e+00 1.925242304801940918e+00
8.940000000000000000e+02 1.940791320800781250e+01 -4.457885324954986572e-01 -1.403180837631225586e+00 9.682636857032775879e-01 -1.304751485586166382e-01 -8.073573932051658630e-03
8.950000000000000000e+02 1.978120994567871094e+01 -1.465015530586242676e+00 -1.161829009652137756e-01 1.760881781578063965e+00 4.934096932411193848e-01 5.973708033561706543e-01
8.960000000000000000e+02 1.874266815185546875e+01 -3.164430379867553711e+00 3.964767158031463623e-01 1.888955831527709961e+00 6.856297254562377930e-01 4.517343938350677490e-01
8.970000000000000000e+02 1.910031700134277344e+01 -5.436172962188720703e+00 4.573175683617591858e-02 1.372344374656677246e+00 4.254228472709655762e-01 -1.179057136178016663e-01
8.980000000000000000e+02 1.783315658569335938e+01 -6.871273994445800781e+00 1.558309495449066162e-01 7.115874290466308594e-01 2.602255046367645264e-01 4.353281692601740360e-04
8.990000000000000000e+02 1.778941917419433594e+01 -8.325248718261718750e+00 1.575809717178344727e-01 5.965489149093627930e-01 2.262389659881591797e-01 -5.301005020737648010e-02
9.000000000000000000e+02 1.878882789611816406e+01 -1.036630344390869141e+01 1.307320147752761841e-01 6.050756573677062988e-01 2.207423001527786255e-01 -1.347983628511428833e-01
9.010000000000000000e+02 1.842490005493164062e+01 -1.207410335540771484e+01 1.354958117008209229e-01 4.734627604484558105e-01 1.826875656843185425e-01 -1.299674510955810547e-01
9.020000000000000000e+02 1.842963790893554688e+01 -1.410355091094970703e+01 1.084264144301414490e-01 4.122492074966430664e-01 1.562026888132095337e-01 -1.484182775020599365e-01
9.030000000000000000e+02 1.733925056457519531e+01 -1.667325019836425781e+01 7.368716597557067871e-02 2.831346094608306885e-01 1.070465296506881714e-01 -1.100270450115203857e-01
9.040000000000000000e+02 1.835312271118164062e+01 -1.786596870422363281e+01 6.320247799158096313e-02 3.097793459892272949e-01 1.118945479393005371e-01 -1.294996142387390137e-01
9.050000000000000000e+02 1.837936782836914062e+01 -1.934894752502441406e+01 7.278838008642196655e-02 2.852379083633422852e-01 1.074078902602195740e-01 -1.358585804700851440e-01
9.060000000000000000e+02 1.831368637084960938e+01 -2.089640045166015625e+01 5.544627457857131958e-02 2.549824118614196777e-01 9.312860667705535889e-02 -1.251181364059448242e-01
9.070000000000000000e+02 1.798673439025878906e+01 -2.229475402832031250e+01 5.485077947378158569e-02 2.378781288862228394e-01 8.781867474317550659e-02 -1.238970980048179626e-01
9.080000000000000000e+02 1.820670700073242188e+01 -2.606481742858886719e+01 4.376348853111267090e-02 1.833553910255432129e-01 6.813566386699676514e-02 -9.653513133525848389e-02
9.090000000000000000e+02 1.795985412597656250e+01 -2.797736167907714844e+01 4.703572764992713928e-02 1.636700630187988281e-01 6.321173906326293945e-02 -9.736784547567367554e-02
9.100000000000000000e+02 1.755459022521972656e+01 -2.990731239318847656e+01 4.082423076033592224e-02 1.308661550283432007e-01 5.150711536407470703e-02 -7.103612273931503296e-02
9.110000000000000000e+02 1.855257797241210938e+01 -3.502273941040039062e+01 4.746441543102264404e-02 1.258395016193389893e-01 5.199117586016654968e-02 -5.838100239634513855e-02
9.120000000000000000e+02 1.741287803649902344e+01 -4.091218185424804688e+01 3.642492741346359253e-02 7.296233624219894409e-02 3.281617909669876099e-02 -1.569848880171775818e-02
9.130000000000000000e+02 2.788285446166992188e+01 -3.668275451660156250e+01 1.608020663261413574e-01 3.003167510032653809e-01 1.383356451988220215e-01 -1.003865748643875122e-01
9.140000000000000000e+02 1.779572677612304688e+01 -3.782346725463867188e+01 4.031785205006599426e-02 8.437929302453994751e-02 3.740914538502693176e-02 -2.029559388756752014e-02
9.150000000000000000e+02 2.142337417602539062e+01 -3.533065032958984375e+01 5.638597533106803894e-02 1.910527348518371582e-01 7.423160970211029053e-02 -5.981090664863586426e-02
9.160000000000000000e+02 1.903041648864746094e+01 -3.259945678710937500e+01 4.743953794240951538e-02 1.509450227022171021e-01 5.951536819338798523e-02 -6.186539679765701294e-02
9.170000000000000000e+02 1.938727378845214844e+01 -3.046244430541992188e+01 5.763187259435653687e-02 1.813212037086486816e-01 7.168592512607574463e-02 -9.690275043249130249e-02
9.180000000000000000e+02 1.977309799194335938e+01 -2.846383476257324219e+01 4.924046248197555542e-02 2.093920111656188965e-01 7.758974283933639526e-02 -9.787093102931976318e-02
9.190000000000000000e+02 2.005035209655761719e+01 -2.655409622192382812e+01 6.359430402517318726e-02 2.424142807722091675e-01 9.180257469415664673e-02 -1.268334388732910156e-01
9.200000000000000000e+02 2.065263557434082031e+01 -2.328504943847656250e+01 6.796338409185409546e-02 2.997381687164306641e-01 1.103104725480079651e-01 -1.533905863761901855e-01
9.210000000000000000e+02 2.189865303039550781e+01 -2.208655357360839844e+01 8.349418640136718750e-02 3.437288701534271240e-01 1.281669139862060547e-01 -1.722965389490127563e-01
9.220000000000000000e+02 1.971941566467285156e+01 -2.140928459167480469e+01 6.199612095952033997e-02 3.037492930889129639e-01 1.097236275672912598e-01 -1.488603502511978149e-01
9.230000000000000000e+02 1.993027687072753906e+01 -1.909812545776367188e+01 6.108952313661575317e-02 3.411427438259124756e-01 1.206696778535842896e-01 -1.572688072919845581e-01
9.240000000000000000e+02 1.968929290771484375e+01 -1.771059799194335938e+01 8.657300472259521484e-02 3.590186536312103271e-01 1.336774975061416626e-01 -1.641808003187179565e-01
9.250000000000000000e+02 1.931901550292968750e+01 -1.497328472137451172e+01 1.065836697816848755e-01 4.145415425300598145e-01 1.563375592231750488e-01 -1.633847802877426147e-01
9.260000000000000000e+02 2.008339691162109375e+01 -1.278957462310791016e+01 1.320384293794631958e-01 5.319391489028930664e-01 1.991932690143585205e-01 -2.243503481149673462e-01
9.270000000000000000e+02 2.145269393920898438e+01 -1.206330871582031250e+01 1.603618115186691284e-01 5.754317641258239746e-01 2.207380682229995728e-01 -3.042448461055755615e-01
9.280000000000000000e+02 1.948430633544921875e+01 -8.196072578430175781e+00 1.316503584384918213e-01 9.357844591140747070e-01 3.202304542064666748e-01 -2.286516875028610229e-01
9.290000000000000000e+02 1.924753761291503906e+01 -6.785517692565917969e+00 6.606543064117431641e-02 1.113025784492492676e+00 3.537273705005645752e-01 -1.695597469806671143e-01
9.300000000000000000e+02 2.043862915039062500e+01 1.946883946657180786e-01 -1.178538918495178223e+00 5.751715973019599915e-02 -3.363065421581268311e-01 5.936549901962280273e-01
9.310000000000000000e+02 2.092117500305175781e+01 4.990048706531524658e-01 -8.653544187545776367e-01 2.693625539541244507e-02 -2.515254616737365723e-01 3.311206698417663574e-01
9.320000000000000000e+02 2.341006088256835938e+01 -4.092742502689361572e-01 -8.259747624397277832e-01 -2.367570102214813232e-01 -3.188195228576660156e-01 1.960543096065521240e-01
9.330000000000000000e+02 2.385498046875000000e+01 -8.748204708099365234e-01 -7.415068149566650391e-01 -2.521262466907501221e-01 -2.980899214744567871e-01 2.405477613210678101e-01
9.340000000000000000e+02 2.724230575561523438e+01 -8.695356845855712891e-01 -2.831988632678985596e-01 -1.081351190805435181e-01 -1.174001991748809814e-01 5.292129516601562500e-02
9.350000000000000000e+02 2.830577850341796875e+01 -8.114010095596313477e-02 -1.572299599647521973e-01 -3.483779728412628174e-02 -5.762032791972160339e-02 -1.100325305014848709e-02
9.360000000000000000e+02 2.949815177917480469e+01 -8.068183660507202148e-01 -1.479227393865585327e-01 5.743105709552764893e-02 -2.714750356972217560e-02 1.751363452058285475e-04
9.370000000000000000e+02 3.227870178222656250e+01 -5.049307346343994141e-01 -5.556967854499816895e-02 4.148369729518890381e-01 1.077801883220672607e-01 -2.653700858354568481e-02
9.380000000000000000e+02 3.275189590454101562e+01 -8.952270150184631348e-01 -6.467717140913009644e-02 4.854140281677246094e-01 1.262210607528686523e-01 -2.223711460828781128e-02
9.390000000000000000e+02 3.546092224121093750e+01 -9.771268069744110107e-02 -4.375053197145462036e-02 9.459104537963867188e-01 2.706479728221893311e-01 1.253483723849058151e-02
9.400000000000000000e+02 3.675621414184570312e+01 -4.374714493751525879e-01 -6.914591044187545776e-02 1.211654186248779297e+00 3.427524864673614502e-01 3.358319029211997986e-02
9.410000000000000000e+02 3.794948577880859375e+01 1.824340969324111938e-01 -8.363272249698638916e-02 1.460494279861450195e+00 4.130584597587585449e-01 7.586541771888732910e-02
9.420000000000000000e+02 4.050627136230468750e+01 -1.057760238647460938e+00 -1.687171459197998047e-01 2.078799962997436523e+00 5.730248689651489258e-01 9.799782931804656982e-02
9.430000000000000000e+02 4.281965637207031250e+01 3.578332066535949707e-02 -2.356386482715606689e-01 2.617079734802246094e+00 7.144323587417602539e-01 1.593002825975418091e-01
9.440000000000000000e+02 4.445215225219726562e+01 4.041840434074401855e-01 -2.864827811717987061e-01 3.024739980697631836e+00 8.214771151542663574e-01 1.909534037113189697e-01
9.450000000000000000e+02 4.675976181030273438e+01 -3.556974828243255615e-01 -3.659878075122833252e-01 3.598701477050781250e+00 9.698141217231750488e-01 1.768201887607574463e-01
9.460000000000000000e+02 4.757349777221679688e+01 -3.573444187641143799e-01 -3.944367468357086182e-01 3.809389352798461914e+00 1.024485826492309570e+00 1.775398403406143188e-01
9.470000000000000000e+02 4.908203506469726562e+01 4.347375035285949707e-01 -4.415666460990905762e-01 4.183586597442626953e+00 1.122605919837951660e+00 2.039183378219604492e-01
9.480000000000000000e+02 5.067842102050781250e+01 6.767369806766510010e-03 -4.786247014999389648e-01 4.549659252166748047e+00 1.221310377120971680e+00 1.732582896947860718e-01
9.490000000000000000e+02 5.263033294677734375e+01 2.111200541257858276e-01 -5.230134129524230957e-01 5.003849983215332031e+00 1.344251036643981934e+00 1.457694619894027710e-01
9.500000000000000000e+02 5.508956527709960938e+01 -1.527098119258880615e-01 -5.413873791694641113e-01 5.534600734710693359e+00 1.497963905334472656e+00 1.010348796844482422e-01
9.510000000000000000e+02 5.507277297973632812e+01 4.987291991710662842e-01 -5.514624118804931641e-01 5.539812088012695312e+00 1.496504902839660645e+00 1.058815494179725647e-01
9.520000000000000000e+02 5.684761428833007812e+01 9.333639740943908691e-01 -5.630156993865966797e-01 5.906552791595458984e+00 1.603061079978942871e+00 5.880495160818099976e-02
9.530000000000000000e+02 5.992881393432617188e+01 4.242673218250274658e-01 -5.358297228813171387e-01 6.449732780456542969e+00 1.774170875549316406e+00 -2.376688644289970398e-02
9.540000000000000000e+02 6.116234207153320312e+01 2.952440977096557617e-01 -5.095095038414001465e-01 6.666697502136230469e+00 1.847156405448913574e+00 -5.953783169388771057e-02
9.550000000000000000e+02 6.335857009887695312e+01 2.174439132213592529e-01 -4.587332010269165039e-01 6.994759559631347656e+00 1.960807919502258301e+00 -1.071048527956008911e-01
9.560000000000000000e+02 6.437146759033203125e+01 5.869051814079284668e-01 -4.281960129737854004e-01 7.167084693908691406e+00 2.021666526794433594e+00 -1.434265822172164917e-01
9.570000000000000000e+02 6.625133514404296875e+01 5.096673369407653809e-01 -3.760203719139099121e-01 7.428069591522216797e+00 2.115614891052246094e+00 -1.718114912509918213e-01
9.580000000000000000e+02 6.806085205078125000e+01 5.892895460128784180e-01 -3.131418824195861816e-01 7.694119453430175781e+00 2.214293241500854492e+00 -1.975343525409698486e-01
9.590000000000000000e+02 6.994145965576171875e+01 1.408750653266906738e+00 -2.570180594921112061e-01 7.934199810028076172e+00 2.303154468536376953e+00 -2.371753752231597900e-01
9.600000000000000000e+02 7.159089660644531250e+01 6.660388112068176270e-01 -1.829794645309448242e-01 8.167550086975097656e+00 2.395371198654174805e+00 -2.052221745252609253e-01
9.610000000000000000e+02 7.324940490722656250e+01 -1.577025204896926880e-01 -1.233748272061347961e-01 8.402647972106933594e+00 2.483782052993774414e+00 -1.630694568157196045e-01
9.620000000000000000e+02 7.421249389648437500e+01 -2.939838171005249023e-01 -8.579991757869720459e-02 8.570903778076171875e+00 2.545531034469604492e+00 -1.508856862783432007e-01
9.630000000000000000e+02 7.800002288818359375e+01 1.096937507390975952e-01 -1.040733698755502701e-02 9.205193519592285156e+00 2.758435726165771484e+00 -7.208523154258728027e-02
9.640000000000000000e+02 7.934999084472656250e+01 1.406846523284912109e+00 6.758985546184703708e-05 9.427678108215332031e+00 2.828323841094970703e+00 -4.145095124840736389e-02
9.650000000000000000e+02 7.935047149658203125e+01 2.781839370727539062e+00 -6.955667398869991302e-03 9.369667053222656250e+00 2.808813333511352539e+00 -4.899094253778457642e-02
9.660000000000000000e+02 7.799960327148437500e+01 4.081774234771728516e+00 -2.244810014963150024e-02 9.058650016784667969e+00 2.710860729217529297e+00 -1.277980655431747437e-01
9.670000000000000000e+02 7.498501586914062500e+01 6.016344070434570312e+00 -9.488520026206970215e-02 8.495517730712890625e+00 2.520189762115478516e+00 -3.229275047779083252e-01
9.680000000000000000e+02 7.305712890625000000e+01 8.053033828735351562e+00 -1.815896332263946533e-01 8.224202156066894531e+00 2.412783861160278320e+00 -4.717589318752288818e-01
9.690000000000000000e+02 7.188333129882812500e+01 1.026636028289794922e+01 -2.596025466918945312e-01 8.054382324218750000e+00 2.338433742523193359e+00 -6.199117898941040039e-01
9.700000000000000000e+02 7.014351654052734375e+01 1.170205402374267578e+01 -3.791437745094299316e-01 7.927768707275390625e+00 2.264587402343750000e+00 -7.378687262535095215e-01
9.710000000000000000e+02 6.884035491943359375e+01 1.245308208465576172e+01 -4.599651694297790527e-01 7.880200862884521484e+00 2.226070880889892578e+00 -7.749485373497009277e-01
9.720000000000000000e+02 6.769655609130859375e+01 1.460900783538818359e+01 -5.318081378936767578e-01 7.898357391357421875e+00 2.209964752197265625e+00 -8.750932812690734863e-01
9.730000000000000000e+02 6.555223083496093750e+01 1.677900886535644531e+01 -6.612119674682617188e-01 8.004521369934082031e+00 2.202992916107177734e+00 -8.994975686073303223e-01
9.740000000000000000e+02 6.458335876464843750e+01 1.880142593383789062e+01 -7.045918703079223633e-01 8.171228408813476562e+00 2.239990949630737305e+00 -9.694120883941650391e-01
9.750000000000000000e+02 6.148470687866210938e+01 2.029860115051269531e+01 -8.315822482109069824e-01 8.388384819030761719e+00 2.267040729522705078e+00 -6.642870903015136719e-01
9.760000000000000000e+02 6.095471954345703125e+01 2.209961891174316406e+01 -7.426381707191467285e-01 8.701715469360351562e+00 2.387723207473754883e+00 -6.439099907875061035e-01
9.770000000000000000e+02 5.765033340454101562e+01 2.518378829956054688e+01 -5.550173521041870117e-01 9.405007362365722656e+00 2.654997110366821289e+00 1.505903750658035278e-01
9.780000000000000000e+02 5.591575241088867188e+01 2.702856254577636719e+01 -2.529397308826446533e-01 9.737826347351074219e+00 2.845466136932373047e+00 8.770038485527038574e-01
9.790000000000000000e+02 5.499620056152343750e+01 2.795093917846679688e+01 2.502726577222347260e-02 9.943964004516601562e+00 2.990697383880615234e+00 1.408223986625671387e+00
9.800000000000000000e+02 5.279167556762695312e+01 2.998442077636718750e+01 1.421112060546875000e+00 9.326860427856445312e+00 3.224391698837280273e+00 3.418364048004150391e+00
9.810000000000000000e+02 5.125185394287109375e+01 3.120422363281250000e+01 3.514099121093750000e+00 6.898073673248291016e+00 3.123651742935180664e+00 4.750283718109130859e+00
9.820000000000000000e+02 4.988753509521484375e+01 3.052485084533691406e+01 3.444906949996948242e+00 3.974163770675659180e+00 2.225721359252929688e+00 3.689490318298339844e+00
9.830000000000000000e+02 5.146343994140625000e+01 2.869306182861328125e+01 1.361821055412292480e+00 6.976085662841796875e+00 2.501371860504150391e+00 3.188763380050659180e+00
9.840000000000000000e+02 5.341208648681640625e+01 2.700255203247070312e+01 1.184644848108291626e-01 8.467131614685058594e+00 2.575678825378417969e+00 2.035876512527465820e+00
9.850000000000000000e+02 5.419475936889648438e+01 2.521505355834960938e+01 -3.482856750488281250e-01 8.333815574645996094e+00 2.395658731460571289e+00 1.410004973411560059e+00
9.860000000000000000e+02 5.713486099243164062e+01 2.357658767700195312e+01 -7.286972403526306152e-01 8.736448287963867188e+00 2.402325153350830078e+00 2.928697168827056885e-01
9.870000000000000000e+02 5.832935714721679688e+01 2.068158149719238281e+01 -9.075385928153991699e-01 8.206180572509765625e+00 2.189592599868774414e+00 -3.240311145782470703e-02
9.880000000000000000e+02 6.016209793090820312e+01 1.875424957275390625e+01 -9.059820175170898438e-01 8.062105178833007812e+00 2.146836996078491211e+00 -3.542726039886474609e-01
9.890000000000000000e+02 6.255202865600585938e+01 1.769122886657714844e+01 -8.199884295463562012e-01 8.063271522521972656e+00 2.172984838485717773e+00 -6.635519862174987793e-01
9.900000000000000000e+02 6.447041320800781250e+01 1.679002189636230469e+01 -7.406362295150756836e-01 7.990803241729736328e+00 2.175050020217895508e+00 -8.334326744079589844e-01
9.910000000000000000e+02 6.649087524414062500e+01 1.459486389160156250e+01 -6.231465935707092285e-01 7.879867076873779297e+00 2.177016019821166992e+00 -8.352012038230895996e-01
9.920000000000000000e+02 6.758791351318359375e+01 1.226020622253417969e+01 -5.224411487579345703e-01 7.829398632049560547e+00 2.192087173461914062e+00 -7.291669249534606934e-01
9.930000000000000000e+02 6.904277038574218750e+01 1.147156715393066406e+01 -4.240465760231018066e-01 7.886816978454589844e+00 2.238831043243408203e+00 -7.193537354469299316e-01
9.940000000000000000e+02 7.084735107421875000e+01 9.147231101989746094e+00 -3.085671961307525635e-01 7.987997055053710938e+00 2.303828954696655273e+00 -5.833452939987182617e-01
9.950000000000000000e+02 7.192649078369140625e+01 8.246943473815917969e+00 -2.324365079402923584e-01 8.096331596374511719e+00 2.359168529510498047e+00 -5.179171562194824219e-01
9.960000000000000000e+02 7.365373992919921875e+01 5.736752510070800781e+00 -1.529015302658081055e-01 8.343682289123535156e+00 2.457234382629394531e+00 -3.688036203384399414e-01
9.970000000000000000e+02 7.677806854248046875e+01 2.733195066452026367e+00 -4.187019541859626770e-02 8.909682273864746094e+00 2.660343647003173828e+00 -1.534928381443023682e-01
9.980000000000000000e+02 7.805490875244140625e+01 2.764732599258422852e+00 -1.456485223025083542e-02 9.129010200500488281e+00 2.734333515167236328e+00 -1.054140105843544006e-01
9.990000000000000000e+02 2.124060821533203125e+01 6.894674897193908691e-01 -7.415264248847961426e-01 -8.833785541355609894e-03 -2.251080572605133057e-01 2.276671826839447021e-01
1.000000000000000000e+03 2.256596565246582031e+01 -1.568296551704406738e+00 -1.185384511947631836e+00 -5.614079833030700684e-01 -5.240377783775329590e-01 7.439666986465454102e-01
1.001000000000000000e+03 2.627714347839355469e+01 -2.317191123962402344e+00 -4.366400539875030518e-01 -2.467391937971115112e-01 -2.050137668848037720e-01 2.504283189773559570e-01
1.002000000000000000e+03 2.685998725891113281e+01 -3.873861312866210938e+00 -3.913818895816802979e-01 -3.232437074184417725e-01 -2.143876850605010986e-01 3.366768956184387207e-01
1.003000000000000000e+03 2.861099433898925781e+01 -7.301346302032470703e+00 -4.035880863666534424e-01 -4.965367615222930908e-01 -2.700374424457550049e-01 4.148446917533874512e-01
1.004000000000000000e+03 2.980725669860839844e+01 -6.747872829437255859e+00 -2.848718166351318359e-01 -2.140177935361862183e-01 -1.496668905019760132e-01 2.213672548532485962e-01
1.005000000000000000e+03 3.003521347045898438e+01 -9.491851806640625000e+00 -2.129634320735931396e-01 -4.360309243202209473e-01 -1.946983039379119873e-01 3.067175745964050293e-01
1.006000000000000000e+03 3.237570571899414062e+01 -1.290297508239746094e+01 -1.448926776647567749e-01 -6.547896564006805420e-02 -6.311149150133132935e-02 1.402170211076736450e-01
1.007000000000000000e+03 3.365264511108398438e+01 -1.175064945220947266e+01 -1.422293037176132202e-01 2.917023301124572754e-01 4.484190419316291809e-02 5.064565315842628479e-02
1.008000000000000000e+03 3.523742294311523438e+01 -1.493311977386474609e+01 -1.128487661480903625e-01 5.547920465469360352e-01 1.325829923152923584e-01 -5.029337480664253235e-02
1.009000000000000000e+03 3.317013168334960938e+01 -1.412707424163818359e+01 -1.213094070553779602e-01 1.065355632454156876e-02 -3.319675475358963013e-02 7.850007712841033936e-02
1.010000000000000000e+03 3.569091033935546875e+01 -1.616817283630371094e+01 -6.856514513492584229e-02 6.285873651504516602e-01 1.680066734552383423e-01 -1.058721542358398438e-01
1.011000000000000000e+03 3.437857437133789062e+01 -1.665071105957031250e+01 -1.667615212500095367e-02 2.109624445438385010e-01 5.828588828444480896e-02 -4.525701329112052917e-02
1.012000000000000000e+03 3.693005752563476562e+01 -1.846638870239257812e+01 -1.890718122012913227e-03 8.898133635520935059e-01 2.663767933845520020e-01 -2.283196896314620972e-01
1.013000000000000000e+03 3.571937942504882812e+01 -1.902167701721191406e+01 6.151201203465461731e-02 4.941470026969909668e-01 1.666977107524871826e-01 -1.833033710718154907e-01
1.014000000000000000e+03 3.643217086791992188e+01 -2.017864227294921875e+01 9.598043560981750488e-02 6.766557097434997559e-01 2.317908555269241333e-01 -2.635898590087890625e-01
1.015000000000000000e+03 3.720021057128906250e+01 -2.133537673950195312e+01 1.389732807874679565e-01 9.106377959251403809e-01 3.148833215236663818e-01 -3.194741308689117432e-01
1.016000000000000000e+03 4.124794769287109375e+01 -2.227903938293457031e+01 -1.303518563508987427e-02 2.334411859512329102e+00 6.964129805564880371e-01 -5.566504597663879395e-01
1.017000000000000000e+03 4.301944732666015625e+01 -2.282146453857421875e+01 -1.360587477684020996e-01 3.056433677673339844e+00 8.761124610900878906e-01 -5.493428111076354980e-01
1.018000000000000000e+03 4.438767242431640625e+01 -2.348952674865722656e+01 -1.675105541944503784e-01 3.597878932952880859e+00 1.029110550880432129e+00 -5.059141516685485840e-01
1.019000000000000000e+03 4.531092834472656250e+01 -2.258758163452148438e+01 -2.460279762744903564e-01 3.812198162078857422e+00 1.069851040840148926e+00 -3.670654296875000000e-01
1.020000000000000000e+03 4.682464218139648438e+01 -2.198606300354003906e+01 -2.999849319458007812e-01 4.198975086212158203e+00 1.169696927070617676e+00 -2.441591769456863403e-01
1.021000000000000000e+03 5.034663009643554688e+01 -2.180146789550781250e+01 -3.097121417522430420e-01 4.994995117187500000e+00 1.405584931373596191e+00 3.015314787626266479e-02
1.022000000000000000e+03 5.207039642333984375e+01 -2.197917366027832031e+01 -2.585539817810058594e-01 5.334284782409667969e+00 1.522719264030456543e+00 1.275853961706161499e-01
1.023000000000000000e+03 5.373281478881835938e+01 -2.193407249450683594e+01 -2.499621212482452393e-01 5.597316265106201172e+00 1.604206323623657227e+00 2.070564925670623779e-01
1.024000000000000000e+03 5.521368789672851562e+01 -2.155197715759277344e+01 -2.198508083820343018e-01 5.782402515411376953e+00 1.668765544891357422e+00 2.576130330562591553e-01
1.025000000000000000e+03 5.648022460937500000e+01 -2.108326339721679688e+01 -2.242075353860855103e-01 5.984315395355224609e+00 1.728032350540161133e+00 2.823705673217773438e-01
1.026000000000000000e+03 5.844760894775390625e+01 -2.195293807983398438e+01 -1.622739881277084351e-01 6.263544559478759766e+00 1.830381155014038086e+00 3.215646445751190186e-01
1.027000000000000000e+03 6.050411605834960938e+01 -2.254317665100097656e+01 -1.072654873132705688e-01 6.542503356933593750e+00 1.930571317672729492e+00 3.538618683815002441e-01
1.028000000000000000e+03 6.252954101562500000e+01 -2.276897621154785156e+01 -7.740755379199981689e-02 6.807337284088134766e+00 2.018978834152221680e+00 3.650346994400024414e-01
1.029000000000000000e+03 6.439905548095703125e+01 -2.276026916503906250e+01 -6.183622032403945923e-02 7.056505680084228516e+00 2.098400831222534180e+00 3.615142703056335449e-01
1.030000000000000000e+03 6.563911437988281250e+01 -2.114550018310546875e+01 -8.338519930839538574e-02 7.225476264953613281e+00 2.142627239227294922e+00 3.417128920555114746e-01
1.031000000000000000e+03 6.913294982910156250e+01 -2.174147987365722656e+01 -4.311655834317207336e-02 7.674544334411621094e+00 2.289428234100341797e+00 3.170644044876098633e-01
1.032000000000000000e+03 6.971572875976562500e+01 -2.051362609863281250e+01 -5.535100400447845459e-02 7.762634754180908203e+00 2.312185287475585938e+00 3.028951287269592285e-01
1.033000000000000000e+03 7.316637420654296875e+01 -2.153632926940917969e+01 -2.433203905820846558e-02 8.219397544860839844e+00 2.458519697189331055e+00 2.453133016824722290e-01
1.034000000000000000e+03 7.319453430175781250e+01 -2.032362747192382812e+01 -3.646315261721611023e-02 8.249369621276855469e+00 2.463871955871582031e+00 2.387483119964599609e-01
1.035000000000000000e+03 7.439813232421875000e+01 -2.147981262207031250e+01 -2.943426184356212616e-02 8.370461463928222656e+00 2.502308130264282227e+00 2.176726907491683960e-01
1.036000000000000000e+03 7.665172576904296875e+01 -2.062390327453613281e+01 -8.380494080483913422e-03 8.712718963623046875e+00 2.611301422119140625e+00 1.425066143274307251e-01
1.037000000000000000e+03 7.817798614501953125e+01 -2.126709556579589844e+01 -1.400091778486967087e-02 8.925575256347656250e+00 2.673472166061401367e+00 7.188661396503448486e-02
1.038000000000000000e+03 7.925540161132812500e+01 -1.964088249206542969e+01 -6.294514518231153488e-03 9.133678436279296875e+00 2.738215208053588867e+00 1.411013677716255188e-02
1.039000000000000000e+03 7.902943420410156250e+01 -1.822326278686523438e+01 1.632260344922542572e-02 9.180903434753417969e+00 2.759167909622192383e+00 2.683689445257186890e-02
1.040000000000000000e+03 7.896356201171875000e+01 -1.673561096191406250e+01 2.940545891760848463e-05 9.229751586914062500e+00 2.768934249877929688e+00 3.595891967415809631e-02
1.041000000000000000e+03 7.433983612060546875e+01 -1.451980304718017578e+01 -4.468965902924537659e-02 8.538420677185058594e+00 2.548119306564331055e+00 1.504200398921966553e-01
1.042000000000000000e+03 7.213216400146484375e+01 -1.305600833892822266e+01 -8.155623078346252441e-02 8.198474884033203125e+00 2.435075759887695312e+00 1.562974154949188232e-01
1.043000000000000000e+03 7.132216644287109375e+01 -1.193630599975585938e+01 -1.004739478230476379e-01 8.110079765319824219e+00 2.402881860733032227e+00 1.408194452524185181e-01
1.044000000000000000e+03 7.012941741943359375e+01 -9.928090095520019531e+00 -1.412028521299362183e-01 7.942355632781982422e+00 2.340345859527587891e+00 1.130453869700431824e-01
1.045000000000000000e+03 6.843502044677734375e+01 -7.689168930053710938e+00 -2.032669484615325928e-01 7.692291259765625000e+00 2.246707201004028320e+00 5.942308157682418823e-02
1.046000000000000000e+03 6.661703491210937500e+01 -5.374566555023193359e+00 -2.813311815261840820e-01 7.426922798156738281e+00 2.143677473068237305e+00 6.886183284223079681e-03
1.047000000000000000e+03 6.558339691162109375e+01 -4.474690914154052734e+00 -3.230730891227722168e-01 7.272080421447753906e+00 2.084702253341674805e+00 -1.409829221665859222e-02
1.048000000000000000e+03 6.441838073730468750e+01 -2.251690387725830078e+00 -3.863185346126556396e-01 7.119968414306640625e+00 2.020094871520996094e+00 -5.838635191321372986e-02
1.049000000000000000e+03 6.240253067016601562e+01 -1.954050898551940918e+00 -4.508692324161529541e-01 6.800433158874511719e+00 1.904869198799133301e+00 -3.735353425145149231e-02
1.050000000000000000e+03 6.117401504516601562e+01 -1.705665230751037598e+00 -4.784963726997375488e-01 6.613080501556396484e+00 1.840375185012817383e+00 -1.927299425005912781e-02
1.051000000000000000e+03 5.976766204833984375e+01 -2.010186433792114258e+00 -4.889446496963500977e-01 6.373633384704589844e+00 1.765406608581542969e+00 9.707167744636535645e-03
1.052000000000000000e+03 5.887967681884765625e+01 -1.161605834960937500e+00 -5.135214924812316895e-01 6.233582019805908203e+00 1.716018080711364746e+00 1.189537998288869858e-02
1.053000000000000000e+03 5.920420455932617188e+01 -3.277695894241333008e+00 -4.779635071754455566e-01 6.261884689331054688e+00 1.735176324844360352e+00 3.301744908094406128e-02
1.054000000000000000e+03 6.027468490600585938e+01 -4.664100646972656250e+00 -4.372957944869995117e-01 6.427610874176025391e+00 1.797094583511352539e+00 4.479540511965751648e-02
1.055000000000000000e+03 5.958824157714843750e+01 -6.885183811187744141e+00 -4.148255288600921631e-01 6.293246746063232422e+00 1.763526439666748047e+00 8.253309130668640137e-02
1.056000000000000000e+03 5.987217330932617188e+01 -8.865241050720214844e+00 -3.928936123847961426e-01 6.349095821380615234e+00 1.786860585212707520e+00 1.167615279555320740e-01
1.057000000000000000e+03 5.978251266479492188e+01 -1.110014343261718750e+01 -3.641041219234466553e-01 6.329318046569824219e+00 1.789564132690429688e+00 1.503535509109497070e-01
1.058000000000000000e+03 6.028264999389648438e+01 -1.345727443695068359e+01 -3.322297334671020508e-01 6.421581268310546875e+00 1.826805472373962402e+00 1.995163857936859131e-01
1.059000000000000000e+03 6.105191802978515625e+01 -1.477813339233398438e+01 -2.905375957489013672e-01 6.556644439697265625e+00 1.879832148551940918e+00 2.335117459297180176e-01
1.060000000000000000e+03 6.166596984863281250e+01 -1.625668907165527344e+01 -2.520658969879150391e-01 6.664502143859863281e+00 1.923730850219726562e+00 2.680733799934387207e-01
1.061000000000000000e+03 6.267718887329101562e+01 -1.889425277709960938e+01 -1.815625429153442383e-01 6.828148841857910156e+00 1.993975877761840820e+00 3.150590062141418457e-01
1.062000000000000000e+03 6.247850418090820312e+01 -2.078703880310058594e+01 -1.384494006633758545e-01 6.795127391815185547e+00 1.997003316879272461e+00 3.429330587387084961e-01
1.063000000000000000e+03 6.150515747070312500e+01 -2.165339660644531250e+01 -1.203023940324783325e-01 6.662472724914550781e+00 1.962651014328002930e+00 3.570371270179748535e-01
1.064000000000000000e+03 2.539358711242675781e+01 -4.151582717895507812e+00 -4.817915558815002441e-01 -4.852599203586578369e-01 -2.901154458522796631e-01 4.863745868206024170e-01
1.065000000000000000e+03 2.726676177978515625e+01 -5.942360877990722656e+00 -4.021610915660858154e-01 -4.407596886157989502e-01 -2.528762221336364746e-01 4.284435510635375977e-01
1.066000000000000000e+03 3.809271240234375000e+01 -2.251561927795410156e+01 1.198759302496910095e-01 1.086851000785827637e+00 3.620181083679199219e-01 -4.356222450733184814e-01
1.067000000000000000e+03 4.256856155395507812e+01 -2.393190765380859375e+01 -4.672067239880561829e-02 2.960924625396728516e+00 8.742612004280090332e-01 -6.499794721603393555e-01
1.068000000000000000e+03 3.936558151245117188e+01 -2.506826019287109375e+01 3.253612518310546875e-01 1.447975397109985352e+00 5.320010185241699219e-01 -7.116798162460327148e-01
1.069000000000000000e+03 4.056062316894531250e+01 -2.748853492736816406e+01 5.117647647857666016e-01 1.875725150108337402e+00 7.162470221519470215e-01 -9.862215518951416016e-01
1.070000000000000000e+03 3.993058013916015625e+01 -2.629981613159179688e+01 4.075446128845214844e-01 1.633930325508117676e+00 6.124424934387207031e-01 -8.387746810913085938e-01
1.071000000000000000e+03 4.195730972290039062e+01 -2.978245735168457031e+01 8.156164884567260742e-01 2.830925703048706055e+00 1.093962669372558594e+00 -1.457044959068298340e+00
1.072000000000000000e+03 4.268002319335937500e+01 -3.094789695739746094e+01 8.776515722274780273e-01 3.594707250595092773e+00 1.341707706451416016e+00 -1.716871261596679688e+00
1.073000000000000000e+03 4.451188278198242188e+01 -3.182876205444335938e+01 5.288616418838500977e-01 5.678068637847900391e+00 1.862079024314880371e+00 -1.192651152610778809e+00
1.074000000000000000e+03 4.402005767822265625e+01 -3.350132369995117188e+01 1.067423462867736816e+00 7.288782119750976562e+00 2.506861686706542969e+00 -2.103667497634887695e+00
1.075000000000000000e+03 4.428599929809570312e+01 -3.484890747070312500e+01 6.490458250045776367e-01 8.656245231628417969e+00 2.791587352752685547e+00 -1.319839358329772949e+00
1.076000000000000000e+03 4.678073883056640625e+01 -3.568825912475585938e+01 1.191593170166015625e+00 6.539040088653564453e+00 2.319189786911010742e+00 -3.700650930404663086e-01
1.077000000000000000e+03 4.788824462890625000e+01 -3.711127853393554688e+01 1.049861311912536621e+00 6.168611526489257812e+00 2.165541887283325195e+00 -2.365019619464874268e-01
1.078000000000000000e+03 4.982311248779296875e+01 -3.830416870117187500e+01 7.791398763656616211e-01 5.971391677856445312e+00 2.025159597396850586e+00 -3.202410340309143066e-01
1.079000000000000000e+03 5.286335372924804688e+01 -3.869839096069335938e+01 5.359396934509277344e-01 6.120740890502929688e+00 1.997004151344299316e+00 -1.163300573825836182e-01
1.080000000000000000e+03 5.431084823608398438e+01 -3.330498504638671875e+01 6.038338541984558105e-01 5.936264991760253906e+00 1.962029695510864258e+00 2.373938560485839844e-01
1.081000000000000000e+03 5.291432189941406250e+01 -2.922057342529296875e+01 2.572744488716125488e-01 5.736625671386718750e+00 1.798169970512390137e+00 2.923932969570159912e-01
1.082000000000000000e+03 5.347566223144531250e+01 -2.732848358154296875e+01 8.079480379819869995e-02 5.723695278167724609e+00 1.741347074508666992e+00 3.024369776248931885e-01
1.083000000000000000e+03 5.423347854614257812e+01 -2.656941986083984375e+01 1.948751322925090790e-02 5.813583374023437500e+00 1.749921202659606934e+00 3.059220910072326660e-01
1.084000000000000000e+03 5.596773910522460938e+01 -2.305608940124511719e+01 -1.634067147970199585e-01 5.953414916992187500e+00 1.737002491950988770e+00 2.989728748798370361e-01
1.085000000000000000e+03 5.454180526733398438e+01 -2.354848480224609375e+01 -1.516340225934982300e-01 5.736419200897216797e+00 1.675435543060302734e+00 2.719787657260894775e-01
1.086000000000000000e+03 5.342961883544921875e+01 -2.453850746154785156e+01 -1.249973252415657043e-01 5.638929843902587891e+00 1.654179811477661133e+00 2.312167435884475708e-01
1.087000000000000000e+03 5.163792037963867188e+01 -2.605576515197753906e+01 -5.912102386355400085e-02 5.472969055175781250e+00 1.624154448509216309e+00 1.860009431838989258e-01
1.088000000000000000e+03 5.090313720703125000e+01 -2.800771331787109375e+01 9.054991602897644043e-02 5.501707077026367188e+00 1.677677154541015625e+00 1.830899119377136230e-01
1.089000000000000000e+03 5.135606765747070312e+01 -3.253069305419921875e+01 6.354396939277648926e-01 5.772120475769042969e+00 1.922268152236938477e+00 2.296251654624938965e-01
1.090000000000000000e+03 5.287372589111328125e+01 -3.615081787109375000e+01 7.948394417762756348e-01 5.914775371551513672e+00 2.012884378433227539e+00 6.349255330860614777e-03
1.091000000000000000e+03 5.264051818847656250e+01 -4.126303863525390625e+01 5.438386797904968262e-01 6.178477287292480469e+00 2.016694784164428711e+00 2.227517589926719666e-02
1.092000000000000000e+03 5.708996963500976562e+01 -4.114777374267578125e+01 5.328251719474792480e-01 6.329850196838378906e+00 2.058802604675292969e+00 -1.447641383856534958e-02
1.093000000000000000e+03 4.439995574951171875e+01 -3.607043457031250000e+01 1.061152517795562744e-01 9.726396560668945312e+00 2.949753761291503906e+00 -6.021318212151527405e-02
1.094000000000000000e+03 4.574860763549804688e+01 -3.669608306884765625e+01 1.418643832206726074e+00 6.252819538116455078e+00 2.301439046859741211e+00 -2.121960222721099854e-01
1.095000000000000000e+03 4.450070571899414062e+01 -3.729091262817382812e+01 1.136196732521057129e+00 8.403967857360839844e+00 2.862049579620361328e+00 1.360529899597167969e+00
1.096000000000000000e+03 4.312348175048828125e+01 -3.940275192260742188e+01 9.559752941131591797e-01 3.002615928649902344e+00 1.187577366828918457e+00 1.464847803115844727e+00
1.097000000000000000e+03 3.835420227050781250e+01 -3.872775268554687500e+01 5.892245173454284668e-01 2.658973932266235352e-01 2.565365731716156006e-01 -2.189644575119018555e-01
1.098000000000000000e+03 4.289134216308593750e+01 -4.142663574218750000e+01 4.368064999580383301e-01 2.446234703063964844e+00 8.649123311042785645e-01 6.462530493736267090e-01
1.099000000000000000e+03 3.647034072875976562e+01 -3.961056137084960938e+01 4.136271476745605469e-01 2.086318880319595337e-01 1.866777092218399048e-01 -1.402000039815902710e-01
1.100000000000000000e+03 4.143526840209960938e+01 -4.014304351806640625e+01 4.985481798648834229e-01 1.347477883100509644e-01 1.899887919425964355e-01 -2.089360803365707397e-01
1.101000000000000000e+03 3.585988998413085938e+01 -3.835210037231445312e+01 4.303486049175262451e-01 2.178277373313903809e-01 1.944528967142105103e-01 -2.543107271194458008e-01
1.102000000000000000e+03 3.741106033325195312e+01 -3.758315658569335938e+01 2.428679615259170532e-01 2.325236201286315918e-01 1.426174789667129517e-01 -2.873056232929229736e-01
1.103000000000000000e+03 3.569143676757812500e+01 -3.552504348754882812e+01 2.106576263904571533e-01 2.268422245979309082e-01 1.312499493360519409e-01 -2.656859457492828369e-01
1.104000000000000000e+03 3.479761505126953125e+01 -3.455512237548828125e+01 2.644024193286895752e-01 2.864972651004791260e-01 1.652698963880538940e-01 -2.155991941690444946e-01
1.105000000000000000e+03 3.383612442016601562e+01 -3.361840820312500000e+01 2.035203725099563599e-01 2.950387299060821533e-01 1.495677232742309570e-01 -2.799261212348937988e-01
1.106000000000000000e+03 3.295808029174804688e+01 -3.457015609741210938e+01 2.307426929473876953e-01 3.349876999855041504e-01 1.697191148996353149e-01 -2.228093892335891724e-01
1.107000000000000000e+03 3.214706420898437500e+01 -3.578573608398437500e+01 1.834948062896728516e-01 3.314259350299835205e-01 1.544762253761291504e-01 -2.084180414676666260e-01
1.108000000000000000e+03 2.982817077636718750e+01 -3.945450973510742188e+01 1.600326597690582275e-01 2.655272185802459717e-01 1.276679635047912598e-01 -7.518269866704940796e-02
1.109000000000000000e+03 3.464167404174804688e+01 -3.615324020385742188e+01 2.828154861927032471e-01 2.737452983856201172e-01 1.669682413339614868e-01 -2.073661834001541138e-01
1.110000000000000000e+03 3.395893478393554688e+01 -3.531744003295898438e+01 1.997676044702529907e-01 2.916572690010070801e-01 1.474274694919586182e-01 -2.578654885292053223e-01
1.111000000000000000e+03 3.116044044494628906e+01 -3.041327095031738281e+01 1.833516061305999756e-01 4.848871529102325439e-01 2.004716247320175171e-01 -2.554923892021179199e-01
1.112000000000000000e+03 2.820342063903808594e+01 -2.875100708007812500e+01 1.104288175702095032e-01 4.067070782184600830e-01 1.551407724618911743e-01 -2.189570218324661255e-01
1.113000000000000000e+03 2.581454849243164062e+01 -2.606834793090820312e+01 1.149024888873100281e-01 3.909708559513092041e-01 1.517619937658309937e-01 -1.924749910831451416e-01
1.114000000000000000e+03 2.547702026367187500e+01 -2.477274894714355469e+01 8.173902332782745361e-02 3.996115922927856445e-01 1.444051861763000488e-01 -1.989690363407135010e-01
1.115000000000000000e+03 2.339895820617675781e+01 -2.280222320556640625e+01 9.706789255142211914e-02 3.714106678962707520e-01 1.405435651540756226e-01 -1.869421899318695068e-01
1.116000000000000000e+03 2.244116973876953125e+01 -2.064002990722656250e+01 8.963588625192642212e-02 3.766744136810302734e-01 1.398930996656417847e-01 -1.888265609741210938e-01
1.117000000000000000e+03 2.297743988037109375e+01 -2.169945716857910156e+01 7.389145344495773315e-02 3.720218539237976074e-01 1.337739974260330200e-01 -1.956143975257873535e-01
1.118000000000000000e+03 2.208874511718750000e+01 -2.322428131103515625e+01 6.413802504539489746e-02 3.321684896945953369e-01 1.188919544219970703e-01 -1.694075018167495728e-01
1.119000000000000000e+03 2.381772994995117188e+01 -2.390477561950683594e+01 7.260833680629730225e-02 3.690190911293029785e-01 1.324882358312606812e-01 -1.878180950880050659e-01
1.120000000000000000e+03 2.445520973205566406e+01 -2.623098373413085938e+01 7.892882823944091797e-02 3.531634211540222168e-01 1.296276748180389404e-01 -1.740862578153610229e-01
1.121000000000000000e+03 2.578257369995117188e+01 -2.889065742492675781e+01 1.185468584299087524e-01 3.469799160957336426e-01 1.396580338478088379e-01 -1.824725717306137085e-01
1.122000000000000000e+03 2.983884620666503906e+01 -3.153471374511718750e+01 1.540949344635009766e-01 3.946415185928344727e-01 1.646209359169006348e-01 -2.127570211887359619e-01
1.123000000000000000e+03 3.083602523803710938e+01 -3.265290069580078125e+01 1.897350549697875977e-01 3.963996767997741699e-01 1.758404225111007690e-01 -1.947417855262756348e-01
1.124000000000000000e+03 3.045016479492187500e+01 -2.917000389099121094e+01 1.285537183284759521e-01 4.757644534111022949e-01 1.812954396009445190e-01 -2.495778203010559082e-01
1.125000000000000000e+03 2.920663452148437500e+01 -2.656484413146972656e+01 1.028078645467758179e-01 4.581983387470245361e-01 1.683018654584884644e-01 -2.355293035507202148e-01
1.126000000000000000e+03 2.979843330383300781e+01 -2.787809562683105469e+01 1.279478520154953003e-01 4.724130034446716309e-01 1.801082491874694824e-01 -2.273555994033813477e-01
1.127000000000000000e+03 2.761733436584472656e+01 -2.723292922973632812e+01 1.225534155964851379e-01 4.227916896343231201e-01 1.636035293340682983e-01 -2.013672292232513428e-01
1.128000000000000000e+03 2.721704101562500000e+01 -2.576391029357910156e+01 8.841259777545928955e-02 4.302743077278137207e-01 1.556060761213302612e-01 -2.131399810314178467e-01
1.129000000000000000e+03 2.506682205200195312e+01 -2.355239677429199219e+01 1.098403260111808777e-01 4.000549316406250000e-01 1.529685705900192261e-01 -1.976514756679534912e-01
1.130000000000000000e+03 2.410486602783203125e+01 -2.123671913146972656e+01 1.037602573633193970e-01 4.045442044734954834e-01 1.524913460016250610e-01 -2.054851204156875610e-01
1.131000000000000000e+03 2.179862022399902344e+01 -1.961967849731445312e+01 6.985782086849212646e-02 3.859531283378601074e-01 1.367432922124862671e-01 -1.905150264501571655e-01
1.132000000000000000e+03 2.864826965332031250e+01 -2.526172256469726562e+01 1.285657435655593872e-01 4.701547622680664062e-01 1.796161532402038574e-01 -2.260268181562423706e-01
1.133000000000000000e+03 2.678046798706054688e+01 -2.443013763427734375e+01 1.214518174529075623e-01 4.316166937351226807e-01 1.659205555915832520e-01 -2.076198160648345947e-01
1.134000000000000000e+03 2.697167968750000000e+01 -2.148908615112304688e+01 9.974832087755203247e-02 4.658992588520050049e-01 1.696942746639251709e-01 -2.352978140115737915e-01
1.135000000000000000e+03 2.524543190002441406e+01 -2.075540924072265625e+01 9.443377703428268433e-02 4.295589923858642578e-01 1.571978330612182617e-01 -2.275858819484710693e-01
1.136000000000000000e+03 2.465757942199707031e+01 -1.958642005920410156e+01 1.168916672468185425e-01 4.295833408832550049e-01 1.639425009489059448e-01 -2.243131250143051147e-01
1.137000000000000000e+03 2.513347434997558594e+01 -1.786556243896484375e+01 1.353088617324829102e-01 4.401783645153045654e-01 1.726461648941040039e-01 -2.372392863035202026e-01
1.138000000000000000e+03 2.338500785827636719e+01 -1.736148643493652344e+01 1.227717101573944092e-01 4.477362334728240967e-01 1.711523830890655518e-01 -2.418825179338455200e-01
1.139000000000000000e+03 2.263186645507812500e+01 -1.630291366577148438e+01 1.150356605648994446e-01 4.563152492046356201e-01 1.714052706956863403e-01 -2.410797029733657837e-01
1.140000000000000000e+03 2.212725257873535156e+01 -1.328162193298339844e+01 1.794691234827041626e-01 5.498241186141967773e-01 2.187879830598831177e-01 -2.946299314498901367e-01
1.141000000000000000e+03 2.003178024291992188e+01 -9.570573806762695312e+00 1.714821606874465942e-01 8.004946708679199219e-01 2.915930449962615967e-01 -2.853403389453887939e-01
1.142000000000000000e+03 1.898759651184082031e+01 -4.154612064361572266e+00 1.011066362261772156e-01 2.006272077560424805e+00 6.322135925292968750e-01 9.216783940792083740e-02
1.143000000000000000e+03 1.936566162109375000e+01 -2.433981895446777344e+00 4.972061812877655029e-01 2.445083856582641602e+00 8.826869726181030273e-01 7.659537196159362793e-01
1.144000000000000000e+03 1.852383804321289062e+01 -1.041875839233398438e+00 -9.524022340774536133e-01 6.198735237121582031e-01 -9.975861012935638428e-02 -2.516877651214599609e-01
1.145000000000000000e+03 1.977457809448242188e+01 -8.485082983970642090e-01 -1.025360584259033203e+00 1.144312381744384766e+00 3.568551689386367798e-02 1.800375580787658691e-01
1.146000000000000000e+03 2.685781288146972656e+01 7.920431613922119141e+00 -3.863005161285400391e+00 -2.737408876419067383e+00 -1.980124235153198242e+00 -3.087852239608764648e+00
1.147000000000000000e+03 2.847233200073242188e+01 9.065915107727050781e+00 -2.235900878906250000e+00 -1.181188464164733887e+00 -1.025126814842224121e+00 -1.462467312812805176e+00
1.148000000000000000e+03 2.867769241333007812e+01 9.384339332580566406e+00 -1.526824474334716797e+00 -1.056455969810485840e+00 -7.749841213226318359e-01 -1.251095771789550781e+00
1.149000000000000000e+03 2.954205894470214844e+01 1.014380836486816406e+01 -1.021627426147460938e+00 -6.106274127960205078e-01 -4.896764457225799561e-01 -8.375945091247558594e-01
1.150000000000000000e+03 3.225671768188476562e+01 1.135630607604980469e+01 -4.961457252502441406e-01 -1.874618381261825562e-01 -2.050822675228118896e-01 -2.871212363243103027e-01
1.151000000000000000e+03 3.351065444946289062e+01 1.105416584014892578e+01 -3.444353938102722168e-01 8.853188902139663696e-02 -7.677105069160461426e-02 -9.581284970045089722e-02
1.152000000000000000e+03 3.520639038085937500e+01 1.081269359588623047e+01 -2.230237126350402832e-01 4.211683571338653564e-01 5.944339185953140259e-02 8.185358345508575439e-02
1.153000000000000000e+03 3.702757644653320312e+01 1.127493095397949219e+01 -1.613853424787521362e-01 7.853232622146606445e-01 1.871813833713531494e-01 2.131475955247879028e-01
1.154000000000000000e+03 3.883870697021484375e+01 1.056050395965576172e+01 -1.347924321889877319e-01 1.271623730659484863e+00 3.410493731498718262e-01 3.526735305786132812e-01
1.155000000000000000e+03 4.068724441528320312e+01 1.099337005615234375e+01 -1.502929329872131348e-01 1.750692129135131836e+00 4.801197350025177002e-01 4.689355492591857910e-01
1.156000000000000000e+03 4.292681121826171875e+01 1.076005077362060547e+01 -2.074936479330062866e-01 2.430840253829956055e+00 6.670039892196655273e-01 5.775163769721984863e-01
1.157000000000000000e+03 4.324359130859375000e+01 1.017753696441650391e+01 -2.276953011751174927e-01 2.553894758224487305e+00 6.978598237037658691e-01 5.620326995849609375e-01
1.158000000000000000e+03 4.609382247924804688e+01 1.120817375183105469e+01 -3.504408597946166992e-01 3.408317565917968750e+00 9.173629879951477051e-01 6.716008186340332031e-01
1.159000000000000000e+03 4.752095794677734375e+01 1.076925659179687500e+01 -4.280962347984313965e-01 3.864976882934570312e+00 1.031064152717590332e+00 6.518390178680419922e-01
1.160000000000000000e+03 4.867108535766601562e+01 9.793361663818359375e+00 -4.923004209995269775e-01 4.231346130371093750e+00 1.121713638305664062e+00 5.780513882637023926e-01
1.161000000000000000e+03 5.131058120727539062e+01 1.049803924560546875e+01 -6.264815330505371094e-01 5.038101196289062500e+00 1.323485851287841797e+00 5.251351594924926758e-01
1.162000000000000000e+03 5.337875747680664062e+01 1.047099971771240234e+01 -7.156923413276672363e-01 5.603331565856933594e+00 1.466291785240173340e+00 3.811378777027130127e-01
1.163000000000000000e+03 5.592820358276367188e+01 1.001004123687744141e+01 -7.772861719131469727e-01 6.206802368164062500e+00 1.628854870796203613e+00 1.744801849126815796e-01
1.164000000000000000e+03 5.668909835815429688e+01 1.031494903564453125e+01 -7.995871901512145996e-01 6.400156497955322266e+00 1.680170774459838867e+00 1.081324070692062378e-01
1.165000000000000000e+03 5.792855453491210938e+01 9.781641006469726562e+00 -7.925748825073242188e-01 6.579688549041748047e+00 1.736134171485900879e+00 5.716375075280666351e-03
1.166000000000000000e+03 5.965603637695312500e+01 1.065967082977294922e+01 -8.044223785400390625e-01 6.970126628875732422e+00 1.849711298942565918e+00 -1.545822918415069580e-01
1.167000000000000000e+03 6.109001159667968750e+01 1.088555717468261719e+01 -7.807790637016296387e-01 7.184106826782226562e+00 1.920998334884643555e+00 -2.733234763145446777e-01
1.168000000000000000e+03 6.352670288085937500e+01 1.085018157958984375e+01 -7.004230022430419922e-01 7.469851016998291016e+00 2.030828475952148438e+00 -4.690166711807250977e-01
1.169000000000000000e+03 6.540531921386718750e+01 1.034793090820312500e+01 -6.057946681976318359e-01 7.605858802795410156e+00 2.100019216537475586e+00 -5.393753647804260254e-01
1.170000000000000000e+03 6.681439971923828125e+01 1.054284381866455078e+01 -5.364755988121032715e-01 7.742063999176025391e+00 2.161676406860351562e+00 -6.188614964485168457e-01
1.171000000000000000e+03 6.936798095703125000e+01 1.059590435028076172e+01 -4.187115430831909180e-01 7.892453193664550781e+00 2.242122650146484375e+00 -6.688860654830932617e-01
1.172000000000000000e+03 6.786090850830078125e+01 1.108543682098388672e+01 -5.033180713653564453e-01 7.805727005004882812e+00 2.190722703933715820e+00 -6.760701537132263184e-01
1.173000000000000000e+03 6.628920745849609375e+01 1.227546882629394531e+01 -6.038853526115417480e-01 7.770238399505615234e+00 2.149905920028686523e+00 -6.939579844474792480e-01
1.174000000000000000e+03 6.386810684204101562e+01 1.212859439849853516e+01 -7.198334932327270508e-01 7.585854530334472656e+00 2.059806346893310547e+00 -5.469475984573364258e-01
1.175000000000000000e+03 6.238753128051757812e+01 1.218983078002929688e+01 -7.731025218963623047e-01 7.448928833007812500e+00 2.002747774124145508e+00 -4.295512735843658447e-01
1.176000000000000000e+03 6.027055740356445312e+01 1.255445289611816406e+01 -8.460701107978820801e-01 7.242009639739990234e+00 1.918781876564025879e+00 -2.395082861185073853e-01
1.177000000000000000e+03 5.859037017822265625e+01 1.175843811035156250e+01 -8.427262902259826660e-01 6.885879993438720703e+00 1.812946200370788574e+00 -6.378246843814849854e-02
1.178000000000000000e+03 5.692241668701171875e+01 1.268983078002929688e+01 -8.702825903892517090e-01 6.669434547424316406e+00 1.739745497703552246e+00 1.276563853025436401e-01
1.179000000000000000e+03 5.577145385742187500e+01 1.244240856170654297e+01 -8.393659591674804688e-01 6.396362304687500000e+00 1.667098879814147949e+00 2.341816425323486328e-01
1.180000000000000000e+03 5.391817092895507812e+01 1.237296009063720703e+01 -7.683403491973876953e-01 5.925531864166259766e+00 1.547157526016235352e+00 4.173414111137390137e-01
1.181000000000000000e+03 5.101520156860351562e+01 1.258627128601074219e+01 -6.342306733131408691e-01 5.065441608428955078e+00 1.329363346099853516e+00 6.453662514686584473e-01
1.182000000000000000e+03 4.799250411987304688e+01 1.299809837341308594e+01 -4.318136274814605713e-01 4.054075241088867188e+00 1.086678504943847656e+00 7.834289669990539551e-01
1.183000000000000000e+03 4.514878082275390625e+01 1.286179351806640625e+01 -2.699474990367889404e-01 3.056296110153198242e+00 8.359045386314392090e-01 7.448444366455078125e-01
1.184000000000000000e+03 4.353626251220703125e+01 1.156799221038818359e+01 -2.202205061912536621e-01 2.579832077026367188e+00 7.078834772109985352e-01 6.325230598449707031e-01
1.185000000000000000e+03 4.215866851806640625e+01 1.231243038177490234e+01 -1.623579412698745728e-01 2.097450017929077148e+00 5.805276036262512207e-01 5.840524435043334961e-01
1.186000000000000000e+03 4.109505844116210938e+01 1.242672252655029297e+01 -1.333933174610137939e-01 1.766059994697570801e+00 4.898000061511993408e-01 5.274907350540161133e-01
1.187000000000000000e+03 3.872388458251953125e+01 1.268596458435058594e+01 -1.282059699296951294e-01 1.085907816886901855e+00 2.873105704784393311e-01 3.345295190811157227e-01
1.188000000000000000e+03 3.565418624877929688e+01 1.270602416992187500e+01 -2.194725871086120605e-01 3.291395306587219238e-01 3.290008753538131714e-02 2.612601593136787415e-02
1.189000000000000000e+03 3.290341949462890625e+01 1.193861007690429688e+01 -4.193555414676666260e-01 -1.400218904018402100e-01 -1.678132265806198120e-01 -2.687884271144866943e-01
1.190000000000000000e+03 3.185634613037109375e+01 1.240810775756835938e+01 -4.415038526058197021e-01 -4.590955376625061035e-01 -2.701798081398010254e-01 -4.539169669151306152e-01
1.191000000000000000e+03 3.133350372314453125e+01 1.181930637359619141e+01 -5.639925599098205566e-01 -5.054200291633605957e-01 -3.208237886428833008e-01 -5.258211493492126465e-01
1.192000000000000000e+03 3.043538856506347656e+01 1.094273471832275391e+01 -7.619189023971557617e-01 -4.877589046955108643e-01 -3.749033510684967041e-01 -5.943801999092102051e-01
1.193000000000000000e+03 2.973156166076660156e+01 8.934205055236816406e+00 -9.985697865486145020e-01 2.196675911545753479e-02 -2.929809093475341797e-01 -1.213976666331291199e-01
1.194000000000000000e+03 3.001497459411621094e+01 8.372324943542480469e+00 -4.530504345893859863e-01 5.203635245561599731e-02 -1.203042268753051758e-01 1.698061227798461914e-01
1.195000000000000000e+03 3.033473396301269531e+01 7.781827926635742188e+00 1.620964109897613525e-01 -6.429869681596755981e-02 2.933931350708007812e-02 1.444325745105743408e-01
1.196000000000000000e+03 3.188240623474121094e+01 6.634294986724853516e+00 1.401514261960983276e-01 8.458131551742553711e-02 6.741981953382492065e-02 -1.163782831281423569e-02
1.197000000000000000e+03 3.344836044311523438e+01 5.906471252441406250e+00 8.191528916358947754e-02 3.592198789119720459e-01 1.323405504226684570e-01 4.957341402769088745e-02
1.198000000000000000e+03 3.576639938354492188e+01 3.992458581924438477e+00 2.678298950195312500e-02 8.781389594078063965e-01 2.714765667915344238e-01 1.045643836259841919e-01
1.199000000000000000e+03 3.723226165771484375e+01 1.820953011512756348e+00 -3.486856445670127869e-02 1.259874343872070312e+00 3.675017058849334717e-01 9.865817427635192871e-02
1.200000000000000000e+03 3.894946670532226562e+01 -2.293536663055419922e-01 -1.157617345452308655e-01 1.695630669593811035e+00 4.739606678485870361e-01 9.037734568119049072e-02
1.201000000000000000e+03 3.971300125122070312e+01 6.134760379791259766e-01 -1.247575581073760986e-01 1.843207001686096191e+00 5.155348181724548340e-01 1.314893066883087158e-01
1.202000000000000000e+03 3.910321044921875000e+01 1.831555604934692383e+00 -9.092182666063308716e-02 1.684869647026062012e+00 4.781843721866607666e-01 1.613501459360122681e-01
1.203000000000000000e+03 4.043885040283203125e+01 5.988039970397949219e-01 -1.480672210454940796e-01 2.025846242904663086e+00 5.633336901664733887e-01 1.422700732946395874e-01
1.204000000000000000e+03 4.108306884765625000e+01 -1.147682309150695801e+00 -1.918067783117294312e-01 2.199830055236816406e+00 6.024069786071777344e-01 9.484854340553283691e-02
1.205000000000000000e+03 3.072349357604980469e+01 7.361523628234863281e+00 2.674711942672729492e-01 -9.730944037437438965e-02 5.104852840304374695e-02 2.218780666589736938e-02
1.206000000000000000e+03 3.240311813354492188e+01 6.116413116455078125e+00 1.253822445869445801e-01 1.842265427112579346e-01 9.288263320922851562e-02 -4.211542662233114243e-03
1.207000000000000000e+03 3.383027648925781250e+01 4.112771511077880859e+00 7.669501751661300659e-02 5.173058509826660156e-01 1.782002747058868408e-01 1.967674493789672852e-02
1.208000000000000000e+03 3.520787811279296875e+01 1.438413619995117188e+00 -3.444612084422260523e-04 8.485770225524902344e-01 2.544697821140289307e-01 2.758315019309520721e-02
1.209000000000000000e+03 3.665928649902343750e+01 5.038383007049560547e-01 -5.027504265308380127e-02 1.174946427345275879e+00 3.374014198780059814e-01 4.713189974427223206e-02
1.210000000000000000e+03 3.756040191650390625e+01 6.642625927925109863e-01 -6.590373814105987549e-02 1.356838941574096680e+00 3.872805535793304443e-01 7.949080318212509155e-02
1.211000000000000000e+03 3.054623985290527344e+01 6.260585784912109375e+00 2.535617947578430176e-01 6.893239915370941162e-02 9.674826264381408691e-02 -2.066328525543212891e-01
1.212000000000000000e+03 2.956533813476562500e+01 5.778545379638671875e+00 3.617255017161369324e-02 2.145407199859619141e-01 7.521398365497589111e-02 -2.050862461328506470e-01
1.213000000000000000e+03 3.072232627868652344e+01 5.773450851440429688e+00 1.461268514394760132e-01 1.191555559635162354e-01 7.958471775054931641e-02 -1.678396314382553101e-01
1.214000000000000000e+03 3.031264495849609375e+01 4.290082454681396484e+00 6.765899807214736938e-02 1.458747386932373047e-01 6.406012177467346191e-02 -1.142067760229110718e-01
1.215000000000000000e+03 3.016179656982421875e+01 1.683782339096069336e+00 -2.126280684024095535e-03 1.340499073266983032e-01 3.957708925008773804e-02 -7.054958492517471313e-02
1.216000000000000000e+03 2.903514862060546875e+01 -3.428126871585845947e-01 -1.444220393896102905e-01 2.463491447269916534e-02 -3.593613579869270325e-02 -1.354734785854816437e-02
1.217000000000000000e+03 2.760137176513671875e+01 1.130439162254333496e+00 -9.198719263076782227e-02 -7.268020510673522949e-02 -4.940021783113479614e-02 -7.257837802171707153e-02
1.218000000000000000e+03 2.792780876159667969e+01 1.469816267490386963e-01 -1.593964993953704834e-01 -5.261509865522384644e-02 -6.360347568988800049e-02 -2.388231456279754639e-02
1.219000000000000000e+03 2.758421897888183594e+01 4.604126453399658203e+00 3.760889172554016113e-02 -1.205369681119918823e-01 -2.487842366099357605e-02 -8.325855433940887451e-02
1.220000000000000000e+03 2.719593620300292969e+01 7.663728594779968262e-01 -1.523726284503936768e-01 -1.030484139919281006e-01 -7.662630826234817505e-02 -5.148423463106155396e-02
1.221000000000000000e+03 2.684049034118652344e+01 -4.496081471443176270e-01 -2.766453027725219727e-01 -1.230776458978652954e-01 -1.199168860912322998e-01 3.064636327326297760e-02
1.222000000000000000e+03 2.423462295532226562e+01 -4.387078285217285156e-01 -6.353151202201843262e-01 -1.857906281948089600e-01 -2.463317215442657471e-01 1.272309273481369019e-01
1.223000000000000000e+03 2.142696952819824219e+01 7.670477628707885742e-01 -5.825335383415222168e-01 -9.482477605342864990e-02 -2.032074928283691406e-01 1.856898218393325806e-01
1.224000000000000000e+03 1.581532764434814453e+01 -2.427795171737670898e+00 -5.477449893951416016e-01 -5.056701898574829102e-01 -3.160245716571807861e-01 -4.638272821903228760e-01
1.225000000000000000e+03 1.680235671997070312e+01 -3.422705650329589844e+00 9.091950953006744385e-02 -5.566641315817832947e-02 1.057592872530221939e-02 -5.184828862547874451e-02
1.226000000000000000e+03 1.693069648742675781e+01 -5.388235569000244141e+00 2.749123573303222656e-01 3.292378485202789307e-01 1.812450587749481201e-01 9.007053077220916748e-02
1.227000000000000000e+03 1.653646659851074219e+01 -6.511950969696044922e+00 2.272143065929412842e-01 3.074082434177398682e-01 1.603867709636688232e-01 4.698568210005760193e-02
1.228000000000000000e+03 1.717355346679687500e+01 -1.069313335418701172e+01 1.392042189836502075e-01 4.140010476112365723e-01 1.659615784883499146e-01 -8.028732240200042725e-02
1.229000000000000000e+03 1.659038352966308594e+01 -1.418591976165771484e+01 1.111023500561714172e-01 2.897641956806182861e-01 1.202599629759788513e-01 -1.015584692358970642e-01
1.230000000000000000e+03 1.629223060607910156e+01 -1.838092803955078125e+01 7.654324173927307129e-02 2.074406296014785767e-01 8.519516140222549438e-02 -9.827224910259246826e-02
1.231000000000000000e+03 1.682954025268554688e+01 -1.944297599792480469e+01 5.436874553561210632e-02 2.169326990842819214e-01 8.139043301343917847e-02 -1.079058796167373657e-01
1.232000000000000000e+03 1.675645637512207031e+01 -2.077779579162597656e+01 6.122494116425514221e-02 2.075589746236801147e-01 8.063517510890960693e-02 -1.058307960629463196e-01
1.233000000000000000e+03 1.674775695800781250e+01 -2.214265632629394531e+01 4.459265619516372681e-02 1.795790642499923706e-01 6.725151836872100830e-02 -1.015483736991882324e-01
1.234000000000000000e+03 1.595536231994628906e+01 -2.404618263244628906e+01 3.129005804657936096e-02 1.337729692459106445e-01 4.951890930533409119e-02 -8.654469996690750122e-02
1.235000000000000000e+03 1.637103462219238281e+01 -2.578410720825195312e+01 4.581171646714210510e-02 1.354956030845642090e-01 5.439219623804092407e-02 -9.105208516120910645e-02
1.236000000000000000e+03 1.624868202209472656e+01 -2.754838180541992188e+01 3.367721661925315857e-02 1.110242083668708801e-01 4.341042786836624146e-02 -7.401193678379058838e-02
1.237000000000000000e+03 1.511166286468505859e+01 -3.096863746643066406e+01 3.122553601861000061e-02 4.675858840346336365e-02 2.339523658156394958e-02 -5.273761227726936340e-02
1.238000000000000000e+03 1.245587253570556641e+01 -3.119938278198242188e+01 2.212720550596714020e-02 -5.174968019127845764e-02 -8.886742405593395233e-03 -3.390613943338394165e-02
1.239000000000000000e+03 1.605235099792480469e+01 -3.403992080688476562e+01 3.672820329666137695e-02 5.951717495918273926e-02 2.887361310422420502e-02 -4.135658219456672668e-02
1.240000000000000000e+03 1.464875125885009766e+01 -3.637133789062500000e+01 1.482242252677679062e-02 4.220979753881692886e-03 5.713020451366901398e-03 -3.065402060747146606e-02
1.241000000000000000e+03 1.201446247100830078e+01 -3.805868911743164062e+01 1.971460320055484772e-02 -8.345486223697662354e-02 -1.912207715213298798e-02 -1.568989828228950500e-02
1.242000000000000000e+03 1.496708297729492188e+01 -3.047254085540771484e+00 -3.362606167793273926e-01 -3.763480782508850098e-01 -2.137826085090637207e-01 -4.324291646480560303e-01
1.243000000000000000e+03 1.497910118103027344e+01 -2.423511505126953125e+00 -6.677249670028686523e-01 -4.062912762165069580e-01 -3.222048580646514893e-01 -5.356150865554809570e-01
1.244000000000000000e+03 1.325799274444580078e+01 -4.327844142913818359e+00 -1.147941946983337402e-01 -2.102817744016647339e-01 -9.752278774976730347e-02 -3.504577279090881348e-01
1.245000000000000000e+03 1.413336467742919922e+01 -6.228041172027587891e+00 1.768855005502700806e-01 -1.122706457972526550e-01 1.938445493578910828e-02 -1.707239151000976562e-01
1.246000000000000000e+03 1.487302207946777344e+01 -8.736947059631347656e+00 2.016832381486892700e-01 1.107431203126907349e-01 9.372790902853012085e-02 -6.430681794881820679e-02
1.247000000000000000e+03 1.611057472229003906e+01 -1.062416839599609375e+01 1.724741458892822266e-01 3.048159480094909668e-01 1.431870311498641968e-01 -5.748284608125686646e-02
1.248000000000000000e+03 1.504170989990234375e+01 -1.174645614624023438e+01 1.584384441375732422e-01 1.870033591985702515e-01 1.036325395107269287e-01 -6.589945405721664429e-02
1.249000000000000000e+03 1.453973770141601562e+01 -1.745117378234863281e+01 8.090344816446304321e-02 1.404253393411636353e-01 6.639863550662994385e-02 -8.796731382608413696e-02
1.250000000000000000e+03 1.547771167755126953e+01 -1.928086090087890625e+01 6.279380619525909424e-02 1.651555001735687256e-01 6.838479638099670410e-02 -9.247022867202758789e-02
1.251000000000000000e+03 1.511467647552490234e+01 -2.068134880065917969e+01 4.846951365470886230e-02 1.287344545125961304e-01 5.316118896007537842e-02 -8.260427415370941162e-02
1.252000000000000000e+03 1.523416614532470703e+01 -2.233586311340332031e+01 5.322270467877388000e-02 1.258103102445602417e-01 5.370990559458732605e-02 -8.498761802911758423e-02
1.253000000000000000e+03 1.444257736206054688e+01 -2.439829635620117188e+01 4.363206773996353149e-02 7.718382775783538818e-02 3.624476864933967590e-02 -7.536977529525756836e-02
1.254000000000000000e+03 1.464699554443359375e+01 -2.723182296752929688e+01 3.386275470256805420e-02 6.403572857379913330e-02 2.936954423785209656e-02 -6.960486620664596558e-02
1.255000000000000000e+03 1.436755371093750000e+01 -2.858556938171386719e+01 2.765070274472236633e-02 3.901493921875953674e-02 1.999969221651554108e-02 -5.698480084538459778e-02
1.256000000000000000e+03 1.353685474395751953e+01 -2.987017631530761719e+01 2.313392423093318939e-02 3.170969721395522356e-04 7.035306189209222794e-03 -5.103669688105583191e-02
1.257000000000000000e+03 1.406152248382568359e+01 -3.266665267944335938e+01 1.927604712545871735e-02 1.793523733795154840e-05 5.788194946944713593e-03 -4.528139904141426086e-02
1.258000000000000000e+03 1.258297443389892578e+01 -4.097035980224609375e+01 1.241176668554544449e-02 -6.750828772783279419e-02 -1.652895659208297729e-02 -8.796710753813385963e-04
1.259000000000000000e+03 1.411193943023681641e+01 -2.394480466842651367e+00 -7.306876182556152344e-01 -1.983332037925720215e-01 -2.787062525749206543e-01 -4.572405815124511719e-01
1.260000000000000000e+03 1.249208736419677734e+01 -3.631651401519775391e+00 -2.931382656097412109e-01 -1.431362330913543701e-01 -1.308823525905609131e-01 -3.601131141185760498e-01
1.261000000000000000e+03 1.258209514617919922e+01 -4.910072326660156250e+00 -6.195315346121788025e-02 -1.761535853147506714e-01 -7.143201678991317749e-02 -3.244906067848205566e-01
1.262000000000000000e+03 1.284751319885253906e+01 -5.410375118255615234e+00 3.079579025506973267e-02 -1.767035126686096191e-01 -4.377231746912002563e-02 -2.958652675151824951e-01
1.263000000000000000e+03 1.361627864837646484e+01 -8.802791595458984375e+00 1.957452595233917236e-01 -1.087267417460680008e-02 5.546177923679351807e-02 -1.149166822433471680e-01
1.264000000000000000e+03 1.376134490966796875e+01 -1.089302158355712891e+01 1.755415052175521851e-01 6.245949491858482361e-02 7.140029966831207275e-02 -8.100394904613494873e-02
1.265000000000000000e+03 1.391732692718505859e+01 -1.198914337158203125e+01 1.514026671648025513e-01 9.977611154317855835e-02 7.535363733768463135e-02 -7.476390898227691650e-02
1.266000000000000000e+03 1.472103691101074219e+01 -1.408110141754150391e+01 1.184169501066207886e-01 1.710597574710845947e-01 8.684301376342773438e-02 -8.104733377695083618e-02
1.267000000000000000e+03 1.340639495849609375e+01 -1.671783828735351562e+01 8.653462678194046021e-02 7.660871744155883789e-02 4.894300177693367004e-02 -7.549489289522171021e-02
1.268000000000000000e+03 1.347541236877441406e+01 -2.007756614685058594e+01 5.379730463027954102e-02 7.244910299777984619e-02 3.787392377853393555e-02 -7.771865278482437134e-02
1.269000000000000000e+03 1.252838134765625000e+01 -2.133258056640625000e+01 4.745235666632652283e-02 2.121927030384540558e-02 2.060148678719997406e-02 -6.805416196584701538e-02
1.270000000000000000e+03 1.355341243743896484e+01 -2.286099815368652344e+01 3.687059879302978516e-02 5.391056835651397705e-02 2.723435126245021820e-02 -6.953243166208267212e-02
1.271000000000000000e+03 1.235139942169189453e+01 -2.631065940856933594e+01 2.666762098670005798e-02 -2.230902016162872314e-02 1.307580037973821163e-03 -5.083367601037025452e-02
1.272000000000000000e+03 1.332548904418945312e+01 -2.759027481079101562e+01 2.408532425761222839e-02 3.994198516011238098e-03 8.423857390880584717e-03 -5.320722609758377075e-02
1.273000000000000000e+03 1.225917053222656250e+01 -2.864815139770507812e+01 2.281887270510196686e-02 -4.127802699804306030e-02 -5.537745542824268341e-03 -4.184101894497871399e-02
1.274000000000000000e+03 1.118229103088378906e+01 -2.977630043029785156e+01 1.358029898256063461e-02 -8.728843927383422852e-02 -2.211244218051433563e-02 -3.233153000473976135e-02
1.275000000000000000e+03 9.915268898010253906e+00 -3.077896690368652344e+01 1.713767088949680328e-02 -1.423262804746627808e-01 -3.755658119916915894e-02 -2.285992167890071869e-02
1.276000000000000000e+03 1.264306163787841797e+01 -3.427707672119140625e+01 1.988143473863601685e-02 -6.477918475866317749e-02 -1.346932537853717804e-02 -2.447668276727199554e-02
1.277000000000000000e+03 1.243037414550781250e+01 -2.275862216949462891e+00 -5.842883586883544922e-01 -6.618151068687438965e-02 -1.951409578323364258e-01 -2.846573293209075928e-01
1.278000000000000000e+03 1.168962287902832031e+01 -2.178174018859863281e+00 -5.133087635040283203e-01 -1.984466239809989929e-02 -1.599460244178771973e-01 -2.335077375173568726e-01
1.279000000000000000e+03 1.096878528594970703e+01 -2.850114345550537109e+00 -3.629197478294372559e-01 -3.426244482398033142e-02 -1.191546544432640076e-01 -2.549586594104766846e-01
1.280000000000000000e+03 1.034393596649169922e+01 -4.419407367706298828e+00 -1.643443405628204346e-01 -9.126954525709152222e-02 -7.668416947126388550e-02 -2.841285169124603271e-01
1.281000000000000000e+03 1.140097045898437500e+01 -6.103817939758300781e+00 2.312655746936798096e-02 -1.410164237022399902e-01 -3.536695986986160278e-02 -2.750548124313354492e-01
1.282000000000000000e+03 1.163099098205566406e+01 -9.206823348999023438e+00 1.470584571361541748e-01 -8.270469307899475098e-02 1.930613070726394653e-02 -1.624942272901535034e-01
1.283000000000000000e+03 1.164534759521484375e+01 -1.102176284790039062e+01 1.495384871959686279e-01 -5.690954253077507019e-02 2.778868563473224640e-02 -1.278302669525146484e-01
1.284000000000000000e+03 1.150350952148437500e+01 -1.222698402404785156e+01 1.312467306852340698e-01 -3.938090428709983826e-02 2.755974978208541870e-02 -1.057013720273971558e-01
1.285000000000000000e+03 1.346526908874511719e+01 -1.474673271179199219e+01 1.164185479283332825e-01 8.165770769119262695e-02 5.942287668585777283e-02 -7.544761151075363159e-02
1.286000000000000000e+03 1.121377754211425781e+01 -1.692013931274414062e+01 7.825270295143127441e-02 -3.520870581269264221e-02 1.291319821029901505e-02 -7.177319377660751343e-02
1.287000000000000000e+03 1.192948341369628906e+01 -1.912371253967285156e+01 5.921047553420066833e-02 -3.976539243012666702e-03 1.657018065452575684e-02 -6.531573086977005005e-02
1.288000000000000000e+03 1.128751087188720703e+01 -2.032608032226562500e+01 5.076998099684715271e-02 -2.701365947723388672e-02 7.126896176487207413e-03 -6.383716315031051636e-02
1.289000000000000000e+03 1.090015792846679688e+01 -2.302519035339355469e+01 3.159328550100326538e-02 -5.750463157892227173e-02 -7.773404475301504135e-03 -5.618243291974067688e-02
1.290000000000000000e+03 1.126011848449707031e+01 -2.509594345092773438e+01 2.259883284568786621e-02 -6.134254857897758484e-02 -1.162311434745788574e-02 -4.847630113363265991e-02
1.291000000000000000e+03 1.006013488769531250e+01 -2.605916595458984375e+01 1.999039947986602783e-02 -1.081575527787208557e-01 -2.645014598965644836e-02 -3.919772058725357056e-02
1.292000000000000000e+03 1.007617378234863281e+01 -2.849984741210937500e+01 1.385579630732536316e-02 -1.238102391362190247e-01 -3.298633173108100891e-02 -3.168025985360145569e-02
1.293000000000000000e+03 1.110001850128173828e+01 -3.242954254150390625e+01 7.097640540450811386e-03 -1.038947924971580505e-01 -2.903914451599121094e-02 -2.490182220935821533e-02
1.294000000000000000e+03 7.887689113616943359e+00 -3.456980514526367188e+01 -1.167129492387175560e-03 -2.206679731607437134e-01 -6.655053049325942993e-02 -1.552932243794202805e-02
1.295000000000000000e+03 1.022997951507568359e+01 -1.979415893554687500e+00 -3.780356943607330322e-01 1.014124974608421326e-02 -1.103683337569236755e-01 -1.501596271991729736e-01
1.296000000000000000e+03 9.468585968017578125e+00 -1.920994281768798828e+00 -3.134474456310272217e-01 2.550832461565732956e-03 -9.326899051666259766e-02 -1.286748349666595459e-01
1.297000000000000000e+03 9.540184020996093750e+00 -3.569868326187133789e+00 -2.213091701269149780e-01 -4.714401811361312866e-02 -8.053595572710037231e-02 -2.332332581281661987e-01
1.298000000000000000e+03 8.851618766784667969e+00 -5.163413524627685547e+00 -9.107910841703414917e-02 -8.730233460664749146e-02 -5.351443216204643250e-02 -2.427392005920410156e-01
1.299000000000000000e+03 1.059813690185546875e+01 -7.220512866973876953e+00 5.801643431186676025e-02 -1.336525231599807739e-01 -2.269082516431808472e-02 -2.398239523172378540e-01
1.300000000000000000e+03 9.462127685546875000e+00 -1.040501976013183594e+01 1.055402308702468872e-01 -1.261741220951080322e-01 -6.190167274326086044e-03 -1.664707213640213013e-01
1.301000000000000000e+03 1.003001594543457031e+01 -1.335309219360351562e+01 1.006339117884635925e-01 -9.588254243135452271e-02 1.425411202944815159e-03 -1.078382581472396851e-01
1.302000000000000000e+03 1.020568084716796875e+01 -1.582276439666748047e+01 8.000179380178451538e-02 -6.783109158277511597e-02 3.651212202385067940e-03 -8.308449387550354004e-02
1.303000000000000000e+03 1.031692600250244141e+01 -1.822085189819335938e+01 6.280650943517684937e-02 -6.275226920843124390e-02 1.627198798814788461e-05 -7.029704004526138306e-02
1.304000000000000000e+03 9.749590873718261719e+00 -1.964344024658203125e+01 4.561016708612442017e-02 -9.236472845077514648e-02 -1.402636803686618805e-02 -5.869678780436515808e-02
1.305000000000000000e+03 9.298810005187988281e+00 -2.102945137023925781e+01 3.871364891529083252e-02 -1.169648990035057068e-01 -2.347537502646446228e-02 -5.460846424102783203e-02
1.306000000000000000e+03 9.639592170715332031e+00 -2.314739036560058594e+01 2.717520296573638916e-02 -1.141906976699829102e-01 -2.610464766621589661e-02 -4.300752654671669006e-02
1.307000000000000000e+03 9.347239494323730469e+00 -2.482867431640625000e+01 1.635188050568103790e-02 -1.325560510158538818e-01 -3.486125171184539795e-02 -3.736088052392005920e-02
1.308000000000000000e+03 8.782020568847656250e+00 -2.800621795654296875e+01 1.659652590751647949e-02 -1.681551337242126465e-01 -4.546758159995079041e-02 -2.527622878551483154e-02
1.309000000000000000e+03 9.070859909057617188e+00 -2.934349441528320312e+01 3.339651739224791527e-03 -1.680931895971298218e-01 -4.942606016993522644e-02 -2.491094358265399933e-02
1.310000000000000000e+03 8.350729942321777344e+00 -3.156219100952148438e+01 -1.850981381721794605e-03 -2.009021639823913574e-01 -6.082594394683837891e-02 -1.515551377087831497e-02
1.311000000000000000e+03 4.914857864379882812e+00 -4.037202835083007812e+01 -5.126844625920057297e-04 -3.682481348514556885e-01 -1.106282472610473633e-01 -1.147242169827222824e-02
1.312000000000000000e+03 8.666587829589843750e+00 -1.906159281730651855e+00 -2.557297646999359131e-01 2.090349793434143066e-03 -7.609182596206665039e-02 -1.137019395828247070e-01
1.313000000000000000e+03 7.855328559875488281e+00 -1.900925993919372559e+00 -2.047360241413116455e-01 -9.671076200902462006e-03 -6.432212889194488525e-02 -1.040739938616752625e-01
1.314000000000000000e+03 7.139245033264160156e+00 -2.710736751556396484e+00 -1.563537567853927612e-01 -2.494909428060054779e-02 -5.439085513353347778e-02 -1.315565109252929688e-01
1.315000000000000000e+03 7.293552875518798828e+00 -5.046699523925781250e+00 -8.123818039894104004e-02 -7.907970249652862549e-02 -4.809536412358283997e-02 -2.009322643280029297e-01
1.316000000000000000e+03 6.683457374572753906e+00 -7.595155715942382812e+00 8.259429596364498138e-03 -1.380756050348281860e-01 -3.894485160708427429e-02 -1.921942830085754395e-01
1.317000000000000000e+03 8.308123588562011719e+00 -9.817159652709960938e+00 7.330577075481414795e-02 -1.475742310285568237e-01 -2.228053659200668335e-02 -1.730184257030487061e-01
1.318000000000000000e+03 7.769709587097167969e+00 -1.087956237792968750e+01 7.543265819549560547e-02 -1.563620418310165405e-01 -2.427881397306919098e-02 -1.569514572620391846e-01
1.319000000000000000e+03 7.586228847503662109e+00 -1.336585712432861328e+01 6.406113505363464355e-02 -1.687209606170654297e-01 -3.139794617891311646e-02 -1.118744462728500366e-01
1.320000000000000000e+03 8.677041053771972656e+00 -1.607451057434082031e+01 7.510205358266830444e-02 -1.276057958602905273e-01 -1.575112342834472656e-02 -8.163880556821823120e-02
1.321000000000000000e+03 8.520836830139160156e+00 -1.756794357299804688e+01 5.215961113572120667e-02 -1.358043253421783447e-01 -2.509341575205326080e-02 -6.849713623523712158e-02
1.322000000000000000e+03 8.082670211791992188e+00 -1.902986145019531250e+01 4.605762660503387451e-02 -1.576167196035385132e-01 -3.346772864460945129e-02 -6.045171618461608887e-02
1.323000000000000000e+03 7.663589000701904297e+00 -2.038692665100097656e+01 2.733539789915084839e-02 -1.832870990037918091e-01 -4.678551107645034790e-02 -4.572907462716102600e-02
1.324000000000000000e+03 8.044248580932617188e+00 -2.317921829223632812e+01 2.261640131473541260e-02 -1.806645989418029785e-01 -4.741446301341056824e-02 -4.025669768452644348e-02
1.325000000000000000e+03 6.745930671691894531e+00 -2.409145355224609375e+01 1.804330572485923767e-02 -2.363735437393188477e-01 -6.549907475709915161e-02 -3.035112656652927399e-02
1.326000000000000000e+03 6.839453697204589844e+00 -2.538582229614257812e+01 5.148385185748338699e-03 -2.388144284486770630e-01 -7.009981572628021240e-02 -2.319720387458801270e-02
1.327000000000000000e+03 7.047136783599853516e+00 -2.675168037414550781e+01 1.277580950409173965e-02 -2.374250590801239014e-01 -6.739477068185806274e-02 -2.188245393335819244e-02
1.328000000000000000e+03 7.283629417419433594e+00 -2.821115684509277344e+01 9.467865456826984882e-04 -2.333754003047943115e-01 -6.972858309745788574e-02 -1.876973919570446014e-02
1.329000000000000000e+03 7.674712657928466797e+00 -2.979371070861816406e+01 1.338265836238861084e-02 -2.179879248142242432e-01 -6.138158217072486877e-02 -1.728658378124237061e-02
1.330000000000000000e+03 6.615100383758544922e+00 -3.192263793945312500e+01 1.029852777719497681e-02 -2.660636603832244873e-01 -7.672954350709915161e-02 -1.609742082655429840e-02
1.331000000000000000e+03 8.678560256958007812e+00 -3.628680038452148438e+01 1.577692665159702301e-02 -1.930371671915054321e-01 -5.317807197570800781e-02 -1.196289062500000000e-02
1.332000000000000000e+03 7.040176391601562500e+00 -1.904541730880737305e+00 -1.656781733036041260e-01 -9.098296985030174255e-03 -5.243294313549995422e-02 -9.583105891942977905e-02
1.333000000000000000e+03 6.222669601440429688e+00 -1.919198155403137207e+00 -1.301214247941970825e-01 -1.521683577448129654e-02 -4.360147938132286072e-02 -8.569481968879699707e-02
1.334000000000000000e+03 5.724796295166015625e+00 -3.678666591644287109e+00 -9.010327607393264771e-02 -4.609532281756401062e-02 -4.085958003997802734e-02 -1.330922842025756836e-01
1.335000000000000000e+03 5.278003215789794922e+00 -4.783143043518066406e+00 -6.076655536890029907e-02 -7.235119491815567017e-02 -3.993532434105873108e-02 -1.467400044202804565e-01
1.336000000000000000e+03 5.573494911193847656e+00 -7.825781345367431641e+00 8.644471876323223114e-03 -1.500033289194107056e-01 -4.240765422582626343e-02 -1.685218214988708496e-01
1.337000000000000000e+03 6.575039386749267578e+00 -1.041619777679443359e+01 4.973370581865310669e-02 -1.737621426582336426e-01 -3.720853105187416077e-02 -1.538793593645095825e-01
1.338000000000000000e+03 6.239096164703369141e+00 -1.138807487487792969e+01 5.431079491972923279e-02 -1.830375939607620239e-01 -3.861803933978080750e-02 -1.409207433462142944e-01
1.339000000000000000e+03 7.206216812133789062e+00 -1.449377250671386719e+01 6.605464965105056763e-02 -1.806052327156066895e-01 -3.436517342925071716e-02 -1.009010970592498779e-01
1.340000000000000000e+03 6.899996280670166016e+00 -1.578649330139160156e+01 5.019740760326385498e-02 -1.956919729709625244e-01 -4.364836961030960083e-02 -8.158797770738601685e-02
1.341000000000000000e+03 6.641147136688232422e+00 -1.716557121276855469e+01 4.603653773665428162e-02 -2.088788300752639771e-01 -4.885268583893775940e-02 -6.849094480276107788e-02
1.342000000000000000e+03 6.341466903686523438e+00 -1.856586837768554688e+01 2.894326485693454742e-02 -2.269058227539062500e-01 -5.938876792788505554e-02 -5.162080004811286926e-02
1.343000000000000000e+03 6.030082225799560547e+00 -1.993820381164550781e+01 2.834585867822170258e-02 -2.451644539833068848e-01 -6.504558026790618896e-02 -4.385294020175933838e-02
1.344000000000000000e+03 6.886289119720458984e+00 -2.284870910644531250e+01 1.269024331122636795e-02 -2.218068689107894897e-01 -6.273498386144638062e-02 -3.052289597690105438e-02
1.345000000000000000e+03 5.409307003021240234e+00 -2.396782875061035156e+01 4.526976961642503738e-03 -2.908619940280914307e-01 -8.590050786733627319e-02 -2.018843218684196472e-02
1.346000000000000000e+03 5.431269168853759766e+00 -2.536248970031738281e+01 1.153066195547580719e-02 -2.982158958911895752e-01 -8.600556850433349609e-02 -1.976957917213439941e-02
1.347000000000000000e+03 5.550957679748535156e+00 -2.680826950073242188e+01 -1.425515394657850266e-03 -2.982188761234283447e-01 -8.989331871271133423e-02 -1.429809164255857468e-02
1.348000000000000000e+03 5.747426986694335938e+00 -2.836277961730957031e+01 9.125528857111930847e-03 -2.949669957160949707e-01 -8.575243502855300903e-02 -1.437448337674140930e-02
1.349000000000000000e+03 6.039658546447753906e+00 -3.010397911071777344e+01 -3.168437397107481956e-04 -2.882083952426910400e-01 -8.655757457017898560e-02 -1.073077786713838577e-02
1.350000000000000000e+03 5.316414833068847656e+00 -3.260923004150390625e+01 2.102973638102412224e-03 -3.294598758220672607e-01 -9.820707142353057861e-02 -6.995320785790681839e-03
1.351000000000000000e+03 4.431316852569580078e+00 -3.387518692016601562e+01 6.350887939333915710e-03 -3.685991168022155762e-01 -1.086744666099548340e-01 -3.265884937718510628e-03
1.352000000000000000e+03 4.587857246398925781e+00 -1.985551714897155762e+00 -7.401815056800842285e-02 -1.897173374891281128e-02 -2.789696492254734039e-02 -6.337980180978775024e-02
1.353000000000000000e+03 4.157491683959960938e+00 -4.073424816131591797e+00 -5.100864917039871216e-02 -6.059515848755836487e-02 -3.348114341497421265e-02 -1.069876626133918762e-01
1.354000000000000000e+03 2.711302280426025391e+00 -5.740570545196533203e+00 -1.302519068121910095e-02 -1.101329997181892395e-01 -3.694745525717735291e-02 -8.760098367929458618e-02
1.355000000000000000e+03 4.244503974914550781e+00 -7.624098300933837891e+00 -4.067650996148586273e-03 -1.528113633394241333e-01 -4.706370458006858826e-02 -1.372704058885574341e-01
1.356000000000000000e+03 5.292938709259033203e+00 -1.020633029937744141e+01 3.387326747179031372e-02 -1.910108476877212524e-01 -4.714127629995346069e-02 -1.447801440954208374e-01
1.357000000000000000e+03 5.630398273468017578e+00 -1.216633510589599609e+01 4.781210422515869141e-02 -2.081776410341262817e-01 -4.810966178774833679e-02 -1.195339635014533997e-01
1.358000000000000000e+03 5.668231010437011719e+00 -1.393892860412597656e+01 4.060060530900955200e-02 -2.272062301635742188e-01 -5.598168447613716125e-02 -9.392753243446350098e-02
1.359000000000000000e+03 5.058340072631835938e+00 -1.528589534759521484e+01 3.728201240301132202e-02 -2.532444894313812256e-01 -6.478874385356903076e-02 -7.855932414531707764e-02
1.360000000000000000e+03 4.797877788543701172e+00 -1.677459716796875000e+01 2.169363573193550110e-02 -2.768403291702270508e-01 -7.654400914907455444e-02 -5.809851735830307007e-02
1.361000000000000000e+03 4.574781894683837891e+00 -1.821058464050292969e+01 2.476255036890506744e-02 -2.955035567283630371e-01 -8.122230321168899536e-02 -4.708326980471611023e-02
1.362000000000000000e+03 4.362514019012451172e+00 -1.961599922180175781e+01 1.141646690666675568e-02 -3.134281635284423828e-01 -9.060350805521011353e-02 -3.386924043297767639e-02
1.363000000000000000e+03 5.517248153686523438e+00 -2.260323143005371094e+01 1.790949329733848572e-02 -2.807202041149139404e-01 -7.884322106838226318e-02 -2.893756330013275146e-02
1.364000000000000000e+03 3.957484006881713867e+00 -2.381640815734863281e+01 1.019068248569965363e-02 -3.548777401447296143e-01 -1.034061238169670105e-01 -1.706647872924804688e-02
1.365000000000000000e+03 3.957638978958129883e+00 -2.526063728332519531e+01 -1.275474089197814465e-03 -3.600351512432098389e-01 -1.083931848406791687e-01 -1.072114985436201096e-02
1.366000000000000000e+03 4.023706912994384766e+00 -2.675085830688476562e+01 6.675818935036659241e-03 -3.630930483341217041e-01 -1.069251671433448792e-01 -1.207279041409492493e-02
1.367000000000000000e+03 4.136010646820068359e+00 -2.833077239990234375e+01 -2.783320378512144089e-03 -3.620550930500030518e-01 -1.094515249133110046e-01 -7.968223653733730316e-03
1.368000000000000000e+03 4.251692771911621094e+00 -3.004567146301269531e+01 6.343668326735496521e-03 -3.594180941581726074e-01 -1.059223264455795288e-01 -9.248337708413600922e-03
1.369000000000000000e+03 3.491064310073852539e+00 -3.300175094604492188e+01 9.682933450676500797e-04 -4.045270383358001709e-01 -1.210676208138465881e-01 -5.681311246007680893e-03
1.370000000000000000e+03 2.518771648406982422e+00 -3.274145507812500000e+01 -2.980150515213608742e-03 -4.397608935832977295e-01 -1.328223049640655518e-01 -2.636032877489924431e-03
1.371000000000000000e+03 4.037969589233398438e+00 -3.614215087890625000e+01 1.350787933915853500e-02 -3.825136423110961914e-01 -1.107017248868942261e-01 -5.574668291956186295e-03
1.372000000000000000e+03 2.097273588180541992e+00 -2.129624843597412109e+00 -1.937407441437244415e-02 -2.023928798735141754e-02 -1.188400853425264359e-02 -2.489697001874446869e-02
1.373000000000000000e+03 4.185397326946258545e-01 -2.196869134902954102e+00 -2.740884898230433464e-03 -3.853506874293088913e-03 -1.978317508473992348e-03 -3.766903188079595566e-03
1.374000000000000000e+03 1.332970142364501953e+00 -3.496359586715698242e+00 -9.058655239641666412e-03 -4.097498580813407898e-02 -1.501009240746498108e-02 -2.893381565809249878e-02
1.375000000000000000e+03 2.407866477966308594e+00 -4.570598602294921875e+00 -1.821090094745159149e-02 -7.536874711513519287e-02 -2.807389385998249054e-02 -6.862808018922805786e-02
1.376000000000000000e+03 3.080547809600830078e+00 -3.222290992736816406e+00 -3.617520257830619812e-02 -4.318062961101531982e-02 -2.380674891173839569e-02 -6.405191868543624878e-02
1.377000000000000000e+03 2.214775323867797852e+00 -3.368398904800415039e+00 -1.987973041832447052e-02 -4.632952809333801270e-02 -1.986277662217617035e-02 -4.625456035137176514e-02
1.378000000000000000e+03 3.765137434005737305e+00 -2.032182455062866211e+00 -5.237730592489242554e-02 -1.875960826873779297e-02 -2.134107425808906555e-02 -5.158136412501335144e-02
1.379000000000000000e+03 4.945531189441680908e-01 -4.973436355590820312e+00 -3.877975512295961380e-03 -6.695116311311721802e-02 -2.124874107539653778e-02 -1.654257252812385559e-02
1.380000000000000000e+03 2.097952365875244141e+00 -7.484427452087402344e+00 -1.510925125330686569e-03 -1.615536212921142578e-01 -4.891936108469963074e-02 -7.932808995246887207e-02
1.381000000000000000e+03 1.705306291580200195e+00 -6.121969699859619141e+00 -7.684522308409214020e-03 -1.157800406217575073e-01 -3.703936934471130371e-02 -6.182259321212768555e-02
1.382000000000000000e+03 1.471304535865783691e+00 -4.806975364685058594e+00 -6.846630480140447617e-03 -7.684551924467086792e-02 -2.510764449834823608e-02 -4.467490687966346741e-02
1.383000000000000000e+03 6.966487169265747070e-01 -7.765303134918212891e+00 -2.986690495163202286e-03 -1.793401986360549927e-01 -5.469806864857673645e-02 -2.800109982490539551e-02
1.384000000000000000e+03 2.364069223403930664e+00 -8.939231872558593750e+00 1.117759500630199909e-03 -2.024698704481124878e-01 -6.040563061833381653e-02 -8.692546188831329346e-02
1.385000000000000000e+03 7.842344641685485840e-01 -9.177970886230468750e+00 1.187534187920391560e-03 -2.331130057573318481e-01 -6.957764178514480591e-02 -2.929586544632911682e-02
1.386000000000000000e+03 2.433457136154174805e+00 -1.041429615020751953e+01 9.431239217519760132e-03 -2.437294572591781616e-01 -7.028946280479431152e-02 -8.118019253015518188e-02
1.387000000000000000e+03 8.328453302383422852e-01 -1.060548496246337891e+01 -2.264117123559117317e-03 -2.856215834617614746e-01 -8.636571466922760010e-02 -3.051232174038887024e-02
1.388000000000000000e+03 4.063049793243408203e+00 -1.157154750823974609e+01 2.587794326245784760e-02 -2.383919656276702881e-01 -6.375420838594436646e-02 -1.064309105277061462e-01
1.389000000000000000e+03 8.938965201377868652e-01 -1.204774761199951172e+01 4.868352320045232773e-03 -3.339100182056427002e-01 -9.871249645948410034e-02 -2.792709134519100189e-02
1.390000000000000000e+03 3.060051202774047852e+00 -1.497177696228027344e+01 1.175139658153057098e-02 -3.176271617412567139e-01 -9.176273643970489502e-02 -5.768473073840141296e-02
1.391000000000000000e+03 4.542244911193847656e+00 -1.290189170837402344e+01 3.198940306901931763e-02 -2.440288364887237549e-01 -6.361183524131774902e-02 -1.002442091703414917e-01
1.392000000000000000e+03 9.724096059799194336e-01 -1.349807071685791016e+01 2.776101173367351294e-04 -3.733819425106048584e-01 -1.119312942028045654e-01 -2.406291104853153229e-02
1.393000000000000000e+03 2.917314052581787109e+00 -1.650311088562011719e+01 1.633732579648494720e-02 -3.449384868144989014e-01 -9.858034551143646240e-02 -4.356529191136360168e-02
1.394000000000000000e+03 1.007426857948303223e+00 -1.494309997558593750e+01 5.341007374227046967e-03 -4.045755863189697266e-01 -1.197703778743743896e-01 -2.030444890260696411e-02
1.395000000000000000e+03 9.800044298171997070e-01 -1.638095092773437500e+01 -2.192554238718003035e-04 -4.307601749897003174e-01 -1.292938292026519775e-01 -1.639263518154621124e-02
1.396000000000000000e+03 2.780281305313110352e+00 -1.796019935607910156e+01 5.170577671378850937e-03 -3.676203191280364990e-01 -1.087349206209182739e-01 -3.162269294261932373e-02
1.397000000000000000e+03 9.361174106597900391e-01 -1.781082725524902344e+01 5.924870725721120834e-03 -4.526538848876953125e-01 -1.340187042951583862e-01 -1.267869770526885986e-02
1.398000000000000000e+03 2.652972221374511719e+00 -1.938572311401367188e+01 1.139792054891586304e-02 -3.868741989135742188e-01 -1.126428842544555664e-01 -2.433691546320915222e-02
1.399000000000000000e+03 8.931218385696411133e-01 -1.923171234130859375e+01 -1.951695769093930721e-03 -4.697981774806976318e-01 -1.415249556303024292e-01 -8.914804086089134216e-03
1.400000000000000000e+03 2.544331073760986328e+00 -2.080141067504882812e+01 1.320799929089844227e-03 -4.021845161914825439e-01 -1.202591136097908020e-01 -1.658095605671405792e-02
1.401000000000000000e+03 8.572084307670593262e-01 -2.064981460571289062e+01 5.416905507445335388e-03 -4.830010831356048584e-01 -1.432752609252929688e-01 -6.855095736682415009e-03
1.402000000000000000e+03 2.465027093887329102e+00 -2.222160720825195312e+01 8.020009845495223999e-03 -4.146869480609893799e-01 -1.220000833272933960e-01 -1.336828991770744324e-02
1.403000000000000000e+03 8.319420218467712402e-01 -2.206951141357421875e+01 -3.048967337235808372e-03 -4.925073385238647461e-01 -1.486668884754180908e-01 -3.961194306612014771e-03
1.404000000000000000e+03 2.418839454650878906e+00 -2.510868072509765625e+01 5.379713606089353561e-03 -4.294388294219970703e-01 -1.272177398204803467e-01 -8.492640219628810883e-03
1.405000000000000000e+03 2.422723531723022461e+00 -2.365542030334472656e+01 -1.694149919785559177e-03 -4.232656657695770264e-01 -1.274879425764083862e-01 -8.211500011384487152e-03
1.406000000000000000e+03 8.185855746269226074e-01 -2.349379730224609375e+01 4.504990763962268829e-03 -4.993528723716735840e-01 -1.484543681144714355e-01 -3.651494160294532776e-03
1.407000000000000000e+03 8.170824646949768066e-01 -2.492522048950195312e+01 -3.337519941851496696e-03 -5.042371153831481934e-01 -1.522723883390426636e-01 -1.518853125162422657e-03
1.408000000000000000e+03 2.446887731552124023e+00 -2.659356498718261719e+01 -3.047450445592403412e-03 -4.325444698333740234e-01 -1.306775808334350586e-01 -4.597443621605634689e-03
1.409000000000000000e+03 8.243614435195922852e-01 -2.636786842346191406e+01 3.320733550935983658e-03 -5.079691410064697266e-01 -1.513945311307907104e-01 -2.716289833188056946e-03
1.410000000000000000e+03 2.484765291213989258e+00 -2.813281631469726562e+01 4.594967700541019440e-03 -4.359269738197326660e-01 -1.293995976448059082e-01 -6.843816488981246948e-03
1.411000000000000000e+03 8.303132057189941406e-01 -2.783101654052734375e+01 -2.278161002323031425e-03 -5.112580060958862305e-01 -1.540608555078506470e-01 -5.367200355976819992e-04
1.412000000000000000e+03 2.480488061904907227e+00 -2.975377273559570312e+01 -3.578120144084095955e-03 -4.436277449131011963e-01 -1.341617554426193237e-01 -3.228706074878573418e-03
1.413000000000000000e+03 8.118162751197814941e-01 -2.934987831115722656e+01 1.789718866348266602e-03 -5.134354233741760254e-01 -1.534937173128128052e-01 -2.304361201822757721e-03
1.414000000000000000e+03 2.506245613098144531e+00 -3.137498474121093750e+01 6.278610322624444962e-03 -4.424059987068176270e-01 -1.308382153511047363e-01 -9.036284754984080791e-04
1.415000000000000000e+03 5.972275137901306152e-01 -3.069486045837402344e+01 -4.625783767551183701e-03 -5.174072980880737305e-01 -1.566099226474761963e-01 -1.683019800111651421e-03
1.416000000000000000e+03 1.327636241912841797e+00 -3.161157989501953125e+01 6.182930083014070988e-04 -4.960600733757019043e-01 -1.486325263977050781e-01 -5.060447729192674160e-04
1.417000000000000000e+03 2.743496417999267578e+00 -3.379547500610351562e+01 7.788015995174646378e-03 -4.339319467544555664e-01 -1.278431862592697144e-01 -1.285411999560892582e-03
1.418000000000000000e+03 4.407314658164978027e-01 -3.189736747741699219e+01 5.142883397638797760e-03 -5.263923406600952148e-01 -1.563748419284820557e-01 -3.328048624098300934e-03
1.419000000000000000e+03 1.511945128440856934e+00 -3.296594238281250000e+01 6.480658426880836487e-03 -4.795918166637420654e-01 -1.419333517551422119e-01 1.132575911469757557e-03
1.420000000000000000e+03 2.047981739044189453e+00 -3.550574111938476562e+01 9.877032600343227386e-03 -4.643769860267639160e-01 -1.363499909639358521e-01 2.743616700172424316e-03
1.421000000000000000e+03 1.707968473434448242e+00 -3.424628067016601562e+01 -4.710434935986995697e-03 -4.719486832618713379e-01 -1.429977416992187500e-01 -3.443869936745613813e-04
1.422000000000000000e+03 5.040144324302673340e-01 -3.321722412109375000e+01 -1.933865365572273731e-03 -5.292669534683227539e-01 -1.593602448701858521e-01 1.004357705824077129e-03
1.423000000000000000e+03 5.769277215003967285e-01 -3.458733749389648438e+01 2.457113703712821007e-03 -5.251471400260925293e-01 -1.568070054054260254e-01 2.077236538752913475e-03
1.424000000000000000e+03 2.417865991592407227e+00 -3.677763366699218750e+01 1.366956974379718304e-03 -4.643719196319580078e-01 -1.389014869928359985e-01 4.362653475254774094e-03
1.425000000000000000e+03 6.899636387825012207e-01 -3.595825958251953125e+01 1.290147774852812290e-04 -5.165445804595947266e-01 -1.549246758222579956e-01 4.931051284074783325e-03
1.426000000000000000e+03 3.372313261032104492e+00 -3.917668533325195312e+01 1.731257187202572823e-03 -4.427559673786163330e-01 -1.323074102401733398e-01 4.750447260448709130e-05
1.427000000000000000e+03 2.718897104263305664e+00 -3.806239318847656250e+01 7.106737233698368073e-03 -4.461158812046051025e-01 -1.317027360200881958e-01 1.697917841374874115e-02
1.428000000000000000e+03 8.216503262519836426e-01 -3.732215499877929688e+01 2.697159769013524055e-03 -5.039239525794982910e-01 -1.503680348396301270e-01 7.852729409933090210e-03
1.429000000000000000e+03 9.856191277503967285e-01 -3.869606018066406250e+01 -4.000597167760133743e-03 -4.941592216491699219e-01 -1.494479477405548096e-01 5.273857619613409042e-03
1.430000000000000000e+03 1.303871393203735352e+00 -4.008195114135742188e+01 1.275470107793807983e-02 -4.785336852073669434e-01 -1.397336870431900024e-01 1.500874385237693787e-02
1.431000000000000000e+03 2.012635707855224609e+00 -4.163766479492187500e+01 -1.956655643880367279e-02 -4.706199765205383301e-01 -1.470559686422348022e-01 5.648285150527954102e-03
1.432000000000000000e+03 2.124525070190429688e+01 -3.083161926269531250e+01 5.566988512873649597e-02 2.244473993778228760e-01 8.403518050909042358e-02 -9.167560189962387085e-02
1.433000000000000000e+03 2.146476936340332031e+01 -2.905474662780761719e+01 7.175304740667343140e-02 2.508166730403900146e-01 9.677091240882873535e-02 -1.266505867242813110e-01
1.434000000000000000e+03 2.177247238159179688e+01 -2.519843673706054688e+01 7.297231256961822510e-02 3.026439249515533447e-01 1.126848682761192322e-01 -1.523102372884750366e-01
1.435000000000000000e+03 2.217358207702636719e+01 -4.102455139160156250e+01 7.110925763845443726e-02 1.890083551406860352e-01 7.803528755903244019e-02 -4.684459883719682693e-03
1.436000000000000000e+03 2.167679214477539062e+01 -3.810393905639648438e+01 7.909362018108367920e-02 1.852769255638122559e-01 7.931116223335266113e-02 -5.223060026764869690e-02
1.437000000000000000e+03 2.356733894348144531e+01 -3.262639617919921875e+01 6.535235792398452759e-02 2.638843953609466553e-01 9.877102822065353394e-02 -1.065331324934959412e-01
1.438000000000000000e+03 2.301252555847167969e+01 -3.082027053833007812e+01 1.022415459156036377e-01 2.657195627689361572e-01 1.103883385658264160e-01 -1.213514581322669983e-01
1.439000000000000000e+03 2.331622886657714844e+01 -2.743593597412109375e+01 6.765528023242950439e-02 3.142570853233337402e-01 1.145737096667289734e-01 -1.489470154047012329e-01
1.440000000000000000e+03 2.310822486877441406e+01 -2.638241958618164062e+01 8.963729441165924072e-02 3.275794386863708496e-01 1.251650154590606689e-01 -1.595712602138519287e-01
1.441000000000000000e+03 2.254803848266601562e+01 -2.430850219726562500e+01 8.590937405824661255e-02 3.280894756317138672e-01 1.241996586322784424e-01 -1.625689417123794556e-01
1.442000000000000000e+03 2.660674476623535156e+01 -4.081784439086914062e+01 1.576443165540695190e-01 2.528886198997497559e-01 1.231598779559135437e-01 -4.039512574672698975e-02
1.443000000000000000e+03 2.323607826232910156e+01 -2.841130256652832031e+01 8.912010490894317627e-02 2.876743376255035400e-01 1.130383312702178955e-01 -1.479899585247039795e-01
1.444000000000000000e+03 2.458456993103027344e+01 -2.742943954467773438e+01 1.027998551726341248e-01 3.426404297351837158e-01 1.336320787668228149e-01 -1.719025522470474243e-01
1.445000000000000000e+03 2.420853805541992188e+01 -3.498360061645507812e+01 1.090822443366050720e-01 2.537888288497924805e-01 1.088613197207450867e-01 -9.650402516126632690e-02
1.446000000000000000e+03 2.975007057189941406e+01 -3.401796340942382812e+01 1.611579209566116333e-01 3.406136035919189453e-01 1.505314558744430542e-01 -1.765250861644744873e-01
1.447000000000000000e+03 2.541691970825195312e+01 -3.030257987976074219e+01 8.229707181453704834e-02 3.266817629337310791e-01 1.226936504244804382e-01 -1.463944613933563232e-01
1.448000000000000000e+03 3.335623168945312500e+01 -3.780706787109375000e+01 3.074335753917694092e-01 2.621956169605255127e-01 1.708887517452239990e-01 -1.830470561981201172e-01
1.449000000000000000e+03 2.844745254516601562e+01 -3.292605209350585938e+01 1.564568430185317993e-01 3.578407764434814453e-01 1.542892903089523315e-01 -1.513391286134719849e-01
1.450000000000000000e+03 3.437341308593750000e+01 -3.925179672241210938e+01 2.982884645462036133e-01 2.025278061628341675e-01 1.502448916435241699e-01 -1.530228406190872192e-01
1.451000000000000000e+03 2.978434371948242188e+01 -3.572505569458007812e+01 1.403695642948150635e-01 3.106800317764282227e-01 1.353148818016052246e-01 -1.344051212072372437e-01
1.452000000000000000e+03 3.097596359252929688e+01 -3.481010055541992188e+01 2.001185119152069092e-01 3.492951989173889160e-01 1.648241132497787476e-01 -1.880455315113067627e-01
1.453000000000000000e+03 3.705714797973632812e+01 -4.140704345703125000e+01 5.199587941169738770e-01 8.911953121423721313e-02 1.827234923839569092e-01 -7.596730440855026245e-02
1.454000000000000000e+03 3.512421035766601562e+01 -3.722784805297851562e+01 2.565906345844268799e-01 2.245537489652633667e-01 1.443433165550231934e-01 -2.438287436962127686e-01
1.455000000000000000e+03 3.653384017944335938e+01 -3.653276062011718750e+01 3.049690723419189453e-01 2.550889253616333008e-01 1.680174022912979126e-01 -2.212364375591278076e-01
1.456000000000000000e+03 5.350146865844726562e+01 -3.109882736206054688e+01 4.082950353622436523e-01 5.893867015838623047e+00 1.890648722648620605e+00 2.921470403671264648e-01
1.457000000000000000e+03 5.428440093994140625e+01 -2.881965446472167969e+01 1.905211955308914185e-01 5.898144245147705078e+00 1.826599597930908203e+00 3.263252675533294678e-01
1.458000000000000000e+03 5.556339263916015625e+01 -2.837392425537109375e+01 1.798317283391952515e-01 5.991572856903076172e+00 1.851421356201171875e+00 3.678724467754364014e-01
1.459000000000000000e+03 5.649389648437500000e+01 -2.765331649780273438e+01 1.362000405788421631e-01 6.114754199981689453e+00 1.875286340713500977e+00 3.524853587150573730e-01
1.460000000000000000e+03 5.680323410034179688e+01 -2.470568656921386719e+01 -5.412877723574638367e-02 6.079939842224121094e+00 1.807743310928344727e+00 3.479806184768676758e-01
1.461000000000000000e+03 5.727708816528320312e+01 -2.256807708740234375e+01 -1.545787006616592407e-01 6.093106746673583984e+00 1.781558394432067871e+00 3.238077163696289062e-01
1.462000000000000000e+03 5.619821929931640625e+01 -3.261987686157226562e+01 4.388211667537689209e-01 6.121352672576904297e+00 1.968052148818969727e+00 2.537135481834411621e-01
1.463000000000000000e+03 5.653059005737304688e+01 -2.986302185058593750e+01 2.661763131618499756e-01 6.126262664794921875e+00 1.917731642723083496e+00 3.360529839992523193e-01
1.464000000000000000e+03 5.700949478149414062e+01 -2.635466384887695312e+01 3.569167107343673706e-02 6.148604393005371094e+00 1.855288863182067871e+00 3.722599744796752930e-01
1.465000000000000000e+03 5.822704315185546875e+01 -2.426892089843750000e+01 -6.794808804988861084e-02 6.265861511230468750e+00 1.859374046325683594e+00 3.535607755184173584e-01
1.466000000000000000e+03 5.530841827392578125e+01 -3.576733398437500000e+01 5.626893043518066406e-01 6.126745223999023438e+00 2.006830453872680664e+00 9.297808259725570679e-02
1.467000000000000000e+03 5.754883956909179688e+01 -3.491474533081054688e+01 4.896516501903533936e-01 6.271684169769287109e+00 2.028400659561157227e+00 2.315821945667266846e-01
1.468000000000000000e+03 5.779373931884765625e+01 -3.163751983642578125e+01 3.498958051204681396e-01 6.253323554992675781e+00 1.980965733528137207e+00 3.293042778968811035e-01
1.469000000000000000e+03 5.769774246215820312e+01 -2.879789161682128906e+01 1.819628775119781494e-01 6.230851650238037109e+00 1.923844337463378906e+00 3.726412057876586914e-01
1.470000000000000000e+03 5.860540771484375000e+01 -2.736543846130371094e+01 1.031948775053024292e-01 6.329349517822265625e+00 1.929763317108154297e+00 3.676435053348541260e-01
1.471000000000000000e+03 5.956954574584960938e+01 -2.600726890563964844e+01 2.920694276690483093e-02 6.426995754241943359e+00 1.936860799789428711e+00 3.926304280757904053e-01
1.472000000000000000e+03 5.942753219604492188e+01 -2.343046379089355469e+01 -8.196546137332916260e-02 6.403294086456298828e+00 1.896398544311523438e+00 3.667748570442199707e-01
1.473000000000000000e+03 5.936439895629882812e+01 -3.370313644409179688e+01 3.957631886005401611e-01 6.431864261627197266e+00 2.048288345336914062e+00 2.583323717117309570e-01
1.474000000000000000e+03 6.082593917846679688e+01 -3.221172332763671875e+01 2.941687405109405518e-01 6.574453830718994141e+00 2.060586690902709961e+00 3.198512196540832520e-01
1.475000000000000000e+03 6.025837326049804688e+01 -2.895028495788574219e+01 1.659183949232101440e-01 6.524281501770019531e+00 2.007060050964355469e+00 3.797340989112854004e-01
1.476000000000000000e+03 6.122641372680664062e+01 -2.754611587524414062e+01 1.049205437302589417e-01 6.642043113708496094e+00 2.024089097976684570e+00 3.695375621318817139e-01
1.477000000000000000e+03 6.065589904785156250e+01 -2.488856124877929688e+01 -1.699827425181865692e-02 6.569235324859619141e+00 1.965671062469482422e+00 3.745001554489135742e-01
1.478000000000000000e+03 6.163465881347656250e+01 -2.380040550231933594e+01 -5.115032568573951721e-02 6.687680244445800781e+00 1.990958929061889648e+00 3.816562294960021973e-01
1.479000000000000000e+03 6.136853027343750000e+01 -3.607001495361328125e+01 3.776358067989349365e-01 6.627690792083740234e+00 2.101598024368286133e+00 2.072215974330902100e-01
1.480000000000000000e+03 6.212316513061523438e+01 -2.622260665893554688e+01 3.296677768230438232e-02 6.749076366424560547e+00 2.034612894058227539e+00 3.903369903564453125e-01
1.481000000000000000e+03 6.295184326171875000e+01 -2.495734977722167969e+01 -6.311709061264991760e-03 6.859044551849365234e+00 2.055819749832153320e+00 3.744002282619476318e-01
1.482000000000000000e+03 6.370478439331054688e+01 -2.379572296142578125e+01 -4.398702085018157959e-02 6.960305690765380859e+00 2.074895620346069336e+00 3.804242908954620361e-01
1.483000000000000000e+03 6.289331436157226562e+01 -3.415639495849609375e+01 3.063866496086120605e-01 6.810191631317138672e+00 2.134973526000976562e+00 2.347516566514968872e-01
1.484000000000000000e+03 6.403488922119140625e+01 -3.210789489746093750e+01 2.040867805480957031e-01 6.965857982635498047e+00 2.150983333587646484e+00 3.066722750663757324e-01
1.485000000000000000e+03 6.296207809448242188e+01 -2.894079589843750000e+01 1.285401880741119385e-01 6.847648620605468750e+00 2.092856645584106445e+00 3.670752942562103271e-01
1.486000000000000000e+03 6.442946624755859375e+01 -2.596040725708007812e+01 1.698126085102558136e-02 7.042239189147949219e+00 2.117766141891479492e+00 3.803603351116180420e-01
1.487000000000000000e+03 6.502176666259765625e+01 -2.466608619689941406e+01 -1.058890111744403839e-02 7.120232105255126953e+00 2.132893085479736328e+00 3.655740916728973389e-01
1.488000000000000000e+03 6.554891204833984375e+01 -2.352257537841796875e+01 -4.510737955570220947e-02 7.197675228118896484e+00 2.145770311355590820e+00 3.670949339866638184e-01
1.489000000000000000e+03 6.604496002197265625e+01 -2.252359390258789062e+01 -5.402632430195808411e-02 7.269876956939697266e+00 2.164755105972290039e+00 3.505324125289916992e-01
1.490000000000000000e+03 6.412308502197265625e+01 -3.888670730590820312e+01 3.473977446556091309e-01 6.943592548370361328e+00 2.187297105789184570e+00 1.055669635534286499e-01
1.491000000000000000e+03 6.547878265380859375e+01 -3.598270416259765625e+01 2.425586134195327759e-01 7.122681617736816406e+00 2.209572076797485352e+00 2.048921585083007812e-01
1.492000000000000000e+03 6.896056365966796875e+01 -3.422368621826171875e+01 1.344305872917175293e-01 7.500216960906982422e+00 2.290394306182861328e+00 2.302267104387283325e-01
1.493000000000000000e+03 6.488684844970703125e+01 -3.016073608398437500e+01 1.516331285238265991e-01 7.064848423004150391e+00 2.164944410324096680e+00 3.304732739925384521e-01
1.494000000000000000e+03 6.553889465332031250e+01 -2.837952041625976562e+01 7.994045317173004150e-02 7.162546157836914062e+00 2.172745943069458008e+00 3.577280938625335693e-01
1.495000000000000000e+03 6.605798339843750000e+01 -2.676887512207031250e+01 4.746630415320396423e-02 7.229791164398193359e+00 2.183177232742309570e+00 3.595094978809356689e-01
1.496000000000000000e+03 6.647683715820312500e+01 -2.533949089050292969e+01 -1.027881284244358540e-03 7.298911094665527344e+00 2.189364910125732422e+00 3.644842803478240967e-01
1.497000000000000000e+03 6.681139373779296875e+01 -2.408510971069335938e+01 -1.958383433520793915e-02 7.343041896820068359e+00 2.197037458419799805e+00 3.537299931049346924e-01
1.498000000000000000e+03 6.707784271240234375e+01 -2.302476119995117188e+01 -4.839810729026794434e-02 7.386316776275634766e+00 2.201375722885131836e+00 3.513058722019195557e-01
1.499000000000000000e+03 6.638385009765625000e+01 -3.340352249145507812e+01 1.976742148399353027e-01 7.212908744812011719e+00 2.223174810409545898e+00 2.628826498985290527e-01
1.500000000000000000e+03 6.702201080322265625e+01 -3.112102890014648438e+01 1.215583756566047668e-01 7.316287517547607422e+00 2.231353759765625000e+00 3.098791241645812988e-01
1.501000000000000000e+03 6.748152160644531250e+01 -2.911619186401367188e+01 9.245672821998596191e-02 7.375263690948486328e+00 2.240316152572631836e+00 3.317323029041290283e-01
1.502000000000000000e+03 6.781981658935546875e+01 -2.734713554382324219e+01 3.971666470170021057e-02 7.442862987518310547e+00 2.244773864746093750e+00 3.431522548198699951e-01
1.503000000000000000e+03 6.805664825439453125e+01 -2.577898025512695312e+01 1.816974952816963196e-02 7.483412265777587891e+00 2.250474691390991211e+00 3.452047109603881836e-01
1.504000000000000000e+03 6.818031311035156250e+01 -2.438175392150878906e+01 -1.971982605755329132e-02 7.524498462677001953e+00 2.251433610916137695e+00 3.459101021289825439e-01
1.505000000000000000e+03 6.939387512207031250e+01 -2.297544670104980469e+01 -3.649619594216346741e-02 7.690036296844482422e+00 2.296061992645263672e+00 3.184259235858917236e-01
1.506000000000000000e+03 6.812918090820312500e+01 -2.313140678405761719e+01 -3.431801125407218933e-02 7.528660774230957031e+00 2.248302936553955078e+00 3.456648290157318115e-01
1.507000000000000000e+03 7.568882751464843750e+01 -4.014758682250976562e+01 4.549283161759376526e-02 8.132394790649414062e+00 2.453366279602050781e+00 1.649520173668861389e-02
1.508000000000000000e+03 6.929203033447265625e+01 -3.172940254211425781e+01 1.135951876640319824e-01 7.543808460235595703e+00 2.297221183776855469e+00 2.792048752307891846e-01
1.509000000000000000e+03 6.950806427001953125e+01 -2.957176017761230469e+01 6.502452492713928223e-02 7.612318515777587891e+00 2.303202867507934570e+00 2.989674806594848633e-01
1.510000000000000000e+03 6.965853118896484375e+01 -2.767646980285644531e+01 4.640370234847068787e-02 7.652346611022949219e+00 2.309624910354614258e+00 3.183571696281433105e-01
1.511000000000000000e+03 6.972980499267578125e+01 -2.598211097717285156e+01 8.295726031064987183e-03 7.688875198364257812e+00 2.309151411056518555e+00 3.231613934040069580e-01
1.512000000000000000e+03 6.967153167724609375e+01 -2.443134880065917969e+01 -4.888653755187988281e-03 7.695522785186767578e+00 2.307190179824829102e+00 3.237693309783935547e-01
1.513000000000000000e+03 7.086731719970703125e+01 -2.273359107971191406e+01 -2.188485488295555115e-02 7.883785724639892578e+00 2.358570098876953125e+00 3.022448420524597168e-01
1.514000000000000000e+03 7.220554351806640625e+01 -4.070919036865234375e+01 1.053723990917205811e-01 7.784744262695312500e+00 2.367034912109375000e+00 3.885320946574211121e-02
1.515000000000000000e+03 7.169304656982421875e+01 -3.738507843017578125e+01 1.094416230916976929e-01 7.740919113159179688e+00 2.355108261108398438e+00 1.160524189472198486e-01
1.516000000000000000e+03 7.158695983886718750e+01 -3.448640441894531250e+01 1.013663336634635925e-01 7.748747348785400391e+00 2.355034112930297852e+00 2.026535719633102417e-01
1.517000000000000000e+03 7.161570739746093750e+01 -3.193074607849121094e+01 6.924559175968170166e-02 7.802582263946533203e+00 2.361548423767089844e+00 2.318999320268630981e-01
1.518000000000000000e+03 7.152505493164062500e+01 -2.972092056274414062e+01 5.962856113910675049e-02 7.829463005065917969e+00 2.366727590560913086e+00 2.716502249240875244e-01
1.519000000000000000e+03 7.151493072509765625e+01 -2.778525924682617188e+01 2.462502196431159973e-02 7.865460872650146484e+00 2.367025852203369141e+00 2.802132368087768555e-01
1.520000000000000000e+03 7.147299957275390625e+01 -2.601203536987304688e+01 1.858917437493801117e-02 7.897642135620117188e+00 2.374869346618652344e+00 2.907210588455200195e-01
1.521000000000000000e+03 7.132318115234375000e+01 -2.430447006225585938e+01 -1.666651293635368347e-02 7.915827751159667969e+00 2.369748353958129883e+00 2.945201396942138672e-01
1.522000000000000000e+03 7.207054138183593750e+01 -2.202478218078613281e+01 -2.679064311087131500e-02 8.057223320007324219e+00 2.409129858016967773e+00 2.648156285285949707e-01
1.523000000000000000e+03 7.374840545654296875e+01 -3.152136421203613281e+01 4.926065728068351746e-02 8.032599449157714844e+00 2.424558162689208984e+00 1.983819603919982910e-01
1.524000000000000000e+03 7.347959136962890625e+01 -2.958819389343261719e+01 2.873480319976806641e-02 8.042602539062500000e+00 2.421401262283325195e+00 2.192267477512359619e-01
1.525000000000000000e+03 7.338375091552734375e+01 -2.774545097351074219e+01 2.956203930079936981e-02 8.082895278930664062e+00 2.433737277984619141e+00 2.426348477602005005e-01
1.526000000000000000e+03 7.329626464843750000e+01 -2.597750091552734375e+01 -9.565494256094098091e-04 8.109059333801269531e+00 2.432430744171142578e+00 2.491762936115264893e-01
1.527000000000000000e+03 7.312622070312500000e+01 -2.425134086608886719e+01 1.651937607675790787e-03 8.134771347045898438e+00 2.440927028656005859e+00 2.517183721065521240e-01
1.528000000000000000e+03 7.316597747802734375e+01 -2.276453971862792969e+01 -2.506223320960998535e-02 8.177343368530273438e+00 2.445684432983398438e+00 2.508120834827423096e-01
1.529000000000000000e+03 7.575167083740234375e+01 -3.489409637451171875e+01 2.788213454186916351e-02 8.190583229064941406e+00 2.465539693832397461e+00 1.054440736770629883e-01
1.530000000000000000e+03 7.595780181884765625e+01 -3.228285980224609375e+01 2.386371232569217682e-02 8.244973182678222656e+00 2.480651140213012695e+00 1.383283883333206177e-01
1.531000000000000000e+03 7.560902404785156250e+01 -3.093768119812011719e+01 1.947160810232162476e-02 8.257290840148925781e+00 2.483028888702392578e+00 1.538004726171493530e-01
1.532000000000000000e+03 7.538498687744140625e+01 -2.935539817810058594e+01 2.293242141604423523e-02 8.270955085754394531e+00 2.488166093826293945e+00 1.712443828582763672e-01
1.533000000000000000e+03 7.528493499755859375e+01 -2.766355895996093750e+01 5.208434071391820908e-03 8.306880950927734375e+00 2.493626832962036133e+00 1.817088127136230469e-01
1.534000000000000000e+03 7.524432373046875000e+01 -2.590691947937011719e+01 7.698973640799522400e-03 8.363441467285156250e+00 2.511342048645019531e+00 1.941337883472442627e-01
1.535000000000000000e+03 7.647031402587890625e+01 -2.360561180114746094e+01 -7.777299266308546066e-03 8.592212677001953125e+00 2.575330495834350586e+00 1.531296074390411377e-01
1.536000000000000000e+03 7.590029907226562500e+01 -2.230543708801269531e+01 -1.641117036342620850e-02 8.543444633483886719e+00 2.558109998703002930e+00 1.727369278669357300e-01
1.537000000000000000e+03 7.811419677734375000e+01 -4.165450286865234375e+01 3.982806950807571411e-02 8.256138801574707031e+00 2.488790035247802734e+00 1.108388882130384445e-02
1.538000000000000000e+03 7.742993164062500000e+01 -3.786480331420898438e+01 -8.323856629431247711e-03 8.292491912841796875e+00 2.485250473022460938e+00 3.617051243782043457e-02
1.539000000000000000e+03 7.743841552734375000e+01 -3.638217163085937500e+01 8.375216275453567505e-03 8.277853965759277344e+00 2.485868692398071289e+00 5.617015063762664795e-02
1.540000000000000000e+03 7.599405670166015625e+01 -3.350073623657226562e+01 1.742074079811573029e-02 8.211661338806152344e+00 2.468724727630615234e+00 1.127526983618736267e-01
1.541000000000000000e+03 7.737411499023437500e+01 -3.070840454101562500e+01 1.676728576421737671e-02 8.435279846191406250e+00 2.535614013671875000e+00 1.049179658293724060e-01
1.542000000000000000e+03 7.724700164794921875e+01 -2.923226165771484375e+01 4.788213409483432770e-03 8.475643157958984375e+00 2.544129610061645508e+00 1.154182851314544678e-01
1.543000000000000000e+03 7.718695068359375000e+01 -2.767925453186035156e+01 7.702869828790426254e-03 8.521988868713378906e+00 2.558907508850097656e+00 1.214972957968711853e-01
1.544000000000000000e+03 7.722788238525390625e+01 -2.605554008483886719e+01 -6.704100407660007477e-03 8.591943740844726562e+00 2.575572013854980469e+00 1.217922791838645935e-01
1.545000000000000000e+03 7.824959564208984375e+01 -2.343105888366699219e+01 -1.151356939226388931e-02 8.834717750549316406e+00 2.646961450576782227e+00 8.060393482446670532e-02
1.546000000000000000e+03 7.703662872314453125e+01 -2.173866462707519531e+01 -1.029453519731760025e-02 8.746059417724609375e+00 2.620729446411132812e+00 1.223267391324043274e-01
1.547000000000000000e+03 7.746992492675781250e+01 -2.278722763061523438e+01 -8.132372051477432251e-03 8.764383316040039062e+00 2.626875162124633789e+00 1.084337159991264343e-01
1.548000000000000000e+03 7.921855926513671875e+01 -3.898380279541015625e+01 1.826108805835247040e-02 8.324940681457519531e+00 2.502960681915283203e+00 1.429093629121780396e-02
1.549000000000000000e+03 7.914484405517578125e+01 -3.627960586547851562e+01 -1.409755274653434753e-02 8.412388801574707031e+00 2.519487142562866211e+00 2.297624759376049042e-02
1.550000000000000000e+03 7.915893554687500000e+01 -3.486965942382812500e+01 1.211648155003786087e-02 8.451764106750488281e+00 2.539164066314697266e+00 2.303387597203254700e-02
1.551000000000000000e+03 7.917391204833984375e+01 -3.346404266357421875e+01 -4.404304083436727524e-03 8.497524261474609375e+00 2.547935962677001953e+00 2.855840697884559631e-02
1.552000000000000000e+03 7.916058349609375000e+01 -3.206071090698242188e+01 7.197916973382234573e-03 8.551348686218261719e+00 2.567564010620117188e+00 3.157330676913261414e-02
1.553000000000000000e+03 7.908158874511718750e+01 -2.923640060424804688e+01 9.975193999707698822e-03 8.669923782348632812e+00 2.603969573974609375e+00 4.037011042237281799e-02
1.554000000000000000e+03 7.906500244140625000e+01 -2.779979705810546875e+01 -5.078355781733989716e-03 8.737172126770019531e+00 2.619628190994262695e+00 4.444341734051704407e-02
1.555000000000000000e+03 7.910022735595703125e+01 -2.636662483215332031e+01 2.090746071189641953e-03 8.806397438049316406e+00 2.642546415328979492e+00 4.177710786461830139e-02
1.556000000000000000e+03 7.922875213623046875e+01 -2.497745704650878906e+01 -1.147055439651012421e-02 8.875771522521972656e+00 2.659290313720703125e+00 3.587640821933746338e-02
1.557000000000000000e+03 7.939022064208984375e+01 -2.363999748229980469e+01 6.397794000804424286e-03 8.951236724853515625e+00 2.687290191650390625e+00 2.870532311499118805e-02
1.558000000000000000e+03 7.938603210449218750e+01 -2.099167442321777344e+01 5.707754753530025482e-03 9.089351654052734375e+00 2.728517770767211914e+00 1.710075326263904572e-02
1.559000000000000000e+03 7.900122833251953125e+01 -4.020865631103515625e+01 -2.997267246246337891e-02 8.276611328125000000e+00 2.473991632461547852e+00 3.313841298222541809e-02
1.560000000000000000e+03 7.576445007324218750e+01 -1.478423404693603516e+01 -1.554299890995025635e-02 8.751415252685546875e+00 2.620761632919311523e+00 1.108656302094459534e-01
1.561000000000000000e+03 7.451325988769531250e+01 -1.337624263763427734e+01 -3.619858250021934509e-02 8.586866378784179688e+00 2.565200328826904297e+00 1.242957264184951782e-01
1.562000000000000000e+03 7.293637847900390625e+01 -1.135619831085205078e+01 -8.132541924715042114e-02 8.349063873291015625e+00 2.480321407318115234e+00 1.128136441111564636e-01
1.563000000000000000e+03 7.130792236328125000e+01 -9.330307006835937500e+00 -1.155040860176086426e-01 8.131922721862792969e+00 2.404925584793090820e+00 8.569660037755966187e-02
1.564000000000000000e+03 6.959769439697265625e+01 -7.045215129852294922e+00 -1.871634721755981445e-01 7.871936321258544922e+00 2.305431842803955078e+00 3.838717937469482422e-02
1.565000000000000000e+03 6.850823974609375000e+01 -4.764767646789550781e+00 -2.378733456134796143e-01 7.701579570770263672e+00 2.239111900329589844e+00 -2.015074901282787323e-02
1.566000000000000000e+03 6.532612609863281250e+01 -2.811006307601928711e+00 -3.492526710033416748e-01 7.252346992492675781e+00 2.070928335189819336e+00 -5.794008076190948486e-02
1.567000000000000000e+03 6.311546707153320312e+01 -1.725715875625610352e+00 -4.297959208488464355e-01 6.932418823242187500e+00 1.950786828994750977e+00 -5.657461658120155334e-02
1.568000000000000000e+03 7.913776397705078125e+01 -1.386260223388671875e+01 -6.812022533267736435e-03 9.352190017700195312e+00 2.803613424301147461e+00 2.472631633281707764e-02
1.569000000000000000e+03 7.592346191406250000e+01 -1.351154422760009766e+01 -2.624825760722160339e-02 8.815395355224609375e+00 2.636744260787963867e+00 9.583708643913269043e-02
1.570000000000000000e+03 7.449906158447265625e+01 -1.216227149963378906e+01 -4.802070930600166321e-02 8.609578132629394531e+00 2.568467140197753906e+00 1.062845140695571899e-01
1.571000000000000000e+03 7.342662048339843750e+01 -9.744923591613769531e+00 -7.091573625802993774e-02 8.471412658691406250e+00 2.520148992538452148e+00 7.698640972375869751e-02
1.572000000000000000e+03 7.167340087890625000e+01 -7.714529037475585938e+00 -1.231024861335754395e-01 8.183427810668945312e+00 2.418097496032714844e+00 4.608411341905593872e-02
1.573000000000000000e+03 6.988381958007812500e+01 -5.464823246002197266e+00 -1.821061372756958008e-01 7.921507358551025391e+00 2.321820497512817383e+00 -1.186662539839744568e-02
1.574000000000000000e+03 6.894016265869140625e+01 -3.863811254501342773e+00 -2.353488951921463013e-01 7.770781517028808594e+00 2.260629653930664062e+00 -5.549757182598114014e-02
1.575000000000000000e+03 6.703421020507812500e+01 -2.372582912445068359e+00 -3.095740079879760742e-01 7.511243343353271484e+00 2.160500764846801758e+00 -8.935735374689102173e-02
1.576000000000000000e+03 6.586782836914062500e+01 -1.744810819625854492e+00 -3.550392687320709229e-01 7.342356204986572266e+00 2.096194982528686523e+00 -9.521242231130599976e-02
1.577000000000000000e+03 7.916132354736328125e+01 -1.246111774444580078e+01 -3.396868472918868065e-03 9.402075767517089844e+00 2.819603681564331055e+00 1.609143614768981934e-02
1.578000000000000000e+03 7.751230621337890625e+01 -1.089967823028564453e+01 -1.140307821333408356e-02 9.144027709960937500e+00 2.739787340164184570e+00 4.476306587457656860e-02
1.579000000000000000e+03 7.586683654785156250e+01 -9.320656776428222656e+00 -3.108965419232845306e-02 8.861730575561523438e+00 2.649192333221435547e+00 5.075710639357566833e-02
1.580000000000000000e+03 7.272122955322265625e+01 -7.398832321166992188e+00 -9.615872055292129517e-02 8.359136581420898438e+00 2.478893518447875977e+00 3.863495215773582458e-02
1.581000000000000000e+03 7.143003845214843750e+01 -6.702625751495361328e+00 -1.441432088613510132e-01 8.145093917846679688e+00 2.400285243988037109e+00 2.465225011110305786e-02
1.582000000000000000e+03 7.039899444580078125e+01 -4.083584785461425781e+00 -1.841443479061126709e-01 8.003929138183593750e+00 2.345935344696044922e+00 -5.125082656741142273e-02
1.583000000000000000e+03 6.893199920654296875e+01 -2.288114309310913086e+00 -2.434361875057220459e-01 7.784027576446533203e+00 2.262177467346191406e+00 -1.011539697647094727e-01
1.584000000000000000e+03 6.795935058593750000e+01 -1.326533079147338867e+00 -2.893045842647552490e-01 7.648733615875244141e+00 2.207828760147094727e+00 -1.286040991544723511e-01
1.585000000000000000e+03 7.917170715332031250e+01 -1.106687927246093750e+01 -4.404817242175340652e-03 9.441304206848144531e+00 2.831069707870483398e+00 9.589422494173049927e-03
1.586000000000000000e+03 7.754886627197265625e+01 -9.520888328552246094e+00 -1.725510321557521820e-02 9.171273231506347656e+00 2.746205568313598633e+00 2.776903100311756134e-02
1.587000000000000000e+03 7.475230407714843750e+01 -7.652240753173828125e+00 -4.723041504621505737e-02 8.705435752868652344e+00 2.597461462020874023e+00 2.792827785015106201e-02
1.588000000000000000e+03 7.253183746337890625e+01 -6.507039070129394531e+00 -1.084887310862541199e-01 8.323680877685546875e+00 2.464557647705078125e+00 1.036723516881465912e-02
1.589000000000000000e+03 7.194911193847656250e+01 -4.581140518188476562e+00 -1.313356906175613403e-01 8.238368988037109375e+00 2.432110071182250977e+00 -3.546454012393951416e-02
1.590000000000000000e+03 7.073652648925781250e+01 -2.582929372787475586e+00 -1.826926469802856445e-01 8.051000595092773438e+00 2.360492229461669922e+00 -9.813009947538375854e-02
1.591000000000000000e+03 6.907851409912109375e+01 -4.380238950252532959e-01 -2.580506801605224609e-01 7.817458152770996094e+00 2.267822265625000000e+00 -1.690316051244735718e-01
1.592000000000000000e+03 7.918508911132812500e+01 -9.680274009704589844e+00 1.976696366909891367e-04 9.473075866699218750e+00 2.841982126235961914e+00 5.692088976502418518e-03
1.593000000000000000e+03 7.610987091064453125e+01 -7.936764717102050781e+00 -3.448492288589477539e-02 8.922334671020507812e+00 2.666354894638061523e+00 2.781886421144008636e-02
1.594000000000000000e+03 7.485843658447265625e+01 -6.440033435821533203e+00 -5.716981366276741028e-02 8.724383354187011719e+00 2.600164175033569336e+00 6.510905921459197998e-03
1.595000000000000000e+03 7.313204956054687500e+01 -4.215644836425781250e+00 -1.018975526094436646e-01 8.418056488037109375e+00 2.494847774505615234e+00 -4.901623353362083435e-02
1.596000000000000000e+03 7.181690979003906250e+01 -2.044515132904052734e+00 -1.464301645755767822e-01 8.223354339599609375e+00 2.423077344894409180e+00 -1.103956922888755798e-01
1.597000000000000000e+03 7.104904937744140625e+01 -9.494025707244873047e-01 -1.908603757619857788e-01 8.090545654296875000e+00 2.369905710220336914e+00 -1.540357470512390137e-01
1.598000000000000000e+03 7.920323944091796875e+01 -8.289066314697265625e+00 -7.541087456047534943e-03 9.498984336853027344e+00 2.847433090209960938e+00 -6.093817501096054912e-05
1.599000000000000000e+03 7.620674896240234375e+01 -6.571910858154296875e+00 -2.558352239429950714e-02 8.949890136718750000e+00 2.677292108535766602e+00 5.108959507197141647e-03
1.600000000000000000e+03 7.476264190673828125e+01 -5.184810638427734375e+00 -5.419337749481201172e-02 8.710373878479003906e+00 2.596854209899902344e+00 -1.906133256852626801e-02
1.601000000000000000e+03 7.380570983886718750e+01 -2.606348037719726562e+00 -8.971108496189117432e-02 8.537503242492675781e+00 2.534337520599365234e+00 -8.325498551130294800e-02
1.602000000000000000e+03 7.218899536132812500e+01 -4.448788762092590332e-01 -1.562466919422149658e-01 8.260155677795410156e+00 2.431172609329223633e+00 -1.603989154100418091e-01
1.603000000000000000e+03 7.922706604003906250e+01 -5.492475509643554688e+00 -6.953988689929246902e-03 9.524161338806152344e+00 2.855162382125854492e+00 -1.159401331096887589e-02
1.604000000000000000e+03 7.617929077148437500e+01 -5.193563461303710938e+00 -3.760210797190666199e-02 8.942337036132812500e+00 2.671420574188232422e+00 -1.629806868731975555e-02
1.605000000000000000e+03 7.618678283691406250e+01 -2.349098443984985352e+00 -4.489711672067642212e-02 8.919282913208007812e+00 2.662315607070922852e+00 -6.379602104425430298e-02
1.606000000000000000e+03 7.376043701171875000e+01 -9.989019036293029785e-01 -1.113830283284187317e-01 8.489556312561035156e+00 2.513452053070068359e+00 -1.284290105104446411e-01
1.607000000000000000e+03 7.923806762695312500e+01 -4.103900909423828125e+00 1.116078579798340797e-03 9.524085998535156250e+00 2.857560396194458008e+00 -1.774467155337333679e-02
1.608000000000000000e+03 7.776378631591796875e+01 -2.579458951950073242e+00 -1.326541323214769363e-02 9.223164558410644531e+00 2.762969732284545898e+00 -4.407470300793647766e-02
1.609000000000000000e+03 7.926276397705078125e+01 -2.727007389068603516e+00 -4.759768489748239517e-03 9.517072677612304688e+00 2.853693962097167969e+00 -2.060703374445438385e-02
1.610000000000000000e+03 7.929846954345703125e+01 -1.350552678108215332e+00 -2.325327368453145027e-03 9.501687049865722656e+00 2.849808692932128906e+00 -2.768253721296787262e-02
1.611000000000000000e+03 7.933135223388671875e+01 4.155247688293457031e+00 -2.682150108739733696e-03 9.294294357299804688e+00 2.787483692169189453e+00 -5.937688797712326050e-02
1.612000000000000000e+03 7.653402709960937500e+01 5.190674781799316406e+00 -5.137247964739799500e-02 8.764549255371093750e+00 2.613953113555908203e+00 -2.228780090808868408e-01
1.613000000000000000e+03 7.470600891113281250e+01 6.980721473693847656e+00 -1.160766109824180603e-01 8.426957130432128906e+00 2.493264198303222656e+00 -3.726429343223571777e-01
1.614000000000000000e+03 7.415766906738281250e+01 1.028645706176757812e+01 -1.562939435243606567e-01 8.201874732971191406e+00 2.413674116134643555e+00 -5.375733971595764160e-01
1.615000000000000000e+03 7.264665222167968750e+01 1.231254863739013672e+01 -2.365802675485610962e-01 8.015030860900878906e+00 2.333535194396972656e+00 -7.089489698410034180e-01
1.616000000000000000e+03 6.889944458007812500e+01 1.464162063598632812e+01 -4.711571633815765381e-01 7.905564785003662109e+00 2.230322360992431641e+00 -9.065023064613342285e-01
1.617000000000000000e+03 6.789597320556640625e+01 1.683401679992675781e+01 -5.143995881080627441e-01 7.965014934539794922e+00 2.235184669494628906e+00 -1.014782905578613281e+00
1.618000000000000000e+03 6.567892456054687500e+01 1.884155464172363281e+01 -6.161566376686096191e-01 8.142574310302734375e+00 2.257925271987915039e+00 -1.030984401702880859e+00
1.619000000000000000e+03 6.365579605102539062e+01 2.218891525268554688e+01 -5.886359214782714844e-01 8.600475311279296875e+00 2.403552055358886719e+00 -1.052189350128173828e+00
1.620000000000000000e+03 6.180424118041992188e+01 2.257549095153808594e+01 -6.884658336639404297e-01 8.808539390563964844e+00 2.436022043228149414e+00 -7.828118801116943359e-01
1.621000000000000000e+03 6.043383789062500000e+01 2.430537605285644531e+01 -5.802983641624450684e-01 9.169401168823242188e+00 2.576730966567993164e+00 -6.013812422752380371e-01
1.622000000000000000e+03 5.834042358398437500e+01 2.607909393310546875e+01 -4.108218848705291748e-01 9.753723144531250000e+00 2.802870512008666992e+00 -9.048074483871459961e-02
1.623000000000000000e+03 5.671979522705078125e+01 2.864024543762207031e+01 8.346234261989593506e-02 1.070055294036865234e+01 3.235204458236694336e+00 5.341663956642150879e-01
1.624000000000000000e+03 5.552280426025390625e+01 2.995495033264160156e+01 5.430340766906738281e-01 1.157582378387451172e+01 3.635657310485839844e+00 1.326633810997009277e+00
1.625000000000000000e+03 5.283221435546875000e+01 3.129062843322753906e+01 2.314117193222045898e+00 1.018458938598632812e+01 3.749611854553222656e+00 4.199396133422851562e+00
1.626000000000000000e+03 5.163691329956054688e+01 3.226894378662109375e+01 4.607113838195800781e+00 7.957176208496093750e+00 3.769287109375000000e+00 5.905330657958984375e+00
1.627000000000000000e+03 7.929216766357421875e+01 5.529784679412841797e+00 -8.595281280577182770e-03 9.200168609619140625e+00 2.757471799850463867e+00 -7.142690569162368774e-02
1.628000000000000000e+03 7.589844512939453125e+01 7.634764671325683594e+00 -7.334829866886138916e-02 8.531473159790039062e+00 2.537437677383422852e+00 -3.298782110214233398e-01
1.629000000000000000e+03 7.571935272216796875e+01 9.788028717041015625e+00 -8.093895763158798218e-02 8.379844665527343750e+00 2.489671707153320312e+00 -4.135579168796539307e-01
1.630000000000000000e+03 7.362836456298828125e+01 1.184104633331298828e+01 -1.847125589847564697e-01 8.097288131713867188e+00 2.373772621154785156e+00 -6.388812065124511719e-01
1.631000000000000000e+03 7.194673919677734375e+01 1.378981590270996094e+01 -2.844613492488861084e-01 7.934629917144775391e+00 2.295050621032714844e+00 -8.253106474876403809e-01
1.632000000000000000e+03 7.096989440917968750e+01 1.451638126373291016e+01 -3.472590446472167969e-01 7.910608291625976562e+00 2.269004821777343750e+00 -8.952859044075012207e-01
1.633000000000000000e+03 6.919573974609375000e+01 1.690380668640136719e+01 -4.572068750858306885e-01 7.925734996795654297e+00 2.240558385848999023e+00 -1.060165762901306152e+00
1.634000000000000000e+03 6.571180725097656250e+01 2.092448234558105469e+01 -5.322097539901733398e-01 8.291996002197265625e+00 2.327935695648193359e+00 -1.163777470588684082e+00
1.635000000000000000e+03 6.150671005249023438e+01 2.410861015319824219e+01 -5.363820791244506836e-01 9.136931419372558594e+00 2.580164670944213867e+00 -8.187321424484252930e-01
1.636000000000000000e+03 6.015552902221679688e+01 2.623036956787109375e+01 -3.071646988391876221e-01 9.710429191589355469e+00 2.820979356765747070e+00 -6.519201993942260742e-01
1.637000000000000000e+03 5.826145935058593750e+01 2.686355018615722656e+01 -2.678354382514953613e-01 9.961639404296875000e+00 2.908141374588012695e+00 -1.219895556569099426e-01
1.638000000000000000e+03 5.707428741455078125e+01 2.955538368225097656e+01 3.510908484458923340e-01 1.120288372039794922e+01 3.466192245483398438e+00 3.024399876594543457e-01
1.639000000000000000e+03 5.258617782592773438e+01 3.357783889770507812e+01 4.721601486206054688e+00 1.119544029235839844e+01 4.775112628936767578e+00 7.129753589630126953e+00
1.640000000000000000e+03 5.337004852294921875e+01 3.307004547119140625e+01 3.124759197235107422e+00 1.316010665893554688e+01 4.885459899902343750e+00 5.621047973632812500e+00
1.641000000000000000e+03 7.743400573730468750e+01 9.569746971130371094e+00 -3.487939015030860901e-02 8.589292526245117188e+00 2.566323995590209961e+00 -2.740857601165771484e-01
1.642000000000000000e+03 7.524555969238281250e+01 1.248479270935058594e+01 -1.091584935784339905e-01 8.142024040222167969e+00 2.409859657287597656e+00 -5.623278617858886719e-01
1.643000000000000000e+03 7.452741241455078125e+01 1.370425415039062500e+01 -1.479728519916534424e-01 8.025207519531250000e+00 2.363170385360717773e+00 -6.690754294395446777e-01
1.644000000000000000e+03 7.178147125244140625e+01 1.462810420989990234e+01 -2.778447568416595459e-01 7.911854267120361328e+00 2.290202856063842773e+00 -8.614369630813598633e-01
1.645000000000000000e+03 7.067272186279296875e+01 1.697910881042480469e+01 -3.377159535884857178e-01 7.861144542694091797e+00 2.257028579711914062e+00 -1.038844704627990723e+00
1.646000000000000000e+03 6.911031341552734375e+01 1.906169700622558594e+01 -4.228249192237854004e-01 7.934231758117675781e+00 2.253422021865844727e+00 -1.181397080421447754e+00
1.647000000000000000e+03 6.679260253906250000e+01 2.109983253479003906e+01 -4.931251108646392822e-01 8.186007499694824219e+00 2.307864665985107422e+00 -1.260283231735229492e+00
1.648000000000000000e+03 6.441648864746093750e+01 2.244101524353027344e+01 -5.399129390716552734e-01 8.527740478515625000e+00 2.396348237991333008e+00 -1.151109695434570312e+00
1.649000000000000000e+03 6.249335861206054688e+01 2.371833229064941406e+01 -5.286631584167480469e-01 8.947047233581542969e+00 2.525515079498291016e+00 -9.811181426048278809e-01
1.650000000000000000e+03 6.181127548217773438e+01 2.523427391052246094e+01 -3.690680563449859619e-01 9.291838645935058594e+00 2.676831245422363281e+00 -9.800261855125427246e-01
1.651000000000000000e+03 5.914210128784179688e+01 2.708609580993652344e+01 -1.706310361623764038e-01 1.006218814849853516e+01 2.967467308044433594e+00 -4.071340858936309814e-01
1.652000000000000000e+03 5.855741500854492188e+01 2.876651763916015625e+01 2.251049578189849854e-01 1.070184516906738281e+01 3.278084993362426758e+00 -3.274991214275360107e-01
1.653000000000000000e+03 5.460225677490234375e+01 3.318025588989257812e+01 2.185579061508178711e+00 1.537982082366943359e+01 5.269619941711425781e+00 2.995790958404541016e+00
1.654000000000000000e+03 5.443406677246093750e+01 3.241115951538085938e+01 1.843911528587341309e+00 1.379222679138183594e+01 4.690841197967529297e+00 3.046129703521728516e+00
1.655000000000000000e+03 7.917067718505859375e+01 9.680067062377929688e+00 -3.840338671579957008e-03 8.838446617126464844e+00 2.650381803512573242e+00 -1.030440852046012878e-01
1.656000000000000000e+03 7.650650024414062500e+01 1.232287311553955078e+01 -5.526069924235343933e-02 8.228829383850097656e+00 2.452070474624633789e+00 -4.407393634319305420e-01
1.657000000000000000e+03 7.574552917480468750e+01 1.440546226501464844e+01 -9.739664196968078613e-02 7.988749027252197266e+00 2.367405652999877930e+00 -6.114640831947326660e-01
1.658000000000000000e+03 7.392066955566406250e+01 1.429767036437988281e+01 -1.826682388782501221e-01 7.954710483551025391e+00 2.331612586975097656e+00 -7.458175420761108398e-01
1.659000000000000000e+03 7.224684906005859375e+01 1.705995559692382812e+01 -2.697240114212036133e-01 7.798601150512695312e+00 2.258663177490234375e+00 -9.979476332664489746e-01
1.660000000000000000e+03 7.027617645263671875e+01 1.927052116394042969e+01 -3.355105817317962646e-01 7.864505290985107422e+00 2.258698463439941406e+00 -1.182921886444091797e+00
1.661000000000000000e+03 6.794627380371093750e+01 2.123359680175781250e+01 -3.845382332801818848e-01 8.066749572753906250e+00 2.304663419723510742e+00 -1.285827517509460449e+00
1.662000000000000000e+03 6.559786987304687500e+01 2.199194145202636719e+01 -4.983092248439788818e-01 8.350121498107910156e+00 2.355543851852416992e+00 -1.255116343498229980e+00
1.663000000000000000e+03 6.443608856201171875e+01 2.377791404724121094e+01 -3.834187984466552734e-01 8.654437065124511719e+00 2.481305360794067383e+00 -1.245408296585083008e+00
1.664000000000000000e+03 6.314896392822265625e+01 2.619264602661132812e+01 -1.297310590744018555e-01 9.171627044677734375e+00 2.712568759918212891e+00 -1.260049104690551758e+00
1.665000000000000000e+03 6.133510589599609375e+01 2.754558372497558594e+01 5.673294514417648315e-02 9.780611038208007812e+00 2.951203346252441406e+00 -9.847991466522216797e-01
1.666000000000000000e+03 5.991298294067382812e+01 2.839475631713867188e+01 1.934717595577239990e-01 1.033195877075195312e+01 3.157629251480102539e+00 -7.037212252616882324e-01
1.667000000000000000e+03 5.757246017456054688e+01 2.993345832824707031e+01 5.579937100410461426e-01 1.135733222961425781e+01 3.574597835540771484e+00 -7.098550442606210709e-03
1.668000000000000000e+03 5.657463836669921875e+01 3.261429214477539062e+01 1.985155224800109863e+00 1.357878684997558594e+01 4.669182300567626953e+00 4.653012752532958984e-01
1.669000000000000000e+03 5.441189193725585938e+01 3.442144012451171875e+01 3.295914173126220703e+00 1.900739669799804688e+01 6.690993309020996094e+00 3.460883617401123047e+00
1.670000000000000000e+03 5.372664260864257812e+01 3.525948715209960938e+01 5.795969963073730469e+00 2.560119819641113281e+01 9.419150352478027344e+00 9.796648025512695312e+00
1.671000000000000000e+03 5.351668167114257812e+01 3.490647506713867188e+01 5.864371299743652344e+00 1.959834098815917969e+01 7.638813972473144531e+00 9.715854644775390625e+00
1.672000000000000000e+03 7.922738647460937500e+01 1.107081413269042969e+01 -6.657651159912347794e-03 8.687512397766113281e+00 2.604256391525268555e+00 -1.127653643488883972e-01
1.673000000000000000e+03 7.667380523681640625e+01 1.344899463653564453e+01 -5.482665076851844788e-02 8.119669914245605469e+00 2.419453144073486328e+00 -4.642785787582397461e-01
1.674000000000000000e+03 7.362818145751953125e+01 1.613245582580566406e+01 -1.940597146749496460e-01 7.811818599700927734e+00 2.285327672958374023e+00 -8.595318198204040527e-01
1.675000000000000000e+03 6.913748931884765625e+01 2.127334213256835938e+01 -3.522848188877105713e-01 7.933806896209716797e+00 2.274456501007080078e+00 -1.306473731994628906e+00
1.676000000000000000e+03 6.784982299804687500e+01 2.380368804931640625e+01 -2.167030274868011475e-01 8.162766456604003906e+00 2.383819103240966797e+00 -1.407196998596191406e+00
1.677000000000000000e+03 6.640284729003906250e+01 2.360787773132324219e+01 -3.320076763629913330e-01 8.351027488708496094e+00 2.405705928802490234e+00 -1.379143476486206055e+00
1.678000000000000000e+03 6.441084289550781250e+01 2.667872428894042969e+01 -4.602244589477777481e-04 8.942869186401367188e+00 2.682722568511962891e+00 -1.352371573448181152e+00
1.679000000000000000e+03 6.251686477661132812e+01 2.722649955749511719e+01 3.456090390682220459e-02 9.495326042175292969e+00 2.858966112136840820e+00 -1.199017405509948730e+00
1.680000000000000000e+03 6.112031936645507812e+01 2.890311813354492188e+01 4.023319482803344727e-01 1.003979396820068359e+01 3.132637739181518555e+00 -1.027776837348937988e+00
1.681000000000000000e+03 6.034727096557617188e+01 3.010418128967285156e+01 7.986851334571838379e-01 1.059931373596191406e+01 3.419399738311767578e+00 -8.826971650123596191e-01
1.682000000000000000e+03 5.840053176879882812e+01 3.149008178710937500e+01 1.310694932937622070e+00 1.170331859588623047e+01 3.904203891754150391e+00 -4.548504352569580078e-01
1.683000000000000000e+03 5.584878540039062500e+01 3.415166473388671875e+01 3.414921522140502930e+00 1.564552783966064453e+01 5.718134880065917969e+00 7.071492671966552734e-01
1.684000000000000000e+03 5.408198165893554688e+01 3.685491180419921875e+01 8.351089358329772949e-01 2.746625137329101562e+01 8.490407943725585938e+00 3.801169991493225098e-01
1.685000000000000000e+03 5.399572372436523438e+01 3.603671264648437500e+01 2.943212985992431641e+00 3.193153762817382812e+01 1.046242523193359375e+01 3.961698770523071289e+00
1.686000000000000000e+03 7.927856445312500000e+01 1.245480632781982422e+01 2.585919341072440147e-03 8.511379241943359375e+00 2.554189682006835938e+00 -1.161383092403411865e-01
1.687000000000000000e+03 7.667144012451171875e+01 1.444570159912109375e+01 -5.484227463603019714e-02 8.011116027832031250e+00 2.386882305145263672e+00 -4.998362362384796143e-01
1.688000000000000000e+03 7.506554412841796875e+01 1.712050437927246094e+01 -1.279837489128112793e-01 7.698959827423095703e+00 2.271292924880981445e+00 -7.728034853935241699e-01
1.689000000000000000e+03 7.272646331787109375e+01 1.920788574218750000e+01 -2.126180529594421387e-01 7.627013683319091797e+00 2.224318742752075195e+00 -1.082111716270446777e+00
1.690000000000000000e+03 7.082043457031250000e+01 2.226117515563964844e+01 -2.200371921062469482e-01 7.698857784271240234e+00 2.243646144866943359e+00 -1.313421010971069336e+00
1.691000000000000000e+03 6.943388366699218750e+01 2.385529136657714844e+01 -1.888533383607864380e-01 7.877292156219482422e+00 2.306531667709350586e+00 -1.445417761802673340e+00
1.692000000000000000e+03 6.771036529541015625e+01 2.523739433288574219e+01 -1.162821054458618164e-01 8.178468704223632812e+00 2.418656110763549805e+00 -1.479518771171569824e+00
1.693000000000000000e+03 6.597454071044921875e+01 2.687506294250488281e+01 1.945889741182327271e-02 8.588187217712402344e+00 2.582293748855590820e+00 -1.482546567916870117e+00
1.694000000000000000e+03 6.357314682006835938e+01 2.824595451354980469e+01 2.799798846244812012e-01 9.261220932006835938e+00 2.862360477447509766e+00 -1.348258495330810547e+00
1.695000000000000000e+03 6.243173980712890625e+01 2.973920822143554688e+01 6.493678092956542969e-01 9.870633125305175781e+00 3.156000375747680664e+00 -1.210297346115112305e+00
1.696000000000000000e+03 6.133317565917968750e+01 3.113698196411132812e+01 1.214531779289245605e+00 1.034784317016601562e+01 3.468712568283081055e+00 -1.028187036514282227e+00
1.697000000000000000e+03 6.005968475341796875e+01 3.214966583251953125e+01 1.640229225158691406e+00 1.107278919219970703e+01 3.813905477523803711e+00 -8.066369891166687012e-01
1.698000000000000000e+03 5.890073013305664062e+01 3.415136718750000000e+01 2.796746015548706055e+00 1.195750522613525391e+01 4.426275730133056641e+00 -2.950867414474487305e-01
1.699000000000000000e+03 5.571541976928710938e+01 3.526994705200195312e+01 4.436871528625488281e+00 1.661635017395019531e+01 6.315966606140136719e+00 8.891590237617492676e-01
1.700000000000000000e+03 5.499039459228515625e+01 3.763912963867187500e+01 3.958950519561767578e+00 1.884928894042968750e+01 6.842471599578857422e+00 2.354705929756164551e-01
1.701000000000000000e+03 5.403332901000976562e+01 3.814101028442382812e+01 3.515409708023071289e+00 2.330372238159179688e+01 8.045740127563476562e+00 -4.679733753204345703e+00
1.702000000000000000e+03 7.923000335693359375e+01 1.518661308288574219e+01 -1.457198429852724075e-02 8.082862854003906250e+00 2.420487165451049805e+00 -1.501449048519134521e-01
1.703000000000000000e+03 7.644636535644531250e+01 1.680091094970703125e+01 -7.284307479858398438e-02 7.728798389434814453e+00 2.296786546707153320e+00 -5.855213403701782227e-01
1.704000000000000000e+03 7.396741485595703125e+01 1.939416885375976562e+01 -1.411604732275009155e-01 7.530437469482421875e+00 2.216783046722412109e+00 -9.819551110267639160e-01
1.705000000000000000e+03 7.194747161865234375e+01 2.143871688842773438e+01 -1.920331418514251709e-01 7.554554939270019531e+00 2.208756685256958008e+00 -1.243523120880126953e+00
1.706000000000000000e+03 7.120775604248046875e+01 2.376088142395019531e+01 -1.078888252377510071e-01 7.549745559692382812e+00 2.232557058334350586e+00 -1.337442278861999512e+00
1.707000000000000000e+03 6.936064147949218750e+01 2.528899002075195312e+01 -4.975510761141777039e-02 7.894866943359375000e+00 2.353533506393432617e+00 -1.447182416915893555e+00
1.708000000000000000e+03 6.762097167968750000e+01 2.676557159423828125e+01 6.760610640048980713e-02 8.189001083374023438e+00 2.476982116699218750e+00 -1.475340604782104492e+00
1.709000000000000000e+03 6.612876129150390625e+01 2.856910133361816406e+01 3.433591425418853760e-01 8.538092613220214844e+00 2.664435386657714844e+00 -1.465846300125122070e+00
1.710000000000000000e+03 6.482394409179687500e+01 2.938297271728515625e+01 4.813779890537261963e-01 9.090098381042480469e+00 2.871443033218383789e+00 -1.401583194732666016e+00
1.711000000000000000e+03 6.373003005981445312e+01 3.093255996704101562e+01 9.479216933250427246e-01 9.391912460327148438e+00 3.101950168609619141e+00 -1.284733533859252930e+00
1.712000000000000000e+03 6.238749313354492188e+01 3.246244812011718750e+01 1.390347838401794434e+00 1.013639640808105469e+01 3.458023309707641602e+00 -9.981241822242736816e-01
1.713000000000000000e+03 6.069020843505859375e+01 3.373045730590820312e+01 2.262758255004882812e+00 1.089856529235839844e+01 3.948397159576416016e+00 -4.991306960582733154e-01
1.714000000000000000e+03 5.822982788085937500e+01 3.570262527465820312e+01 3.616024255752563477e+00 1.276177597045898438e+01 4.913340091705322266e+00 5.026980042457580566e-01
1.715000000000000000e+03 5.753523254394531250e+01 3.782585525512695312e+01 2.933697462081909180e+00 1.405258274078369141e+01 5.095884323120117188e+00 1.557354927062988281e+00
1.716000000000000000e+03 5.510314941406250000e+01 3.938664245605468750e+01 -4.874220192432403564e-01 1.746323966979980469e+01 5.092745304107666016e+00 4.899758100509643555e-01
1.717000000000000000e+03 5.179513549804687500e+01 4.070345687866210938e+01 7.781544923782348633e-01 3.744932174682617188e+00 1.356925964355468750e+00 -2.094412088394165039e+00
1.718000000000000000e+03 4.801418685913085938e+01 4.164959335327148438e+01 1.118557214736938477e+00 -7.098081111907958984e-01 1.226247400045394897e-01 8.509965538978576660e-01
1.719000000000000000e+03 5.254257583618164062e+01 3.965714645385742188e+01 1.245385646820068359e+00 3.273877143859863281e+00 1.355778813362121582e+00 -3.810789346694946289e+00
1.720000000000000000e+03 4.800898742675781250e+01 3.746817779541015625e+01 -6.275942325592041016e-01 2.592622041702270508e-01 -1.104996055364608765e-01 6.951533257961273193e-02
1.721000000000000000e+03 4.813589859008789062e+01 3.701654434204101562e+01 -6.213620305061340332e-01 -1.622154414653778076e-01 -2.350732535123825073e-01 1.191487163305282593e-02
1.722000000000000000e+03 4.611273193359375000e+01 3.563422775268554688e+01 1.015175506472587585e-01 1.221715360879898071e-01 6.710672378540039062e-02 5.824043601751327515e-02
1.723000000000000000e+03 4.435198593139648438e+01 3.638157653808593750e+01 4.600469395518302917e-02 1.259306967258453369e-01 5.158061906695365906e-02 -4.338240996003150940e-02
1.724000000000000000e+03 4.244564437866210938e+01 3.745061874389648438e+01 1.320805251598358154e-01 -5.951071903109550476e-02 2.177094295620918274e-02 3.819302469491958618e-02
1.725000000000000000e+03 4.092138290405273438e+01 3.763917160034179688e+01 6.090738251805305481e-02 1.190359890460968018e-01 5.398301035165786743e-02 3.582527115941047668e-02
1.726000000000000000e+03 2.727372360229492188e+01 3.608903884887695312e+01 2.905287034809589386e-02 7.250944525003433228e-02 3.046869486570358276e-02 3.503735736012458801e-02
1.727000000000000000e+03 1.828318023681640625e+01 3.667279052734375000e+01 -7.583894766867160797e-03 4.474293813109397888e-02 1.114771328866481781e-02 1.367923896759748459e-02
1.728000000000000000e+03 1.450736904144287109e+01 3.674493026733398438e+01 -1.276680734008550644e-02 1.185222808271646500e-02 -2.743739460129290819e-04 3.762772073969244957e-03
1.729000000000000000e+03 1.166068649291992188e+01 3.790474319458007812e+01 -1.923333271406590939e-03 -1.618557609617710114e-02 -5.432672798633575439e-03 4.842052003368735313e-04
1.730000000000000000e+03 4.572767734527587891e+00 3.760580825805664062e+01 7.676705135963857174e-04 -9.863802045583724976e-02 -2.936110459268093109e-02 -3.843459417112171650e-04
1.731000000000000000e+03 3.351080894470214844e+00 3.706656265258789062e+01 4.259951238054782152e-04 -1.099861636757850647e-01 -3.286805003881454468e-02 -4.912338219583034515e-03
1.732000000000000000e+03 7.309242486953735352e-01 3.599414062500000000e+01 -2.584364498034119606e-03 -1.349564790725708008e-01 -4.126225039362907410e-02 -8.764851954765617847e-04
1.733000000000000000e+03 7.287645936012268066e-01 3.460314559936523438e+01 1.817078213207423687e-03 -1.377297192811965942e-01 -4.077379405498504639e-02 -2.209006110206246376e-03
1.734000000000000000e+03 7.271179556846618652e-01 3.319734191894531250e+01 -1.884065219201147556e-03 -1.417484432458877563e-01 -4.308975487947463989e-02 -1.911814557388424873e-03
1.735000000000000000e+03 2.220436334609985352e+00 3.157165336608886719e+01 -4.182692617177963257e-03 -1.251344382762908936e-01 -3.879513591527938843e-02 -6.014522630721330643e-03
1.736000000000000000e+03 3.967228412628173828e+00 3.003935241699218750e+01 -5.497786216437816620e-03 -1.064839214086532593e-01 -3.359451144933700562e-02 -1.140543818473815918e-02
1.737000000000000000e+03 5.888697624206542969e+00 2.867101860046386719e+01 -6.508558522909879684e-03 -7.946997880935668945e-02 -2.579356171190738678e-02 -1.315173506736755371e-02
1.738000000000000000e+03 7.970016002655029297e+00 2.764808273315429688e+01 -5.801942199468612671e-03 -4.683802276849746704e-02 -1.579198986291885376e-02 -1.275928970426321030e-02
1.739000000000000000e+03 9.046230316162109375e+00 2.629371261596679688e+01 -1.024133525788784027e-02 -2.639475464820861816e-02 -1.099082734435796738e-02 -9.176365099847316742e-03
1.740000000000000000e+03 1.126717090606689453e+01 2.305947685241699219e+01 -2.481589326635003090e-03 2.195443958044052124e-02 5.841855425387620926e-03 -3.648491576313972473e-03
1.741000000000000000e+03 1.238513660430908203e+01 2.143794250488281250e+01 1.996064092963933945e-03 4.555798321962356567e-02 1.426621433347463608e-02 7.407164201140403748e-03
1.742000000000000000e+03 1.552591133117675781e+01 1.870686912536621094e+01 1.747414655983448029e-02 1.124265044927597046e-01 3.897019475698471069e-02 3.997722268104553223e-02
1.743000000000000000e+03 1.867074394226074219e+01 1.544150829315185547e+01 6.387005746364593506e-02 1.551307141780853271e-01 6.570023298263549805e-02 9.880311042070388794e-02
1.744000000000000000e+03 2.024417114257812500e+01 1.332687854766845703e+01 1.085631921887397766e-01 1.646794825792312622e-01 8.197280019521713257e-02 1.319153159856796265e-01
1.745000000000000000e+03 2.218013572692871094e+01 1.211811447143554688e+01 1.407611966133117676e-01 1.587649136781692505e-01 8.985783159732818604e-02 1.495113074779510498e-01
1.746000000000000000e+03 2.272686958312988281e+01 1.269692707061767578e+01 1.427565366029739380e-01 1.635883003473281860e-01 9.190344810485839844e-02 1.507739275693893433e-01
1.747000000000000000e+03 2.413752555847167969e+01 1.410669803619384766e+01 1.472437828779220581e-01 1.336028873920440674e-01 8.425399661064147949e-02 1.426444202661514282e-01
1.748000000000000000e+03 2.448727607727050781e+01 1.556210994720458984e+01 1.124644353985786438e-01 1.301295012235641479e-01 7.277818024158477783e-02 1.256065815687179565e-01
1.749000000000000000e+03 2.341623115539550781e+01 1.741267395019531250e+01 8.461464196443557739e-02 1.327874809503555298e-01 6.522063165903091431e-02 1.073396205902099609e-01
1.750000000000000000e+03 2.192084312438964844e+01 1.897119331359863281e+01 5.122524872422218323e-02 1.299735307693481445e-01 5.435963720083236694e-02 8.901366591453552246e-02
1.751000000000000000e+03 2.038661956787109375e+01 2.102238845825195312e+01 3.456197679042816162e-02 1.205034330487251282e-01 4.651962220668792725e-02 6.598234921693801880e-02
1.752000000000000000e+03 1.765119361877441406e+01 2.195269012451171875e+01 1.051153894513845444e-02 1.011761277914047241e-01 3.350630030035972595e-02 4.157672449946403503e-02
1.753000000000000000e+03 1.617040443420410156e+01 2.492779731750488281e+01 -5.135093815624713898e-03 6.911445409059524536e-02 1.919380761682987213e-02 2.545224688947200775e-02
1.754000000000000000e+03 1.328350543975830078e+01 2.671866226196289062e+01 -1.175731979310512543e-02 2.965557388961315155e-02 5.369476508349180222e-03 6.663868669420480728e-03
1.755000000000000000e+03 1.256097030639648438e+01 2.877555847167968750e+01 -1.295750495046377182e-02 1.295274682343006134e-02 -1.427580400559236296e-06 1.419333741068840027e-03
1.756000000000000000e+03 1.131822872161865234e+01 3.067576408386230469e+01 -1.177727431058883667e-02 -7.130476180464029312e-03 -5.672325380146503448e-03 -5.193279124796390533e-03
1.757000000000000000e+03 9.259313583374023438e+00 3.225025558471679688e+01 -5.751982331275939941e-03 -3.605241701006889343e-02 -1.254132017493247986e-02 -8.310508914291858673e-03
1.758000000000000000e+03 6.785889148712158203e+00 3.251126861572265625e+01 -1.324532320722937584e-03 -6.628109514713287354e-02 -2.028168924152851105e-02 -9.324671700596809387e-03
1.759000000000000000e+03 6.240021705627441406e+00 3.479642105102539062e+01 2.497188281267881393e-03 -7.509422302246093750e-02 -2.177911065518856049e-02 -4.486548248678445816e-03
1.760000000000000000e+03 3.773550748825073242e+00 3.564183807373046875e+01 -8.023237460292875767e-04 -1.062056720256805420e-01 -3.210239857435226440e-02 -4.533301107585430145e-03
1.761000000000000000e+03 3.817565917968750000e+00 3.413097763061523438e+01 2.156692091375589371e-03 -1.026554480195045471e-01 -3.014962561428546906e-02 -3.670772304758429527e-03
1.762000000000000000e+03 2.209836721420288086e+00 3.573679351806640625e+01 1.805382547900080681e-03 -1.212182268500328064e-01 -3.582385554909706116e-02 -5.416995380073785782e-03
1.763000000000000000e+03 7.895500946044921875e+01 1.802471542358398438e+01 -2.831593621522188187e-03 7.551297664642333984e+00 2.264539718627929688e+00 -2.306955009698867798e-01
1.764000000000000000e+03 7.534445953369140625e+01 1.824601554870605469e+01 -1.008298397064208984e-01 7.571219921112060547e+00 2.241117000579833984e+00 -7.945280671119689941e-01
1.765000000000000000e+03 7.344509887695312500e+01 2.208076858520507812e+01 -1.094833239912986755e-01 7.357358932495117188e+00 2.174362659454345703e+00 -1.129584431648254395e+00
1.766000000000000000e+03 7.316779327392578125e+01 2.373370742797851562e+01 -1.012296080589294434e-01 7.244202613830566406e+00 2.142891883850097656e+00 -1.219799995422363281e+00
1.767000000000000000e+03 7.113970184326171875e+01 2.549722099304199219e+01 -3.957028314471244812e-02 7.443583011627197266e+00 2.221203804016113281e+00 -1.403924345970153809e+00
1.768000000000000000e+03 6.915785217285156250e+01 2.667457771301269531e+01 2.090480178594589233e-02 7.881589889526367188e+00 2.370748519897460938e+00 -1.469035983085632324e+00
1.769000000000000000e+03 6.929187011718750000e+01 2.793848419189453125e+01 2.091674506664276123e-01 7.764600276947021484e+00 2.392130374908447266e+00 -1.472811341285705566e+00
1.770000000000000000e+03 6.798471069335937500e+01 3.010863113403320312e+01 5.428319573402404785e-01 8.084837913513183594e+00 2.588300943374633789e+00 -1.401371002197265625e+00
1.771000000000000000e+03 6.524986267089843750e+01 3.212313461303710938e+01 1.021473169326782227e+00 8.958126068115234375e+00 2.993879795074462891e+00 -1.198499202728271484e+00
1.772000000000000000e+03 6.362015151977539062e+01 3.394835281372070312e+01 1.546597957611083984e+00 9.614484786987304688e+00 3.348325014114379883e+00 -9.419091343879699707e-01
1.773000000000000000e+03 6.162573242187500000e+01 3.555240631103515625e+01 2.135103702545166016e+00 1.093538856506347656e+01 3.921147823333740234e+00 -1.597404778003692627e-01
1.774000000000000000e+03 5.569779968261718750e+01 4.034440231323242188e+01 -8.579390645027160645e-01 1.507499694824218750e+01 4.265117168426513672e+00 5.876324176788330078e-01
1.775000000000000000e+03 5.680472183227539062e+01 4.171048355102539062e+01 -9.101237058639526367e-01 1.481047630310058594e+01 4.170105934143066406e+00 5.393692255020141602e-01
1.776000000000000000e+03 7.902832794189453125e+01 1.948197555541992188e+01 2.854642298188991845e-05 7.251891136169433594e+00 2.175575971603393555e+00 -2.331971824169158936e-01
1.777000000000000000e+03 7.528946685791015625e+01 2.227370262145996094e+01 -7.194531708955764771e-02 7.068107128143310547e+00 2.098848581314086914e+00 -9.422058463096618652e-01
1.778000000000000000e+03 7.517130279541015625e+01 2.379192924499511719e+01 -2.451764792203903198e-02 6.881596088409423828e+00 2.057123422622680664e+00 -9.731875061988830566e-01
1.779000000000000000e+03 7.312007904052734375e+01 2.556595420837402344e+01 8.314726874232292175e-03 7.076085567474365234e+00 2.125319957733154297e+00 -1.228647708892822266e+00
1.780000000000000000e+03 7.053949737548828125e+01 2.703396797180175781e+01 9.458898007869720459e-02 7.515651702880859375e+00 2.283072233200073242e+00 -1.406148672103881836e+00
1.781000000000000000e+03 6.983161163330078125e+01 2.928293609619140625e+01 2.721354365348815918e-01 7.609899520874023438e+00 2.364610433578491211e+00 -1.403068184852600098e+00
1.782000000000000000e+03 6.684513854980468750e+01 3.349926376342773438e+01 9.892321825027465820e-01 8.394908905029296875e+00 2.815242290496826172e+00 -1.129647135734558105e+00
1.783000000000000000e+03 6.011191940307617188e+01 3.891831207275390625e+01 1.497670054435729980e+00 1.261932277679443359e+01 4.235097885131835938e+00 1.020327210426330566e+00
1.784000000000000000e+03 7.718717956542968750e+01 2.088924980163574219e+01 -3.461626544594764709e-02 7.078363418579101562e+00 2.113124132156372070e+00 -6.081472039222717285e-01
1.785000000000000000e+03 7.711819458007812500e+01 2.376008224487304688e+01 -2.491818368434906006e-02 6.558664321899414062e+00 1.960123777389526367e+00 -6.673007011413574219e-01
1.786000000000000000e+03 7.517187500000000000e+01 2.537189483642578125e+01 -3.019738383591175079e-02 6.658959388732910156e+00 1.988628625869750977e+00 -1.001237511634826660e+00
1.787000000000000000e+03 7.335731506347656250e+01 2.736397743225097656e+01 2.977363578975200653e-02 6.865928173065185547e+00 2.068710565567016602e+00 -1.210719227790832520e+00
1.788000000000000000e+03 7.152484130859375000e+01 2.822641372680664062e+01 1.484169661998748779e-01 7.183180332183837891e+00 2.199479103088378906e+00 -1.323432803153991699e+00
1.789000000000000000e+03 6.863962554931640625e+01 3.184622001647949219e+01 6.169568300247192383e-01 7.919900417327880859e+00 2.561057090759277344e+00 -1.240070581436157227e+00
1.790000000000000000e+03 7.904454040527343750e+01 2.230354499816894531e+01 -4.799768328666687012e-03 6.608649253845214844e+00 1.981154918670654297e+00 -2.445054650306701660e-01
1.791000000000000000e+03 7.713539886474609375e+01 2.522188377380371094e+01 6.433868780732154846e-03 6.284904003143310547e+00 1.887401461601257324e+00 -6.622608900070190430e-01
1.792000000000000000e+03 7.533376312255859375e+01 2.693771553039550781e+01 3.691564872860908508e-02 6.401675224304199219e+00 1.931577205657958984e+00 -9.583038687705993652e-01
1.793000000000000000e+03 7.387645721435546875e+01 2.896979713439941406e+01 1.293905526399612427e-01 6.519051551818847656e+00 1.994532704353332520e+00 -1.117454171180725098e+00
1.794000000000000000e+03 7.124166107177734375e+01 3.218883514404296875e+01 3.902495801448822021e-01 7.061946868896484375e+00 2.235658884048461914e+00 -1.122849583625793457e+00
1.795000000000000000e+03 6.844863128662109375e+01 3.498121643066406250e+01 9.347966909408569336e-01 7.892736434936523438e+00 2.648259878158569336e+00 -9.059525132179260254e-01
1.796000000000000000e+03 6.142000579833984375e+01 4.125243377685546875e+01 8.936476111412048340e-01 1.199600505828857422e+01 3.866895675659179688e+00 2.538841962814331055e-01
1.797000000000000000e+03 7.904051971435546875e+01 2.371124267578125000e+01 3.711855679284781218e-04 6.273604393005371094e+00 1.882192730903625488e+00 -2.488613575696945190e-01
1.798000000000000000e+03 7.904967498779296875e+01 2.512030982971191406e+01 -9.772119112312793732e-03 5.930063247680664062e+00 1.776087284088134766e+00 -2.561170160770416260e-01
1.799000000000000000e+03 7.722946929931640625e+01 2.667468833923339844e+01 -1.849286817014217377e-02 6.000899314880371094e+00 1.794721961021423340e+00 -6.623104214668273926e-01
1.800000000000000000e+03 7.563448333740234375e+01 2.842458152770996094e+01 1.635093614459037781e-02 6.143673896789550781e+00 1.848007321357727051e+00 -9.045800566673278809e-01
1.801000000000000000e+03 7.439836120605468750e+01 3.036562156677246094e+01 1.007956862449645996e-01 6.252823829650878906e+00 1.906085848808288574e+00 -9.870463013648986816e-01
1.802000000000000000e+03 7.323013305664062500e+01 3.401116561889648438e+01 3.355954587459564209e-01 6.353455066680908203e+00 2.006715059280395508e+00 -8.714464306831359863e-01
1.803000000000000000e+03 7.131548309326171875e+01 3.392534255981445312e+01 5.647286176681518555e-01 6.972939014434814453e+00 2.261300325393676758e+00 -9.579148292541503906e-01
1.804000000000000000e+03 6.686209869384765625e+01 3.716099548339843750e+01 1.129064440727233887e+00 8.546324729919433594e+00 2.902616739273071289e+00 -5.415199398994445801e-01
1.805000000000000000e+03 7.908104705810546875e+01 2.652579879760742188e+01 2.368840947747230530e-02 5.575616359710693359e+00 1.679791450500488281e+00 -2.484614253044128418e-01
1.806000000000000000e+03 7.739173889160156250e+01 2.810001373291015625e+01 3.779591619968414307e-02 5.683490753173828125e+00 1.716386079788208008e+00 -6.216554045677185059e-01
1.807000000000000000e+03 7.631402587890625000e+01 3.111651039123535156e+01 8.064070343971252441e-02 5.545684337615966797e+00 1.687897562980651855e+00 -7.379817366600036621e-01
1.808000000000000000e+03 7.512733459472656250e+01 3.263398361206054688e+01 2.116544544696807861e-01 5.728250026702880859e+00 1.781971335411071777e+00 -7.900055050849914551e-01
1.809000000000000000e+03 7.037564086914062500e+01 3.604370880126953125e+01 6.769381761550903320e-01 7.215759754180908203e+00 2.367809295654296875e+00 -7.350712418556213379e-01
1.810000000000000000e+03 7.913312530517578125e+01 2.792481040954589844e+01 -1.688627526164054871e-02 5.215462207794189453e+00 1.559572815895080566e+00 -2.413278073072433472e-01
1.811000000000000000e+03 7.778356933593750000e+01 3.084638214111328125e+01 7.284080237150192261e-02 5.033739566802978516e+00 1.531974077224731445e+00 -5.122229456901550293e-01
1.812000000000000000e+03 7.653349304199218750e+01 3.241527557373046875e+01 1.357371062040328979e-01 5.260860443115234375e+00 1.618979215621948242e+00 -6.589584350585937500e-01
1.813000000000000000e+03 7.507280731201171875e+01 3.535540771484375000e+01 2.892150580883026123e-01 5.473162651062011719e+00 1.728713274002075195e+00 -6.717696189880371094e-01
1.814000000000000000e+03 6.809276580810546875e+01 4.107799148559570312e+01 9.840027689933776855e-01 8.488605499267578125e+00 2.841782331466674805e+00 -7.194943726062774658e-02
1.815000000000000000e+03 7.919753265380859375e+01 2.931520080566406250e+01 4.391534253954887390e-02 4.843626976013183594e+00 1.466262698173522949e+00 -2.240728735923767090e-01
1.816000000000000000e+03 7.794733428955078125e+01 3.218996429443359375e+01 3.149134665727615356e-02 4.705410003662109375e+00 1.421070337295532227e+00 -4.281509518623352051e-01
1.817000000000000000e+03 7.669141387939453125e+01 3.372075653076171875e+01 1.166404709219932556e-01 4.980856418609619141e+00 1.529249072074890137e+00 -5.587240457534790039e-01
1.818000000000000000e+03 7.378140258789062500e+01 3.704201507568359375e+01 3.820704221725463867e-01 5.945351600646972656e+00 1.898226618766784668e+00 -5.728849768638610840e-01
1.819000000000000000e+03 7.515750885009765625e+01 3.674750137329101562e+01 3.531328737735748291e-01 5.427435874938964844e+00 1.734170675277709961e+00 -5.854739546775817871e-01
1.820000000000000000e+03 7.926363372802734375e+01 3.069888687133789062e+01 -1.366921234875917435e-02 4.482495307922363281e+00 1.340647816658020020e+00 -1.932286322116851807e-01
1.821000000000000000e+03 7.809443664550781250e+01 3.348741912841796875e+01 8.069086074829101562e-02 4.415984630584716797e+00 1.349002718925476074e+00 -3.427533209323883057e-01
1.822000000000000000e+03 7.724833679199218750e+01 3.576126480102539062e+01 1.358446478843688965e-01 4.330400943756103516e+00 1.339873671531677246e+00 -3.474932014942169189e-01
1.823000000000000000e+03 7.218356323242187500e+01 4.128881454467773438e+01 4.950468242168426514e-01 6.453440666198730469e+00 2.084546089172363281e+00 -1.679946929216384888e-01
1.824000000000000000e+03 7.932460021972656250e+01 3.207592391967773438e+01 5.187219753861427307e-02 4.145172595977783203e+00 1.259113550186157227e+00 -1.601637005805969238e-01
1.825000000000000000e+03 7.937912750244140625e+01 3.343692398071289062e+01 -2.630885317921638489e-02 3.848486423492431641e+00 1.146653294563293457e+00 -1.303367912769317627e-01
1.826000000000000000e+03 7.823692321777343750e+01 3.470843124389648438e+01 4.337039962410926819e-02 4.170661926269531250e+00 1.264209628105163574e+00 -2.672529220581054688e-01
1.827000000000000000e+03 6.486899566650390625e+01 3.964086914062500000e+01 1.362325310707092285e+00 9.639624595642089844e+00 3.300585031509399414e+00 -4.718437045812606812e-02
1.828000000000000000e+03 7.941803741455078125e+01 3.477973937988281250e+01 6.493508070707321167e-02 3.611955881118774414e+00 1.103067278861999512e+00 -8.229190856218338013e-02
1.829000000000000000e+03 7.413227844238281250e+01 3.871832656860351562e+01 3.900189995765686035e-01 5.783339500427246094e+00 1.852007508277893066e+00 -4.998192787170410156e-01
1.830000000000000000e+03 7.941323089599609375e+01 3.612203979492187500e+01 -3.546626120805740356e-02 3.455112457275390625e+00 1.025893807411193848e+00 -6.013218685984611511e-02
1.831000000000000000e+03 7.932862091064453125e+01 3.746432113647460938e+01 7.596394419670104980e-02 3.416142702102661133e+00 1.047631978988647461e+00 9.024022147059440613e-03
1.832000000000000000e+03 7.912695312500000000e+01 3.879312515258789062e+01 -3.126450628042221069e-02 3.461437225341796875e+00 1.029051780700683594e+00 2.534843049943447113e-02
1.833000000000000000e+03 7.875324249267578125e+01 4.014214706420898438e+01 1.275559663772583008e-01 3.597899436950683594e+00 1.117636561393737793e+00 1.316139250993728638e-01
1.834000000000000000e+03 7.800733184814453125e+01 4.166506576538085938e+01 -1.805751323699951172e-01 3.674352884292602539e+00 1.048133373260498047e+00 5.086340755224227905e-02
1.835000000000000000e+03 4.804662322998046875e+01 3.853213119506835938e+01 -6.869136095046997070e-01 5.794987678527832031e-01 -3.222446516156196594e-02 9.170204401016235352e-01
1.836000000000000000e+03 4.680987930297851562e+01 3.787731552124023438e+01 -2.580076158046722412e-01 3.597733378410339355e-02 -6.660909205675125122e-02 1.542008966207504272e-01
1.837000000000000000e+03 4.571663284301757812e+01 3.901215362548828125e+01 3.683134317398071289e-01 -4.673078358173370361e-01 -2.969831973314285278e-02 3.419798314571380615e-01
1.838000000000000000e+03 4.119079208374023438e+01 3.938230133056640625e+01 1.225073933601379395e-01 -3.884007781744003296e-02 2.510019391775131226e-02 7.986032962799072266e-02
1.839000000000000000e+03 4.430615234375000000e+01 3.806296539306640625e+01 7.186208665370941162e-02 5.738062039017677307e-02 3.877281397581100464e-02 -9.924518316984176636e-02
1.840000000000000000e+03 4.318698883056640625e+01 3.889905929565429688e+01 1.087272656150162220e-03 1.476823985576629639e-01 4.463090375065803528e-02 1.366562247276306152e-01
1.841000000000000000e+03 4.195795440673828125e+01 4.141792297363281250e+01 1.242780834436416626e-01 7.954733073711395264e-02 6.114762648940086365e-02 -4.945789277553558350e-02
1.842000000000000000e+03 3.859070205688476562e+01 3.915121459960937500e+01 8.236099779605865479e-02 9.365512430667877197e-02 5.280483886599540710e-02 5.519147031009197235e-03
1.843000000000000000e+03 3.790910720825195312e+01 4.132179641723632812e+01 8.028329163789749146e-02 3.775695711374282837e-02 3.541207686066627502e-02 6.915482878684997559e-02
1.844000000000000000e+03 3.743263244628906250e+01 3.651059341430664062e+01 8.131839334964752197e-02 9.792248159646987915e-02 5.377226322889328003e-02 2.071789838373661041e-02
1.845000000000000000e+03 3.051706314086914062e+01 3.850107955932617188e+01 5.404502153396606445e-02 6.266204267740249634e-02 3.501211851835250854e-02 2.982222661375999451e-02
1.846000000000000000e+03 3.476499938964843750e+01 3.995616149902343750e+01 1.053607687354087830e-01 3.871774673461914062e-02 4.322355613112449646e-02 -4.110732581466436386e-03
1.847000000000000000e+03 2.980011940002441406e+01 3.413294219970703125e+01 5.029524862766265869e-02 7.046040147542953491e-02 3.622669726610183716e-02 4.665977135300636292e-02
1.848000000000000000e+03 2.737528419494628906e+01 4.128784179687500000e+01 2.686888538300991058e-02 7.088659703731536865e-02 2.932664565742015839e-02 1.735120452940464020e-02
1.849000000000000000e+03 2.720553207397460938e+01 3.873802185058593750e+01 1.661859452724456787e-02 7.931281626224517822e-02 2.877942286431789398e-02 4.933576099574565887e-03
1.850000000000000000e+03 1.219811630249023438e+01 4.090385055541992188e+01 -9.754247032105922699e-03 -9.250583127140998840e-03 -5.701448768377304077e-03 -3.405460156500339508e-03
1.851000000000000000e+03 2.440759658813476562e+01 3.570892333984375000e+01 8.102480322122573853e-03 7.680480182170867920e-02 2.547218464314937592e-02 1.528012845665216446e-02
1.852000000000000000e+03 2.053821945190429688e+01 3.780120086669921875e+01 2.727325772866606712e-03 5.532996356487274170e-02 1.741718687117099762e-02 1.984915463253855705e-03
1.853000000000000000e+03 1.862890052795410156e+01 4.084008407592773438e+01 -6.688163615763187408e-03 3.851046785712242126e-02 9.546691551804542542e-03 1.025121379643678665e-02
1.854000000000000000e+03 1.581533050537109375e+01 3.927855300903320312e+01 1.441750442609190941e-03 2.139338292181491852e-02 6.850539706647396088e-03 8.163773454725742340e-04
1.855000000000000000e+03 4.925383090972900391e+00 4.035836029052734375e+01 -1.723828725516796112e-03 -9.241639077663421631e-02 -2.824206463992595673e-02 6.301611429080367088e-04
1.856000000000000000e+03 2.013931751251220703e+00 4.163637924194335938e+01 -5.958394613116979599e-03 -1.190478205680847168e-01 -3.750186413526535034e-02 -1.743685104884207249e-03
1.857000000000000000e+03 6.224923610687255859e+00 3.818184280395507812e+01 -3.266606945544481277e-03 -7.064194232225418091e-02 -2.217256464064121246e-02 -1.711456803604960442e-03
1.858000000000000000e+03 3.369759321212768555e+00 3.909637832641601562e+01 -1.466752844862639904e-03 -1.137854680418968201e-01 -3.457566723227500916e-02 -2.292803255841135979e-03
1.859000000000000000e+03 2.478028059005737305e+00 3.808818435668945312e+01 3.308142069727182388e-03 -1.153921782970428467e-01 -3.362521156668663025e-02 -5.841756239533424377e-03
1.860000000000000000e+03 1.289858341217041016e+00 4.007696151733398438e+01 4.198169801384210587e-03 -1.214295551180839539e-01 -3.516941517591476440e-02 -4.447065759450197220e-03
1.861000000000000000e+03 9.205073714256286621e-01 3.871990966796875000e+01 -3.282396588474512100e-03 -1.263690590858459473e-01 -3.889543563127517700e-02 -1.957463333383202553e-03
1.862000000000000000e+03 7.596729397773742676e-01 3.737384414672851562e+01 3.726222086697816849e-03 -1.306742429733276367e-01 -3.808440640568733215e-02 -3.112706122919917107e-03
1.863000000000000000e+03 7.405357360839843750e-01 3.177681350708007812e+01 2.432322595268487930e-03 -1.454442739486694336e-01 -4.290358349680900574e-02 -1.870465930551290512e-03
1.864000000000000000e+03 2.312921285629272461e+00 3.008047103881835938e+01 2.060251077637076378e-03 -1.289647966623306274e-01 -3.807136416435241699e-02 -6.313984282314777374e-03
1.865000000000000000e+03 4.368096351623535156e+00 2.837230873107910156e+01 -4.356938297860324383e-04 -1.025162935256958008e-01 -3.088559582829475403e-02 -1.123412698507308960e-02
1.866000000000000000e+03 4.879066467285156250e+00 2.682441139221191406e+01 -5.626251455396413803e-03 -9.748251736164093018e-02 -3.093262948095798492e-02 -1.595596782863140106e-02
1.867000000000000000e+03 6.691811561584472656e+00 2.560643196105957031e+01 -8.628319948911666870e-03 -6.429459154605865479e-02 -2.187687344849109650e-02 -1.648354902863502502e-02
1.868000000000000000e+03 9.431411743164062500e+00 2.418696403503417969e+01 -8.295115083456039429e-03 -1.205873209983110428e-02 -6.106154061853885651e-03 -7.917793467640876770e-03
1.869000000000000000e+03 1.269687271118164062e+01 2.038572692871093750e+01 -3.204309148713946342e-03 5.969565734267234802e-02 1.694740541279315948e-02 8.695553988218307495e-03
1.870000000000000000e+03 1.499077129364013672e+01 1.808940887451171875e+01 1.813399232923984528e-02 1.095081046223640442e-01 3.829262778162956238e-02 4.228959977626800537e-02
1.871000000000000000e+03 1.684386634826660156e+01 1.495281600952148438e+01 5.061510577797889709e-02 1.612460613250732422e-01 6.355834752321243286e-02 8.146657794713973999e-02
1.872000000000000000e+03 1.819165229797363281e+01 1.407499694824218750e+01 7.230556011199951172e-02 1.676503568887710571e-01 7.198677211999893188e-02 1.082612201571464539e-01
1.873000000000000000e+03 1.975554466247558594e+01 1.094431591033935547e+01 1.397775709629058838e-01 1.752765923738479614e-01 9.451624751091003418e-02 1.623072177171707153e-01
1.874000000000000000e+03 7.447785139083862305e-01 3.036450004577636719e+01 -3.519132267683744431e-03 -1.490889489650726318e-01 -4.578242450952529907e-02 -2.088625915348529816e-03
1.875000000000000000e+03 2.097296237945556641e+00 2.874690437316894531e+01 -4.402684047818183899e-03 -1.339218914508819580e-01 -4.149737209081649780e-02 -6.767430808395147324e-03
1.876000000000000000e+03 5.171508789062500000e+00 2.540333747863769531e+01 -1.938831410370767117e-03 -9.059812873601913452e-02 -2.776108868420124054e-02 -1.491865608841180801e-02
1.877000000000000000e+03 9.777352333068847656e+00 2.149737930297851562e+01 -5.260211881250143051e-03 5.244452506303787231e-03 -4.727754003397421911e-06 -1.014020759612321854e-02
1.878000000000000000e+03 1.358106040954589844e+01 1.760315132141113281e+01 1.544964313507080078e-02 9.886700659990310669e-02 3.429499641060829163e-02 2.781511656939983368e-02
1.879000000000000000e+03 1.559129905700683594e+01 1.589450740814208984e+01 2.738765254616737366e-02 1.404442340135574341e-01 5.034956708550453186e-02 5.882396176457405090e-02
1.880000000000000000e+03 1.746690559387207031e+01 1.423787784576416016e+01 6.356894969940185547e-02 1.668724566698074341e-01 6.913242489099502563e-02 9.735810756683349609e-02
1.881000000000000000e+03 1.789645957946777344e+01 1.173309612274169922e+01 9.998798370361328125e-02 1.954004317522048950e-01 8.861652761697769165e-02 1.374020576477050781e-01
1.882000000000000000e+03 1.994890785217285156e+01 9.867420196533203125e+00 1.538157314062118530e-01 1.629516780376434326e-01 9.503021836280822754e-02 1.619239747524261475e-01
1.883000000000000000e+03 2.057431221008300781e+01 1.140109920501708984e+01 1.419274061918258667e-01 1.713283658027648926e-01 9.397673606872558594e-02 1.534868776798248291e-01
1.884000000000000000e+03 6.619821786880493164e-01 2.762206840515136719e+01 -4.463705234229564667e-03 -1.586365550756454468e-01 -4.893007874488830566e-02 -2.337865531444549561e-03
1.885000000000000000e+03 6.932884454727172852e-01 2.898813819885253906e+01 4.165633115917444229e-03 -1.534370034933090210e-01 -4.478140920400619507e-02 -2.486063167452812195e-03
1.886000000000000000e+03 1.936631560325622559e+00 2.757710456848144531e+01 1.967789372429251671e-03 -1.423442065715789795e-01 -4.211292415857315063e-02 -8.283009752631187439e-03
1.887000000000000000e+03 3.745212793350219727e+00 2.508345413208007812e+01 -4.910177085548639297e-03 -1.192640811204910278e-01 -3.725227713584899902e-02 -1.580519229173660278e-02
1.888000000000000000e+03 6.917520523071289062e+00 2.347711944580078125e+01 -7.156068459153175354e-03 -5.609240010380744934e-02 -1.897454075515270233e-02 -1.986199431121349335e-02
1.889000000000000000e+03 8.219770431518554688e+00 2.178231239318847656e+01 -6.304244976490736008e-03 -2.719626761972904205e-02 -1.005015429109334946e-02 -1.632874645292758942e-02
1.890000000000000000e+03 9.559108734130859375e+00 1.841459465026855469e+01 4.406406078487634659e-03 1.367575675249099731e-02 5.424648523330688477e-03 -9.264511987566947937e-03
1.891000000000000000e+03 1.155273914337158203e+01 1.791235923767089844e+01 4.179152660071849823e-03 6.105906516313552856e-02 1.957146450877189636e-02 5.257010925561189651e-03
1.892000000000000000e+03 1.387480449676513672e+01 1.679706954956054688e+01 1.374797150492668152e-02 1.137391775846481323e-01 3.824614733457565308e-02 3.211366385221481323e-02
1.893000000000000000e+03 1.617695045471191406e+01 1.462697029113769531e+01 4.867506399750709534e-02 1.608081758022308350e-01 6.284496933221817017e-02 7.669276744127273560e-02
1.894000000000000000e+03 1.845501136779785156e+01 9.408674240112304688e+00 1.620058119297027588e-01 2.099390327930450439e-01 1.115834489464759827e-01 1.744178533554077148e-01
1.895000000000000000e+03 2.026065063476562500e+01 1.012621021270751953e+01 1.462821513414382935e-01 1.674357652664184570e-01 9.411537647247314453e-02 1.610067039728164673e-01
1.896000000000000000e+03 7.046037912368774414e-01 2.622984504699707031e+01 3.086871933192014694e-03 -1.650791168212890625e-01 -4.859767109155654907e-02 -3.824715735390782356e-03
1.897000000000000000e+03 2.108887434005737305e+00 2.627547264099121094e+01 -3.601142438128590584e-03 -1.444824188947677612e-01 -4.442506656050682068e-02 -8.822135627269744873e-03
1.898000000000000000e+03 5.424376964569091797e+00 2.411202812194824219e+01 -5.967783741652965546e-03 -8.507610112428665161e-02 -2.731316536664962769e-02 -1.869515888392925262e-02
1.899000000000000000e+03 6.603906154632568359e+00 2.204095458984375000e+01 -5.936742760241031647e-03 -6.224096193909645081e-02 -2.045331150293350220e-02 -2.150983363389968872e-02
1.900000000000000000e+03 8.528452873229980469e+00 1.946032524108886719e+01 1.266696373932063580e-03 -1.296098623424768448e-02 -3.508287016302347183e-03 -1.151592470705509186e-02
1.901000000000000000e+03 1.214648437500000000e+01 1.621965217590332031e+01 1.098765991628170013e-02 8.946973085403442383e-02 3.013721667230129242e-02 1.468399446457624435e-02
1.902000000000000000e+03 1.243873119354248047e+01 1.360955524444580078e+01 2.766215614974498749e-02 1.297946870326995850e-01 4.723705351352691650e-02 2.309875562787055969e-02
1.903000000000000000e+03 1.482412624359130859e+01 1.141070270538330078e+01 5.737681686878204346e-02 2.142768204212188721e-01 8.149608969688415527e-02 8.446757495403289795e-02
1.904000000000000000e+03 1.713674736022949219e+01 1.088256931304931641e+01 1.005110666155815125e-01 2.154792547225952148e-01 9.479709714651107788e-02 1.396924406290054321e-01
1.905000000000000000e+03 1.841339683532714844e+01 9.012338638305664062e+00 1.741855889558792114e-01 2.119492292404174805e-01 1.158404499292373657e-01 1.831612288951873779e-01
1.906000000000000000e+03 1.836597061157226562e+01 1.062093067169189453e+01 1.261547803878784180e-01 2.016411125659942627e-01 9.833876788616180420e-02 1.587290465831756592e-01
1.907000000000000000e+03 7.652271986007690430e-01 2.481529617309570312e+01 -3.216443350538611412e-03 -1.725734919309616089e-01 -5.273697897791862488e-02 -4.028819967061281204e-03
1.908000000000000000e+03 4.754297733306884766e+00 2.234960365295410156e+01 -3.370786318555474281e-03 -1.017788797616958618e-01 -3.154490143060684204e-02 -2.086480334401130676e-02
1.909000000000000000e+03 6.324352264404296875e+00 1.928792381286621094e+01 -2.184070181101560593e-03 -6.303904950618743896e-02 -1.956693641841411591e-02 -2.097048237919807434e-02
1.910000000000000000e+03 8.344748497009277344e+00 1.747524070739746094e+01 6.792732514441013336e-03 -6.558966822922229767e-03 7.012968126218765974e-05 -1.471771672368049622e-02
1.911000000000000000e+03 9.628110885620117188e+00 1.492213630676269531e+01 1.873720996081829071e-02 4.088055714964866638e-02 1.788532920181751251e-02 -6.086288951337337494e-03
1.912000000000000000e+03 1.076657104492187500e+01 1.353674411773681641e+01 3.025968000292778015e-02 8.660977333784103394e-02 3.506083786487579346e-02 3.378710243850946426e-03
1.913000000000000000e+03 1.239926147460937500e+01 1.181038951873779297e+01 4.532570019364356995e-02 1.622288823127746582e-01 6.226637586951255798e-02 2.667094394564628601e-02
1.914000000000000000e+03 1.548931598663330078e+01 1.005634784698486328e+01 8.159953355789184570e-02 2.476425617933273315e-01 9.877263009548187256e-02 1.224986463785171509e-01
1.915000000000000000e+03 1.642072677612304688e+01 8.087391853332519531e+00 1.496506929397583008e-01 2.713873982429504395e-01 1.263114213943481445e-01 1.969342529773712158e-01
1.916000000000000000e+03 1.797367095947265625e+01 7.865563869476318359e+00 1.801757663488388062e-01 2.259387373924255371e-01 1.218343526124954224e-01 2.049170136451721191e-01
1.917000000000000000e+03 1.825814628601074219e+01 8.137013435363769531e+00 1.880954504013061523e-01 2.311605066061019897e-01 1.257767826318740845e-01 2.032586783170700073e-01
1.918000000000000000e+03 8.126727938652038574e-01 2.338191795349121094e+01 2.242235001176595688e-03 -1.805002689361572266e-01 -5.347741022706031799e-02 -4.914066754281520844e-03
1.919000000000000000e+03 2.417292594909667969e+00 2.179992485046386719e+01 2.007023664191365242e-03 -1.525751650333404541e-01 -4.517044126987457275e-02 -1.406206097453832626e-02
1.920000000000000000e+03 5.508042812347412109e+00 1.933742141723632812e+01 8.753345900913700461e-05 -8.348525315523147583e-02 -2.501931600272655487e-02 -2.239287644624710083e-02
1.921000000000000000e+03 6.297887325286865234e+00 1.839245033264160156e+01 1.984650734812021255e-03 -5.786053091287612915e-02 -1.676276512444019318e-02 -2.058407850563526154e-02
1.922000000000000000e+03 7.832735061645507812e+00 1.637678718566894531e+01 6.791177205741405487e-03 -1.719876192510128021e-02 -3.122275462374091148e-03 -1.447247993201017380e-02
1.923000000000000000e+03 9.005787849426269531e+00 1.425482368469238281e+01 2.395117096602916718e-02 2.453760989010334015e-02 1.454663462936878204e-02 -9.487052448093891144e-03
1.924000000000000000e+03 1.359669971466064453e+01 9.857137680053710938e+00 5.904297158122062683e-02 2.450302988290786743e-01 9.122198075056076050e-02 6.708639860153198242e-02
1.925000000000000000e+03 1.515576267242431641e+01 8.293743133544921875e+00 1.036762893199920654e-01 3.103230595588684082e-01 1.241998001933097839e-01 1.528451144695281982e-01
1.926000000000000000e+03 7.324476242065429688e-01 2.051811027526855469e+01 2.650382928550243378e-03 -1.990109235048294067e-01 -5.890816077589988708e-02 -5.657382775098085403e-03
1.927000000000000000e+03 7.982435822486877441e-01 2.194676208496093750e+01 -2.781590912491083145e-03 -1.890529841184616089e-01 -5.755037441849708557e-02 -5.196114070713520050e-03
1.928000000000000000e+03 4.585947990417480469e+00 1.963662719726562500e+01 -3.234273521229624748e-03 -1.086820662021636963e-01 -3.357490152120590210e-02 -1.835574395954608917e-02
1.929000000000000000e+03 5.438938140869140625e+00 1.849917793273925781e+01 -1.832411973737180233e-03 -9.110914170742034912e-02 -2.788246609270572662e-02 -2.136721275746822357e-02
1.930000000000000000e+03 5.997973442077636719e+00 1.582242488861083984e+01 7.429753895848989487e-03 -7.002111524343490601e-02 -1.877740770578384399e-02 -1.715734601020812988e-02
1.931000000000000000e+03 7.721261978149414062e+00 1.389633655548095703e+01 2.715913020074367523e-02 -1.322066318243741989e-02 4.181540105491876602e-03 -1.318773068487644196e-02
1.932000000000000000e+03 8.547011375427246094e+00 1.274308013916015625e+01 4.059207439422607422e-02 1.273436285555362701e-02 1.599793136119842529e-02 -1.204193104058504105e-02
1.933000000000000000e+03 1.112013435363769531e+01 1.043379783630371094e+01 5.984739586710929871e-02 1.354612410068511963e-01 5.859258770942687988e-02 -2.571437740698456764e-03
1.934000000000000000e+03 1.457607269287109375e+01 8.378014564514160156e+00 8.630008250474929810e-02 3.136439621448516846e-01 1.199832111597061157e-01 1.280043572187423706e-01
1.935000000000000000e+03 1.491932201385498047e+01 6.691688060760498047e+00 1.452543884515762329e-01 3.895411193370819092e-01 1.604386419057846069e-01 2.067132890224456787e-01
1.936000000000000000e+03 1.516493415832519531e+01 5.746101856231689453e+00 2.124743610620498657e-01 3.829509317874908447e-01 1.786275804042816162e-01 2.805550396442413330e-01
1.937000000000000000e+03 6.779327392578125000e-01 1.910109138488769531e+01 -2.693592337891459465e-03 -2.100150436162948608e-01 -6.381259113550186157e-02 -5.223975516855716705e-03
1.938000000000000000e+03 2.157472133636474609e+00 2.032652473449707031e+01 -3.672644263133406639e-03 -1.649287790060043335e-01 -5.058042705059051514e-02 -1.322617940604686737e-02
1.939000000000000000e+03 4.452527999877929688e+00 1.853447341918945312e+01 1.198225305415689945e-03 -1.119308993220329285e-01 -3.321980312466621399e-02 -1.945919170975685120e-02
1.940000000000000000e+03 4.621057987213134766e+00 1.608243370056152344e+01 8.164162747561931610e-03 -1.084772571921348572e-01 -3.009392879903316498e-02 -1.808995939791202545e-02
1.941000000000000000e+03 5.511919498443603516e+00 1.346020793914794922e+01 1.926287077367305756e-02 -8.605400472879409790e-02 -2.003734000027179718e-02 -1.045801397413015366e-02
1.942000000000000000e+03 7.000929832458496094e+00 1.181788158416748047e+01 4.778482764959335327e-02 -4.393879324197769165e-02 1.153810997493565083e-03 -6.017819512635469437e-03
1.943000000000000000e+03 9.384647369384765625e+00 1.014668846130371094e+01 7.844460010528564453e-02 4.672421142458915710e-02 3.755064308643341064e-02 -1.263659540563821793e-02
1.944000000000000000e+03 1.326916122436523438e+01 6.525824069976806641e+00 9.968477487564086914e-02 4.501713216304779053e-01 1.649568229913711548e-01 4.463870450854301453e-02
1.945000000000000000e+03 1.550697231292724609e+01 5.173037052154541016e+00 2.034870982170104980e-01 3.117357194423675537e-01 1.545668542385101318e-01 2.544107437133789062e-01
1.946000000000000000e+03 1.561960887908935547e+01 6.273238658905029297e+00 2.034357041120529175e-01 3.391702175140380859e-01 1.627817749977111816e-01 2.393928319215774536e-01
1.947000000000000000e+03 6.472672820091247559e-01 1.770128250122070312e+01 2.782121999189257622e-03 -2.215861976146697998e-01 -6.564122438430786133e-02 -5.606190301477909088e-03
1.948000000000000000e+03 2.011815309524536133e+00 1.892637062072753906e+01 2.489372622221708298e-03 -1.764032840728759766e-01 -5.217417329549789429e-02 -1.403922773897647858e-02
1.949000000000000000e+03 3.229465723037719727e+00 1.615107345581054688e+01 6.981731858104467392e-04 -1.519691795110702515e-01 -4.538130015134811401e-02 -1.546126976609230042e-02
1.950000000000000000e+03 4.368629455566406250e+00 1.347042369842529297e+01 1.881822757422924042e-02 -1.190349459648132324e-01 -3.006501682102680206e-02 -9.259335696697235107e-03
1.951000000000000000e+03 6.107601642608642578e+00 1.127518939971923828e+01 4.528144001960754395e-02 -7.460421323776245117e-02 -8.796831592917442322e-03 5.825361586175858974e-05
1.952000000000000000e+03 7.274708747863769531e+00 9.733466148376464844e+00 8.143097907304763794e-02 -5.198526382446289062e-02 8.833714760839939117e-03 5.345057696104049683e-03
1.953000000000000000e+03 9.444972038269042969e+00 9.055768966674804688e+00 1.016516983509063721e-01 4.480718448758125305e-02 4.393766447901725769e-02 -1.723838225007057190e-02
1.954000000000000000e+03 1.237246894836425781e+01 6.006254196166992188e+00 1.385899335145950317e-01 4.128876030445098877e-01 1.654432564973831177e-01 -6.400691717863082886e-02
1.955000000000000000e+03 1.393738937377929688e+01 5.028108596801757812e+00 1.223554015159606934e-01 7.328976392745971680e-01 2.565759122371673584e-01 2.113400101661682129e-01
1.956000000000000000e+03 1.441371822357177734e+01 4.087681770324707031e+00 4.566054344177246094e-01 7.773320674896240234e-01 3.701812624931335449e-01 5.089610815048217773e-01
1.957000000000000000e+03 6.318721771240234375e-01 1.631001472473144531e+01 -2.062849700450897217e-03 -2.328340411186218262e-01 -7.046906650066375732e-02 -4.534400533884763718e-03
1.958000000000000000e+03 1.911296963691711426e+00 1.623317909240722656e+01 3.339863847941160202e-03 -1.913759857416152954e-01 -5.641083791851997375e-02 -1.250237505882978439e-02
1.959000000000000000e+03 3.124352931976318359e+00 1.349503898620605469e+01 8.407813496887683868e-03 -1.583440750837326050e-01 -4.498087987303733826e-02 -6.886900402605533600e-03
1.960000000000000000e+03 6.839739799499511719e+00 1.052889442443847656e+01 6.644910573959350586e-02 -5.502578243613243103e-02 3.426996525377035141e-03 3.296729177236557007e-03
1.961000000000000000e+03 8.261097908020019531e+00 6.791792869567871094e+00 1.550045758485794067e-01 -7.435896992683410645e-02 2.419367991387844086e-02 2.589551173150539398e-02
1.962000000000000000e+03 1.057402515411376953e+01 5.002177715301513672e+00 2.862187027931213379e-01 1.000915747135877609e-02 8.886836469173431396e-02 -7.181283831596374512e-02
1.963000000000000000e+03 1.391670989990234375e+01 3.419199228286743164e+00 3.320077359676361084e-01 1.725186705589294434e+00 6.171583533287048340e-01 4.463799893856048584e-01
1.964000000000000000e+03 1.368065643310546875e+01 2.620352506637573242e+00 3.989707231521606445e-01 2.707724809646606445e+00 9.320086836814880371e-01 -2.970032393932342529e-01
1.965000000000000000e+03 1.381178760528564453e+01 4.053020477294921875e+00 2.349895834922790527e-01 1.163475155830383301e+00 4.195394217967987061e-01 2.215078920125961304e-01
1.966000000000000000e+03 6.234693527221679688e-01 1.491674423217773438e+01 2.667529508471488953e-03 -2.423701882362365723e-01 -7.191079854965209961e-02 -3.951756283640861511e-03
1.967000000000000000e+03 3.082446098327636719e+00 1.214671134948730469e+01 1.600052416324615479e-02 -1.610080301761627197e-01 -4.350225254893302917e-02 1.838964642956852913e-03
1.968000000000000000e+03 4.113019943237304688e+00 9.582406997680664062e+00 3.953230381011962891e-02 -1.346703320741653442e-01 -2.854141034185886383e-02 3.158439323306083679e-02
1.969000000000000000e+03 5.975715637207031250e+00 9.074828147888183594e+00 7.390393316745758057e-02 -9.594738483428955078e-02 -6.613036151975393295e-03 2.852159179747104645e-02
1.970000000000000000e+03 9.869853973388671875e+00 5.211064338684082031e+00 2.610210180282592773e-01 -6.177552044391632080e-02 5.977365002036094666e-02 -2.071649394929409027e-02
1.971000000000000000e+03 1.370338344573974609e+01 2.183375835418701172e+00 6.314926743507385254e-01 2.930827856063842773e+00 1.068696141242980957e+00 -8.206630349159240723e-01
1.972000000000000000e+03 1.380689907073974609e+01 1.752376079559326172e+00 1.541900634765625000e+00 2.950070858001708984e+00 1.347591519355773926e+00 -1.467413902282714844e+00
1.973000000000000000e+03 6.008626222610473633e-01 1.212248134613037109e+01 3.273551352322101593e-03 -2.519805133342742920e-01 -7.461208850145339966e-02 1.116984785767272115e-04
1.974000000000000000e+03 3.008424758911132812e+00 1.082890605926513672e+01 1.753647066652774811e-02 -1.626656204462051392e-01 -4.353874176740646362e-02 1.385256648063659668e-02
1.975000000000000000e+03 4.270810604095458984e+00 8.584298133850097656e+00 4.898756742477416992e-02 -1.328408271074295044e-01 -2.515597641468048096e-02 4.789474979043006897e-02
1.976000000000000000e+03 5.459822177886962891e+00 6.901760578155517578e+00 7.156845182180404663e-02 -1.262081414461135864e-01 -1.639190688729286194e-02 8.081874996423721313e-02
1.977000000000000000e+03 7.056368827819824219e+00 4.557253837585449219e+00 7.678878307342529297e-02 -1.441383510828018188e-01 -2.020487189292907715e-02 1.524750590324401855e-01
1.978000000000000000e+03 9.430035591125488281e+00 3.799714088439941406e+00 2.215673029422760010e-01 -2.149087339639663696e-01 1.997571671381592751e-03 1.372685432434082031e-01
1.979000000000000000e+03 1.055505561828613281e+01 2.220968008041381836e+00 8.452559262514114380e-02 -3.628531098365783691e-01 -8.349826186895370483e-02 3.442285954952239990e-01
1.980000000000000000e+03 1.204845619201660156e+01 1.455579161643981934e+00 1.144060567021369934e-01 -2.991307675838470459e-01 -5.541740730404853821e-02 5.093576908111572266e-01
1.981000000000000000e+03 5.820536613464355469e-01 1.073245143890380859e+01 -5.374002503231167793e-04 -2.478260695934295654e-01 -7.450903952121734619e-02 3.130143042653799057e-03
1.982000000000000000e+03 1.683288812637329102e+00 8.238613128662109375e+00 1.238826941698789597e-02 -1.782473623752593994e-01 -4.975772649049758911e-02 3.299128636717796326e-02
1.983000000000000000e+03 4.366413593292236328e+00 6.833526611328125000e+00 4.668929427862167358e-02 -1.302358210086822510e-01 -2.506395801901817322e-02 8.153173327445983887e-02
1.984000000000000000e+03 6.410002231597900391e+00 4.742092609405517578e+00 5.430343747138977051e-02 -1.343392878770828247e-01 -2.401075512170791626e-02 1.472000330686569214e-01
1.985000000000000000e+03 7.437217235565185547e+00 3.647795915603637695e+00 3.518943116068840027e-02 -1.603507697582244873e-01 -3.754840418696403503e-02 2.060581445693969727e-01
1.986000000000000000e+03 9.785382270812988281e+00 1.770399212837219238e+00 -2.550731301307678223e-01 -2.836186289787292480e-01 -1.616075187921524048e-01 3.961676955223083496e-01
1.987000000000000000e+03 1.128019428253173828e+01 1.582097530364990234e+00 -5.430288240313529968e-02 -4.192916452884674072e-01 -1.420783549547195435e-01 4.686479866504669189e-01
1.988000000000000000e+03 5.641331076622009277e-01 9.351471900939941406e+00 3.703180002048611641e-03 -2.341292649507522583e-01 -6.912782788276672363e-02 7.514699827879667282e-03
1.989000000000000000e+03 5.641277432441711426e-01 7.980160236358642578e+00 5.506487796083092690e-04 -2.079748362302780151e-01 -6.222725659608840942e-02 1.232300978153944016e-02
1.990000000000000000e+03 4.251511096954345703e+00 5.730527877807617188e+00 3.171432763338088989e-02 -1.218435540795326233e-01 -2.703876607120037079e-02 1.039966568350791931e-01
1.991000000000000000e+03 5.381633281707763672e+00 4.092982292175292969e+00 2.348250010982155800e-03 -1.070131435990333557e-01 -3.139946982264518738e-02 1.497437655925750732e-01
1.992000000000000000e+03 7.641230583190917969e+00 1.817446470260620117e+00 -2.504106462001800537e-01 -8.186659961938858032e-02 -9.968317300081253052e-02 2.312841564416885376e-01
1.993000000000000000e+03 9.065192222595214844e+00 1.800499439239501953e+00 -2.783863246440887451e-01 -2.002865076065063477e-01 -1.436018496751785278e-01 3.614410758018493652e-01
1.994000000000000000e+03 6.326520442962646484e-01 6.588772773742675781e+00 6.004794035106897354e-03 -1.633276492357254028e-01 -4.719685763120651245e-02 2.181801386177539825e-02
1.995000000000000000e+03 2.338536024093627930e+00 6.178675651550292969e+00 1.334046572446823120e-02 -1.316444575786590576e-01 -3.549119457602500916e-02 6.600016355514526367e-02
1.996000000000000000e+03 3.613746643066406250e+00 4.063455104827880859e+00 -1.096136495471000671e-02 -8.451137691736221313e-02 -2.864182181656360626e-02 1.086357459425926208e-01
1.997000000000000000e+03 6.214107513427734375e+00 1.833575606346130371e+00 -1.715653538703918457e-01 -4.467650130391120911e-02 -6.487255543470382690e-02 1.540240347385406494e-01
1.998000000000000000e+03 6.928406238555908203e+00 1.820761561393737793e+00 -2.111086100339889526e-01 -6.393001973628997803e-02 -8.251158893108367920e-02 1.902365386486053467e-01
1.999000000000000000e+03 6.461082696914672852e-01 5.118388652801513672e+00 -8.850988233461976051e-04 -1.141369491815567017e-01 -3.450661525130271912e-02 2.562045305967330933e-02
2.000000000000000000e+03 2.594211339950561523e+00 3.857205152511596680e+00 -1.304677221924066544e-02 -7.373694330453872681e-02 -2.603511326014995575e-02 7.972624897956848145e-02
2.001000000000000000e+03 4.072534561157226562e+00 1.890612483024597168e+00 -8.077235519886016846e-02 -2.935053408145904541e-02 -3.303686901926994324e-02 8.803630620241165161e-02
2.002000000000000000e+03 5.502369403839111328e+00 1.851705074310302734e+00 -1.383710801601409912e-01 -3.923998773097991943e-02 -5.328331887722015381e-02 1.284372061491012573e-01
2.003000000000000000e+03 5.128173828125000000e-01 3.625725507736206055e+00 -4.233028739690780640e-03 -6.120706349611282349e-02 -1.963202655315399170e-02 1.941565424203872681e-02
2.004000000000000000e+03 1.959660887718200684e+00 4.304493904113769531e+00 -7.532504852861166000e-03 -9.092079848051071167e-02 -2.953599207103252411e-02 6.276444345712661743e-02
2.005000000000000000e+03 2.877860307693481445e+00 2.829608917236328125e+00 -3.280498459935188293e-02 -4.880614951252937317e-02 -2.448333986103534698e-02 7.628230750560760498e-02
2.006000000000000000e+03 3.354882478713989258e+00 1.917466878890991211e+00 -5.878261476755142212e-02 -2.587646432220935822e-02 -2.539772354066371918e-02 6.987629830837249756e-02
2.007000000000000000e+03 3.946121931076049805e-01 2.197734832763671875e+00 -3.110059769824147224e-03 -1.662578992545604706e-02 -5.920754745602607727e-03 7.156951352953910828e-03
2.008000000000000000e+03 1.165418982505798340e+00 2.139563560485839844e+00 -1.026664115488529205e-02 -2.824646234512329102e-02 -1.155393105000257492e-02 2.168609760701656342e-02
2.009000000000000000e+03 1.907261848449707031e+00 2.044062852859497070e+00 -2.284390479326248169e-02 -3.016096539795398712e-02 -1.590146124362945557e-02 3.810402750968933105e-02
2.010000000000000000e+03 1.406845855712890625e+01 1.385749578475952148e+00 2.842417001724243164e+00 2.798830986022949219e+00 1.692374467849731445e+00 -2.101319313049316406e+00
2.011000000000000000e+03 1.430344295501708984e+01 1.067444801330566406e+00 3.426700830459594727e+00 2.347762584686279297e+00 1.732339024543762207e+00 -2.101639747619628906e+00
2.012000000000000000e+03 1.541307830810546875e+01 8.578163981437683105e-01 5.578464984893798828e+00 -5.145017523318529129e-03 1.671995878219604492e+00 -2.673863172531127930e-01
2.013000000000000000e+03 2.466960334777832031e+01 1.522839260101318359e+01 1.164830625057220459e-01 1.265819966793060303e-01 7.291951775550842285e-02 1.297517716884613037e-01
2.014000000000000000e+03 2.488264274597167969e+01 1.910190391540527344e+01 7.927206903696060181e-02 1.236860752105712891e-01 6.088744476437568665e-02 9.621481597423553467e-02
2.015000000000000000e+03 2.528596687316894531e+01 2.084749221801757812e+01 5.563040822744369507e-02 1.171802952885627747e-01 5.184321105480194092e-02 8.969739824533462524e-02
2.016000000000000000e+03 2.463733673095703125e+01 2.344848823547363281e+01 3.513144329190254211e-02 1.119947582483291626e-01 4.413785785436630249e-02 6.674128025770187378e-02
2.017000000000000000e+03 2.517926406860351562e+01 2.441614341735839844e+01 2.910246141254901886e-02 1.089982166886329651e-01 4.143020138144493103e-02 6.536289304494857788e-02
2.018000000000000000e+03 2.465860748291015625e+01 2.658622360229492188e+01 2.398174814879894257e-02 1.003562137484550476e-01 3.730139136314392090e-02 5.124114081263542175e-02
2.019000000000000000e+03 2.512930870056152344e+01 2.813819313049316406e+01 1.918799430131912231e-02 9.640027582645416260e-02 3.467648103833198547e-02 4.521225392818450928e-02
2.020000000000000000e+03 2.605107688903808594e+01 3.099979400634765625e+01 3.527611866593360901e-02 8.513008058071136475e-02 3.612186014652252197e-02 4.363485798239707947e-02
2.021000000000000000e+03 2.648579025268554688e+01 3.268623733520507812e+01 1.089699473232030869e-02 8.294381201267242432e-02 2.815224044024944305e-02 4.201158136129379272e-02
2.022000000000000000e+03 2.852771568298339844e+01 3.240961837768554688e+01 3.418497741222381592e-02 8.246376365423202515e-02 3.499462082982063293e-02 5.523531883955001831e-02
2.023000000000000000e+03 2.486778259277343750e+01 1.596114635467529297e+01 1.094865724444389343e-01 1.268877983093261719e-01 7.091231644153594971e-02 1.236184611916542053e-01
2.024000000000000000e+03 2.722297477722167969e+01 1.766181755065917969e+01 1.187543570995330811e-01 1.175491884350776672e-01 7.089106738567352295e-02 1.110347807407379150e-01
2.025000000000000000e+03 2.715570259094238281e+01 1.881323242187500000e+01 8.849579840898513794e-02 1.167083084583282471e-01 6.156123057007789612e-02 1.033722162246704102e-01
2.026000000000000000e+03 2.632421875000000000e+01 2.071391105651855469e+01 7.245577871799468994e-02 1.142381876707077026e-01 5.600818991661071777e-02 9.498275816440582275e-02
2.027000000000000000e+03 2.773411560058593750e+01 2.282138824462890625e+01 6.611213088035583496e-02 1.037523597478866577e-01 5.095934867858886719e-02 8.571529388427734375e-02
2.028000000000000000e+03 2.692670631408691406e+01 2.412582778930664062e+01 3.503263741731643677e-02 1.072427481412887573e-01 4.268261417746543884e-02 7.791543006896972656e-02
2.029000000000000000e+03 2.817838096618652344e+01 2.724977302551269531e+01 2.555574662983417511e-02 1.022350341081619263e-01 3.833723440766334534e-02 6.604176014661788940e-02
2.030000000000000000e+03 2.714859580993652344e+01 2.941825485229492188e+01 4.185139015316963196e-02 9.043338149785995483e-02 3.968543186783790588e-02 5.441094562411308289e-02
2.031000000000000000e+03 2.728615951538085938e+01 3.060795021057128906e+01 1.953275501728057861e-02 8.721753954887390137e-02 3.202508762478828430e-02 4.897060617804527283e-02
2.032000000000000000e+03 2.862848091125488281e+01 3.129764556884765625e+01 2.333595789968967438e-02 8.825627714395523071e-02 3.347767144441604614e-02 4.222198203206062317e-02
2.033000000000000000e+03 2.726501464843750000e+01 1.716216087341308594e+01 1.270849108695983887e-01 1.220845878124237061e-01 7.475085556507110596e-02 1.181411743164062500e-01
2.034000000000000000e+03 2.838748550415039062e+01 1.885968589782714844e+01 1.060019060969352722e-01 1.087976321578025818e-01 6.443986296653747559e-02 1.014574989676475525e-01
2.035000000000000000e+03 2.925765991210937500e+01 1.912259864807128906e+01 9.783051162958145142e-02 9.525148570537567139e-02 5.792459845542907715e-02 1.049853712320327759e-01
2.036000000000000000e+03 2.821476364135742188e+01 2.055490875244140625e+01 8.845569938421249390e-02 1.050470322370529175e-01 5.805081874132156372e-02 9.151892364025115967e-02
2.037000000000000000e+03 2.915408325195312500e+01 2.288984680175781250e+01 6.669036298990249634e-02 1.074199229478836060e-01 5.223308503627777100e-02 7.954153418540954590e-02
2.038000000000000000e+03 2.844643592834472656e+01 2.497491073608398438e+01 4.004415124654769897e-02 9.989663213491439819e-02 4.198223352432250977e-02 8.451908826828002930e-02
2.039000000000000000e+03 2.818876457214355469e+01 2.642683219909667969e+01 6.183144450187683105e-02 9.478700906038284302e-02 4.698553681373596191e-02 6.684867292642593384e-02
2.040000000000000000e+03 2.819425010681152344e+01 2.921240615844726562e+01 2.319357916712760925e-02 9.380222111940383911e-02 3.509873896837234497e-02 5.635842308402061462e-02
2.041000000000000000e+03 2.969585418701171875e+01 3.109939193725585938e+01 5.833036825060844421e-02 8.281881362199783325e-02 4.234475269913673401e-02 5.654647946357727051e-02
2.042000000000000000e+03 2.886731147766113281e+01 1.942959785461425781e+01 1.019265800714492798e-01 1.048958078026771545e-01 6.204671785235404968e-02 9.682069718837738037e-02
2.043000000000000000e+03 3.008087921142578125e+01 1.999278640747070312e+01 9.846683591604232788e-02 9.934258460998535156e-02 5.934282764792442322e-02 9.299439936876296997e-02
2.044000000000000000e+03 3.255751037597656250e+01 2.445431518554687500e+01 5.932288989424705505e-02 8.596541732549667358e-02 4.358649253845214844e-02 8.391024917364120483e-02
2.045000000000000000e+03 3.222219848632812500e+01 2.650886154174804688e+01 7.255129516124725342e-02 9.108479321002960205e-02 4.909082874655723572e-02 7.638390362262725830e-02
2.046000000000000000e+03 3.130892562866210938e+01 2.774240112304687500e+01 4.627022147178649902e-02 8.294753730297088623e-02 3.876532986760139465e-02 8.139797300100326538e-02
2.047000000000000000e+03 3.266762542724609375e+01 3.042895507812500000e+01 7.081995904445648193e-02 6.850985437631607056e-02 4.179894179105758667e-02 7.125020027160644531e-02
2.048000000000000000e+03 3.262659454345703125e+01 3.181785964965820312e+01 2.272237837314605713e-02 9.666024148464202881e-02 3.581478446722030640e-02 5.528618022799491882e-02
2.049000000000000000e+03 3.302984237670898438e+01 3.336150360107421875e+01 8.193030208349227905e-02 6.845842301845550537e-02 4.511661827564239502e-02 3.986399620771408081e-02
2.050000000000000000e+03 3.400909805297851562e+01 2.400737762451171875e+01 7.090146094560623169e-02 9.687291830778121948e-02 5.033231526613235474e-02 7.393186539411544800e-02
2.051000000000000000e+03 3.390142059326171875e+01 2.600409317016601562e+01 7.293331623077392578e-02 9.922638535499572754e-02 5.164790898561477661e-02 7.181657850742340088e-02
2.052000000000000000e+03 3.471145629882812500e+01 2.803705787658691406e+01 4.766479134559631348e-02 1.034485772252082825e-01 4.533401131629943848e-02 7.071804255247116089e-02
2.053000000000000000e+03 3.376004409790039062e+01 2.948309326171875000e+01 8.471406251192092896e-02 6.790598481893539429e-02 4.578601568937301636e-02 7.063681632280349731e-02
2.054000000000000000e+03 3.384950637817382812e+01 3.157060813903808594e+01 8.264148980379104614e-02 7.678341120481491089e-02 4.782747104763984680e-02 4.560384154319763184e-02
2.055000000000000000e+03 3.429793930053710938e+01 3.281860351562500000e+01 3.015870787203311920e-02 8.119679242372512817e-02 3.340664878487586975e-02 7.002362608909606934e-02
2.056000000000000000e+03 3.371055984497070312e+01 3.494811248779296875e+01 2.024457603693008423e-02 8.525070548057556152e-02 3.164858371019363403e-02 5.726689472794532776e-02
2.057000000000000000e+03 3.633419036865234375e+01 3.809891128540039062e+01 5.236479267477989197e-02 5.013006925582885742e-02 3.074845857918262482e-02 7.140091806650161743e-02
2.058000000000000000e+03 3.426874923706054688e+01 2.430521202087402344e+01 5.987231805920600891e-02 8.658371120691299438e-02 4.393680766224861145e-02 8.460208773612976074e-02
2.059000000000000000e+03 3.504017257690429688e+01 2.520411109924316406e+01 8.644502609968185425e-02 1.080685108900070190e-01 5.835406109690666199e-02 6.936958432197570801e-02
2.060000000000000000e+03 3.582330322265625000e+01 2.864132881164550781e+01 7.931332290172576904e-02 1.060621440410614014e-01 5.561263859272003174e-02 5.483452230691909790e-02
2.061000000000000000e+03 3.489068603515625000e+01 3.115432357788085938e+01 3.858884796500205994e-02 7.906010746955871582e-02 3.529468551278114319e-02 7.937732338905334473e-02
2.062000000000000000e+03 3.534079360961914062e+01 3.223047637939453125e+01 7.995168119668960571e-02 9.245617687702178955e-02 5.172235891222953796e-02 3.683917596936225891e-02
2.063000000000000000e+03 3.598564147949218750e+01 2.717679595947265625e+01 7.067470252513885498e-02 1.154857799410820007e-01 5.584814399480819702e-02 6.154984235763549805e-02
2.064000000000000000e+03 3.746181869506835938e+01 2.848117637634277344e+01 6.705239415168762207e-02 7.144863158464431763e-02 4.155030846595764160e-02 9.639193117618560791e-02
2.065000000000000000e+03 3.697509002685546875e+01 2.999671554565429688e+01 7.820078730583190918e-02 1.009746342897415161e-01 5.375262722373008728e-02 5.303266644477844238e-02
2.066000000000000000e+03 3.770957565307617188e+01 3.305560302734375000e+01 7.167692482471466064e-02 4.580111801624298096e-02 3.524341061711311340e-02 6.536896526813507080e-02
2.067000000000000000e+03 3.608179473876953125e+01 3.537222290039062500e+01 4.497994109988212585e-02 5.406898260116577148e-02 2.971467748284339905e-02 7.270702719688415527e-02
2.068000000000000000e+03 3.847389221191406250e+01 2.907679367065429688e+01 6.881985068321228027e-02 6.116381660103797913e-02 3.899510204792022705e-02 9.077648818492889404e-02
2.069000000000000000e+03 4.144515228271484375e+01 3.178570365905761719e+01 4.500625655055046082e-02 1.171903405338525772e-02 1.701758801937103271e-02 1.230603531002998352e-01
2.070000000000000000e+03 4.131960296630859375e+01 3.244438552856445312e+01 3.773541375994682312e-02 3.359800949692726135e-02 2.140002697706222534e-02 1.074366495013237000e-01
2.071000000000000000e+03 3.959842681884765625e+01 3.588229370117187500e+01 8.197499811649322510e-02 1.111316978931427002e-01 5.793200805783271790e-02 3.542963787913322449e-02
2.072000000000000000e+03 3.910435867309570312e+01 3.734579849243164062e+01 7.603648304939270020e-02 1.378154382109642029e-02 2.694540843367576599e-02 7.051779329776763916e-02
2.073000000000000000e+03 4.086576461791992188e+01 3.127086639404296875e+01 5.419771000742912292e-02 3.181560337543487549e-02 2.580399252474308014e-02 1.061130613088607788e-01
2.074000000000000000e+03 4.261585998535156250e+01 3.292213439941406250e+01 4.789225757122039795e-02 1.834888360463082790e-03 1.491814386099576950e-02 1.160502880811691284e-01
2.075000000000000000e+03 4.484557723999023438e+01 3.464593887329101562e+01 2.103870809078216553e-01 1.902104020118713379e-01 1.201792433857917786e-01 -3.089495562016963959e-02
2.076000000000000000e+03 4.353323364257812500e+01 3.700436401367187500e+01 4.232742637395858765e-02 8.725722879171371460e-02 3.887539729475975037e-02 1.751763224601745605e-01
2.077000000000000000e+03 4.542100524902343750e+01 3.515827941894531250e+01 1.327965706586837769e-01 2.040320932865142822e-01 1.010486036539077759e-01 3.954448550939559937e-02
2.078000000000000000e+03 4.586170578002929688e+01 3.614660263061523438e+01 1.183991804718971252e-01 -2.886232733726501465e-02 2.686105668544769287e-02 1.228712275624275208e-01
2.079000000000000000e+03 4.624172210693359375e+01 3.638983535766601562e+01 -3.961051255464553833e-02 1.728319525718688965e-01 3.996643051505088806e-02 1.329353600740432739e-01
2.080000000000000000e+03 4.892870330810546875e+01 3.733220672607421875e+01 -1.370368003845214844e+00 -2.199489474296569824e-01 -4.770950675010681152e-01 -3.351086974143981934e-01
2.081000000000000000e+03 5.001294708251953125e+01 3.766213989257812500e+01 -1.970541238784790039e+00 -1.526144295930862427e-01 -6.369466781616210938e-01 -8.578982353210449219e-01
2.082000000000000000e+03 5.386945724487304688e+01 3.856293106079101562e+01 2.486468315124511719e+00 1.657745361328125000e+01 5.719176292419433594e+00 -4.457146167755126953e+00
2.083000000000000000e+03 4.931633758544921875e+01 2.998928833007812500e+01 3.128291368484497070e+00 3.407833337783813477e+00 1.960837364196777344e+00 3.294559478759765625e+00
2.084000000000000000e+03 4.922658157348632812e+01 2.799312782287597656e+01 1.762378573417663574e+00 4.116050720214843750e+00 1.763528823852539062e+00 2.783291578292846680e+00
2.085000000000000000e+03 4.848204803466796875e+01 2.632810783386230469e+01 1.133952856063842773e+00 3.759963274002075195e+00 1.468174815177917480e+00 2.273928165435791016e+00
2.086000000000000000e+03 4.925349044799804688e+01 2.439771461486816406e+01 4.742572307586669922e-01 4.614140987396240234e+00 1.526519536972045898e+00 2.031128406524658203e+00
2.087000000000000000e+03 4.936365890502929688e+01 2.222278976440429688e+01 4.642445221543312073e-02 4.748791694641113281e+00 1.438564896583557129e+00 1.658504724502563477e+00
2.088000000000000000e+03 4.998333740234375000e+01 1.929106712341308594e+01 -3.531006872653961182e-01 5.012717247009277344e+00 1.397885084152221680e+00 1.262302517890930176e+00
2.089000000000000000e+03 4.876485061645507812e+01 1.815383529663085938e+01 -2.969763875007629395e-01 4.412285804748535156e+00 1.234592914581298828e+00 1.181339144706726074e+00
2.090000000000000000e+03 5.055289840698242188e+01 1.559926605224609375e+01 -5.649594664573669434e-01 5.072352409362792969e+00 1.352217912673950195e+00 8.716347813606262207e-01
2.091000000000000000e+03 4.928406524658203125e+01 1.413286781311035156e+01 -4.995909929275512695e-01 4.543907642364501953e+00 1.213294982910156250e+00 8.311320543289184570e-01
2.092000000000000000e+03 4.922231674194335938e+01 1.475706577301025391e+01 -4.875808656215667725e-01 4.530258655548095703e+00 1.212803363800048828e+00 8.732011318206787109e-01
2.093000000000000000e+03 5.079100799560546875e+01 1.447528839111328125e+01 -6.075084805488586426e-01 5.105011463165283203e+00 1.349250912666320801e+00 7.809290885925292969e-01
2.094000000000000000e+03 5.183019638061523438e+01 1.335260581970214844e+01 -6.760589480400085449e-01 5.355627536773681641e+00 1.403870582580566406e+00 6.398071050643920898e-01
2.095000000000000000e+03 5.104014205932617188e+01 1.489868068695068359e+01 -6.211478710174560547e-01 5.212122917175292969e+00 1.377292513847351074e+00 7.813874483108520508e-01
2.096000000000000000e+03 5.132212829589843750e+01 1.831412887573242188e+01 -5.612227916717529297e-01 5.575189113616943359e+00 1.504189848899841309e+00 1.055368423461914062e+00
2.097000000000000000e+03 5.108389282226562500e+01 2.036113548278808594e+01 -4.016768932342529297e-01 5.674164295196533203e+00 1.581746220588684082e+00 1.321324229240417480e+00
2.098000000000000000e+03 5.073031616210937500e+01 2.115714645385742188e+01 -2.972535192966461182e-01 5.541226387023925781e+00 1.573191881179809570e+00 1.444159865379333496e+00
2.099000000000000000e+03 5.093395614624023438e+01 2.217177391052246094e+01 -1.962563544511795044e-01 5.729794502258300781e+00 1.660061478614807129e+00 1.587010622024536133e+00
2.100000000000000000e+03 5.092369079589843750e+01 2.461738014221191406e+01 1.711336225271224976e-01 5.964942932128906250e+00 1.840822935104370117e+00 2.030230283737182617e+00
2.101000000000000000e+03 5.128677368164062500e+01 2.620075035095214844e+01 4.787505269050598145e-01 6.443627834320068359e+00 2.076713562011718750e+00 2.385259151458740234e+00
2.102000000000000000e+03 5.088777160644531250e+01 2.810363769531250000e+01 1.289682030677795410e+00 6.195110797882080078e+00 2.245437860488891602e+00 2.993180036544799805e+00
2.103000000000000000e+03 4.993423080444335938e+01 2.818767738342285156e+01 1.667411327362060547e+00 4.937029838562011719e+00 1.981332421302795410e+00 2.962141990661621094e+00
2.104000000000000000e+03 4.816328430175781250e+01 2.885489463806152344e+01 2.455697298049926758e+00 2.504098653793334961e+00 1.487938761711120605e+00 2.468403816223144531e+00
2.105000000000000000e+03 4.737759017944335938e+01 2.500992202758789062e+01 8.991922140121459961e-01 3.089810609817504883e+00 1.196700930595397949e+00 1.876538038253784180e+00
2.106000000000000000e+03 4.800352096557617188e+01 2.338019752502441406e+01 4.495384991168975830e-01 3.787217855453491211e+00 1.271026968955993652e+00 1.766979575157165527e+00
2.107000000000000000e+03 4.682402420043945312e+01 1.907701683044433594e+01 -5.337328463792800903e-02 3.489438772201538086e+00 1.030819654464721680e+00 1.224470615386962891e+00
2.108000000000000000e+03 4.794532775878906250e+01 1.799981880187988281e+01 -2.346296608448028564e-01 4.055841445922851562e+00 1.146363615989685059e+00 1.168677449226379395e+00
2.109000000000000000e+03 4.732330322265625000e+01 1.552628707885742188e+01 -3.204179704189300537e-01 3.807631015777587891e+00 1.046163916587829590e+00 9.540606737136840820e-01
2.110000000000000000e+03 4.733943176269531250e+01 1.495358467102050781e+01 -3.395373225212097168e-01 3.820905923843383789e+00 1.044410586357116699e+00 9.155445098876953125e-01
2.111000000000000000e+03 4.797846603393554688e+01 1.425303077697753906e+01 -4.051913619041442871e-01 4.059108257293701172e+00 1.096175074577331543e+00 8.659240603446960449e-01
2.112000000000000000e+03 4.695782089233398438e+01 2.780698776245117188e+01 1.820114135742187500e+00 1.770644545555114746e+00 1.077227592468261719e+00 1.808865070343017578e+00
2.113000000000000000e+03 4.588449478149414062e+01 2.610883140563964844e+01 1.219915747642517090e+00 1.715606570243835449e+00 8.806567192077636719e-01 1.490932583808898926e+00
2.114000000000000000e+03 4.498859405517578125e+01 2.584076309204101562e+01 1.116333484649658203e+00 1.375239729881286621e+00 7.474719882011413574e-01 1.245424628257751465e+00
2.115000000000000000e+03 4.407961654663085938e+01 2.499557113647460938e+01 1.051870465278625488e+00 1.117636799812316895e+00 6.508522033691406250e-01 1.060462474822998047e+00
2.116000000000000000e+03 4.202111053466796875e+01 2.311398124694824219e+01 5.316902995109558105e-01 5.690630078315734863e-01 3.302260041236877441e-01 5.501788854598999023e-01
2.117000000000000000e+03 4.227524185180664062e+01 2.280668640136718750e+01 5.211582779884338379e-01 7.409384846687316895e-01 3.786290287971496582e-01 6.322516798973083496e-01
2.118000000000000000e+03 4.053963088989257812e+01 2.177883529663085938e+01 2.897999286651611328e-01 2.970646023750305176e-01 1.760593652725219727e-01 2.948627769947052002e-01
2.119000000000000000e+03 4.138285064697265625e+01 1.899124145507812500e+01 1.433501690626144409e-01 1.132954597473144531e+00 3.828914463520050049e-01 5.885062813758850098e-01
2.120000000000000000e+03 4.060259246826171875e+01 1.759028244018554688e+01 5.654872208833694458e-02 1.075933218002319336e+00 3.397445976734161377e-01 4.927234947681427002e-01
2.121000000000000000e+03 4.067459487915039062e+01 1.621592903137207031e+01 -8.920693770051002502e-03 1.289691925048828125e+00 3.842313587665557861e-01 5.096244812011718750e-01
2.122000000000000000e+03 3.943544387817382812e+01 1.413695621490478516e+01 -9.682922065258026123e-02 1.136803030967712402e+00 3.119921386241912842e-01 3.841315805912017822e-01
2.123000000000000000e+03 4.171834182739257812e+01 1.406111145019531250e+01 -1.108791977167129517e-01 1.835063099861145020e+00 5.172551870346069336e-01 5.956534147262573242e-01
2.124000000000000000e+03 4.177280044555664062e+01 1.456130409240722656e+01 -9.023326635360717773e-02 1.817484617233276367e+00 5.181754231452941895e-01 6.115694642066955566e-01
2.125000000000000000e+03 4.245634841918945312e+01 1.642968559265136719e+01 -1.934520527720451355e-02 1.867124319076538086e+00 5.543337464332580566e-01 7.120630741119384766e-01
2.126000000000000000e+03 4.151611328125000000e+01 1.763819885253906250e+01 6.132804229855537415e-02 1.379085779190063477e+00 4.321241378784179688e-01 6.151290535926818848e-01
2.127000000000000000e+03 4.267052078247070312e+01 1.963106918334960938e+01 1.986397653818130493e-01 1.545314788818359375e+00 5.231863856315612793e-01 7.953445315361022949e-01
2.128000000000000000e+03 4.168727493286132812e+01 2.128214836120605469e+01 3.286846578121185303e-01 8.358381390571594238e-01 3.493568599224090576e-01 5.812230110168457031e-01
2.129000000000000000e+03 4.177774429321289062e+01 2.083862304687500000e+01 2.845648229122161865e-01 9.641540050506591797e-01 3.746156394481658936e-01 6.128045916557312012e-01
2.130000000000000000e+03 3.966403579711914062e+01 2.097416114807128906e+01 1.583772897720336914e-01 2.068898677825927734e-01 1.095801442861557007e-01 1.845866441726684570e-01
2.131000000000000000e+03 3.905205154418945312e+01 1.784033584594726562e+01 3.312638401985168457e-02 5.615846514701843262e-01 1.784133017063140869e-01 2.660749256610870361e-01
2.132000000000000000e+03 3.824836730957031250e+01 1.604384994506835938e+01 -5.579116195440292358e-02 5.778950452804565430e-01 1.566311717033386230e-01 2.122615128755569458e-01
2.133000000000000000e+03 3.863246917724609375e+01 1.470626926422119141e+01 -8.767820894718170166e-02 8.459339737892150879e-01 2.274767309427261353e-01 2.911139726638793945e-01
2.134000000000000000e+03 3.878475952148437500e+01 1.405547714233398438e+01 -1.057136207818984985e-01 9.652708172798156738e-01 2.578671574592590332e-01 3.189861178398132324e-01
2.135000000000000000e+03 3.812125015258789062e+01 1.914487838745117188e+01 3.247373923659324646e-02 1.139152273535728455e-01 4.391669109463691711e-02 6.882736086845397949e-02
2.136000000000000000e+03 3.684384918212890625e+01 1.597038078308105469e+01 -1.130814850330352783e-01 2.183530926704406738e-01 3.158148005604743958e-02 3.097160719335079193e-02
2.137000000000000000e+03 3.706921005249023438e+01 1.447883033752441406e+01 -1.328596025705337524e-01 4.607458710670471191e-01 9.836588054895401001e-02 1.157487109303474426e-01
2.138000000000000000e+03 3.700901412963867188e+01 1.380185413360595703e+01 -1.562467664480209351e-01 5.263006091117858887e-01 1.110161542892456055e-01 1.298002749681472778e-01
2.139000000000000000e+03 3.623306274414062500e+01 1.705284118652343750e+01 -1.063487753272056580e-01 -8.221308887004852295e-02 -5.656855925917625427e-02 -1.003147736191749573e-01
2.140000000000000000e+03 3.589366912841796875e+01 1.426754188537597656e+01 -1.868716329336166382e-01 2.058566212654113770e-01 5.695496685802936554e-03 -1.443175226449966431e-02
2.141000000000000000e+03 3.550114440917968750e+01 1.552771186828613281e+01 -1.783389300107955933e-01 -6.844262778759002686e-02 -7.403446733951568604e-02 -1.279386132955551147e-01
2.142000000000000000e+03 3.440523910522460938e+01 1.494900417327880859e+01 -2.499512135982513428e-01 -2.459044754505157471e-01 -1.487567126750946045e-01 -2.407597005367279053e-01
2.143000000000000000e+03 3.382414627075195312e+01 1.434305381774902344e+01 -3.019877970218658447e-01 -2.912057638168334961e-01 -1.779580563306808472e-01 -2.982993721961975098e-01
2.144000000000000000e+03 3.352728271484375000e+01 1.407393455505371094e+01 -3.334248661994934082e-01 -3.208137750625610352e-01 -1.962715983390808105e-01 -3.246622979640960693e-01
2.145000000000000000e+03 7.670798492431640625e+01 2.406478971242904663e-01 -3.515055775642395020e-02 8.972836494445800781e+00 2.681305885314941406e+00 -1.045876815915107727e-01
2.146000000000000000e+03 7.557523345947265625e+01 1.543697595596313477e+00 -6.593845039606094360e-02 8.752419471740722656e+00 2.605944395065307617e+00 -1.639666110277175903e-01
2.147000000000000000e+03 7.391972351074218750e+01 4.683617591857910156e+00 -1.345208585262298584e-01 8.405290603637695312e+00 2.481230974197387695e+00 -3.153727352619171143e-01
2.148000000000000000e+03 7.182286834716796875e+01 6.346364498138427734e+00 -2.239741683006286621e-01 8.132374763488769531e+00 2.372520208358764648e+00 -4.293448328971862793e-01
2.149000000000000000e+03 6.984865570068359375e+01 8.233033180236816406e+00 -3.519986867904663086e-01 7.914760589599609375e+00 2.268828392028808594e+00 -5.426851511001586914e-01
2.150000000000000000e+03 6.965539550781250000e+01 9.792777061462402344e+00 -3.724842965602874756e-01 7.902258396148681641e+00 2.258932352066040039e+00 -6.130986213684082031e-01
2.151000000000000000e+03 6.794078826904296875e+01 9.447682380676269531e+00 -4.561522901058197021e-01 7.781624317169189453e+00 2.197641611099243164e+00 -5.843271017074584961e-01
2.152000000000000000e+03 6.657347869873046875e+01 8.464110374450683594e+00 -5.124887228012084961e-01 7.636772155761718750e+00 2.137284994125366211e+00 -5.042368769645690918e-01
2.153000000000000000e+03 6.840361785888671875e+01 4.805530548095703125e+00 -3.625826835632324219e-01 7.769088745117187500e+00 2.221951961517333984e+00 -3.716704845428466797e-01
2.154000000000000000e+03 6.663274383544921875e+01 3.115751981735229492e+00 -4.077704548835754395e-01 7.516148567199707031e+00 2.132513523101806641e+00 -2.715317606925964355e-01
2.155000000000000000e+03 6.696897888183593750e+01 1.407179236412048340e+00 -3.721476495265960693e-01 7.528066635131835938e+00 2.146775722503662109e+00 -2.154706716537475586e-01
2.156000000000000000e+03 7.549813842773437500e+01 4.201297760009765625e-01 -5.641312897205352783e-02 8.767305374145507812e+00 2.613267660140991211e+00 -1.372188478708267212e-01
2.157000000000000000e+03 7.434391021728515625e+01 2.584495782852172852e+00 -1.021040752530097961e-01 8.528410911560058594e+00 2.527891874313354492e+00 -2.270938009023666382e-01
2.158000000000000000e+03 7.111520385742187500e+01 4.957962512969970703e+00 -2.454579919576644897e-01 8.064909934997558594e+00 2.345835685729980469e+00 -3.767309486865997314e-01
2.159000000000000000e+03 6.980136108398437500e+01 7.445016384124755859e+00 -3.429541885852813721e-01 7.918355464935302734e+00 2.272620439529418945e+00 -5.009376406669616699e-01
2.160000000000000000e+03 6.893845367431640625e+01 8.217870712280273438e+00 -4.159307181835174561e-01 7.845049381256103516e+00 2.228735685348510742e+00 -5.312709808349609375e-01
2.161000000000000000e+03 6.761209869384765625e+01 7.784395694732666016e+00 -4.523480832576751709e-01 7.727481365203857422e+00 2.182539939880371094e+00 -4.977030754089355469e-01
2.162000000000000000e+03 7.438176727294921875e+01 5.992152094841003418e-01 -9.206791967153549194e-02 8.586919784545898438e+00 2.548455715179443359e+00 -1.680535227060317993e-01
2.163000000000000000e+03 7.331690979003906250e+01 7.170934081077575684e-01 -1.239703670144081116e-01 8.401474952697753906e+00 2.483251333236694336e+00 -1.881400048732757568e-01
2.164000000000000000e+03 7.187557220458984375e+01 3.043550968170166016e+00 -1.954641938209533691e-01 8.181788444519042969e+00 2.395897388458251953e+00 -2.899229228496551514e-01
2.165000000000000000e+03 6.947002410888671875e+01 5.384052276611328125e+00 -3.239795565605163574e-01 7.883134365081787109e+00 2.267746448516845703e+00 -3.966091871261596680e-01
2.166000000000000000e+03 6.890625000000000000e+01 6.351009368896484375e+00 -3.632676303386688232e-01 7.827044010162353516e+00 2.239132881164550781e+00 -4.442006051540374756e-01
2.167000000000000000e+03 6.772435760498046875e+01 5.812307357788085938e+00 -4.048606753349304199e-01 7.707651138305664062e+00 2.190837144851684570e+00 -4.069283902645111084e-01
2.168000000000000000e+03 7.255561828613281250e+01 1.189605474472045898e+00 -1.479101628065109253e-01 8.291083335876464844e+00 2.442952156066894531e+00 -2.125743478536605835e-01
2.169000000000000000e+03 7.050610351562500000e+01 3.614445447921752930e+00 -2.585794031620025635e-01 7.997032642364501953e+00 2.321535825729370117e+00 -3.219723105430603027e-01
2.170000000000000000e+03 6.906259155273437500e+01 3.948728322982788086e+00 -3.237586915493011475e-01 7.836122512817382812e+00 2.253709077835083008e+00 -3.338604867458343506e-01
2.171000000000000000e+03 6.826090240478515625e+01 3.230979204177856445e+00 -3.418909013271331787e-01 7.734727382659912109e+00 2.217850923538208008e+00 -3.035161197185516357e-01
2.172000000000000000e+03 6.741674804687500000e+01 4.057105064392089844e+00 -3.930732905864715576e-01 7.635011672973632812e+00 2.172581434249877930e+00 -3.238148093223571777e-01
2.173000000000000000e+03 7.113649749755859375e+01 1.704480171203613281e+00 -2.072455137968063354e-01 8.098944664001464844e+00 2.367509841918945312e+00 -2.417793422937393188e-01
2.174000000000000000e+03 6.963471221923828125e+01 3.207789897918701172e+00 -2.898658812046051025e-01 7.895909786224365234e+00 2.281813144683837891e+00 -3.049945831298828125e-01
2.175000000000000000e+03 6.761364746093750000e+01 2.342931509017944336e+00 -3.582342863082885742e-01 7.636976242065429688e+00 2.183622598648071289e+00 -2.616298496723175049e-01
2.176000000000000000e+03 6.869774627685546875e+01 1.633084058761596680e+00 -2.997138202190399170e-01 7.778113365173339844e+00 2.243520021438598633e+00 -2.415271103382110596e-01
2.177000000000000000e+03 6.528887176513671875e+01 1.236012816429138184e+00 -4.214720129966735840e-01 7.315870761871337891e+00 2.068319559097290039e+00 -1.839315295219421387e-01
2.178000000000000000e+03 6.450054931640625000e+01 2.034419775009155273e+00 -4.673950672149658203e-01 7.211929798126220703e+00 2.023360490798950195e+00 -1.872595101594924927e-01
2.179000000000000000e+03 6.316906356811523438e+01 3.708345890045166016e+00 -5.404047369956970215e-01 7.076609134674072266e+00 1.960861206054687500e+00 -2.030729651451110840e-01
2.180000000000000000e+03 6.190598297119140625e+01 5.542546272277832031e+00 -6.180427074432373047e-01 6.967251300811767578e+00 1.904762625694274902e+00 -2.010696083307266235e-01
2.181000000000000000e+03 5.862874603271484375e+01 7.391648769378662109e+00 -7.223684191703796387e-01 6.547869205474853516e+00 1.747650265693664551e+00 -4.050611332058906555e-02
2.182000000000000000e+03 5.702686309814453125e+01 9.512290000915527344e+00 -7.741194963455200195e-01 6.403026580810546875e+00 1.688672184944152832e+00 7.481690496206283569e-02
2.183000000000000000e+03 5.617782974243164062e+01 9.356468200683593750e+00 -7.655917406082153320e-01 6.203403949737548828e+00 1.631343722343444824e+00 1.428256332874298096e-01
2.184000000000000000e+03 5.463608169555664062e+01 9.032689094543457031e+00 -7.256879210472106934e-01 5.808650016784667969e+00 1.524888634681701660e+00 2.534349262714385986e-01
2.185000000000000000e+03 5.497278594970703125e+01 8.437705993652343750e+00 -7.190446853637695312e-01 5.845165729522705078e+00 1.537836313247680664e+00 2.199397385120391846e-01
2.186000000000000000e+03 5.488759613037109375e+01 6.963932037353515625e+00 -6.888518929481506348e-01 5.756477355957031250e+00 1.520287632942199707e+00 1.940434277057647705e-01
2.187000000000000000e+03 5.480399322509765625e+01 4.788366794586181641e+00 -6.318913102149963379e-01 5.615237236022949219e+00 1.495003819465637207e+00 1.619814038276672363e-01
2.188000000000000000e+03 5.520502471923828125e+01 2.786821842193603516e+00 -6.019525527954101562e-01 5.627058029174804688e+00 1.507531642913818359e+00 1.247886195778846741e-01
2.189000000000000000e+03 5.437220001220703125e+01 1.726894021034240723e+00 -5.675927400588989258e-01 5.403300762176513672e+00 1.450712323188781738e+00 1.387602984905242920e-01
2.190000000000000000e+03 6.289234924316406250e+01 1.064748644828796387e+00 -4.806840121746063232e-01 6.952343940734863281e+00 1.941497921943664551e+00 -1.216968595981597900e-01
2.191000000000000000e+03 6.114597702026367188e+01 3.574267387390136719e+00 -5.855898261070251465e-01 6.764295578002929688e+00 1.853611707687377930e+00 -1.208951324224472046e-01
2.192000000000000000e+03 5.921006011962890625e+01 5.226180553436279297e+00 -6.528186798095703125e-01 6.520939826965332031e+00 1.760436296463012695e+00 -5.749482661485671997e-02
2.193000000000000000e+03 5.773045730590820312e+01 7.869262218475341797e+00 -7.406648397445678711e-01 6.386415958404541016e+00 1.693725347518920898e+00 2.596823498606681824e-02
2.194000000000000000e+03 5.526125717163085938e+01 7.556466579437255859e+00 -7.081728577613830566e-01 5.874923706054687500e+00 1.550025224685668945e+00 1.771994978189468384e-01
2.195000000000000000e+03 5.692328262329101562e+01 7.063930988311767578e+00 -7.134314179420471191e-01 6.193137168884277344e+00 1.643911719322204590e+00 6.850170344114303589e-02
2.196000000000000000e+03 6.158406448364257812e+01 -4.970083534717559814e-01 -4.852274656295776367e-01 6.713726997375488281e+00 1.868549942970275879e+00 -5.728083476424217224e-02
2.197000000000000000e+03 5.840863037109375000e+01 3.669466257095336914e+00 -6.281605362892150879e-01 6.292717933654785156e+00 1.699367165565490723e+00 -3.940916620194911957e-03
2.198000000000000000e+03 5.766555023193359375e+01 6.021408557891845703e+00 -6.918764710426330566e-01 6.276657104492187500e+00 1.675434112548828125e+00 3.160971775650978088e-02
2.199000000000000000e+03 5.669909286499023438e+01 5.501313209533691406e+00 -6.688756346702575684e-01 6.060957431793212891e+00 1.617624521255493164e+00 6.409021466970443726e-02
2.200000000000000000e+03 5.615719985961914062e+01 4.872199535369873047e+00 -6.552539467811584473e-01 5.926333427429199219e+00 1.581323862075805664e+00 9.447254240512847900e-02
2.201000000000000000e+03 6.041511535644531250e+01 -1.334186643362045288e-01 -5.151699185371398926e-01 6.521718502044677734e+00 1.801964640617370605e+00 -3.099357709288597107e-02
2.202000000000000000e+03 5.898565673828125000e+01 1.954791426658630371e+00 -5.744100809097290039e-01 6.330876827239990234e+00 1.726940035820007324e+00 -1.476434525102376938e-02
2.203000000000000000e+03 5.695887374877929688e+01 3.650869369506835938e+00 -6.272071003913879395e-01 6.030887603759765625e+00 1.621104121208190918e+00 5.101350694894790649e-02
2.204000000000000000e+03 5.606900024414062500e+01 3.810647726058959961e+00 -6.281477212905883789e-01 5.848696231842041016e+00 1.566164493560791016e+00 9.629205614328384399e-02
2.205000000000000000e+03 5.648638916015625000e+01 3.361524105072021484e+00 -6.202178597450256348e-01 5.926534175872802734e+00 1.591894865036010742e+00 7.181274890899658203e-02
2.206000000000000000e+03 5.503295135498046875e+01 3.720221519470214844e+00 -6.165283322334289551e-01 5.634829044342041016e+00 1.505490303039550781e+00 1.399891525506973267e-01
2.207000000000000000e+03 5.768762969970703125e+01 6.358776688575744629e-01 -5.543471574783325195e-01 6.064890861511230469e+00 1.653163075447082520e+00 2.771880850195884705e-02
2.208000000000000000e+03 5.738735580444335938e+01 2.310491800308227539e+00 -5.945623517036437988e-01 6.060119628906250000e+00 1.639667153358459473e+00 3.436318412423133850e-02
2.209000000000000000e+03 5.568386077880859375e+01 2.298288345336914062e+00 -5.932965874671936035e-01 5.715573310852050781e+00 1.536683082580566406e+00 9.929142892360687256e-02
2.210000000000000000e+03 5.601799392700195312e+01 1.171589612960815430e+00 -5.736630558967590332e-01 5.745317459106445312e+00 1.551496267318725586e+00 8.367338776588439941e-02
2.211000000000000000e+03 5.507567214965820312e+01 1.883337616920471191e+00 -5.810679197311401367e-01 5.579340934753417969e+00 1.499481916427612305e+00 1.175027564167976379e-01
2.212000000000000000e+03 5.656555557250976562e+01 2.940585613250732422e-01 -5.562227368354797363e-01 5.835501194000244141e+00 1.583783507347106934e+00 6.821944564580917358e-02
2.213000000000000000e+03 5.333341598510742188e+01 6.359943747520446777e-02 -5.267366766929626465e-01 5.154282093048095703e+00 1.388263583183288574e+00 1.385197788476943970e-01
2.214000000000000000e+03 5.140851593017578125e+01 2.704105854034423828e+00 -5.267147421836853027e-01 4.772878646850585938e+00 1.273849129676818848e+00 2.290969789028167725e-01
2.215000000000000000e+03 4.915556716918945312e+01 3.991389274597167969e+00 -4.706301391124725342e-01 4.226641178131103516e+00 1.126803278923034668e+00 3.166007697582244873e-01
2.216000000000000000e+03 4.712360382080078125e+01 6.004394531250000000e+00 -4.019682407379150391e-01 3.708078384399414062e+00 9.918330311775207520e-01 4.225859045982360840e-01
2.217000000000000000e+03 4.493656921386718750e+01 8.222575187683105469e+00 -3.080951273441314697e-01 3.079054355621337891e+00 8.312878012657165527e-01 5.145130753517150879e-01
2.218000000000000000e+03 4.391073226928710938e+01 8.789321899414062500e+00 -2.607080042362213135e-01 2.775427103042602539e+00 7.544157505035400391e-01 5.264376997947692871e-01
2.219000000000000000e+03 4.438831710815429688e+01 8.322031974792480469e+00 -2.807480692863464355e-01 2.921800374984741211e+00 7.923157215118408203e-01 5.153381228446960449e-01
2.220000000000000000e+03 4.205220031738281250e+01 7.790439605712890625e+00 -1.940913945436477661e-01 2.268534898757934570e+00 6.223330497741699219e-01 4.471423327922821045e-01
2.221000000000000000e+03 4.258633041381835938e+01 8.646601676940917969e+00 -2.128121405839920044e-01 2.392341613769531250e+00 6.538588404655456543e-01 4.894353449344635010e-01
2.222000000000000000e+03 4.252386856079101562e+01 6.451441287994384766e+00 -2.018427550792694092e-01 2.416908979415893555e+00 6.645199060440063477e-01 4.077371656894683838e-01
2.223000000000000000e+03 4.213508987426757812e+01 4.540968894958496094e+00 -1.871307492256164551e-01 2.372411251068115234e+00 6.555840969085693359e-01 3.281052410602569580e-01
2.224000000000000000e+03 4.224303054809570312e+01 2.559524774551391602e+00 -2.000558078289031982e-01 2.433752059936523438e+00 6.701088547706604004e-01 2.444578111171722412e-01
2.225000000000000000e+03 4.298338699340820312e+01 1.774515748023986816e+00 -2.313825190067291260e-01 2.634492635726928711e+00 7.209330201148986816e-01 2.258847206830978394e-01
2.226000000000000000e+03 4.204198074340820312e+01 2.064178735017776489e-01 -2.016557306051254272e-01 2.422653675079345703e+00 6.662993431091308594e-01 1.520784199237823486e-01
2.227000000000000000e+03 5.146500015258789062e+01 2.485137283802032471e-01 -4.983674585819244385e-01 4.745153427124023438e+00 1.274035811424255371e+00 1.715922504663467407e-01
2.228000000000000000e+03 5.122034835815429688e+01 9.860590100288391113e-01 -5.022715330123901367e-01 4.689872264862060547e+00 1.256280183792114258e+00 1.915390491485595703e-01
2.229000000000000000e+03 4.930775070190429688e+01 2.464920282363891602e+00 -4.642664492130279541e-01 4.246857643127441406e+00 1.134777307510375977e+00 2.635924518108367920e-01
2.230000000000000000e+03 4.770470046997070312e+01 4.537080287933349609e+00 -4.206879734992980957e-01 3.860458135604858398e+00 1.031931042671203613e+00 3.537173569202423096e-01
2.231000000000000000e+03 4.558317565917968750e+01 5.893723964691162109e+00 -3.315777778625488281e-01 3.283468008041381836e+00 8.855670094490051270e-01 4.204714000225067139e-01
2.232000000000000000e+03 4.381853866577148438e+01 7.168008804321289062e+00 -2.613353729248046875e-01 2.783912181854248047e+00 7.567730545997619629e-01 4.574842751026153564e-01
2.233000000000000000e+03 4.327256011962890625e+01 6.289508342742919922e+00 -2.382490485906600952e-01 2.655012369155883789e+00 7.250289916992187500e-01 4.123071134090423584e-01
2.234000000000000000e+03 4.185145950317382812e+01 6.845904350280761719e+00 -1.812941581010818481e-01 2.238074541091918945e+00 6.170340776443481445e-01 4.060901403427124023e-01
2.235000000000000000e+03 4.980262374877929688e+01 5.503109097480773926e-01 -4.605633914470672607e-01 4.350637912750244141e+00 1.167022347450256348e+00 1.989941149950027466e-01
2.236000000000000000e+03 5.051670455932617188e+01 7.381033301353454590e-01 -4.799694418907165527e-01 4.528584003448486328e+00 1.214584350585937500e+00 1.951247900724411011e-01
2.237000000000000000e+03 4.803921508789062500e+01 3.011883735656738281e+00 -4.227067232131958008e-01 3.938249588012695312e+00 1.054662823677062988e+00 2.921873033046722412e-01
2.238000000000000000e+03 4.539747619628906250e+01 4.187499523162841797e+00 -3.238955140113830566e-01 3.242441892623901367e+00 8.755639195442199707e-01 3.449250459671020508e-01
2.239000000000000000e+03 4.402930831909179688e+01 4.805723667144775391e+00 -2.674829363822937012e-01 2.857928752899169922e+00 7.771337628364562988e-01 3.589135110378265381e-01
2.240000000000000000e+03 4.450817108154296875e+01 4.288395881652832031e+00 -2.871167361736297607e-01 3.003957271575927734e+00 8.150521516799926758e-01 3.429490029811859131e-01
2.241000000000000000e+03 4.169943618774414062e+01 4.808989048004150391e+00 -1.727897524833679199e-01 2.248275518417358398e+00 6.226456761360168457e-01 3.210257887840270996e-01
2.242000000000000000e+03 4.762467956542968750e+01 4.209858775138854980e-01 -3.967040181159973145e-01 3.811850070953369141e+00 1.024543762207031250e+00 2.029033005237579346e-01
2.243000000000000000e+03 4.904698944091796875e+01 1.108861804008483887e+00 -4.441404044628143311e-01 4.174365520477294922e+00 1.119067430496215820e+00 2.205891311168670654e-01
2.244000000000000000e+03 4.602428436279296875e+01 2.307258844375610352e+00 -3.417265415191650391e-01 3.409143447875976562e+00 9.202250838279724121e-01 2.673217058181762695e-01
2.245000000000000000e+03 4.446809387207031250e+01 3.366233110427856445e+00 -2.849805355072021484e-01 3.006963253021240234e+00 8.165947794914245605e-01 3.056789040565490723e-01
2.246000000000000000e+03 4.330612564086914062e+01 3.257490634918212891e+00 -2.341942936182022095e-01 2.683184146881103516e+00 7.346969246864318848e-01 2.869423627853393555e-01
2.247000000000000000e+03 4.282367706298828125e+01 3.211783885955810547e+00 -2.213166803121566772e-01 2.574238061904907227e+00 7.058764100074768066e-01 2.790253758430480957e-01
2.248000000000000000e+03 4.689446258544921875e+01 4.685208797454833984e-01 -3.739061951637268066e-01 3.630448818206787109e+00 9.769627451896667480e-01 2.027980983257293701e-01
2.249000000000000000e+03 4.563422775268554688e+01 8.311476707458496094e-01 -3.320422470569610596e-01 3.308445930480957031e+00 8.929210901260375977e-01 2.195171713829040527e-01
2.250000000000000000e+03 4.369752502441406250e+01 2.003686666488647461e+00 -2.542988061904907227e-01 2.807738304138183594e+00 7.660318613052368164e-01 2.424518913030624390e-01
2.251000000000000000e+03 4.429689788818359375e+01 2.441019296646118164e+00 -2.783170342445373535e-01 2.972391843795776367e+00 8.082224726676940918e-01 2.695502042770385742e-01
2.252000000000000000e+03 4.222201538085937500e+01 1.800525665283203125e+00 -1.972594410181045532e-01 2.435641527175903320e+00 6.715146303176879883e-01 2.123793065547943115e-01
2.253000000000000000e+03 4.468750381469726562e+01 1.038367986679077148e+00 -2.977473437786102295e-01 3.070333719253540039e+00 8.317759037017822266e-01 2.139316648244857788e-01
2.254000000000000000e+03 3.572565841674804688e+01 2.025669097900390625e+00 3.009411273524165154e-03 9.372488856315612793e-01 2.820774912834167480e-01 5.413127690553665161e-02
2.255000000000000000e+03 3.184182357788085938e+01 5.769748210906982422e+00 1.539028137922286987e-01 1.413562893867492676e-01 8.857773244380950928e-02 -5.907710269093513489e-02
2.256000000000000000e+03 2.977246284484863281e+01 5.527583122253417969e+00 6.767497956752777100e-02 1.668858528137207031e-01 7.036825269460678101e-02 -2.010722756385803223e-01
2.257000000000000000e+03 3.341572570800781250e+01 2.009598016738891602e-01 -2.089815400540828705e-02 5.840681195259094238e-01 1.689509898424148560e-01 -2.059125341475009918e-02
2.258000000000000000e+03 3.335000991821289062e+01 1.659130811691284180e+00 2.042855322360992432e-02 5.391286611557006836e-01 1.678671538829803467e-01 -2.023578062653541565e-02
2.259000000000000000e+03 3.180236625671386719e+01 3.507234573364257812e+00 7.063440233469009399e-02 2.747733294963836670e-01 1.036223247647285461e-01 -7.355722039937973022e-02
2.260000000000000000e+03 2.943849372863769531e+01 3.926158666610717773e+00 3.792035207152366638e-02 7.390765100717544556e-02 3.354839980602264404e-02 -9.120495617389678955e-02
2.261000000000000000e+03 3.267579269409179688e+01 -4.762100428342819214e-02 -3.432503342628479004e-02 4.717013835906982422e-01 1.312129050493240356e-01 -3.149832785129547119e-02
2.262000000000000000e+03 3.040177536010742188e+01 4.894108176231384277e-01 -5.604667961597442627e-02 1.602810621261596680e-01 3.127031400799751282e-02 -4.576397314667701721e-02
2.263000000000000000e+03 2.330590248107910156e+01 -1.261087417602539062e+00 -9.763615727424621582e-01 -2.914150357246398926e-01 -3.803329765796661377e-01 4.024958312511444092e-01
2.264000000000000000e+03 2.442540550231933594e+01 -3.263532400131225586e+00 -5.833985805511474609e-01 -5.196267962455749512e-01 -3.309076130390167236e-01 5.262886285781860352e-01
2.265000000000000000e+03 2.587209701538085938e+01 -3.280026674270629883e+00 -4.839915633201599121e-01 -3.799585700035095215e-01 -2.591850459575653076e-01 3.864913880825042725e-01
2.266000000000000000e+03 2.832229232788085938e+01 -1.375495791435241699e+00 -2.313233315944671631e-01 -5.648933351039886475e-02 -8.634380251169204712e-02 6.349254399538040161e-02
2.267000000000000000e+03 2.954434967041015625e+01 -2.071382999420166016e+00 -1.967746615409851074e-01 2.395755983889102936e-02 -5.184512957930564880e-02 6.051688268780708313e-02
2.268000000000000000e+03 3.076589393615722656e+01 -1.635931730270385742e+00 -1.291059851646423340e-01 1.780019849538803101e-01 1.466879900544881821e-02 1.008559856563806534e-02
2.269000000000000000e+03 3.397011947631835938e+01 -2.282787561416625977e+00 -9.042100608348846436e-02 7.050663232803344727e-01 1.843935996294021606e-01 -7.763882167637348175e-03
2.270000000000000000e+03 3.479280853271484375e+01 -1.910786986351013184e+00 -8.121832460165023804e-02 8.399002552032470703e-01 2.276045680046081543e-01 -3.095039632171392441e-03
2.271000000000000000e+03 3.799480819702148438e+01 -2.134770870208740234e+00 -1.242706626653671265e-01 1.510543823242187500e+00 4.158819317817687988e-01 2.544822171330451965e-02
2.272000000000000000e+03 3.859788513183593750e+01 -2.440273523330688477e+00 -1.480195969343185425e-01 1.648218631744384766e+00 4.500597119331359863e-01 2.854079380631446838e-02
2.273000000000000000e+03 3.987474441528320312e+01 -2.927425146102905273e+00 -1.814600378274917603e-01 1.949962615966796875e+00 5.305507779121398926e-01 3.222104907035827637e-02
2.274000000000000000e+03 4.211015319824218750e+01 -2.316146135330200195e+00 -2.318132370710372925e-01 2.466972827911376953e+00 6.705478429794311523e-01 7.676391303539276123e-02
2.275000000000000000e+03 4.419375991821289062e+01 -1.185656905174255371e+00 -2.876464426517486572e-01 2.963602066040039062e+00 8.027866482734680176e-01 1.380423307418823242e-01
2.276000000000000000e+03 4.589700317382812500e+01 -1.264798879623413086e+00 -3.442052602767944336e-01 3.401897192001342773e+00 9.173075556755065918e-01 1.474773585796356201e-01
2.277000000000000000e+03 4.759493255615234375e+01 -1.780911564826965332e+00 -3.945868015289306641e-01 3.800162792205810547e+00 1.021672844886779785e+00 1.488842815160751343e-01
2.278000000000000000e+03 5.118568420410156250e+01 -2.292667150497436523e+00 -4.671376645565032959e-01 4.654691696166992188e+00 1.256266117095947266e+00 1.224027797579765320e-01
2.279000000000000000e+03 5.306106567382812500e+01 -2.896035671234130859e+00 -4.900485575199127197e-01 5.056861877441406250e+00 1.370043992996215820e+00 1.042825058102607727e-01
2.280000000000000000e+03 5.441468811035156250e+01 -2.384643554687500000e+00 -5.093040466308593750e-01 5.351729869842529297e+00 1.452727794647216797e+00 9.562264382839202881e-02
2.281000000000000000e+03 5.572965621948242188e+01 -1.641623139381408691e+00 -5.233004689216613770e-01 5.617061614990234375e+00 1.528128385543823242e+00 7.704670727252960205e-02
2.282000000000000000e+03 5.736125183105468750e+01 -1.560515999794006348e+00 -5.212179422378540039e-01 5.938971042633056641e+00 1.625325918197631836e+00 5.509303137660026550e-02
2.283000000000000000e+03 5.807403564453125000e+01 -1.286424040794372559e+00 -5.237116813659667969e-01 6.094059467315673828e+00 1.671104311943054199e+00 3.330726921558380127e-02
2.284000000000000000e+03 2.814904403686523438e+01 -2.096132516860961914e+00 -2.823043763637542725e-01 -1.030388474464416504e-01 -1.156029701232910156e-01 1.228201240301132202e-01
2.285000000000000000e+03 3.037145423889160156e+01 -2.552022218704223633e+00 -1.693552434444427490e-01 1.021372750401496887e-01 -2.016539126634597778e-02 5.355373024940490723e-02
2.286000000000000000e+03 3.203026580810546875e+01 -1.468892097473144531e+00 -9.026067703962326050e-02 3.782648444175720215e-01 8.640124648809432983e-02 -1.323626562952995300e-02
2.287000000000000000e+03 3.369997406005859375e+01 -1.515435814857482910e+00 -7.565540075302124023e-02 6.495107412338256836e-01 1.721566021442413330e-01 -1.278603542596101761e-02
2.288000000000000000e+03 3.741279220581054688e+01 -1.792902827262878418e+00 -1.115957051515579224e-01 1.376194238662719727e+00 3.793795704841613770e-01 2.586806751787662506e-02
2.289000000000000000e+03 3.922562026977539062e+01 -2.707305908203125000e+00 -1.586199849843978882e-01 1.792353034019470215e+00 4.901199340820312500e-01 3.146350011229515076e-02
2.290000000000000000e+03 4.031799697875976562e+01 -1.637647271156311035e+00 -1.779968142509460449e-01 2.040308475494384766e+00 5.586934685707092285e-01 7.493107765913009644e-02
2.291000000000000000e+03 4.244307708740234375e+01 -1.602873563766479492e+00 -2.397766709327697754e-01 2.532248020172119141e+00 6.877413988113403320e-01 1.005173847079277039e-01
2.292000000000000000e+03 4.431379699707031250e+01 -3.439200818538665771e-01 -2.892158329486846924e-01 2.984944820404052734e+00 8.087186813354492188e-01 1.699884533882141113e-01
2.293000000000000000e+03 4.502265930175781250e+01 -1.246417164802551270e+00 -3.197908401489257812e-01 3.167000293731689453e+00 8.541628122329711914e-01 1.430179327726364136e-01
2.294000000000000000e+03 4.693669891357421875e+01 -1.899943351745605469e+00 -3.732208609580993652e-01 3.652256965637207031e+00 9.837108254432678223e-01 1.323424726724624634e-01
2.295000000000000000e+03 4.837628936767578125e+01 -1.111910462379455566e+00 -4.138725996017456055e-01 4.009013652801513672e+00 1.078542232513427734e+00 1.620043516159057617e-01
2.296000000000000000e+03 5.097367095947265625e+01 -1.540701508522033691e+00 -4.709680378437042236e-01 4.612194061279296875e+00 1.242367744445800781e+00 1.379410177469253540e-01
2.297000000000000000e+03 5.301739120483398438e+01 -1.189402222633361816e+00 -5.049465894699096680e-01 5.082142829895019531e+00 1.373158931732177734e+00 1.185459569096565247e-01
2.298000000000000000e+03 5.423284149169921875e+01 -1.106178283691406250e+00 -5.205894112586975098e-01 5.311491966247558594e+00 1.437270760536193848e+00 1.093174442648887634e-01
2.299000000000000000e+03 5.608536148071289062e+01 -1.064433574676513672e+00 -5.369119644165039062e-01 5.682485580444335938e+00 1.543672084808349609e+00 7.259794324636459351e-02
2.300000000000000000e+03 2.892401885986328125e+01 -3.888945341110229492e+00 -2.566757500171661377e-01 -1.277653425931930542e-01 -1.153323277831077576e-01 1.882203966379165649e-01
2.301000000000000000e+03 3.071004295349121094e+01 -6.160394668579101562e+00 -2.623386681079864502e-01 -2.155266515910625458e-02 -8.516740053892135620e-02 1.565575003623962402e-01
2.302000000000000000e+03 3.232278442382812500e+01 -8.329193115234375000e+00 -2.237264215946197510e-01 1.988268792629241943e-01 -7.469860371202230453e-03 1.255992054939270020e-01
2.303000000000000000e+03 3.499971008300781250e+01 -9.468703269958496094e+00 -1.930875927209854126e-01 7.775299549102783203e-01 1.753327101469039917e-01 3.651505801826715469e-03
2.304000000000000000e+03 3.699883651733398438e+01 -1.117795467376708984e+01 -1.925730258226394653e-01 1.188274145126342773e+00 2.987103164196014404e-01 -8.972533047199249268e-02
2.305000000000000000e+03 3.791906356811523438e+01 -1.352299404144287109e+01 -1.832423806190490723e-01 1.400172233581542969e+00 3.650789558887481689e-01 -1.551926583051681519e-01
2.306000000000000000e+03 3.881912994384765625e+01 -1.454881381988525391e+01 -1.856590211391448975e-01 1.626792907714843750e+00 4.323401749134063721e-01 -1.954813450574874878e-01
2.307000000000000000e+03 4.068141937255859375e+01 -1.690742683410644531e+01 -1.871841102838516235e-01 2.156511545181274414e+00 5.907982587814331055e-01 -2.857063114643096924e-01
2.308000000000000000e+03 4.298634719848632812e+01 -1.856724357604980469e+01 -2.497800588607788086e-01 2.895308971405029297e+00 7.936587333679199219e-01 -3.306936919689178467e-01
2.309000000000000000e+03 4.640197372436523438e+01 -2.042728996276855469e+01 -3.179846107959747314e-01 3.974523067474365234e+00 1.096961498260498047e+00 -2.486765980720520020e-01
2.310000000000000000e+03 4.832437515258789062e+01 -2.031417083740234375e+01 -3.496975004673004150e-01 4.475485324859619141e+00 1.237736344337463379e+00 -1.076140403747558594e-01
2.311000000000000000e+03 4.862885284423828125e+01 -2.180391502380371094e+01 -3.153877258300781250e-01 4.621802330017089844e+00 1.291924476623535156e+00 -9.086727350950241089e-02
2.312000000000000000e+03 3.064988327026367188e+01 -3.252392768859863281e+00 -1.789607256650924683e-01 1.189091503620147705e-01 -1.801547221839427948e-02 6.248286366462707520e-02
2.313000000000000000e+03 3.228480911254882812e+01 -3.831630706787109375e+00 -1.545292735099792480e-01 3.834022879600524902e-01 6.866190582513809204e-02 2.147866599261760712e-02
2.314000000000000000e+03 3.364884948730468750e+01 -4.549850940704345703e+00 -1.516041606664657593e-01 6.229167580604553223e-01 1.413937807083129883e-01 6.329392082989215851e-03
2.315000000000000000e+03 3.433253479003906250e+01 -3.088959932327270508e+00 -1.113517880439758301e-01 7.636808753013610840e-01 1.956987231969833374e-01 -4.699950106441974640e-03
2.316000000000000000e+03 3.790742492675781250e+01 -3.852296113967895508e+00 -1.609435826539993286e-01 1.502433061599731445e+00 4.024468362331390381e-01 -2.045915694907307625e-03
2.317000000000000000e+03 3.864660644531250000e+01 -4.127847194671630859e+00 -1.742480099201202393e-01 1.677108407020568848e+00 4.508581161499023438e-01 -5.623415112495422363e-03
2.318000000000000000e+03 3.966150283813476562e+01 -3.627023696899414062e+00 -1.852054148912429810e-01 1.900159835815429688e+00 5.144863128662109375e-01 1.723659969866275787e-02
2.319000000000000000e+03 4.168021011352539062e+01 -2.858907699584960938e+00 -2.261006385087966919e-01 2.377600669860839844e+00 6.454499959945678711e-01 5.167260766029357910e-02
2.320000000000000000e+03 4.323023986816406250e+01 -3.540285825729370117e+00 -2.764284908771514893e-01 2.761328458786010742e+00 7.454699873924255371e-01 5.730539932847023010e-02
2.321000000000000000e+03 4.499487686157226562e+01 -2.950278520584106445e+00 -3.225659728050231934e-01 3.193389892578125000e+00 8.612471818923950195e-01 9.081705659627914429e-02
2.322000000000000000e+03 4.715071487426757812e+01 -3.746026992797851562e+00 -3.803155720233917236e-01 3.737407445907592773e+00 1.007127523422241211e+00 8.958204090595245361e-02
2.323000000000000000e+03 4.882352828979492188e+01 -4.432905673980712891e+00 -4.158735871315002441e-01 4.125564098358154297e+00 1.112907171249389648e+00 8.068951964378356934e-02
2.324000000000000000e+03 5.079836654663085938e+01 -4.717960834503173828e+00 -4.493147134780883789e-01 4.579321861267089844e+00 1.239002227783203125e+00 9.326091408729553223e-02
2.325000000000000000e+03 5.430335617065429688e+01 -4.413227558135986328e+00 -4.779383242130279541e-01 5.317732810974121094e+00 1.451938390731811523e+00 8.920304477214813232e-02
2.326000000000000000e+03 5.646492767333984375e+01 -3.766692399978637695e+00 -4.886478185653686523e-01 5.734802246093750000e+00 1.573846340179443359e+00 6.974418461322784424e-02
2.327000000000000000e+03 5.742713165283203125e+01 -3.807111263275146484e+00 -4.860018491744995117e-01 5.928915500640869141e+00 1.632874131202697754e+00 6.066885590553283691e-02
2.328000000000000000e+03 5.797506713867187500e+01 -2.417405843734741211e+00 -5.099195837974548340e-01 6.045963764190673828e+00 1.660813212394714355e+00 4.091183841228485107e-02
2.329000000000000000e+03 2.984492492675781250e+01 -3.625385284423828125e+00 -2.165978252887725830e-01 -1.102801319211721420e-02 -6.828775256872177124e-02 1.189784705638885498e-01
2.330000000000000000e+03 3.277201461791992188e+01 -3.176486015319824219e+00 -1.319628059864044189e-01 4.740578830242156982e-01 1.026285216212272644e-01 9.671465493738651276e-03
2.331000000000000000e+03 3.409975433349609375e+01 -3.795235157012939453e+00 -1.436369419097900391e-01 7.162876129150390625e-01 1.717952042818069458e-01 7.602847763337194920e-04
2.332000000000000000e+03 3.541828536987304688e+01 -3.414087295532226562e+00 -1.249800622463226318e-01 9.638224840164184570e-01 2.516527175903320312e-01 -1.118232030421495438e-02
2.333000000000000000e+03 3.762000656127929688e+01 -2.806237459182739258e+00 -1.365070939064025879e-01 1.432772278785705566e+00 3.888795375823974609e-01 1.096787396818399429e-02
2.334000000000000000e+03 3.941284561157226562e+01 -4.354229450225830078e+00 -1.955502629280090332e-01 1.859871864318847656e+00 4.992964863777160645e-01 3.311294130980968475e-03
2.335000000000000000e+03 4.052812576293945312e+01 -3.080056667327880859e+00 -1.950858086347579956e-01 2.111718893051147461e+00 5.749899744987487793e-01 3.952753543853759766e-02
2.336000000000000000e+03 4.203311538696289062e+01 -3.390328407287597656e+00 -2.425778508186340332e-01 2.472036361694335938e+00 6.688375473022460938e-01 4.142257943749427795e-02
2.337000000000000000e+03 4.272966766357421875e+01 -2.798563957214355469e+00 -2.569804191589355469e-01 2.638060331344604492e+00 7.143239378929138184e-01 7.172164320945739746e-02
2.338000000000000000e+03 4.639732360839843750e+01 -2.398947715759277344e+00 -3.601132333278656006e-01 3.530726909637451172e+00 9.511840939521789551e-01 1.225046217441558838e-01
2.339000000000000000e+03 4.804864501953125000e+01 -2.650012969970703125e+00 -4.071715176105499268e-01 3.922384023666381836e+00 1.054563760757446289e+00 1.240413263440132141e-01
2.340000000000000000e+03 4.927646255493164062e+01 -3.654930114746093750e+00 -4.297024607658386230e-01 4.221384525299072266e+00 1.137504696846008301e+00 1.034103110432624817e-01
2.341000000000000000e+03 5.075686645507812500e+01 -3.424762010574340820e+00 -4.571622014045715332e-01 4.537827014923095703e+00 1.224199414253234863e+00 1.118650734424591064e-01
2.342000000000000000e+03 5.269825363159179688e+01 -3.705137491226196289e+00 -4.779376685619354248e-01 4.965439319610595703e+00 1.346250534057617188e+00 9.531598538160324097e-02
2.343000000000000000e+03 5.472929382324218750e+01 -3.642991542816162109e+00 -4.963868558406829834e-01 5.389712810516357422e+00 1.467997789382934570e+00 9.211544692516326904e-02
2.344000000000000000e+03 5.644058227539062500e+01 -2.844410181045532227e+00 -5.004535317420959473e-01 5.738360404968261719e+00 1.571372032165527344e+00 6.897874921560287476e-02
2.345000000000000000e+03 5.858132934570312500e+01 -2.743109464645385742e+00 -4.893505275249481201e-01 6.159561157226562500e+00 1.701063156127929688e+00 3.587257489562034607e-02
2.346000000000000000e+03 6.102429962158203125e+01 -4.174242973327636719e+00 -4.331438839435577393e-01 6.561235904693603516e+00 1.838427543640136719e+00 2.925726585090160370e-02
2.347000000000000000e+03 6.389901733398437500e+01 -4.484531402587890625e+00 -3.666140437126159668e-01 7.016578674316406250e+00 1.994989395141601562e+00 1.075285137630999088e-03
2.348000000000000000e+03 6.378531265258789062e+01 -2.992021799087524414e+00 -3.872269392013549805e-01 7.015445232391357422e+00 1.988465428352355957e+00 -3.479253873229026794e-02
2.349000000000000000e+03 6.240885925292968750e+01 -3.082241535186767578e+00 -4.170778989791870117e-01 6.800802230834960938e+00 1.915117383003234863e+00 -1.274935808032751083e-02
2.350000000000000000e+03 6.633035278320312500e+01 -3.498046636581420898e+00 -3.153064548969268799e-01 7.380614280700683594e+00 2.119592428207397461e+00 -4.533361271023750305e-02
2.351000000000000000e+03 6.806845855712890625e+01 -3.192550182342529297e+00 -2.579301595687866211e-01 7.664145469665527344e+00 2.221864461898803711e+00 -6.415989995002746582e-02
2.352000000000000000e+03 7.255961608886718750e+01 -3.119805097579956055e+00 -1.247804760932922363e-01 8.335662841796875000e+00 2.463264703750610352e+00 -7.708804309368133545e-02
2.353000000000000000e+03 7.606505584716796875e+01 -3.759404897689819336e+00 -3.746407479047775269e-02 8.913237571716308594e+00 2.662731885910034180e+00 -4.406902939081192017e-02
2.354000000000000000e+03 3.037412261962890625e+01 -5.387247562408447266e+00 -2.430514246225357056e-01 -2.322086878120899200e-02 -7.988169044256210327e-02 1.434140950441360474e-01
2.355000000000000000e+03 3.105266761779785156e+01 -3.977368831634521484e+00 -1.871602088212966919e-01 1.595474779605865479e-01 -8.283818140625953674e-03 6.604728102684020996e-02
2.356000000000000000e+03 3.246924591064453125e+01 -4.998323917388916016e+00 -1.738968640565872192e-01 3.843353986740112305e-01 6.313155591487884521e-02 3.670686855912208557e-02
2.357000000000000000e+03 3.294271850585937500e+01 -4.221386909484863281e+00 -1.592168807983398438e-01 4.892501533031463623e-01 9.900998324155807495e-02 1.870509795844554901e-02
2.358000000000000000e+03 3.431828308105468750e+01 -4.877289295196533203e+00 -1.594690829515457153e-01 7.436789870262145996e-01 1.752629727125167847e-01 3.956505097448825836e-03
2.359000000000000000e+03 3.753513336181640625e+01 -4.629225730895996094e+00 -1.682564914226531982e-01 1.425979733467102051e+00 3.773169517517089844e-01 -1.609888300299644470e-02
2.360000000000000000e+03 3.862994003295898438e+01 -6.532524108886718750e+00 -2.028883248567581177e-01 1.676087498664855957e+00 4.419597685337066650e-01 -4.389534145593643188e-02
2.361000000000000000e+03 3.999683380126953125e+01 -5.251437187194824219e+00 -2.204257696866989136e-01 1.985486388206481934e+00 5.295181870460510254e-01 -1.963450945913791656e-02
2.362000000000000000e+03 4.186855316162109375e+01 -5.334785461425781250e+00 -2.559162974357604980e-01 2.443931341171264648e+00 6.564044952392578125e-01 -8.007942698895931244e-03
2.363000000000000000e+03 4.392510223388671875e+01 -5.288935661315917969e+00 -3.085726797580718994e-01 2.958923339843750000e+00 7.951052188873291016e-01 1.610924489796161652e-02
2.364000000000000000e+03 4.588969802856445312e+01 -5.057447910308837891e+00 -3.573243916034698486e-01 3.427551269531250000e+00 9.210680723190307617e-01 4.528063535690307617e-02
2.365000000000000000e+03 4.813414764404296875e+01 -5.803448677062988281e+00 -3.986813724040985107e-01 3.968044042587280273e+00 1.070808768272399902e+00 4.778594523668289185e-02
2.366000000000000000e+03 4.920791625976562500e+01 -6.290152549743652344e+00 -4.224015176296234131e-01 4.217137336730957031e+00 1.138420701026916504e+00 5.458257347345352173e-02
2.367000000000000000e+03 5.230273056030273438e+01 -5.834599018096923828e+00 -4.583940804004669189e-01 4.891437053680419922e+00 1.329912900924682617e+00 7.627069205045700073e-02
2.368000000000000000e+03 5.341620635986328125e+01 -5.938709735870361328e+00 -4.680562913417816162e-01 5.131132602691650391e+00 1.398922920227050781e+00 7.939314097166061401e-02
2.369000000000000000e+03 5.553798675537109375e+01 -5.347746372222900391e+00 -4.779751896858215332e-01 5.562005519866943359e+00 1.525209188461303711e+00 8.294458687305450439e-02
2.370000000000000000e+03 5.828036880493164062e+01 -4.979711532592773438e+00 -4.588313400745391846e-01 6.077126502990722656e+00 1.685488581657409668e+00 6.099667027592658997e-02
2.371000000000000000e+03 5.785295486450195312e+01 -4.365537166595458984e+00 -4.720351696014404297e-01 6.003241062164306641e+00 1.659361720085144043e+00 5.918384715914726257e-02
2.372000000000000000e+03 3.550464248657226562e+01 -4.759235382080078125e+00 -1.576161086559295654e-01 9.834995269775390625e-01 2.477650195360183716e-01 -1.473398227244615555e-02
2.373000000000000000e+03 3.676895523071289062e+01 -4.315719604492187500e+00 -1.562855690717697144e-01 1.255786538124084473e+00 3.298502862453460693e-01 -1.266221143305301666e-02
2.374000000000000000e+03 3.884873962402343750e+01 -5.868449211120605469e+00 -2.057430744171142578e-01 1.740789532661437988e+00 4.605139493942260742e-01 -2.943867817521095276e-02
2.375000000000000000e+03 4.019202041625976562e+01 -4.537629127502441406e+00 -2.079830467700958252e-01 2.037516832351684570e+00 5.488601326942443848e-01 7.989733712747693062e-04
2.376000000000000000e+03 4.151456069946289062e+01 -4.533777236938476562e+00 -2.409814596176147461e-01 2.345766305923461914e+00 6.314354538917541504e-01 7.899896241724491119e-03
2.377000000000000000e+03 4.357775878906250000e+01 -4.436196327209472656e+00 -2.945753633975982666e-01 2.866979360580444336e+00 7.717211842536926270e-01 3.486909344792366028e-02
2.378000000000000000e+03 4.778573989868164062e+01 -4.937257289886474609e+00 -3.942347168922424316e-01 3.878128290176391602e+00 1.045168161392211914e+00 6.685105711221694946e-02
2.379000000000000000e+03 4.906954956054687500e+01 -5.437311649322509766e+00 -4.180566072463989258e-01 4.187394618988037109e+00 1.130801439285278320e+00 6.403616815805435181e-02
2.380000000000000000e+03 5.013356399536132812e+01 -5.334611892700195312e+00 -4.364603161811828613e-01 4.421965122222900391e+00 1.195651531219482422e+00 7.706705480813980103e-02
2.381000000000000000e+03 5.208192825317382812e+01 -5.200128078460693359e+00 -4.597432315349578857e-01 4.837911605834960938e+00 1.313450574874877930e+00 8.234047144651412964e-02
2.382000000000000000e+03 5.392744445800781250e+01 -5.226168155670166016e+00 -4.730365872383117676e-01 5.232310295104980469e+00 1.427782058715820312e+00 8.822322636842727661e-02
2.383000000000000000e+03 5.950968933105468750e+01 -5.135941028594970703e+00 -4.420984387397766113e-01 6.295193195343017578e+00 1.755928397178649902e+00 5.430437624454498291e-02
2.384000000000000000e+03 6.128251266479492188e+01 -6.202673912048339844e+00 -3.984204232692718506e-01 6.589181423187255859e+00 1.857228279113769531e+00 6.690661609172821045e-02
2.385000000000000000e+03 6.306719207763671875e+01 -5.172616481781005859e+00 -3.747499287128448486e-01 6.877735614776611328e+00 1.950895667076110840e+00 3.096239641308784485e-02
2.386000000000000000e+03 6.472281646728515625e+01 -5.318415164947509766e+00 -3.318142592906951904e-01 7.142470836639404297e+00 2.043196916580200195e+00 1.823978126049041748e-02
2.387000000000000000e+03 6.238959884643554688e+01 -4.374516487121582031e+00 -4.032351374626159668e-01 6.782800674438476562e+00 1.913869619369506836e+00 1.692978478968143463e-02
2.388000000000000000e+03 6.740226745605468750e+01 -4.304422378540039062e+00 -2.706999480724334717e-01 7.548916339874267578e+00 2.183465003967285156e+00 -2.520411461591720581e-02
2.389000000000000000e+03 6.948214721679687500e+01 -4.572521209716796875e+00 -2.024947106838226318e-01 7.871826171875000000e+00 2.300799369812011719e+00 -3.184481710195541382e-02
2.390000000000000000e+03 7.088262176513671875e+01 -4.990787506103515625e+00 -1.527895629405975342e-01 8.084832191467285156e+00 2.379612684249877930e+00 -2.038656175136566162e-02
2.391000000000000000e+03 7.129226684570312500e+01 -5.841977596282958984e+00 -1.408581137657165527e-01 8.133753776550292969e+00 2.397868633270263672e+00 3.243370738346129656e-04
2.392000000000000000e+03 7.347824859619140625e+01 -5.323175907135009766e+00 -8.932283520698547363e-02 8.486436843872070312e+00 2.519134283065795898e+00 -1.867240667343139648e-02
2.393000000000000000e+03 7.769306182861328125e+01 -3.937138557434082031e+00 -1.677648164331912994e-02 9.223151206970214844e+00 2.761912584304809570e+00 -2.520191855728626251e-02
2.394000000000000000e+03 2.808534431457519531e+01 -5.158604621887207031e+00 -3.355308771133422852e-01 -3.060446381568908691e-01 -1.924726516008377075e-01 3.193279504776000977e-01
2.395000000000000000e+03 3.248047256469726562e+01 -7.247753143310546875e+00 -2.231235206127166748e-01 2.655262053012847900e-01 1.272080466151237488e-02 8.354706317186355591e-02
2.396000000000000000e+03 3.143760490417480469e+01 -6.828756809234619141e+00 -2.361319959163665771e-01 8.682846277952194214e-02 -4.479106143116950989e-02 1.327756494283676147e-01
2.397000000000000000e+03 3.368487930297851562e+01 -7.412739753723144531e+00 -1.913521140813827515e-01 5.578890442848205566e-01 1.099610701203346252e-01 3.273721039295196533e-02
2.398000000000000000e+03 3.588779067993164062e+01 -7.263681888580322266e+00 -1.870060265064239502e-01 1.036446571350097656e+00 2.548321485519409180e-01 -2.828509546816349030e-02
2.399000000000000000e+03 3.682674026489257812e+01 -7.238296985626220703e+00 -1.983943432569503784e-01 1.262896418571472168e+00 3.193506300449371338e-01 -3.223789855837821960e-02
2.400000000000000000e+03 3.783163452148437500e+01 -6.457529067993164062e+00 -1.971450448036193848e-01 1.502044439315795898e+00 3.914698362350463867e-01 -3.526379913091659546e-02
2.401000000000000000e+03 4.060020828247070312e+01 -7.801436901092529297e+00 -2.501268982887268066e-01 2.156160354614257812e+00 5.718100070953369141e-01 -6.713839620351791382e-02
2.402000000000000000e+03 4.251598739624023438e+01 -7.004985332489013672e+00 -2.897465229034423828e-01 2.625779151916503906e+00 7.008098363876342773e-01 -4.358088225126266479e-02
2.403000000000000000e+03 4.463161849975585938e+01 -6.859476566314697266e+00 -3.392961621284484863e-01 3.140845775604248047e+00 8.404648900032043457e-01 -6.237742025405168533e-03
2.404000000000000000e+03 4.571694564819335938e+01 -7.239162921905517578e+00 -3.606091737747192383e-01 3.404397487640380859e+00 9.131364822387695312e-01 -2.672839444130659103e-03
2.405000000000000000e+03 4.725597381591796875e+01 -7.262152671813964844e+00 -3.943388760089874268e-01 3.780418872833251953e+00 1.015823960304260254e+00 2.450512722134590149e-02
2.406000000000000000e+03 4.926598358154296875e+01 -7.847254753112792969e+00 -4.266862869262695312e-01 4.242875099182128906e+00 1.144856691360473633e+00 3.587846457958221436e-02
2.407000000000000000e+03 5.083831405639648438e+01 -8.137247085571289062e+00 -4.450879096984863281e-01 4.599441051483154297e+00 1.246305942535400391e+00 4.987004771828651428e-02
2.408000000000000000e+03 5.248797607421875000e+01 -8.116425514221191406e+00 -4.536760747432708740e-01 4.948528766632080078e+00 1.348455786705017090e+00 6.485074758529663086e-02
2.409000000000000000e+03 5.422031784057617188e+01 -7.611568927764892578e+00 -4.577838778495788574e-01 5.298696517944335938e+00 1.452273726463317871e+00 8.249306678771972656e-02
2.410000000000000000e+03 5.606542205810546875e+01 -6.993162631988525391e+00 -4.626083970069885254e-01 5.654826641082763672e+00 1.557665467262268066e+00 8.888566493988037109e-02
2.411000000000000000e+03 5.702469635009765625e+01 -6.638597011566162109e+00 -4.519228041172027588e-01 5.841015815734863281e+00 1.616727828979492188e+00 8.581533282995223999e-02
2.412000000000000000e+03 5.845328903198242188e+01 -6.710433959960937500e+00 -4.378170371055603027e-01 6.086234092712402344e+00 1.694525003433227539e+00 8.392852544784545898e-02
2.413000000000000000e+03 3.386978912353515625e+01 -6.383862495422363281e+00 -1.965601295232772827e-01 6.088700294494628906e-01 1.236929669976234436e-01 1.775813475251197815e-02
2.414000000000000000e+03 3.484597396850585938e+01 -7.407965183258056641e+00 -1.872238665819168091e-01 8.038369417190551758e-01 1.849839240312576294e-01 4.794376436620950699e-03
2.415000000000000000e+03 3.862917327880859375e+01 -7.289359092712402344e+00 -2.129781991243362427e-01 1.663993358612060547e+00 4.353045225143432617e-01 -5.103759095072746277e-02
2.416000000000000000e+03 4.014528656005859375e+01 -6.052344799041748047e+00 -2.233401238918304443e-01 2.026041030883789062e+00 5.408102869987487793e-01 -3.153011947870254517e-02
2.417000000000000000e+03 4.219050979614257812e+01 -6.165046215057373047e+00 -2.725007236003875732e-01 2.532671213150024414e+00 6.780511736869812012e-01 -2.185517922043800354e-02
2.418000000000000000e+03 4.428844451904296875e+01 -6.091141700744628906e+00 -3.200266361236572266e-01 3.048192501068115234e+00 8.184497356414794922e-01 2.191122621297836304e-03
2.419000000000000000e+03 4.643631744384765625e+01 -7.174774646759033203e+00 -3.696286380290985107e-01 3.581902980804443359e+00 9.636823534965515137e-01 -5.483726970851421356e-03
2.420000000000000000e+03 4.800792694091796875e+01 -7.069264888763427734e+00 -3.993391394615173340e-01 3.945650577545166016e+00 1.063893437385559082e+00 2.628983929753303528e-02
2.421000000000000000e+03 4.893126296997070312e+01 -6.891854763031005859e+00 -4.134787917137145996e-01 4.156540393829345703e+00 1.122918486595153809e+00 5.048351362347602844e-02
2.422000000000000000e+03 5.032728576660156250e+01 -6.477849960327148438e+00 -4.303295314311981201e-01 4.461119174957275391e+00 1.209236860275268555e+00 6.149937212467193604e-02
2.423000000000000000e+03 5.205925369262695312e+01 -6.800573348999023438e+00 -4.535060524940490723e-01 4.841821670532226562e+00 1.316494584083557129e+00 6.298528611660003662e-02
2.424000000000000000e+03 5.391825103759765625e+01 -6.702593803405761719e+00 -4.640176594257354736e-01 5.227331161499023438e+00 1.428994059562683105e+00 8.231212943792343140e-02
2.425000000000000000e+03 5.578105545043945312e+01 -6.154319286346435547e+00 -4.612835943698883057e-01 5.610181808471679688e+00 1.544669508934020996e+00 8.465525507926940918e-02
2.426000000000000000e+03 5.918720626831054688e+01 -6.235318660736083984e+00 -4.361163973808288574e-01 6.228826045989990234e+00 1.737812995910644531e+00 7.220169901847839355e-02
2.427000000000000000e+03 6.040344238281250000e+01 -6.561857223510742188e+00 -4.112209379673004150e-01 6.446131706237792969e+00 1.810473203659057617e+00 7.299643009901046753e-02
2.428000000000000000e+03 6.275320053100585938e+01 -6.678712844848632812e+00 -3.640370070934295654e-01 6.815132617950439453e+00 1.935328602790832520e+00 6.906387954950332642e-02
2.429000000000000000e+03 6.448950958251953125e+01 -7.015662670135498047e+00 -3.167892992496490479e-01 7.095461845397949219e+00 2.033601760864257812e+00 6.301677972078323364e-02
2.430000000000000000e+03 6.558205413818359375e+01 -6.240820884704589844e+00 -3.001036942005157471e-01 7.264312267303466797e+00 2.089262485504150391e+00 3.473528474569320679e-02
2.431000000000000000e+03 6.171136093139648438e+01 -7.106000900268554688e+00 -3.790418207645416260e-01 6.659705638885498047e+00 1.884199142456054688e+00 7.994940876960754395e-02
2.432000000000000000e+03 6.329905700683593750e+01 -7.736552238464355469e+00 -3.404831588268280029e-01 6.899847030639648438e+00 1.967809200286865234e+00 8.669253438711166382e-02
2.433000000000000000e+03 6.878073883056640625e+01 -5.904271125793457031e+00 -2.186409533023834229e-01 7.740730762481689453e+00 2.256627082824707031e+00 1.155256293714046478e-02
2.434000000000000000e+03 7.049685668945312500e+01 -6.362708568572998047e+00 -1.629396378993988037e-01 8.012100219726562500e+00 2.354748249053955078e+00 1.572156324982643127e-02
2.435000000000000000e+03 7.364463043212890625e+01 -6.393873214721679688e+00 -7.498823851346969604e-02 8.521338462829589844e+00 2.533905029296875000e+00 6.924354936927556992e-03
2.436000000000000000e+03 7.767682647705078125e+01 -6.731978893280029297e+00 -1.488431170582771301e-02 9.210010528564453125e+00 2.758537769317626953e+00 2.620663028210401535e-03
2.437000000000000000e+03 3.050243377685546875e+01 -7.691092014312744141e+00 -2.924858331680297852e-01 -1.343139857053756714e-01 -1.280399411916732788e-01 2.133116126060485840e-01
2.438000000000000000e+03 3.180091476440429688e+01 -9.901255607604980469e+00 -1.890742778778076172e-01 -1.471869461238384247e-02 -6.113788858056068420e-02 1.849419325590133667e-01
2.439000000000000000e+03 3.562633132934570312e+01 -1.095729064941406250e+01 -1.857539713382720947e-01 8.422058820724487305e-01 1.969355642795562744e-01 -2.433457225561141968e-02
2.440000000000000000e+03 3.655080795288085938e+01 -1.351784324645996094e+01 -1.500183939933776855e-01 1.032740950584411621e+00 2.648167908191680908e-01 -1.049170270562171936e-01
2.441000000000000000e+03 3.782598114013671875e+01 -1.453856849670410156e+01 -1.558850407600402832e-01 1.343844056129455566e+00 3.563876748085021973e-01 -1.761084049940109253e-01
2.442000000000000000e+03 4.157288360595703125e+01 -1.824082374572753906e+01 -1.892196536064147949e-01 2.456424474716186523e+00 6.801614165306091309e-01 -3.476161956787109375e-01
2.443000000000000000e+03 4.381966400146484375e+01 -2.163136482238769531e+01 -2.060604989528656006e-01 3.296081066131591797e+00 9.270061850547790527e-01 -4.470933079719543457e-01
2.444000000000000000e+03 4.441602325439453125e+01 -2.026405334472656250e+01 -2.716852426528930664e-01 3.397979259490966797e+00 9.378881454467773438e-01 -3.374593555927276611e-01
2.445000000000000000e+03 3.502352142333984375e+01 -8.462049484252929688e+00 -1.895661056041717529e-01 8.148468732833862305e-01 1.875842362642288208e-01 -9.471408091485500336e-03
2.446000000000000000e+03 3.336824035644531250e+01 -8.436161994934082031e+00 -1.993684172630310059e-01 4.462204277515411377e-01 7.405560463666915894e-02 4.884799569845199585e-02
2.447000000000000000e+03 3.417643737792968750e+01 -8.993854522705078125e+00 -2.039263546466827393e-01 6.030486822128295898e-01 1.197367087006568909e-01 3.550074994564056396e-02
2.448000000000000000e+03 3.857772064208984375e+01 -9.088096618652343750e+00 -2.321609854698181152e-01 1.641417622566223145e+00 4.227769970893859863e-01 -7.283318787813186646e-02
2.449000000000000000e+03 4.078896331787109375e+01 -8.757301330566406250e+00 -2.673553824424743652e-01 2.203188896179199219e+00 5.807500481605529785e-01 -8.500708639621734619e-02
2.450000000000000000e+03 4.416722869873046875e+01 -8.061939239501953125e+00 -3.315562903881072998e-01 3.051908969879150391e+00 8.161058425903320312e-01 -4.184312745928764343e-02
2.451000000000000000e+03 4.537492752075195312e+01 -8.318920135498046875e+00 -3.591703474521636963e-01 3.345887184143066406e+00 8.960150480270385742e-01 -3.131186589598655701e-02
2.452000000000000000e+03 4.651358795166015625e+01 -9.657857894897460938e+00 -3.796164989471435547e-01 3.633599519729614258e+00 9.761948585510253906e-01 -3.921038284897804260e-02
2.453000000000000000e+03 4.959379196166992188e+01 -9.803499221801757812e+00 -4.221249520778656006e-01 4.355751991271972656e+00 1.180088162422180176e+00 1.278432831168174744e-02
2.454000000000000000e+03 5.004005432128906250e+01 -8.031660079956054688e+00 -4.279727041721343994e-01 4.425826072692871094e+00 1.199356079101562500e+00 4.132718592882156372e-02
2.455000000000000000e+03 5.265284729003906250e+01 -9.928558349609375000e+00 -4.466040134429931641e-01 5.009418010711669922e+00 1.368844151496887207e+00 6.544002145528793335e-02
2.456000000000000000e+03 5.352772903442382812e+01 -8.796944618225097656e+00 -4.528116285800933838e-01 5.171763896942138672e+00 1.415685653686523438e+00 7.701547443866729736e-02
2.457000000000000000e+03 5.540835189819335938e+01 -8.207849502563476562e+00 -4.517135322093963623e-01 5.533744812011718750e+00 1.524609446525573730e+00 8.921097964048385620e-02
2.458000000000000000e+03 5.756665420532226562e+01 -8.401210784912109375e+00 -4.310152530670166016e-01 5.938719749450683594e+00 1.652311325073242188e+00 1.053223088383674622e-01
2.459000000000000000e+03 5.911485290527343750e+01 -7.825024127960205078e+00 -4.148542284965515137e-01 6.208873748779296875e+00 1.738205790519714355e+00 9.622675180435180664e-02
2.460000000000000000e+03 3.597287750244140625e+01 -8.210390090942382812e+00 -1.962701231241226196e-01 1.037109732627868652e+00 2.522518932819366455e-01 -2.565593644976615906e-02
2.461000000000000000e+03 3.751159667968750000e+01 -9.057676315307617188e+00 -2.121402323246002197e-01 1.383215665817260742e+00 3.513226211071014404e-01 -6.718164682388305664e-02
2.462000000000000000e+03 3.862213134765625000e+01 -8.148485183715820312e+00 -2.186292409896850586e-01 1.662963509559631348e+00 4.333002865314483643e-01 -6.568823009729385376e-02
2.463000000000000000e+03 4.157918930053710938e+01 -7.449594497680664062e+00 -2.710067927837371826e-01 2.385817289352416992e+00 6.344431638717651367e-01 -5.399568006396293640e-02
2.464000000000000000e+03 4.240597534179687500e+01 -9.199768066406250000e+00 -2.955833673477172852e-01 2.614139556884765625e+00 6.955668330192565918e-01 -8.727017045021057129e-02
2.465000000000000000e+03 4.608713150024414062e+01 -7.831511974334716797e+00 -3.722898364067077637e-01 3.504207849502563477e+00 9.395753741264343262e-01 -1.168824359774589539e-02
2.466000000000000000e+03 4.705203628540039062e+01 -8.896937370300292969e+00 -3.919297754764556885e-01 3.757569789886474609e+00 1.009692072868347168e+00 -1.480474788695573807e-02
2.467000000000000000e+03 4.983071899414062500e+01 -8.881945610046386719e+00 -4.350376129150390625e-01 4.388677597045898438e+00 1.186092019081115723e+00 3.243703395128250122e-02
2.468000000000000000e+03 5.071540832519531250e+01 -9.020837783813476562e+00 -4.340936541557312012e-01 4.581780433654785156e+00 1.244306087493896484e+00 3.934510797262191772e-02
2.469000000000000000e+03 5.257712173461914062e+01 -8.980260848999023438e+00 -4.466087818145751953e-01 4.976268291473388672e+00 1.358897805213928223e+00 6.477134674787521362e-02
2.470000000000000000e+03 5.471009445190429688e+01 -9.477297782897949219e+00 -4.450696408748626709e-01 5.407383918762207031e+00 1.488694310188293457e+00 9.011159092187881470e-02
2.471000000000000000e+03 5.635652160644531250e+01 -7.861728668212890625e+00 -4.494640231132507324e-01 5.712288379669189453e+00 1.578847289085388184e+00 9.492634236812591553e-02
2.472000000000000000e+03 5.938827133178710938e+01 -8.426605224609375000e+00 -4.092572033405303955e-01 6.255352497100830078e+00 1.753828525543212891e+00 1.046749353408813477e-01
2.473000000000000000e+03 6.088020324707031250e+01 -8.211074829101562500e+00 -3.832613527774810791e-01 6.504965305328369141e+00 1.836511135101318359e+00 1.048852130770683289e-01
2.474000000000000000e+03 6.305816650390625000e+01 -9.681038856506347656e+00 -3.212606310844421387e-01 6.859100341796875000e+00 1.961351871490478516e+00 1.277820467948913574e-01
2.475000000000000000e+03 6.404093933105468750e+01 -8.755672454833984375e+00 -3.105595111846923828e-01 7.004293918609619141e+00 2.008120298385620117e+00 1.078661382198333740e-01
2.476000000000000000e+03 6.525860595703125000e+01 -7.998747825622558594e+00 -2.903074920177459717e-01 7.204908847808837891e+00 2.074380397796630859e+00 8.143991976976394653e-02
2.477000000000000000e+03 6.725587463378906250e+01 -8.362850189208984375e+00 -2.331035435199737549e-01 7.502319812774658203e+00 2.180764913558959961e+00 8.364553004503250122e-02
2.478000000000000000e+03 6.643132781982421875e+01 -7.261145114898681641e+00 -2.648641467094421387e-01 7.379579067230224609e+00 2.134414434432983398e+00 5.989332869648933411e-02
2.479000000000000000e+03 7.047310638427734375e+01 -8.192712783813476562e+00 -1.477747410535812378e-01 8.003724098205566406e+00 2.356784820556640625e+00 6.571382284164428711e-02
2.480000000000000000e+03 7.327709960937500000e+01 -8.141829490661621094e+00 -8.457695692777633667e-02 8.436581611633300781e+00 2.505601406097412109e+00 4.681643098592758179e-02
2.481000000000000000e+03 7.762529754638671875e+01 -8.134427070617675781e+00 -1.126868929713964462e-02 9.191905975341796875e+00 2.754191160202026367e+00 1.456778682768344879e-02
2.482000000000000000e+03 3.273102188110351562e+01 -9.218059539794921875e+00 -2.129218280315399170e-01 2.182087004184722900e-01 1.586061785928905010e-03 1.192881762981414795e-01
2.483000000000000000e+03 3.443370056152343750e+01 -1.054159259796142578e+01 -1.759738624095916748e-01 6.091650724411010742e-01 1.299573630094528198e-01 1.848435960710048676e-02
2.484000000000000000e+03 3.970463180541992188e+01 -9.960448265075683594e+00 -2.492285519838333130e-01 1.911695957183837891e+00 4.987402260303497314e-01 -9.949921071529388428e-02
2.485000000000000000e+03 4.081314468383789062e+01 -9.717761993408203125e+00 -2.678795158863067627e-01 2.225083351135253906e+00 5.871611833572387695e-01 -1.102063879370689392e-01
2.486000000000000000e+03 4.167367553710937500e+01 -9.933869361877441406e+00 -2.890940308570861816e-01 2.434767723083496094e+00 6.437021493911743164e-01 -9.736796468496322632e-02
2.487000000000000000e+03 4.379112243652343750e+01 -1.057918739318847656e+01 -3.291990458965301514e-01 2.992158412933349609e+00 7.988878488540649414e-01 -9.759537130594253540e-02
2.488000000000000000e+03 4.552790451049804688e+01 -1.154711055755615234e+01 -3.609330952167510986e-01 3.430428981781005859e+00 9.208487868309020996e-01 -9.534308314323425293e-02
2.489000000000000000e+03 4.788879394531250000e+01 -1.129486370086669922e+01 -4.053809046745300293e-01 3.991347074508666992e+00 1.075789809226989746e+00 -3.640379011631011963e-02
2.490000000000000000e+03 4.883536148071289062e+01 -1.166527366638183594e+01 -4.092620015144348145e-01 4.226515293121337891e+00 1.145176053047180176e+00 -2.251868508756160736e-02
2.491000000000000000e+03 5.058169937133789062e+01 -9.976790428161621094e+00 -4.397913813591003418e-01 4.565083026885986328e+00 1.237587451934814453e+00 3.286936506628990173e-02
2.492000000000000000e+03 5.272139739990234375e+01 -1.093283081054687500e+01 -4.389346241950988770e-01 5.035098075866699219e+00 1.378849029541015625e+00 6.484577059745788574e-02
2.493000000000000000e+03 5.499771881103515625e+01 -1.047175693511962891e+01 -4.341859817504882812e-01 5.475157260894775391e+00 1.512291312217712402e+00 9.793890267610549927e-02
2.494000000000000000e+03 5.699853515625000000e+01 -9.587660789489746094e+00 -4.175938367843627930e-01 5.848273277282714844e+00 1.629203915596008301e+00 1.140280291438102722e-01
2.495000000000000000e+03 5.839324951171875000e+01 -1.006442070007324219e+01 -3.940163254737854004e-01 6.094984531402587891e+00 1.710290431976318359e+00 1.333640515804290771e-01
2.496000000000000000e+03 3.850649261474609375e+01 -1.011645793914794922e+01 -2.238663583993911743e-01 1.622131943702697754e+00 4.194796979427337646e-01 -9.524154663085937500e-02
2.497000000000000000e+03 4.439210891723632812e+01 -9.911350250244140625e+00 -3.418596088886260986e-01 3.110370397567749023e+00 8.305532336235046387e-01 -7.680949568748474121e-02
2.498000000000000000e+03 4.598962020874023438e+01 -1.056629943847656250e+01 -3.744308650493621826e-01 3.519232511520385742e+00 9.434404969215393066e-01 -6.184719502925872803e-02
2.499000000000000000e+03 4.830030059814453125e+01 -1.041983890533447266e+01 -4.061117768287658691e-01 4.054966449737548828e+00 1.094656348228454590e+00 -1.867094077169895172e-02
2.500000000000000000e+03 5.160852813720703125e+01 -1.000819587707519531e+01 -4.396941363811492920e-01 4.785768508911132812e+00 1.303822278976440430e+00 4.559632018208503723e-02
2.501000000000000000e+03 5.369494247436523438e+01 -9.756621360778808594e+00 -4.419701993465423584e-01 5.216749191284179688e+00 1.432433724403381348e+00 8.086533844470977783e-02
2.502000000000000000e+03 5.602118682861328125e+01 -9.996870994567871094e+00 -4.302729070186614990e-01 5.679111003875732422e+00 1.574651360511779785e+00 1.102519854903221130e-01
2.503000000000000000e+03 6.022531509399414062e+01 -1.005031776428222656e+01 -3.716244399547576904e-01 6.398658275604248047e+00 1.808110117912292480e+00 1.385985910892486572e-01
2.504000000000000000e+03 6.137285995483398438e+01 -1.035440063476562500e+01 -3.433615863323211670e-01 6.597523212432861328e+00 1.876248478889465332e+00 1.424414813518524170e-01
2.505000000000000000e+03 6.242286682128906250e+01 -1.069782066345214844e+01 -3.269348442554473877e-01 6.748605251312255859e+00 1.926501035690307617e+00 1.531092822551727295e-01
2.506000000000000000e+03 6.398278045654296875e+01 -1.037623977661132812e+01 -2.950613200664520264e-01 7.006417274475097656e+00 2.013406753540039062e+00 1.474998146295547485e-01
2.507000000000000000e+03 6.562579345703125000e+01 -1.061169242858886719e+01 -2.514671981334686279e-01 7.241797924041748047e+00 2.097099065780639648e+00 1.493170708417892456e-01
2.508000000000000000e+03 6.680351257324218750e+01 -1.011927032470703125e+01 -2.264340966939926147e-01 7.429089546203613281e+00 2.160796642303466797e+00 1.329707503318786621e-01
2.509000000000000000e+03 6.897792053222656250e+01 -1.060910034179687500e+01 -1.636111140251159668e-01 7.750887393951416016e+00 2.276182889938354492e+00 1.319012492895126343e-01
2.510000000000000000e+03 6.492247009277343750e+01 -9.671468734741210938e+00 -2.754951119422912598e-01 7.145674228668212891e+00 2.061053752899169922e+00 1.263494938611984253e-01
2.511000000000000000e+03 6.807144165039062500e+01 -9.525134086608886719e+00 -1.990591138601303101e-01 7.623867034912109375e+00 2.227442264556884766e+00 1.119330301880836487e-01
2.512000000000000000e+03 7.215830993652343750e+01 -1.040433216094970703e+01 -9.465869516134262085e-02 8.251747131347656250e+00 2.447126626968383789e+00 1.071726977825164795e-01
2.513000000000000000e+03 7.580487060546875000e+01 -1.074712753295898438e+01 -3.804834932088851929e-02 8.836109161376953125e+00 2.639418363571166992e+00 6.628196686506271362e-02
2.514000000000000000e+03 3.070780944824218750e+01 -1.066324901580810547e+01 -1.660439521074295044e-01 -3.134434819221496582e-01 -1.438462287187576294e-01 2.422615438699722290e-01
2.515000000000000000e+03 3.261291885375976562e+01 -1.087368488311767578e+01 -1.581107378005981445e-01 7.705059647560119629e-02 -2.431804500520229340e-02 1.356994211673736572e-01
2.516000000000000000e+03 3.492976760864257812e+01 -1.362128448486328125e+01 -1.471415460109710693e-01 5.492850542068481445e-01 1.206430569291114807e-01 -2.759722433984279633e-02
2.517000000000000000e+03 3.662188720703125000e+01 -1.466547012329101562e+01 -1.476754993200302124e-01 9.901399612426757812e-01 2.527393400669097900e-01 -1.198047921061515808e-01
2.518000000000000000e+03 3.743692398071289062e+01 -1.688816261291503906e+01 -8.656340092420578003e-02 1.127973318099975586e+00 3.124229907989501953e-01 -2.020495831966400146e-01
2.519000000000000000e+03 3.989869308471679688e+01 -1.884087944030761719e+01 -1.093192994594573975e-01 1.902021050453186035e+00 5.378105640411376953e-01 -3.745485544204711914e-01
2.520000000000000000e+03 4.205255889892578125e+01 -2.101326179504394531e+01 -1.382683962583541870e-01 2.584116458892822266e+00 7.337543964385986328e-01 -4.449648261070251465e-01
2.521000000000000000e+03 4.264852905273437500e+01 -1.979026412963867188e+01 -1.933623254299163818e-01 2.800574541091918945e+00 7.821636795997619629e-01 -4.091358482837677002e-01
2.522000000000000000e+03 3.823867797851562500e+01 -1.242792224884033203e+01 -1.981039494276046753e-01 1.528468370437622070e+00 3.991093337535858154e-01 -1.378396600484848022e-01
2.523000000000000000e+03 3.955072784423828125e+01 -1.279426479339599609e+01 -2.289388775825500488e-01 1.870206117630004883e+00 4.923801720142364502e-01 -1.617155969142913818e-01
2.524000000000000000e+03 4.139959335327148438e+01 -1.277926063537597656e+01 -2.703685164451599121e-01 2.372881174087524414e+00 6.307538151741027832e-01 -1.662117838859558105e-01
2.525000000000000000e+03 4.230542755126953125e+01 -1.207944869995117188e+01 -3.013712167739868164e-01 2.598644495010375977e+00 6.891819834709167480e-01 -1.444935947656631470e-01
2.526000000000000000e+03 4.651647949218750000e+01 -1.191056823730468750e+01 -3.854397833347320557e-01 3.671429395675659180e+00 9.857969284057617188e-01 -7.635038346052169800e-02
2.527000000000000000e+03 4.751478195190429688e+01 -1.221504306793212891e+01 -3.959277868270874023e-01 3.937455177307128906e+00 1.062458276748657227e+00 -6.231576949357986450e-02
2.528000000000000000e+03 5.042553710937500000e+01 -1.218028259277343750e+01 -4.255666136741638184e-01 4.574574947357177734e+00 1.244702577590942383e+00 1.051855646073818207e-02
2.529000000000000000e+03 5.162766647338867188e+01 -1.211290740966796875e+01 -4.256833195686340332e-01 4.845191955566406250e+00 1.325852632522583008e+00 3.956779092550277710e-02
2.530000000000000000e+03 5.389633560180664062e+01 -1.182773971557617188e+01 -4.323413670063018799e-01 5.302968502044677734e+00 1.461188077926635742e+00 8.916862308979034424e-02
2.531000000000000000e+03 5.556790161132812500e+01 -1.302137470245361328e+01 -4.006034731864929199e-01 5.637696743011474609e+00 1.571128010749816895e+00 1.366033256053924561e-01
2.532000000000000000e+03 5.625807571411132812e+01 -1.214630126953125000e+01 -4.018322527408599854e-01 5.740756034851074219e+00 1.601677060127258301e+00 1.368336528539657593e-01
2.533000000000000000e+03 5.918187332153320312e+01 -1.319370365142822266e+01 -3.503803610801696777e-01 6.249077320098876953e+00 1.769609093666076660e+00 1.813735812902450562e-01
2.534000000000000000e+03 5.861341857910156250e+01 -1.100408744812011719e+01 -3.890522718429565430e-01 6.136786937713623047e+00 1.724320411682128906e+00 1.455326676368713379e-01
2.535000000000000000e+03 3.985260391235351562e+01 -1.101250648498535156e+01 -2.459094375371932983e-01 1.965298175811767578e+00 5.158166289329528809e-01 -1.258311122655868530e-01
2.536000000000000000e+03 4.234405899047851562e+01 -1.061631107330322266e+01 -2.987368702888488770e-01 2.620061397552490234e+00 6.963973641395568848e-01 -1.123595908284187317e-01
2.537000000000000000e+03 4.399768447875976562e+01 -1.199711513519287109e+01 -3.337422609329223633e-01 3.068850517272949219e+00 8.205325007438659668e-01 -1.195381209254264832e-01
2.538000000000000000e+03 4.935988235473632812e+01 -1.238048076629638672e+01 -4.181403219699859619e-01 4.352710723876953125e+00 1.180371046066284180e+00 -9.407521225512027740e-03
2.539000000000000000e+03 5.479300689697265625e+01 -1.216502857208251953e+01 -4.244283437728881836e-01 5.458771228790283203e+00 1.510302782058715820e+00 1.159134432673454285e-01
2.540000000000000000e+03 5.753202819824218750e+01 -1.184901237487792969e+01 -3.911538124084472656e-01 5.952507495880126953e+00 1.668406128883361816e+00 1.529915332794189453e-01
2.541000000000000000e+03 6.171312332153320312e+01 -1.272940349578857422e+01 -3.170787394046783447e-01 6.656378746032714844e+00 1.901790022850036621e+00 1.958203613758087158e-01
2.542000000000000000e+03 6.286661911010742188e+01 -1.194596290588378906e+01 -3.020265698432922363e-01 6.814202308654785156e+00 1.953652620315551758e+00 1.792739480733871460e-01
2.543000000000000000e+03 6.436611938476562500e+01 -1.227308273315429688e+01 -2.525493502616882324e-01 7.073386192321777344e+00 2.046251058578491211e+00 1.930289864540100098e-01
2.544000000000000000e+03 6.613244628906250000e+01 -1.159031581878662109e+01 -2.263005971908569336e-01 7.317893028259277344e+00 2.127477884292602539e+00 1.710904538631439209e-01
2.545000000000000000e+03 7.231895446777343750e+01 -1.208940792083740234e+01 -9.220680594444274902e-02 8.244501113891601562e+00 2.445688247680664062e+00 1.402580738067626953e-01
2.546000000000000000e+03 6.197023010253906250e+01 -1.168546295166015625e+01 -3.160237371921539307e-01 6.686511039733886719e+00 1.911146283149719238e+00 1.705085337162017822e-01
2.547000000000000000e+03 6.330203247070312500e+01 -1.113556194305419922e+01 -2.971263527870178223e-01 6.897364139556884766e+00 1.980071306228637695e+00 1.594500690698623657e-01
2.548000000000000000e+03 6.469333648681640625e+01 -1.113466358184814453e+01 -2.684248089790344238e-01 7.112670898437500000e+00 2.053273677825927734e+00 1.625140160322189331e-01
2.549000000000000000e+03 6.751394653320312500e+01 -1.211284446716308594e+01 -1.926949322223663330e-01 7.523208141326904297e+00 2.199153900146484375e+00 1.731035113334655762e-01
2.550000000000000000e+03 6.817960357666015625e+01 -1.143147182464599609e+01 -1.860276162624359131e-01 7.623025417327880859e+00 2.231099367141723633e+00 1.587001085281372070e-01
2.551000000000000000e+03 6.983457946777343750e+01 -1.153488922119140625e+01 -1.395392864942550659e-01 7.882292747497558594e+00 2.322826147079467773e+00 1.503953784704208374e-01
2.552000000000000000e+03 7.331118774414062500e+01 -1.225536823272705078e+01 -5.765497311949729919e-02 8.414796829223632812e+00 2.507142543792724609e+00 1.309106349945068359e-01
2.553000000000000000e+03 3.509611892700195312e+01 -1.224931621551513672e+01 -1.513671725988388062e-01 6.517978906631469727e-01 1.501292139291763306e-01 -2.649547532200813293e-02
2.554000000000000000e+03 3.671432495117187500e+01 -1.234921550750732422e+01 -1.788090318441390991e-01 1.090616941452026367e+00 2.735424041748046875e-01 -9.317649155855178833e-02
2.555000000000000000e+03 3.885218429565429688e+01 -1.534179306030273438e+01 -1.616106778383255005e-01 1.614589214324951172e+00 4.358935654163360596e-01 -2.312734574079513550e-01
2.556000000000000000e+03 3.905420684814453125e+01 -1.371190738677978516e+01 -1.999294310808181763e-01 1.714941859245300293e+00 4.545037150382995605e-01 -1.818732172250747681e-01
2.557000000000000000e+03 4.008044052124023438e+01 -1.507018184661865234e+01 -2.052245736122131348e-01 1.988069534301757812e+00 5.348535180091857910e-01 -2.251652777194976807e-01
2.558000000000000000e+03 4.183882141113281250e+01 -1.513913536071777344e+01 -2.626652121543884277e-01 2.506730318069458008e+00 6.732195019721984863e-01 -2.228365838527679443e-01
2.559000000000000000e+03 4.699269485473632812e+01 -1.426127243041992188e+01 -3.791314959526062012e-01 3.878956794738769531e+00 1.049947619438171387e+00 -1.123094409704208374e-01
2.560000000000000000e+03 4.938502883911132812e+01 -1.457864570617675781e+01 -4.099526703357696533e-01 4.422136783599853516e+00 1.203655242919921875e+00 -3.121716901659965515e-02
2.561000000000000000e+03 5.167070388793945312e+01 -1.439496612548828125e+01 -4.116674661636352539e-01 4.914693832397460938e+00 1.350907921791076660e+00 3.884292393922805786e-02
2.562000000000000000e+03 5.501815414428710938e+01 -1.492769622802734375e+01 -3.899625539779663086e-01 5.567180633544921875e+00 1.553165316581726074e+00 1.480557620525360107e-01
2.563000000000000000e+03 5.747892761230468750e+01 -1.622493934631347656e+01 -3.353246450424194336e-01 6.013874530792236328e+00 1.703565001487731934e+00 2.112495452165603638e-01
2.564000000000000000e+03 5.776877593994140625e+01 -1.396732330322265625e+01 -3.619001507759094238e-01 6.031651496887207031e+00 1.700925469398498535e+00 1.781332641839981079e-01
2.565000000000000000e+03 5.887470626831054688e+01 -1.417849349975585938e+01 -3.457623422145843506e-01 6.206427097320556641e+00 1.758199453353881836e+00 1.979399621486663818e-01
2.566000000000000000e+03 4.055868911743164062e+01 -1.344940280914306641e+01 -2.411400973796844482e-01 2.175310134887695312e+00 5.802510380744934082e-01 -1.952292621135711670e-01
2.567000000000000000e+03 4.234807968139648438e+01 -1.370069408416748047e+01 -2.890406250953674316e-01 2.660699844360351562e+00 7.114977240562438965e-01 -1.867206245660781860e-01
2.568000000000000000e+03 4.451282119750976562e+01 -1.357949447631835938e+01 -3.376918733119964600e-01 3.198814153671264648e+00 8.583366870880126953e-01 -1.455380916595458984e-01
2.569000000000000000e+03 4.832006072998046875e+01 -1.341017341613769531e+01 -4.019255042076110840e-01 4.145431995391845703e+00 1.123051881790161133e+00 -5.123799294233322144e-02
2.570000000000000000e+03 5.052299880981445312e+01 -1.333952713012695312e+01 -4.207433462142944336e-01 4.626873016357421875e+00 1.261838912963867188e+00 4.407265223562717438e-03
2.571000000000000000e+03 5.295897674560546875e+01 -1.309719944000244141e+01 -4.197842180728912354e-01 5.151415824890136719e+00 1.419489383697509766e+00 7.362741976976394653e-02
2.572000000000000000e+03 5.403956604003906250e+01 -1.276153755187988281e+01 -4.242078661918640137e-01 5.350623130798339844e+00 1.477924585342407227e+00 9.843410551548004150e-02
2.573000000000000000e+03 5.812161254882812500e+01 -1.296643733978271484e+01 -3.780648708343505859e-01 6.066413879394531250e+00 1.706504702568054199e+00 1.678143441677093506e-01
2.574000000000000000e+03 6.143392181396484375e+01 -1.378644752502441406e+01 -2.965517044067382812e-01 6.619021415710449219e+00 1.896741032600402832e+00 2.086675316095352173e-01
2.575000000000000000e+03 6.310282897949218750e+01 -1.350453281402587891e+01 -2.750444710254669189e-01 6.854215145111083984e+00 1.973751187324523926e+00 2.146864980459213257e-01
2.576000000000000000e+03 6.442807769775390625e+01 -1.312249660491943359e+01 -2.441985905170440674e-01 7.077117443084716797e+00 2.049875497817993164e+00 2.050577849149703979e-01
2.577000000000000000e+03 6.519342041015625000e+01 -1.200558757781982422e+01 -2.406962364912033081e-01 7.183005809783935547e+00 2.082692861557006836e+00 1.832632124423980713e-01
2.578000000000000000e+03 7.071503448486328125e+01 -1.363262081146240234e+01 -1.059574037790298462e-01 7.995615005493164062e+00 2.366897344589233398e+00 1.813880354166030884e-01
2.579000000000000000e+03 7.324951171875000000e+01 -1.325739669799804688e+01 -6.964037567377090454e-02 8.394033432006835938e+00 2.497317790985107422e+00 1.515709906816482544e-01
2.580000000000000000e+03 6.268588256835937500e+01 -1.280914783477783203e+01 -2.891346216201782227e-01 6.797269821166992188e+00 1.952440619468688965e+00 1.973845511674880981e-01
2.581000000000000000e+03 6.349278640747070312e+01 -1.289179134368896484e+01 -2.671236693859100342e-01 6.916083812713623047e+00 1.994688034057617188e+00 2.050266712903976440e-01
2.582000000000000000e+03 6.399702835083007812e+01 -1.163419723510742188e+01 -2.797658741474151611e-01 7.012219429016113281e+00 2.019736051559448242e+00 1.745537668466567993e-01
2.583000000000000000e+03 6.659279632568359375e+01 -1.258434009552001953e+01 -2.024835050106048584e-01 7.405307292938232422e+00 2.160847187042236328e+00 1.933736205101013184e-01
2.584000000000000000e+03 6.817396545410156250e+01 -1.298539829254150391e+01 -1.659833639860153198e-01 7.603019714355468750e+00 2.231111049652099609e+00 1.950472146272659302e-01
2.585000000000000000e+03 6.977563476562500000e+01 -1.304994297027587891e+01 -1.280143857002258301e-01 7.863833904266357422e+00 2.320745706558227539e+00 1.838571578264236450e-01
2.586000000000000000e+03 7.747137451171875000e+01 -1.369282913208007812e+01 -1.137372851371765137e-02 9.069082260131835938e+00 2.717312574386596680e+00 6.755907088518142700e-02
2.587000000000000000e+03 3.798048019409179688e+01 -1.551911449432373047e+01 -1.480604559183120728e-01 1.344227790832519531e+00 3.588502109050750732e-01 -1.917140632867813110e-01
2.588000000000000000e+03 4.100366592407226562e+01 -1.535006332397460938e+01 -2.243375629186630249e-01 2.285380363464355469e+00 6.183128952980041504e-01 -2.448362708091735840e-01
2.589000000000000000e+03 4.197421646118164062e+01 -1.614410781860351562e+01 -2.439908385276794434e-01 2.562082529067993164e+00 6.954275369644165039e-01 -2.628318071365356445e-01
2.590000000000000000e+03 4.941152954101562500e+01 -1.585393428802490234e+01 -4.047776758670806885e-01 4.491170406341552734e+00 1.225917816162109375e+00 -3.961580619215965271e-02
2.591000000000000000e+03 5.176081466674804688e+01 -1.540535926818847656e+01 -4.208934009075164795e-01 4.953173160552978516e+00 1.359683990478515625e+00 3.931317105889320374e-02
2.592000000000000000e+03 5.393384170532226562e+01 -1.615270805358886719e+01 -3.801555633544921875e-01 5.405923366546630859e+00 1.507730364799499512e+00 1.344790607690811157e-01
2.593000000000000000e+03 5.506891250610351562e+01 -1.626161575317382812e+01 -3.638216555118560791e-01 5.615036964416503906e+00 1.575364589691162109e+00 1.564380973577499390e-01
2.594000000000000000e+03 5.764769363403320312e+01 -1.746541976928710938e+01 -3.058570623397827148e-01 6.076745033264160156e+00 1.731266379356384277e+00 2.424526363611221313e-01
2.595000000000000000e+03 5.948359680175781250e+01 -1.617637634277343750e+01 -2.930697202682495117e-01 6.331041812896728516e+00 1.811391592025756836e+00 2.391612231731414795e-01
2.596000000000000000e+03 4.295592880249023438e+01 -1.485695171356201172e+01 -2.868097424507141113e-01 2.827993869781494141e+00 7.623552083969116211e-01 -2.097476124763488770e-01
2.597000000000000000e+03 4.430061340332031250e+01 -1.479658699035644531e+01 -3.369326591491699219e-01 3.184013843536376953e+00 8.541243672370910645e-01 -1.812466531991958618e-01
2.598000000000000000e+03 4.581053161621093750e+01 -1.393080997467041016e+01 -3.696383237838745117e-01 3.542298555374145508e+00 9.517980813980102539e-01 -1.381362825632095337e-01
2.599000000000000000e+03 4.817155838012695312e+01 -1.451785850524902344e+01 -3.995070755481719971e-01 4.146412372589111328e+00 1.124071717262268066e+00 -6.069532781839370728e-02
2.600000000000000000e+03 5.055543899536132812e+01 -1.448775386810302734e+01 -4.189897775650024414e-01 4.674930572509765625e+00 1.276782155036926270e+00 8.911209180951118469e-03
2.601000000000000000e+03 5.252276611328125000e+01 -1.481103992462158203e+01 -4.144444465637207031e-01 5.100795745849609375e+00 1.405905365943908691e+00 6.868802756071090698e-02
2.602000000000000000e+03 5.341125869750976562e+01 -1.417613983154296875e+01 -4.160400331020355225e-01 5.263561248779296875e+00 1.454256415367126465e+00 8.904996514320373535e-02
2.603000000000000000e+03 5.629582977294921875e+01 -1.489602756500244141e+01 -3.706808090209960938e-01 5.783030509948730469e+00 1.623704910278320312e+00 1.661070734262466431e-01
2.604000000000000000e+03 5.855845260620117188e+01 -1.618226432800292969e+01 -3.182227611541748047e-01 6.198156356811523438e+00 1.763980150222778320e+00 2.332613468170166016e-01
2.605000000000000000e+03 6.066744995117187500e+01 -1.568504047393798828e+01 -2.820228338241577148e-01 6.512181758880615234e+00 1.869047641754150391e+00 2.428296655416488647e-01
2.606000000000000000e+03 6.484570312500000000e+01 -1.671650123596191406e+01 -1.850428879261016846e-01 7.122090816497802734e+00 2.081114292144775391e+00 2.840339243412017822e-01
2.607000000000000000e+03 6.549857330322265625e+01 -1.555215549468994141e+01 -1.826792061328887939e-01 7.227680206298828125e+00 2.113500356674194336e+00 2.625456452369689941e-01
2.608000000000000000e+03 6.664056396484375000e+01 -1.515086746215820312e+01 -1.732646971940994263e-01 7.389957427978515625e+00 2.165007829666137695e+00 2.427025735378265381e-01
2.609000000000000000e+03 6.792763519287109375e+01 -1.468844604492187500e+01 -1.482460647821426392e-01 7.578357219696044922e+00 2.229033470153808594e+00 2.325325012207031250e-01
2.610000000000000000e+03 7.016026306152343750e+01 -1.460500144958496094e+01 -1.191174164414405823e-01 7.891576766967773438e+00 2.331737756729125977e+00 2.096202224493026733e-01
2.611000000000000000e+03 7.146111297607421875e+01 -1.494378948211669922e+01 -7.638531178236007690e-02 8.103245735168457031e+00 2.408058166503906250e+00 2.003521472215652466e-01
2.612000000000000000e+03 7.272660827636718750e+01 -1.527326393127441406e+01 -5.888526514172554016e-02 8.277712821960449219e+00 2.465648174285888672e+00 1.885167360305786133e-01
2.613000000000000000e+03 6.448546600341796875e+01 -1.596161174774169922e+01 -2.020480632781982422e-01 7.086023330688476562e+00 2.065192461013793945e+00 2.690723538398742676e-01
2.614000000000000000e+03 6.493688201904296875e+01 -1.463401794433593750e+01 -2.167342752218246460e-01 7.149346828460693359e+00 2.079783678054809570e+00 2.436150908470153809e-01
2.615000000000000000e+03 6.901399230957031250e+01 -1.394127845764160156e+01 -1.372164189815521240e-01 7.737030982971191406e+00 2.279944419860839844e+00 2.080358117818832397e-01
2.616000000000000000e+03 7.303555297851562500e+01 -1.427637672424316406e+01 -5.773965269327163696e-02 8.340247154235839844e+00 2.484752416610717773e+00 1.702067106962203979e-01
2.617000000000000000e+03 3.627037048339843750e+01 -1.734998130798339844e+01 -3.024459443986415863e-02 7.538356184959411621e-01 2.170773148536682129e-01 -1.670691668987274170e-01
2.618000000000000000e+03 3.763289260864257812e+01 -1.953322601318359375e+01 2.612863108515739441e-02 1.089021086692810059e+00 3.345448970794677734e-01 -2.751386165618896484e-01
2.619000000000000000e+03 4.057324218750000000e+01 -2.040002059936523438e+01 -7.993958890438079834e-02 2.123731613159179688e+00 6.131376028060913086e-01 -4.492868483066558838e-01
2.620000000000000000e+03 3.840973663330078125e+01 -1.644794082641601562e+01 -1.291096210479736328e-01 1.429283261299133301e+00 3.900521099567413330e-01 -2.335717231035232544e-01
2.621000000000000000e+03 4.314332580566406250e+01 -1.734189414978027344e+01 -2.675468623638153076e-01 2.937420368194580078e+00 8.009620904922485352e-01 -2.897395491600036621e-01
2.622000000000000000e+03 4.184970855712890625e+01 -1.718292999267578125e+01 -2.324610948562622070e-01 2.522288799285888672e+00 6.869483590126037598e-01 -2.932668328285217285e-01
2.623000000000000000e+03 4.957778930664062500e+01 -1.724791145324707031e+01 -3.902071714401245117e-01 4.594046592712402344e+00 1.261151909828186035e+00 -4.218676686286926270e-02
2.624000000000000000e+03 5.236307144165039062e+01 -1.647990989685058594e+01 -3.904153108596801758e-01 5.106186866760253906e+00 1.414731502532958984e+00 7.814934849739074707e-02
2.625000000000000000e+03 5.349426269531250000e+01 -1.727598381042480469e+01 -3.710724711418151855e-01 5.357920169830322266e+00 1.496054291725158691e+00 1.235104426741600037e-01
2.626000000000000000e+03 5.498083877563476562e+01 -1.763547897338867188e+01 -3.505229651927947998e-01 5.648158550262451172e+00 1.589290618896484375e+00 1.821469068527221680e-01
2.627000000000000000e+03 5.916909027099609375e+01 -1.828492927551269531e+01 -2.585860490798950195e-01 6.316223144531250000e+00 1.817291140556335449e+00 2.741096913814544678e-01
2.628000000000000000e+03 6.014151763916015625e+01 -1.776992988586425781e+01 -2.509403228759765625e-01 6.444401741027832031e+00 1.858038425445556641e+00 2.821838259696960449e-01
2.629000000000000000e+03 4.580877685546875000e+01 -1.602726554870605469e+01 -3.582333028316497803e-01 3.625533103942871094e+00 9.801899790763854980e-01 -1.607374697923660278e-01
2.630000000000000000e+03 4.794687271118164062e+01 -1.579835319519042969e+01 -3.809085786342620850e-01 4.133989810943603516e+00 1.125924468040466309e+00 -9.354905039072036743e-02
2.631000000000000000e+03 5.070799636840820312e+01 -1.570552921295166016e+01 -4.108925461769104004e-01 4.765159606933593750e+00 1.306280136108398438e+00 1.396064274013042450e-02
2.632000000000000000e+03 5.312281799316406250e+01 -1.565426921844482422e+01 -3.964639306068420410e-01 5.266212940216064453e+00 1.460924744606018066e+00 9.888441115617752075e-02
2.633000000000000000e+03 5.629693222045898438e+01 -1.626118659973144531e+01 -3.606398105621337891e-01 5.813599586486816406e+00 1.635887980461120605e+00 1.893535703420639038e-01
2.634000000000000000e+03 5.872683334350585938e+01 -1.722778701782226562e+01 -2.844744622707366943e-01 6.229145050048828125e+00 1.783401250839233398e+00 2.552757859230041504e-01
2.635000000000000000e+03 6.176576995849609375e+01 -1.793540382385253906e+01 -2.192090451717376709e-01 6.678453922271728516e+00 1.937773466110229492e+00 2.988586723804473877e-01
2.636000000000000000e+03 6.350564575195312500e+01 -1.797094535827636719e+01 -1.831580847501754761e-01 6.934464931488037109e+00 2.025392055511474609e+00 3.052468597888946533e-01
2.637000000000000000e+03 6.491407775878906250e+01 -1.748755836486816406e+01 -1.761882603168487549e-01 7.130241870880126953e+00 2.086216211318969727e+00 2.968560755252838135e-01
2.638000000000000000e+03 6.599375152587890625e+01 -1.746511268615722656e+01 -1.534854471683502197e-01 7.283241748809814453e+00 2.138926982879638672e+00 2.873289585113525391e-01
2.639000000000000000e+03 6.723210144042968750e+01 -1.737207984924316406e+01 -1.379551589488983154e-01 7.464010238647460938e+00 2.197816610336303711e+00 2.870740592479705811e-01
2.640000000000000000e+03 6.861795806884765625e+01 -1.732957077026367188e+01 -9.989191591739654541e-02 7.661882877349853516e+00 2.268597364425659180e+00 2.721181809902191162e-01
2.641000000000000000e+03 7.004486846923828125e+01 -1.763912773132324219e+01 -8.727893978357315063e-02 7.844210147857666016e+00 2.327079534530639648e+00 2.622529268264770508e-01
2.642000000000000000e+03 7.186528778076171875e+01 -1.723661613464355469e+01 -6.899803876876831055e-02 8.125719070434570312e+00 2.417016506195068359e+00 2.303899824619293213e-01
2.643000000000000000e+03 7.360917663574218750e+01 -1.665628242492675781e+01 -4.848506301641464233e-02 8.390136718750000000e+00 2.502495527267456055e+00 1.910924017429351807e-01
2.644000000000000000e+03 7.545108032226562500e+01 -1.598318386077880859e+01 -2.854933775961399078e-02 8.670057296752929688e+00 2.592452287673950195e+00 1.430104225873947144e-01
2.645000000000000000e+03 7.706095123291015625e+01 -1.647094154357910156e+01 9.204509551636874676e-04 8.919709205627441406e+00 2.676188945770263672e+00 8.813874423503875732e-02
2.646000000000000000e+03 6.258839416503906250e+01 -1.707249641418457031e+01 -2.225322872400283813e-01 6.799099445343017578e+00 1.972970128059387207e+00 2.801907956600189209e-01
2.647000000000000000e+03 6.410080718994140625e+01 -1.715061378479003906e+01 -1.911069154739379883e-01 7.017896175384521484e+00 2.048036813735961914e+00 2.887042760848999023e-01
2.648000000000000000e+03 7.062844848632812500e+01 -1.669427108764648438e+01 -8.915217965841293335e-02 7.931643486022949219e+00 2.352747440338134766e+00 2.387965917587280273e-01
2.649000000000000000e+03 7.234538269042968750e+01 -1.626041412353515625e+01 -6.296610087156295776e-02 8.205469131469726562e+00 2.442750930786132812e+00 2.026438415050506592e-01
2.650000000000000000e+03 3.503133392333984375e+01 -1.785156822204589844e+01 2.063688449561595917e-02 3.339039981365203857e-01 1.063622683286666870e-01 -1.110304668545722961e-01
2.651000000000000000e+03 3.873966979980468750e+01 -1.891006469726562500e+01 -2.132834680378437042e-02 1.427974343299865723e+00 4.219938218593597412e-01 -3.147201836109161377e-01
2.652000000000000000e+03 4.631732559204101562e+01 -1.886752319335937500e+01 -3.406851291656494141e-01 3.851402044296264648e+00 1.053215026855468750e+00 -2.057921737432479858e-01
2.653000000000000000e+03 5.010241699218750000e+01 -2.027064132690429688e+01 -3.316780924797058105e-01 4.849234580993652344e+00 1.355267047882080078e+00 -6.747828796505928040e-03
2.654000000000000000e+03 5.178368377685546875e+01 -2.026724815368652344e+01 -3.341873884201049805e-01 5.200388908386230469e+00 1.459860563278198242e+00 9.640426933765411377e-02
2.655000000000000000e+03 5.333910751342773438e+01 -2.024455261230468750e+01 -3.039824068546295166e-01 5.444715499877929688e+00 1.542219996452331543e+00 1.586535871028900146e-01
2.656000000000000000e+03 5.470292663574218750e+01 -2.015450286865234375e+01 -3.008743226528167725e-01 5.680152893066406250e+00 1.613783597946166992e+00 2.126939892768859863e-01
2.657000000000000000e+03 5.577070999145507812e+01 -1.970947837829589844e+01 -2.778735160827636719e-01 5.827179431915283203e+00 1.664791822433471680e+00 2.402637451887130737e-01
2.658000000000000000e+03 5.762183761596679688e+01 -2.053747558593750000e+01 -2.131821066141128540e-01 6.112472057342529297e+00 1.769786953926086426e+00 2.945634722709655762e-01
2.659000000000000000e+03 5.873875808715820312e+01 -1.997766304016113281e+01 -2.239294350147247314e-01 6.272487640380859375e+00 1.814567446708679199e+00 2.963765263557434082e-01
2.660000000000000000e+03 5.981772232055664062e+01 -1.937837028503417969e+01 -2.134453654289245605e-01 6.411840438842773438e+00 1.859518527984619141e+00 3.072033226490020752e-01
2.661000000000000000e+03 4.809604644775390625e+01 -1.880454444885253906e+01 -3.657446205615997314e-01 4.314248561859130859e+00 1.184551239013671875e+00 -1.314677000045776367e-01
2.662000000000000000e+03 4.983666229248046875e+01 -1.873336601257324219e+01 -3.832330405712127686e-01 4.713267803192138672e+00 1.299010396003723145e+00 -1.621022261679172516e-02
2.663000000000000000e+03 5.153854370117187500e+01 -1.861306571960449219e+01 -3.619897365570068359e-01 5.054409503936767578e+00 1.407725811004638672e+00 5.501202121376991272e-02
2.664000000000000000e+03 5.319690704345703125e+01 -1.866332054138183594e+01 -3.516211807727813721e-01 5.356848239898681641e+00 1.501568198204040527e+00 1.378951370716094971e-01
2.665000000000000000e+03 5.471645355224609375e+01 -1.892115402221679688e+01 -3.124580979347229004e-01 5.649881362915039062e+00 1.601226925849914551e+00 1.839571744203567505e-01
2.666000000000000000e+03 5.807820129394531250e+01 -1.871847724914550781e+01 -2.576975524425506592e-01 6.147691249847412109e+00 1.766998171806335449e+00 2.723064124584197998e-01
2.667000000000000000e+03 6.163875579833984375e+01 -1.972460174560546875e+01 -1.743076443672180176e-01 6.672167778015136719e+00 1.949358105659484863e+00 3.280591964721679688e-01
2.668000000000000000e+03 6.420256042480468750e+01 -2.104211616516113281e+01 -1.050633788108825684e-01 7.037594318389892578e+00 2.079759359359741211e+00 3.456614315509796143e-01
2.669000000000000000e+03 6.595957183837890625e+01 -1.948205757141113281e+01 -1.102712377905845642e-01 7.279567241668701172e+00 2.150788784027099609e+00 3.238728642463684082e-01
2.670000000000000000e+03 6.721493530273437500e+01 -1.963320350646972656e+01 -1.000765413045883179e-01 7.455231189727783203e+00 2.206546306610107422e+00 3.172081410884857178e-01
2.671000000000000000e+03 6.844319915771484375e+01 -1.968620109558105469e+01 -7.463860511779785156e-02 7.614137649536132812e+00 2.261849641799926758e+00 3.058214485645294189e-01
2.672000000000000000e+03 6.952367401123046875e+01 -1.966871833801269531e+01 -7.417163997888565063e-02 7.755821704864501953e+00 2.304495096206665039e+00 2.961786389350891113e-01
2.673000000000000000e+03 7.089160156250000000e+01 -1.920013999938964844e+01 -6.072223186492919922e-02 7.941867828369140625e+00 2.364343643188476562e+00 2.737415432929992676e-01
2.674000000000000000e+03 7.254840087890625000e+01 -1.874199676513671875e+01 -4.394674301147460938e-02 8.203393936157226562e+00 2.447834014892578125e+00 2.363493740558624268e-01
2.675000000000000000e+03 7.461748504638671875e+01 -1.960581016540527344e+01 -3.048816509544849396e-02 8.459012031555175781e+00 2.528557300567626953e+00 2.000128328800201416e-01
2.676000000000000000e+03 7.536299133300781250e+01 -1.876484680175781250e+01 -1.740983873605728149e-02 8.584909439086914062e+00 2.570249795913696289e+00 1.631069332361221313e-01
2.677000000000000000e+03 7.633846282958984375e+01 -1.774682807922363281e+01 -1.266516745090484619e-02 8.774045944213867188e+00 2.628414154052734375e+00 1.289915442466735840e-01
2.678000000000000000e+03 6.349957275390625000e+01 -1.997833251953125000e+01 -1.400737464427947998e-01 6.934758186340332031e+00 2.038405179977416992e+00 3.370998203754425049e-01
2.679000000000000000e+03 6.972550964355468750e+01 -1.872814369201660156e+01 -7.649999111890792847e-02 7.785397529602050781e+00 2.312669277191162109e+00 2.798782885074615479e-01
2.680000000000000000e+03 7.135670471191406250e+01 -1.821688461303710938e+01 -5.382360890507698059e-02 8.033910751342773438e+00 2.394026041030883789e+00 2.453659921884536743e-01
2.681000000000000000e+03 7.309008026123046875e+01 -1.769382095336914062e+01 -3.980530425906181335e-02 8.292096138000488281e+00 2.475687265396118164e+00 2.107003331184387207e-01
2.682000000000000000e+03 7.428063964843750000e+01 -1.816626548767089844e+01 -2.815065719187259674e-02 8.459575653076171875e+00 2.529427289962768555e+00 1.952122598886489868e-01
2.683000000000000000e+03 3.848723220825195312e+01 -2.055160713195800781e+01 5.632526054978370667e-02 1.279278755187988281e+00 4.006811976432800293e-01 -3.636123836040496826e-01
2.684000000000000000e+03 5.955055236816406250e+01 -2.125392341613769531e+01 -1.602873355150222778e-01 6.395099163055419922e+00 1.870443463325500488e+00 3.356615900993347168e-01
2.685000000000000000e+03 6.337428665161132812e+01 -2.182896232604980469e+01 -9.443581849336624146e-02 6.919289112091064453e+00 2.047456026077270508e+00 3.649627268314361572e-01
2.686000000000000000e+03 6.505289459228515625e+01 -2.187962150573730469e+01 -7.729221880435943604e-02 7.144096851348876953e+00 2.120041370391845703e+00 3.585165143013000488e-01
2.687000000000000000e+03 6.654648590087890625e+01 -2.162963485717773438e+01 -7.295802980661392212e-02 7.338946819305419922e+00 2.179796457290649414e+00 3.494597673416137695e-01
2.688000000000000000e+03 6.876640319824218750e+01 -2.074399566650390625e+01 -7.262837141752243042e-02 7.644280910491943359e+00 2.271495819091796875e+00 3.130351006984710693e-01
2.689000000000000000e+03 7.040933227539062500e+01 -2.004046440124511719e+01 -5.713561549782752991e-02 7.865727424621582031e+00 2.342577695846557617e+00 2.838074266910552979e-01
2.690000000000000000e+03 7.430156707763671875e+01 -2.045497703552246094e+01 -1.474427618086338043e-02 8.391182899475097656e+00 2.512931585311889648e+00 2.108749449253082275e-01
2.691000000000000000e+03 7.554149627685546875e+01 -2.116390419006347656e+01 -1.109662652015686035e-02 8.540268898010253906e+00 2.558751821517944336e+00 1.779480278491973877e-01
2.692000000000000000e+03 7.786229705810546875e+01 -2.004804229736328125e+01 -3.464156994596123695e-03 8.943162918090820312e+00 2.681909799575805664e+00 8.777541667222976685e-02
2.693000000000000000e+03 4.387005615234375000e+01 -2.440085983276367188e+01 -1.140690073370933533e-01 3.447732210159301758e+00 1.000098943710327148e+00 -5.720291733741760254e-01
2.694000000000000000e+03 4.531347274780273438e+01 -2.427351188659667969e+01 -1.907127052545547485e-01 3.984556674957275391e+00 1.138153195381164551e+00 -4.251906275749206543e-01
2.695000000000000000e+03 4.623086166381835938e+01 -2.383451652526855469e+01 -2.317150086164474487e-01 4.264551639556884766e+00 1.209851026535034180e+00 -3.166331946849822998e-01
2.696000000000000000e+03 4.753419113159179688e+01 -2.350623130798339844e+01 -2.534710168838500977e-01 4.517872810363769531e+00 1.279320478439331055e+00 -2.011352032423019409e-01
2.697000000000000000e+03 5.050310897827148438e+01 -2.322830009460449219e+01 -2.634828388690948486e-01 5.098788738250732422e+00 1.450591802597045898e+00 4.480867087841033936e-02
2.698000000000000000e+03 4.903530883789062500e+01 -2.331986427307128906e+01 -2.688926160335540771e-01 4.836466312408447266e+00 1.370272159576416016e+00 -5.587482824921607971e-02
2.699000000000000000e+03 4.242618179321289062e+01 -2.501420402526855469e+01 1.962956413626670837e-02 2.888306617736816406e+00 8.723809123039245605e-01 -7.305660843849182129e-01
2.700000000000000000e+03 4.293459320068359375e+01 -2.698854637145996094e+01 1.559156626462936401e-01 3.301131010055541992e+00 1.037114024162292480e+00 -8.945071101188659668e-01
2.701000000000000000e+03 4.360469055175781250e+01 -2.802647399902343750e+01 1.751570105552673340e-01 3.716104984283447266e+00 1.167378664016723633e+00 -9.525465965270996094e-01
2.702000000000000000e+03 4.523593521118164062e+01 -2.916858673095703125e+01 1.024428158998489380e-01 4.886878013610839844e+00 1.496796250343322754e+00 -6.673496961593627930e-01
2.703000000000000000e+03 4.557844543457031250e+01 -3.123845100402832031e+01 4.024246037006378174e-01 5.686353206634521484e+00 1.826633334159851074e+00 -5.275348424911499023e-01
2.704000000000000000e+03 4.797298431396484375e+01 -3.283311080932617188e+01 7.974912524223327637e-01 5.801014423370361328e+00 1.979551672935485840e+00 -5.428601056337356567e-02
2.705000000000000000e+03 5.067078018188476562e+01 -3.593075180053710938e+01 9.089902639389038086e-01 5.906496524810791016e+00 2.044646024703979492e+00 -3.938754275441169739e-02
2.706000000000000000e+03 4.941539764404296875e+01 -3.346098327636718750e+01 8.438987731933593750e-01 5.796139717102050781e+00 1.992011547088623047e+00 9.110207855701446533e-02
2.707000000000000000e+03 4.972856903076171875e+01 -3.190244102478027344e+01 5.760503411293029785e-01 5.675738334655761719e+00 1.875536680221557617e+00 1.204544231295585632e-01
2.708000000000000000e+03 4.836878585815429688e+01 -2.987905120849609375e+01 2.654318213462829590e-01 5.449114322662353516e+00 1.714363813400268555e+00 -1.079269684851169586e-02
2.709000000000000000e+03 4.674482345581054688e+01 -2.801368331909179688e+01 -1.354307215660810471e-02 4.917950153350830078e+00 1.471322059631347656e+00 -3.019308149814605713e-01
2.710000000000000000e+03 4.553966140747070312e+01 -2.615058898925781250e+01 -1.313080042600631714e-01 4.364591598510742188e+00 1.269985079765319824e+00 -5.154321789741516113e-01
2.711000000000000000e+03 4.363238143920898438e+01 -2.536582756042480469e+01 -6.157398223876953125e-02 3.520761728286743164e+00 1.037756323814392090e+00 -6.759295463562011719e-01
2.712000000000000000e+03 4.484210205078125000e+01 -2.489713096618652344e+01 -1.339961290359497070e-01 3.886018037796020508e+00 1.125606656074523926e+00 -5.495494604110717773e-01
2.713000000000000000e+03 4.674478530883789062e+01 -2.515290069580078125e+01 -1.831473559141159058e-01 4.532917022705078125e+00 1.304930925369262695e+00 -2.881107926368713379e-01
2.714000000000000000e+03 4.809870529174804688e+01 -2.505347061157226562e+01 -1.917279958724975586e-01 4.829126358032226562e+00 1.391219496726989746e+00 -1.318525969982147217e-01
2.715000000000000000e+03 5.012314987182617188e+01 -2.650563049316406250e+01 -7.109377533197402954e-02 5.341192245483398438e+00 1.581029653549194336e+00 9.623182564973831177e-02
2.716000000000000000e+03 4.955424499511718750e+01 -2.486457443237304688e+01 -1.805045306682586670e-01 5.076746940612792969e+00 1.468872666358947754e+00 -4.174139350652694702e-03
2.717000000000000000e+03 5.465337371826171875e+01 -2.550198936462402344e+01 -3.767478093504905701e-02 5.851977348327636719e+00 1.744290709495544434e+00 3.256351053714752197e-01
2.718000000000000000e+03 5.304463577270507812e+01 -2.596929550170898438e+01 -7.077248394489288330e-02 5.634044647216796875e+00 1.668981552124023438e+00 2.624159753322601318e-01
2.719000000000000000e+03 4.097645568847656250e+01 -2.487505149841308594e+01 1.490826904773712158e-01 2.157810926437377930e+00 6.920680999755859375e-01 -7.171226739883422852e-01
2.720000000000000000e+03 4.127979278564453125e+01 -2.609158515930175781e+01 2.603806257247924805e-01 2.325077533721923828e+00 7.756373882293701172e-01 -8.596200942993164062e-01
2.721000000000000000e+03 4.237902450561523438e+01 -2.833559799194335938e+01 3.981923460960388184e-01 3.039311408996582031e+00 1.031251192092895508e+00 -1.138312220573425293e+00
2.722000000000000000e+03 4.406325912475585938e+01 -2.912644958496093750e+01 2.434511035680770874e-01 4.195840835571289062e+00 1.331787586212158203e+00 -1.003728389739990234e+00
2.723000000000000000e+03 4.676869201660156250e+01 -3.096836090087890625e+01 3.940078616142272949e-01 5.485683917999267578e+00 1.763907432556152344e+00 -2.473821491003036499e-01
2.724000000000000000e+03 4.659075164794921875e+01 -3.223142242431640625e+01 7.110984921455383301e-01 5.860251903533935547e+00 1.971405148506164551e+00 -2.060566544532775879e-01
2.725000000000000000e+03 4.893265151977539062e+01 -3.520477294921875000e+01 1.030941128730773926e+00 5.860848903656005859e+00 2.067537069320678711e+00 -1.229478940367698669e-01
2.726000000000000000e+03 4.470824050903320312e+01 -2.665798568725585938e+01 -3.640586137771606445e-02 4.053591251373291016e+00 1.205155611038208008e+00 -6.120262742042541504e-01
2.727000000000000000e+03 4.680270767211914062e+01 -2.656210708618164062e+01 -1.058234125375747681e-01 4.737871170043945312e+00 1.389614343643188477e+00 -2.692301869392395020e-01
2.728000000000000000e+03 4.848979949951171875e+01 -2.669908905029296875e+01 -7.926896959543228149e-02 5.107225418090820312e+00 1.508386850357055664e+00 -7.493191212415695190e-02
2.729000000000000000e+03 5.568840789794921875e+01 -2.602940368652343750e+01 6.738554220646619797e-03 5.958331584930419922e+00 1.789520978927612305e+00 3.286577165126800537e-01
2.730000000000000000e+03 7.497711944580078125e+01 -2.419163703918457031e+01 -9.638117626309394836e-03 8.383511543273925781e+00 2.512162208557128906e+00 2.008245885372161865e-01
2.731000000000000000e+03 7.765043640136718750e+01 -2.458336448669433594e+01 5.780353676527738571e-04 8.693093299865722656e+00 2.608101367950439453e+00 1.089937612414360046e-01
2.732000000000000000e+03 4.177764129638671875e+01 -2.724135971069335938e+01 3.320627212524414062e-01 2.610654354095458984e+00 8.828151226043701172e-01 -1.018743753433227539e+00
2.733000000000000000e+03 4.504706192016601562e+01 -2.786066436767578125e+01 7.700090063735842705e-04 4.456376552581787109e+00 1.337144017219543457e+00 -6.224767565727233887e-01
2.734000000000000000e+03 4.853747940063476562e+01 -2.833876037597656250e+01 6.234243884682655334e-02 5.319110870361328125e+00 1.614436030387878418e+00 5.924110300838947296e-03
2.735000000000000000e+03 5.012699890136718750e+01 -2.894259834289550781e+01 1.801445633172988892e-01 5.507911205291748047e+00 1.706416726112365723e+00 1.249275282025337219e-01
2.736000000000000000e+03 5.223118972778320312e+01 -2.764311408996582031e+01 6.388761848211288452e-02 5.659041404724121094e+00 1.716878652572631836e+00 2.467967271804809570e-01
2.737000000000000000e+03 5.536210632324218750e+01 -2.712908744812011719e+01 6.209033355116844177e-02 5.970951080322265625e+00 1.809912443161010742e+00 3.543885350227355957e-01
2.738000000000000000e+03 4.124021911621093750e+01 -2.863808631896972656e+01 6.238664388656616211e-01 2.213592767715454102e+00 8.512377738952636719e-01 -1.196614742279052734e+00
2.739000000000000000e+03 4.300992965698242188e+01 -2.944927978515625000e+01 4.563486874103546143e-01 3.559670209884643555e+00 1.204805731773376465e+00 -1.249133110046386719e+00
2.740000000000000000e+03 4.372595214843750000e+01 -3.057615852355957031e+01 5.207734107971191406e-01 4.477635383605957031e+00 1.499522686004638672e+00 -1.356912493705749512e+00
2.741000000000000000e+03 4.622986221313476562e+01 -3.348195648193359375e+01 9.408136010169982910e-01 6.195690155029296875e+00 2.140951156616210938e+00 -3.741063475608825684e-01
2.742000000000000000e+03 4.753056335449218750e+01 -3.431356048583984375e+01 1.071803450584411621e+00 6.037815570831298828e+00 2.132885694503784180e+00 -7.313654571771621704e-02
2.743000000000000000e+03 4.672996520996093750e+01 -2.950720214843750000e+01 1.687701642513275146e-01 5.240616321563720703e+00 1.622815847396850586e+00 -2.445918619632720947e-01
2.744000000000000000e+03 4.994981384277343750e+01 -3.041811752319335938e+01 3.597404360771179199e-01 5.610390186309814453e+00 1.791039228439331055e+00 1.839086264371871948e-01
2.745000000000000000e+03 5.151992034912109375e+01 -2.936711692810058594e+01 2.455289363861083984e-01 5.703582763671875000e+00 1.784733414649963379e+00 2.594114243984222412e-01
2.746000000000000000e+03 6.375019073486328125e+01 -2.740074729919433594e+01 8.006113022565841675e-02 6.947136402130126953e+00 2.108159303665161133e+00 3.668841123580932617e-01
2.747000000000000000e+03 4.475097274780273438e+01 -3.008798789978027344e+01 2.260886728763580322e-01 4.921043872833251953e+00 1.544139742851257324e+00 -8.923565149307250977e-01
2.748000000000000000e+03 4.822236251831054688e+01 -3.136212539672851562e+01 4.907915890216827393e-01 5.636839389801025391e+00 1.838289380073547363e+00 3.983141481876373291e-02
2.749000000000000000e+03 5.168068695068359375e+01 -3.099744606018066406e+01 4.535057246685028076e-01 5.717547416687011719e+00 1.851315975189208984e+00 2.317457795143127441e-01
2.750000000000000000e+03 5.512762069702148438e+01 -3.060948371887207031e+01 3.751685619354248047e-01 5.978981971740722656e+00 1.906245112419128418e+00 3.399421870708465576e-01
2.751000000000000000e+03 5.913767623901367188e+01 -3.038242912292480469e+01 2.569135725498199463e-01 6.397371292114257812e+00 1.996285438537597656e+00 3.429222106933593750e-01
2.752000000000000000e+03 6.201188278198242188e+01 -3.056427001953125000e+01 2.158019095659255981e-01 6.721777439117431641e+00 2.081273794174194336e+00 3.273261189460754395e-01
2.753000000000000000e+03 4.338803482055664062e+01 -3.215703964233398438e+01 1.004669785499572754e+00 4.872338771820068359e+00 1.763102650642395020e+00 -2.018132925033569336e+00
2.754000000000000000e+03 5.094185638427734375e+01 -3.400122451782226562e+01 8.085142374038696289e-01 5.786067962646484375e+00 1.978374719619750977e+00 7.718782126903533936e-02
2.755000000000000000e+03 7.751443481445312500e+01 -3.211747741699218750e+01 9.832899086177349091e-04 8.400093078613281250e+00 2.520323038101196289e+00 8.854155987501144409e-02
2.756000000000000000e+03 7.912046051025390625e+01 -3.065538406372070312e+01 -2.886253874748945236e-03 8.608467102050781250e+00 2.581674098968505859e+00 3.463898599147796631e-02
2.757000000000000000e+03 4.506676101684570312e+01 -3.328802490234375000e+01 9.051898717880249023e-01 6.669133186340332031e+00 2.272296905517578125e+00 -6.517527103424072266e-01
2.758000000000000000e+03 4.637015151977539062e+01 -3.822592544555664062e+01 7.902237176895141602e-01 6.698742389678955078e+00 2.246689796447753906e+00 -5.155909061431884766e-01
2.759000000000000000e+03 7.387602996826171875e+01 -3.466866683959960938e+01 5.478001758456230164e-02 7.982462406158447266e+00 2.411172628402709961e+00 1.366876214742660522e-01
2.760000000000000000e+03 7.459774780273437500e+01 -3.299147415161132812e+01 4.196854308247566223e-02 8.068871498107910156e+00 2.433251857757568359e+00 1.582081466913223267e-01
2.761000000000000000e+03 4.506520462036132812e+01 -3.546272277832031250e+01 9.038026332855224609e-01 8.194698333740234375e+00 2.729550123214721680e+00 -2.139642089605331421e-01
2.762000000000000000e+03 7.748115539550781250e+01 -3.492031478881835938e+01 1.180299930274486542e-02 8.313907623291015625e+00 2.497713327407836914e+00 7.384169846773147583e-02
2.763000000000000000e+03 4.835361480712890625e+01 -4.104703521728515625e+01 4.560193791985511780e-02 6.222267150878906250e+00 1.880360722541809082e+00 -2.333267629146575928e-01
2.764000000000000000e+03 6.851366424560546875e+01 -3.714061737060546875e+01 2.014992982149124146e-01 7.405357360839843750e+00 2.282057046890258789e+00 1.644800454378128052e-01
2.765000000000000000e+03 6.137700557708740234e+00 -3.812122726440429688e+01 1.662416150793433189e-03 -2.945826053619384766e-01 -8.787605166435241699e-02 -9.312011301517486572e-03
2.766000000000000000e+03 8.724827766418457031e+00 -3.852311706542968750e+01 4.006390925496816635e-03 -2.098959535360336304e-01 -6.176687031984329224e-02 -4.388816654682159424e-03
2.767000000000000000e+03 3.966810989379882812e+01 -4.000146865844726562e+01 6.113852858543395996e-01 1.175177097320556641e-01 2.186708897352218628e-01 -2.829962372779846191e-01
2.768000000000000000e+03 6.788652038574218750e+01 -4.060736083984375000e+01 2.243604511022567749e-01 7.311796665191650391e+00 2.260847091674804688e+00 4.316165670752525330e-02
2.769000000000000000e+03 5.919741058349609375e+01 -3.753565216064453125e+01 4.777403771877288818e-01 6.456278324127197266e+00 2.080205678939819336e+00 1.257223039865493774e-01
2.770000000000000000e+03 5.622611236572265625e+01 -3.842371749877929688e+01 5.766651630401611328e-01 6.261529922485351562e+00 2.051458358764648438e+00 9.182695299386978149e-02
2.771000000000000000e+03 6.130253601074218750e+01 -4.071882629394531250e+01 4.103395044803619385e-01 6.703767776489257812e+00 2.134232282638549805e+00 6.520534306764602661e-02
2.772000000000000000e+03 7.771609497070312500e+01 -3.930319976806640625e+01 -1.805661013349890709e-04 8.305804252624511719e+00 2.491687059402465820e+00 7.063391059637069702e-02
2.773000000000000000e+03 3.310077667236328125e+01 -4.117459487915039062e+01 3.081527650356292725e-01 2.351917922496795654e-01 1.630033701658248901e-01 -1.321770809590816498e-02
2.774000000000000000e+03 2.662336730957031250e+01 -3.419007110595703125e+01 9.204224497079849243e-02 3.061628639698028564e-01 1.194615289568901062e-01 -1.242936253547668457e-01
2.775000000000000000e+03 1.075501728057861328e+01 -3.555429840087890625e+01 1.780596445314586163e-03 -1.237905770540237427e-01 -3.660299256443977356e-02 -1.548510324209928513e-02
2.776000000000000000e+03 9.450778007507324219e+00 -3.346742248535156250e+01 1.485669892281293869e-02 -1.713946908712387085e-01 -4.696139693260192871e-02 -1.319344248622655869e-02
2.777000000000000000e+03 4.268982410430908203e+00 -3.771015548706054688e+01 5.955639760941267014e-03 -3.980898559093475342e-01 -1.176402643322944641e-01 -1.202931161969900131e-02
2.778000000000000000e+03 2.570749473571777344e+01 -3.206721115112304688e+01 1.279232352972030640e-01 3.109556436538696289e-01 1.316636651754379272e-01 -1.357701420783996582e-01
2.779000000000000000e+03 2.128694152832031250e+01 -3.288288116455078125e+01 7.547849416732788086e-02 2.060944437980651855e-01 8.447188138961791992e-02 -9.360732138156890869e-02
2.780000000000000000e+03 1.694874382019042969e+01 -3.190727615356445312e+01 3.633496910333633423e-02 1.028557270765304565e-01 4.175720736384391785e-02 -6.713858246803283691e-02
2.781000000000000000e+03 5.456933975219726562e+00 -3.505143356323242188e+01 1.275363261811435223e-03 -3.224955797195434570e-01 -9.636606276035308838e-02 -6.792726460844278336e-03
2.782000000000000000e+03 3.287096023559570312e+01 -3.263162994384765625e+01 2.542204856872558594e-01 3.871976733207702637e-01 1.924254447221755981e-01 -2.644512355327606201e-01
2.783000000000000000e+03 2.407433700561523438e+01 -2.997963523864746094e+01 9.539883583784103394e-02 2.949240207672119141e-01 1.170968562364578247e-01 -1.482276916503906250e-01
2.784000000000000000e+03 6.522791385650634766e+00 -3.354716873168945312e+01 8.075312711298465729e-03 -2.688419818878173828e-01 -7.823000103235244751e-02 -8.084118366241455078e-03
2.785000000000000000e+03 2.680827140808105469e+01 -2.971516418457031250e+01 1.236066818237304688e-01 3.718782365322113037e-01 1.486454755067825317e-01 -1.683364212512969971e-01
2.786000000000000000e+03 2.444843673706054688e+01 -2.865237426757812500e+01 7.780584692955017090e-02 3.326985538005828857e-01 1.231513246893882751e-01 -1.501353532075881958e-01
2.787000000000000000e+03 2.287911415100097656e+01 -2.950673484802246094e+01 6.283129006624221802e-02 2.858979105949401855e-01 1.046187579631805420e-01 -1.273600310087203979e-01
2.788000000000000000e+03 4.030115604400634766e+00 -3.169819641113281250e+01 1.507411245256662369e-03 -3.768579661846160889e-01 -1.126051694154739380e-01 -5.383290350437164307e-03
2.789000000000000000e+03 2.603250694274902344e+01 -2.749155235290527344e+01 8.277782797813415527e-02 3.804969489574432373e-01 1.389824301004409790e-01 -1.849404573440551758e-01
2.790000000000000000e+03 1.584711456298828125e+01 -2.926604843139648438e+01 3.356720507144927979e-02 8.554933220148086548e-02 3.573496267199516296e-02 -7.159285992383956909e-02
2.791000000000000000e+03 1.107764053344726562e+01 -2.737508010864257812e+01 1.695683039724826813e-02 -8.337729424238204956e-02 -1.992614008486270905e-02 -4.038123413920402527e-02
2.792000000000000000e+03 1.866558074951171875e+01 -2.433457565307617188e+01 4.983452707529067993e-02 2.242468297481536865e-01 8.222440630197525024e-02 -1.217093765735626221e-01
2.793000000000000000e+03 2.034502220153808594e+01 -2.481739425659179688e+01 5.426227301359176636e-02 2.654107213020324707e-01 9.590189903974533081e-02 -1.290904879570007324e-01
2.794000000000000000e+03 1.469503402709960938e+01 -2.578912734985351562e+01 2.832469902932643890e-02 6.743382662534713745e-02 2.872755751013755798e-02 -7.004232704639434814e-02
2.795000000000000000e+03 8.602025032043457031e+00 -2.659559631347656250e+01 6.738740485161542892e-03 -1.726062744855880737e-01 -4.976025968790054321e-02 -2.788279391825199127e-02
2.796000000000000000e+03 2.809382629394531250e+01 -2.398485565185546875e+01 1.033433228731155396e-01 4.766438901424407959e-01 1.739961653947830200e-01 -2.375886887311935425e-01
2.797000000000000000e+03 2.085895347595214844e+01 -2.202606391906738281e+01 6.687998026609420776e-02 3.181613087654113770e-01 1.155123859643936157e-01 -1.552201509475708008e-01
2.798000000000000000e+03 1.731693840026855469e+01 -2.342282295227050781e+01 5.310300365090370178e-02 1.849979758262634277e-01 7.143029570579528809e-02 -1.024914756417274475e-01
2.799000000000000000e+03 1.338358020782470703e+01 -2.519288253784179688e+01 2.899444289505481720e-02 3.223754838109016418e-02 1.836959831416606903e-02 -5.946177244186401367e-02
2.800000000000000000e+03 2.630669784545898438e+01 -2.316683387756347656e+01 9.287571161985397339e-02 4.356363713741302490e-01 1.585536301136016846e-01 -2.216709554195404053e-01
2.801000000000000000e+03 2.579531478881835938e+01 -2.194888877868652344e+01 1.155207157135009766e-01 4.346484243869781494e-01 1.650507450103759766e-01 -2.144570499658584595e-01
2.802000000000000000e+03 2.354071807861328125e+01 -2.011413002014160156e+01 8.401003479957580566e-02 4.051015079021453857e-01 1.467334628105163574e-01 -2.175021767616271973e-01
2.803000000000000000e+03 2.122940063476562500e+01 -1.856714248657226562e+01 9.108249098062515259e-02 3.909314274787902832e-01 1.446041762828826904e-01 -1.895246505737304688e-01
2.804000000000000000e+03 2.293879699707031250e+01 -1.903685188293457031e+01 1.026923954486846924e-01 4.151484072208404541e-01 1.553522497415542603e-01 -2.145518213510513306e-01
2.805000000000000000e+03 8.791282653808593750e+00 -2.382677650451660156e+01 2.326433174312114716e-02 -1.505908071994781494e-01 -3.819794207811355591e-02 -3.588716313242912292e-02
2.806000000000000000e+03 7.895345687866210938e+00 -2.413725280761718750e+01 1.088166143745183945e-02 -1.897371560335159302e-01 -5.365664884448051453e-02 -3.153766691684722900e-02
2.807000000000000000e+03 2.638435935974121094e+01 -2.026365661621093750e+01 1.241129040718078613e-01 4.597634375095367432e-01 1.751628965139389038e-01 -2.265447527170181274e-01
2.808000000000000000e+03 2.403954124450683594e+01 -1.845383644104003906e+01 1.019022762775421143e-01 4.256293475627899170e-01 1.582594811916351318e-01 -2.396017909049987793e-01
2.809000000000000000e+03 2.175008392333984375e+01 -1.703488540649414062e+01 1.050982102751731873e-01 4.389566779136657715e-01 1.632164716720581055e-01 -2.158630788326263428e-01
2.810000000000000000e+03 2.059864997863769531e+01 -2.030652046203613281e+01 7.807604968547821045e-02 3.361690640449523926e-01 1.242735385894775391e-01 -1.609520912170410156e-01
2.811000000000000000e+03 8.693784713745117188e+00 -2.222362327575683594e+01 2.424727194011211395e-02 -1.477748900651931763e-01 -3.705828264355659485e-02 -4.235102608799934387e-02
2.812000000000000000e+03 7.245299339294433594e+00 -2.163776588439941406e+01 2.772692777216434479e-02 -2.036445885896682739e-01 -5.277530103921890259e-02 -4.112577810883522034e-02
2.813000000000000000e+03 5.741926670074462891e+00 -2.127022933959960938e+01 1.305261254310607910e-02 -2.637394666671752930e-01 -7.520605623722076416e-02 -3.268459066748619080e-02
2.814000000000000000e+03 4.173976421356201172e+00 -2.100418472290039062e+01 1.583689637482166290e-02 -3.301092982292175293e-01 -9.428171813488006592e-02 -2.764490246772766113e-02
2.815000000000000000e+03 1.408190727233886719e+01 -1.866161155700683594e+01 6.639267504215240479e-02 1.038100942969322205e-01 5.106082931160926819e-02 -7.686648517847061157e-02
2.816000000000000000e+03 2.445223999023437500e+01 -1.670388031005859375e+01 1.309683918952941895e-01 4.254872798919677734e-01 1.669367104768753052e-01 -2.583068907260894775e-01
2.817000000000000000e+03 1.816580390930175781e+01 -1.555880928039550781e+01 8.065460622310638428e-02 3.531959652900695801e-01 1.301551759243011475e-01 -1.300092041492462158e-01
2.818000000000000000e+03 1.649059486389160156e+01 -1.691217803955078125e+01 8.366067707538604736e-02 2.334221452474594116e-01 9.512484818696975708e-02 -1.051286458969116211e-01
2.819000000000000000e+03 1.609472656250000000e+01 -1.596558284759521484e+01 8.538611978292465210e-02 2.273821979761123657e-01 9.383049607276916504e-02 -9.598786383867263794e-02
2.820000000000000000e+03 1.262873268127441406e+01 -1.787750816345214844e+01 7.270193099975585938e-02 3.951165080070495605e-02 3.366407379508018494e-02 -7.578024268150329590e-02
2.821000000000000000e+03 2.088952827453613281e+01 -1.635787010192871094e+01 1.046024933457374573e-01 4.299354851245880127e-01 1.603613942861557007e-01 -2.028124779462814331e-01
2.822000000000000000e+03 2.167398071289062500e+01 -1.530047798156738281e+01 1.265788376331329346e-01 4.665069580078125000e-01 1.779257357120513916e-01 -2.223474383354187012e-01
2.823000000000000000e+03 2.288697433471679688e+01 -1.444599151611328125e+01 1.709045618772506714e-01 5.116978287696838379e-01 2.047807127237319946e-01 -2.975077927112579346e-01
2.824000000000000000e+03 1.877993202209472656e+01 -1.314112281799316406e+01 9.897893667221069336e-02 4.690971970558166504e-01 1.704228371381759644e-01 -1.456698179244995117e-01
2.825000000000000000e+03 1.715739250183105469e+01 -1.572906494140625000e+01 9.844500571489334106e-02 2.926241755485534668e-01 1.173207536339759827e-01 -1.169823631644248962e-01
2.826000000000000000e+03 1.547928047180175781e+01 -1.500029563903808594e+01 1.093248352408409119e-01 1.971447467803955078e-01 9.194087237119674683e-02 -8.097741752862930298e-02
2.827000000000000000e+03 1.434008789062500000e+01 -1.576016044616699219e+01 9.331358224153518677e-02 1.391930729150772095e-01 6.975200027227401733e-02 -8.472469449043273926e-02
2.828000000000000000e+03 1.229726123809814453e+01 -1.572657680511474609e+01 9.804780781269073486e-02 2.870088443160057068e-02 3.802460804581642151e-02 -8.060890436172485352e-02
2.829000000000000000e+03 1.728016662597656250e+01 -1.249012565612792969e+01 1.169091686606407166e-01 3.653429448604583740e-01 1.446756273508071899e-01 -9.525848925113677979e-02
2.830000000000000000e+03 1.954931068420410156e+01 -1.151531696319580078e+01 1.160800755023956299e-01 6.231445670127868652e-01 2.217673957347869873e-01 -2.065433710813522339e-01
2.831000000000000000e+03 1.147514438629150391e+01 -1.356528472900390625e+01 1.246789023280143738e-01 -2.297837100923061371e-02 3.051015920937061310e-02 -9.730265289545059204e-02
2.832000000000000000e+03 9.972025871276855469e+00 -1.463712310791015625e+01 9.714740514755249023e-02 -8.988124877214431763e-02 2.179846633225679398e-03 -9.230808913707733154e-02
2.833000000000000000e+03 8.662989616394042969e+00 -1.468471622467041016e+01 7.738069444894790649e-02 -1.300748139619827271e-01 -1.580823399126529694e-02 -9.506328403949737549e-02
2.834000000000000000e+03 1.760074996948242188e+01 -9.667022705078125000e+00 1.681282967329025269e-01 5.082388520240783691e-01 2.029101550579071045e-01 -8.238869160413742065e-02
2.835000000000000000e+03 8.928733825683593750e+00 -1.152530002593994141e+01 9.432926774024963379e-02 -1.383966058492660522e-01 -1.322020031511783600e-02 -1.398162096738815308e-01
2.836000000000000000e+03 6.508362293243408203e+00 -1.285001659393310547e+01 6.056018918752670288e-02 -1.895737648010253906e-01 -3.870407491922378540e-02 -1.201872229576110840e-01
2.837000000000000000e+03 1.620645332336425781e+01 -9.571619987487792969e+00 1.792300045490264893e-01 3.241425454616546631e-01 1.510117650032043457e-01 -3.599817305803298950e-02
2.838000000000000000e+03 1.490569972991943359e+01 -9.694989204406738281e+00 2.026106417179107666e-01 1.368112415075302124e-01 1.018265709280967712e-01 -5.748259276151657104e-02
2.839000000000000000e+03 1.358045196533203125e+01 -9.816604614257812500e+00 1.768743693828582764e-01 2.491465583443641663e-02 6.053670868277549744e-02 -1.008924618363380432e-01
2.840000000000000000e+03 1.037379074096679688e+01 -9.710833549499511719e+00 1.225632801651954651e-01 -1.149556413292884827e-01 2.282290719449520111e-03 -1.635971963405609131e-01
2.841000000000000000e+03 5.255818367004394531e+00 -1.128479099273681641e+01 3.680627420544624329e-02 -2.070608586072921753e-01 -5.107637494802474976e-02 -1.297851204872131348e-01
2.842000000000000000e+03 1.573973941802978516e+01 -7.424513816833496094e+00 2.256374508142471313e-01 2.016468793153762817e-01 1.281853020191192627e-01 -2.704123035073280334e-02
2.843000000000000000e+03 1.428523254394531250e+01 -7.331645965576171875e+00 2.190795689821243286e-01 -1.280548889189958572e-02 6.188222765922546387e-02 -1.138952150940895081e-01
2.844000000000000000e+03 1.308347034454345703e+01 -7.604579925537109375e+00 1.798230558633804321e-01 -8.106647431850433350e-02 2.962697483599185944e-02 -1.662455499172210693e-01
2.845000000000000000e+03 1.184305953979492188e+01 -7.742894172668457031e+00 1.281621158123016357e-01 -1.118597984313964844e-01 4.890694282948970795e-03 -2.008145153522491455e-01
2.846000000000000000e+03 7.453776359558105469e+00 -8.356569290161132812e+00 3.092093206942081451e-02 -1.463864296674728394e-01 -3.463964909315109253e-02 -1.904154270887374878e-01
2.847000000000000000e+03 5.482119560241699219e+00 -9.021854400634765625e+00 1.986413449048995972e-02 -1.698051095008850098e-01 -4.498229175806045532e-02 -1.595400422811508179e-01
2.848000000000000000e+03 3.940214633941650391e+00 -8.881605148315429688e+00 1.085518952459096909e-02 -1.827049702405929565e-01 -5.155493319034576416e-02 -1.273023635149002075e-01
2.849000000000000000e+03 1.550949192047119141e+01 -5.930593967437744141e+00 2.366984039545059204e-01 -1.077157538384199142e-02 6.777804344892501831e-02 -6.773865222930908203e-02
2.850000000000000000e+03 1.340866374969482422e+01 -5.819058418273925781e+00 1.006476432085037231e-01 -1.597239971160888672e-01 -1.772290468215942383e-02 -2.361918836832046509e-01
2.851000000000000000e+03 1.224006557464599609e+01 -5.818328380584716797e+00 3.632564842700958252e-02 -1.608958840370178223e-01 -3.737106919288635254e-02 -2.771576344966888428e-01
2.852000000000000000e+03 9.155783653259277344e+00 -6.703606128692626953e+00 1.782137434929609299e-03 -1.241626292467117310e-01 -3.671414777636528015e-02 -2.452483773231506348e-01
2.853000000000000000e+03 7.233680248260498047e+00 -5.799608230590820312e+00 -4.993677139282226562e-02 -9.899987280368804932e-02 -4.468099400401115417e-02 -2.066565454006195068e-01
2.854000000000000000e+03 4.690083026885986328e+00 -5.842615604400634766e+00 -3.414548188447952271e-02 -9.903126955032348633e-02 -3.995302692055702209e-02 -1.444341987371444702e-01
2.855000000000000000e+03 3.993500471115112305e+00 -6.181041240692138672e+00 -1.887043938040733337e-02 -1.162760257720947266e-01 -4.054393991827964783e-02 -1.295885145664215088e-01
2.856000000000000000e+03 1.503664302825927734e+01 -3.803555011749267578e+00 -4.005960375070571899e-02 -2.990459501743316650e-01 -1.017316654324531555e-01 -3.235543668270111084e-01
2.857000000000000000e+03 1.252284812927246094e+01 -4.294576644897460938e+00 -1.643576025962829590e-01 -1.606251448392868042e-01 -9.749482572078704834e-02 -3.523743152618408203e-01
2.858000000000000000e+03 1.108423805236816406e+01 -4.404755592346191406e+00 -1.705990433692932129e-01 -1.055272445082664490e-01 -8.283788710832595825e-02 -3.099816143512725830e-01
2.859000000000000000e+03 9.590316772460937500e+00 -4.391616344451904297e+00 -1.562977880239486694e-01 -7.137781381607055664e-02 -6.830267608165740967e-02 -2.581500411033630371e-01
2.860000000000000000e+03 5.981078624725341797e+00 -4.483062267303466797e+00 -7.794652879238128662e-02 -6.797482073307037354e-02 -4.377640411257743835e-02 -1.564293652772903442e-01
2.861000000000000000e+03 3.592830419540405273e+00 -5.322816371917724609e+00 -2.586436830461025238e-02 -9.566204994916915894e-02 -3.645792603492736816e-02 -1.113609224557876587e-01
2.862000000000000000e+03 1.170375061035156250e+01 -2.901781797409057617e+00 -4.052727222442626953e-01 -6.685915589332580566e-02 -1.416395604610443115e-01 -2.956303656101226807e-01
2.863000000000000000e+03 9.496117591857910156e+00 -2.751940011978149414e+00 -2.782785296440124512e-01 -1.281018741428852081e-02 -8.732661604881286621e-02 -1.894015073776245117e-01
2.864000000000000000e+03 7.934877872467041016e+00 -2.704639911651611328e+00 -1.941841840744018555e-01 -1.622642204165458679e-02 -6.312318146228790283e-02 -1.467163860797882080e-01
2.865000000000000000e+03 6.340273380279541016e+00 -2.748357772827148438e+00 -1.263061016798019409e-01 -2.463470026850700378e-02 -4.528224095702171326e-02 -1.186113134026527405e-01
2.866000000000000000e+03 4.745451450347900391e+00 -2.942241668701171875e+00 -7.527396827936172485e-02 -3.356415033340454102e-02 -3.265143558382987976e-02 -9.376023709774017334e-02
2.867000000000000000e+03 7.745776367187500000e+01 8.123565673828125000e+00 -2.951020002365112305e-02 8.706513404846191406e+00 2.603101015090942383e+00 -2.424710392951965332e-01
2.868000000000000000e+03 7.494828796386718750e+01 8.590505599975585938e+00 -1.065948307514190674e-01 8.382909774780273438e+00 2.482894420623779297e+00 -4.126449227333068848e-01
2.869000000000000000e+03 7.353533935546875000e+01 9.144640922546386719e+00 -1.735910326242446899e-01 8.203703880310058594e+00 2.409033775329589844e+00 -5.138082504272460938e-01
2.870000000000000000e+03 7.083584594726562500e+01 8.274319648742675781e+00 -2.957055568695068359e-01 8.008101463317871094e+00 2.313718795776367188e+00 -5.367159843444824219e-01
2.871000000000000000e+03 7.210682678222656250e+01 9.286785125732421875e+00 -2.479199022054672241e-01 8.093312263488769531e+00 2.353617906570434570e+00 -5.699114799499511719e-01
2.872000000000000000e+03 7.138478088378906250e+01 1.108411884307861328e+01 -3.054932057857513428e-01 8.000495910644531250e+00 2.308500766754150391e+00 -6.797839999198913574e-01
2.873000000000000000e+03 6.561712646484375000e+01 9.019376754760742188e+00 -5.790517926216125488e-01 7.573395252227783203e+00 2.098303079605102539e+00 -4.960871934890747070e-01
2.874000000000000000e+03 6.687770080566406250e+01 6.796591758728027344e+00 -4.662302732467651367e-01 7.625409603118896484e+00 2.147753715515136719e+00 -4.349454641342163086e-01
2.875000000000000000e+03 6.666408538818359375e+01 5.051515579223632812e+00 -4.457091987133026123e-01 7.557683467864990234e+00 2.133592367172241211e+00 -3.513447642326354980e-01
2.876000000000000000e+03 6.481118011474609375e+01 9.598984718322753906e+00 -6.260240674018859863e-01 7.519886970520019531e+00 2.068158864974975586e+00 -4.872544109821319580e-01
2.877000000000000000e+03 6.414547729492187500e+01 8.905411720275878906e+00 -6.346400380134582520e-01 7.429741382598876953e+00 2.038530349731445312e+00 -4.247664511203765869e-01
2.878000000000000000e+03 6.337017059326171875e+01 8.216549873352050781e+00 -6.451271176338195801e-01 7.294477462768554688e+00 1.994805097579956055e+00 -3.570153117179870605e-01
2.879000000000000000e+03 6.415751647949218750e+01 4.957565784454345703e+00 -5.353592634201049805e-01 7.246507167816162109e+00 2.013344526290893555e+00 -2.712803184986114502e-01
2.880000000000000000e+03 6.474616241455078125e+01 4.142283916473388672e+00 -5.092880129814147949e-01 7.287152767181396484e+00 2.033359527587890625e+00 -2.625817060470581055e-01
2.881000000000000000e+03 6.139351272583007812e+01 9.393403053283691406e+00 -7.402917146682739258e-01 7.122145175933837891e+00 1.914556026458740234e+00 -2.568655312061309814e-01
2.882000000000000000e+03 6.141540908813476562e+01 7.386999130249023438e+00 -6.812728643417358398e-01 6.985654354095458984e+00 1.891314387321472168e+00 -2.191288024187088013e-01
2.883000000000000000e+03 6.057297134399414062e+01 9.069799423217773438e+00 -7.466641664505004883e-01 6.978134632110595703e+00 1.869441151618957520e+00 -2.033251225948333740e-01
2.884000000000000000e+03 5.927542495727539062e+01 9.485654830932617188e+00 -7.820029854774475098e-01 6.803449630737304688e+00 1.806433916091918945e+00 -1.031736135482788086e-01
2.885000000000000000e+03 5.967975997924804688e+01 6.913419723510742188e+00 -7.008042335510253906e-01 6.693295955657958984e+00 1.797747492790222168e+00 -1.072434484958648682e-01
2.886000000000000000e+03 5.844662094116210938e+01 9.062694549560546875e+00 -7.670287489891052246e-01 6.619775772094726562e+00 1.755824089050292969e+00 -3.240190446376800537e-02
2.887000000000000000e+03 5.381800079345703125e+01 8.825271606445312500e+00 -7.022573947906494141e-01 5.622859001159667969e+00 1.476180553436279297e+00 2.968738675117492676e-01
2.888000000000000000e+03 5.391561889648437500e+01 8.156827926635742188e+00 -6.930289864540100098e-01 5.601737976074218750e+00 1.472612619400024414e+00 2.743903398513793945e-01
2.889000000000000000e+03 5.383602142333984375e+01 6.723469734191894531e+00 -6.548802852630615234e-01 5.482276439666748047e+00 1.448218941688537598e+00 2.426811456680297852e-01
2.890000000000000000e+03 5.297484588623046875e+01 5.814682960510253906e+00 -6.200508475303649902e-01 5.258512496948242188e+00 1.391538500785827637e+00 2.625703513622283936e-01
2.891000000000000000e+03 5.344472885131835938e+01 3.445317983627319336e+00 -5.874956250190734863e-01 5.271627902984619141e+00 1.405239582061767578e+00 1.797476112842559814e-01
2.892000000000000000e+03 5.187730407714843750e+01 9.316406250000000000e+00 -6.480223536491394043e-01 5.142328739166259766e+00 1.348291873931884766e+00 4.273773431777954102e-01
2.893000000000000000e+03 5.132883834838867188e+01 9.211888313293457031e+00 -6.184148192405700684e-01 4.947022438049316406e+00 1.298582315444946289e+00 4.666649103164672852e-01
2.894000000000000000e+03 5.139935684204101562e+01 6.930728435516357422e+00 -5.880585908889770508e-01 4.898282527923583984e+00 1.293067097663879395e+00 3.587488830089569092e-01
2.895000000000000000e+03 5.212384033203125000e+01 5.476893424987792969e+00 -5.863765478134155273e-01 5.021043777465820312e+00 1.330400109291076660e+00 2.835887074470520020e-01
2.896000000000000000e+03 5.027696609497070312e+01 9.055660247802734375e+00 -5.689050555229187012e-01 4.670751571655273438e+00 1.230553984642028809e+00 4.934535920619964600e-01
2.897000000000000000e+03 4.958946609497070312e+01 7.225632667541503906e+00 -5.184629559516906738e-01 4.424591541290283203e+00 1.171838521957397461e+00 4.303887486457824707e-01
2.898000000000000000e+03 4.908454132080078125e+01 6.082332134246826172e+00 -4.848305881023406982e-01 4.254588127136230469e+00 1.130927324295043945e+00 3.941433727741241455e-01
2.899000000000000000e+03 4.925888442993164062e+01 5.065884113311767578e+00 -4.864851832389831543e-01 4.284239292144775391e+00 1.139326214790344238e+00 3.536507785320281982e-01
2.900000000000000000e+03 4.807442855834960938e+01 9.379003524780273438e+00 -4.567582011222839355e-01 4.028113842010498047e+00 1.071406722068786621e+00 5.635554790496826172e-01
2.901000000000000000e+03 4.774118423461914062e+01 8.367843627929687500e+00 -4.420453608036041260e-01 3.927346944808959961e+00 1.045590519905090332e+00 5.254312753677368164e-01
2.902000000000000000e+03 4.753748703002929688e+01 6.541687965393066406e+00 -4.250396490097045898e-01 3.828386068344116211e+00 1.021003961563110352e+00 4.405703544616699219e-01
2.903000000000000000e+03 4.580244064331054688e+01 9.508414268493652344e+00 -3.472224473953247070e-01 3.336243867874145508e+00 8.967064619064331055e-01 5.858749151229858398e-01
2.904000000000000000e+03 4.026837921142578125e+01 8.629197120666503906e+00 -1.429265886545181274e-01 1.750468730926513672e+00 4.822626411914825439e-01 4.044673442840576172e-01
2.905000000000000000e+03 4.085173797607421875e+01 8.785014152526855469e+00 -1.546511352062225342e-01 1.897639989852905273e+00 5.228966474533081055e-01 4.341333806514739990e-01
2.906000000000000000e+03 4.050455093383789062e+01 6.952569961547851562e+00 -1.376219689846038818e-01 1.869494676589965820e+00 5.195618271827697754e-01 3.685976266860961914e-01
2.907000000000000000e+03 4.002458572387695312e+01 5.046147346496582031e+00 -1.132855638861656189e-01 1.810218691825866699e+00 5.090799331665039062e-01 2.854404151439666748e-01
2.908000000000000000e+03 4.102923202514648438e+01 2.886416196823120117e+00 -1.518123596906661987e-01 2.128796100616455078e+00 5.930951237678527832e-01 2.370955646038055420e-01
2.909000000000000000e+03 3.998579025268554688e+01 1.685835480690002441e+00 -1.206105127930641174e-01 1.888794064521789551e+00 5.304550528526306152e-01 1.648430973291397095e-01
2.910000000000000000e+03 3.949179458618164062e+01 8.860811233520507812e+00 -1.266256719827651978e-01 1.537002205848693848e+00 4.231129586696624756e-01 3.736435770988464355e-01
2.911000000000000000e+03 3.904925155639648438e+01 9.488152503967285156e+00 -1.266170293092727661e-01 1.399319648742675781e+00 3.818107843399047852e-01 3.610945940017700195e-01
2.912000000000000000e+03 3.797018051147460938e+01 4.945555686950683594e+00 -3.982562199234962463e-02 1.317294239997863770e+00 3.832406103610992432e-01 2.187011539936065674e-01
2.913000000000000000e+03 3.949025344848632812e+01 3.861237287521362305e+00 -8.897238224744796753e-02 1.708236455917358398e+00 4.857792258262634277e-01 2.292748838663101196e-01
2.914000000000000000e+03 3.850724792480468750e+01 3.124877691268920898e+00 -5.955157428979873657e-02 1.494885802268981934e+00 4.306002557277679443e-01 1.753439009189605713e-01
2.915000000000000000e+03 3.733595657348632812e+01 7.831944942474365234e+00 -7.858356833457946777e-02 1.051987171173095703e+00 2.920210659503936768e-01 2.611061334609985352e-01
2.916000000000000000e+03 3.691547775268554688e+01 6.484019756317138672e+00 -3.255705162882804871e-02 1.017337560653686523e+00 2.954341471195220947e-01 2.189863622188568115e-01
2.917000000000000000e+03 3.663572311401367188e+01 4.973963737487792969e+00 -8.432342438027262688e-04 1.010044455528259277e+00 3.027603924274444580e-01 1.705525070428848267e-01
2.918000000000000000e+03 3.699700164794921875e+01 2.985084533691406250e+00 -1.649270951747894287e-02 1.173781156539916992e+00 3.471865057945251465e-01 1.218869388103485107e-01
2.919000000000000000e+03 3.776999282836914062e+01 4.175806045532226562e+00 -3.260703384876251221e-02 1.302127122879028320e+00 3.808560371398925781e-01 1.893304884433746338e-01
2.920000000000000000e+03 3.509693527221679688e+01 8.973540306091308594e+00 -1.314679086208343506e-01 5.279446244239807129e-01 1.189430281519889832e-01 1.525058001279830933e-01
2.921000000000000000e+03 3.528985595703125000e+01 7.902025222778320312e+00 -6.113994866609573364e-02 6.138578653335571289e-01 1.658153682947158813e-01 1.755149662494659424e-01
2.922000000000000000e+03 3.477971649169921875e+01 7.184617519378662109e+00 -1.655432209372520447e-02 5.523970127105712891e-01 1.607528179883956909e-01 1.521096080541610718e-01
2.923000000000000000e+03 3.466623306274414062e+01 4.882030010223388672e+00 5.712200701236724854e-02 6.145027279853820801e-01 2.014874219894409180e-01 7.938592135906219482e-02
2.924000000000000000e+03 3.510643768310546875e+01 5.960146427154541016e+00 2.529634349048137665e-02 6.680184602737426758e-01 2.079944312572479248e-01 1.301269382238388062e-01
2.925000000000000000e+03 3.310492706298828125e+01 9.063508987426757812e+00 -2.329602241516113281e-01 1.817835569381713867e-01 -1.535299886018037796e-02 5.600627884268760681e-02
2.926000000000000000e+03 3.360356521606445312e+01 8.608023643493652344e+00 -1.455183774232864380e-01 2.694582045078277588e-01 3.718195110559463501e-02 1.002269238233566284e-01
2.927000000000000000e+03 3.387177658081054688e+01 7.536037921905517578e+00 -2.906238660216331482e-02 3.627434968948364258e-01 1.001043319702148438e-01 1.200294569134712219e-01
2.928000000000000000e+03 3.371731948852539062e+01 7.124362468719482422e+00 8.417929522693157196e-03 3.407953977584838867e-01 1.047639921307563782e-01 1.065568253397941589e-01
2.929000000000000000e+03 3.165582084655761719e+01 8.103270530700683594e+00 -1.060970202088356018e-01 3.675703331828117371e-02 -2.080199494957923889e-02 8.994832634925842285e-02
2.930000000000000000e+03 3.130793762207031250e+01 8.724286079406738281e+00 -3.665156066417694092e-01 1.608223468065261841e-02 -1.051300093531608582e-01 2.537548542022705078e-02
2.931000000000000000e+03 3.054659271240234375e+01 9.995718002319335938e+00 -7.802243232727050781e-01 -2.121024727821350098e-01 -2.976980507373809814e-01 -4.000403285026550293e-01
2.932000000000000000e+03 3.517037200927734375e+01 6.467597007751464844e+00 7.618925534188747406e-03 6.519431471824645996e-01 1.978686302900314331e-01 1.533382385969161987e-01
2.933000000000000000e+03 3.643020629882812500e+01 6.701813220977783203e+00 -3.032759949564933777e-02 8.966041207313537598e-01 2.598829567432403564e-01 2.044125497341156006e-01
2.934000000000000000e+03 3.799171829223632812e+01 6.463706016540527344e+00 -5.639675632119178772e-02 1.277075648307800293e+00 3.662036657333374023e-01 2.654659748077392578e-01
2.935000000000000000e+03 4.552970504760742188e+01 7.170494079589843750e+00 -3.342580795288085938e-01 3.260489702224731445e+00 8.778694868087768555e-01 4.727153778076171875e-01
2.936000000000000000e+03 4.949700927734375000e+01 6.619592666625976562e+00 -5.124387145042419434e-01 4.395178318023681641e+00 1.164821863174438477e+00 4.072753489017486572e-01
2.937000000000000000e+03 5.172509384155273438e+01 7.935848712921142578e+00 -6.178584694862365723e-01 5.012636661529541016e+00 1.318433523178100586e+00 3.894746303558349609e-01
2.938000000000000000e+03 5.274224472045898438e+01 7.646133422851562500e+00 -6.459516882896423340e-01 5.262228965759277344e+00 1.384883165359497070e+00 3.301067650318145752e-01
2.939000000000000000e+03 5.835077667236328125e+01 8.033743858337402344e+00 -7.424546480178833008e-01 6.553337097167968750e+00 1.743264794349670410e+00 -2.937620133161544800e-02
2.940000000000000000e+03 6.422566986083984375e+01 7.489370346069335938e+00 -6.002910733222961426e-01 7.358346462249755859e+00 2.027416706085205078e+00 -3.696134090423583984e-01
2.941000000000000000e+03 6.588967132568359375e+01 7.578956604003906250e+00 -5.321089625358581543e-01 7.549289703369140625e+00 2.105154275894165039e+00 -4.375773370265960693e-01
2.942000000000000000e+03 7.361558532714843750e+01 6.750924587249755859e+00 -1.591666936874389648e-01 8.304629325866699219e+00 2.443638801574707031e+00 -4.048038423061370850e-01
2.943000000000000000e+03 7.407936096191406250e+01 7.654945373535156250e+00 -1.443792283535003662e-01 8.325851440429687500e+00 2.454441785812377930e+00 -4.245966076850891113e-01
2.944000000000000000e+03 7.771941375732421875e+01 6.734166145324707031e+00 -2.905675955116748810e-02 8.854436874389648438e+00 2.647614002227783203e+00 -1.912849098443984985e-01
2.945000000000000000e+03 3.695345306396484375e+01 5.698860168457031250e+00 -1.877627708017826080e-02 1.056101918220520020e+00 3.111976981163024902e-01 2.027615010738372803e-01
2.946000000000000000e+03 3.820412445068359375e+01 5.634486675262451172e+00 -5.250481143593788147e-02 1.336968421936035156e+00 3.853390812873840332e-01 2.481016516685485840e-01
2.947000000000000000e+03 3.958994293212890625e+01 5.460074901580810547e+00 -9.639380872249603271e-02 1.696205735206604004e+00 4.799435734748840332e-01 2.903420031070709229e-01
2.948000000000000000e+03 4.628459167480468750e+01 4.101904392242431641e+00 -3.603840172290802002e-01 3.476960182189941406e+00 9.349728226661682129e-01 3.413623273372650146e-01
2.949000000000000000e+03 4.815867614746093750e+01 4.029664039611816406e+00 -4.355548918247222900e-01 3.976891040802001953e+00 1.062400817871093750e+00 3.290980756282806396e-01
2.950000000000000000e+03 5.131761932373046875e+01 5.164923191070556641e+00 -5.575805902481079102e-01 4.817262649536132812e+00 1.277904629707336426e+00 3.041595220565795898e-01
2.951000000000000000e+03 5.379170989990234375e+01 6.075225353240966797e+00 -6.461362242698669434e-01 5.445119857788085938e+00 1.439695119857788086e+00 2.331950962543487549e-01
2.952000000000000000e+03 6.450405120849609375e+01 6.197161197662353516e+00 -5.531593561172485352e-01 7.354968070983886719e+00 2.040542602539062500e+00 -3.398154377937316895e-01
2.953000000000000000e+03 6.596990203857421875e+01 6.032866477966308594e+00 -4.888330101966857910e-01 7.514140129089355469e+00 2.107592105865478516e+00 -3.761664927005767822e-01
2.954000000000000000e+03 7.006745147705078125e+01 6.710450172424316406e+00 -2.955548763275146484e-01 7.955044269561767578e+00 2.297846794128417969e+00 -4.610614180564880371e-01
2.955000000000000000e+03 7.540821838378906250e+01 3.815749168395996094e+00 -7.802178710699081421e-02 8.649003982543945312e+00 2.571294784545898438e+00 -2.316824197769165039e-01
2.956000000000000000e+03 7.789171600341796875e+01 5.399468898773193359e+00 -1.851697079837322235e-02 8.968670845031738281e+00 2.685046195983886719e+00 -1.549893617630004883e-01
2.957000000000000000e+03 3.403061294555664062e+01 6.208445072174072266e+00 4.749364033341407776e-02 4.443126022815704346e-01 1.475418657064437866e-01 9.118719398975372314e-02
2.958000000000000000e+03 3.217395401000976562e+01 3.996872186660766602e+00 8.707157522439956665e-02 2.973963320255279541e-01 1.153403744101524353e-01 -6.222954019904136658e-02
2.959000000000000000e+03 4.043874740600585938e+01 4.568109035491943359e+00 -1.230356916785240173e-01 1.929424047470092773e+00 5.419164896011352539e-01 2.835825979709625244e-01
2.960000000000000000e+03 4.580102539062500000e+01 3.691058874130249023e+00 -3.378711044788360596e-01 3.350094318389892578e+00 9.036669731140136719e-01 3.265292942523956299e-01
2.961000000000000000e+03 4.762465286254882812e+01 3.528721570968627930e+00 -4.105637371540069580e-01 3.829098701477050781e+00 1.025560498237609863e+00 3.125033080577850342e-01
2.962000000000000000e+03 5.048420333862304688e+01 3.101173639297485352e+00 -5.066297650337219238e-01 4.554628849029541016e+00 1.214399814605712891e+00 2.605319023132324219e-01
2.963000000000000000e+03 5.276010513305664062e+01 3.274860858917236328e+00 -5.664250254631042480e-01 5.109596252441406250e+00 1.362951397895812988e+00 2.084633708000183105e-01
2.964000000000000000e+03 5.761980819702148438e+01 3.710093975067138672e+00 -6.243847608566284180e-01 6.150166988372802734e+00 1.657734632492065430e+00 2.792654186487197876e-02
2.965000000000000000e+03 5.927437973022460938e+01 3.597011327743530273e+00 -6.110389828681945801e-01 6.454234600067138672e+00 1.752958774566650391e+00 -4.495681449770927429e-02
2.966000000000000000e+03 6.563217163085937500e+01 3.648427963256835938e+00 -4.578768014907836914e-01 7.412380695343017578e+00 2.086351156234741211e+00 -2.722930312156677246e-01
2.967000000000000000e+03 7.002754211425781250e+01 4.493605613708496094e+00 -2.914653420448303223e-01 7.942673683166503906e+00 2.295362472534179688e+00 -3.622569441795349121e-01
2.968000000000000000e+03 7.267857360839843750e+01 4.382091999053955078e+00 -1.749769151210784912e-01 8.264592170715332031e+00 2.426884412765502930e+00 -3.338617682456970215e-01
2.969000000000000000e+03 7.416078186035156250e+01 3.626096725463867188e+00 -1.124527528882026672e-01 8.477854728698730469e+00 2.509620666503906250e+00 -2.661780118942260742e-01
2.970000000000000000e+03 2.468717193603515625e+01 2.806011438369750977e+00 7.030868530273437500e-02 -1.167889833450317383e-01 -1.394409034401178360e-02 -7.628642767667770386e-02
2.971000000000000000e+03 3.272940444946289062e+01 1.887242436408996582e+00 2.692896127700805664e-02 4.406688809394836426e-01 1.402793526649475098e-01 -3.968480601906776428e-02
2.972000000000000000e+03 3.472636032104492188e+01 3.089721441268920898e+00 4.047634080052375793e-02 7.102838158607482910e-01 2.252280414104461670e-01 4.081351682543754578e-02
2.973000000000000000e+03 3.419172286987304688e+01 2.348726511001586914e+00 3.302085399627685547e-02 6.436901688575744629e-01 2.030133008956909180e-01 9.303399361670017242e-03
2.974000000000000000e+03 4.690091705322265625e+01 2.033155441284179688e+00 -3.789722919464111328e-01 3.642329216003417969e+00 9.790070652961730957e-01 2.584846317768096924e-01
2.975000000000000000e+03 4.798568725585937500e+01 1.979447960853576660e+00 -4.130020439624786377e-01 3.902943611145019531e+00 1.046982526779174805e+00 2.549130022525787354e-01
2.976000000000000000e+03 4.954753875732421875e+01 1.876567125320434570e+00 -4.671550095081329346e-01 4.300871849060058594e+00 1.150115013122558594e+00 2.382850497961044312e-01
2.977000000000000000e+03 5.166471862792968750e+01 1.988112926483154297e+00 -5.211293697357177734e-01 4.814326763153076172e+00 1.287959218025207520e+00 2.034410685300827026e-01
2.978000000000000000e+03 5.815705490112304688e+01 2.140430688858032227e+00 -5.952241420745849609e-01 6.195384979248046875e+00 1.680048227310180664e+00 1.230218354612588882e-02
2.979000000000000000e+03 5.986644744873046875e+01 1.659943938255310059e+00 -5.619915127754211426e-01 6.493559360504150391e+00 1.779470443725585938e+00 -4.539164900779724121e-02
2.980000000000000000e+03 6.200053787231445312e+01 7.084321379661560059e-01 -5.011467933654785156e-01 6.802369117736816406e+00 1.890366792678833008e+00 -9.021409600973129272e-02
2.981000000000000000e+03 6.418257141113281250e+01 3.393272876739501953e+00 -5.056158900260925293e-01 7.202940464019775391e+00 2.009197473526000977e+00 -2.273324131965637207e-01
2.982000000000000000e+03 7.085531616210937500e+01 2.690935611724853516e+00 -2.401458323001861572e-01 8.041378974914550781e+00 2.340369939804077148e+00 -2.873959839344024658e-01
2.983000000000000000e+03 7.321653747558593750e+01 2.404905557632446289e+00 -1.348834484815597534e-01 8.377637863159179688e+00 2.472826242446899414e+00 -2.449365109205245972e-01
2.984000000000000000e+03 7.443472290039062500e+01 1.567053914070129395e+00 -9.439005702733993530e-02 8.566205978393554688e+00 2.541544914245605469e+00 -1.970954984426498413e-01
2.985000000000000000e+03 7.768283843994140625e+01 1.098780059814453125e+01 -2.218268439173698425e-02 8.477791786193847656e+00 2.536682605743408203e+00 -2.817068994045257568e-01
2.986000000000000000e+03 7.480438995361328125e+01 1.140738582611083984e+01 -1.236891672015190125e-01 8.183703422546386719e+00 2.418004512786865234e+00 -5.510287880897521973e-01
2.987000000000000000e+03 7.118639373779296875e+01 1.185733032226562500e+01 -3.065095245838165283e-01 7.969422817230224609e+00 2.298873901367187500e+00 -7.263598442077636719e-01
2.988000000000000000e+03 6.999095153808593750e+01 1.260578823089599609e+01 -3.864795565605163574e-01 7.924870491027832031e+00 2.261517286300659180e+00 -7.824348211288452148e-01
2.989000000000000000e+03 6.500090026855468750e+01 1.240908718109130859e+01 -6.679031252861022949e-01 7.696716785430908203e+00 2.108644008636474609e+00 -6.236764788627624512e-01
2.990000000000000000e+03 6.597707366943359375e+01 1.121249389648437500e+01 -5.910891890525817871e-01 7.698635578155517578e+00 2.132263898849487305e+00 -6.213386654853820801e-01
2.991000000000000000e+03 6.501145172119140625e+01 1.149203777313232422e+01 -6.546076536178588867e-01 7.639065265655517578e+00 2.095337390899658203e+00 -5.867679119110107422e-01
2.992000000000000000e+03 6.165347290039062500e+01 1.282456874847412109e+01 -8.184261918067932129e-01 7.449418067932128906e+00 1.989297509193420410e+00 -3.823440074920654297e-01
2.993000000000000000e+03 6.167626571655273438e+01 1.044673252105712891e+01 -7.585110664367675781e-01 7.251330375671386719e+00 1.947845816612243652e+00 -3.157915174961090088e-01
2.994000000000000000e+03 5.767120742797851562e+01 1.168256282806396484e+01 -8.372116088867187500e-01 6.708030223846435547e+00 1.761245489120483398e+00 3.429874032735824585e-02
2.995000000000000000e+03 5.838503265380859375e+01 1.081786155700683594e+01 -8.164350390434265137e-01 6.767548084259033203e+00 1.785333871841430664e+00 -4.313651472330093384e-02
2.996000000000000000e+03 5.742749404907226562e+01 1.120183753967285156e+01 -8.359355330467224121e-01 6.607697963714599609e+00 1.731528759002685547e+00 5.710299313068389893e-02
2.997000000000000000e+03 5.550388336181640625e+01 1.061530971527099609e+01 -7.840549349784851074e-01 6.144849777221679688e+00 1.608238458633422852e+00 2.143704593181610107e-01
2.998000000000000000e+03 5.310570144653320312e+01 1.213752746582031250e+01 -7.254794836044311523e-01 5.661226272583007812e+00 1.480724096298217773e+00 4.678839743137359619e-01
2.999000000000000000e+03 5.383763885498046875e+01 1.097507476806640625e+01 -7.435188293457031250e-01 5.774573326110839844e+00 1.509316444396972656e+00 3.624837398529052734e-01
3.000000000000000000e+03 5.231192779541015625e+01 1.213850688934326172e+01 -6.894810795783996582e-01 5.423522949218750000e+00 1.420212626457214355e+00 5.450323820114135742e-01
3.001000000000000000e+03 5.180636596679687500e+01 1.095579051971435547e+01 -6.565153002738952637e-01 5.205138683319091797e+00 1.364587068557739258e+00 5.161287784576416016e-01
3.002000000000000000e+03 4.943896102905273438e+01 1.097215080261230469e+01 -5.361725091934204102e-01 4.481366634368896484e+00 1.183558225631713867e+00 6.252789497375488281e-01
3.003000000000000000e+03 5.006273651123046875e+01 1.103516483306884766e+01 -5.661978721618652344e-01 4.674886226654052734e+00 1.232606530189514160e+00 6.122087240219116211e-01
3.004000000000000000e+03 4.735277938842773438e+01 1.246416282653808594e+01 -4.007819294929504395e-01 3.822107315063476562e+00 1.026397705078125000e+00 7.443764209747314453e-01
3.005000000000000000e+03 4.693849945068359375e+01 1.074301147460937500e+01 -4.019331634044647217e-01 3.691489219665527344e+00 9.868667721748352051e-01 6.589146852493286133e-01
3.006000000000000000e+03 4.612040710449218750e+01 1.302167320251464844e+01 -3.230806589126586914e-01 3.391276121139526367e+00 9.204586148262023926e-01 7.732079625129699707e-01
3.007000000000000000e+03 4.578767395019531250e+01 1.086831569671630859e+01 -3.380810022354125977e-01 3.308674812316894531e+00 8.911781311035156250e-01 6.506172418594360352e-01
3.008000000000000000e+03 4.408695220947265625e+01 1.171340084075927734e+01 -2.416426390409469604e-01 2.743360757827758789e+00 7.505154609680175781e-01 6.568094491958618164e-01
3.009000000000000000e+03 4.304457855224609375e+01 1.111051464080810547e+01 -2.120985239744186401e-01 2.446278333663940430e+00 6.702539324760437012e-01 6.034262776374816895e-01
3.010000000000000000e+03 4.236758041381835938e+01 1.191374588012695312e+01 -1.758814603090286255e-01 2.187044858932495117e+00 6.033489704132080078e-01 5.876787900924682617e-01
3.011000000000000000e+03 4.276229858398437500e+01 1.040609264373779297e+01 -2.003862410783767700e-01 2.379973649978637695e+00 6.538762450218200684e-01 5.592045783996582031e-01
3.012000000000000000e+03 4.092172241210937500e+01 1.196684360504150391e+01 -1.435938775539398193e-01 1.748448967933654785e+00 4.814565181732177734e-01 5.025344491004943848e-01
3.013000000000000000e+03 3.926156997680664062e+01 1.204686164855957031e+01 -1.311065703630447388e-01 1.274846673011779785e+00 3.431220352649688721e-01 3.815538883209228516e-01
3.014000000000000000e+03 3.846704101562500000e+01 1.120807647705078125e+01 -1.379456371068954468e-01 1.129105806350708008e+00 2.973480522632598877e-01 3.253747224807739258e-01
3.015000000000000000e+03 3.620756530761718750e+01 1.230821990966796875e+01 -2.011066228151321411e-01 4.940309822559356689e-01 8.787730336189270020e-02 1.038360819220542908e-01
3.016000000000000000e+03 3.674435043334960938e+01 1.099823474884033203e+01 -1.667297035455703735e-01 7.352178692817687988e-01 1.705464422702789307e-01 1.997271925210952759e-01
3.017000000000000000e+03 3.531422424316406250e+01 1.258641529083251953e+01 -2.417933642864227295e-01 2.541287243366241455e-01 3.700604196637868881e-03 -5.906301550567150116e-03
3.018000000000000000e+03 3.446274948120117188e+01 1.098790931701660156e+01 -2.701515853404998779e-01 2.652667462825775146e-01 -1.465446082875132561e-03 3.042695345357060432e-03
3.019000000000000000e+03 3.413489151000976562e+01 1.297216320037841797e+01 -2.980943918228149414e-01 -3.754302859306335449e-02 -1.006912291049957275e-01 -1.596600562334060669e-01
3.020000000000000000e+03 3.365804290771484375e+01 1.136242961883544922e+01 -3.467229902744293213e-01 8.102374523878097534e-02 -7.970977574586868286e-02 -1.075052842497825623e-01
3.021000000000000000e+03 3.159125328063964844e+01 1.211771965026855469e+01 -5.090894699096679688e-01 -4.977915287017822266e-01 -3.020642995834350586e-01 -4.897910952568054199e-01
3.022000000000000000e+03 3.201229476928710938e+01 1.098679924011230469e+01 -5.278568863868713379e-01 -1.901110559701919556e-01 -2.153903841972351074e-01 -2.814396321773529053e-01
3.023000000000000000e+03 7.792500305175781250e+01 1.360285949707031250e+01 -1.650608517229557037e-02 8.200358390808105469e+00 2.455155611038208008e+00 -3.108322918415069580e-01
3.024000000000000000e+03 7.554708099365234375e+01 1.347797966003417969e+01 -1.071793138980865479e-01 8.071979522705078125e+00 2.389440059661865234e+00 -5.862686038017272949e-01
3.025000000000000000e+03 7.408729553222656250e+01 1.281665325164794922e+01 -1.672200709581375122e-01 8.056612014770507812e+00 2.366817474365234375e+00 -6.641266942024230957e-01
3.026000000000000000e+03 7.303518676757812500e+01 1.308135890960693359e+01 -2.155767530202865601e-01 8.002195358276367188e+00 2.335985422134399414e+00 -7.342028021812438965e-01
3.027000000000000000e+03 7.110891723632812500e+01 1.272015476226806641e+01 -3.308301568031311035e-01 7.946618080139160156e+00 2.284736394882202148e+00 -7.825927734375000000e-01
3.028000000000000000e+03 6.760774230957031250e+01 1.345089626312255859e+01 -5.465426445007324219e-01 7.861808776855468750e+00 2.194579839706420898e+00 -8.085644841194152832e-01
3.029000000000000000e+03 6.219744110107421875e+01 1.505916309356689453e+01 -8.492093086242675781e-01 7.712032794952392578e+00 2.058847188949584961e+00 -5.173315405845642090e-01
3.030000000000000000e+03 6.079097366333007812e+01 1.334049892425537109e+01 -8.445540666580200195e-01 7.395053863525390625e+00 1.965149998664855957e+00 -3.126709163188934326e-01
3.031000000000000000e+03 5.844863128662109375e+01 1.482183933258056641e+01 -9.079507589340209961e-01 7.223711967468261719e+00 1.894728422164916992e+00 -4.146504774689674377e-02
3.032000000000000000e+03 5.617439651489257812e+01 1.432939815521240234e+01 -8.748034238815307617e-01 6.717474460601806641e+00 1.752801418304443359e+00 2.395628541707992554e-01
3.033000000000000000e+03 5.547975921630859375e+01 1.437015247344970703e+01 -8.641110658645629883e-01 6.519047737121582031e+00 1.696481108665466309e+00 3.199706971645355225e-01
3.034000000000000000e+03 5.345266342163085938e+01 1.404136657714843750e+01 -7.699267268180847168e-01 5.938509941101074219e+00 1.550574898719787598e+00 5.396389961242675781e-01
3.035000000000000000e+03 5.303558349609375000e+01 1.378587913513183594e+01 -7.421026825904846191e-01 5.776902198791503906e+00 1.510439872741699219e+00 5.666614770889282227e-01
3.036000000000000000e+03 6.315281295776367188e+01 1.495386981964111328e+01 -7.855445146560668945e-01 7.772409439086914062e+00 2.096059560775756836e+00 -6.018508672714233398e-01
3.037000000000000000e+03 6.206018447875976562e+01 1.419001865386962891e+01 -8.248847723007202148e-01 7.616318225860595703e+00 2.037430047988891602e+00 -4.550679922103881836e-01
3.038000000000000000e+03 5.989033126831054688e+01 1.368196582794189453e+01 -8.867053389549255371e-01 7.314330577850341797e+00 1.928287506103515625e+00 -2.195427119731903076e-01
3.039000000000000000e+03 5.877725219726562500e+01 1.327699851989746094e+01 -8.878980875015258789e-01 7.091972827911376953e+00 1.861222386360168457e+00 -8.546948432922363281e-02
3.040000000000000000e+03 5.684542083740234375e+01 1.431448745727539062e+01 -8.936639428138732910e-01 6.844726562500000000e+00 1.785318851470947266e+00 1.478994488716125488e-01
3.041000000000000000e+03 5.557300567626953125e+01 1.364479732513427734e+01 -8.444411158561706543e-01 6.465858459472656250e+00 1.686425209045410156e+00 2.922318875789642334e-01
3.042000000000000000e+03 4.579759979248046875e+01 1.400965881347656250e+01 -2.742364406585693359e-01 3.261099815368652344e+00 8.960590362548828125e-01 8.231978416442871094e-01
3.043000000000000000e+03 4.440052413940429688e+01 1.493844604492187500e+01 -1.618265956640243530e-01 2.688360452651977539e+00 7.579601407051086426e-01 8.170204162597656250e-01
3.044000000000000000e+03 4.462929916381835938e+01 1.437983131408691406e+01 -1.978297829627990723e-01 2.819663047790527344e+00 7.865499854087829590e-01 8.016833662986755371e-01
3.045000000000000000e+03 7.781842041015625000e+01 1.482586574554443359e+01 -3.570537641644477844e-02 8.020604133605957031e+00 2.395469427108764648e+00 -3.566195964813232422e-01
3.046000000000000000e+03 7.483319091796875000e+01 1.452563381195068359e+01 -1.354327946901321411e-01 7.970577239990234375e+00 2.350543260574340820e+00 -6.809576153755187988e-01
3.047000000000000000e+03 7.270112609863281250e+01 1.494561862945556641e+01 -2.443928718566894531e-01 7.897353649139404297e+00 2.295888185501098633e+00 -8.495043516159057617e-01
3.048000000000000000e+03 6.544668579101562500e+01 1.572686958312988281e+01 -6.869364380836486816e-01 7.927373409271240234e+00 2.172131061553955078e+00 -8.434364199638366699e-01
3.049000000000000000e+03 6.660563659667968750e+01 1.571383666992187500e+01 -6.003399491310119629e-01 7.937046051025390625e+00 2.201011896133422852e+00 -8.982806205749511719e-01
3.050000000000000000e+03 6.332405471801757812e+01 1.586695480346679688e+01 -7.995533943176269531e-01 7.870998382568359375e+00 2.121433496475219727e+00 -6.793390512466430664e-01
3.051000000000000000e+03 6.235459899902343750e+01 1.593065261840820312e+01 -8.301392793655395508e-01 7.829997062683105469e+00 2.099957466125488281e+00 -5.563040971755981445e-01
3.052000000000000000e+03 6.053347778320312500e+01 1.606920433044433594e+01 -8.949027061462402344e-01 7.696433544158935547e+00 2.040459156036376953e+00 -3.402711153030395508e-01
3.053000000000000000e+03 5.868283462524414062e+01 1.630240631103515625e+01 -9.267711639404296875e-01 7.480537414550781250e+00 1.966129899024963379e+00 -7.705964893102645874e-02
3.054000000000000000e+03 5.564249420166015625e+01 1.501181316375732422e+01 -8.619599342346191406e-01 6.624210834503173828e+00 1.728675365447998047e+00 3.365586400032043457e-01
3.055000000000000000e+03 5.404578018188476562e+01 1.574700736999511719e+01 -8.140084743499755859e-01 6.322638034820556641e+00 1.652588844299316406e+00 5.676833987236022949e-01
3.056000000000000000e+03 5.295664596557617188e+01 1.593836212158203125e+01 -7.423671483993530273e-01 5.963355541229248047e+00 1.566296577453613281e+00 7.003908157348632812e-01
3.057000000000000000e+03 6.143368911743164062e+01 1.598762893676757812e+01 -8.837816119194030762e-01 7.760451316833496094e+00 2.063000917434692383e+00 -4.640008509159088135e-01
3.058000000000000000e+03 6.036299133300781250e+01 1.526804542541503906e+01 -9.040682315826416016e-01 7.565297126770019531e+00 1.998368620872497559e+00 -3.124951720237731934e-01
3.059000000000000000e+03 5.857867431640625000e+01 1.554378128051757812e+01 -9.298000931739807129e-01 7.339602470397949219e+00 1.922940731048583984e+00 -7.470970600843429565e-02
3.060000000000000000e+03 5.687093353271484375e+01 1.633776664733886719e+01 -9.133006930351257324e-01 7.129814624786376953e+00 1.864954233169555664e+00 2.025753110647201538e-01
3.061000000000000000e+03 5.194982147216796875e+01 1.509765243530273438e+01 -6.808730959892272949e-01 5.540103912353515625e+00 1.457769274711608887e+00 7.402385473251342773e-01
3.062000000000000000e+03 4.621098709106445312e+01 1.456099319458007812e+01 -2.790217995643615723e-01 3.381984710693359375e+00 9.308888912200927734e-01 8.651102781295776367e-01
3.063000000000000000e+03 4.613636398315429688e+01 1.513220882415771484e+01 -2.508719563484191895e-01 3.343678236007690430e+00 9.278419017791748047e-01 9.016469717025756836e-01
3.064000000000000000e+03 4.441703796386718750e+01 1.699938392639160156e+01 -5.253633856773376465e-02 2.572484016418457031e+00 7.559843063354492188e-01 9.115709662437438965e-01
3.065000000000000000e+03 4.448558807373046875e+01 1.612938880920410156e+01 -1.131897941231727600e-01 2.670355081558227539e+00 7.671495676040649414e-01 8.815013766288757324e-01
3.066000000000000000e+03 4.078182983398437500e+01 1.668631553649902344e+01 8.394518867135047913e-03 1.258803009986877441e+00 3.801592588424682617e-01 5.220723152160644531e-01
3.067000000000000000e+03 4.261949157714843750e+01 1.596842956542968750e+01 -4.782484099268913269e-02 1.978181123733520508e+00 5.791068673133850098e-01 7.203445434570312500e-01
3.068000000000000000e+03 7.742732238769531250e+01 1.598452568054199219e+01 -3.610491380095481873e-02 7.844153404235839844e+00 2.342414617538452148e+00 -4.460275769233703613e-01
3.069000000000000000e+03 7.562920379638671875e+01 1.581133937835693359e+01 -9.907054156064987183e-02 7.873531818389892578e+00 2.332338333129882812e+00 -6.524652242660522461e-01
3.070000000000000000e+03 7.237602233886718750e+01 1.592481517791748047e+01 -2.527676820755004883e-01 7.858386039733886719e+00 2.281685590744018555e+00 -9.205970764160156250e-01
3.071000000000000000e+03 7.037138366699218750e+01 1.574580478668212891e+01 -3.779152631759643555e-01 7.896307945251464844e+00 2.255517721176147461e+00 -9.723091721534729004e-01
3.072000000000000000e+03 6.906436157226562500e+01 1.578332138061523438e+01 -4.455791115760803223e-01 7.912524223327636719e+00 2.240083456039428711e+00 -9.779428243637084961e-01
3.073000000000000000e+03 6.780718994140625000e+01 1.574212551116943359e+01 -5.465784072875976562e-01 7.934003353118896484e+00 2.216227293014526367e+00 -9.590538144111633301e-01
3.074000000000000000e+03 6.344331359863281250e+01 1.680411720275878906e+01 -7.783262729644775391e-01 7.980245113372802734e+00 2.160575628280639648e+00 -7.207002639770507812e-01
3.075000000000000000e+03 6.247765731811523438e+01 1.680974006652832031e+01 -8.433381915092468262e-01 7.933691024780273438e+00 2.127105951309204102e+00 -6.325836777687072754e-01
3.076000000000000000e+03 6.079338073730468750e+01 1.767531013488769531e+01 -8.965359330177307129e-01 7.949284553527832031e+00 2.115824699401855469e+00 -4.163588583469390869e-01
3.077000000000000000e+03 5.859616851806640625e+01 1.842590522766113281e+01 -9.479169249534606934e-01 7.803332328796386719e+00 2.056624650955200195e+00 -7.581116259098052979e-02
3.078000000000000000e+03 5.703203582763671875e+01 1.784845542907714844e+01 -9.143530130386352539e-01 7.409749507904052734e+00 1.948618888854980469e+00 1.961411535739898682e-01
3.079000000000000000e+03 5.609838867187500000e+01 1.716679191589355469e+01 -8.956274986267089844e-01 7.095169067382812500e+00 1.859862565994262695e+00 3.313187956809997559e-01
3.080000000000000000e+03 5.412889099121093750e+01 1.754091072082519531e+01 -8.074970841407775879e-01 6.542337417602539062e+00 1.720452070236206055e+00 6.592173576354980469e-01
3.081000000000000000e+03 5.330265808105468750e+01 1.821310043334960938e+01 -7.324769496917724609e-01 6.359790325164794922e+00 1.688194036483764648e+00 8.295099139213562012e-01
3.082000000000000000e+03 6.069590759277343750e+01 1.685418128967285156e+01 -9.111046195030212402e-01 7.800487518310546875e+00 2.066814899444580078e+00 -3.927370905876159668e-01
3.083000000000000000e+03 5.855507659912109375e+01 1.775904846191406250e+01 -9.360416531562805176e-01 7.687464237213134766e+00 2.025426864624023438e+00 -5.750925093889236450e-02
3.084000000000000000e+03 5.497075653076171875e+01 1.779956245422363281e+01 -8.608675599098205566e-01 6.898871421813964844e+00 1.811401247978210449e+00 5.363194346427917480e-01
3.085000000000000000e+03 4.921955871582031250e+01 1.796825790405273438e+01 -3.581171333789825439e-01 4.638978958129882812e+00 1.284258484840393066e+00 1.124774456024169922e+00
3.086000000000000000e+03 5.081701278686523438e+01 1.811884117126464844e+01 -5.154960751533508301e-01 5.354214668273925781e+00 1.451615571975708008e+00 1.082290530204772949e+00
3.087000000000000000e+03 4.857131576538085938e+01 1.674371528625488281e+01 -3.548769950866699219e-01 4.341603755950927734e+00 1.196017980575561523e+00 1.058348298072814941e+00
3.088000000000000000e+03 4.539247894287109375e+01 1.575693416595458984e+01 -1.784824430942535400e-01 3.037301540374755859e+00 8.576457500457763672e-01 9.093815684318542480e-01
3.089000000000000000e+03 4.626324462890625000e+01 1.698302841186523438e+01 -1.682855337858200073e-01 3.325844287872314453e+00 9.472675919532775879e-01 1.037159919738769531e+00
3.090000000000000000e+03 4.387803268432617188e+01 1.983942794799804688e+01 1.929750442504882812e-01 2.026019096374511719e+00 6.656982302665710449e-01 9.614235162734985352e-01
3.091000000000000000e+03 4.371037673950195312e+01 1.714164161682128906e+01 -1.777052879333496094e-02 2.260862112045288086e+00 6.729274392127990723e-01 8.635911345481872559e-01
3.092000000000000000e+03 4.080350112915039062e+01 1.808546638488769531e+01 8.448933064937591553e-02 1.068648457527160645e+00 3.459413349628448486e-01 5.117876529693603516e-01
3.093000000000000000e+03 4.240563964843750000e+01 1.793771934509277344e+01 7.904007285833358765e-02 1.683244109153747559e+00 5.286852717399597168e-01 7.403492331504821777e-01
3.094000000000000000e+03 7.701522827148437500e+01 1.807945442199707031e+01 -5.723035708069801331e-02 7.553725242614746094e+00 2.248948574066162109e+00 -5.533660054206848145e-01
3.095000000000000000e+03 7.388390350341796875e+01 1.822677803039550781e+01 -1.822186559438705444e-01 7.652801513671875000e+00 2.241174697875976562e+00 -9.337886571884155273e-01
3.096000000000000000e+03 7.256420898437500000e+01 1.820670700073242188e+01 -2.236860245466232300e-01 7.706935882568359375e+00 2.244975090026855469e+00 -1.040046215057373047e+00
3.097000000000000000e+03 7.172396087646484375e+01 1.871788597106933594e+01 -2.657427191734313965e-01 7.763010501861572266e+00 2.249180316925048828e+00 -1.100588798522949219e+00
3.098000000000000000e+03 7.056064605712890625e+01 1.819337844848632812e+01 -3.507619500160217285e-01 7.838155269622802734e+00 2.246217966079711914e+00 -1.128546953201293945e+00
3.099000000000000000e+03 6.919373321533203125e+01 1.799008560180664062e+01 -4.219343364238739014e-01 7.940248489379882812e+00 2.255494117736816406e+00 -1.105403184890747070e+00
3.100000000000000000e+03 6.793649291992187500e+01 1.789620971679687500e+01 -5.199182033538818359e-01 7.986823558807373047e+00 2.240071535110473633e+00 -1.097144961357116699e+00
3.101000000000000000e+03 6.675573730468750000e+01 1.784317016601562500e+01 -5.711934566497802734e-01 8.040734291076660156e+00 2.240862131118774414e+00 -1.033378243446350098e+00
3.102000000000000000e+03 6.206422424316406250e+01 1.917613029479980469e+01 -8.357853293418884277e-01 8.233968734741210938e+00 2.219455003738403320e+00 -6.809009313583374023e-01
3.103000000000000000e+03 6.252518081665039062e+01 1.857480049133300781e+01 -8.188732862472534180e-01 8.152022361755371094e+00 2.199944734573364258e+00 -7.236005067825317383e-01
3.104000000000000000e+03 5.963771438598632812e+01 1.967244148254394531e+01 -9.028701186180114746e-01 8.183845520019531250e+00 2.184292554855346680e+00 -2.722558081150054932e-01
3.105000000000000000e+03 5.873004913330078125e+01 1.910138130187988281e+01 -9.255323410034179688e-01 7.960651874542236328e+00 2.110535860061645508e+00 -9.276540577411651611e-02
3.106000000000000000e+03 5.736557769775390625e+01 1.921617889404296875e+01 -9.158458113670349121e-01 7.751626014709472656e+00 2.050734043121337891e+00 1.670439243316650391e-01
3.107000000000000000e+03 5.554630279541015625e+01 1.975076103210449219e+01 -8.584739565849304199e-01 7.418788909912109375e+00 1.968094468116760254e+00 5.384599566459655762e-01
3.108000000000000000e+03 5.284677886962890625e+01 1.910021591186523438e+01 -6.648915410041809082e-01 6.296502113342285156e+00 1.689483165740966797e+00 9.511970281600952148e-01
3.109000000000000000e+03 5.791955947875976562e+01 1.846707153320312500e+01 -9.293205142021179199e-01 7.691718101501464844e+00 2.028719186782836914e+00 5.644150450825691223e-02
3.110000000000000000e+03 5.741853332519531250e+01 1.996747207641601562e+01 -9.202689528465270996e-01 7.885835647583007812e+00 2.089670181274414062e+00 1.600351333618164062e-01
3.111000000000000000e+03 5.584023666381835938e+01 1.914384269714355469e+01 -8.767759799957275391e-01 7.349853992462158203e+00 1.941923379898071289e+00 4.323887526988983154e-01
3.112000000000000000e+03 4.889983749389648438e+01 1.925445175170898438e+01 -2.357785999774932861e-01 4.514990329742431641e+00 1.283763527870178223e+00 1.292481303215026855e+00
3.113000000000000000e+03 5.090224075317382812e+01 1.935874557495117188e+01 -4.489735960960388184e-01 5.457823753356933594e+00 1.502655029296875000e+00 1.214903116226196289e+00
3.114000000000000000e+03 4.739642333984375000e+01 1.660101699829101562e+01 -2.734724283218383789e-01 3.816253185272216797e+00 1.062834262847900391e+00 1.034619092941284180e+00
3.115000000000000000e+03 4.515994262695312500e+01 1.721928977966308594e+01 -8.407735824584960938e-02 2.849626302719116211e+00 8.296647071838378906e-01 9.829126596450805664e-01
3.116000000000000000e+03 4.603521728515625000e+01 1.935585594177246094e+01 4.366436600685119629e-02 3.086194038391113281e+00 9.389575123786926270e-01 1.195286035537719727e+00
3.117000000000000000e+03 4.434083938598632812e+01 2.122368240356445312e+01 3.359320163726806641e-01 2.015866756439208984e+00 7.055396437644958496e-01 1.068851709365844727e+00
3.118000000000000000e+03 3.826718139648437500e+01 1.730483436584472656e+01 -1.518882066011428833e-02 4.072097539901733398e-01 1.176062747836112976e-01 1.659149378538131714e-01
3.119000000000000000e+03 3.678551483154296875e+01 1.761376953125000000e+01 -7.042019814252853394e-02 -2.573403157293796539e-02 -2.884626947343349457e-02 -5.051768943667411804e-02
3.120000000000000000e+03 7.542835235595703125e+01 2.084202194213867188e+01 -7.130128890275955200e-02 7.255277633666992188e+00 2.155192852020263672e+00 -8.776022195816040039e-01
3.121000000000000000e+03 7.382759094238281250e+01 2.066125488281250000e+01 -1.548526585102081299e-01 7.433300971984863281e+00 2.183534622192382812e+00 -1.052090644836425781e+00
3.122000000000000000e+03 7.023684692382812500e+01 2.114035606384277344e+01 -2.798891067504882812e-01 7.811219215393066406e+00 2.259399175643920898e+00 -1.283757328987121582e+00
3.123000000000000000e+03 6.793360900878906250e+01 2.006731605529785156e+01 -4.663443565368652344e-01 8.040239334106445312e+00 2.272168397903442383e+00 -1.228894829750061035e+00
3.124000000000000000e+03 6.680786895751953125e+01 1.997448539733886719e+01 -5.068855881690979004e-01 8.136728286743164062e+00 2.288952827453613281e+00 -1.170392036437988281e+00
3.125000000000000000e+03 6.571515655517578125e+01 1.987565231323242188e+01 -6.121890544891357422e-01 8.207777976989746094e+00 2.278676509857177734e+00 -1.124380707740783691e+00
3.126000000000000000e+03 6.464388275146484375e+01 1.980083084106445312e+01 -6.510406732559204102e-01 8.265231132507324219e+00 2.284257173538208008e+00 -1.000395417213439941e+00
3.127000000000000000e+03 6.059626007080078125e+01 2.101065826416015625e+01 -8.356856703758239746e-01 8.482800483703613281e+00 2.294134378433227539e+00 -5.248998999595642090e-01
3.128000000000000000e+03 6.058571243286132812e+01 2.029659271240234375e+01 -8.603473901748657227e-01 8.394686698913574219e+00 2.260301589965820312e+00 -4.740522801876068115e-01
3.129000000000000000e+03 5.930866622924804688e+01 2.125595283508300781e+01 -8.668366670608520508e-01 8.445416450500488281e+00 2.273573875427246094e+00 -2.634695172309875488e-01
3.130000000000000000e+03 5.772768020629882812e+01 2.168628311157226562e+01 -8.656553030014038086e-01 8.349470138549804688e+00 2.245144367218017578e+00 1.008258610963821411e-01
3.131000000000000000e+03 5.239250564575195312e+01 2.220069885253906250e+01 -4.164539873600006104e-01 6.561243057250976562e+00 1.843436717987060547e+00 1.401899456977844238e+00
3.132000000000000000e+03 5.245812988281250000e+01 2.139144897460937500e+01 -4.989787936210632324e-01 6.485544681549072266e+00 1.795969724655151367e+00 1.274059295654296875e+00
3.133000000000000000e+03 5.756530761718750000e+01 2.080505943298339844e+01 -8.880168795585632324e-01 8.126097679138183594e+00 2.171424388885498047e+00 1.504777669906616211e-01
3.134000000000000000e+03 5.494845962524414062e+01 2.111207580566406250e+01 -7.786195874214172363e-01 7.516621589660644531e+00 2.021400690078735352e+00 7.619533538818359375e-01
3.135000000000000000e+03 4.870612716674804688e+01 2.121407318115234375e+01 -1.143417786806821823e-02 4.412687778472900391e+00 1.320376157760620117e+00 1.521336078643798828e+00
3.136000000000000000e+03 5.061729812622070312e+01 2.074853134155273438e+01 -3.111063539981842041e-01 5.470812797546386719e+00 1.547911882400512695e+00 1.413852810859680176e+00
3.137000000000000000e+03 4.550503540039062500e+01 1.933974266052246094e+01 7.267424464225769043e-02 2.824201583862304688e+00 8.690627813339233398e-01 1.135360956192016602e+00
3.138000000000000000e+03 4.628001403808593750e+01 2.102810859680175781e+01 2.123100012540817261e-01 3.058416843414306641e+00 9.812180995941162109e-01 1.341576457023620605e+00
3.139000000000000000e+03 4.378158569335937500e+01 2.265227317810058594e+01 5.540121197700500488e-01 1.482907772064208984e+00 6.110759973526000977e-01 9.980439543724060059e-01
3.140000000000000000e+03 4.374887084960937500e+01 2.155517578125000000e+01 3.928301334381103516e-01 1.666563868522644043e+00 6.178182363510131836e-01 9.872583150863647461e-01
3.141000000000000000e+03 7.715228271484375000e+01 2.231295776367187500e+01 -1.790264807641506195e-02 6.824524402618408203e+00 2.041986465454101562e+00 -6.383747458457946777e-01
3.142000000000000000e+03 6.932509613037109375e+01 2.250132179260253906e+01 -2.418042421340942383e-01 7.892412185668945312e+00 2.295182466506958008e+00 -1.369959115982055664e+00
3.143000000000000000e+03 6.793893432617187500e+01 2.247530937194824219e+01 -3.551771640777587891e-01 8.108967781066894531e+00 2.326137304306030273e+00 -1.373070478439331055e+00
3.144000000000000000e+03 6.669125366210937500e+01 2.229564476013183594e+01 -3.919474780559539795e-01 8.264458656311035156e+00 2.361753225326538086e+00 -1.291054487228393555e+00
3.145000000000000000e+03 6.230157089233398438e+01 2.172290992736816406e+01 -7.117455601692199707e-01 8.576488494873046875e+00 2.359422922134399414e+00 -8.486204147338867188e-01
3.146000000000000000e+03 5.893958663940429688e+01 2.230471992492675781e+01 -8.267068862915039062e-01 8.662417411804199219e+00 2.350713253021240234e+00 -2.057784050703048706e-01
3.147000000000000000e+03 5.809363174438476562e+01 2.257001876831054688e+01 -7.982813119888305664e-01 8.626474380493164062e+00 2.348458051681518555e+00 3.651915490627288818e-02
3.148000000000000000e+03 5.479825210571289062e+01 2.241623497009277344e+01 -6.992567181587219238e-01 7.731988906860351562e+00 2.109819650650024414e+00 8.862107992172241211e-01
3.149000000000000000e+03 5.288855361938476562e+01 2.316449928283691406e+01 -3.944187164306640625e-01 7.032824993133544922e+00 1.991521835327148438e+00 1.474794030189514160e+00
3.150000000000000000e+03 5.344216156005859375e+01 2.289974784851074219e+01 -5.170553326606750488e-01 7.288813114166259766e+00 2.031527280807495117e+00 1.277208447456359863e+00
3.151000000000000000e+03 5.565324401855468750e+01 2.321672439575195312e+01 -7.034917473793029785e-01 8.269845962524414062e+00 2.269906282424926758e+00 7.177776694297790527e-01
3.152000000000000000e+03 4.951519775390625000e+01 2.361498451232910156e+01 2.607039213180541992e-01 4.860392570495605469e+00 1.536329030990600586e+00 1.894952893257141113e+00
3.153000000000000000e+03 5.057582092285156250e+01 2.252692985534667969e+01 -1.104183271527290344e-01 5.561909198760986328e+00 1.635447263717651367e+00 1.668739318847656250e+00
3.154000000000000000e+03 4.749069976806640625e+01 2.192317581176757812e+01 2.351891845464706421e-01 3.643862009048461914e+00 1.163715362548828125e+00 1.542057514190673828e+00
3.155000000000000000e+03 4.566236877441406250e+01 2.078968620300292969e+01 2.326263487339019775e-01 2.750194311141967773e+00 8.948462009429931641e-01 1.256302475929260254e+00
3.156000000000000000e+03 4.618315505981445312e+01 2.260962295532226562e+01 4.760419130325317383e-01 2.768342733383178711e+00 9.733153581619262695e-01 1.432946443557739258e+00
3.157000000000000000e+03 4.378997039794921875e+01 2.474210548400878906e+01 9.777994155883789062e-01 9.772611856460571289e-01 5.865181684494018555e-01 9.766867756843566895e-01
3.158000000000000000e+03 6.327413940429687500e+01 2.307235717773437500e+01 -5.248201489448547363e-01 8.733136177062988281e+00 2.462494850158691406e+00 -1.088526248931884766e+00
3.159000000000000000e+03 6.163561630249023438e+01 2.341458320617675781e+01 -6.331505179405212402e-01 8.933471679687500000e+00 2.490096330642700195e+00 -8.237544894218444824e-01
3.160000000000000000e+03 5.631653594970703125e+01 2.411794662475585938e+01 -6.645569205284118652e-01 8.735558509826660156e+00 2.421300411224365234e+00 5.647788047790527344e-01
3.161000000000000000e+03 5.703819656372070312e+01 2.428466987609863281e+01 -6.646453142166137695e-01 8.969476699829101562e+00 2.491449594497680664e+00 3.571421802043914795e-01
3.162000000000000000e+03 5.491710662841796875e+01 2.395229911804199219e+01 -5.822190046310424805e-01 8.227385520935058594e+00 2.293550014495849609e+00 9.967324137687683105e-01
3.163000000000000000e+03 5.285279846191406250e+01 2.464194297790527344e+01 -2.134207636117935181e-01 7.329040527343750000e+00 2.134685993194580078e+00 1.686677217483520508e+00
3.164000000000000000e+03 5.262815856933593750e+01 2.399887657165527344e+01 -2.545508444309234619e-01 7.064321994781494141e+00 2.042931318283081055e+00 1.648811340332031250e+00
3.165000000000000000e+03 5.054816055297851562e+01 2.527226257324218750e+01 3.855109214782714844e-01 5.706501483917236328e+00 1.827603697776794434e+00 2.195783138275146484e+00
3.166000000000000000e+03 4.751550292968750000e+01 2.318748664855957031e+01 4.657376706600189209e-01 3.506083250045776367e+00 1.191546320915222168e+00 1.688445568084716797e+00
3.167000000000000000e+03 4.564493179321289062e+01 2.527459335327148438e+01 1.055781483650207520e+00 1.850323081016540527e+00 8.718313574790954590e-01 1.425549626350402832e+00
3.168000000000000000e+03 4.659723663330078125e+01 2.508715820312500000e+01 9.778816699981689453e-01 2.503757953643798828e+00 1.044491887092590332e+00 1.688293457031250000e+00
3.169000000000000000e+03 4.526144790649414062e+01 2.613887023925781250e+01 1.158855557441711426e+00 1.399702310562133789e+00 7.675673365592956543e-01 1.282437682151794434e+00
3.170000000000000000e+03 4.427219772338867188e+01 2.269272994995117188e+01 5.488618612289428711e-01 1.726276516914367676e+00 6.825414896011352539e-01 1.091002464294433594e+00
3.171000000000000000e+03 4.586621093750000000e+01 2.297432518005371094e+01 5.551828742027282715e-01 2.539391040802001953e+00 9.283722043037414551e-01 1.402258157730102539e+00
3.172000000000000000e+03 6.465856933593750000e+01 2.506550979614257812e+01 -2.606439590454101562e-01 8.719499588012695312e+00 2.537656784057617188e+00 -1.366351008415222168e+00
3.173000000000000000e+03 6.335573959350585938e+01 2.497184181213378906e+01 -3.181723952293395996e-01 9.042025566101074219e+00 2.617155790328979492e+00 -1.184915900230407715e+00
3.174000000000000000e+03 6.105874633789062500e+01 2.539863777160644531e+01 -3.614859879016876221e-01 9.399955749511718750e+00 2.711540699005126953e+00 -8.086407184600830078e-01
3.175000000000000000e+03 5.833813095092773438e+01 2.534706306457519531e+01 -5.247063040733337402e-01 9.479806900024414062e+00 2.686530113220214844e+00 -1.085238382220268250e-01
3.176000000000000000e+03 5.525953674316406250e+01 2.717173004150390625e+01 -1.577243208885192871e-01 9.599910736083984375e+00 2.832656145095825195e+00 1.196163058280944824e+00
3.177000000000000000e+03 5.434642028808593750e+01 2.703200912475585938e+01 -5.873695388436317444e-02 9.138926506042480469e+00 2.724056720733642578e+00 1.642718315124511719e+00
3.178000000000000000e+03 4.898755645751953125e+01 2.724915695190429688e+01 1.422302007675170898e+00 4.091384410858154297e+00 1.654105901718139648e+00 2.546857357025146484e+00
3.179000000000000000e+03 5.076570129394531250e+01 2.624957084655761719e+01 6.129115819931030273e-01 5.943388938903808594e+00 1.966890096664428711e+00 2.435938835144042969e+00
3.180000000000000000e+03 4.663659286499023438e+01 2.462308883666992188e+01 8.661611080169677734e-01 2.686213970184326172e+00 1.065712571144104004e+00 1.668267369270324707e+00
3.181000000000000000e+03 6.773925781250000000e+01 2.834961128234863281e+01 2.074740827083587646e-01 8.203201293945312500e+00 2.523202419281005859e+00 -1.473617911338806152e+00
3.182000000000000000e+03 6.115895462036132812e+01 2.633326148986816406e+01 -2.579808831214904785e-01 9.516491889953613281e+00 2.777553319931030273e+00 -9.120742082595825195e-01
3.183000000000000000e+03 6.014226913452148438e+01 2.733112525939941406e+01 -6.636610627174377441e-02 9.981838226318359375e+00 2.974641561508178711e+00 -7.368981242179870605e-01
3.184000000000000000e+03 5.661609649658203125e+01 2.712820625305175781e+01 -2.554898560047149658e-01 1.001755142211914062e+01 2.928618431091308594e+00 5.561762452125549316e-01
3.185000000000000000e+03 5.347647857666015625e+01 2.794444084167480469e+01 3.543840646743774414e-01 8.926689147949218750e+00 2.784322023391723633e+00 2.253813266754150391e+00
3.186000000000000000e+03 7.758919525146484375e+01 2.948738288879394531e+01 3.510524518787860870e-03 5.371902942657470703e+00 1.612624049186706543e+00 -5.702680945396423340e-01
3.187000000000000000e+03 7.598427581787109375e+01 2.981092643737792969e+01 8.659341186285018921e-02 5.829738616943359375e+00 1.774899601936340332e+00 -8.357337713241577148e-01
3.188000000000000000e+03 7.218122863769531250e+01 2.978221511840820312e+01 1.929451823234558105e-01 6.962254524230957031e+00 2.146559953689575195e+00 -1.216779232025146484e+00
3.189000000000000000e+03 7.048063659667968750e+01 3.073874664306640625e+01 3.669860661029815674e-01 7.299484252929687500e+00 2.299941062927246094e+00 -1.290123105049133301e+00
3.190000000000000000e+03 6.618302917480468750e+01 3.025843620300292969e+01 5.734108090400695801e-01 8.592043876647949219e+00 2.749636650085449219e+00 -1.432987809181213379e+00
3.191000000000000000e+03 5.807413864135742188e+01 2.762691879272460938e+01 -1.127512753009796143e-01 1.030816555023193359e+01 3.058624267578125000e+00 -6.004485115408897400e-02
3.192000000000000000e+03 5.427932357788085938e+01 2.786138725280761719e+01 1.339317262172698975e-01 9.491984367370605469e+00 2.887774944305419922e+00 1.864436984062194824e+00
3.193000000000000000e+03 5.101441955566406250e+01 2.989738655090332031e+01 2.381930112838745117e+00 6.355841159820556641e+00 2.621331453323364258e+00 3.832860946655273438e+00
3.194000000000000000e+03 7.284811401367187500e+01 3.130437278747558594e+01 2.656453847885131836e-01 6.618667602539062500e+00 2.065294027328491211e+00 -1.107445359230041504e+00
3.195000000000000000e+03 5.873782348632812500e+01 3.008884811401367188e+01 7.063977122306823730e-01 1.110663795471191406e+01 3.543910741806030273e+00 -4.722276628017425537e-01
3.196000000000000000e+03 5.628549957275390625e+01 3.011528396606445312e+01 5.354448556900024414e-01 1.162461853027343750e+01 3.648019075393676758e+00 7.302327156066894531e-01
3.197000000000000000e+03 5.484746932983398438e+01 2.999318695068359375e+01 6.264341473579406738e-01 1.121611690521240234e+01 3.552765130996704102e+00 1.864453315734863281e+00
3.198000000000000000e+03 5.285442352294921875e+01 3.047103691101074219e+01 1.721233487129211426e+00 9.677318572998046875e+00 3.419565677642822266e+00 3.692574977874755859e+00
3.199000000000000000e+03 7.508528900146484375e+01 3.394762420654296875e+01 1.990910768508911133e-01 5.620517730712890625e+00 1.745882630348205566e+00 -7.228425145149230957e-01
3.200000000000000000e+03 6.978816986083984375e+01 3.322553634643554688e+01 6.588222980499267578e-01 7.491772651672363281e+00 2.445178508758544922e+00 -1.100455999374389648e+00
3.201000000000000000e+03 5.743832015991210938e+01 3.170340347290039062e+01 1.430597901344299316e+00 1.225490951538085938e+01 4.105652332305908203e+00 -1.867047324776649475e-02
3.202000000000000000e+03 7.703778076171875000e+01 3.482613754272460938e+01 1.597356051206588745e-01 4.688161849975585938e+00 1.454369187355041504e+00 -4.658699333667755127e-01
3.203000000000000000e+03 7.631845855712890625e+01 3.550671005249023438e+01 2.123835682868957520e-01 4.990136146545410156e+00 1.560755848884582520e+00 -5.039911270141601562e-01
3.204000000000000000e+03 7.342279052734375000e+01 3.563100433349609375e+01 4.704441726207733154e-01 6.247876167297363281e+00 2.015496253967285156e+00 -7.460821866989135742e-01
3.205000000000000000e+03 6.507247924804687500e+01 3.553675842285156250e+01 1.509041666984558105e+00 9.193241119384765625e+00 3.210684776306152344e+00 -6.854015588760375977e-01
3.206000000000000000e+03 5.874475479125976562e+01 3.265382385253906250e+01 1.981055259704589844e+00 1.178246879577636719e+01 4.129057407379150391e+00 -4.883271455764770508e-01
3.207000000000000000e+03 5.741709899902343750e+01 3.387806701660156250e+01 3.087790012359619141e+00 1.340398502349853516e+01 4.947532653808593750e+00 5.922013521194458008e-02
3.208000000000000000e+03 5.387146759033203125e+01 3.372936248779296875e+01 2.825362682342529297e+00 1.613214111328125000e+01 5.687251091003417969e+00 5.296493530273437500e+00
3.209000000000000000e+03 7.827409362792968750e+01 3.590685272216796875e+01 9.800242632627487183e-02 4.009481906890869141e+00 1.232245206832885742e+00 -1.693336516618728638e-01
3.210000000000000000e+03 7.710591125488281250e+01 3.669737243652343750e+01 1.727865338325500488e-01 4.410504817962646484e+00 1.374987363815307617e+00 -2.056300640106201172e-01
3.211000000000000000e+03 7.622857666015625000e+01 3.655865097045898438e+01 3.087176382541656494e-01 4.721449375152587891e+00 1.509050011634826660e+00 -4.932350218296051025e-01
3.212000000000000000e+03 5.695188903808593750e+01 3.501826858520507812e+01 4.121056556701660156e+00 1.398550319671630859e+01 5.431967735290527344e+00 3.283046185970306396e-01
3.213000000000000000e+03 7.677973175048828125e+01 3.930985260009765625e+01 1.325030475854873657e-01 4.035973072052001953e+00 1.250542759895324707e+00 -1.719421446323394775e-01
3.214000000000000000e+03 7.809903717041015625e+01 3.709413146972656250e+01 4.039570316672325134e-02 3.901358366012573242e+00 1.182526230812072754e+00 -1.637368202209472656e-01
3.215000000000000000e+03 6.297282409667968750e+01 3.744632720947265625e+01 1.760480761528015137e+00 1.045560550689697266e+01 3.664825677871704102e+00 -2.016850560903549194e-01
3.216000000000000000e+03 5.943549346923828125e+01 3.695893096923828125e+01 2.909232378005981445e+00 1.201137828826904297e+01 4.476182937622070312e+00 9.042996764183044434e-01
3.217000000000000000e+03 5.411610794067382812e+01 3.727843856811523438e+01 1.648263096809387207e+00 2.809827423095703125e+01 8.923961639404296875e+00 -1.103253126144409180e+00
3.218000000000000000e+03 6.922108459472656250e+01 3.840759658813476562e+01 8.773094415664672852e-01 7.737852573394775391e+00 2.584548711776733398e+00 -4.599098563194274902e-01
3.219000000000000000e+03 7.223430633544921875e+01 3.681695175170898438e+01 5.390913486480712891e-01 6.656091213226318359e+00 2.158554792404174805e+00 -6.443479657173156738e-01
3.220000000000000000e+03 7.188691711425781250e+01 3.893515777587890625e+01 5.896230936050415039e-01 6.697484493255615234e+00 2.186132431030273438e+00 -4.066176116466522217e-01
3.221000000000000000e+03 5.411462783813476562e+01 3.771075820922851562e+01 3.102563142776489258e+00 2.780325698852539062e+01 9.271745681762695312e+00 -3.285191059112548828e+00
3.222000000000000000e+03 5.288399887084960938e+01 3.898929977416992188e+01 1.525633215904235840e+00 3.337465524673461914e+00 1.458929657936096191e+00 -3.689944982528686523e+00
3.223000000000000000e+03 5.150496673583984375e+01 3.904168319702148438e+01 -1.283812522888183594e+00 -1.233261227607727051e-01 -4.221416115760803223e-01 -1.015043497085571289e+00
3.224000000000000000e+03 5.199240875244140625e+01 3.872000885009765625e+01 -2.966447830200195312e+00 -8.549481630325317383e-01 -1.146418809890747070e+00 -1.578248143196105957e+00
3.225000000000000000e+03 4.899011993408203125e+01 4.023247146606445312e+01 1.178305894136428833e-01 8.537505865097045898e-01 2.914743721485137939e-01 1.106873035430908203e+00
3.226000000000000000e+03 7.523443603515625000e+01 4.057378387451171875e+01 1.684155613183975220e-01 4.900398731231689453e+00 1.520644307136535645e+00 -2.957608699798583984e-01
3.227000000000000000e+03 5.231552505493164062e+01 4.188362884521484375e+01 2.448202818632125854e-01 6.133505344390869141e+00 1.913497567176818848e+00 -1.168809294700622559e+00
3.228000000000000000e+03 4.480113983154296875e+01 4.053931045532226562e+01 3.665859103202819824e-01 -2.720148563385009766e-01 2.837131358683109283e-02 -9.420067071914672852e-02
3.229000000000000000e+03 2.366287612915039062e+01 3.847980117797851562e+01 1.243548095226287842e-02 6.373135000467300415e-02 2.285004779696464539e-02 2.070690318942070007e-02
3.230000000000000000e+03 8.006660461425781250e+00 4.108203125000000000e+01 -5.250890739262104034e-03 -5.601919069886207581e-02 -1.838102377951145172e-02 6.337981321848928928e-04
3.231000000000000000e+03 8.671461105346679688e+00 3.835231018066406250e+01 -6.828582379966974258e-03 -4.704481735825538635e-02 -1.616202108561992645e-02 -4.875381011515855789e-03
3.232000000000000000e+03 7.950950145721435547e+00 3.382569885253906250e+01 -1.057688053697347641e-02 -5.012998729944229126e-02 -1.821206137537956238e-02 -6.892949342727661133e-03
3.233000000000000000e+03 1.394714546203613281e+01 2.811180114746093750e+01 -1.483848318457603455e-03 3.105015307664871216e-02 8.869891986250877380e-03 4.649237263947725296e-03
3.234000000000000000e+03 1.540528392791748047e+01 2.726763153076171875e+01 -8.718520402908325195e-03 4.946487396955490112e-02 1.222390681505203247e-02 1.693331077694892883e-02
3.235000000000000000e+03 1.765223312377929688e+01 2.406139373779296875e+01 1.070809643715620041e-02 8.878393471240997314e-02 2.984760887920856476e-02 3.322846814990043640e-02
3.236000000000000000e+03 2.003022956848144531e+01 2.242484283447265625e+01 2.406537905335426331e-02 1.113774329423904419e-01 4.063284397125244141e-02 5.684827268123626709e-02
3.237000000000000000e+03 2.211053085327148438e+01 1.980782318115234375e+01 5.443828925490379333e-02 1.282725334167480469e-01 5.481324717402458191e-02 8.138594031333923340e-02
3.238000000000000000e+03 2.507744598388671875e+01 1.693750190734863281e+01 1.046025753021240234e-01 1.254841834306716919e-01 6.902603060007095337e-02 1.155372783541679382e-01
3.239000000000000000e+03 8.711007118225097656e+00 3.580286407470703125e+01 -1.828652690164744854e-03 -4.335920140147209167e-02 -1.355635561048984528e-02 -3.969565965235233307e-03
3.240000000000000000e+03 1.112304496765136719e+01 3.269208526611328125e+01 -4.101830534636974335e-03 -1.384096778929233551e-02 -5.382839590311050415e-03 -2.747595077380537987e-03
3.241000000000000000e+03 1.290012073516845703e+01 3.037481307983398438e+01 -2.468632766976952553e-03 1.123306807130575180e-02 2.629330614581704140e-03 5.431409226730465889e-04
3.242000000000000000e+03 1.451688194274902344e+01 2.969163894653320312e+01 -1.142517291009426117e-02 3.003364801406860352e-02 5.582542158663272858e-03 8.881393820047378540e-03
3.243000000000000000e+03 1.609821891784667969e+01 2.880033493041992188e+01 1.235246891155838966e-03 5.014709010720252991e-02 1.541470177471637726e-02 1.332857180386781693e-02
3.244000000000000000e+03 1.689058685302734375e+01 2.636478233337402344e+01 4.493244457989931107e-03 6.846351921558380127e-02 2.188702858984470367e-02 2.132390625774860382e-02
3.245000000000000000e+03 1.903610229492187500e+01 2.322312927246093750e+01 1.029109396040439606e-02 9.887749701738357544e-02 3.275057673454284668e-02 4.857549443840980530e-02
3.246000000000000000e+03 2.286997604370117188e+01 1.931379127502441406e+01 5.786024034023284912e-02 1.270332634449005127e-01 5.546805262565612793e-02 9.179118275642395020e-02
3.247000000000000000e+03 1.367129039764404297e+01 3.440383529663085938e+01 -2.990089356899261475e-03 1.029211282730102539e-02 2.190607134252786636e-03 1.533420174382627010e-03
3.248000000000000000e+03 1.319284629821777344e+01 3.225970458984375000e+01 -1.223654672503471375e-02 8.549246937036514282e-03 -1.106190029531717300e-03 1.895598950795829296e-03
3.249000000000000000e+03 1.508637905120849609e+01 3.142456245422363281e+01 -1.553205773234367371e-03 3.147101029753684998e-02 8.975341916084289551e-03 6.735082250088453293e-03
3.250000000000000000e+03 1.680198478698730469e+01 3.039995002746582031e+01 -8.656314574182033539e-03 4.769697412848472595e-02 1.171219721436500549e-02 1.665687374770641327e-02
3.251000000000000000e+03 1.762975692749023438e+01 2.783419227600097656e+01 -5.221916828304529190e-03 6.553406268358230591e-02 1.809364371001720428e-02 2.663286961615085602e-02
3.252000000000000000e+03 1.911343193054199219e+01 2.684140586853027344e+01 9.990775026381015778e-03 8.278401941061019897e-02 2.783243916928768158e-02 3.085077181458473206e-02
3.253000000000000000e+03 2.104659080505371094e+01 2.371794319152832031e+01 1.854167319834232330e-02 1.025238633155822754e-01 3.631966188549995422e-02 5.767947435379028320e-02
3.254000000000000000e+03 2.408572769165039062e+01 1.982275772094726562e+01 6.707905977964401245e-02 1.243791207671165466e-01 5.743745341897010803e-02 8.791873604059219360e-02
3.255000000000000000e+03 2.531890296936035156e+01 2.008636665344238281e+01 6.903942674398422241e-02 1.190445125102996826e-01 5.642518401145935059e-02 9.685667604207992554e-02
3.256000000000000000e+03 1.579334926605224609e+01 3.326345825195312500e+01 -1.018693950027227402e-02 2.915356680750846863e-02 5.689988378435373306e-03 9.072845801711082458e-03
3.257000000000000000e+03 1.757670974731445312e+01 3.201068115234375000e+01 1.916465931572020054e-03 5.203507095575332642e-02 1.618546061217784882e-02 1.506454590708017349e-02
3.258000000000000000e+03 1.839612960815429688e+01 2.934405899047851562e+01 6.680367048829793930e-03 6.665632128715515137e-02 2.200100570917129517e-02 2.220478467643260956e-02
3.259000000000000000e+03 1.990623855590820312e+01 2.828357315063476562e+01 -2.787663543131202459e-04 7.809728384017944336e-02 2.334555424749851227e-02 3.596116602420806885e-02
3.260000000000000000e+03 2.056318092346191406e+01 2.581368827819824219e+01 8.479491807520389557e-03 9.173546731472015381e-02 3.006448782980442047e-02 4.768462106585502625e-02
3.261000000000000000e+03 2.279047393798828125e+01 2.282270431518554688e+01 2.911768481135368347e-02 1.105565726757049561e-01 4.190227761864662170e-02 6.589184701442718506e-02
3.262000000000000000e+03 2.495525932312011719e+01 2.271470260620117188e+01 5.258635804057121277e-02 1.131665706634521484e-01 4.972587898373603821e-02 8.314002305269241333e-02
3.263000000000000000e+03 1.846768760681152344e+01 3.350526428222656250e+01 -5.936975125223398209e-03 4.915120825171470642e-02 1.296427007764577866e-02 1.434115692973136902e-02
3.264000000000000000e+03 1.919565010070800781e+01 3.089136695861816406e+01 -5.960599519312381744e-03 6.412363052368164062e-02 1.744890958070755005e-02 2.352294512093067169e-02
3.265000000000000000e+03 2.079678916931152344e+01 2.982531356811523438e+01 1.403676718473434448e-02 7.819091528654098511e-02 2.766830474138259888e-02 2.947925962507724762e-02
3.266000000000000000e+03 2.278975868225097656e+01 2.519087028503417969e+01 2.754387073218822479e-02 1.014559045433998108e-01 3.869993239641189575e-02 5.921131744980812073e-02
3.267000000000000000e+03 1.680412101745605469e+01 3.509553909301757812e+01 -1.615250715985894203e-03 3.894902765750885010e-02 1.120013277977705002e-02 7.739771623164415359e-03
3.268000000000000000e+03 1.998345565795898438e+01 3.253525543212890625e+01 1.112691778689622879e-02 6.531965732574462891e-02 2.293397299945354462e-02 2.375625632703304291e-02
3.269000000000000000e+03 2.310287094116210938e+01 3.106600379943847656e+01 1.927617751061916351e-02 8.326613157987594604e-02 3.076269105076789856e-02 4.330208525061607361e-02
3.270000000000000000e+03 2.218132972717285156e+01 2.853428459167480469e+01 8.344772271811962128e-03 8.639820665121078491e-02 2.842289395630359650e-02 4.490916430950164795e-02
3.271000000000000000e+03 2.316473960876464844e+01 2.735112190246582031e+01 2.438723482191562653e-02 9.401229023933410645e-02 3.551985695958137512e-02 4.378528892993927002e-02
3.272000000000000000e+03 2.274029159545898438e+01 3.289576721191406250e+01 8.088700473308563232e-03 7.495002448558807373e-02 2.491161786019802094e-02 1.892450451850891113e-02
3.273000000000000000e+03 2.410216903686523438e+01 2.784396171569824219e+01 2.260293811559677124e-02 9.549617022275924683e-02 3.542973101139068604e-02 6.015874445438385010e-02
3.274000000000000000e+03 2.181847763061523438e+01 3.511735534667968750e+01 7.412490900605916977e-03 6.477402150630950928e-02 2.165595255792140961e-02 2.629462629556655884e-02
3.275000000000000000e+03 2.463286972045898438e+01 3.118589019775390625e+01 7.893836125731468201e-03 8.802351355552673340e-02 2.877520583570003510e-02 3.386372700333595276e-02
3.276000000000000000e+03 2.477058982849121094e+01 2.953791618347167969e+01 2.863398753106594086e-02 8.817437291145324707e-02 3.504250943660736084e-02 5.236790701746940613e-02
3.277000000000000000e+03 2.600172424316406250e+01 2.955555725097656250e+01 1.527737453579902649e-02 9.333586692810058594e-02 3.258397430181503296e-02 4.664783179759979248e-02
3.278000000000000000e+03 3.205570220947265625e+01 3.568269348144531250e+01 7.472757250070571899e-02 6.145996972918510437e-02 4.085626080632209778e-02 3.319999203085899353e-02
3.279000000000000000e+03 4.089986038208007812e+01 3.419665908813476562e+01 1.148932352662086487e-01 7.385561615228652954e-02 5.662465468049049377e-02 8.119397610425949097e-02
3.280000000000000000e+03 2.219512939453125000e+00 3.437080383300781250e+01 -2.129716333001852036e-03 -1.243775188922882080e-01 -3.795216977596282959e-02 -4.328409675508737564e-03
3.281000000000000000e+03 2.174999713897705078e+00 3.298833084106445312e+01 2.768964041024446487e-03 -1.242286637425422668e-01 -3.643791005015373230e-02 -3.535706084221601486e-03
3.282000000000000000e+03 3.649403572082519531e+00 3.154560470581054688e+01 9.517126018181443214e-04 -1.083084344863891602e-01 -3.220701590180397034e-02 -5.835599265992641449e-03
3.283000000000000000e+03 5.797964096069335938e+00 3.139670944213867188e+01 -8.152698166668415070e-03 -8.010498434305191040e-02 -2.647730521857738495e-02 -9.326261468231678009e-03
3.284000000000000000e+03 7.276399612426757812e+00 2.914659690856933594e+01 -6.542862858623266220e-03 -5.774929374456405640e-02 -1.928764767944812775e-02 -1.132447272539138794e-02
3.285000000000000000e+03 1.009310245513916016e+01 2.723730087280273438e+01 -4.372035153210163116e-03 -1.340835262089967728e-02 -5.334116518497467041e-03 -9.062257595360279083e-03
3.286000000000000000e+03 1.124388217926025391e+01 2.630380821228027344e+01 -1.208389271050691605e-02 7.578853517770767212e-03 -1.351511687971651554e-03 -1.254405244253575802e-03
3.287000000000000000e+03 1.292519760131835938e+01 2.367472457885742188e+01 -2.306087641045451164e-03 4.210618883371353149e-02 1.194003038108348846e-02 4.454184789210557938e-03
3.288000000000000000e+03 1.534162712097167969e+01 2.236875343322753906e+01 -9.380028350278735161e-04 7.994816452264785767e-02 2.370304800570011139e-02 2.743664570152759552e-02
3.289000000000000000e+03 1.608219337463378906e+01 1.949405860900878906e+01 1.299195736646652222e-02 1.072060614824295044e-01 3.605940565466880798e-02 4.476416483521461487e-02
3.290000000000000000e+03 1.848192405700683594e+01 1.807336616516113281e+01 3.770653158426284790e-02 1.353196650743484497e-01 5.190785974264144897e-02 7.006575912237167358e-02
3.291000000000000000e+03 2.125697517395019531e+01 1.609548950195312500e+01 8.009422570466995239e-02 1.480238586664199829e-01 6.843542307615280151e-02 1.073173433542251587e-01
3.292000000000000000e+03 2.128816986083984375e+01 1.308732891082763672e+01 1.230323314666748047e-01 1.608498245477676392e-01 8.516464382410049438e-02 1.414984762668609619e-01
3.293000000000000000e+03 2.153122329711914062e+01 1.490478324890136719e+01 9.849272668361663818e-02 1.521826535463333130e-01 7.520261406898498535e-02 1.208663135766983032e-01
3.294000000000000000e+03 2.216250991821289062e+01 1.479485130310058594e+01 1.058148369193077087e-01 1.505275964736938477e-01 7.690273225307464600e-02 1.234909072518348694e-01
3.295000000000000000e+03 2.383892440795898438e+01 1.497719192504882812e+01 1.186016723513603210e-01 1.415183842182159424e-01 7.803601771593093872e-02 1.271252930164337158e-01
3.296000000000000000e+03 2.353145217895507812e+01 1.477239322662353516e+01 1.197940185666084290e-01 1.429276168346405029e-01 7.881648838520050049e-02 1.309200674295425415e-01
3.297000000000000000e+03 3.546495437622070312e+00 3.279928588867187500e+01 -5.300774239003658295e-03 -1.071853488683700562e-01 -3.374583646655082703e-02 -7.290997542440891266e-03
3.298000000000000000e+03 4.697358608245849609e+00 3.221349716186523438e+01 -2.486545126885175705e-04 -9.403258562088012695e-02 -2.828437276184558868e-02 -9.202065877616405487e-03
3.299000000000000000e+03 5.398167133331298828e+00 3.352010345458984375e+01 -6.601435597985982895e-03 -8.303925395011901855e-02 -2.689220756292343140e-02 -7.646945770829916000e-03
3.300000000000000000e+03 2.992189216613769531e+01 3.615948486328125000e+01 1.913398690521717072e-02 8.952674269676208496e-02 3.259821981191635132e-02 2.243431098759174347e-02
3.301000000000000000e+03 3.154150199890136719e+01 3.384083938598632812e+01 1.583898440003395081e-02 9.587453305721282959e-02 3.351405635476112366e-02 4.319543018937110901e-02
3.302000000000000000e+03 3.503522872924804688e+01 3.411847305297851562e+01 8.436133712530136108e-02 8.137589693069458008e-02 4.972117021679878235e-02 2.677864581346511841e-02
3.303000000000000000e+03 3.606925201416015625e+01 3.326241683959960938e+01 5.022616684436798096e-02 5.443967506289482117e-02 3.139975294470787048e-02 7.803567498922348022e-02
3.304000000000000000e+03 3.925619888305664062e+01 3.403700637817382812e+01 1.102468967437744141e-01 9.596886485815048218e-02 6.186472624540328979e-02 4.628002271056175232e-02
3.305000000000000000e+03 3.861359405517578125e+01 3.224434280395507812e+01 1.116695329546928406e-01 5.690515413880348206e-02 5.057240650057792664e-02 6.724680960178375244e-02
3.306000000000000000e+03 4.171294021606445312e+01 3.207407760620117188e+01 1.290998458862304688e-01 1.196296215057373047e-01 7.461883872747421265e-02 2.824978344142436981e-02
3.307000000000000000e+03 4.248667907714843750e+01 3.377692031860351562e+01 -6.193705834448337555e-03 5.757071450352668762e-02 1.541310269385576248e-02 7.299067825078964233e-02
3.308000000000000000e+03 7.844624519348144531e+00 3.127237510681152344e+01 -8.415365591645240784e-03 -5.239082500338554382e-02 -1.824185624718666077e-02 -9.629770182073116302e-03
3.309000000000000000e+03 1.120252704620361328e+01 3.517198944091796875e+01 -1.175768300890922546e-02 -1.791212894022464752e-02 -8.900944143533706665e-03 -4.279329907149076462e-03
3.310000000000000000e+03 1.980234527587890625e+01 3.444974517822265625e+01 -6.270497688092291355e-04 6.042881309986114502e-02 1.794052869081497192e-02 1.150452811270952225e-02
3.311000000000000000e+03 2.469786643981933594e+01 3.320834350585937500e+01 2.611343562602996826e-02 7.620160281658172607e-02 3.069451078772544861e-02 3.779771924018859863e-02
3.312000000000000000e+03 2.784448051452636719e+01 3.389914703369140625e+01 2.699146047234535217e-02 8.619603514671325684e-02 3.395624831318855286e-02 2.458416484296321869e-02
3.313000000000000000e+03 2.983592605590820312e+01 3.245540237426757812e+01 2.058154158294200897e-02 9.350949525833129883e-02 3.422731161117553711e-02 3.956639394164085388e-02
3.314000000000000000e+03 3.125176811218261719e+01 3.213316726684570312e+01 6.964838504791259766e-02 7.389034330844879150e-02 4.306161776185035706e-02 4.891133308410644531e-02
3.315000000000000000e+03 3.735279083251953125e+01 3.169535255432128906e+01 6.333863735198974609e-02 5.159514769911766052e-02 3.448013588786125183e-02 7.104291021823883057e-02
3.316000000000000000e+03 4.024896621704101562e+01 3.077519226074218750e+01 7.413499057292938232e-02 4.741369932889938354e-02 3.646460920572280884e-02 9.297442436218261719e-02
3.317000000000000000e+03 8.557429313659667969e+00 2.982740402221679688e+01 -4.686653614044189453e-03 -4.239714890718460083e-02 -1.412514038383960724e-02 -9.586598724126815796e-03
3.318000000000000000e+03 9.868150711059570312e+00 3.044882392883300781e+01 -8.260612376034259796e-03 -2.012994512915611267e-02 -8.517167530953884125e-03 -5.490729585289955139e-03
3.319000000000000000e+03 2.156773567199707031e+01 3.162199211120605469e+01 -1.453243312425911427e-04 7.277800142765045166e-02 2.178980223834514618e-02 3.036394715309143066e-02
3.320000000000000000e+03 2.766525077819824219e+01 3.174291229248046875e+01 3.944015130400657654e-02 8.960197865962982178e-02 3.871263936161994934e-02 4.365058243274688721e-02
3.321000000000000000e+03 3.083390045166015625e+01 3.070044136047363281e+01 1.924213953316211700e-02 9.193442761898040771e-02 3.335296735167503357e-02 6.309971213340759277e-02
3.322000000000000000e+03 3.301556015014648438e+01 2.932492256164550781e+01 4.645270854234695435e-02 1.016795560717582703e-01 4.443967714905738831e-02 5.227909609675407410e-02
3.323000000000000000e+03 3.368490600585937500e+01 3.045036506652832031e+01 2.751914039254188538e-02 9.972486644983291626e-02 3.817320242524147034e-02 6.583929061889648438e-02
3.324000000000000000e+03 3.574924087524414062e+01 3.079434204101562500e+01 7.908341288566589355e-02 9.165095537900924683e-02 5.122031271457672119e-02 4.988865554332733154e-02
3.325000000000000000e+03 3.822202682495117188e+01 3.057215690612792969e+01 6.375118345022201538e-02 6.026232242584228516e-02 3.720404952764511108e-02 8.363012969493865967e-02
3.326000000000000000e+03 3.963353729248046875e+01 3.024583625793457031e+01 7.228547334671020508e-02 6.024729833006858826e-02 3.975982964038848877e-02 9.139589220285415649e-02
3.327000000000000000e+03 3.994022750854492188e+01 3.051515960693359375e+01 9.285736829042434692e-02 9.523709118366241455e-02 5.642833933234214783e-02 6.253650039434432983e-02
3.328000000000000000e+03 5.474028587341308594e+00 3.013910484313964844e+01 -1.324194832704961300e-03 -8.469173312187194824e-02 -2.580477856099605560e-02 -1.043123658746480942e-02
3.329000000000000000e+03 9.206426620483398438e+00 2.842235755920410156e+01 -9.621870703995227814e-03 -2.587851323187351227e-02 -1.065011508762836456e-02 -8.452565409243106842e-03
3.330000000000000000e+03 1.027307987213134766e+01 2.905279350280761719e+01 -6.358542945235967636e-03 -1.734553091228008270e-02 -7.111222483217716217e-03 -8.267810568213462830e-03
3.331000000000000000e+03 1.133387565612792969e+01 2.917786598205566406e+01 -2.965867519378662109e-03 -1.476510777138173580e-03 -1.332713523879647255e-03 -3.159253858029842377e-03
3.332000000000000000e+03 2.341479301452636719e+01 2.931807708740234375e+01 1.311708707362413406e-02 8.852455019950866699e-02 3.049249015748500824e-02 3.484286367893218994e-02
3.333000000000000000e+03 2.838137817382812500e+01 3.026822662353515625e+01 4.755681008100509644e-02 8.991903811693191528e-02 4.124275222420692444e-02 5.616741254925727844e-02
3.334000000000000000e+03 3.031831741333007812e+01 2.958135223388671875e+01 6.592152267694473267e-02 8.830189704895019531e-02 4.626702517271041870e-02 5.162479728460311890e-02
3.335000000000000000e+03 3.038726043701171875e+01 2.743739891052246094e+01 3.899590671062469482e-02 8.880854398012161255e-02 3.834133595228195190e-02 8.153147250413894653e-02
3.336000000000000000e+03 3.274790954589843750e+01 2.813170433044433594e+01 6.263541430234909058e-02 9.835433214902877808e-02 4.829692095518112183e-02 5.947722494602203369e-02
3.337000000000000000e+03 3.624134826660156250e+01 2.916118431091308594e+01 7.020161300897598267e-02 5.932295694947242737e-02 3.885737061500549316e-02 7.809560745954513550e-02
3.338000000000000000e+03 3.067215681076049805e+00 2.789778900146484375e+01 -2.377137076109647751e-03 -1.237822026014328003e-01 -3.784780204296112061e-02 -1.094771176576614380e-02
3.339000000000000000e+03 1.201037788391113281e+01 2.744799041748046875e+01 -2.155245980247855186e-03 1.048864983022212982e-02 2.500021131709218025e-03 -2.892802236601710320e-03
3.340000000000000000e+03 2.644986724853515625e+01 2.722192192077636719e+01 2.753606624901294708e-02 1.003393679857254028e-01 3.836262971162796021e-02 5.543999373912811279e-02
3.341000000000000000e+03 2.812508964538574219e+01 2.820043563842773438e+01 5.233769491314888000e-02 9.100796282291412354e-02 4.300369694828987122e-02 6.169325858354568481e-02
3.342000000000000000e+03 3.076969337463378906e+01 2.637240219116210938e+01 4.376556724309921265e-02 8.939567953348159790e-02 3.994837403297424316e-02 8.403156697750091553e-02
3.343000000000000000e+03 3.275151062011718750e+01 2.478537750244140625e+01 7.529982179403305054e-02 9.715199470520019531e-02 5.173554271459579468e-02 7.237641513347625732e-02
3.344000000000000000e+03 3.659416198730468750e+01 2.706711196899414062e+01 7.767524570226669312e-02 1.199180558323860168e-01 5.927798897027969360e-02 6.563956290483474731e-02
3.345000000000000000e+03 3.474915981292724609e+00 2.650110435485839844e+01 -5.532003124244511127e-04 -1.179583221673965454e-01 -3.555345535278320312e-02 -1.148215122520923615e-02
3.346000000000000000e+03 6.459066867828369141e+00 2.711409378051757812e+01 -3.718710038810968399e-03 -6.835535168647766113e-02 -2.162222005426883698e-02 -1.288536190986633301e-02
3.347000000000000000e+03 1.250838088989257812e+01 2.550356292724609375e+01 -1.829382264986634254e-03 2.485708147287368774e-02 6.908309645950794220e-03 -3.685378469526767731e-04
3.348000000000000000e+03 1.377396774291992188e+01 2.465259361267089844e+01 -6.771431770175695419e-03 4.708414152264595032e-02 1.209381222724914551e-02 1.317676436156034470e-02
3.349000000000000000e+03 2.261709976196289062e+01 2.643283271789550781e+01 1.262724958360195160e-02 9.569652378559112549e-02 3.249713033437728882e-02 5.155837535858154297e-02
3.350000000000000000e+03 2.623476791381835938e+01 2.598518943786621094e+01 4.558573290705680847e-02 9.868735074996948242e-02 4.328192397952079773e-02 5.549379065632820129e-02
3.351000000000000000e+03 2.870098304748535156e+01 2.547175979614257812e+01 6.092751398682594299e-02 1.019297987222671509e-01 4.885719344019889832e-02 6.650783866643905640e-02
3.352000000000000000e+03 2.989030265808105469e+01 2.611366462707519531e+01 4.024074226617813110e-02 9.333728998899459839e-02 4.007340967655181885e-02 8.523238450288772583e-02
3.353000000000000000e+03 3.030695533752441406e+01 2.505264472961425781e+01 4.655203595757484436e-02 9.188167005777359009e-02 4.153011366724967957e-02 8.830527961254119873e-02
3.354000000000000000e+03 3.281961822509765625e+01 2.359284591674804688e+01 6.752113997936248779e-02 1.022584885358810425e-01 5.093389004468917847e-02 7.377102971076965332e-02
3.355000000000000000e+03 3.470853805541992188e+01 2.605983352661132812e+01 4.421104863286018372e-02 9.078857302665710449e-02 4.049988463521003723e-02 9.346792101860046387e-02
3.356000000000000000e+03 3.555637741088867188e+01 2.581848716735839844e+01 8.486128598451614380e-02 1.056274399161338806e-01 5.714661628007888794e-02 6.189420074224472046e-02
3.357000000000000000e+03 4.053575992584228516e+00 2.362963485717773438e+01 -4.120974626857787371e-04 -1.141997054219245911e-01 -3.438353911042213440e-02 -1.523096486926078796e-02
3.358000000000000000e+03 6.627481937408447266e+00 2.438704490661621094e+01 -1.195116434246301651e-03 -6.337265670299530029e-02 -1.937033236026763916e-02 -1.526108663529157639e-02
3.359000000000000000e+03 7.633256912231445312e+00 2.413599586486816406e+01 -7.783669512718915939e-03 -4.577484726905822754e-02 -1.606755517423152924e-02 -1.339351385831832886e-02
3.360000000000000000e+03 1.172296905517578125e+01 2.432029914855957031e+01 -1.013315003365278244e-02 2.246962860226631165e-02 3.700943430885672569e-03 1.588079496286809444e-03
3.361000000000000000e+03 1.449126434326171875e+01 2.269204139709472656e+01 5.948550533503293991e-03 7.005078345537185669e-02 2.279980108141899109e-02 2.117059566080570221e-02
3.362000000000000000e+03 1.452566528320312500e+01 2.364501571655273438e+01 -4.838058724999427795e-03 6.147520989179611206e-02 1.699114590883255005e-02 1.439161505550146103e-02
3.363000000000000000e+03 1.624152565002441406e+01 2.186054801940917969e+01 8.621322922408580780e-03 9.267824143171310425e-02 3.038986958563327789e-02 3.067104145884513855e-02
3.364000000000000000e+03 1.568550968170166016e+01 2.355678367614746094e+01 6.874381098896265030e-03 7.369335740804672241e-02 2.417032048106193542e-02 2.226644009351730347e-02
3.365000000000000000e+03 1.977145767211914062e+01 2.450549888610839844e+01 1.680540665984153748e-02 9.921024739742279053e-02 3.480469435453414917e-02 4.298114031553268433e-02
3.366000000000000000e+03 2.254536437988281250e+01 2.367563438415527344e+01 3.021209500730037689e-02 1.092342883348464966e-01 4.183391481637954712e-02 6.764096021652221680e-02
3.367000000000000000e+03 2.763942337036132812e+01 2.493952560424804688e+01 4.250050336122512817e-02 1.030747443437576294e-01 4.367257654666900635e-02 8.538366109132766724e-02
3.368000000000000000e+03 2.831726646423339844e+01 2.378248214721679688e+01 6.201677769422531128e-02 1.058031544089317322e-01 5.034597963094711304e-02 7.473514229059219360e-02
3.369000000000000000e+03 3.100555992126464844e+01 2.471531295776367188e+01 7.472109049558639526e-02 9.520719945430755615e-02 5.097848549485206604e-02 7.428834587335586548e-02
3.370000000000000000e+03 3.037380981445312500e+01 2.297552871704101562e+01 6.580103933811187744e-02 9.090353548526763916e-02 4.701137170195579529e-02 8.882816880941390991e-02
3.371000000000000000e+03 9.156871795654296875e+00 2.243668556213378906e+01 -5.589113105088472366e-03 -1.308248937129974365e-02 -5.601480603218078613e-03 -9.021513164043426514e-03
3.372000000000000000e+03 1.071558666229248047e+01 2.210782051086425781e+01 -5.805503111332654953e-03 1.891496405005455017e-02 3.932838328182697296e-03 -8.527095778845250607e-04
3.373000000000000000e+03 1.338174629211425781e+01 2.230253028869628906e+01 2.135260496288537979e-03 5.598187819123268127e-02 1.743514090776443481e-02 1.280634198337793350e-02
3.374000000000000000e+03 1.572954940795898438e+01 2.090566825866699219e+01 5.869421642273664474e-03 9.204765409231185913e-02 2.937512286007404327e-02 3.458954766392707825e-02
3.375000000000000000e+03 1.855776023864746094e+01 2.099567794799804688e+01 1.577194780111312866e-02 1.127020344138145447e-01 3.854219615459442139e-02 5.178582295775413513e-02
3.376000000000000000e+03 1.862017440795898438e+01 2.203154373168945312e+01 2.085930854082107544e-02 1.060132756829261780e-01 3.806177526712417603e-02 4.783206805586814880e-02
3.377000000000000000e+03 1.956598281860351562e+01 2.159171867370605469e+01 2.114237844944000244e-02 1.084876060485839844e-01 3.888899460434913635e-02 5.817614868283271790e-02
3.378000000000000000e+03 2.178079032897949219e+01 2.229327392578125000e+01 2.805146761238574982e-02 1.101698353886604309e-01 4.146639257669448853e-02 6.735511869192123413e-02
3.379000000000000000e+03 2.357999992370605469e+01 2.261978912353515625e+01 4.637203365564346313e-02 1.166425049304962158e-01 4.890436306595802307e-02 7.275473326444625854e-02
3.380000000000000000e+03 2.605448341369628906e+01 2.139475822448730469e+01 5.530132725834846497e-02 1.161336004734039307e-01 5.143047869205474854e-02 8.429902046918869019e-02
3.381000000000000000e+03 2.851185798645019531e+01 2.212131690979003906e+01 7.588537037372589111e-02 1.074423268437385559e-01 5.499830842018127441e-02 8.489591628313064575e-02
3.382000000000000000e+03 3.031443405151367188e+01 2.092926597595214844e+01 8.594208955764770508e-02 9.157458692789077759e-02 5.325500294566154480e-02 9.407936036586761475e-02
3.383000000000000000e+03 3.067311286926269531e+01 2.246645545959472656e+01 7.329493761062622070e-02 1.007126867771148682e-01 5.220228806138038635e-02 8.427079766988754272e-02
3.384000000000000000e+03 3.460205554962158203e+00 2.000866699218750000e+01 7.427411619573831558e-04 -1.355803906917572021e-01 -4.045129567384719849e-02 -1.862763427197933197e-02
3.385000000000000000e+03 4.997604846954345703e+00 2.060948181152343750e+01 -2.428291772957891226e-04 -9.498606622219085693e-02 -2.856866829097270966e-02 -2.204717881977558136e-02
3.386000000000000000e+03 7.133389472961425781e+00 1.968978881835937500e+01 -9.070266969501972198e-04 -4.461377486586570740e-02 -1.365623995661735535e-02 -1.842994987964630127e-02
3.387000000000000000e+03 7.963277339935302734e+00 2.030395507812500000e+01 -3.942717798054218292e-03 -2.571427635848522186e-02 -8.897097781300544739e-03 -1.729297637939453125e-02
3.388000000000000000e+03 1.086039257049560547e+01 1.967302322387695312e+01 -2.302181674167513847e-03 3.340294584631919861e-02 9.330228902399539948e-03 -3.889908781275153160e-03
3.389000000000000000e+03 1.950785446166992188e+01 1.877183151245117188e+01 4.009858146309852600e-02 1.330162286758422852e-01 5.193444341421127319e-02 7.386308163404464722e-02
3.390000000000000000e+03 1.899965286254882812e+01 1.839861106872558594e+01 4.006895422935485840e-02 1.312741488218307495e-01 5.140293389558792114e-02 7.495614886283874512e-02
3.391000000000000000e+03 2.245797920227050781e+01 2.109594917297363281e+01 3.735369443893432617e-02 1.194329187273979187e-01 4.703598469495773315e-02 7.545776665210723877e-02
3.392000000000000000e+03 2.359009742736816406e+01 2.109582710266113281e+01 5.178456753492355347e-02 1.214570626616477966e-01 5.197248980402946472e-02 8.271377533674240112e-02
3.393000000000000000e+03 2.740140151977539062e+01 2.154939270019531250e+01 6.076646596193313599e-02 1.124785542488098145e-01 5.197350680828094482e-02 8.797454088926315308e-02
3.394000000000000000e+03 3.283787727355957031e+00 1.870967864990234375e+01 -2.636857330799102783e-03 -1.424553990364074707e-01 -4.352767765522003174e-02 -1.744961552321910858e-02
3.395000000000000000e+03 7.781986236572265625e+00 1.889638328552246094e+01 6.402256549336016178e-04 -2.634353190660476685e-02 -7.710991892963647842e-03 -1.745487377047538757e-02
3.396000000000000000e+03 1.125420665740966797e+01 1.878975105285644531e+01 3.326567122712731361e-03 4.961355030536651611e-02 1.588203571736812592e-02 4.728108178824186325e-03
3.397000000000000000e+03 1.339417839050292969e+01 1.849231529235839844e+01 4.038640297949314117e-03 8.795011043548583984e-02 2.759662643074989319e-02 2.059097588062286377e-02
3.398000000000000000e+03 1.429846191406250000e+01 1.850772857666015625e+01 1.534821372479200363e-02 9.816386550664901733e-02 3.405362367630004883e-02 2.837752178311347961e-02
3.399000000000000000e+03 2.084313201904296875e+01 1.664881896972656250e+01 6.900984048843383789e-02 1.436637341976165771e-01 6.380207091569900513e-02 1.015737354755401611e-01
3.400000000000000000e+03 2.083582496643066406e+01 1.778230667114257812e+01 6.006891280412673950e-02 1.382074356079101562e-01 5.948290601372718811e-02 9.159525483846664429e-02
3.401000000000000000e+03 2.243070220947265625e+01 1.710073852539062500e+01 8.252113312482833862e-02 1.378972232341766357e-01 6.612550467252731323e-02 1.071564480662345886e-01
3.402000000000000000e+03 2.201420593261718750e+01 1.820012664794921875e+01 6.946019083261489868e-02 1.338585466146469116e-01 6.099561974406242371e-02 9.466963261365890503e-02
3.403000000000000000e+03 2.421050262451171875e+01 1.909673118591308594e+01 7.624115049839019775e-02 1.262977570295333862e-01 6.076167151331901550e-02 9.403665363788604736e-02
3.404000000000000000e+03 2.681363487243652344e+01 1.828179931640625000e+01 9.742867946624755859e-02 1.201228275895118713e-01 6.526545435190200806e-02 1.045274510979652405e-01
3.405000000000000000e+03 3.248242378234863281e+00 1.742837142944335938e+01 3.666270757094025612e-03 -1.476053595542907715e-01 -4.318172857165336609e-02 -1.826532185077667236e-02
3.406000000000000000e+03 4.580377578735351562e+00 1.735063362121582031e+01 1.506977278040722013e-04 -1.088310852646827698e-01 -3.260411694645881653e-02 -1.927163079380989075e-02
3.407000000000000000e+03 6.595325469970703125e+00 1.692599868774414062e+01 6.379799917340278625e-03 -5.510638654232025146e-02 -1.461797673255205154e-02 -1.967951096594333649e-02
3.408000000000000000e+03 9.818639755249023438e+00 1.635225296020507812e+01 1.163752470165491104e-02 3.361437842249870300e-02 1.357557065784931183e-02 -5.036185961216688156e-03
3.409000000000000000e+03 1.183958148956298828e+01 1.705637550354003906e+01 1.170120760798454285e-02 7.530995458364486694e-02 2.610334753990173340e-02 1.140910387039184570e-02
3.410000000000000000e+03 1.435034847259521484e+01 1.778988456726074219e+01 9.818078018724918365e-03 1.097697615623474121e-01 3.587635233998298645e-02 3.447729349136352539e-02
3.411000000000000000e+03 1.747815895080566406e+01 1.847919845581054688e+01 2.324753627181053162e-02 1.291704624891281128e-01 4.572539776563644409e-02 6.114080175757408142e-02
3.412000000000000000e+03 1.909678840637207031e+01 1.714344978332519531e+01 4.927525296807289124e-02 1.431893855333328247e-01 5.773939192295074463e-02 8.406819403171539307e-02
3.413000000000000000e+03 2.640242767333984375e+01 1.687274169921875000e+01 1.128263995051383972e-01 1.244731470942497253e-01 7.118986546993255615e-02 1.186911910772323608e-01
3.414000000000000000e+03 3.175572872161865234e+00 1.484098529815673828e+01 8.219864219427108765e-03 -1.543800085783004761e-01 -4.384804144501686096e-02 -1.286923047155141830e-02
3.415000000000000000e+03 4.462829113006591797e+00 1.477785682678222656e+01 7.974672131240367889e-03 -1.146123558282852173e-01 -3.199130669236183167e-02 -1.405032817274332047e-02
3.416000000000000000e+03 5.677709102630615234e+00 1.462866687774658203e+01 1.693179458379745483e-02 -7.952429354190826416e-02 -1.877774856984615326e-02 -1.538148149847984314e-02
3.417000000000000000e+03 7.209075450897216797e+00 1.534825134277343750e+01 1.599487289786338806e-02 -3.137409687042236328e-02 -4.613766912370920181e-03 -1.690145581960678101e-02
3.418000000000000000e+03 1.091627120971679688e+01 1.469172477722167969e+01 2.162432484328746796e-02 7.773402333259582520e-02 2.980750426650047302e-02 5.246151238679885864e-03
3.419000000000000000e+03 1.304782962799072266e+01 1.648039627075195312e+01 1.737657934427261353e-02 1.032367497682571411e-01 3.618399798870086670e-02 2.583895623683929443e-02
3.420000000000000000e+03 1.903786087036132812e+01 1.505569458007812500e+01 7.058507949113845825e-02 1.595689058303833008e-01 6.904619932174682617e-02 1.021818965673446655e-01
3.421000000000000000e+03 2.082613945007324219e+01 1.504284954071044922e+01 8.954741060733795166e-02 1.535188853740692139e-01 7.291989028453826904e-02 1.160629540681838989e-01
3.422000000000000000e+03 1.822754025459289551e+00 1.214780807495117188e+01 3.913257271051406860e-03 -2.033301591873168945e-01 -5.982507020235061646e-02 1.284298487007617950e-03
3.423000000000000000e+03 4.378049850463867188e+00 1.212172603607177734e+01 2.368398569524288177e-02 -1.219448223710060120e-01 -2.947825193405151367e-02 1.601968775503337383e-03
3.424000000000000000e+03 7.249251842498779297e+00 1.307707309722900391e+01 3.416307643055915833e-02 -2.985275723040103912e-02 1.293095527216792107e-03 -1.063531544059514999e-02
3.425000000000000000e+03 8.533450126647949219e+00 1.351301860809326172e+01 3.001239895820617676e-02 9.066366590559482574e-03 1.172363013029098511e-02 -1.157969981431961060e-02
3.426000000000000000e+03 1.021043014526367188e+01 1.303564071655273438e+01 3.466914594173431396e-02 7.322328537702560425e-02 3.236772865056991577e-02 -3.641954390332102776e-03
3.427000000000000000e+03 1.343188285827636719e+01 1.332582092285156250e+01 3.281854093074798584e-02 1.554263681173324585e-01 5.647347494959831238e-02 4.109048470854759216e-02
3.428000000000000000e+03 1.436868858337402344e+01 1.312316894531250000e+01 3.910038992762565613e-02 1.731942147016525269e-01 6.368838250637054443e-02 5.913978442549705505e-02
3.429000000000000000e+03 1.652083969116210938e+01 1.304188823699951172e+01 6.383673101663589478e-02 1.845884323120117188e-01 7.452754676342010498e-02 1.004343479871749878e-01
3.430000000000000000e+03 1.818360137939453125e+01 1.321735954284667969e+01 8.326298743486404419e-02 1.774223893880844116e-01 7.820561528205871582e-02 1.184058040380477905e-01
3.431000000000000000e+03 2.074173355102539062e+01 1.372530269622802734e+01 1.075454726815223694e-01 1.604882329702377319e-01 8.041010797023773193e-02 1.296756863594055176e-01
3.432000000000000000e+03 2.210126495361328125e+01 1.332149124145507812e+01 1.320205777883529663e-01 1.569791138172149658e-01 8.669991046190261841e-02 1.397633403539657593e-01
3.433000000000000000e+03 1.771520853042602539e+00 1.080153846740722656e+01 9.630072861909866333e-03 -2.010261714458465576e-01 -5.741883069276809692e-02 1.006400585174560547e-02
3.434000000000000000e+03 4.285492897033691406e+00 1.079543018341064453e+01 3.509576246142387390e-02 -1.262701600790023804e-01 -2.735232189297676086e-02 1.333442516624927521e-02
3.435000000000000000e+03 5.449476242065429688e+00 1.045716762542724609e+01 5.105756968259811401e-02 -1.009561493992805481e-01 -1.496957428753376007e-02 1.484887395054101944e-02
3.436000000000000000e+03 7.561101913452148438e+00 1.102485752105712891e+01 5.705022439360618591e-02 -2.975876629352569580e-02 8.187437430024147034e-03 -4.466989543288946152e-03
3.437000000000000000e+03 8.305650711059570312e+00 1.153517913818359375e+01 5.645354837179183960e-02 4.533804487437009811e-03 1.829620636999607086e-02 -1.185313984751701355e-02
3.438000000000000000e+03 1.024918651580810547e+01 1.186371803283691406e+01 4.519712179899215698e-02 8.425914496183395386e-02 3.883688151836395264e-02 -4.718040581792593002e-03
3.439000000000000000e+03 1.371833133697509766e+01 1.194425296783447266e+01 4.662582650780677795e-02 1.900113523006439209e-01 7.099115103483200073e-02 5.626717582345008850e-02
3.440000000000000000e+03 1.556105422973632812e+01 1.211447715759277344e+01 6.381598860025405884e-02 1.987337321043014526e-01 7.876491546630859375e-02 9.303101897239685059e-02
3.441000000000000000e+03 1.691031074523925781e+01 1.138581371307373047e+01 8.990969508886337280e-02 2.100948244333267212e-01 9.000135213136672974e-02 1.297065466642379761e-01
3.442000000000000000e+03 1.711742520332336426e+00 9.488609313964843750e+00 6.480948068201541901e-03 -1.937147676944732666e-01 -5.617014691233634949e-02 2.008790150284767151e-02
3.443000000000000000e+03 1.050174236297607422e+01 1.004910945892333984e+01 7.303899526596069336e-02 1.078534275293350220e-01 5.426772683858871460e-02 -1.206589676439762115e-02
3.444000000000000000e+03 1.267811489105224609e+01 9.179642677307128906e+00 6.663267314434051514e-02 2.415181547403335571e-01 9.244524687528610229e-02 2.524731121957302094e-02
3.445000000000000000e+03 1.485223007202148438e+01 9.576337814331054688e+00 7.610455900430679321e-02 2.660628855228424072e-01 1.026502326130867004e-01 1.136567220091819763e-01
3.446000000000000000e+03 1.661550903320312500e+01 9.927223205566406250e+00 1.083902791142463684e-01 2.338094413280487061e-01 1.026599183678627014e-01 1.504798680543899536e-01
3.447000000000000000e+03 1.820863366127014160e+00 7.045573234558105469e+00 9.275504387915134430e-03 -1.541203260421752930e-01 -4.345344379544258118e-02 4.850354790687561035e-02
3.448000000000000000e+03 3.922328233718872070e+00 7.418336391448974609e+00 4.575792700052261353e-02 -1.341497153043746948e-01 -2.651753462851047516e-02 6.806609779596328735e-02
3.449000000000000000e+03 5.299560070037841797e+00 7.954571247100830078e+00 7.053709775209426880e-02 -1.192590147256851196e-01 -1.461657509207725525e-02 5.484832078218460083e-02
3.450000000000000000e+03 8.389566421508789062e+00 8.733997344970703125e+00 1.146359667181968689e-01 -2.186840400099754333e-02 2.783026918768882751e-02 -7.366985082626342773e-03
3.451000000000000000e+03 9.224020957946777344e+00 8.408778190612792969e+00 1.235051080584526062e-01 3.077210113406181335e-02 4.628316313028335571e-02 -2.367329411208629608e-02
3.452000000000000000e+03 1.158038330078125000e+01 7.582323074340820312e+00 1.173168569803237915e-01 2.223329544067382812e-01 1.018949449062347412e-01 -3.640205785632133484e-02
3.453000000000000000e+03 1.391891288757324219e+01 7.700162410736083984e+00 8.854025602340698242e-02 3.622005879878997803e-01 1.352222561836242676e-01 1.037923544645309448e-01
3.454000000000000000e+03 1.483608341217041016e+01 7.477846145629882812e+00 1.155286952853202820e-01 3.577289581298828125e-01 1.419772952795028687e-01 1.633722931146621704e-01
3.455000000000000000e+03 1.649366760253906250e+01 7.657520294189453125e+00 1.599657684564590454e-01 2.747659087181091309e-01 1.304195076227188110e-01 2.097139358520507812e-01
3.456000000000000000e+03 3.710951089859008789e+00 6.275334835052490234e+00 3.278813883662223816e-02 -1.274914145469665527e-01 -2.841098420321941376e-02 8.823261409997940063e-02
3.457000000000000000e+03 5.977097988128662109e+00 6.371469020843505859e+00 8.661735057830810547e-02 -1.261789798736572266e-01 -1.186849083751440048e-02 9.227780252695083618e-02
3.458000000000000000e+03 7.056196212768554688e+00 6.315495014190673828e+00 1.212916150689125061e-01 -1.157207414507865906e-01 1.671260572038590908e-03 7.748927921056747437e-02
3.459000000000000000e+03 8.867938041687011719e+00 6.446228981018066406e+00 1.842754036188125610e-01 -6.030407547950744629e-02 3.719139844179153442e-02 6.035425234586000443e-03
3.460000000000000000e+03 1.156995010375976562e+01 6.604781150817871094e+00 1.430990248918533325e-01 2.482088506221771240e-01 1.173923611640930176e-01 -6.717416644096374512e-02
3.461000000000000000e+03 1.385960769653320312e+01 6.773528099060058594e+00 9.875573217868804932e-02 4.421434998512268066e-01 1.622697710990905762e-01 1.156252324581146240e-01
3.462000000000000000e+03 2.515938043594360352e+00 4.934163570404052734e+00 4.010983742773532867e-03 -1.061136499047279358e-01 -3.063079901039600372e-02 8.223532885313034058e-02
3.463000000000000000e+03 3.648943185806274414e+00 5.126305103302001953e+00 1.506992988288402557e-02 -1.095907017588615417e-01 -2.835623174905776978e-02 1.032469794154167175e-01
3.464000000000000000e+03 5.252475738525390625e+00 4.711617469787597656e+00 2.300480566918849945e-02 -1.183629184961318970e-01 -2.860743366181850433e-02 1.378447413444519043e-01
3.465000000000000000e+03 6.786385059356689453e+00 3.867670059204101562e+00 2.714649774134159088e-02 -1.403429508209228516e-01 -3.395893797278404236e-02 1.843024641275405884e-01
3.466000000000000000e+03 8.908209800720214844e+00 4.783260345458984375e+00 2.054185569286346436e-01 -1.560892760753631592e-01 1.479878369718790054e-02 8.372530341148376465e-02
3.467000000000000000e+03 1.200297737121582031e+01 4.322240352630615234e+00 3.514971435070037842e-01 3.745824694633483887e-01 2.178238779306411743e-01 -2.119667381048202515e-01
3.468000000000000000e+03 1.344808769226074219e+01 4.875768184661865234e+00 1.221266016364097595e-01 7.967084646224975586e-01 2.756505310535430908e-01 3.866638615727424622e-02
3.469000000000000000e+03 2.179947614669799805e+00 3.051334381103515625e+00 -2.076403237879276276e-02 -5.506622046232223511e-02 -2.274907566606998444e-02 6.219185143709182739e-02
3.470000000000000000e+03 3.572060823440551758e+00 2.716885805130004883e+00 -4.725327342748641968e-02 -4.999437928199768066e-02 -2.917429618537425995e-02 9.569297730922698975e-02
3.471000000000000000e+03 6.089433670043945312e+00 4.038257122039794922e+00 1.345095038414001465e-02 -1.198587343096733093e-01 -3.192233666777610779e-02 1.647479534149169922e-01
3.472000000000000000e+03 7.727350711822509766e+00 2.466943979263305664e+00 -1.275710910558700562e-01 -1.341639459133148193e-01 -7.852051407098770142e-02 2.564047574996948242e-01
3.473000000000000000e+03 9.123969078063964844e+00 2.423944950103759766e+00 -7.634896039962768555e-02 -2.382747679948806763e-01 -9.438712149858474731e-02 3.155367076396942139e-01
3.474000000000000000e+03 1.131852626800537109e+01 2.143828630447387695e+00 2.947063446044921875e-01 -3.166416287422180176e-01 -6.580587010830640793e-03 2.681264877319335938e-01
3.475000000000000000e+03 2.935302162170410156e+01 -8.344114303588867188e+00 -3.188093006610870361e-01 -5.281402468681335449e-01 -2.540848553180694580e-01 3.826306462287902832e-01
3.476000000000000000e+03 3.196338272094726562e+01 -3.156730651855468750e+01 1.978929340839385986e-01 4.434391260147094727e-01 1.923996061086654663e-01 -2.919652760028839111e-01
3.477000000000000000e+03 2.593692779541015625e+01 7.290291309356689453e+00 -5.488131523132324219e+00 -2.750815391540527344e+00 -2.471683979034423828e+00 -3.703611850738525391e+00
3.478000000000000000e+03 2.614764785766601562e+01 7.416857242584228516e+00 -4.384913921356201172e+00 -2.736248970031738281e+00 -2.136348962783813477e+00 -3.593813419342041016e+00
3.479000000000000000e+03 2.634846687316894531e+01 7.600059032440185547e+00 -4.574356555938720703e+00 -2.923604249954223633e+00 -2.249388217926025391e+00 -3.640526771545410156e+00
3.480000000000000000e+03 2.667792892456054688e+01 7.811204910278320312e+00 -4.132533550262451172e+00 -2.698532581329345703e+00 -2.049319744110107422e+00 -3.339768171310424805e+00
3.481000000000000000e+03 2.733727836608886719e+01 8.253794670104980469e+00 -3.437848806381225586e+00 -2.275555133819580078e+00 -1.714021086692810059e+00 -2.727783679962158203e+00
3.482000000000000000e+03 2.724111938476562500e+01 8.297197341918945312e+00 -3.712291479110717773e+00 -2.566632747650146484e+00 -1.883677244186401367e+00 -3.031796932220458984e+00
3.483000000000000000e+03 2.750101852416992188e+01 8.370704650878906250e+00 -3.172252416610717773e+00 -1.990176439285278320e+00 -1.548728704452514648e+00 -2.407563924789428711e+00
3.484000000000000000e+03 2.764093971252441406e+01 8.418432235717773438e+00 -2.908774137496948242e+00 -1.325593471527099609e+00 -1.270310282707214355e+00 -2.313542842864990234e+00
3.485000000000000000e+03 2.762069129943847656e+01 8.592826843261718750e+00 -3.296937465667724609e+00 -1.730802774429321289e+00 -1.508322000503540039e+00 -2.646340131759643555e+00
3.486000000000000000e+03 2.903200531005859375e+01 5.104551792144775391e+00 1.550791691988706589e-02 7.839683443307876587e-02 2.817142382264137268e-02 -8.792810887098312378e-02
3.487000000000000000e+03 2.899740409851074219e+01 5.400913238525390625e+00 4.127270542085170746e-03 9.289333969354629517e-02 2.910618297755718231e-02 -9.443018585443496704e-02
3.488000000000000000e+03 2.823821067810058594e+01 4.648036956787109375e+00 3.622038289904594421e-02 -5.753598362207412720e-02 -6.394680589437484741e-03 -7.051523029804229736e-02
3.489000000000000000e+03 2.675329208374023438e+01 4.067063331604003906e+00 5.535031482577323914e-02 -1.299016028642654419e-01 -2.236538752913475037e-02 -9.509482979774475098e-02
3.490000000000000000e+03 2.639507675170898438e+01 3.855154514312744141e+00 5.856423825025558472e-02 -1.284494698047637939e-01 -2.096556872129440308e-02 -9.120949357748031616e-02
3.491000000000000000e+03 2.245555114746093750e+01 1.420691251754760742e+00 -1.992905139923095703e-01 -1.246993243694305420e-01 -9.719695150852203369e-02 2.658253535628318787e-02
3.492000000000000000e+03 2.227664184570312500e+01 1.328415036201477051e+00 -2.732563912868499756e-01 -6.460246443748474121e-02 -1.013576537370681763e-01 2.182859927415847778e-02
3.493000000000000000e+03 2.057826423645019531e+01 2.974685728549957275e-01 -1.153126835823059082e+00 1.800580173730850220e-01 -2.919206619262695312e-01 4.025914371013641357e-01
3.494000000000000000e+03 2.031852149963378906e+01 5.470693483948707581e-02 -1.458187103271484375e+00 4.897587597370147705e-01 -2.905285060405731201e-01 5.800746083259582520e-01
3.495000000000000000e+03 1.992423057556152344e+01 -2.008044868707656860e-01 -1.651031970977783203e+00 7.098119854927062988e-01 -2.823659777641296387e-01 4.842881560325622559e-01
3.496000000000000000e+03 1.971286010742187500e+01 -2.592620551586151123e-01 -1.613480091094970703e+00 1.170791864395141602e+00 -1.328064650297164917e-01 2.136179059743881226e-01
3.497000000000000000e+03 1.893640518188476562e+01 -8.455952405929565430e-01 -9.870032072067260742e-01 1.033278226852416992e+00 1.388249918818473816e-02 -2.751632034778594971e-01
3.498000000000000000e+03 1.874538993835449219e+01 -9.709640741348266602e-01 -9.769670367240905762e-01 7.743447422981262207e-01 -6.078669428825378418e-02 -2.681530117988586426e-01
3.499000000000000000e+03 1.857421684265136719e+01 -1.324562311172485352e+00 -8.630936145782470703e-01 6.392520666122436523e-01 -6.715246289968490601e-02 -2.063639909029006958e-01
3.500000000000000000e+03 1.881880187988281250e+01 -1.335497260093688965e+00 -6.071703433990478516e-01 9.434424638748168945e-01 1.008816510438919067e-01 -6.999053806066513062e-02
3.501000000000000000e+03 1.834224700927734375e+01 -1.108946800231933594e+00 -1.038275718688964844e+00 4.764308631420135498e-01 -1.685534715652465820e-01 -2.719060778617858887e-01
3.502000000000000000e+03 1.769396972656250000e+01 -1.584262371063232422e+00 -8.698890805244445801e-01 2.010387927293777466e-01 -2.006550878286361694e-01 -2.957537770271301270e-01
3.503000000000000000e+03 1.737051773071289062e+01 -1.839857578277587891e+00 -7.468556165695190430e-01 -6.342754513025283813e-02 -2.430849522352218628e-01 -2.756812572479248047e-01
3.504000000000000000e+03 1.635114479064941406e+01 -2.371880769729614258e+00 -3.959285020828247070e-01 -5.361833572387695312e-01 -2.796335518360137939e-01 -3.685143887996673584e-01
3.505000000000000000e+03 1.323977661132812500e+01 -2.348440647125244141e+00 -6.555563807487487793e-01 -1.040804907679557800e-01 -2.278910577297210693e-01 -3.515883386135101318e-01
3.506000000000000000e+03 5.405419826507568359e+00 -1.946557283401489258e+00 -1.003219336271286011e-01 -1.411685347557067871e-02 -3.433163836598396301e-02 -7.541031390428543091e-02
3.507000000000000000e+03 2.934356927871704102e+00 -2.081857681274414062e+00 -3.365577012300491333e-02 -2.209845185279846191e-02 -1.672626659274101257e-02 -3.771043941378593445e-02
3.508000000000000000e+03 1.257458448410034180e+00 -2.169508695602416992e+00 -7.648389320820569992e-03 -1.661382988095283508e-02 -7.278665434569120407e-03 -1.202675327658653259e-02
3.509000000000000000e+03 5.804862380027770996e-01 -6.364799022674560547e+00 -1.199520309455692768e-03 -1.214990615844726562e-01 -3.680957481265068054e-02 -2.321805246174335480e-02
3.510000000000000000e+03 7.903833770751953125e+01 1.657335853576660156e+01 -4.348345845937728882e-02 7.805935859680175781e+00 2.328735828399658203e+00 -2.057715356349945068e-01
3.511000000000000000e+03 7.917358398437500000e+01 8.294484138488769531e+00 -5.820998456329107285e-03 8.966954231262207031e+00 2.688339948654174805e+00 -9.493709355592727661e-02
3.512000000000000000e+03 7.933074188232421875e+01 2.918599545955657959e-02 -5.396089516580104828e-03 9.472016334533691406e+00 2.839985847473144531e+00 -3.549289330840110779e-02
3.513000000000000000e+03 7.921794891357421875e+01 -6.890391826629638672e+00 7.710329373367130756e-04 9.515772819519042969e+00 2.854963064193725586e+00 -6.780047900974750519e-03
3.514000000000000000e+03 7.908174896240234375e+01 -1.527273273468017578e+01 -4.131597001105546951e-03 9.291843414306640625e+00 2.786313772201538086e+00 3.327028825879096985e-02
3.515000000000000000e+03 7.944729614257812500e+01 -2.231958007812500000e+01 -1.152535807341337204e-02 9.028988838195800781e+00 2.705239057540893555e+00 2.213527634739875793e-02
3.516000000000000000e+03 7.915216064453125000e+01 -3.767292404174804688e+01 4.177117254585027695e-03 8.366541862487792969e+00 2.511215686798095703e+00 3.281549364328384399e-02
3.517000000000000000e+03 6.145018935203552246e-01 1.351901340484619141e+01 -1.249168068170547485e-03 -2.494759410619735718e-01 -7.521753013134002686e-02 -2.367095323279500008e-03
3.518000000000000000e+03 8.351177215576171875e+00 1.815402269363403320e+00 -2.851494550704956055e-01 -1.320191025733947754e-01 -1.251505762338638306e-01 2.947055101394653320e-01
3.519000000000000000e+03 4.788244247436523438e+00 1.870755195617675781e+00 -1.080936193466186523e-01 -2.934794127941131592e-02 -4.123246669769287109e-02 1.063472256064414978e-01
3.520000000000000000e+03 2.633868694305419922e+00 1.965648531913757324e+00 -3.947423025965690613e-02 -2.828157320618629456e-02 -2.032674103975296021e-02 5.477250367403030396e-02
3.521000000000000000e+03 1.286613750457763672e+01 1.312089323997497559e+00 7.142220139503479004e-01 -1.490572392940521240e-01 1.695494353771209717e-01 3.208631873130798340e-01
3.522000000000000000e+03 1.362639904022216797e+01 1.149987101554870605e+00 1.435043811798095703e+00 8.706918358802795410e-01 6.917207241058349609e-01 -1.082887034863233566e-02
3.523000000000000000e+03 1.297640800476074219e+01 2.333678245544433594e+00 1.023947834968566895e+00 9.157161116600036621e-01 5.818991661071777344e-01 -5.585739016532897949e-01
3.524000000000000000e+03 1.502648448944091797e+01 4.592576026916503906e+00 3.118970096111297607e-01 3.289989829063415527e-01 1.922687888145446777e-01 3.028201460838317871e-01
3.525000000000000000e+03 1.529352664947509766e+01 4.857522487640380859e+00 2.148807495832443237e-01 2.714169025421142578e-01 1.458892971277236938e-01 2.734664976596832275e-01
3.526000000000000000e+03 1.569469928741455078e+01 5.538518428802490234e+00 2.139690667390823364e-01 3.397460281848907471e-01 1.661145240068435669e-01 2.728604972362518311e-01
3.527000000000000000e+03 1.595712471008300781e+01 5.868602752685546875e+00 2.469509094953536987e-01 3.487955927848815918e-01 1.787239462137222290e-01 2.722264528274536133e-01
3.528000000000000000e+03 1.737145423889160156e+01 7.303616046905517578e+00 1.836162954568862915e-01 2.219265550374984741e-01 1.216628551483154297e-01 2.105898559093475342e-01
3.529000000000000000e+03 1.711744689941406250e+01 6.982777118682861328e+00 2.017156034708023071e-01 2.264520823955535889e-01 1.284503042697906494e-01 2.142639756202697754e-01
3.530000000000000000e+03 1.768428611755371094e+01 8.238799095153808594e+00 1.791554689407348633e-01 2.270836681127548218e-01 1.218717396259307861e-01 1.969965845346450806e-01
3.531000000000000000e+03 1.852536392211914062e+01 8.427085876464843750e+00 1.920945495367050171e-01 2.245193570852279663e-01 1.249841749668121338e-01 2.072453051805496216e-01
3.532000000000000000e+03 2.130295753479003906e+01 1.128374481201171875e+01 1.547449380159378052e-01 1.681812405586242676e-01 9.687785059213638306e-02 1.613331437110900879e-01
3.533000000000000000e+03 2.158333587646484375e+01 1.217874145507812500e+01 1.380486190319061279e-01 1.638562977313995361e-01 9.057147055864334106e-02 1.513763219118118286e-01
3.534000000000000000e+03 2.189788246154785156e+01 1.183708190917968750e+01 1.436913609504699707e-01 1.565157324075698853e-01 9.006212651729583740e-02 1.528668999671936035e-01
3.535000000000000000e+03 2.214721107482910156e+01 1.272390270233154297e+01 1.383990049362182617e-01 1.588496267795562744e-01 8.917458355426788330e-02 1.472257822751998901e-01
3.536000000000000000e+03 2.245532226562500000e+01 1.240544509887695312e+01 1.392614394426345825e-01 1.601741462945938110e-01 8.983067423105239868e-02 1.510625928640365601e-01
3.537000000000000000e+03 2.299854278564453125e+01 1.298960590362548828e+01 1.452271342277526855e-01 1.615862548351287842e-01 9.204401820898056030e-02 1.528183817863464355e-01
3.538000000000000000e+03 2.355475425720214844e+01 1.356530857086181641e+01 1.497741788625717163e-01 1.514517515897750854e-01 9.036777913570404053e-02 1.507369577884674072e-01
3.539000000000000000e+03 2.384271621704101562e+01 1.383976268768310547e+01 1.536505073308944702e-01 1.459627151489257812e-01 8.988396823406219482e-02 1.439815610647201538e-01
3.540000000000000000e+03 2.472543334960937500e+01 1.464395332336425781e+01 1.315321475267410278e-01 1.184449419379234314e-01 7.499312609434127808e-02 1.298263818025588989e-01
3.541000000000000000e+03 2.500863075256347656e+01 1.492043399810791016e+01 1.266357600688934326e-01 1.197266504168510437e-01 7.390872389078140259e-02 1.214517652988433838e-01
3.542000000000000000e+03 2.643523597717285156e+01 1.631882667541503906e+01 1.178839132189750671e-01 1.287413984537124634e-01 7.398758828639984131e-02 1.234374269843101501e-01
3.543000000000000000e+03 2.668482780456542969e+01 1.715225982666015625e+01 1.182236969470977783e-01 1.231789141893386841e-01 7.242078334093093872e-02 1.150832846760749817e-01
3.544000000000000000e+03 2.698402023315429688e+01 1.688589859008789062e+01 1.196368485689163208e-01 1.245554909110069275e-01 7.325769960880279541e-02 1.240251585841178894e-01
3.545000000000000000e+03 2.807662010192871094e+01 1.804166984558105469e+01 1.105714514851570129e-01 1.048156991600990295e-01 6.461614370346069336e-02 1.143592074513435364e-01
3.546000000000000000e+03 2.870472908020019531e+01 1.856232261657714844e+01 1.045453250408172607e-01 9.843590110540390015e-02 6.089437007904052734e-02 1.085104122757911682e-01
3.547000000000000000e+03 2.908975982666015625e+01 1.975030136108398438e+01 8.915144205093383789e-02 9.908235073089599609e-02 5.647013708949089050e-02 1.035720854997634888e-01
3.548000000000000000e+03 2.979621505737304688e+01 1.970769119262695312e+01 9.356436133384704590e-02 9.294877201318740845e-02 5.595393851399421692e-02 1.012615710496902466e-01
3.549000000000000000e+03 3.127993202209472656e+01 2.107763862609863281e+01 9.931755065917968750e-02 9.072551131248474121e-02 5.701291561126708984e-02 8.536252379417419434e-02
3.550000000000000000e+03 3.210260391235351562e+01 2.192615890502929688e+01 6.168467923998832703e-02 6.861542165279388428e-02 3.909002989530563354e-02 8.721479773521423340e-02
3.551000000000000000e+03 3.237391662597656250e+01 2.221698760986328125e+01 7.864564657211303711e-02 8.934150636196136475e-02 5.039614439010620117e-02 6.684453040361404419e-02
3.552000000000000000e+03 3.285746383666992188e+01 2.285932350158691406e+01 7.485209405422210693e-02 9.916932880878448486e-02 5.220642685890197754e-02 7.278456538915634155e-02
3.553000000000000000e+03 3.346512985229492188e+01 2.342498779296875000e+01 7.502854615449905396e-02 1.015048176050186157e-01 5.296000838279724121e-02 7.570732384920120239e-02
3.554000000000000000e+03 3.452432632446289062e+01 2.460560798645019531e+01 7.463263720273971558e-02 1.028063148260116577e-01 5.323168635368347168e-02 7.249072939157485962e-02
3.555000000000000000e+03 3.478065872192382812e+01 2.490568161010742188e+01 5.810302868485450745e-02 8.982805907726287842e-02 4.437932744622230530e-02 9.174561500549316406e-02
3.556000000000000000e+03 3.580522918701171875e+01 2.614156532287597656e+01 5.051748827099800110e-02 6.946351379156112671e-02 3.599429875612258911e-02 9.486228972673416138e-02
3.557000000000000000e+03 3.741270446777343750e+01 2.793553161621093750e+01 6.392347812652587891e-02 7.353229075670242310e-02 4.123673215508460999e-02 1.024074852466583252e-01
3.558000000000000000e+03 3.821333694458007812e+01 2.877207756042480469e+01 9.352170675992965698e-02 1.019508093595504761e-01 5.864175409078598022e-02 6.028995290398597717e-02
3.559000000000000000e+03 3.874906921386718750e+01 2.938071250915527344e+01 8.362904191017150879e-02 8.873938769102096558e-02 5.171052739024162292e-02 6.771137565374374390e-02
3.560000000000000000e+03 3.832305526733398438e+01 2.977710342407226562e+01 6.951196491718292236e-02 6.148489192128181458e-02 3.929905593395233154e-02 8.635482937097549438e-02
3.561000000000000000e+03 4.200002288818359375e+01 3.235035324096679688e+01 3.977245837450027466e-02 1.490808837115764618e-02 1.640416309237480164e-02 1.239938884973526001e-01
3.562000000000000000e+03 4.326741027832031250e+01 3.333994293212890625e+01 3.883041441440582275e-02 -4.486456140875816345e-02 -1.810243935324251652e-03 1.493629664182662964e-01
3.563000000000000000e+03 4.313716506958007812e+01 3.396035003662109375e+01 1.390829868614673615e-02 4.394817724823951721e-02 1.735694333910942078e-02 1.227410212159156799e-01
3.564000000000000000e+03 4.296139907836914062e+01 3.313786697387695312e+01 1.417988091707229614e-01 1.483998447656631470e-01 8.705959469079971313e-02 -3.067592391744256020e-03
3.565000000000000000e+03 4.353678131103515625e+01 3.362141799926757812e+01 1.573649346828460693e-01 1.320407688617706299e-01 8.682171255350112915e-02 1.615320518612861633e-02
3.566000000000000000e+03 4.415847778320312500e+01 3.419747161865234375e+01 1.206534057855606079e-01 1.467881351709365845e-01 8.023246377706527710e-02 2.490398846566677094e-02
3.567000000000000000e+03 4.450362014770507812e+01 3.445297241210937500e+01 6.591367721557617188e-02 -2.488673292100429535e-02 1.230808440595865250e-02 1.234752163290977478e-01
3.568000000000000000e+03 4.513315582275390625e+01 3.486966323852539062e+01 6.734581291675567627e-02 -1.102006211876869202e-01 -1.285644248127937317e-02 2.233332395553588867e-01
3.569000000000000000e+03 4.710810089111328125e+01 3.634862136840820312e+01 4.753888770937919617e-02 9.346698969602584839e-02 4.230176284909248352e-02 4.027255997061729431e-02
3.570000000000000000e+03 4.743244934082031250e+01 3.658071136474609375e+01 -1.014270558953285217e-01 -5.186466965824365616e-03 -3.198405727744102478e-02 1.004871726036071777e-01
3.571000000000000000e+03 4.777284622192382812e+01 3.679783248901367188e+01 -2.516141831874847412e-01 1.481702178716659546e-01 -3.103319182991981506e-02 -7.292842119932174683e-02
3.572000000000000000e+03 4.927158355712890625e+01 3.739907836914062500e+01 -1.700532197952270508e+00 1.783149503171443939e-02 -5.048102140426635742e-01 -4.540933966636657715e-01
3.573000000000000000e+03 4.998400497436523438e+01 3.796847152709960938e+01 -1.946932673454284668e+00 -1.281333416700363159e-01 -6.225197911262512207e-01 -5.083570480346679688e-01
3.574000000000000000e+03 5.067111206054687500e+01 3.792747116088867188e+01 -2.251175403594970703e+00 -2.660306990146636963e-01 -7.551618218421936035e-01 -1.109307646751403809e+00
3.575000000000000000e+03 5.133464050292968750e+01 3.834283828735351562e+01 -3.146144390106201172e+00 -4.321945905685424805e-01 -1.073501706123352051e+00 -1.381934404373168945e+00
3.576000000000000000e+03 5.389246368408203125e+01 3.563740158081054688e+01 4.648192882537841797e+00 3.123981094360351562e+01 1.076640129089355469e+01 7.671028137207031250e+00
3.577000000000000000e+03 5.281966400146484375e+01 3.390647888183593750e+01 4.831790924072265625e+00 1.216114234924316406e+01 5.097879886627197266e+00 7.526008605957031250e+00
3.578000000000000000e+03 5.211785888671875000e+01 3.292476654052734375e+01 4.716967582702636719e+00 9.619679450988769531e+00 4.300993919372558594e+00 6.552878856658935547e+00
3.579000000000000000e+03 5.187989044189453125e+01 3.259896087646484375e+01 4.721944808959960938e+00 8.808229446411132812e+00 4.059052467346191406e+00 6.263608455657958984e+00
3.580000000000000000e+03 5.138439941406250000e+01 3.192205810546875000e+01 4.500893592834472656e+00 7.127022266387939453e+00 3.488374710083007812e+00 5.462399005889892578e+00
3.581000000000000000e+03 5.018794631958007812e+01 3.080033874511718750e+01 3.690091133117675781e+00 4.484887123107910156e+00 2.452493429183959961e+00 3.972134828567504883e+00
3.582000000000000000e+03 4.960288238525390625e+01 3.024244880676269531e+01 3.305553674697875977e+00 3.680665969848632812e+00 2.095865964889526367e+00 3.424185514450073242e+00
3.583000000000000000e+03 4.848065567016601562e+01 2.911819648742675781e+01 2.617166996002197266e+00 2.818089962005615234e+00 1.630577087402343750e+00 2.644897699356079102e+00
3.584000000000000000e+03 4.882257843017578125e+01 2.939119148254394531e+01 2.725497722625732422e+00 3.057850837707519531e+00 1.735004663467407227e+00 2.881885766983032227e+00
3.585000000000000000e+03 4.785651016235351562e+01 2.859264373779296875e+01 2.303151369094848633e+00 2.285618066787719727e+00 1.376630783081054688e+00 2.267162799835205078e+00
3.586000000000000000e+03 4.725577926635742188e+01 2.806790733337402344e+01 1.980741620063781738e+00 1.915759921073913574e+00 1.168950438499450684e+00 1.941936612129211426e+00
3.587000000000000000e+03 4.666173934936523438e+01 2.754619979858398438e+01 1.677670121192932129e+00 1.663556694984436035e+00 1.002368092536926270e+00 1.674016714096069336e+00
3.588000000000000000e+03 4.608664321899414062e+01 2.699991798400878906e+01 1.410666227340698242e+00 1.498194694519042969e+00 8.726583123207092285e-01 1.469364047050476074e+00
3.589000000000000000e+03 4.614235305786132812e+01 2.641040802001953125e+01 1.282529711723327637e+00 1.782563090324401855e+00 9.195278286933898926e-01 1.557231664657592773e+00
3.590000000000000000e+03 4.553487777709960938e+01 2.642778396606445312e+01 1.215974926948547363e+00 1.414808869361877441e+00 7.892351746559143066e-01 1.332853078842163086e+00
3.591000000000000000e+03 4.471670913696289062e+01 2.551549339294433594e+01 1.092974185943603516e+00 1.335782289505004883e+00 7.286269664764404297e-01 1.197449564933776855e+00
3.592000000000000000e+03 4.440645217895507812e+01 2.522873878479003906e+01 1.081955909729003906e+00 1.263406157493591309e+00 7.036086320877075195e-01 1.138992190361022949e+00
3.593000000000000000e+03 4.402267456054687500e+01 2.449408149719238281e+01 8.968234062194824219e-01 1.171773076057434082e+00 6.205789446830749512e-01 1.024065256118774414e+00
3.594000000000000000e+03 4.382494735717773438e+01 2.420137977600097656e+01 8.383945822715759277e-01 1.139190196990966797e+00 5.932754278182983398e-01 9.898433685302734375e-01
3.595000000000000000e+03 4.232746887207031250e+01 2.337497711181640625e+01 5.849647521972656250e-01 6.230160593986511230e-01 3.623942434787750244e-01 6.050172448158264160e-01
3.596000000000000000e+03 4.142632293701171875e+01 2.258293914794921875e+01 4.495705962181091309e-01 4.663082957267761230e-01 2.747636735439300537e-01 4.544079899787902832e-01
3.597000000000000000e+03 4.113131332397460938e+01 2.231515884399414062e+01 4.028024375438690186e-01 4.070287942886352539e-01 2.429493665695190430e-01 4.032132327556610107e-01
3.598000000000000000e+03 4.024596405029296875e+01 2.151130867004394531e+01 2.335426062345504761e-01 2.570785284042358398e-01 1.471863389015197754e-01 2.540678083896636963e-01
3.599000000000000000e+03 3.995428085327148438e+01 2.124464797973632812e+01 1.905849277973175049e-01 2.321642935276031494e-01 1.268247663974761963e-01 2.146619558334350586e-01
3.600000000000000000e+03 3.938006210327148438e+01 2.069604110717773438e+01 1.285691708326339722e-01 1.878983378410339355e-01 9.494025260210037231e-02 1.620596647262573242e-01
3.601000000000000000e+03 3.860654449462890625e+01 1.979147720336914062e+01 6.243828311562538147e-02 1.481830179691314697e-01 6.318639218807220459e-02 1.032159626483917236e-01
3.602000000000000000e+03 3.885037612915039062e+01 2.010827636718750000e+01 8.359876275062561035e-02 1.599688678979873657e-01 7.307028770446777344e-02 1.225268021225929260e-01
3.603000000000000000e+03 3.758603668212890625e+01 1.852847099304199219e+01 -4.997399169951677322e-03 6.875483691692352295e-02 1.912723109126091003e-02 2.542322315275669098e-02
3.604000000000000000e+03 3.732030487060546875e+01 1.822021102905273438e+01 -2.648190595209598541e-02 3.752749040722846985e-02 3.313674824312329292e-03 -7.389169186353683472e-04
3.605000000000000000e+03 3.651128768920898438e+01 1.732762145996093750e+01 -9.175542742013931274e-02 -5.293926224112510681e-02 -4.340840503573417664e-02 -7.552113384008407593e-02
3.606000000000000000e+03 3.596031570434570312e+01 1.677876091003417969e+01 -1.278619617223739624e-01 -1.115852445363998413e-01 -7.183416187763214111e-02 -1.184722930192947388e-01
3.607000000000000000e+03 3.548756790161132812e+01 1.616045570373535156e+01 -1.754865348339080811e-01 -1.522749662399291992e-01 -9.832844883203506470e-02 -1.581142991781234741e-01
3.608000000000000000e+03 3.495697784423828125e+01 1.507570362091064453e+01 -2.252587676048278809e-01 -1.348917633295059204e-01 -1.080451607704162598e-01 -1.891006678342819214e-01
3.609000000000000000e+03 3.490094375610351562e+01 1.558652496337890625e+01 -2.035456746816635132e-01 -1.933156549930572510e-01 -1.190584003925323486e-01 -2.039690762758255005e-01
3.610000000000000000e+03 3.323632812500000000e+01 1.380833816528320312e+01 -3.678896725177764893e-01 -3.353948891162872314e-01 -2.109853625297546387e-01 -3.443884849548339844e-01
3.611000000000000000e+03 3.325307464599609375e+01 1.328463649749755859e+01 -3.520092964172363281e-01 -2.597962915897369385e-01 -1.835416853427886963e-01 -3.038531541824340820e-01
3.612000000000000000e+03 3.240853881835937500e+01 1.297480297088623047e+01 -3.859564661979675293e-01 -3.752078711986541748e-01 -2.283492982387542725e-01 -3.898899555206298828e-01
3.613000000000000000e+03 3.270975112915039062e+01 1.271689605712890625e+01 -3.954227864742279053e-01 -2.893921434879302979e-01 -2.054444700479507446e-01 -3.465330898761749268e-01
3.614000000000000000e+03 3.108523368835449219e+01 1.149663257598876953e+01 -6.598713994026184082e-01 -4.989808201789855957e-01 -3.476556837558746338e-01 -5.354477763175964355e-01
3.615000000000000000e+03 3.015259361267089844e+01 1.012591552734375000e+01 -8.807293176651000977e-01 -3.424933850765228271e-01 -3.669668138027191162e-01 -5.467236638069152832e-01
3.616000000000000000e+03 2.982341194152832031e+01 1.043061447143554688e+01 -9.375575184822082520e-01 -5.816173553466796875e-01 -4.557524621486663818e-01 -6.894951462745666504e-01
3.617000000000000000e+03 2.923606491088867188e+01 9.867842674255371094e+00 -1.061681032180786133e+00 -7.602952122688293457e-01 -5.465928912162780762e-01 -9.538197517395019531e-01
3.618000000000000000e+03 2.891975975036621094e+01 9.634302139282226562e+00 -1.204204320907592773e+00 -9.291829466819763184e-01 -6.400161981582641602e-01 -1.027478218078613281e+00
3.619000000000000000e+03 2.809550285339355469e+01 8.771424293518066406e+00 -2.725109577178955078e+00 -1.248332142829895020e+00 -1.192032456398010254e+00 -1.798376679420471191e+00
3.620000000000000000e+03 2.716617584228515625e+01 8.098030090332031250e+00 -3.342688083648681641e+00 -2.099557399749755859e+00 -1.632673740386962891e+00 -2.723959922790527344e+00
3.621000000000000000e+03 2.700565147399902344e+01 7.996330261230468750e+00 -3.512811660766601562e+00 -2.187224864959716797e+00 -1.710011005401611328e+00 -2.874990701675415039e+00
3.622000000000000000e+03 2.610062980651855469e+01 7.414457321166992188e+00 -4.871092796325683594e+00 -2.843210220336914062e+00 -2.314290761947631836e+00 -3.731103897094726562e+00
3.623000000000000000e+03 2.992512321472167969e+01 6.034997463226318359e+00 1.632739901542663574e-01 1.468858271837234497e-01 9.304794669151306152e-02 -2.508194148540496826e-01
3.624000000000000000e+03 2.434096527099609375e+01 2.559874773025512695e+00 5.002775415778160095e-02 -1.142492443323135376e-01 -1.926644705235958099e-02 -7.370671629905700684e-02
3.625000000000000000e+03 2.923423576354980469e+01 5.480220794677734375e+00 6.485857535153627396e-03 1.451965868473052979e-01 4.550473019480705261e-02 -1.265603154897689819e-01
3.626000000000000000e+03 2.350305366516113281e+01 2.041418790817260742e+00 -1.188969705253839493e-02 -1.384177207946777344e-01 -4.509222507476806641e-02 -3.874679282307624817e-02
3.627000000000000000e+03 2.399167251586914062e+01 2.396667480468750000e+00 3.689647093415260315e-02 -1.012606248259544373e-01 -1.930924504995346069e-02 -5.866038799285888672e-02
3.628000000000000000e+03 2.174263763427734375e+01 3.016157448291778564e-01 -9.064673781394958496e-01 -1.827224493026733398e-01 -3.267569541931152344e-01 2.369923889636993408e-01
3.629000000000000000e+03 2.120714759826660156e+01 4.986960589885711670e-01 -7.630472183227539062e-01 -2.850476838648319244e-02 -2.374655902385711670e-01 1.987973153591156006e-01
3.630000000000000000e+03 2.004738235473632812e+01 -5.331190824508666992e-01 -1.542250514030456543e+00 9.111379384994506836e-01 -1.893337965011596680e-01 3.498643934726715088e-01
3.631000000000000000e+03 1.954539299011230469e+01 -6.123015880584716797e-01 -1.387448310852050781e+00 1.137103676795959473e+00 -7.510340213775634766e-02 1.582191139459609985e-01
3.632000000000000000e+03 1.928026199340820312e+01 -5.771188735961914062e-01 -1.495184183120727539e+00 9.783495664596557617e-01 -1.550503969192504883e-01 5.390004441142082214e-02
3.633000000000000000e+03 1.926461982727050781e+01 -9.907888174057006836e-01 -6.919972896575927734e-01 1.449715852737426758e+00 2.273155599832534790e-01 -3.087206929922103882e-02
3.634000000000000000e+03 1.805351829528808594e+01 -1.355462551116943359e+00 -9.089313149452209473e-01 2.895175814628601074e-01 -1.858241111040115356e-01 -3.218009471893310547e-01
3.635000000000000000e+03 2.368997192382812500e+01 1.779545903205871582e+00 -8.438331633806228638e-02 -1.292027831077575684e-01 -6.407582759857177734e-02 -8.381748199462890625e-02
3.636000000000000000e+03 1.809284782409667969e+01 -1.892515182495117188e+00 -5.205775499343872070e-01 5.095372796058654785e-01 -3.312084358185529709e-03 -1.478679627180099487e-01
3.637000000000000000e+03 2.884833145141601562e+01 4.910774707794189453e+00 2.358589321374893188e-02 4.129411652684211731e-02 1.946400292217731476e-02 -8.040343225002288818e-02
3.638000000000000000e+03 2.650215339660644531e+01 3.624383449554443359e+00 6.028740108013153076e-02 -1.423229426145553589e-01 -2.461066469550132751e-02 -9.193747490644454956e-02
3.639000000000000000e+03 2.940647506713867188e+01 5.633185386657714844e+00 2.748939208686351776e-02 1.711929738521575928e-01 5.960471183061599731e-02 -1.485196053981781006e-01
3.640000000000000000e+03 2.880727386474609375e+01 5.323499202728271484e+00 -1.361015136353671551e-03 4.664727672934532166e-02 1.358587853610515594e-02 -7.399313151836395264e-02
3.641000000000000000e+03 2.864359664916992188e+01 5.206683158874511719e+00 8.323966525495052338e-03 1.065618731081485748e-02 5.694046150892972946e-03 -6.920774281024932861e-02
3.642000000000000000e+03 2.828549766540527344e+01 5.003054618835449219e+00 2.154703252017498016e-02 -5.375397577881813049e-02 -9.662082418799400330e-03 -6.697404384613037109e-02
3.643000000000000000e+03 2.792915153503417969e+01 4.811458587646484375e+00 3.213778883218765259e-02 -9.732714295387268066e-02 -1.955680735409259796e-02 -7.519932836294174194e-02
3.644000000000000000e+03 2.805005645751953125e+01 4.577779293060302734e+00 3.823391720652580261e-02 -7.294102013111114502e-02 -1.041213050484657288e-02 -7.665085792541503906e-02
3.645000000000000000e+03 2.689926338195800781e+01 4.184587001800537109e+00 4.845649749040603638e-02 -1.341531574726104736e-01 -2.570899948477745056e-02 -8.763676136732101440e-02
3.646000000000000000e+03 2.658901977539062500e+01 3.943668127059936523e+00 5.630875006318092346e-02 -1.376617848873138428e-01 -2.440591156482696533e-02 -8.785851299762725830e-02
3.647000000000000000e+03 2.552861976623535156e+01 3.320916414260864258e+00 7.104116678237915039e-02 -1.377413272857666016e-01 -2.001004852354526520e-02 -7.792236655950546265e-02
3.648000000000000000e+03 2.485305976867675781e+01 2.919755697250366211e+00 6.661275029182434082e-02 -1.300832182168960571e-01 -1.904113963246345520e-02 -6.812103092670440674e-02
3.649000000000000000e+03 2.451766967773437500e+01 2.688145399093627930e+00 5.377986282110214233e-02 -1.324281692504882812e-01 -2.359448932111263275e-02 -6.374210119247436523e-02
3.650000000000000000e+03 2.501665115356445312e+01 3.032294750213623047e+00 7.296905666589736938e-02 -1.150370836257934570e-01 -1.262040808796882629e-02 -7.661888003349304199e-02
3.651000000000000000e+03 2.383750343322753906e+01 2.279519081115722656e+00 2.156019769608974457e-02 -1.197512224316596985e-01 -2.945730835199356079e-02 -5.003898218274116516e-02
3.652000000000000000e+03 2.351298522949218750e+01 1.638085842132568359e+00 -1.364281773567199707e-01 -1.666705161333084106e-01 -9.092961251735687256e-02 -4.868574813008308411e-02
3.653000000000000000e+03 2.332551002502441406e+01 1.917974233627319336e+00 -3.713987022638320923e-02 -1.009989157319068909e-01 -4.144163802266120911e-02 -4.783852770924568176e-02
3.654000000000000000e+03 2.227167701721191406e+01 1.124660491943359375e+00 -3.024673163890838623e-01 -9.452372789382934570e-02 -1.190973147749900818e-01 2.812156267464160919e-02
3.655000000000000000e+03 2.278878974914550781e+01 1.152163147926330566e+00 -3.233522772789001465e-01 -1.594574302434921265e-01 -1.448429226875305176e-01 -1.280228234827518463e-02
3.656000000000000000e+03 2.196319389343261719e+01 1.116720199584960938e+00 -3.502440154552459717e-01 -5.904903635382652283e-02 -1.227879226207733154e-01 5.992946773767471313e-02
3.657000000000000000e+03 2.155387115478515625e+01 5.118826627731323242e-01 -7.705786824226379395e-01 -5.395923927426338196e-02 -2.473613768815994263e-01 1.911978125572204590e-01
3.658000000000000000e+03 1.678647422790527344e+01 -2.177567481994628906e+00 -4.463311731815338135e-01 -3.866429924964904785e-01 -2.498922497034072876e-01 -3.120229542255401611e-01
3.659000000000000000e+03 2.583556175231933594e+01 3.123618841171264648e+00 5.105818808078765869e-02 -1.481587439775466919e-01 -2.913016825914382935e-02 -9.110205620527267456e-02
3.660000000000000000e+03 2.499253082275390625e+01 2.716769218444824219e+00 4.933024942874908447e-02 -1.273656934499740601e-01 -2.341063320636749268e-02 -8.741603046655654907e-02
3.661000000000000000e+03 1.862039947509765625e+01 -1.625753402709960938e+00 -4.743324816226959229e-01 8.634530901908874512e-01 1.167361885309219360e-01 2.225166559219360352e-02
3.662000000000000000e+03 1.574061393737792969e+01 -2.954547166824340820e+00 -2.510935068130493164e-01 -4.229818582534790039e-01 -2.022226154804229736e-01 -3.828479647636413574e-01
3.663000000000000000e+03 1.641126823425292969e+01 -3.151475191116333008e+00 2.311888337135314941e-02 -3.024641871452331543e-01 -8.380359411239624023e-02 -1.558086872100830078e-01
3.664000000000000000e+03 1.319645500183105469e+01 3.347680330276489258e+00 4.244164824485778809e-01 1.294854879379272461e+00 5.157814025878906250e-01 -2.713275849819183350e-01
3.665000000000000000e+03 1.375308322906494141e+01 3.036672353744506836e+00 2.565229535102844238e-01 2.259497165679931641e+00 7.548060417175292969e-01 1.772742420434951782e-01
3.666000000000000000e+03 1.414268589019775391e+01 3.772403955459594727e+00 3.966042697429656982e-01 1.186373353004455566e+00 4.748932719230651855e-01 5.711200237274169922e-01
3.667000000000000000e+03 1.350636291503906250e+01 3.713897705078125000e+00 2.583761513233184814e-01 1.330052733421325684e+00 4.765286743640899658e-01 3.576626628637313843e-02
3.668000000000000000e+03 5.496960067749023438e+01 3.872167587280273438e+01 4.432183206081390381e-01 1.865353584289550781e+01 5.729025840759277344e+00 1.521224379539489746e+00
3.669000000000000000e+03 1.471819305419921875e+01 4.353811264038085938e+00 3.858130276203155518e-01 4.689791500568389893e-01 2.564376592636108398e-01 4.210045039653778076e-01
3.670000000000000000e+03 1.411977863311767578e+01 4.387885093688964844e+00 2.175173312425613403e-01 8.739405870437622070e-01 3.274373710155487061e-01 3.323725461959838867e-01
3.671000000000000000e+03 1.478861331939697266e+01 4.821913719177246094e+00 2.362496703863143921e-01 4.638854861259460449e-01 2.100405395030975342e-01 3.596978485584259033e-01
3.672000000000000000e+03 1.627667999267578125e+01 6.140933036804199219e+00 2.541132271289825439e-01 3.075062334537506104e-01 1.684858351945877075e-01 2.698091864585876465e-01
3.673000000000000000e+03 5.375530624389648438e+01 3.926106643676757812e+01 5.761428475379943848e-01 1.259576416015625000e+01 3.951572179794311523e+00 -3.015633344650268555e+00
3.674000000000000000e+03 4.846849060058593750e+01 3.773369979858398438e+01 -1.022483468055725098e+00 1.115962788462638855e-01 -2.732661366462707520e-01 4.692460596561431885e-01
3.675000000000000000e+03 4.854306030273437500e+01 3.722911453247070312e+01 -1.072072863578796387e+00 2.268162071704864502e-01 -2.535770237445831299e-01 -1.674139052629470825e-01
3.676000000000000000e+03 4.693834686279296875e+01 3.681594085693359375e+01 -2.194295376539230347e-01 1.151615381240844727e-01 -3.128039836883544922e-02 8.903556317090988159e-02
3.677000000000000000e+03 1.446188545227050781e+01 4.647624969482421875e+00 2.324551194906234741e-01 6.653198003768920898e-01 2.693324685096740723e-01 3.557961285114288330e-01
3.678000000000000000e+03 5.563301086425781250e+01 3.691325759887695312e+01 4.281845092773437500e+00 1.746548652648925781e+01 6.524199485778808594e+00 1.464213371276855469e+00
3.679000000000000000e+03 4.678301620483398438e+01 3.610574340820312500e+01 5.984872207045555115e-02 8.376374095678329468e-02 4.308373853564262390e-02 1.031311228871345520e-01
3.680000000000000000e+03 3.150750541687011719e+01 2.189657402038574219e+01 6.003159657120704651e-02 8.793535828590393066e-02 4.439008608460426331e-02 9.253875911235809326e-02
3.681000000000000000e+03 3.261380767822265625e+01 2.252387809753417969e+01 5.736256763339042664e-02 7.836180180311203003e-02 4.071731120347976685e-02 8.839140832424163818e-02
3.682000000000000000e+03 1.798110389709472656e+01 8.442288398742675781e+00 1.802133023738861084e-01 2.201739698648452759e-01 1.201161816716194153e-01 1.963590532541275024e-01
3.683000000000000000e+03 1.878011131286621094e+01 8.742675781250000000e+00 2.013151943683624268e-01 2.155289053916931152e-01 1.250532269477844238e-01 1.989611536264419556e-01
3.684000000000000000e+03 4.915279006958007812e+01 3.769007492065429688e+01 -1.574120044708251953e+00 9.124545380473136902e-03 -4.694986641407012939e-01 -1.465171575546264648e-01
3.685000000000000000e+03 1.907354736328125000e+01 9.022390365600585938e+00 1.992657035589218140e-01 1.939199566841125488e-01 1.179556995630264282e-01 1.925039142370223999e-01
3.686000000000000000e+03 3.606060791015625000e+01 2.645573806762695312e+01 7.954536378383636475e-02 1.094465926289558411e-01 5.669758841395378113e-02 5.932417884469032288e-02
3.687000000000000000e+03 5.037184524536132812e+01 3.777724456787109375e+01 -2.170022964477539062e+00 -5.429362654685974121e-01 -8.138877749443054199e-01 -7.801798582077026367e-01
3.688000000000000000e+03 4.956810379028320312e+01 3.787456893920898438e+01 -1.562927842140197754e+00 2.924998998641967773e-01 -3.811283707618713379e-01 -3.986656367778778076e-01
3.689000000000000000e+03 4.645187759399414062e+01 3.587262725830078125e+01 1.054840311408042908e-01 1.380420476198196411e-02 3.578646853566169739e-02 8.465684205293655396e-02
3.690000000000000000e+03 1.938405036926269531e+01 9.273302078247070312e+00 1.882577687501907349e-01 1.727855652570724487e-01 1.083130016922950745e-01 1.783638745546340942e-01
3.691000000000000000e+03 1.965424156188964844e+01 9.574640274047851562e+00 1.657361686229705811e-01 1.599599272012710571e-01 9.770882874727249146e-02 1.704535782337188721e-01
3.692000000000000000e+03 1.684434127807617188e+01 6.697472095489501953e+00 2.165598422288894653e-01 2.339249849319458008e-01 1.351454555988311768e-01 2.310819625854492188e-01
3.693000000000000000e+03 3.686154556274414062e+01 2.737377738952636719e+01 6.676596403121948242e-02 7.862327247858047485e-02 4.361677169799804688e-02 9.622235596179962158e-02
3.694000000000000000e+03 2.527175712585449219e+01 1.523474693298339844e+01 1.159389689564704895e-01 1.174307763576507568e-01 7.001092284917831421e-02 1.235365122556686401e-01
3.695000000000000000e+03 2.412363624572753906e+01 1.468189144134521484e+01 1.262284219264984131e-01 1.345834881067276001e-01 7.824356853961944580e-02 1.336502432823181152e-01
3.696000000000000000e+03 5.095883941650390625e+01 3.815497970581054688e+01 -2.910626411437988281e+00 -5.458345413208007812e-01 -1.036938309669494629e+00 -1.032990336418151855e+00
3.697000000000000000e+03 2.556618881225585938e+01 1.553004932403564453e+01 1.158798187971115112e-01 1.252125501632690430e-01 7.232771068811416626e-02 1.190946921706199646e-01
3.698000000000000000e+03 2.486917686462402344e+01 1.551928901672363281e+01 1.192694082856178284e-01 1.267146319150924683e-01 7.379521429538726807e-02 1.239436045289039612e-01
3.699000000000000000e+03 3.185724258422851562e+01 2.160898017883300781e+01 9.048537909984588623e-02 8.298490941524505615e-02 5.204108729958534241e-02 7.179015874862670898e-02
3.700000000000000000e+03 4.661333465576171875e+01 3.656472396850585938e+01 -3.206124529242515564e-02 4.083611071109771729e-02 2.632459159940481186e-03 1.092238724231719971e-02
3.701000000000000000e+03 1.690915107727050781e+01 7.602833747863769531e+00 1.793010830879211426e-01 2.480404973030090332e-01 1.282024681568145752e-01 2.119807600975036621e-01
3.702000000000000000e+03 3.769313049316406250e+01 2.819777870178222656e+01 1.016032099723815918e-01 1.102019920945167542e-01 6.354156136512756348e-02 6.111354753375053406e-02
3.703000000000000000e+03 3.374217224121093750e+01 2.371367645263671875e+01 6.612691283226013184e-02 8.487045764923095703e-02 4.529920965433120728e-02 8.539126813411712646e-02
3.704000000000000000e+03 4.999349975585937500e+01 3.831906509399414062e+01 -1.773222446441650391e+00 1.678496003150939941e-01 -4.816118478775024414e-01 -1.240697577595710754e-01
3.705000000000000000e+03 3.098161506652832031e+01 2.081383132934570312e+01 9.225148707628250122e-02 8.930582553148269653e-02 5.446719378232955933e-02 9.592393785715103149e-02
3.706000000000000000e+03 3.068291854858398438e+01 2.054417228698730469e+01 9.781106561422348022e-02 9.800823777914047241e-02 5.874579027295112610e-02 9.145525842905044556e-02
3.707000000000000000e+03 2.327372360229492188e+01 1.328066158294677734e+01 1.502930074930191040e-01 1.591683328151702881e-01 9.283839911222457886e-02 1.506838053464889526e-01
3.708000000000000000e+03 2.160601615905761719e+01 1.156084346771240234e+01 1.511654555797576904e-01 1.621952354907989502e-01 9.400820732116699219e-02 1.551974862813949585e-01
3.709000000000000000e+03 5.168348312377929688e+01 3.850653076171875000e+01 -3.174566507339477539e+00 -7.623002529144287109e-01 -1.181060075759887695e+00 -1.725003719329833984e+00
3.710000000000000000e+03 2.295037460327148438e+01 1.360619544982910156e+01 1.367373168468475342e-01 1.534583419561386108e-01 8.705870062112808228e-02 1.420179158449172974e-01
3.711000000000000000e+03 2.268175125122070312e+01 1.330580711364746094e+01 1.398573070764541626e-01 1.569808870553970337e-01 8.905145525932312012e-02 1.425008326768875122e-01
3.712000000000000000e+03 3.795967483520507812e+01 2.847490501403808594e+01 6.179386377334594727e-02 5.912273004651069641e-02 3.627498075366020203e-02 1.048435792326927185e-01
3.713000000000000000e+03 1.765779304504394531e+01 7.606683254241943359e+00 1.831851005554199219e-01 2.278014123439788818e-01 1.232959553599357605e-01 2.021445482969284058e-01
3.714000000000000000e+03 2.382517433166503906e+01 1.442750072479248047e+01 1.324652135372161865e-01 1.433562189340591431e-01 8.274643123149871826e-02 1.321204751729965210e-01
3.715000000000000000e+03 1.656669235229492188e+01 6.418037891387939453e+00 2.445195764303207397e-01 2.647181451320648193e-01 1.527713090181350708e-01 2.465025633573532104e-01
3.716000000000000000e+03 2.588691329956054688e+01 1.577443885803222656e+01 1.145230606198310852e-01 1.248947009444236755e-01 7.182532548904418945e-02 1.224128529429435730e-01
3.717000000000000000e+03 4.329285430908203125e+01 3.530666732788085938e+01 1.726990193128585815e-01 1.148451045155525208e-01 8.626323938369750977e-02 -3.134277835488319397e-02
3.718000000000000000e+03 3.317339706420898438e+01 2.314233970642089844e+01 6.618892401456832886e-02 8.731903880834579468e-02 4.605238884687423706e-02 8.813804388046264648e-02
3.719000000000000000e+03 4.055828857421875000e+01 3.102715682983398438e+01 1.027192249894142151e-01 9.561055898666381836e-02 5.949893593788146973e-02 5.475059151649475098e-02
3.720000000000000000e+03 2.753907775878906250e+01 1.744090652465820312e+01 1.157967001199722290e-01 1.137799099087715149e-01 6.887298077344894409e-02 1.214553788304328918e-01
3.721000000000000000e+03 2.613983154296875000e+01 1.658695030212402344e+01 1.169377863407135010e-01 1.265001296997070312e-01 7.303137332201004028e-02 1.182781904935836792e-01
3.722000000000000000e+03 2.670524024963378906e+01 1.660400772094726562e+01 1.219810470938682556e-01 1.283153146505355835e-01 7.508891075849533081e-02 1.224857792258262634e-01
3.723000000000000000e+03 3.534465408325195312e+01 2.744900703430175781e+01 5.700473114848136902e-02 1.120346635580062866e-01 5.071181803941726685e-02 6.907382607460021973e-02
3.724000000000000000e+03 2.443432044982910156e+01 1.437339878082275391e+01 1.440365910530090332e-01 1.286457031965255737e-01 8.180469274520874023e-02 1.321771144866943359e-01
3.725000000000000000e+03 2.098471641540527344e+01 1.099241733551025391e+01 1.573871821165084839e-01 1.776134967803955078e-01 1.005002036690711975e-01 1.624228805303573608e-01
3.726000000000000000e+03 4.576278686523437500e+01 3.540672683715820312e+01 9.192857146263122559e-02 -2.210030565038323402e-03 2.691556140780448914e-02 1.157242655754089355e-01
3.727000000000000000e+03 3.784091186523437500e+01 2.904729652404785156e+01 6.876033544540405273e-02 6.517738103866577148e-02 4.018131643533706665e-02 9.549684822559356689e-02
3.728000000000000000e+03 4.191654586791992188e+01 3.302002716064453125e+01 6.042331084609031677e-02 1.831643097102642059e-02 2.362192235887050629e-02 1.290513873100280762e-01
3.729000000000000000e+03 3.632687759399414062e+01 2.675901412963867188e+01 5.291107296943664551e-02 7.371849566698074341e-02 3.798887133598327637e-02 9.668998420238494873e-02
3.730000000000000000e+03 4.963645172119140625e+01 3.753551483154296875e+01 -1.935857176780700684e+00 -2.129441648721694946e-01 -6.446404457092285156e-01 -5.938480496406555176e-01
3.731000000000000000e+03 4.230192947387695312e+01 3.262694168090820312e+01 1.176830902695655823e-01 1.197856292128562927e-01 7.124061882495880127e-02 2.430488914251327515e-02
3.732000000000000000e+03 3.530101013183593750e+01 2.550581359863281250e+01 5.650644004344940186e-02 7.963678985834121704e-02 4.084296897053718567e-02 9.700435400009155273e-02
3.733000000000000000e+03 3.805365371704101562e+01 2.941435050964355469e+01 7.930894196033477783e-02 1.018100604414939880e-01 5.433570221066474915e-02 6.288232654333114624e-02
3.734000000000000000e+03 3.210097885131835938e+01 2.270406150817871094e+01 7.662191987037658691e-02 8.175373077392578125e-02 4.751269519329071045e-02 8.331112563610076904e-02
3.735000000000000000e+03 4.080004119873046875e+01 3.265877151489257812e+01 1.061289533972740173e-01 5.916580557823181152e-02 4.958842694759368896e-02 8.236891031265258789e-02
3.736000000000000000e+03 3.998427200317382812e+01 3.119483757019042969e+01 8.899819105863571167e-02 1.024884060025215149e-01 5.744598060846328735e-02 5.779567733407020569e-02
3.737000000000000000e+03 2.054071617126464844e+01 1.037305927276611328e+01 1.467668116092681885e-01 1.775055676698684692e-01 9.728170931339263916e-02 1.613015681505203247e-01
3.738000000000000000e+03 2.187095069885253906e+01 1.244603538513183594e+01 1.371845006942749023e-01 1.586276143789291382e-01 8.874363452196121216e-02 1.511579006910324097e-01
3.739000000000000000e+03 2.898554229736328125e+01 1.883803939819335938e+01 1.093998923897743225e-01 1.031497195363044739e-01 6.376488506793975830e-02 9.920103102922439575e-02
3.740000000000000000e+03 2.566164398193359375e+01 1.612111282348632812e+01 1.128828227519989014e-01 1.264904737472534180e-01 7.181198894977569580e-02 1.199867948889732361e-01
3.741000000000000000e+03 2.952644729614257812e+01 1.941433143615722656e+01 1.037548780441284180e-01 1.009510084986686707e-01 6.141176447272300720e-02 9.480866044759750366e-02
3.742000000000000000e+03 3.368066787719726562e+01 2.438286018371582031e+01 6.211126968264579773e-02 8.498569577932357788e-02 4.412909224629402161e-02 8.642261475324630737e-02
3.743000000000000000e+03 3.446952819824218750e+01 2.524019813537597656e+01 8.192350715398788452e-02 9.955491870641708374e-02 5.444352701306343079e-02 6.934966892004013062e-02
3.744000000000000000e+03 3.393868637084960938e+01 2.467413902282714844e+01 7.447741180658340454e-02 9.968201071023941040e-02 5.224782600998878479e-02 7.358521968126296997e-02
3.745000000000000000e+03 3.903658676147460938e+01 2.967812156677246094e+01 6.965658813714981079e-02 6.674053519964218140e-02 4.091913625597953796e-02 8.547262847423553467e-02
3.746000000000000000e+03 2.778765106201171875e+01 1.774956893920898438e+01 1.213005781173706055e-01 1.140242516994476318e-01 7.059744745492935181e-02 1.099047362804412842e-01
3.747000000000000000e+03 2.736995887756347656e+01 1.795023345947265625e+01 1.013808995485305786e-01 1.159714460372924805e-01 6.520570069551467896e-02 1.125904694199562073e-01
3.748000000000000000e+03 2.840618133544921875e+01 1.829703712463378906e+01 1.141565144062042236e-01 1.079769209027290344e-01 6.664002686738967896e-02 1.040650457143783569e-01
3.749000000000000000e+03 4.116511917114257812e+01 3.151686096191406250e+01 1.217572465538978577e-01 1.104532480239868164e-01 6.966314464807510376e-02 3.041852824389934540e-02
3.750000000000000000e+03 2.863608169555664062e+01 1.913266944885253906e+01 9.508225321769714355e-02 1.014586687088012695e-01 5.896227806806564331e-02 1.062948480248451233e-01
3.751000000000000000e+03 4.093948745727539062e+01 3.181362915039062500e+01 4.901717230677604675e-02 4.425078257918357849e-02 2.798038721084594727e-02 1.110719889402389526e-01
3.752000000000000000e+03 2.961985969543457031e+01 2.041184806823730469e+01 8.858003467321395874e-02 9.445359557867050171e-02 5.491008982062339783e-02 9.883499890565872192e-02
3.753000000000000000e+03 4.160911941528320312e+01 3.275166320800781250e+01 1.227591857314109802e-01 1.080598533153533936e-01 6.924571096897125244e-02 2.234766632318496704e-02
3.754000000000000000e+03 4.143801498413085938e+01 3.325686264038085938e+01 1.282924413681030273e-01 4.446994513273239136e-02 5.182871595025062561e-02 6.077748537063598633e-02
3.755000000000000000e+03 3.157527351379394531e+01 2.133777427673339844e+01 8.013422042131423950e-02 7.674683630466461182e-02 4.706431552767753601e-02 9.135425835847854614e-02
3.756000000000000000e+03 5.436968231201171875e+01 3.543527984619140625e+01 5.252752780914306641e+00 2.299223709106445312e+01 8.473496437072753906e+00 3.303076505661010742e+00
3.757000000000000000e+03 5.453815841674804688e+01 3.584554290771484375e+01 5.324079990386962891e+00 2.296017074584960938e+01 8.485275268554687500e+00 3.329363584518432617e+00
3.758000000000000000e+03 5.235272979736328125e+01 3.325063705444335938e+01 4.688159942626953125e+00 1.038594055175781250e+01 4.522230148315429688e+00 6.824298381805419922e+00
3.759000000000000000e+03 3.212859344482421875e+01 1.269373416900634766e+01 -4.089775085449218750e-01 -4.162732660770416260e-01 -2.475752383470535278e-01 -4.127210676670074463e-01
3.760000000000000000e+03 5.208475112915039062e+01 3.198769378662109375e+01 3.746443986892700195e+00 8.950757026672363281e+00 3.809160232543945312e+00 5.355490684509277344e+00
3.761000000000000000e+03 3.214314270019531250e+01 1.219965934753417969e+01 -4.671409726142883301e-01 -3.451738953590393066e-01 -2.436944693326950073e-01 -3.992676734924316406e-01
3.762000000000000000e+03 3.910825347900390625e+01 2.040867233276367188e+01 1.063605770468711853e-01 1.743777543306350708e-01 8.422150462865829468e-02 1.395334750413894653e-01
3.763000000000000000e+03 3.970314788818359375e+01 2.039621162414550781e+01 1.550105512142181396e-01 3.275613188743591309e-01 1.447715610265731812e-01 2.444228678941726685e-01
3.764000000000000000e+03 3.999112319946289062e+01 2.066027450561523438e+01 1.834672093391418457e-01 3.712000846862792969e-01 1.664001792669296265e-01 2.801131010055541992e-01
3.765000000000000000e+03 5.107867431640625000e+01 3.163833999633789062e+01 4.431445598602294922e+00 6.371978759765625000e+00 3.241027355194091797e+00 5.076556682586669922e+00
3.766000000000000000e+03 3.837017440795898438e+01 1.946434402465820312e+01 4.899745434522628784e-02 1.329785883426666260e-01 5.459281057119369507e-02 8.358779549598693848e-02
3.767000000000000000e+03 5.404635238647460938e+01 3.644268798828125000e+01 1.205008506774902344e+00 2.907439422607421875e+01 9.083820343017578125e+00 1.587870717048645020e+00
3.768000000000000000e+03 4.083547592163085938e+01 2.204725074768066406e+01 3.450941443443298340e-01 3.478071093559265137e-01 2.078703790903091431e-01 3.477545082569122314e-01
3.769000000000000000e+03 4.139072418212890625e+01 2.204484176635742188e+01 3.823134601116180420e-01 5.672661662101745605e-01 2.848739027976989746e-01 4.748476147651672363e-01
3.770000000000000000e+03 4.057060623168945312e+01 2.118938255310058594e+01 2.467186003923416138e-01 4.447972774505615234e-01 2.074547708034515381e-01 3.562988936901092529e-01
3.771000000000000000e+03 5.080014038085937500e+01 3.136477279663085938e+01 4.117395877838134766e+00 5.420301914215087891e+00 2.861309289932250977e+00 4.691161632537841797e+00
3.772000000000000000e+03 5.178535461425781250e+01 3.114952659606933594e+01 3.020191431045532227e+00 7.919770240783691406e+00 3.281988382339477539e+00 4.559850692749023438e+00
3.773000000000000000e+03 4.667022705078125000e+01 2.553211593627929688e+01 1.094794154167175293e+00 2.439375638961791992e+00 1.060250878334045410e+00 1.740830421447753906e+00
3.774000000000000000e+03 3.943900299072265625e+01 2.012306022644042969e+01 1.273356974124908447e-01 3.036380708217620850e-01 1.292921304702758789e-01 2.194539904594421387e-01
3.775000000000000000e+03 4.260120391845703125e+01 2.304266357421875000e+01 5.670916438102722168e-01 8.213119506835937500e-01 4.165210723876953125e-01 6.997430324554443359e-01
3.776000000000000000e+03 3.709852981567382812e+01 1.725950431823730469e+01 -6.856481730937957764e-02 1.050078496336936951e-01 1.093290839344263077e-02 6.593076046556234360e-03
3.777000000000000000e+03 4.580919647216796875e+01 2.671519851684570312e+01 1.306589841842651367e+00 1.446811795234680176e+00 8.260204792022705078e-01 1.391745448112487793e+00
3.778000000000000000e+03 3.301935958862304688e+01 1.298605060577392578e+01 -3.638305366039276123e-01 -2.646371424198150635e-01 -1.885403096675872803e-01 -3.214748203754425049e-01
3.779000000000000000e+03 3.074121665954589844e+01 1.055633068084716797e+01 -7.312967777252197266e-01 -3.480319678783416748e-01 -3.237986266613006592e-01 -4.985353648662567139e-01
3.780000000000000000e+03 4.351749038696289062e+01 2.446374893188476562e+01 8.815342783927917480e-01 8.843095302581787109e-01 5.297531485557556152e-01 8.854336142539978027e-01
3.781000000000000000e+03 4.362253952026367188e+01 2.384953117370605469e+01 7.514034509658813477e-01 1.133755803108215332e+00 5.655477643013000488e-01 9.411430358886718750e-01
3.782000000000000000e+03 5.052098464965820312e+01 3.106444358825683594e+01 3.894836425781250000e+00 5.006309032440185547e+00 2.670343637466430664e+00 4.365802288055419922e+00
3.783000000000000000e+03 3.112399673461914062e+01 1.077901363372802734e+01 -6.670044660568237305e-01 -3.274161517620086670e-01 -2.983261942863464355e-01 -4.199291467666625977e-01
3.784000000000000000e+03 2.906100082397460938e+01 8.870443344116210938e+00 -1.622498631477355957e+00 1.246588751673698425e-01 -4.493519365787506104e-01 -4.344609975814819336e-01
3.785000000000000000e+03 4.694141006469726562e+01 2.724144554138183594e+01 1.590058445930480957e+00 2.042281389236450195e+00 1.089702010154724121e+00 1.847751736640930176e+00
3.786000000000000000e+03 4.637032699584960938e+01 2.727815628051757812e+01 1.536050200462341309e+00 1.562985658645629883e+00 9.297107458114624023e-01 1.567537665367126465e+00
3.787000000000000000e+03 4.561272811889648438e+01 2.582324790954589844e+01 1.163597941398620605e+00 1.659941792488098145e+00 8.470619320869445801e-01 1.424886822700500488e+00
3.788000000000000000e+03 4.967748260498046875e+01 2.913171005249023438e+01 2.371621370315551758e+00 4.313910961151123047e+00 2.005659580230712891e+00 3.207099676132202148e+00
3.789000000000000000e+03 4.917994689941406250e+01 2.896584129333496094e+01 2.400434494018554688e+00 3.713442325592041016e+00 1.834163069725036621e+00 2.962886333465576172e+00
3.790000000000000000e+03 3.650064086914062500e+01 1.675323677062988281e+01 -1.048620864748954773e-01 2.550476975739002228e-02 -2.380719594657421112e-02 -5.001750215888023376e-02
3.791000000000000000e+03 3.011697006225585938e+01 1.069595527648925781e+01 -7.906575202941894531e-01 -5.073157548904418945e-01 -3.893919885158538818e-01 -6.573694348335266113e-01
3.792000000000000000e+03 4.111332702636718750e+01 2.176809120178222656e+01 3.357194364070892334e-01 5.250382423400878906e-01 2.582273185253143311e-01 4.351061284542083740e-01
3.793000000000000000e+03 3.899420547485351562e+01 1.950624465942382812e+01 9.065157175064086914e-02 2.951554954051971436e-01 1.157421171665191650e-01 1.858186423778533936e-01
3.794000000000000000e+03 3.463571548461914062e+01 1.529013442993164062e+01 -2.171540856361389160e-01 -2.229635715484619141e-01 -1.320353001356124878e-01 -2.230785787105560303e-01
3.795000000000000000e+03 4.333068466186523438e+01 2.352664566040039062e+01 6.773060560226440430e-01 1.065854549407958984e+00 5.229482054710388184e-01 8.774883151054382324e-01
3.796000000000000000e+03 4.264200973510742188e+01 2.363495826721191406e+01 6.503282785415649414e-01 6.776820421218872070e-01 3.984030783176422119e-01 6.702878475189208984e-01
3.797000000000000000e+03 5.081623458862304688e+01 3.064911079406738281e+01 3.228786230087280273e+00 5.898691177368164062e+00 2.738243103027343750e+00 4.302221298217773438e+00
3.798000000000000000e+03 4.724014663696289062e+01 2.747799301147460938e+01 1.696031332015991211e+00 2.194848537445068359e+00 1.167263984680175781e+00 1.962427258491516113e+00
3.799000000000000000e+03 4.324488830566406250e+01 2.417631912231445312e+01 8.045329451560974121e-01 8.020076751708984375e-01 4.819621741771697998e-01 7.979823946952819824e-01
3.800000000000000000e+03 4.879127502441406250e+01 2.873117446899414062e+01 2.293654680252075195e+00 3.281477212905883789e+00 1.672539472579956055e+00 2.727464437484741211e+00
3.801000000000000000e+03 5.322141647338867188e+01 3.365287780761718750e+01 3.839521408081054688e+00 1.365650939941406250e+01 5.248809337615966797e+00 6.767442226409912109e+00
3.802000000000000000e+03 4.908629608154296875e+01 2.970432853698730469e+01 2.874512672424316406e+00 3.220634222030639648e+00 1.828544020652770996e+00 3.056645393371582031e+00
3.803000000000000000e+03 5.371185302734375000e+01 3.432440185546875000e+01 3.603420972824096680e+00 1.790086936950683594e+01 6.451287269592285156e+00 6.767716407775878906e+00
3.804000000000000000e+03 3.189676475524902344e+01 1.192891883850097656e+01 -5.051178932189941406e-01 -3.636161386966705322e-01 -2.606202065944671631e-01 -4.213908016681671143e-01
3.805000000000000000e+03 4.028821182250976562e+01 2.091837501525878906e+01 2.161459773778915405e-01 4.054190218448638916e-01 1.864695101976394653e-01 3.218123912811279297e-01
3.806000000000000000e+03 4.172188568115234375e+01 2.284980773925781250e+01 4.890452921390533447e-01 5.197276473045349121e-01 3.026318848133087158e-01 5.021495819091796875e-01
3.807000000000000000e+03 4.196860885620117188e+01 2.256308174133300781e+01 4.771102964878082275e-01 6.731206774711608887e-01 3.450692892074584961e-01 5.720555782318115234e-01
3.808000000000000000e+03 4.250158309936523438e+01 2.250137901306152344e+01 4.966157078742980957e-01 9.058178663253784180e-01 4.207300543785095215e-01 6.988203525543212891e-01
3.809000000000000000e+03 3.671706390380859375e+01 1.639201736450195312e+01 -1.095395833253860474e-01 1.358931958675384521e-01 7.906084880232810974e-03 -4.408643115311861038e-03
3.810000000000000000e+03 4.755500793457031250e+01 2.833023071289062500e+01 2.135275602340698242e+00 2.070844888687133789e+00 1.261836171150207520e+00 2.105268478393554688e+00
3.811000000000000000e+03 3.785497665405273438e+01 1.883622932434082031e+01 1.509568654000759125e-02 9.504672139883041382e-02 3.304272145032882690e-02 4.898377880454063416e-02
3.812000000000000000e+03 4.783638000488281250e+01 2.798500442504882812e+01 1.936289191246032715e+00 2.566681146621704102e+00 1.350891113281250000e+00 2.233135700225830078e+00
3.813000000000000000e+03 3.296121215820312500e+01 1.353399276733398438e+01 -3.784728050231933594e-01 -3.414113521575927734e-01 -2.159652411937713623e-01 -3.652262687683105469e-01
3.814000000000000000e+03 4.295303344726562500e+01 2.327758026123046875e+01 6.169098019599914551e-01 9.274511933326721191e-01 4.633083045482635498e-01 7.835729122161865234e-01
3.815000000000000000e+03 3.413595199584960938e+01 1.462205886840820312e+01 -2.737978100776672363e-01 -2.610398232936859131e-01 -1.604512929916381836e-01 -2.676616311073303223e-01
3.816000000000000000e+03 5.015802383422851562e+01 3.019345474243164062e+01 3.074479103088378906e+00 4.760025978088378906e+00 2.350351572036743164e+00 3.754644155502319336e+00
3.817000000000000000e+03 4.510308837890625000e+01 2.520226478576660156e+01 1.045922279357910156e+00 1.576600790023803711e+00 7.867569327354431152e-01 1.275231122970581055e+00
3.818000000000000000e+03 3.680688858032226562e+01 1.698427009582519531e+01 -8.302374929189682007e-02 6.700833886861801147e-02 -4.804623778909444809e-03 -1.983192749321460724e-02
3.819000000000000000e+03 3.571210479736328125e+01 1.648621368408203125e+01 -1.453408151865005493e-01 -1.324041038751602173e-01 -8.332347869873046875e-02 -1.417677104473114014e-01
3.820000000000000000e+03 3.621701431274414062e+01 1.654922485351562500e+01 -1.216334328055381775e-01 -2.036559022963047028e-02 -4.259970784187316895e-02 -8.030595630407333374e-02
3.821000000000000000e+03 3.593245697021484375e+01 1.556939315795898438e+01 -1.618447005748748779e-01 4.056777432560920715e-02 -3.638307750225067139e-02 -7.492899894714355469e-02
3.822000000000000000e+03 3.521062850952148438e+01 1.585750579833984375e+01 -1.902357935905456543e-01 -1.648354381322860718e-01 -1.065213680267333984e-01 -1.806783527135848999e-01
3.823000000000000000e+03 4.295437622070312500e+01 2.389879035949707031e+01 7.260081171989440918e-01 7.299184799194335938e-01 4.367779791355133057e-01 7.371033430099487305e-01
3.824000000000000000e+03 5.045343780517578125e+01 3.045146560668945312e+01 3.206744670867919922e+00 5.113894939422607422e+00 2.496191978454589844e+00 4.026183128356933594e+00
3.825000000000000000e+03 5.305399322509765625e+01 3.423675537109375000e+01 5.059496402740478516e+00 1.350864315032958984e+01 5.570441722869873047e+00 8.071694374084472656e+00
3.826000000000000000e+03 5.328765106201171875e+01 3.456871032714843750e+01 5.422851085662841797e+00 1.569063949584960938e+01 6.334047317504882812e+00 8.847318649291992188e+00
3.827000000000000000e+03 4.383581924438476562e+01 3.391344451904296875e+01 5.309643596410751343e-02 -9.515116922557353973e-03 1.307439617812633514e-02 1.428351253271102905e-01
3.828000000000000000e+03 3.498828125000000000e+01 2.580248069763183594e+01 8.620296418666839600e-02 1.017896234989166260e-01 5.639777705073356628e-02 6.235225498676300049e-02
3.829000000000000000e+03 1.786978149414062500e+01 -2.770863771438598633e+00 1.789612025022506714e-01 5.914053320884704590e-01 2.311099618673324585e-01 9.172094613313674927e-02
3.830000000000000000e+03 1.802015876770019531e+01 -3.496488809585571289e+00 3.162759840488433838e-01 7.673690915107727051e-01 3.250935375690460205e-01 1.868802458047866821e-01
3.831000000000000000e+03 1.426382303237915039e+00 3.408679008483886719e+00 -9.593755938112735748e-03 -6.148889660835266113e-02 -2.132479473948478699e-02 4.441847279667854309e-02
3.832000000000000000e+03 7.042846202850341797e+00 2.464237928390502930e+00 -1.269669383764266968e-01 -9.738850593566894531e-02 -6.730663776397705078e-02 2.119514793157577515e-01
3.833000000000000000e+03 8.417861938476562500e+00 2.474404573440551758e+00 -1.104211285710334778e-01 -1.834089457988739014e-01 -8.814902603626251221e-02 2.923619151115417480e-01
3.834000000000000000e+03 4.271345615386962891e+00 2.663791894912719727e+00 -6.369675695896148682e-02 -4.917971044778823853e-02 -3.386294096708297729e-02 1.132203862071037292e-01
3.835000000000000000e+03 5.670297622680664062e+00 2.561753034591674805e+00 -9.758290648460388184e-02 -6.391509622335433960e-02 -4.844940081238746643e-02 1.580552756786346436e-01
3.836000000000000000e+03 9.833883285522460938e+00 2.328848600387573242e+00 -2.009613253176212311e-02 -2.991084456443786621e-01 -9.576137363910675049e-02 3.429004251956939697e-01
3.837000000000000000e+03 1.095829963684082031e+01 -2.077905893325805664e+00 -4.492682516574859619e-01 -4.497507587075233459e-03 -1.361297219991683960e-01 -1.875541806221008301e-01
3.838000000000000000e+03 1.028232288360595703e+01 -3.602043390274047852e+00 -2.469710111618041992e-01 -5.312136933207511902e-02 -9.002771228551864624e-02 -2.626347541809082031e-01
3.839000000000000000e+03 1.211873340606689453e+01 2.014337301254272461e+00 6.310205459594726562e-01 -2.623010575771331787e-01 1.106158420443534851e-01 1.814358532428741455e-01
3.840000000000000000e+03 1.052323055267333984e+01 1.694735527038574219e+00 -1.958272904157638550e-01 -3.448200523853302002e-01 -1.621942073106765747e-01 4.647625386714935303e-01
3.841000000000000000e+03 3.089386367797851562e+01 7.836048126220703125e+00 -1.732311211526393890e-02 -3.499171882867813110e-02 -1.569444872438907623e-02 1.184473186731338501e-01
3.842000000000000000e+03 3.050991439819335938e+01 6.827966213226318359e+00 3.214244842529296875e-01 -3.448693826794624329e-02 8.608126640319824219e-02 -1.384296119213104248e-01
3.843000000000000000e+03 3.135541343688964844e+01 7.196743011474609375e+00 1.424497514963150024e-01 -4.610316827893257141e-03 4.135183244943618774e-02 4.402277059853076935e-03
3.844000000000000000e+03 3.105514907836914062e+01 8.303912162780761719e+00 -2.330115586519241333e-01 -2.927390672266483307e-02 -7.868564128875732422e-02 9.345417469739913940e-02
3.845000000000000000e+03 3.019936943054199219e+01 5.652749538421630859e+00 1.367026567459106445e-01 1.298190504312515259e-01 7.995650917291641235e-02 -1.845047920942306519e-01
3.846000000000000000e+03 8.723757743835449219e+00 -2.720136642456054688e+00 -2.333879321813583374e-01 -1.826443523168563843e-02 -7.549571245908737183e-02 -1.652988195419311523e-01
3.847000000000000000e+03 4.439614713191986084e-01 -3.587033748626708984e+00 -6.271586753427982330e-04 -2.646639570593833923e-02 -8.128066547214984894e-03 -9.539352729916572571e-03
3.848000000000000000e+03 1.411963462829589844e+01 -3.043634176254272461e+00 -4.089807271957397461e-01 -2.609279155731201172e-01 -2.009726017713546753e-01 -4.539292454719543457e-01
3.849000000000000000e+03 1.326904487609863281e+01 -3.000423431396484375e+00 -4.562173783779144287e-01 -1.649066060781478882e-01 -1.863372027873992920e-01 -3.964261710643768311e-01
3.850000000000000000e+03 2.939281272888183594e+01 -5.808382034301757812e+00 -2.891491055488586426e-01 -2.366029918193817139e-01 -1.577256321907043457e-01 2.394359111785888672e-01
3.851000000000000000e+03 2.826604080200195312e+01 -6.226284980773925781e+00 -3.718668818473815918e-01 -4.078566431999206543e-01 -2.339170575141906738e-01 3.734401166439056396e-01
3.852000000000000000e+03 2.209241104125976562e+01 -8.828026652336120605e-01 -1.587997317314147949e+00 -5.178051590919494629e-01 -6.317407488822937012e-01 5.832716822624206543e-01
3.853000000000000000e+03 3.926698684692382812e+00 -3.076122760772705078e+00 -5.382140725851058960e-02 -4.073832556605339050e-02 -2.836791984736919403e-02 -7.888789474964141846e-02
3.854000000000000000e+03 5.543839931488037109e+00 -2.827847719192504883e+00 -9.845891594886779785e-02 -3.161983191967010498e-02 -3.902362659573554993e-02 -1.056266427040100098e-01
3.855000000000000000e+03 3.962971115112304688e+01 -2.153393554687500000e+01 4.323206096887588501e-02 1.671035170555114746e+00 5.142802000045776367e-01 -5.224540829658508301e-01
3.856000000000000000e+03 2.347424316406250000e+01 -2.383590221405029297e+00 -7.342455983161926270e-01 -5.532556772232055664e-01 -3.862503767013549805e-01 6.370763778686523438e-01
3.857000000000000000e+03 2.046782302856445312e+01 -4.121387600898742676e-01 -1.750847339630126953e+00 2.387412637472152710e-01 -4.536318182945251465e-01 5.353559851646423340e-01
3.858000000000000000e+03 2.114003562927246094e+01 -7.656677961349487305e-01 -2.113502264022827148e+00 -2.817221581935882568e-01 -7.185673117637634277e-01 7.286070585250854492e-01
3.859000000000000000e+03 2.638289833068847656e+01 -5.027276515960693359e+00 -4.351979494094848633e-01 -4.739520251750946045e-01 -2.727449834346771240e-01 4.402651786804199219e-01
3.860000000000000000e+03 1.806671333312988281e+01 -4.410395622253417969e+00 2.661871910095214844e-01 8.474557995796203613e-01 3.340928852558135986e-01 2.908932268619537354e-01
3.861000000000000000e+03 2.071902084350585938e+01 -1.414635086059570312e+01 1.210952848196029663e-01 4.866900742053985596e-01 1.823356002569198608e-01 -2.248843014240264893e-01
3.862000000000000000e+03 1.800343322753906250e+01 -5.548422813415527344e+00 1.383093297481536865e-01 9.324063062667846680e-01 3.212146759033203125e-01 1.529490202665328979e-01
3.863000000000000000e+03 3.146534729003906250e+01 -1.179710388183593750e+01 -1.437104195356369019e-01 -1.793905198574066162e-01 -9.693028032779693604e-02 2.009591311216354370e-01
3.864000000000000000e+03 2.754240608215332031e+01 -2.272632217407226562e+01 1.226021870970726013e-01 4.732420742511749268e-01 1.787532716989517212e-01 -2.244455963373184204e-01
3.865000000000000000e+03 2.577252388000488281e+01 -1.905414199829101562e+01 1.078063398599624634e-01 4.458842873573303223e-01 1.661071926355361938e-01 -2.400796115398406982e-01
3.866000000000000000e+03 2.078550148010253906e+01 -1.083228206634521484e+01 1.734215319156646729e-01 6.410313248634338379e-01 2.443358600139617920e-01 -3.107601702213287354e-01
3.867000000000000000e+03 3.883976745605468750e+01 -2.378218650817871094e+01 1.832523643970489502e-01 1.238732695579528809e+00 4.265955090522766113e-01 -5.674639940261840820e-01
3.868000000000000000e+03 2.491570472717285156e+01 -2.612019538879394531e+00 -5.755882263183593750e-01 -3.835878670215606689e-01 -2.877528071403503418e-01 4.310346841812133789e-01
3.869000000000000000e+03 7.928942108154296875e+01 1.382339954376220703e+01 -9.468994103372097015e-03 8.313718795776367188e+00 2.491275072097778320e+00 -1.250947117805480957e-01
3.870000000000000000e+03 7.923351287841796875e+01 6.910575866699218750e+00 -5.396302789449691772e-03 9.088557243347167969e+00 2.724948406219482422e+00 -8.484313637018203735e-02
3.871000000000000000e+03 1.753452658653259277e+00 5.175826549530029297e+00 3.314709290862083435e-03 -1.115795969963073730e-01 -3.247946500778198242e-02 5.875958874821662903e-02
3.872000000000000000e+03 3.117565917968750000e+01 -8.783237457275390625e+00 -2.465570569038391113e-01 -8.690550923347473145e-02 -1.000387668609619141e-01 2.091902345418930054e-01
3.873000000000000000e+03 3.376110458374023438e+01 -1.542063522338867188e+01 -5.939775332808494568e-02 1.038540080189704895e-01 1.333687640726566315e-02 1.634063944220542908e-02
3.874000000000000000e+03 5.545238113403320312e+01 3.647897338867187500e+01 5.092013835906982422e+00 1.845439147949218750e+01 7.063921928405761719e+00 1.198010683059692383e+00
3.875000000000000000e+03 3.240457057952880859e+00 -6.882481098175048828e+00 -7.492162752896547318e-03 -1.384520679712295532e-01 -4.378326982259750366e-02 -1.120336949825286865e-01
3.876000000000000000e+03 7.618358612060546875e+01 1.109756088256835938e+01 -6.912454962730407715e-02 8.325179100036621094e+00 2.476816415786743164e+00 -4.257017672061920166e-01
3.877000000000000000e+03 2.283789157867431641e+00 2.486205291748046875e+01 1.663589500822126865e-03 -1.440484225749969482e-01 -4.271545261144638062e-02 -1.034311484545469284e-02
3.878000000000000000e+03 2.475092172622680664e+00 2.334853172302246094e+01 -4.568845033645629883e-03 -1.457212716341018677e-01 -4.508703574538230896e-02 -1.297332346439361572e-02
3.879000000000000000e+03 7.678947448730468750e+01 1.491762042045593262e+00 -3.225360438227653503e-02 8.952358245849609375e+00 2.676031351089477539e+00 -1.276443749666213989e-01
3.880000000000000000e+03 1.620066261291503906e+01 -8.438420295715332031e+00 2.044963985681533813e-01 2.869946360588073730e-01 1.474473178386688232e-01 -1.625922694802284241e-02
3.881000000000000000e+03 3.491169929504394531e+00 8.097180366516113281e+00 3.420328348875045776e-02 -1.451676338911056519e-01 -3.328930586576461792e-02 5.423734337091445923e-02
3.882000000000000000e+03 3.189579963684082031e+01 -3.364984512329101562e+01 1.706712245941162109e-01 3.678461313247680664e-01 1.615552008152008057e-01 -2.288910746574401855e-01
3.883000000000000000e+03 7.615549468994140625e+01 -1.959362983703613281e+01 -1.134280953556299210e-02 8.667021751403808594e+00 2.596703767776489258e+00 1.518951058387756348e-01
3.884000000000000000e+03 7.736976623535156250e+01 -1.877823829650878906e+01 -4.664519801735877991e-03 8.894676208496093750e+00 2.667003393173217773e+00 1.074843481183052063e-01
3.885000000000000000e+03 3.942918014526367188e+01 -1.973780822753906250e+01 -2.338742464780807495e-02 1.660390734672546387e+00 4.911009967327117920e-01 -4.228496551513671875e-01
3.886000000000000000e+03 7.546323394775390625e+01 1.949364471435546875e+01 -1.062350720167160034e-01 7.433893680572509766e+00 2.198297500610351562e+00 -8.236197233200073242e-01
3.887000000000000000e+03 7.407905578613281250e+01 -3.686840057373046875e+01 5.424050241708755493e-02 7.975336074829101562e+00 2.408872842788696289e+00 1.067878603935241699e-01
3.888000000000000000e+03 4.216250991821289062e+01 3.618077087402343750e+01 5.198387801647186279e-02 1.417182087898254395e-01 5.811062455177307129e-02 5.419829487800598145e-02
3.889000000000000000e+03 4.314238739013671875e+01 3.604129028320312500e+01 1.030149981379508972e-01 -3.772686794400215149e-02 1.958643831312656403e-02 2.512696757912635803e-02
3.890000000000000000e+03 4.588572311401367188e+01 3.779219436645507812e+01 -1.355138272047042847e-01 1.882779300212860107e-01 1.582922972738742828e-02 3.374156951904296875e-01
3.891000000000000000e+03 4.605817413330078125e+01 3.697810363769531250e+01 9.027381427586078644e-03 -6.293625384569168091e-02 -1.617266237735748291e-02 4.973341524600982666e-02
3.892000000000000000e+03 3.711692047119140625e+01 3.419337844848632812e+01 8.053305000066757202e-02 1.015847921371459961e-01 5.463535338640213013e-02 3.336397558450698853e-02
3.893000000000000000e+03 7.663899993896484375e+01 3.745724487304687500e+01 2.524296045303344727e-01 4.358548164367675781e+00 1.383293390274047852e+00 -2.566183507442474365e-01
3.894000000000000000e+03 5.250915527343750000e+01 -3.389964294433593750e+01 6.630266904830932617e-01 5.888740539550781250e+00 1.965530157089233398e+00 1.596119254827499390e-01
3.895000000000000000e+03 4.472391891479492188e+01 -3.877374649047851562e+01 8.973358273506164551e-01 5.572953224182128906e+00 1.941086649894714355e+00 7.907898426055908203e-01
3.896000000000000000e+03 2.754982757568359375e+01 4.264368534088134766e+00 4.660819098353385925e-02 -1.168903782963752747e-01 -2.108465507626533508e-02 -8.349479734897613525e-02
3.897000000000000000e+03 2.737834358215332031e+01 4.143595695495605469e+00 5.300209671258926392e-02 -1.148894354701042175e-01 -1.856620237231254578e-02 -8.795264363288879395e-02
3.898000000000000000e+03 2.248549652099609375e+01 1.006605386734008789e+00 -4.079481363296508789e-01 -1.460618376731872559e-01 -1.662029922008514404e-01 3.194574266672134399e-02
3.899000000000000000e+03 1.819493865966796875e+01 -1.207556486129760742e+00 -9.767813682556152344e-01 4.588907361030578613e-01 -1.553671807050704956e-01 -3.000283539295196533e-01
3.900000000000000000e+03 2.650678825378417969e+01 3.417289495468139648e+00 5.178759992122650146e-02 -1.383990943431854248e-01 -2.598344720900058746e-02 -9.365598112344741821e-02
3.901000000000000000e+03 2.588521575927734375e+01 3.521268129348754883e+00 6.560506671667098999e-02 -1.387973725795745850e-01 -2.195769175887107849e-02 -8.293629437685012817e-02
3.902000000000000000e+03 2.724452400207519531e+01 4.383792400360107422e+00 4.358715191483497620e-02 -1.307097673416137695e-01 -2.613678574562072754e-02 -8.731086552143096924e-02
3.903000000000000000e+03 2.846544265747070312e+01 5.101472377777099609e+00 1.655788160860538483e-02 -1.972988061606884003e-02 -9.515996789559721947e-04 -6.909021735191345215e-02
3.904000000000000000e+03 2.527945709228515625e+01 2.965831518173217773e+00 5.622854456305503845e-02 -1.267627924680709839e-01 -2.116027288138866425e-02 -8.791420608758926392e-02
3.905000000000000000e+03 2.179400253295898438e+01 9.889609217643737793e-01 -4.395930171012878418e-01 -1.063035652041435242e-01 -1.637689769268035889e-01 1.197283789515495300e-01
3.906000000000000000e+03 1.741298675537109375e+01 -2.926180124282836914e+00 9.855763614177703857e-02 1.488041281700134277e-01 7.420852780342102051e-02 -1.264878176152706146e-02
3.907000000000000000e+03 1.683924484252929688e+01 -2.613077640533447266e+00 -1.652316749095916748e-01 -2.076659500598907471e-01 -1.118692904710769653e-01 -1.697155386209487915e-01
3.908000000000000000e+03 2.312232017517089844e+01 1.594199538230895996e+00 -1.557274460792541504e-01 -1.374395191669464111e-01 -8.795008808374404907e-02 -3.666338324546813965e-02
3.909000000000000000e+03 1.830202674865722656e+01 -1.609516382217407227e+00 -6.418336629867553711e-01 6.633284687995910645e-01 6.448450032621622086e-03 -1.325360089540481567e-01
3.910000000000000000e+03 2.148298263549804688e+01 1.190221756696701050e-01 -1.015447139739990234e+00 -1.117897853255271912e-01 -3.381710946559906006e-01 2.430996000766754150e-01
3.911000000000000000e+03 1.733177757263183594e+01 -2.415068626403808594e+00 -6.901909410953521729e-02 4.720362275838851929e-02 -6.544642616063356400e-03 -1.118839234113693237e-01
3.912000000000000000e+03 1.658376312255859375e+01 -2.276795148849487305e+00 -4.452188014984130859e-01 -3.826967477798461914e-01 -2.483746707439422607e-01 -3.004702329635620117e-01
3.913000000000000000e+03 2.518047523498535156e+01 3.141059160232543945e+00 7.362633943557739258e-02 -1.338709294795989990e-01 -1.807337813079357147e-02 -7.186906039714813232e-02
3.914000000000000000e+03 2.415700531005859375e+01 2.473711252212524414e+00 4.364719241857528687e-02 -1.349017620086669922e-01 -2.737637236714363098e-02 -6.000990048050880432e-02
3.915000000000000000e+03 1.718164443969726562e+01 -1.967348575592041016e+00 -6.555745005607604980e-01 -1.698514223098754883e-01 -2.476277798414230347e-01 -3.190211653709411621e-01
3.916000000000000000e+03 2.798869705200195312e+01 4.289940357208251953e+00 4.498651251196861267e-02 -7.752142846584320068e-02 -9.760473854839801788e-03 -7.941078394651412964e-02
3.917000000000000000e+03 2.570813941955566406e+01 3.414499044418334961e+00 7.076230645179748535e-02 -1.252320259809494019e-01 -1.634091511368751526e-02 -8.556793630123138428e-02
3.918000000000000000e+03 2.530017852783203125e+01 2.671686649322509766e+00 3.334200009703636169e-02 -1.370310932397842407e-01 -3.110672719776630402e-02 -9.582283347845077515e-02
3.919000000000000000e+03 2.622025871276855469e+01 3.753226041793823242e+00 6.392260640859603882e-02 -1.390523016452789307e-01 -2.253891155123710632e-02 -8.472854644060134888e-02
3.920000000000000000e+03 2.549316215515136719e+01 2.513403654098510742e+00 1.796524622477591038e-03 -1.517570763826370239e-01 -4.498816654086112976e-02 -9.742289781570434570e-02
3.921000000000000000e+03 2.414483833312988281e+01 2.250537157058715820e+00 -4.307981580495834351e-03 -1.361283212900161743e-01 -4.213089123368263245e-02 -6.702930480241775513e-02
3.922000000000000000e+03 3.028995704650878906e+01 2.158016777038574219e+01 7.539978623390197754e-02 9.299757331609725952e-02 5.051920935511589050e-02 9.148071706295013428e-02
3.923000000000000000e+03 3.341969299316406250e+01 2.409483909606933594e+01 6.892318278551101685e-02 1.025299504399299622e-01 5.143593996763229370e-02 7.452985644340515137e-02
3.924000000000000000e+03 2.014894104003906250e+01 -9.378861635923385620e-02 -1.327268123626708984e+00 6.943135261535644531e-01 -1.898863613605499268e-01 4.794388413429260254e-01
3.925000000000000000e+03 2.087069129943847656e+01 1.958014219999313354e-01 -1.108425140380859375e+00 -2.869088388979434967e-02 -3.411348164081573486e-01 4.044403433799743652e-01
3.926000000000000000e+03 4.211687088012695312e+01 3.425933456420898438e+01 1.384064555168151855e-01 1.189255490899085999e-01 7.719960063695907593e-02 3.649601712822914124e-02
3.927000000000000000e+03 1.498719978332519531e+01 5.041069984436035156e+00 2.298237681388854980e-01 4.150115847587585449e-01 1.934506148099899292e-01 3.239466845989227295e-01
3.928000000000000000e+03 1.967340278625488281e+01 1.032554626464843750e+01 1.490509659051895142e-01 1.742384582757949829e-01 9.698682278394699097e-02 1.702826768159866333e-01
3.929000000000000000e+03 3.094532394409179688e+01 2.202972793579101562e+01 6.888582557439804077e-02 9.141199290752410889e-02 4.808934777975082397e-02 8.990722149610519409e-02
3.930000000000000000e+03 3.124133110046386719e+01 2.166577720642089844e+01 8.781103044748306274e-02 9.258259832859039307e-02 5.411808937788009644e-02 8.134517818689346313e-02
3.931000000000000000e+03 5.477167129516601562e+01 3.669341659545898438e+01 3.144696235656738281e+00 2.371281242370605469e+01 8.057252883911132812e+00 1.150279045104980469e+00
3.932000000000000000e+03 1.670980262756347656e+01 7.306299686431884766e+00 1.769302189350128174e-01 2.613546848297119141e-01 1.314854770898818970e-01 2.244378775358200073e-01
3.933000000000000000e+03 1.620343017578125000e+01 6.721581459045410156e+00 1.919468194246292114e-01 3.066379427909851074e-01 1.495754271745681763e-01 2.372695505619049072e-01
3.934000000000000000e+03 2.072154426574707031e+01 1.263608455657958984e+01 1.232071071863174438e-01 1.661244183778762817e-01 8.679945766925811768e-02 1.435954719781875610e-01
3.935000000000000000e+03 3.420117950439453125e+01 2.496055603027343750e+01 5.939859524369239807e-02 8.609349280595779419e-02 4.364762455224990845e-02 8.745138347148895264e-02
3.936000000000000000e+03 4.000195693969726562e+01 2.010129737854003906e+01 1.571366935968399048e-01 4.799011051654815674e-01 1.911113411188125610e-01 3.141226172447204590e-01
3.937000000000000000e+03 4.988289260864257812e+01 3.870610427856445312e+01 -1.473285436630249023e+00 1.786593496799468994e-01 -3.883878290653228760e-01 9.215217828750610352e-02
3.938000000000000000e+03 5.038273620605468750e+01 3.801379013061523438e+01 -2.250341892242431641e+00 -2.364240288734436035e-01 -7.460297346115112305e-01 -7.966333627700805664e-01
3.939000000000000000e+03 3.298468017578125000e+01 1.243254280090332031e+01 -3.876084387302398682e-01 -1.984027326107025146e-01 -1.758033484220504761e-01 -2.974933683872222900e-01
3.940000000000000000e+03 3.241682052612304688e+01 1.245971965789794922e+01 -4.221027493476867676e-01 -3.125520050525665283e-01 -2.203964293003082275e-01 -3.784250617027282715e-01
3.941000000000000000e+03 4.063450241088867188e+01 2.056299400329589844e+01 2.193922102451324463e-01 6.074468493461608887e-01 2.480517178773880005e-01 4.181515872478485107e-01
3.942000000000000000e+03 2.408278465270996094e+01 1.521389484405517578e+01 1.131203919649124146e-01 1.341592073440551758e-01 7.418388128280639648e-02 1.280750930309295654e-01
3.943000000000000000e+03 5.395209503173828125e+01 3.467564010620117188e+01 3.633829116821289062e+00 2.067701339721679688e+01 7.293252944946289062e+00 5.852650642395019531e+00
3.944000000000000000e+03 5.520148468017578125e+01 3.449763107299804688e+01 3.795824527740478516e+00 1.744198417663574219e+01 6.371342182159423828e+00 1.536566972732543945e+00
3.945000000000000000e+03 2.074806594848632812e+01 1.066490459442138672e+01 1.511923223733901978e-01 1.802114695310592651e-01 9.942113608121871948e-02 1.642857342958450317e-01
3.946000000000000000e+03 3.520347213745117188e+01 2.613527107238769531e+01 4.485051333904266357e-02 8.338584005832672119e-02 3.847090527415275574e-02 9.705699235200881958e-02
3.947000000000000000e+03 2.127852821350097656e+01 1.191900253295898438e+01 1.383475810289382935e-01 1.663968563079833984e-01 9.142333269119262695e-02 1.536711603403091431e-01
3.948000000000000000e+03 2.184423637390136719e+01 1.303786849975585938e+01 1.308152526617050171e-01 1.570128351449966431e-01 8.634842187166213989e-02 1.445089131593704224e-01
3.949000000000000000e+03 2.157485961914062500e+01 1.276999092102050781e+01 1.312834471464157104e-01 1.616808772087097168e-01 8.788929134607315063e-02 1.450443416833877563e-01
3.950000000000000000e+03 2.520045852661132812e+01 1.649631500244140625e+01 1.070611923933029175e-01 1.249546930193901062e-01 6.960476934909820557e-02 1.185414418578147888e-01
3.951000000000000000e+03 4.671585845947265625e+01 2.645001983642578125e+01 1.325267076492309570e+00 2.169435501098632812e+00 1.048410773277282715e+00 1.777600884437561035e+00
3.952000000000000000e+03 3.881557846069335938e+01 1.912140464782714844e+01 6.617783755064010620e-02 3.070810735225677490e-01 1.119776666164398193e-01 1.764512807130813599e-01
3.953000000000000000e+03 3.314082717895507812e+01 2.382428741455078125e+01 6.688369065523147583e-02 8.279863744974136353e-02 4.490469768643379211e-02 8.430024981498718262e-02
3.954000000000000000e+03 3.158130836486816406e+01 2.267434310913085938e+01 6.044754385948181152e-02 9.591231495141983032e-02 4.690795764327049255e-02 8.542094379663467407e-02
3.955000000000000000e+03 4.665753173828125000e+01 2.699107170104980469e+01 1.472667813301086426e+00 1.926604866981506348e+00 1.019781827926635742e+00 1.730205535888671875e+00
3.956000000000000000e+03 1.583295440673828125e+01 6.965064048767089844e+00 1.732276231050491333e-01 3.260784447193145752e-01 1.497918218374252319e-01 2.177578359842300415e-01
3.957000000000000000e+03 3.785982513427734375e+01 3.017545700073242188e+01 8.127263188362121582e-02 9.935621172189712524e-02 5.418865382671356201e-02 6.283549964427947998e-02
3.958000000000000000e+03 4.320156097412109375e+01 2.290916824340820312e+01 5.734329223632812500e-01 1.131869435310363770e+00 5.115907192230224609e-01 8.531462550163269043e-01
3.959000000000000000e+03 4.283006286621093750e+01 2.271122360229492188e+01 5.363293886184692383e-01 1.001838207244873047e+00 4.614502787590026855e-01 7.721136212348937988e-01
3.960000000000000000e+03 2.927375793457031250e+01 2.084874916076660156e+01 8.133067935705184937e-02 1.066037192940711975e-01 5.638032034039497375e-02 9.137856960296630859e-02
3.961000000000000000e+03 3.040128326416015625e+01 1.036524486541748047e+01 -8.399688601493835449e-01 -3.615823686122894287e-01 -3.604653775691986084e-01 -5.256489515304565430e-01
3.962000000000000000e+03 3.482128906250000000e+01 1.473687171936035156e+01 -2.393446862697601318e-01 -1.105720475316047668e-01 -1.049750223755836487e-01 -1.818976849317550659e-01
3.963000000000000000e+03 2.775160789489746094e+01 1.842333984375000000e+01 1.031156182289123535e-01 1.153015345335006714e-01 6.552514433860778809e-02 1.055093035101890564e-01
3.964000000000000000e+03 4.751660919189453125e+01 2.711611747741699219e+01 1.543933272361755371e+00 2.592544078826904297e+00 1.240943193435668945e+00 2.082908630371093750e+00
3.965000000000000000e+03 4.782704544067382812e+01 2.677254104614257812e+01 1.378215074539184570e+00 3.012180805206298828e+00 1.317118763923645020e+00 2.154894828796386719e+00
3.966000000000000000e+03 4.064216995239257812e+01 3.163092994689941406e+01 1.137929558753967285e-01 8.761053532361984253e-02 6.042104586958885193e-02 5.055686458945274353e-02
3.967000000000000000e+03 2.827223587036132812e+01 1.939102745056152344e+01 9.994059056043624878e-02 1.082833856344223022e-01 6.246719136834144592e-02 9.848324954509735107e-02
3.968000000000000000e+03 2.845015144348144531e+01 1.968900108337402344e+01 8.558488637208938599e-02 1.047666743397712708e-01 5.710546672344207764e-02 1.038490757346153259e-01
3.969000000000000000e+03 3.218769073486328125e+01 1.175208950042724609e+01 -5.066687464714050293e-01 -2.627573311328887939e-01 -2.308278232812881470e-01 -3.567221760749816895e-01
3.970000000000000000e+03 3.767456436157226562e+01 2.871539497375488281e+01 8.692314475774765015e-02 1.018879637122154236e-01 5.664333328604698181e-02 5.944497510790824890e-02
3.971000000000000000e+03 3.713401794433593750e+01 2.766479873657226562e+01 8.892431855201721191e-02 1.150536984205245972e-01 6.119340285658836365e-02 7.214820384979248047e-02
3.972000000000000000e+03 1.433111381530761719e+01 5.004183292388916016e+00 1.634730696678161621e-01 6.686872839927673340e-01 2.496480941772460938e-01 2.926012873649597168e-01
3.973000000000000000e+03 3.933209609985351562e+01 2.996649932861328125e+01 8.829567581415176392e-02 8.886976540088653564e-02 5.314963310956954956e-02 6.605160981416702271e-02
3.974000000000000000e+03 5.346619796752929688e+01 3.398545074462890625e+01 3.741060018539428711e+00 1.546649456024169922e+01 5.762266159057617188e+00 6.926355838775634766e+00
3.975000000000000000e+03 1.600642585754394531e+01 8.089162826538085938e+00 1.333220899105072021e-01 2.881271243095397949e-01 1.264347583055496216e-01 1.873822510242462158e-01
3.976000000000000000e+03 1.733111381530761719e+01 8.076429367065429688e+00 1.750202625989913940e-01 2.300924360752105713e-01 1.215338110923767090e-01 2.032213211059570312e-01
3.977000000000000000e+03 5.042172622680664062e+01 2.994316291809082031e+01 2.766067028045654297e+00 5.240736007690429688e+00 2.402040958404541016e+00 3.783216953277587891e+00
3.978000000000000000e+03 4.845091247558593750e+01 2.848923492431640625e+01 2.182484865188598633e+00 3.044902324676513672e+00 1.568216085433959961e+00 2.543253421783447266e+00
3.979000000000000000e+03 1.919606781005859375e+01 -1.444741249084472656e+00 -4.963708817958831787e-01 1.494793295860290527e+00 2.995267212390899658e-01 2.425452694296836853e-02
3.980000000000000000e+03 3.154004859924316406e+01 1.130436229705810547e+01 -6.007878184318542480e-01 -3.275804817676544189e-01 -2.785104811191558838e-01 -4.104580879211425781e-01
3.981000000000000000e+03 4.167507553100585938e+01 2.230939674377441406e+01 4.320958554744720459e-01 6.172047257423400879e-01 3.147901594638824463e-01 5.203775167465209961e-01
3.982000000000000000e+03 4.192092514038085938e+01 2.203942108154296875e+01 4.141143858432769775e-01 7.709732055664062500e-01 3.555262684822082520e-01 5.886811614036560059e-01
3.983000000000000000e+03 5.292319488525390625e+01 3.242343139648437500e+01 3.198741436004638672e+00 1.120265007019042969e+01 4.320417404174804688e+00 5.322165489196777344e+00
3.984000000000000000e+03 3.705461502075195312e+01 1.791335678100585938e+01 -4.784190654754638672e-02 4.670734982937574387e-03 -1.295135170221328735e-02 -2.676616050302982330e-02
3.985000000000000000e+03 3.603505325317382812e+01 1.630407714843750000e+01 -1.460702568292617798e-01 -3.551747277379035950e-02 -5.447631701827049255e-02 -9.403388202190399170e-02
3.986000000000000000e+03 3.593791580200195312e+01 1.596784305572509766e+01 -1.567197740077972412e-01 -8.459678851068019867e-03 -4.955383762717247009e-02 -9.046205878257751465e-02
3.987000000000000000e+03 5.027169418334960938e+01 2.960186958312988281e+01 2.487278938293457031e+00 5.140649318695068359e+00 2.288378477096557617e+00 3.568430423736572266e+00
3.988000000000000000e+03 3.791477203369140625e+01 1.819167137145996094e+01 -3.390660742297768593e-03 1.996803283691406250e-01 5.888689681887626648e-02 8.347794413566589355e-02
3.989000000000000000e+03 3.888448333740234375e+01 1.832002258300781250e+01 4.780902341008186340e-02 4.419855475425720215e-01 1.469383686780929565e-01 2.205427736043930054e-01
3.990000000000000000e+03 2.963198280334472656e+01 2.108042907714843750e+01 8.246605098247528076e-02 9.420281648635864258e-02 5.300066247582435608e-02 9.447783976793289185e-02
3.991000000000000000e+03 4.115900421142578125e+01 2.120507621765136719e+01 2.943805456161499023e-01 6.624313592910766602e-01 2.870435714721679688e-01 4.858483374118804932e-01
3.992000000000000000e+03 4.084078598022460938e+01 2.147901725769042969e+01 2.853019833564758301e-01 4.872676730155944824e-01 2.317708879709243774e-01 3.946936428546905518e-01
3.993000000000000000e+03 4.813688659667968750e+01 2.823956489562988281e+01 2.061158657073974609e+00 2.756683111190795898e+00 1.445352554321289062e+00 2.397603034973144531e+00
3.994000000000000000e+03 3.734817886352539062e+01 2.881806373596191406e+01 6.252309679985046387e-02 9.698696434497833252e-02 4.785301908850669861e-02 8.456138521432876587e-02
3.995000000000000000e+03 2.066213607788085938e+01 -1.094414368271827698e-01 -1.529491782188415527e+00 -1.343084871768951416e-01 -4.991400837898254395e-01 6.776990890502929688e-01
3.996000000000000000e+03 5.298186492919921875e+01 3.332382583618164062e+01 3.923470497131347656e+00 1.231853103637695312e+01 4.872600555419921875e+00 6.503558635711669922e+00
3.997000000000000000e+03 3.097713851928710938e+01 1.013099670410156250e+01 -7.143334150314331055e-01 -1.968950182199478149e-01 -2.733685374259948730e-01 -3.235166966915130615e-01
3.998000000000000000e+03 3.078154945373535156e+01 1.119560718536376953e+01 -7.019848227500915527e-01 -4.773975610733032227e-01 -3.538147211074829102e-01 -5.686259865760803223e-01
3.999000000000000000e+03 4.952341842651367188e+01 2.962028884887695312e+01 2.736470460891723633e+00 3.971148490905761719e+00 2.012285709381103516e+00 3.279852390289306641e+00
4.000000000000000000e+03 4.219152069091796875e+01 3.338662719726562500e+01 1.583842039108276367e-01 1.063824221491813660e-01 7.942998409271240234e-02 5.260485410690307617e-02
4.001000000000000000e+03 4.031687545776367188e+01 3.142399024963378906e+01 6.386524438858032227e-02 4.366391524672508240e-02 3.225874900817871094e-02 8.890175819396972656e-02
4.002000000000000000e+03 4.422849655151367188e+01 3.507747650146484375e+01 1.260143220424652100e-01 2.060979306697845459e-01 9.963367879390716553e-02 1.610284484922885895e-02
4.003000000000000000e+03 2.696563529968261719e+01 1.741625595092773438e+01 1.097901761531829834e-01 1.214832216501235962e-01 6.938201934099197388e-02 1.165578812360763550e-01
4.004000000000000000e+03 4.266299438476562500e+01 3.423610305786132812e+01 1.890486031770706177e-01 -6.557199172675609589e-03 5.474742129445075989e-02 4.027613252401351929e-02
4.005000000000000000e+03 3.411099624633789062e+01 1.395712566375732422e+01 -2.951532602310180664e-01 -1.744087934494018555e-01 -1.408686190843582153e-01 -2.338129281997680664e-01
4.006000000000000000e+03 3.446890640258789062e+01 1.417951774597167969e+01 -2.645695507526397705e-01 -1.242112666368484497e-01 -1.166342422366142273e-01 -1.916399002075195312e-01
4.007000000000000000e+03 5.127092361450195312e+01 3.072474861145019531e+01 2.978349208831787109e+00 6.820725917816162109e+00 2.939722537994384766e+00 4.343012809753417969e+00
4.008000000000000000e+03 5.252034759521484375e+01 3.266983032226562500e+01 3.950328350067138672e+00 1.042509078979492188e+01 4.312625885009765625e+00 5.943258762359619141e+00
4.009000000000000000e+03 2.638392066955566406e+01 1.744118309020996094e+01 1.050640195608139038e-01 1.221718937158584595e-01 6.817077845335006714e-02 1.130249053239822388e-01
4.010000000000000000e+03 4.216405487060546875e+01 2.177521896362304688e+01 3.986943066120147705e-01 9.262569546699523926e-01 3.974853754043579102e-01 6.552907824516296387e-01
4.011000000000000000e+03 3.094223022460937500e+01 2.143023681640625000e+01 7.652548700571060181e-02 8.977388590574264526e-02 4.988981038331985474e-02 9.108463674783706665e-02
4.012000000000000000e+03 3.763791656494140625e+01 1.788788223266601562e+01 -2.513957209885120392e-02 1.697326004505157471e-01 4.337790608406066895e-02 5.707291886210441589e-02
4.013000000000000000e+03 2.260655212402343750e+01 1.392589092254638672e+01 1.298060566186904907e-01 1.533860713243484497e-01 8.495763689279556274e-02 1.336136758327484131e-01
4.014000000000000000e+03 2.322745704650878906e+01 1.390355491638183594e+01 1.390657722949981689e-01 1.513613313436508179e-01 8.712813258171081543e-02 1.372957080602645874e-01
4.015000000000000000e+03 3.930635452270507812e+01 3.069289016723632812e+01 8.791946619749069214e-02 9.443777799606323242e-02 5.470717325806617737e-02 5.594727769494056702e-02
4.016000000000000000e+03 4.340422439575195312e+01 3.437089538574218750e+01 1.527961194515228271e-01 1.049414873123168945e-01 7.732128351926803589e-02 -6.356347352266311646e-03
4.017000000000000000e+03 3.686448669433593750e+01 2.806952667236328125e+01 6.534915417432785034e-02 7.130195200443267822e-02 4.099533334374427795e-02 8.752645552158355713e-02
4.018000000000000000e+03 3.716946411132812500e+01 2.829828834533691406e+01 8.738218992948532104e-02 1.064726784825325012e-01 5.815646052360534668e-02 6.598634272813796997e-02
4.019000000000000000e+03 1.822884750366210938e+01 8.695708274841308594e+00 1.859520673751831055e-01 2.192108631134033203e-01 1.215488836169242859e-01 1.901217997074127197e-01
4.020000000000000000e+03 1.748704910278320312e+01 8.609320640563964844e+00 1.662804484367370605e-01 2.261718660593032837e-01 1.177356988191604614e-01 1.898870468139648438e-01
4.021000000000000000e+03 4.165407562255859375e+01 2.178523445129394531e+01 3.746255934238433838e-01 7.218391895294189453e-01 3.289394378662109375e-01 5.476592779159545898e-01
4.022000000000000000e+03 3.896581649780273438e+01 3.041568565368652344e+01 6.819796562194824219e-02 6.012092903256416321e-02 3.849566727876663208e-02 8.975361287593841553e-02
4.023000000000000000e+03 3.168829345703125000e+01 1.163735008239746094e+01 -5.704548954963684082e-01 -3.690630197525024414e-01 -2.818553745746612549e-01 -4.357379674911499023e-01
4.024000000000000000e+03 3.240940856933593750e+01 1.198566627502441406e+01 -4.592559039592742920e-01 -2.401066273450851440e-01 -2.098087519407272339e-01 -3.442589640617370605e-01
4.025000000000000000e+03 5.188618087768554688e+01 3.160253906250000000e+01 3.506587743759155273e+00 8.309630393981933594e+00 3.544865369796752930e+00 4.958265781402587891e+00
4.026000000000000000e+03 5.095686721801757812e+01 3.024631118774414062e+01 2.674144029617309570e+00 6.241475582122802734e+00 2.674685716629028320e+00 4.012416362762451172e+00
4.027000000000000000e+03 3.377849197387695312e+01 1.373957729339599609e+01 -3.224238753318786621e-01 -2.190137952566146851e-01 -1.624312996864318848e-01 -2.636666297912597656e-01
4.028000000000000000e+03 3.347225189208984375e+01 1.353835391998291016e+01 -3.348567187786102295e-01 -2.570704221725463867e-01 -1.775781363248825073e-01 -2.884516119956970215e-01
4.029000000000000000e+03 3.370976638793945312e+01 1.284970855712890625e+01 -3.249122798442840576e-01 -1.029668450355529785e-01 -1.283637285232543945e-01 -2.172148972749710083e-01
4.030000000000000000e+03 1.807669639587402344e+01 9.148131370544433594e+00 1.637196689844131470e-01 2.180471569299697876e-01 1.145300492644309998e-01 1.774868369102478027e-01
4.031000000000000000e+03 1.880548858642578125e+01 9.716125488281250000e+00 1.522600203752517700e-01 2.026374191045761108e-01 1.064692363142967224e-01 1.737212985754013062e-01
4.032000000000000000e+03 1.797616004943847656e+01 8.908709526062011719e+00 1.673842817544937134e-01 2.173241823911666870e-01 1.154125407338142395e-01 1.818085759878158569e-01
4.033000000000000000e+03 4.115225982666015625e+01 3.206303787231445312e+01 1.303206682205200195e-01 8.864907175302505493e-02 6.569091975688934326e-02 3.595152124762535095e-02
4.034000000000000000e+03 2.930804824829101562e+01 4.913302421569824219e+00 2.606220543384552002e-02 9.750106185674667358e-02 3.706897795200347900e-02 -1.079033762216567993e-01
4.035000000000000000e+03 4.081591796875000000e+01 3.216165542602539062e+01 7.470656931400299072e-02 6.915976107120513916e-02 4.315989837050437927e-02 5.508280918002128601e-02
4.036000000000000000e+03 4.763215637207031250e+01 3.721721649169921875e+01 -5.471687912940979004e-01 1.109282225370407104e-01 -1.308721750974655151e-01 2.680124044418334961e-01
4.037000000000000000e+03 4.940161895751953125e+01 2.852280235290527344e+01 2.029211997985839844e+00 4.187569141387939453e+00 1.865034341812133789e+00 2.962679624557495117e+00
4.038000000000000000e+03 4.383214187622070312e+01 3.570729064941406250e+01 4.668737947940826416e-02 -7.845150306820869446e-03 1.165266893804073334e-02 1.704446524381637573e-01
4.039000000000000000e+03 5.502511978149414062e+01 3.816529464721679688e+01 2.878024578094482422e+00 1.810376739501953125e+01 6.294537544250488281e+00 1.238022565841674805e+00
4.040000000000000000e+03 1.315538501739501953e+01 4.084375381469726562e+00 2.410673052072525024e-01 1.028114318847656250e+00 3.807545006275177002e-01 -1.326633989810943604e-01
4.041000000000000000e+03 1.301783180236816406e+01 2.871823549270629883e+00 6.361974477767944336e-01 1.137060880661010742e+00 5.319775342941284180e-01 -4.265139400959014893e-01
4.042000000000000000e+03 1.644404983520507812e+01 7.030972957611083984e+00 1.878893226385116577e-01 2.846222519874572754e-01 1.417534798383712769e-01 2.276168912649154663e-01
4.043000000000000000e+03 3.445438766479492188e+01 2.584045410156250000e+01 8.207404613494873047e-02 9.712599962949752808e-02 5.376001447439193726e-02 6.686997413635253906e-02
4.044000000000000000e+03 1.510679244995117188e+01 6.224307060241699219e+00 1.745819151401519775e-01 3.856971561908721924e-01 1.680837273597717285e-01 2.402151077985763550e-01
4.045000000000000000e+03 5.252545547485351562e+01 3.177156257629394531e+01 3.029992341995239258e+00 9.831548690795898438e+00 3.858462095260620117e+00 4.808927536010742188e+00
4.046000000000000000e+03 5.238973999023437500e+01 3.141013717651367188e+01 2.720001220703125000e+00 9.342649459838867188e+00 3.618795156478881836e+00 4.538879871368408203e+00
4.047000000000000000e+03 1.378320503234863281e+01 4.669385910034179688e+00 1.471249759197235107e-01 8.804766535758972168e-01 3.082804679870605469e-01 1.705927699804306030e-01
4.048000000000000000e+03 1.274870586395263672e+01 3.825586080551147461e+00 4.012727141380310059e-01 7.963084578514099121e-01 3.592743575572967529e-01 -2.871541380882263184e-01
4.049000000000000000e+03 2.241603851318359375e+01 1.301140308380126953e+01 1.378325819969177246e-01 1.563758999109268188e-01 8.826254308223724365e-02 1.466063708066940308e-01
4.050000000000000000e+03 3.416958236694335938e+01 2.560313606262207031e+01 5.616834759712219238e-02 8.648813515901565552e-02 4.279694333672523499e-02 8.545704931020736694e-02
4.051000000000000000e+03 3.473609161376953125e+01 2.551466941833496094e+01 5.221544951200485229e-02 8.777311444282531738e-02 4.199656844139099121e-02 9.093298017978668213e-02
4.052000000000000000e+03 5.616331100463867188e+01 3.573141860961914062e+01 4.694803237915039062e+00 1.580875778198242188e+01 6.151068210601806641e+00 7.889235615730285645e-01
4.053000000000000000e+03 3.387625503540039062e+01 2.534200859069824219e+01 7.529212534427642822e-02 9.899894893169403076e-02 5.228732153773307800e-02 7.141750305891036987e-02
4.054000000000000000e+03 1.219398403167724609e+01 3.697116136550903320e+00 4.684494137763977051e-01 4.112246036529541016e-01 2.639021873474121094e-01 -2.782178819179534912e-01
4.055000000000000000e+03 1.561872386932373047e+01 6.657131195068359375e+00 1.740423887968063354e-01 3.386428058147430420e-01 1.538055688142776489e-01 2.271318584680557251e-01
4.056000000000000000e+03 9.920438766479492188e+00 2.913455724716186523e+00 1.606726050376892090e-01 -2.871255278587341309e-01 -3.793587535619735718e-02 2.442125976085662842e-01
4.057000000000000000e+03 9.225697517395019531e+00 3.093852758407592773e+00 1.022034883499145508e-01 -2.534811198711395264e-01 -4.538328945636749268e-02 2.465416789054870605e-01
4.058000000000000000e+03 8.466490745544433594e+00 3.219221115112304688e+00 4.349299520254135132e-02 -2.015094906091690063e-01 -4.740494862198829651e-02 2.365746647119522095e-01
4.059000000000000000e+03 3.012823867797851562e+01 4.741281986236572266e+00 6.391918659210205078e-02 1.368388682603836060e-01 6.022741645574569702e-02 -1.330575942993164062e-01
4.060000000000000000e+03 3.038195991516113281e+01 5.246644973754882812e+00 9.954395145177841187e-02 1.426377296447753906e-01 7.265450805425643921e-02 -1.646736115217208862e-01
4.061000000000000000e+03 1.101145648956298828e+01 -3.619655847549438477e+00 -2.702066898345947266e-01 -7.753515243530273438e-02 -1.043225526809692383e-01 -2.941206395626068115e-01
4.062000000000000000e+03 1.174146938323974609e+01 -3.623355150222778320e+00 -2.860459685325622559e-01 -9.856098890304565430e-02 -1.153820902109146118e-01 -3.276329040527343750e-01
4.063000000000000000e+03 4.465836524963378906e+00 3.449085712432861328e+00 -3.253452107310295105e-02 -7.787743210792541504e-02 -3.312358632683753967e-02 1.289146095514297485e-01
4.064000000000000000e+03 4.973591804504394531e+00 2.612939357757568359e+00 -7.888010144233703613e-02 -5.813598260283470154e-02 -4.110482707619667053e-02 1.349800378084182739e-01
4.065000000000000000e+03 4.660165405273437500e+01 3.708303833007812500e+01 -5.025036260485649109e-02 1.562607735395431519e-01 3.180312365293502808e-02 2.761957049369812012e-01
4.066000000000000000e+03 1.179491043090820312e+01 2.909895896911621094e+00 6.093138456344604492e-01 -1.189121529459953308e-01 1.471205055713653564e-01 -7.935561239719390869e-02
4.067000000000000000e+03 3.083164978027343750e+01 8.958479881286621094e+00 -5.051689743995666504e-01 -6.743189692497253418e-02 -1.717802584171295166e-01 -4.759355634450912476e-02
4.068000000000000000e+03 3.124921417236328125e+01 6.728177070617675781e+00 1.822985708713531494e-01 1.962001062929630280e-02 6.057557463645935059e-02 -3.884723782539367676e-02
4.069000000000000000e+03 1.736299514770507812e+01 -3.575304269790649414e+00 2.499154955148696899e-01 2.499809116125106812e-01 1.499689221382141113e-01 1.521192789077758789e-01
4.070000000000000000e+03 1.838372993469238281e+01 -2.454978704452514648e+00 1.872074753046035767e-01 8.706625103950500488e-01 3.173609972000122070e-01 1.225682273507118225e-01
4.071000000000000000e+03 1.412563610076904297e+01 -3.746994018554687500e+00 -1.767232120037078857e-01 -2.710818648338317871e-01 -1.343415230512619019e-01 -3.792076706886291504e-01
4.072000000000000000e+03 2.907495117187500000e+01 9.307015419006347656e+00 -1.601648688316345215e+00 -5.019292235374450684e-01 -6.310733556747436523e-01 -9.538754820823669434e-01
4.073000000000000000e+03 1.658727264404296875e+01 -2.712189197540283203e+00 -1.533257812261581421e-01 -3.256034255027770996e-01 -1.436787545680999756e-01 -2.329654991626739502e-01
4.074000000000000000e+03 6.474191665649414062e+00 -3.546443462371826172e+00 -1.134001612663269043e-01 -4.445195570588111877e-02 -4.735563695430755615e-02 -1.472428441047668457e-01
4.075000000000000000e+03 3.168483257293701172e+00 3.545673370361328125e+00 -2.363244444131851196e-02 -7.055963575839996338e-02 -2.825762517750263214e-02 9.224078804254531860e-02
4.076000000000000000e+03 1.328380680084228516e+01 -3.672209024429321289e+00 -2.621028125286102295e-01 -1.965532898902893066e-01 -1.375968307256698608e-01 -3.919571042060852051e-01
4.077000000000000000e+03 1.246085166931152344e+01 -2.951905250549316406e+00 -4.362513124942779541e-01 -1.002349555492401123e-01 -1.609458774328231812e-01 -3.423950374126434326e-01
4.078000000000000000e+03 7.237701892852783203e+00 -3.504210948944091797e+00 -1.412653326988220215e-01 -3.618900105357170105e-02 -5.323630198836326599e-02 -1.634813845157623291e-01
4.079000000000000000e+03 8.007280349731445312e+00 -3.508183479309082031e+00 -1.656611263751983643e-01 -3.962953016161918640e-02 -6.158719584345817566e-02 -1.821004003286361694e-01
4.080000000000000000e+03 3.348889541625976562e+01 -9.931260108947753906e+00 -1.790349930524826050e-01 3.587194979190826416e-01 5.390535295009613037e-02 6.484294682741165161e-02
4.081000000000000000e+03 4.106160354614257812e+01 3.508124923706054688e+01 7.410653680562973022e-02 1.152224615216255188e-01 5.679870024323463440e-02 3.970742225646972656e-02
4.082000000000000000e+03 4.093246841430664062e+01 3.621593093872070312e+01 9.057871997356414795e-02 -1.200599130243062973e-02 2.357181906700134277e-02 7.223390042781829834e-02
4.083000000000000000e+03 2.535730552673339844e+01 -1.828224539756774902e+00 -5.585689544677734375e-01 -2.649611532688140869e-01 -2.470590323209762573e-01 2.804304063320159912e-01
4.084000000000000000e+03 2.402445411682128906e+01 -1.924963116645812988e+00 -7.812153100967407227e-01 -3.712925314903259277e-01 -3.457523584365844727e-01 4.704737365245819092e-01
4.085000000000000000e+03 2.790163612365722656e+01 -4.068416118621826172e+00 -3.350551426410675049e-01 -2.622513175010681152e-01 -1.791919320821762085e-01 2.738846838474273682e-01
4.086000000000000000e+03 2.714859199523925781e+01 -2.766523361206054688e+00 -3.668406307697296143e-01 -2.197372615337371826e-01 -1.759733706712722778e-01 2.278314530849456787e-01
4.087000000000000000e+03 2.311993789672851562e+01 4.174224101006984711e-03 -7.361204028129577637e-01 -1.409571617841720581e-01 -2.631232738494873047e-01 7.692611962556838989e-02
4.088000000000000000e+03 2.369150352478027344e+01 -1.557186412811279297e+01 1.732791960239410400e-01 4.650941193103790283e-01 1.915119886398315430e-01 -2.714764773845672607e-01
4.089000000000000000e+03 7.786137390136718750e+01 1.232726383209228516e+01 -2.169934473931789398e-02 8.355464935302734375e+00 2.500129699707031250e+00 -2.915530800819396973e-01
4.090000000000000000e+03 7.751310729980468750e+01 -1.229653644561767578e+01 -1.770195737481117249e-02 9.109392166137695312e+00 2.727507114410400391e+00 5.773556604981422424e-02
4.091000000000000000e+03 7.768898773193359375e+01 -5.328034877777099609e+00 -1.162101607769727707e-02 9.218955039978027344e+00 2.762200117111206055e+00 -1.100371312350034714e-02
4.092000000000000000e+03 7.789234924316406250e+01 -1.234435200691223145e+00 -2.043697983026504517e-02 9.216933250427246094e+00 2.758948802947998047e+00 -5.878706276416778564e-02
4.093000000000000000e+03 7.733782196044921875e+01 -1.507272338867187500e+01 -1.186939235776662827e-02 9.021056175231933594e+00 2.702755928039550781e+00 7.457297295331954956e-02
4.094000000000000000e+03 1.856903910636901855e+00 1.351428413391113281e+01 6.216427311301231384e-03 -2.018108367919921875e-01 -5.867832526564598083e-02 -5.249604117125272751e-03
4.095000000000000000e+03 4.544438934326171875e+01 3.599713516235351562e+01 1.089972481131553650e-01 2.155787348747253418e-01 9.737279266119003296e-02 9.298435598611831665e-02
4.096000000000000000e+03 1.593288326263427734e+01 -4.997086048126220703e+00 2.078749388456344604e-01 -2.407914586365222931e-02 5.513873696327209473e-02 -6.373269110918045044e-02
4.097000000000000000e+03 5.606344985961914062e+01 3.473563385009765625e+01 4.040534973144531250e+00 1.565042114257812500e+01 5.907286643981933594e+00 6.015481352806091309e-01
4.098000000000000000e+03 7.593416595458984375e+01 -1.216603660583496094e+01 -2.661078609526157379e-02 8.836394309997558594e+00 2.642935037612915039e+00 8.387991040945053101e-02
4.099000000000000000e+03 7.421095275878906250e+01 -1.089811706542968750e+01 -5.563011765480041504e-02 8.574136734008789062e+00 2.555552005767822266e+00 9.458661824464797974e-02
4.100000000000000000e+03 7.493431854248046875e+01 -1.711007118225097656e+01 -2.221015654504299164e-02 8.575554847717285156e+00 2.566003561019897461e+00 1.636169999837875366e-01
4.101000000000000000e+03 2.234548759460449219e+01 -1.800175857543945312e+01 8.627908676862716675e-02 4.236792027950286865e-01 1.529874801635742188e-01 -2.138673216104507446e-01
4.102000000000000000e+03 1.794237327575683594e+01 -1.117659473419189453e+01 1.345186978578567505e-01 4.699188470840454102e-01 1.813312619924545288e-01 -1.154206544160842896e-01
4.103000000000000000e+03 7.629943084716796875e+01 6.407995700836181641e+00 -4.996721073985099792e-02 8.670125961303710938e+00 2.586047649383544922e+00 -2.617938816547393799e-01
4.104000000000000000e+03 5.908393383026123047e+00 2.299061203002929688e+01 -3.010193351656198502e-03 -7.660531252622604370e-02 -2.388465218245983124e-02 -1.577001996338367462e-02
4.105000000000000000e+03 7.651263427734375000e+01 -1.031442284584045410e+00 -3.320821374654769897e-02 8.960163116455078125e+00 2.678086280822753906e+00 -8.589729666709899902e-02
4.106000000000000000e+03 7.448970794677734375e+01 -3.856147527694702148e+00 -7.415839284658432007e-02 8.652456283569335938e+00 2.573489427566528320e+00 -5.025401338934898376e-02
4.107000000000000000e+03 1.473771858215332031e+01 -7.914921283721923828e+00 2.115203440189361572e-01 5.439113080501556396e-02 7.977344095706939697e-02 -7.496407628059387207e-02
4.108000000000000000e+03 3.043606519699096680e+00 5.639194488525390625e+00 1.467512547969818115e-02 -1.179983690381050110e-01 -3.099697269499301910e-02 8.697356283664703369e-02
4.109000000000000000e+03 4.118445968627929688e+01 -1.931009483337402344e+01 -1.489296108484268188e-01 2.299527883529663086e+00 6.451794505119323730e-01 -3.634748756885528564e-01
4.110000000000000000e+03 7.520687866210937500e+01 -2.022582435607910156e+01 -1.830669306218624115e-02 8.518277168273925781e+00 2.549991130828857422e+00 1.823040992021560669e-01
4.111000000000000000e+03 7.247148895263671875e+01 2.026127624511718750e+01 -1.872175782918930054e-01 7.590928554534912109e+00 2.221113204956054688e+00 -1.123636960983276367e+00
4.112000000000000000e+03 3.832872009277343750e+01 3.511006927490234375e+01 6.025559082627296448e-02 2.812133915722370148e-02 2.651307918131351471e-02 7.101629674434661865e-02
4.113000000000000000e+03 4.014367294311523438e+01 3.476127624511718750e+01 6.013239175081253052e-02 1.135031878948211670e-02 2.144481241703033447e-02 7.319805026054382324e-02
4.114000000000000000e+03 3.797563171386718750e+01 3.211623001098632812e+01 7.697468250989913940e-02 9.288612753152847290e-02 5.095824226737022400e-02 5.394620075821876526e-02
4.115000000000000000e+03 3.681512832641601562e+01 3.243563461303710938e+01 7.143780589103698730e-02 1.079565808176994324e-01 5.381831526756286621e-02 4.851524159312248230e-02
4.116000000000000000e+03 3.814792633056640625e+01 -1.791628074645996094e+01 -6.186688318848609924e-02 1.321931838989257812e+00 3.780194818973541260e-01 -2.670014202594757080e-01
4.117000000000000000e+03 2.593406438827514648e+00 -1.187233543395996094e+01 9.236154146492481232e-03 -2.742849588394165039e-01 -7.951463758945465088e-02 -7.558043301105499268e-02
4.118000000000000000e+03 3.199808835983276367e+00 6.866481781005859375e+00 2.499806694686412811e-02 -1.401045769453048706e-01 -3.453195467591285706e-02 7.170192897319793701e-02
4.119000000000000000e+03 2.912569761276245117e+00 9.545982360839843750e+00 2.475684136152267456e-02 -1.598693281412124634e-01 -4.053374752402305603e-02 3.002054244279861450e-02
4.120000000000000000e+03 3.015127182006835938e+01 -4.490669727325439453e+00 -2.218607813119888306e-01 -1.500119268894195557e-02 -7.105859369039535522e-02 1.260452121496200562e-01
4.121000000000000000e+03 3.691863250732421875e+01 -1.579808044433593750e+01 -1.154821589589118958e-01 1.018449783325195312e+00 2.708902955055236816e-01 -1.504716575145721436e-01
4.122000000000000000e+03 7.630059814453125000e+01 1.520309352874755859e+01 -8.672073483467102051e-02 7.916021347045898438e+00 2.348790168762207031e+00 -5.803840160369873047e-01
4.123000000000000000e+03 7.805721282958984375e+01 1.441712379455566406e+00 -1.668898016214370728e-02 9.179391860961914062e+00 2.748810768127441406e+00 -8.669099211692810059e-02
4.124000000000000000e+03 2.752831649780273438e+01 3.914719581604003906e+00 4.823914170265197754e-02 -1.119549572467803955e-01 -1.911474578082561493e-02 -8.597544580698013306e-02
4.125000000000000000e+03 2.571478462219238281e+01 2.353104591369628906e+00 -3.183876862749457359e-03 -1.458153724670410156e-01 -4.469977319240570068e-02 -1.058432906866073608e-01
4.126000000000000000e+03 2.562334442138671875e+01 3.049894571304321289e+00 4.928813502192497253e-02 -1.316822618246078491e-01 -2.471823990345001221e-02 -9.241268783807754517e-02
4.127000000000000000e+03 2.332980537414550781e+01 1.477233171463012695e+00 -1.740858554840087891e-01 -1.312053352594375610e-01 -9.158735722303390503e-02 -5.558801442384719849e-02
4.128000000000000000e+03 2.698259353637695312e+01 3.261233568191528320e+00 4.065921902656555176e-02 -1.231359988451004028e-01 -2.474303357303142548e-02 -9.618815034627914429e-02
4.129000000000000000e+03 2.605467414855957031e+01 3.636446714401245117e+00 6.598459184169769287e-02 -1.282823085784912109e-01 -1.868931576609611511e-02 -9.012957662343978882e-02
4.130000000000000000e+03 2.855212211608886719e+01 4.407645225524902344e+00 3.805626183748245239e-02 -1.781509257853031158e-02 6.072350777685642242e-03 -7.412397861480712891e-02
4.131000000000000000e+03 2.209448814392089844e+01 1.817112714052200317e-01 -7.577513456344604492e-01 -2.258104979991912842e-01 -2.950685620307922363e-01 1.842847317457199097e-01
4.132000000000000000e+03 2.219305229187011719e+01 5.455865859985351562e-01 -6.923373341560363770e-01 -1.497177928686141968e-01 -2.526165544986724854e-01 1.091090738773345947e-01
4.133000000000000000e+03 2.707098007202148438e+01 4.274892330169677734e+00 5.144998803734779358e-02 -1.268950551748275757e-01 -2.263352088630199432e-02 -9.075517952442169189e-02
4.134000000000000000e+03 2.274919319152832031e+01 1.349043488502502441e+00 -2.201284766197204590e-01 -1.550810635089874268e-01 -1.125628650188446045e-01 1.312283333390951157e-02
4.135000000000000000e+03 2.926177406311035156e+01 4.625568866729736328e+00 2.902910113334655762e-02 7.812478393316268921e-02 3.214616328477859497e-02 -9.515821933746337891e-02
4.136000000000000000e+03 2.450387001037597656e+01 2.303952217102050781e+00 -9.202751331031322479e-03 -1.456413418054580688e-01 -4.645322635769844055e-02 -7.316091656684875488e-02
4.137000000000000000e+03 1.955668067932128906e+01 -3.385044932365417480e-01 -1.458389997482299805e+00 8.903180956840515137e-01 -1.704215705394744873e-01 7.420886307954788208e-02
4.138000000000000000e+03 1.465679740905761719e+01 5.775534152984619141e+00 1.480688899755477905e-01 4.834118187427520752e-01 1.894442141056060791e-01 2.554060518741607666e-01
4.139000000000000000e+03 1.595637321472167969e+01 6.447175502777099609e+00 2.065774053335189819e-01 3.294439315795898438e-01 1.608064025640487671e-01 2.362508475780487061e-01
4.140000000000000000e+03 1.524433612823486328e+01 6.894762992858886719e+00 1.526513397693634033e-01 3.636172711849212646e-01 1.548805832862854004e-01 2.074996978044509888e-01
4.141000000000000000e+03 2.101257896423339844e+01 -4.754110053181648254e-02 -1.203538775444030762e+00 -2.877517938613891602e-01 -4.473871588706970215e-01 4.598021507263183594e-01
4.142000000000000000e+03 3.531599426269531250e+01 1.348537158966064453e+01 -2.313635051250457764e-01 1.682367473840713501e-01 -1.893802359700202942e-02 -4.700578004121780396e-02
4.143000000000000000e+03 2.204893875122070312e+01 -3.137553036212921143e-01 -1.194005370140075684e+00 -2.986230850219726562e-01 -4.477885365486145020e-01 2.407686710357666016e-01
4.144000000000000000e+03 2.175863265991210938e+01 6.050031185150146484e-01 -5.943329930305480957e-01 -2.033217698335647583e-01 -2.392964214086532593e-01 1.782727688550949097e-01
4.145000000000000000e+03 4.705253601074218750e+01 2.624705505371093750e+01 1.272619843482971191e+00 2.518416166305541992e+00 1.137310862541198730e+00 1.903828501701354980e+00
4.146000000000000000e+03 1.889319229125976562e+01 1.028002738952636719e+01 1.399949193000793457e-01 1.955365836620330811e-01 1.006594523787498474e-01 1.681285202503204346e-01
4.147000000000000000e+03 1.928226661682128906e+01 1.024942588806152344e+01 1.433505117893218994e-01 1.867247521877288818e-01 9.902258217334747314e-02 1.716274172067642212e-01
4.148000000000000000e+03 2.001022911071777344e+01 1.053083610534667969e+01 1.502709686756134033e-01 1.701054424047470093e-01 9.611292183399200439e-02 1.637530773878097534e-01
4.149000000000000000e+03 4.165192794799804688e+01 3.385467529296875000e+01 2.931566908955574036e-02 2.109637670218944550e-02 1.512361411005258560e-02 7.549075037240982056e-02
4.150000000000000000e+03 4.005949783325195312e+01 1.954113006591796875e+01 1.380038112401962280e-01 5.947574377059936523e-01 2.198283672332763672e-01 3.541400134563446045e-01
4.151000000000000000e+03 4.026832199096679688e+01 1.982872581481933594e+01 1.600234508514404297e-01 6.105220317840576172e-01 2.311636507511138916e-01 3.785127103328704834e-01
4.152000000000000000e+03 3.538892745971679688e+01 2.654015541076660156e+01 8.480555564165115356e-02 1.058098226785659790e-01 5.718461424112319946e-02 6.012237071990966797e-02
4.153000000000000000e+03 4.089336013793945312e+01 2.013409042358398438e+01 2.107344716787338257e-01 7.705031633377075195e-01 2.943712770938873291e-01 4.857133030891418457e-01
4.154000000000000000e+03 3.243653869628906250e+01 2.339906883239746094e+01 7.081353664398193359e-02 7.559568434953689575e-02 4.392276704311370850e-02 8.443007618188858032e-02
4.155000000000000000e+03 3.135543251037597656e+01 2.327550506591796875e+01 7.633265852928161621e-02 8.466911315917968750e-02 4.830053076148033142e-02 8.726424723863601685e-02
4.156000000000000000e+03 3.937946701049804688e+01 1.931588172912597656e+01 1.001701727509498596e-01 4.241039752960205078e-01 1.572822481393814087e-01 2.504646182060241699e-01
4.157000000000000000e+03 5.064008712768554688e+01 3.014714431762695312e+01 2.843438863754272461e+00 5.672033786773681641e+00 2.554641723632812500e+00 3.986767530441284180e+00
4.158000000000000000e+03 5.071014785766601562e+01 2.985897445678710938e+01 2.454886436462402344e+00 5.912838935852050781e+00 2.510317564010620117e+00 3.776101112365722656e+00
4.159000000000000000e+03 1.603491020202636719e+01 7.278638839721679688e+00 1.552015841007232666e-01 3.058994710445404053e-01 1.383303105831146240e-01 2.134316861629486084e-01
4.160000000000000000e+03 3.310362625122070312e+01 2.445944595336914062e+01 6.228904426097869873e-02 8.315937221050262451e-02 4.363452643156051636e-02 8.533527702093124390e-02
4.161000000000000000e+03 4.133332061767578125e+01 2.063783454895019531e+01 2.563984096050262451e-01 8.327517509460449219e-01 3.267450630664825439e-01 5.408694148063659668e-01
4.162000000000000000e+03 2.098782157897949219e+01 1.227962875366210938e+01 1.308059394359588623e-01 1.684633195400238037e-01 8.978077769279479980e-02 1.475314646959304810e-01
4.163000000000000000e+03 2.474987411499023438e+01 1.645211410522460938e+01 1.082060411572456360e-01 1.275769174098968506e-01 7.073488831520080566e-02 1.184197887778282166e-01
4.164000000000000000e+03 2.154442214965820312e+01 1.334082126617431641e+01 1.239958032965660095e-01 1.593546569347381592e-01 8.500513434410095215e-02 1.372040808200836182e-01
4.165000000000000000e+03 4.625529098510742188e+01 2.577900695800781250e+01 1.153827428817749023e+00 2.080590963363647461e+00 9.703254699707031250e-01 1.622286677360534668e+00
4.166000000000000000e+03 3.336689758300781250e+01 1.177512264251708984e+01 -3.688250184059143066e-01 -2.815977670252323151e-02 -1.190954372286796570e-01 -1.801916956901550293e-01
4.167000000000000000e+03 3.268068313598632812e+01 1.220979309082031250e+01 -4.255494177341461182e-01 -2.249890863895416260e-01 -1.951615512371063232e-01 -3.180502653121948242e-01
4.168000000000000000e+03 4.903171157836914062e+01 2.834796524047851562e+01 2.021458625793457031e+00 3.786116123199462891e+00 1.742272377014160156e+00 2.782122850418090820e+00
4.169000000000000000e+03 3.657012176513671875e+01 2.778389549255371094e+01 7.643883675336837769e-02 1.167135015130043030e-01 5.794570222496986389e-02 6.807877123355865479e-02
4.170000000000000000e+03 3.572309112548828125e+01 2.760418891906738281e+01 8.318250626325607300e-02 6.136931106448173523e-02 4.336554557085037231e-02 8.480472117662429810e-02
4.171000000000000000e+03 4.270437622070312500e+01 2.220377731323242188e+01 4.681933224201202393e-01 1.061847329139709473e+00 4.590121805667877197e-01 7.595498561859130859e-01
4.172000000000000000e+03 2.993085098266601562e+01 9.771358489990234375e+00 -1.001703500747680664e+00 -2.555950284004211426e-01 -3.771895468235015869e-01 -5.146434903144836426e-01
4.173000000000000000e+03 4.499059295654296875e+01 2.477828025817871094e+01 9.611468315124511719e-01 1.635062694549560547e+00 7.788628935813903809e-01 1.231947660446166992e+00
4.174000000000000000e+03 3.855155944824218750e+01 1.876744651794433594e+01 4.433883726596832275e-02 2.944210171699523926e-01 1.016279533505439758e-01 1.524793058633804321e-01
4.175000000000000000e+03 4.301399230957031250e+01 2.238857650756835938e+01 4.999729394912719727e-01 1.161535739898681641e+00 4.984526038169860840e-01 8.230257630348205566e-01
4.176000000000000000e+03 3.422901535034179688e+01 2.621001625061035156e+01 5.615381896495819092e-02 8.779852837324142456e-02 4.318570345640182495e-02 8.334948867559432983e-02
4.177000000000000000e+03 2.035969543457031250e+01 1.072454071044921875e+01 1.533498167991638184e-01 1.697244048118591309e-01 9.692227095365524292e-02 1.617553383111953735e-01
4.178000000000000000e+03 1.948640632629394531e+01 1.074295806884765625e+01 1.392400860786437988e-01 1.828631311655044556e-01 9.663096815347671509e-02 1.639465391635894775e-01
4.179000000000000000e+03 3.756436920166015625e+01 2.971819114685058594e+01 6.854899227619171143e-02 6.390302628278732300e-02 3.973560407757759094e-02 8.733318001031875610e-02
4.180000000000000000e+03 4.140003585815429688e+01 2.151056289672851562e+01 3.293984532356262207e-01 6.836551427841186523e-01 3.039160668849945068e-01 5.125687122344970703e-01
4.181000000000000000e+03 2.818309402465820312e+01 2.100835037231445312e+01 6.787503510713577271e-02 1.102515533566474915e-01 5.343797430396080017e-02 9.459517151117324829e-02
4.182000000000000000e+03 4.220190048217773438e+01 2.227782058715820312e+01 4.570406079292297363e-01 8.316563367843627930e-01 3.866090774536132812e-01 6.406674981117248535e-01
4.183000000000000000e+03 2.758911514282226562e+01 1.907997512817382812e+01 8.693172037601470947e-02 1.126712560653686523e-01 5.988089367747306824e-02 1.034071445465087891e-01
4.184000000000000000e+03 2.807373046875000000e+01 1.912496376037597656e+01 9.189453721046447754e-02 1.075109243392944336e-01 5.982163920998573303e-02 1.052737310528755188e-01
4.185000000000000000e+03 2.811154365539550781e+01 2.021059608459472656e+01 7.684618979692459106e-02 1.080955266952514648e-01 5.548251792788505554e-02 1.002983301877975464e-01
4.186000000000000000e+03 2.799587440490722656e+01 1.989261817932128906e+01 9.408079087734222412e-02 1.086410135030746460e-01 6.081654131412506104e-02 9.596190601587295532e-02
4.187000000000000000e+03 3.936273956298828125e+01 1.841216468811035156e+01 7.075958698987960815e-02 5.579113364219665527e-01 1.886012703180313110e-01 2.876951396465301514e-01
4.188000000000000000e+03 3.931869506835937500e+01 1.891843032836914062e+01 8.123572915792465210e-02 4.688260555267333984e-01 1.650185286998748779e-01 2.578980624675750732e-01
4.189000000000000000e+03 4.811752319335937500e+01 2.763936042785644531e+01 1.742510557174682617e+00 2.986152172088623047e+00 1.418598771095275879e+00 2.343244075775146484e+00
4.190000000000000000e+03 3.537975692749023438e+01 1.512909889221191406e+01 -1.981227844953536987e-01 -4.725881293416023254e-02 -7.361447811126708984e-02 -1.283687800168991089e-01
4.191000000000000000e+03 3.640217971801757812e+01 1.592468643188476562e+01 -1.335000693798065186e-01 1.192001178860664368e-01 -4.289986565709114075e-03 -2.199311926960945129e-02
4.192000000000000000e+03 3.239783096313476562e+01 1.109934234619140625e+01 -4.755403101444244385e-01 -1.136207357048988342e-01 -1.767483204603195190e-01 -2.401605844497680664e-01
4.193000000000000000e+03 2.931222724914550781e+01 2.010073661804199219e+01 9.496776759624481201e-02 1.042394414544105530e-01 5.976216495037078857e-02 9.210826456546783447e-02
4.194000000000000000e+03 4.840390396118164062e+01 2.789048004150390625e+01 1.841367363929748535e+00 3.221823215484619141e+00 1.518957257270812988e+00 2.463071584701538086e+00
4.195000000000000000e+03 4.191731643676757812e+01 2.153775787353515625e+01 3.588298857212066650e-01 8.757892847061157227e-01 3.703857362270355225e-01 6.125721931457519531e-01
4.196000000000000000e+03 4.989303588867187500e+01 2.986974906921386719e+01 2.842644214630126953e+00 4.360997676849365234e+00 2.161092519760131836e+00 3.487302064895629883e+00
4.197000000000000000e+03 3.127413558959960938e+01 2.219456100463867188e+01 7.662773877382278442e-02 9.136659651994705200e-02 5.039830133318901062e-02 8.534342795610427856e-02
4.198000000000000000e+03 3.972843551635742188e+01 3.165050506591796875e+01 8.156134933233261108e-02 3.314641863107681274e-02 3.441233187913894653e-02 8.535838872194290161e-02
4.199000000000000000e+03 4.242522811889648438e+01 2.199801254272460938e+01 4.319858253002166748e-01 9.878853559494018555e-01 4.259613454341888428e-01 7.006788849830627441e-01
4.200000000000000000e+03 3.737081527709960938e+01 1.757177734375000000e+01 -4.729105904698371887e-02 1.413119286298751831e-01 2.820626087486743927e-02 3.168158233165740967e-02
4.201000000000000000e+03 3.201314163208007812e+01 1.151586437225341797e+01 -5.339549183845520020e-01 -2.468162328004837036e-01 -2.342313379049301147e-01 -3.486552834510803223e-01
4.202000000000000000e+03 3.245079421997070312e+01 1.156610584259033203e+01 -4.706090390682220459e-01 -1.609126329421997070e-01 -1.894564926624298096e-01 -2.902934253215789795e-01
4.203000000000000000e+03 4.870321273803710938e+01 2.813097953796386719e+01 1.943387150764465332e+00 3.427120447158813477e+00 1.611152291297912598e+00 2.609057188034057617e+00
4.204000000000000000e+03 4.983387374877929688e+01 2.862798881530761719e+01 1.961423635482788086e+00 4.759704113006591797e+00 2.016338348388671875e+00 3.081163406372070312e+00
4.205000000000000000e+03 5.024180603027343750e+01 2.914627075195312500e+01 2.193843364715576172e+00 5.209247589111328125e+00 2.220927238464355469e+00 3.386403083801269531e+00
4.206000000000000000e+03 4.462472534179687500e+01 2.437404823303222656e+01 8.583772778511047363e-01 1.541545867919921875e+00 7.199769616127014160e-01 1.150010108947753906e+00
4.207000000000000000e+03 4.459329986572265625e+01 2.479885864257812500e+01 9.748343229293823242e-01 1.400887012481689453e+00 7.127164006233215332e-01 1.141150593757629395e+00
4.208000000000000000e+03 4.417266464233398438e+01 2.402715682983398438e+01 8.091545104980468750e-01 1.362136721611022949e+00 6.513873338699340820e-01 1.067022681236267090e+00
4.209000000000000000e+03 5.353192138671875000e+01 3.249450683593750000e+01 2.537984132766723633e+00 1.262879276275634766e+01 4.550033092498779297e+00 4.696202278137207031e+00
4.210000000000000000e+03 2.235180091857910156e+01 1.361628627777099609e+01 1.285133063793182373e-01 1.538201272487640381e-01 8.470003306865692139e-02 1.385902166366577148e-01
4.211000000000000000e+03 2.996412277221679688e+01 2.133118057250976562e+01 8.277440071105957031e-02 1.032737642526626587e-01 5.581444874405860901e-02 8.650357276201248169e-02
4.212000000000000000e+03 4.893550109863281250e+01 2.779458808898925781e+01 1.705746650695800781e+00 3.879093885421752930e+00 1.675452232360839844e+00 2.643901109695434570e+00
4.213000000000000000e+03 4.148375701904296875e+01 2.099156570434570312e+01 2.895553410053253174e-01 8.139817118644714355e-01 3.310610949993133545e-01 5.541269779205322266e-01
4.214000000000000000e+03 2.094810676574707031e+01 1.166258239746093750e+01 1.402966827154159546e-01 1.725041866302490234e-01 9.384026378393173218e-02 1.521077752113342285e-01
4.215000000000000000e+03 3.710517120361328125e+01 1.657204627990722656e+01 -8.574380725622177124e-02 2.127266526222229004e-01 3.809485584497451782e-02 4.377500340342521667e-02
4.216000000000000000e+03 3.744273376464843750e+01 1.687404060363769531e+01 -6.037238612771034241e-02 2.556715011596679688e-01 5.858973413705825806e-02 7.423324882984161377e-02
4.217000000000000000e+03 3.729793548583984375e+01 1.607199859619140625e+01 -9.091581404209136963e-02 3.239333331584930420e-01 6.990525126457214355e-02 8.765882253646850586e-02
4.218000000000000000e+03 3.157007217407226562e+01 1.092106723785400391e+01 -5.907257795333862305e-01 -2.427715808153152466e-01 -2.500492036342620850e-01 -3.540953993797302246e-01
4.219000000000000000e+03 2.668568992614746094e+01 1.770566177368164062e+01 1.099963188171386719e-01 1.204422861337661743e-01 6.913158297538757324e-02 1.095178425312042236e-01
4.220000000000000000e+03 2.608700752258300781e+01 1.774491119384765625e+01 1.042155772447586060e-01 1.231611520051956177e-01 6.821301579475402832e-02 1.080979630351066589e-01
4.221000000000000000e+03 2.515348815917968750e+01 1.750661659240722656e+01 9.584707021713256836e-02 1.240257397294044495e-01 6.596184521913528442e-02 1.110183075070381165e-01
4.222000000000000000e+03 2.608316230773925781e+01 1.715355873107910156e+01 1.113362759351730347e-01 1.242123693227767944e-01 7.066459208726882935e-02 1.126566603779792786e-01
4.223000000000000000e+03 5.274832534790039062e+01 3.299678039550781250e+01 3.959538936614990234e+00 1.128576755523681641e+01 4.573592185974121094e+00 6.244805335998535156e+00
4.224000000000000000e+03 4.073221588134765625e+01 3.338350677490234375e+01 6.579523533582687378e-02 8.514041453599929810e-02 4.528069496154785156e-02 5.816902592778205872e-02
4.225000000000000000e+03 2.402652740478515625e+01 1.593691349029541016e+01 1.050371453166007996e-01 1.338771134614944458e-01 7.167427986860275269e-02 1.225189268589019775e-01
4.226000000000000000e+03 2.357328987121582031e+01 1.561628818511962891e+01 1.036783382296562195e-01 1.385590136051177979e-01 7.267120480537414551e-02 1.236483082175254822e-01
4.227000000000000000e+03 2.352005958557128906e+01 1.417645168304443359e+01 1.332056522369384766e-01 1.463121324777603149e-01 8.385533839464187622e-02 1.381955295801162720e-01
4.228000000000000000e+03 3.696837234497070312e+01 2.875057029724121094e+01 7.608201354742050171e-02 7.062527537345886230e-02 4.401218518614768982e-02 8.168264478445053101e-02
4.229000000000000000e+03 3.491666412353515625e+01 1.330964374542236328e+01 -2.572501301765441895e-01 9.680216014385223389e-02 -4.813438653945922852e-02 -8.676891773939132690e-02
4.230000000000000000e+03 5.232593154907226562e+01 3.100615882873535156e+01 2.460574150085449219e+00 9.116923332214355469e+00 3.473249435424804688e+00 4.302730560302734375e+00
4.231000000000000000e+03 3.937094497680664062e+01 3.141723060607910156e+01 7.905020564794540405e-02 1.060742437839508057e-01 5.553733557462692261e-02 5.128789320588111877e-02
4.232000000000000000e+03 3.871469879150390625e+01 3.166423225402832031e+01 6.575104594230651855e-02 1.009187474846839905e-01 5.000093951821327209e-02 4.262520000338554382e-02
4.233000000000000000e+03 2.362377166748046875e+01 1.528131198883056641e+01 1.116052940487861633e-01 1.405801326036453247e-01 7.565563172101974487e-02 1.259575635194778442e-01
4.234000000000000000e+03 1.314471530914306641e+01 5.306140899658203125e+00 1.175412610173225403e-01 6.388120055198669434e-01 2.269059717655181885e-01 -2.575810998678207397e-02
4.235000000000000000e+03 3.360005187988281250e+01 1.322532653808593750e+01 -3.349612951278686523e-01 -1.827353537082672119e-01 -1.553089916706085205e-01 -2.538423240184783936e-01
4.236000000000000000e+03 3.397330093383789062e+01 1.337019252777099609e+01 -3.081949055194854736e-01 -1.162801831960678101e-01 -1.273425221443176270e-01 -2.102858573198318481e-01
4.237000000000000000e+03 1.767180633544921875e+01 9.462886810302734375e+00 1.431370526552200317e-01 2.223767191171646118e-01 1.096541285514831543e-01 1.708548516035079956e-01
4.238000000000000000e+03 1.776210403442382812e+01 8.735963821411132812e+00 1.715009808540344238e-01 2.232995629310607910e-01 1.184401661157608032e-01 1.866677701473236084e-01
4.239000000000000000e+03 3.628592681884765625e+01 2.746864891052246094e+01 7.267291098833084106e-02 6.482595950365066528e-02 4.124965891242027283e-02 9.145789593458175659e-02
4.240000000000000000e+03 3.636422348022460938e+01 1.627594757080078125e+01 -1.320531517267227173e-01 6.260865181684494019e-02 -2.083334885537624359e-02 -4.621965438127517700e-02
4.241000000000000000e+03 1.843475532531738281e+01 9.854146957397460938e+00 1.410590410232543945e-01 2.070741355419158936e-01 1.044399514794349670e-01 1.696125566959381104e-01
4.242000000000000000e+03 3.109190940856933594e+01 2.262304496765136719e+01 7.230540364980697632e-02 8.859635889530181885e-02 4.827053099870681763e-02 8.774876594543457031e-02
4.243000000000000000e+03 3.517320251464843750e+01 1.470472335815429688e+01 -2.122491747140884399e-01 -1.811553537845611572e-02 -6.910941749811172485e-02 -1.277861446142196655e-01
4.244000000000000000e+03 3.561708068847656250e+01 1.456951045989990234e+01 -1.907676607370376587e-01 1.064703315496444702e-01 -2.528919838368892670e-02 -6.185796111822128296e-02
4.245000000000000000e+03 3.220544815063476562e+01 2.397458839416503906e+01 6.263560056686401367e-02 9.762170910835266113e-02 4.807719215750694275e-02 8.162314444780349731e-02
4.246000000000000000e+03 1.468341827392578125e+01 5.080098628997802734e+00 2.001615166664123535e-01 5.233272910118103027e-01 2.170466482639312744e-01 3.464384377002716064e-01
4.247000000000000000e+03 5.078262329101562500e+01 2.911526870727539062e+01 1.902349233627319336e+00 6.062398910522460938e+00 2.389424324035644531e+00 3.427292108535766602e+00
4.248000000000000000e+03 3.213195419311523438e+01 2.454395294189453125e+01 6.979317963123321533e-02 9.424784779548645020e-02 4.921231046319007874e-02 7.901730388402938843e-02
4.249000000000000000e+03 5.229824066162109375e+01 3.233742141723632812e+01 3.870629072189331055e+00 9.659534454345703125e+00 4.059049129486083984e+00 5.636671066284179688e+00
4.250000000000000000e+03 5.361263275146484375e+01 3.339813232421875000e+01 3.013322114944458008e+00 1.450273418426513672e+01 5.254817008972167969e+00 5.574012279510498047e+00
4.251000000000000000e+03 3.044941139221191406e+01 9.545279502868652344e+00 -8.388381004333496094e-01 -1.161355450749397278e-01 -2.864920794963836670e-01 -2.881399989128112793e-01
4.252000000000000000e+03 5.699084472656250000e+01 3.682754516601562500e+01 4.008832931518554688e+00 1.430816650390625000e+01 5.495099544525146484e+00 1.366486310958862305e+00
4.253000000000000000e+03 5.466777038574218750e+01 3.626081466674804688e+01 4.197631359100341797e+00 2.365659332275390625e+01 8.356267929077148438e+00 2.728808164596557617e+00
4.254000000000000000e+03 3.487958145141601562e+01 1.431880855560302734e+01 -2.375556528568267822e-01 -4.510637000203132629e-02 -8.479860424995422363e-02 -1.491016596555709839e-01
4.255000000000000000e+03 3.528640747070312500e+01 1.440409564971923828e+01 -2.111283242702484131e-01 4.269583150744438171e-02 -5.052974820137023926e-02 -9.593006968498229980e-02
4.256000000000000000e+03 2.465048789978027344e+01 1.692001152038574219e+01 9.593587368726730347e-02 1.278747022151947021e-01 6.714317202568054199e-02 1.163516789674758911e-01
4.257000000000000000e+03 2.560869598388671875e+01 1.649092292785644531e+01 1.144662797451019287e-01 1.253600269556045532e-01 7.194789499044418335e-02 1.175528690218925476e-01
4.258000000000000000e+03 3.331541061401367188e+01 1.266852474212646484e+01 -3.612291812896728516e-01 -1.695554256439208984e-01 -1.592353731393814087e-01 -2.617849111557006836e-01
4.259000000000000000e+03 2.429718589782714844e+01 1.642515182495117188e+01 9.882674366235733032e-02 1.326051652431488037e-01 6.942957639694213867e-02 1.186269968748092651e-01
4.260000000000000000e+03 4.376546478271484375e+01 3.474410629272460938e+01 7.066932320594787598e-02 -4.318262264132499695e-02 8.246010169386863708e-03 1.576876342296600342e-01
4.261000000000000000e+03 4.722125244140625000e+01 2.573990058898925781e+01 1.111996293067932129e+00 2.792554140090942383e+00 1.171365141868591309e+00 1.910418272018432617e+00
4.262000000000000000e+03 4.740074539184570312e+01 2.607151794433593750e+01 1.176784634590148926e+00 2.836540937423706055e+00 1.203997731208801270e+00 1.967568874359130859e+00
4.263000000000000000e+03 1.452848243713378906e+01 6.208384037017822266e+00 1.349632889032363892e-01 4.599224030971527100e-01 1.784657090902328491e-01 2.120080143213272095e-01
4.264000000000000000e+03 5.414211273193359375e+01 3.406838607788085938e+01 2.855058431625366211e+00 1.783571434020996094e+01 6.207231521606445312e+00 4.539303302764892578e+00
4.265000000000000000e+03 5.489117050170898438e+01 3.412660980224609375e+01 3.108433246612548828e+00 1.732021331787109375e+01 6.128593921661376953e+00 2.203049421310424805e+00
4.266000000000000000e+03 2.008792304992675781e+01 1.226266002655029297e+01 1.224862039089202881e-01 1.729033589363098145e-01 8.861687034368515015e-02 1.455490887165069580e-01
4.267000000000000000e+03 3.433662414550781250e+01 1.354622364044189453e+01 -2.826389670372009277e-01 -6.820189207792282104e-02 -1.052522584795951843e-01 -1.675525158643722534e-01
4.268000000000000000e+03 2.641135787963867188e+01 1.805392265319824219e+01 9.660179167985916138e-02 1.208451166749000549e-01 6.523407250642776489e-02 1.089667677879333496e-01
4.269000000000000000e+03 2.129084014892578125e+01 1.251834297180175781e+01 1.304681748151779175e-01 1.632710844278335571e-01 8.812177926301956177e-02 1.481803655624389648e-01
4.270000000000000000e+03 1.705023574829101562e+01 8.970362663269042969e+00 1.455089151859283447e-01 2.380703389644622803e-01 1.150737777352333069e-01 1.779899299144744873e-01
4.271000000000000000e+03 1.715310287475585938e+01 8.540328025817871094e+00 1.566998958587646484e-01 2.397744953632354736e-01 1.189423203468322754e-01 1.894431710243225098e-01
4.272000000000000000e+03 5.466284942626953125e+01 3.479226684570312500e+01 4.064874172210693359e+00 1.949948120117187500e+01 7.069306373596191406e+00 2.456057310104370117e+00
4.273000000000000000e+03 5.512324905395507812e+01 3.559712600708007812e+01 4.866745471954345703e+00 1.942208862304687500e+01 7.286649703979492188e+00 1.698633909225463867e+00
4.274000000000000000e+03 3.975310516357421875e+01 1.984365844726562500e+01 1.321677118539810181e-01 4.321910142898559570e-01 1.693076193332672119e-01 2.821315228939056396e-01
4.275000000000000000e+03 1.629901123046875000e+01 8.543733596801757812e+00 1.313361227512359619e-01 2.673811316490173340e-01 1.196151822805404663e-01 1.796049475669860840e-01
4.276000000000000000e+03 3.083568000793457031e+01 2.317217254638671875e+01 6.419892609119415283e-02 1.019798740744590759e-01 4.985364153981208801e-02 8.176841586828231812e-02
4.277000000000000000e+03 1.703294563293457031e+01 -2.891010284423828125e+00 6.664730608463287354e-02 -9.567812830209732056e-02 -8.709247224032878876e-03 -2.818468958139419556e-02
4.278000000000000000e+03 3.367354965209960938e+01 2.644686889648437500e+01 5.803016945719718933e-02 8.400488644838333130e-02 4.261051490902900696e-02 7.754106074571609497e-02
4.279000000000000000e+03 1.688882827758789062e+01 8.042195320129394531e+00 1.621205210685729980e-01 2.496553510427474976e-01 1.235327646136283875e-01 2.034149318933486938e-01
4.280000000000000000e+03 1.291375064849853516e+01 4.492816925048828125e+00 2.174011468887329102e-01 7.749536037445068359e-01 2.977064251899719238e-01 -1.538471281528472900e-01
4.281000000000000000e+03 1.349886131286621094e+01 4.356140613555908203e+00 1.695651262998580933e-01 9.975489377975463867e-01 3.501342236995697021e-01 5.647885799407958984e-02
4.282000000000000000e+03 2.954688453674316406e+01 9.454766273498535156e+00 -1.313309907913208008e+00 -1.893176734447479248e-01 -4.507882893085479736e-01 -6.435671448707580566e-01
4.283000000000000000e+03 3.034317207336425781e+01 9.062390327453613281e+00 -7.177537679672241211e-01 2.498068660497665405e-02 -2.078319340944290161e-01 -9.820193797349929810e-02
4.284000000000000000e+03 3.086661911010742188e+01 5.313689231872558594e+00 1.357122361660003662e-01 1.434764564037322998e-01 8.375661075115203857e-02 -1.429883986711502075e-01
4.285000000000000000e+03 3.454397964477539062e+01 2.635508155822753906e+01 6.685082614421844482e-02 9.372264891862869263e-02 4.817204177379608154e-02 6.982371956110000610e-02
4.286000000000000000e+03 3.101704406738281250e+01 9.369989395141601562e+00 -5.614040493965148926e-01 -3.903020545840263367e-02 -1.801302731037139893e-01 -1.001829579472541809e-01
4.287000000000000000e+03 3.359580993652343750e+01 2.506026840209960938e+01 6.019508466124534607e-02 8.392056822776794434e-02 4.323469474911689758e-02 8.592738211154937744e-02
4.288000000000000000e+03 2.992532539367675781e+01 5.178894042968750000e+00 6.809832900762557983e-02 1.482876092195510864e-01 6.491578370332717896e-02 -1.541841030120849609e-01
4.289000000000000000e+03 2.861420822143554688e+01 2.001902770996093750e+01 9.563956409692764282e-02 1.056316047906875610e-01 6.038134917616844177e-02 9.428980201482772827e-02
4.290000000000000000e+03 3.254304122924804688e+01 6.956536769866943359e+00 6.542515754699707031e-02 1.686125397682189941e-01 7.021131366491317749e-02 4.609435424208641052e-02
4.291000000000000000e+03 1.926568031311035156e+01 9.859272956848144531e+00 1.550130695104598999e-01 1.882521957159042358e-01 1.029795780777931213e-01 1.752698123455047607e-01
4.292000000000000000e+03 1.883459663391113281e+01 9.387429237365722656e+00 1.647688895463943481e-01 2.050206512212753296e-01 1.109368577599525452e-01 1.770132929086685181e-01
4.293000000000000000e+03 5.200573730468750000e+01 3.933783721923828125e+01 8.165071606636047363e-01 -6.303936243057250977e-01 5.583405122160911560e-02 -1.439634323120117188e+00
4.294000000000000000e+03 5.240838623046875000e+01 3.889003372192382812e+01 -2.185418605804443359e+00 -6.116870641708374023e-01 -8.391317129135131836e-01 -1.126534819602966309e+00
4.295000000000000000e+03 5.594120025634765625e+01 3.740886306762695312e+01 3.751971960067749023e+00 1.682053947448730469e+01 6.171753883361816406e+00 1.668967247009277344e+00
4.296000000000000000e+03 2.879170417785644531e+01 2.086331748962402344e+01 8.834172040224075317e-02 1.022476106882095337e-01 5.717679858207702637e-02 8.813241124153137207e-02
4.297000000000000000e+03 3.658370971679687500e+01 2.855026626586914062e+01 7.987636327743530273e-02 1.086287647485733032e-01 5.655153840780258179e-02 6.991079449653625488e-02
4.298000000000000000e+03 3.625387954711914062e+01 2.821521568298339844e+01 7.098256796598434448e-02 6.295759230852127075e-02 4.018204659223556519e-02 8.232319355010986328e-02
4.299000000000000000e+03 5.080130767822265625e+01 3.940558242797851562e+01 -5.544874668121337891e-01 9.175617694854736328e-01 1.089222878217697144e-01 -3.559493124485015869e-01
4.300000000000000000e+03 4.738743209838867188e+01 3.760062408447265625e+01 -1.616170108318328857e-01 -2.566613815724849701e-02 -5.618494749069213867e-02 4.201963245868682861e-01
4.301000000000000000e+03 3.863385391235351562e+01 3.011318778991699219e+01 8.780596405267715454e-02 9.105809032917022705e-02 5.365921556949615479e-02 6.381032615900039673e-02
4.302000000000000000e+03 5.488988876342773438e+01 3.518647384643554688e+01 4.595587730407714844e+00 1.956408691406250000e+01 7.247902393341064453e+00 2.074207067489624023e+00
4.303000000000000000e+03 1.010754680633544922e+01 3.495646715164184570e+00 3.023616373538970947e-01 -2.391809672117233276e-01 1.895419880747795105e-02 1.160543113946914673e-01
4.304000000000000000e+03 1.057566738128662109e+01 2.747259616851806641e+00 2.672757804393768311e-01 -3.166491389274597168e-01 -1.481201127171516418e-02 2.112703919410705566e-01
4.305000000000000000e+03 5.417383575439453125e+01 3.504389953613281250e+01 4.215844631195068359e+00 2.262998580932617188e+01 8.053749084472656250e+00 4.382674217224121094e+00
4.306000000000000000e+03 4.497432708740234375e+01 3.571489715576171875e+01 1.296855807304382324e-01 -8.669015020132064819e-02 1.289862766861915588e-02 1.321601420640945435e-01
4.307000000000000000e+03 1.124209976196289062e+01 2.702557802200317383e+00 4.440727233886718750e-01 -2.358406037092208862e-01 6.246963515877723694e-02 1.181874647736549377e-01
4.308000000000000000e+03 1.888794517517089844e+01 -2.003549098968505859e+00 -1.480321586132049561e-01 1.166291236877441406e+00 3.054777383804321289e-01 5.157813802361488342e-02
4.309000000000000000e+03 2.286627769470214844e+01 -6.939796209335327148e-01 -9.677152037620544434e-01 -2.205804437398910522e-01 -3.564887046813964844e-01 2.689273655414581299e-01
4.310000000000000000e+03 6.356268405914306641e+00 2.506850481033325195e+00 -1.181071177124977112e-01 -7.921509444713592529e-02 -5.919666215777397156e-02 1.840365231037139893e-01
4.311000000000000000e+03 5.347413635253906250e+01 4.023108673095703125e+01 -3.051188832614570856e-04 8.455829620361328125e+00 2.536657333374023438e+00 -2.533705949783325195e+00
4.312000000000000000e+03 3.096924781799316406e+00 4.507094860076904297e+00 -4.664157051593065262e-03 -9.682717174291610718e-02 -3.044739738106727600e-02 9.594669193029403687e-02
4.313000000000000000e+03 3.770473480224609375e+00 3.465263366699218750e+00 -2.935984916985034943e-02 -7.067745923995971680e-02 -3.001119196414947510e-02 1.085736602544784546e-01
4.314000000000000000e+03 4.900887680053710938e+01 3.811679840087890625e+01 -1.248377084732055664e+00 7.606803774833679199e-01 -1.463090032339096069e-01 9.487513452768325806e-02
4.315000000000000000e+03 8.778815269470214844e+00 -3.534162759780883789e+00 -1.948290914297103882e-01 -3.640969842672348022e-02 -6.937163323163986206e-02 -2.060241550207138062e-01
4.316000000000000000e+03 5.488595962524414062e+01 3.715187835693359375e+01 3.685728549957275391e+00 2.158895492553710938e+01 7.582405090332031250e+00 -1.874708533287048340e-01
4.317000000000000000e+03 1.719182586669921875e+01 -4.397804737091064453e+00 2.275702804327011108e-01 3.718235492706298828e-01 1.798181533813476562e-01 1.258824020624160767e-01
4.318000000000000000e+03 1.316308403015136719e+01 -4.930220127105712891e+00 -2.849412709474563599e-02 -1.895200163125991821e-01 -6.540424376726150513e-02 -3.158292174339294434e-01
4.319000000000000000e+03 1.382104015350341797e+01 -5.170502662658691406e+00 7.016525417566299438e-02 -2.103941738605499268e-01 -4.206867516040802002e-02 -2.722379565238952637e-01
4.320000000000000000e+03 2.450512123107910156e+01 -1.372470259666442871e+00 -6.831775903701782227e-01 -2.459623962640762329e-01 -2.787419855594635010e-01 2.719055414199829102e-01
4.321000000000000000e+03 2.298015213012695312e+01 8.444702625274658203e-01 -4.347567856311798096e-01 -2.211539745330810547e-01 -1.967732310295104980e-01 -1.631544716656208038e-02
4.322000000000000000e+03 1.586923980712890625e+01 -3.590826749801635742e+00 8.565017022192478180e-03 -2.778097391128540039e-01 -8.077342063188552856e-02 -2.268775999546051025e-01
4.323000000000000000e+03 5.179423332214355469e+00 3.355223178863525391e+00 -4.051301628351211548e-02 -8.304139226675033569e-02 -3.706632182002067566e-02 1.509355157613754272e-01
4.324000000000000000e+03 4.190974712371826172e+00 4.601284027099609375e+00 1.970106735825538635e-03 -1.025619059801101685e-01 -3.017753921449184418e-02 1.197369620203971863e-01
4.325000000000000000e+03 4.968242168426513672e+00 -3.869125366210937500e+00 -6.983707845211029053e-02 -5.456870049238204956e-02 -3.732173517346382141e-02 -1.197078898549079895e-01
4.326000000000000000e+03 4.284540176391601562e+01 3.483570861816406250e+01 2.990693785250186920e-02 5.921746417880058289e-02 2.673731930553913116e-02 1.330761462450027466e-01
4.327000000000000000e+03 4.867203903198242188e+01 3.863637542724609375e+01 -9.186458587646484375e-01 8.738282322883605957e-01 -1.344527304172515869e-02 6.919959783554077148e-01
4.328000000000000000e+03 4.204266357421875000e+01 3.507598876953125000e+01 9.769252687692642212e-02 -3.239994868636131287e-03 2.833575941622257233e-02 6.734766811132431030e-02
4.329000000000000000e+03 3.298307180404663086e+00 -4.311056613922119141e+00 -3.141221031546592712e-02 -7.149203866720199585e-02 -3.087127581238746643e-02 -8.806192874908447266e-02
4.330000000000000000e+03 5.870489120483398438e+00 3.286408662796020508e+00 -4.585792124271392822e-02 -9.577704221010208130e-02 -4.249048978090286255e-02 1.725300550460815430e-01
4.331000000000000000e+03 7.157330036163330078e+00 3.088626384735107422e+00 -5.811746418476104736e-02 -1.280496716499328613e-01 -5.585014075040817261e-02 2.183851301670074463e-01
4.332000000000000000e+03 6.537932872772216797e+00 3.192834854125976562e+00 -4.925746098160743713e-02 -1.100359335541725159e-01 -4.778802022337913513e-02 1.954087167978286743e-01
4.333000000000000000e+03 1.492892169952392578e+01 -6.719485282897949219e+00 2.204638570547103882e-01 7.706035394221544266e-03 6.845097243785858154e-02 -7.538541406393051147e-02
4.334000000000000000e+03 2.744523048400878906e+01 -1.890135169029235840e+00 -3.227714598178863525e-01 -1.427043825387954712e-01 -1.396427601575851440e-01 1.403610706329345703e-01
4.335000000000000000e+03 2.799911499023437500e+01 -2.972475767135620117e+00 -3.027419745922088623e-01 -1.604592353105545044e-01 -1.389603614807128906e-01 1.938281953334808350e-01
4.336000000000000000e+03 3.122425842285156250e+01 -5.418304920196533203e+00 -2.107303440570831299e-01 1.300250738859176636e-01 -2.421157993376255035e-02 8.932401984930038452e-02
4.337000000000000000e+03 2.912846755981445312e+01 -4.846670150756835938e+00 -2.840742468833923340e-01 -1.893621087074279785e-01 -1.420309096574783325e-01 2.229482233524322510e-01
4.338000000000000000e+03 4.026933288574218750e+01 3.258449935913085938e+01 1.154562905430793762e-01 7.987949997186660767e-02 5.860073864459991455e-02 7.538548111915588379e-02
4.339000000000000000e+03 3.871432876586914062e+01 3.310372161865234375e+01 4.038786888122558594e-02 7.472959160804748535e-02 3.453523665666580200e-02 8.016809076070785522e-02
4.340000000000000000e+03 1.965531349182128906e+01 -1.631468772888183594e+01 8.151186257600784302e-02 3.960376679897308350e-01 1.432648599147796631e-01 -1.689608693122863770e-01
4.341000000000000000e+03 7.839336395263671875e+01 -2.239221954345703125e+01 5.089141777716577053e-04 8.907062530517578125e+00 2.672271490097045898e+00 6.668141484260559082e-02
4.342000000000000000e+03 7.364523315429687500e+01 -7.364595890045166016e+00 -7.423881441354751587e-02 8.509079933166503906e+00 2.530452489852905273e+00 2.429021336138248444e-02
4.343000000000000000e+03 7.403427886962890625e+01 -1.560497856140136719e+01 -4.049563035368919373e-02 8.471143722534179688e+00 2.529194355010986328e+00 1.657660603523254395e-01
4.344000000000000000e+03 1.763423728942871094e+01 -1.343467044830322266e+01 1.199121996760368347e-01 3.620371818542480469e-01 1.445848196744918823e-01 -1.056848391890525818e-01
4.345000000000000000e+03 7.294179534912109375e+01 1.090898036956787109e+01 -2.166714221239089966e-01 8.090445518493652344e+00 2.362132310867309570e+00 -6.224592924118041992e-01
4.346000000000000000e+03 7.474804687500000000e+01 1.534641170501708984e+01 -1.413434296846389771e-01 7.895594120025634766e+00 2.326275348663330078e+00 -7.145760059356689453e-01
4.347000000000000000e+03 7.370191955566406250e+01 1.714392280578613281e+01 -1.695281863212585449e-01 7.730329990386962891e+00 2.268240690231323242e+00 -8.923189640045166016e-01
4.348000000000000000e+03 7.550682067871093750e+00 2.265662956237792969e+01 -5.101783201098442078e-03 -4.556667432188987732e-02 -1.520053762942552567e-02 -1.487561780959367752e-02
4.349000000000000000e+03 3.873065948486328125e+00 2.131674766540527344e+01 -4.037458915263414383e-03 -1.224862113595008850e-01 -3.795710206031799316e-02 -1.655551046133041382e-02
4.350000000000000000e+03 5.703824043273925781e+00 2.139683341979980469e+01 -4.212263505905866623e-03 -8.034954220056533813e-02 -2.536854147911071777e-02 -1.782929338514804840e-02
4.351000000000000000e+03 6.771777629852294922e+00 1.434298324584960938e+01 1.764024235308170319e-02 -4.715435579419136047e-02 -8.854233659803867340e-03 -1.383104082196950912e-02
4.352000000000000000e+03 5.221972465515136719e+00 8.715348243713378906e+00 6.512926518917083740e-02 -1.178376004099845886e-01 -1.581249944865703583e-02 4.229274019598960876e-02
4.353000000000000000e+03 7.477111053466796875e+01 -1.784277677536010742e+00 -7.219149917364120483e-02 8.679373741149902344e+00 2.582154512405395508e+00 -9.708723425865173340e-02
4.354000000000000000e+03 7.525755310058593750e+01 -6.900730133056640625e-01 -6.234564259648323059e-02 8.754454612731933594e+00 2.607632637023925781e+00 -1.156945005059242249e-01
4.355000000000000000e+03 6.936099052429199219e+00 -9.335072517395019531e+00 4.475810751318931580e-02 -1.593533158302307129e-01 -3.437856212258338928e-02 -1.771706193685531616e-01
4.356000000000000000e+03 7.435730743408203125e+01 -8.831191062927246094e+00 -6.186413392424583435e-02 8.619534492492675781e+00 2.567301034927368164e+00 5.609527230262756348e-02
4.357000000000000000e+03 1.387157917022705078e+01 -7.957589149475097656e+00 1.861473321914672852e-01 -1.380325015634298325e-02 5.170322209596633911e-02 -1.173002570867538452e-01
4.358000000000000000e+03 7.521543121337890625e+01 4.939467430114746094e+00 -8.522381633520126343e-02 8.581206321716308594e+00 2.548794746398925781e+00 -2.721630334854125977e-01
4.359000000000000000e+03 7.553656005859375000e+01 2.679992437362670898e+00 -6.659668684005737305e-02 8.710115432739257812e+00 2.593055486679077148e+00 -1.969951391220092773e-01
4.360000000000000000e+03 7.297500610351562500e+01 3.372495174407958984e+00 -1.591943949460983276e-01 8.317543029785156250e+00 2.447504520416259766e+00 -2.899472415447235107e-01
4.361000000000000000e+03 7.366110992431640625e+01 -1.919325447082519531e+01 -3.068394027650356293e-02 8.339141845703125000e+00 2.492537498474121094e+00 2.143067419528961182e-01
4.362000000000000000e+03 7.096707153320312500e+01 2.061160469055175781e+01 -2.699718773365020752e-01 7.784473419189453125e+00 2.254350423812866211e+00 -1.241180062294006348e+00
4.363000000000000000e+03 7.461146545410156250e+01 -2.270764541625976562e+01 -1.453054882586002350e-02 8.372554779052734375e+00 2.507407426834106445e+00 2.160565406084060669e-01
4.364000000000000000e+03 2.918777942657470703e+00 -1.339474773406982422e+01 1.833121851086616516e-02 -2.972645163536071777e-01 -8.367998898029327393e-02 -6.778744608163833618e-02
4.365000000000000000e+03 5.702984809875488281e+00 1.763706970214843750e+01 3.314759116619825363e-03 -7.820156961679458618e-02 -2.246604301035404205e-02 -1.900216192007064819e-02
4.366000000000000000e+03 4.023901367187500000e+01 -1.785825347900390625e+01 -1.429326087236404419e-01 1.977601647377014160e+00 5.504006743431091309e-01 -3.156372606754302979e-01
4.367000000000000000e+03 4.084584808349609375e+01 -2.359437751770019531e+01 3.393585979938507080e-02 2.163774728775024414e+00 6.593132019042968750e-01 -6.259140968322753906e-01
4.368000000000000000e+03 1.944636821746826172e+00 1.757067871093750000e+01 -2.004149137064814568e-03 -1.848538219928741455e-01 -5.605739355087280273e-02 -1.246973872184753418e-02
4.369000000000000000e+03 2.878391265869140625e+01 4.467577457427978516e+00 3.342567384243011475e-02 1.726122200489044189e-02 1.520606968551874161e-02 -7.835029810667037964e-02
4.370000000000000000e+03 2.901818084716796875e+01 4.568461418151855469e+00 3.080437146127223969e-02 4.107405617833137512e-02 2.156352810561656952e-02 -8.545192331075668335e-02
4.371000000000000000e+03 2.770162391662597656e+01 4.038064002990722656e+00 5.146698281168937683e-02 -9.564956277608871460e-02 -1.325477473437786102e-02 -8.410266786813735962e-02
4.372000000000000000e+03 2.393584060668945312e+01 1.707580685615539551e+00 -1.159194335341453552e-01 -1.317103654146194458e-01 -7.428894191980361938e-02 -8.689036220312118530e-02
4.373000000000000000e+03 2.642497062683105469e+01 2.975725173950195312e+00 3.611776977777481079e-02 -1.345759928226470947e-01 -2.953746914863586426e-02 -1.029895171523094177e-01
4.374000000000000000e+03 2.813858985900878906e+01 4.357455730438232422e+00 4.426244273781776428e-02 -6.723325699567794800e-02 -6.891242694109678268e-03 -7.502581924200057983e-02
4.375000000000000000e+03 2.378717613220214844e+01 1.159071683883666992e+00 -2.532904148101806641e-01 -1.444028317928314209e-01 -1.193079724907875061e-01 -8.048583567142486572e-02
4.376000000000000000e+03 2.408908843994140625e+01 1.400884866714477539e+00 -2.004543095827102661e-01 -1.701419502496719360e-01 -1.111788749694824219e-01 -6.060389429330825806e-02
4.377000000000000000e+03 2.435111236572265625e+01 2.084684848785400391e+00 -2.656701579689979553e-02 -1.346188783645629883e-01 -4.835576936602592468e-02 -9.489741176366806030e-02
4.378000000000000000e+03 2.671721839904785156e+01 3.347358703613281250e+00 5.151826143264770508e-02 -1.368851214647293091e-01 -2.561005949974060059e-02 -9.903327375650405884e-02
4.379000000000000000e+03 2.718871116638183594e+01 4.012205600738525391e+00 5.069279670715332031e-02 -1.284852176904678345e-01 -2.333772368729114532e-02 -8.873504400253295898e-02
4.380000000000000000e+03 2.482567596435546875e+01 2.268242359161376953e+00 -2.070058695971965790e-02 -1.426968723535537720e-01 -4.901923611760139465e-02 -8.538758009672164917e-02
4.381000000000000000e+03 2.253681945800781250e+01 2.077201604843139648e-01 -7.369484901428222656e-01 -2.635945677757263184e-01 -3.001629114151000977e-01 8.432181924581527710e-02
4.382000000000000000e+03 2.513757133483886719e+01 2.142901659011840820e+00 -4.319920390844345093e-02 -1.529164165258407593e-01 -5.883468687534332275e-02 -9.835621714591979980e-02
4.383000000000000000e+03 2.140582656860351562e+01 -2.549392282962799072e-01 -1.097185730934143066e+00 -2.235655486583709717e-01 -3.962253928184509277e-01 3.512997329235076904e-01
4.384000000000000000e+03 2.441106033325195312e+01 1.595016002655029297e+00 -1.231593862175941467e-01 -1.416610330343246460e-01 -7.944612205028533936e-02 -1.001414060592651367e-01
4.385000000000000000e+03 4.814763641357421875e+01 2.649289703369140625e+01 1.246473670005798340e+00 3.365775585174560547e+00 1.383674740791320801e+00 2.219972848892211914e+00
4.386000000000000000e+03 4.812693405151367188e+01 2.704360580444335938e+01 1.483042240142822266e+00 3.216878414154052734e+00 1.409976124763488770e+00 2.295798540115356445e+00
4.387000000000000000e+03 4.045024871826171875e+01 1.932227897644042969e+01 1.471812874078750610e-01 7.508352398872375488e-01 2.694049477577209473e-01 4.326513409614562988e-01
4.388000000000000000e+03 1.776968765258789062e+01 -1.925116062164306641e+00 -4.845124483108520508e-01 2.534690201282501221e-01 -6.931302696466445923e-02 -2.120465189218521118e-01
4.389000000000000000e+03 5.181370544433593750e+01 2.933942031860351562e+01 1.540032982826232910e+00 7.624707698822021484e+00 2.749422073364257812e+00 3.425509929656982422e+00
4.390000000000000000e+03 1.440302944183349609e+01 6.680798530578613281e+00 1.106975898146629333e-01 4.288459420204162598e-01 1.618630588054656982e-01 1.709769517183303833e-01
4.391000000000000000e+03 1.408043003082275391e+01 6.086564064025878906e+00 1.095228642225265503e-01 5.150034427642822266e-01 1.873578876256942749e-01 1.669272035360336304e-01
4.392000000000000000e+03 4.964748382568359375e+01 2.777673339843750000e+01 1.522005319595336914e+00 4.711202144622802734e+00 1.869962215423583984e+00 2.796429872512817383e+00
4.393000000000000000e+03 1.609704017639160156e+01 7.661527156829833984e+00 1.539524048566818237e-01 2.932806611061096191e-01 1.341699212789535522e-01 2.031922787427902222e-01
4.394000000000000000e+03 4.775120925903320312e+01 2.586961936950683594e+01 1.105516791343688965e+00 3.177659034729003906e+00 1.284952759742736816e+00 2.063078641891479492e+00
4.395000000000000000e+03 3.129886817932128906e+01 9.748901367187500000e+00 -5.996268987655639648e-01 -7.357522845268249512e-02 -2.019606381654739380e-01 -1.774191558361053467e-01
4.396000000000000000e+03 4.052074813842773438e+01 2.001508140563964844e+01 1.826725751161575317e-01 6.622089743614196777e-01 2.534644603729248047e-01 4.170844554901123047e-01
4.397000000000000000e+03 2.442240715026855469e+01 1.597652435302734375e+01 1.101840510964393616e-01 1.315711140632629395e-01 7.252655178308486938e-02 1.231432333588600159e-01
4.398000000000000000e+03 3.778001785278320312e+01 1.609688568115234375e+01 -7.629922032356262207e-02 4.442253112792968750e-01 1.103778257966041565e-01 1.450048685073852539e-01
4.399000000000000000e+03 1.568313026428222656e+01 7.440332889556884766e+00 1.479640603065490723e-01 3.207011818885803223e-01 1.405995637178421021e-01 1.974135190248489380e-01
4.400000000000000000e+03 3.596046829223632812e+01 1.517109966278076172e+01 -1.738281548023223877e-01 9.842213988304138184e-02 -2.262180671095848083e-02 -5.524358153343200684e-02
4.401000000000000000e+03 2.547760963439941406e+01 1.776219749450683594e+01 9.873408824205398560e-02 1.252769231796264648e-01 6.720330566167831421e-02 1.080928370356559753e-01
4.402000000000000000e+03 2.384657859802246094e+01 1.544455718994140625e+01 1.095274761319160461e-01 1.413134336471557617e-01 7.525227218866348267e-02 1.263718158006668091e-01
4.403000000000000000e+03 3.638767623901367188e+01 3.040813446044921875e+01 7.198199629783630371e-02 5.160038545727729797e-02 3.707471489906311035e-02 8.267487585544586182e-02
4.404000000000000000e+03 2.101448249816894531e+01 1.285395622253417969e+01 1.232981607317924500e-01 1.649943143129348755e-01 8.648774027824401855e-02 1.416771262884140015e-01
4.405000000000000000e+03 4.867489624023437500e+01 2.755229187011718750e+01 1.638209342956542969e+00 3.593352317810058594e+00 1.569468498229980469e+00 2.508204936981201172e+00
4.406000000000000000e+03 4.092931365966796875e+01 2.085949897766113281e+01 2.530553638935089111e-01 6.475533843040466309e-01 2.701826095581054688e-01 4.584429860115051270e-01
4.407000000000000000e+03 4.595501327514648438e+01 2.548425674438476562e+01 1.099662661552429199e+00 1.980163216590881348e+00 9.239477515220642090e-01 1.529902458190917969e+00
4.408000000000000000e+03 4.382421493530273438e+01 2.187366485595703125e+01 4.401282370090484619e-01 1.656102180480957031e+00 6.288691163063049316e-01 1.001623272895812988e+00
4.409000000000000000e+03 4.336983108520507812e+01 2.254306221008300781e+01 5.316773653030395508e-01 1.291999101638793945e+00 5.471029877662658691e-01 9.043918848037719727e-01
4.410000000000000000e+03 4.221728897094726562e+01 2.082821464538574219e+01 2.962326705455780029e-01 1.149680733680725098e+00 4.337740242481231689e-01 7.001947760581970215e-01
4.411000000000000000e+03 4.264770889282226562e+01 2.172390174865722656e+01 4.095841348171234131e-01 1.144035816192626953e+00 4.660859704017639160e-01 7.624332904815673828e-01
4.412000000000000000e+03 3.029637718200683594e+01 2.224978065490722656e+01 6.885972619056701660e-02 9.303531050682067871e-02 4.856851324439048767e-02 9.032075107097625732e-02
4.413000000000000000e+03 2.961211776733398438e+01 2.173947334289550781e+01 7.251613587141036987e-02 9.529115259647369385e-02 5.034218356013298035e-02 9.154270589351654053e-02
4.414000000000000000e+03 4.289564514160156250e+01 2.191716384887695312e+01 4.364527463912963867e-01 1.213095903396606445e+00 4.948645830154418945e-01 8.077502250671386719e-01
4.415000000000000000e+03 3.287413024902343750e+01 2.597591781616210938e+01 6.644329428672790527e-02 8.149334043264389038e-02 4.438099265098571777e-02 7.841557264328002930e-02
4.416000000000000000e+03 3.263320922851562500e+01 1.176723861694335938e+01 -4.523332417011260986e-01 -1.695968508720397949e-01 -1.865790337324142456e-01 -2.843678593635559082e-01
4.417000000000000000e+03 3.323101425170898438e+01 1.211152172088623047e+01 -3.832753896713256836e-01 -1.002833917737007141e-01 -1.450676321983337402e-01 -2.285595238208770752e-01
4.418000000000000000e+03 4.240884399414062500e+01 2.151392173767089844e+01 3.748670220375061035e-01 1.086875915527343750e+00 4.385228753089904785e-01 7.143517732620239258e-01
4.419000000000000000e+03 3.582235717773437500e+01 2.993066215515136719e+01 5.319208651781082153e-02 1.139703765511512756e-01 5.014873668551445007e-02 6.184735149145126343e-02
4.420000000000000000e+03 2.876134872436523438e+01 2.040307426452636719e+01 7.785847038030624390e-02 1.038582026958465576e-01 5.451500043272972107e-02 1.004427820444107056e-01
4.421000000000000000e+03 4.782535934448242188e+01 2.738232612609863281e+01 1.641366124153137207e+00 2.815272808074951172e+00 1.336991667747497559e+00 2.204104661941528320e+00
4.422000000000000000e+03 4.841574478149414062e+01 2.729352760314941406e+01 1.552931070327758789e+00 3.420207500457763672e+00 1.491941571235656738e+00 2.403962612152099609e+00
4.423000000000000000e+03 4.347725296020507812e+01 2.219834709167480469e+01 4.857829213142395020e-01 1.430443406105041504e+00 5.748679041862487793e-01 9.381361007690429688e-01
4.424000000000000000e+03 5.229796981811523438e+01 3.056456375122070312e+01 2.125538825988769531e+00 8.720844268798828125e+00 3.253914833068847656e+00 3.967206001281738281e+00
4.425000000000000000e+03 5.343031692504882812e+01 3.094562721252441406e+01 1.618519902229309082e+00 1.093077659606933594e+01 3.764788866043090820e+00 3.497093677520751953e+00
4.426000000000000000e+03 3.550022125244140625e+01 1.404962253570556641e+01 -2.131903767585754395e-01 1.421064436435699463e-01 -2.132518030703067780e-02 -5.235734581947326660e-02
4.427000000000000000e+03 4.546886062622070312e+01 2.501399421691894531e+01 9.998401999473571777e-01 1.835637331008911133e+00 8.506432771682739258e-01 1.377266287803649902e+00
4.428000000000000000e+03 2.928837585449218750e+01 2.147564697265625000e+01 7.645025849342346191e-02 1.078762859106063843e-01 5.529796332120895386e-02 8.653922379016876221e-02
4.429000000000000000e+03 2.859557533264160156e+01 2.163578796386718750e+01 6.561750173568725586e-02 1.108117625117301941e-01 5.292877927422523499e-02 8.692401647567749023e-02
4.430000000000000000e+03 5.314162826538085938e+01 3.274474716186523438e+01 3.200345516204833984e+00 1.207837772369384766e+01 4.583616733551025391e+00 5.473043918609619141e+00
4.431000000000000000e+03 3.770122146606445312e+01 1.724614715576171875e+01 -3.898506984114646912e-02 2.745190858840942383e-01 7.066021114587783813e-02 9.495577961206436157e-02
4.432000000000000000e+03 5.285359191894531250e+01 3.091355133056640625e+01 2.001943826675415039e+00 9.787827491760253906e+00 3.536931514739990234e+00 3.906893014907836914e+00
4.433000000000000000e+03 4.445567321777343750e+01 2.379308509826660156e+01 7.397875189781188965e-01 1.599835395812988281e+00 7.018868327140808105e-01 1.125081300735473633e+00
4.434000000000000000e+03 5.178108596801757812e+01 3.066757011413574219e+01 2.570336341857910156e+00 7.884039402008056641e+00 3.136312723159790039e+00 4.223316669464111328e+00
4.435000000000000000e+03 2.065799522399902344e+01 1.205519390106201172e+01 1.315650641918182373e-01 1.691154241561889648e-01 9.020414948463439941e-02 1.484338045120239258e-01
4.436000000000000000e+03 2.199988746643066406e+01 1.391984939575195312e+01 1.227841973304748535e-01 1.549312770366668701e-01 8.331464231014251709e-02 1.320365518331527710e-01
4.437000000000000000e+03 3.949996948242187500e+01 1.785701179504394531e+01 4.484736546874046326e-02 6.979029178619384766e-01 2.228250801563262939e-01 3.283292353153228760e-01
4.438000000000000000e+03 2.291225433349609375e+01 1.503127670288085938e+01 1.112741380929946899e-01 1.472176909446716309e-01 7.754755020141601562e-02 1.262199878692626953e-01
4.439000000000000000e+03 4.134552001953125000e+01 2.019830894470214844e+01 2.254640161991119385e-01 9.091399908065795898e-01 3.403812050819396973e-01 5.552211999893188477e-01
4.440000000000000000e+03 4.758694839477539062e+01 2.643105888366699219e+01 1.291412115097045898e+00 2.882125377655029297e+00 1.252061247825622559e+00 2.060227394104003906e+00
4.441000000000000000e+03 4.719232940673828125e+01 2.692233657836914062e+01 1.475224733352661133e+00 2.411832809448242188e+00 1.166117310523986816e+00 1.954509854316711426e+00
4.442000000000000000e+03 1.369536018371582031e+01 5.478262424468994141e+00 9.646666049957275391e-02 6.431409120559692383e-01 2.218822687864303589e-01 1.184171065688133240e-01
4.443000000000000000e+03 1.761924362182617188e+01 -2.237593412399291992e+00 -1.941291838884353638e-01 1.636700928211212158e-01 -9.137726388871669769e-03 -1.492681205272674561e-01
4.444000000000000000e+03 2.664119338989257812e+01 1.878771400451660156e+01 9.550230950117111206e-02 1.187326833605766296e-01 6.427049636840820312e-02 1.060073301196098328e-01
4.445000000000000000e+03 1.398738574981689453e+01 5.357679367065429688e+00 1.223690956830978394e-01 6.560606360435485840e-01 2.335289269685745239e-01 1.940258443355560303e-01
4.446000000000000000e+03 3.136763572692871094e+01 1.036841011047363281e+01 -6.072970032691955566e-01 -1.577531397342681885e-01 -2.295150458812713623e-01 -2.926762998104095459e-01
4.447000000000000000e+03 4.500633621215820312e+01 3.719196319580078125e+01 1.692137569189071655e-01 -1.490256637334823608e-01 6.056430283933877945e-03 2.031006366014480591e-01
4.448000000000000000e+03 3.452956771850585938e+01 1.312735080718994141e+01 -2.777916789054870605e-01 3.068273328244686127e-02 -7.413268089294433594e-02 -1.255472749471664429e-01
4.449000000000000000e+03 1.737302589416503906e+01 8.956089973449707031e+00 1.506740599870681763e-01 2.307317703962326050e-01 1.144217476248741150e-01 1.798098832368850708e-01
4.450000000000000000e+03 1.781897163391113281e+01 9.141272544860839844e+00 1.596334278583526611e-01 2.217498123645782471e-01 1.144149750471115112e-01 1.793681830167770386e-01
4.451000000000000000e+03 2.248510551452636719e+01 1.454001140594482422e+01 1.189714893698692322e-01 1.504829972982406616e-01 8.083634823560714722e-02 1.270104050636291504e-01
4.452000000000000000e+03 2.224374008178710938e+01 1.422082710266113281e+01 1.160724237561225891e-01 1.525538861751556396e-01 8.058789372444152832e-02 1.309282779693603516e-01
4.453000000000000000e+03 1.705332374572753906e+01 9.398925781250000000e+00 1.310661435127258301e-01 2.321276217699050903e-01 1.089581325650215149e-01 1.666722595691680908e-01
4.454000000000000000e+03 5.398458099365234375e+01 3.314426040649414062e+01 2.436838388442993164e+00 1.474679088592529297e+01 5.155088901519775391e+00 4.436887741088867188e+00
4.455000000000000000e+03 5.177317047119140625e+01 3.021043968200683594e+01 2.182379722595214844e+00 7.665436744689941406e+00 2.954344987869262695e+00 3.916895151138305664e+00
4.456000000000000000e+03 5.133160400390625000e+01 2.985161781311035156e+01 2.121821165084838867e+00 6.950817584991455078e+00 2.721791744232177734e+00 3.752345561981201172e+00
4.457000000000000000e+03 5.456308746337890625e+01 3.378622055053710938e+01 2.545603513717651367e+00 1.683261299133300781e+01 5.813465118408203125e+00 3.115815877914428711e+00
4.458000000000000000e+03 3.975633621215820312e+01 1.931801223754882812e+01 1.146858409047126770e-01 5.446991920471191406e-01 1.978155076503753662e-01 3.163675069808959961e-01
4.459000000000000000e+03 3.624132156372070312e+01 1.459133911132812500e+01 -1.648159921169281006e-01 2.473172694444656372e-01 2.475038357079029083e-02 1.266967784613370895e-02
4.460000000000000000e+03 3.945730209350585938e+01 3.217089080810546875e+01 5.443904921412467957e-02 1.143893674015998840e-01 5.064852535724639893e-02 5.876595526933670044e-02
4.461000000000000000e+03 1.858116912841796875e+01 1.018646430969238281e+01 1.378074735403060913e-01 2.045709043741226196e-01 1.027135103940963745e-01 1.656009107828140259e-01
4.462000000000000000e+03 4.363319778442382812e+01 2.309926795959472656e+01 6.112231612205505371e-01 1.302497029304504395e+00 5.741160511970520020e-01 9.527909159660339355e-01
4.463000000000000000e+03 4.383511352539062500e+01 2.224304008483886719e+01 4.907231628894805908e-01 1.596674561500549316e+00 6.262193322181701660e-01 1.010094523429870605e+00
4.464000000000000000e+03 1.084898567199707031e+01 3.505921602249145508e+00 4.115248024463653564e-01 -1.405868530273437500e-01 8.128137886524200439e-02 2.912349300459027290e-03
4.465000000000000000e+03 1.233534717559814453e+01 3.057653188705444336e+00 7.024540901184082031e-01 4.243697524070739746e-01 3.380471467971801758e-01 -3.627202510833740234e-01
4.466000000000000000e+03 3.446353149414062500e+01 2.676822280883789062e+01 7.184613496065139771e-02 8.546853810548782349e-02 4.719440266489982605e-02 7.982029020786285400e-02
4.467000000000000000e+03 3.996426391601562500e+01 3.325153732299804688e+01 5.024234950542449951e-02 2.638244628906250000e-02 2.298743836581707001e-02 6.424821913242340088e-02
4.468000000000000000e+03 3.566226577758789062e+01 2.806726837158203125e+01 5.093940719962120056e-02 8.968120813369750977e-02 4.218618571758270264e-02 8.850771933794021606e-02
4.469000000000000000e+03 4.955394363403320312e+01 2.812691879272460938e+01 1.751538395881652832e+00 4.524903297424316406e+00 1.882932543754577637e+00 2.876685142517089844e+00
4.470000000000000000e+03 1.916413307189941406e+01 1.064951610565185547e+01 1.381939798593521118e-01 1.855388432741165161e-01 9.711984544992446899e-02 1.651021838188171387e-01
4.471000000000000000e+03 1.937970924377441406e+01 1.111551570892333984e+01 1.342475265264511108e-01 1.807178705930709839e-01 9.448961913585662842e-02 1.578792631626129150e-01
4.472000000000000000e+03 3.985724258422851562e+01 3.234803390502929688e+01 7.992403209209442139e-02 2.228565327823162079e-02 3.066290728747844696e-02 5.719301849603652954e-02
4.473000000000000000e+03 5.374563598632812500e+01 3.282124328613281250e+01 2.538723230361938477e+00 1.358940601348876953e+01 4.838438987731933594e+00 4.615148067474365234e+00
4.474000000000000000e+03 2.386148452758789062e+01 1.632177162170410156e+01 9.987568110227584839e-02 1.344553828239440918e-01 7.029931992292404175e-02 1.201850548386573792e-01
4.475000000000000000e+03 2.994291877746582031e+01 2.200181579589843750e+01 7.626747339963912964e-02 1.039042472839355469e-01 5.405151471495628357e-02 8.422553539276123047e-02
4.476000000000000000e+03 3.061731719970703125e+01 2.181751632690429688e+01 8.086580038070678711e-02 9.964813292026519775e-02 5.415417999029159546e-02 8.413509279489517212e-02
4.477000000000000000e+03 2.894061088562011719e+01 2.122961235046386719e+01 7.626967132091522217e-02 9.936376661062240601e-02 5.269003286957740784e-02 9.664046019315719604e-02
4.478000000000000000e+03 2.894235038757324219e+01 2.184995651245117188e+01 7.064979523420333862e-02 9.638794511556625366e-02 5.011132359504699707e-02 9.095451980829238892e-02
4.479000000000000000e+03 5.542639541625976562e+01 3.490206146240234375e+01 4.234583854675292969e+00 1.739345741271972656e+01 6.488412380218505859e+00 1.056227803230285645e+00
4.480000000000000000e+03 3.354364395141601562e+01 1.231742572784423828e+01 -3.495275974273681641e-01 -6.145624816417694092e-02 -1.232951506972312927e-01 -2.020942121744155884e-01
4.481000000000000000e+03 3.386623382568359375e+01 1.247031974792480469e+01 -3.249094188213348389e-01 -2.594690211117267609e-02 -1.052568927407264709e-01 -1.683958768844604492e-01
4.482000000000000000e+03 3.320834350585937500e+01 2.547528266906738281e+01 6.985978782176971436e-02 1.015078797936439514e-01 5.141029879450798035e-02 7.081456482410430908e-02
4.483000000000000000e+03 3.356052780151367188e+01 2.575725746154785156e+01 6.063995882868766785e-02 8.292865008115768433e-02 4.307058453559875488e-02 8.283272385597229004e-02
4.484000000000000000e+03 1.278773880004882812e+01 4.898700714111328125e+00 1.792375296354293823e-01 6.086144447326660156e-01 2.363556027412414551e-01 -1.197254285216331482e-01
4.485000000000000000e+03 2.379628562927246094e+01 -7.753284275531768799e-02 -6.074025034904479980e-01 -1.851340532302856445e-01 -2.377609759569168091e-01 6.001600623130798340e-02
4.486000000000000000e+03 2.350932121276855469e+01 8.834875822067260742e-01 -3.898020088672637939e-01 -2.010356187820434570e-01 -1.772512942552566528e-01 -2.195786498486995697e-02
4.487000000000000000e+03 3.170862007141113281e+01 2.395550727844238281e+01 7.354616373777389526e-02 8.737137168645858765e-02 4.827526211738586426e-02 8.097258955240249634e-02
4.488000000000000000e+03 3.258915710449218750e+01 2.403370285034179688e+01 7.309090346097946167e-02 7.985608279705047607e-02 4.588409513235092163e-02 8.013331145048141479e-02
4.489000000000000000e+03 3.642367935180664062e+01 1.551122760772705078e+01 -1.395764648914337158e-01 1.757337450981140137e-01 1.084718666970729828e-02 -1.347308512777090073e-03
4.490000000000000000e+03 5.292132186889648438e+01 3.159076499938964844e+01 2.430968999862670898e+00 1.060493564605712891e+01 3.910771608352661133e+00 4.423149108886718750e+00
4.491000000000000000e+03 3.194783973693847656e+01 1.127056217193603516e+01 -5.359307527542114258e-01 -2.137465626001358032e-01 -2.249031960964202881e-01 -3.204058706760406494e-01
4.492000000000000000e+03 1.798514556884765625e+01 9.951133728027343750e+00 1.365253925323486328e-01 2.139336168766021729e-01 1.051376983523368835e-01 1.643518805503845215e-01
4.493000000000000000e+03 1.804899597167968750e+01 9.493927955627441406e+00 1.490743905305862427e-01 2.175147384405136108e-01 1.099767386913299561e-01 1.726625114679336548e-01
4.494000000000000000e+03 2.544449043273925781e+01 1.715790176391601562e+01 1.052348092198371887e-01 1.256084740161895752e-01 6.925299018621444702e-02 1.127907410264015198e-01
4.495000000000000000e+03 3.054431915283203125e+01 4.808054447174072266e+00 9.208711236715316772e-02 1.551891863346099854e-01 7.418289035558700562e-02 -1.334605664014816284e-01
4.496000000000000000e+03 3.470561599731445312e+01 1.372546672821044922e+01 -2.601651847362518311e-01 1.190470298752188683e-03 -7.769241183996200562e-02 -1.346568018198013306e-01
4.497000000000000000e+03 1.664311981201171875e+01 8.995990753173828125e+00 1.306831538677215576e-01 2.483487874269485474e-01 1.137095838785171509e-01 1.721444427967071533e-01
4.498000000000000000e+03 1.675095748901367188e+01 8.528285980224609375e+00 1.490783393383026123e-01 2.497380077838897705e-01 1.196449026465415955e-01 1.874961555004119873e-01
4.499000000000000000e+03 2.730237579345703125e+01 1.834478759765625000e+01 1.082425415515899658e-01 1.128994077444076538e-01 6.634258478879928589e-02 1.090730950236320496e-01
4.500000000000000000e+03 1.978972244262695312e+01 1.172503852844238281e+01 1.282784640789031982e-01 1.748879849910736084e-01 9.094993770122528076e-02 1.494950503110885620e-01
4.501000000000000000e+03 1.546508979797363281e+01 7.202127456665039062e+00 1.422246992588043213e-01 3.349153995513916016e-01 1.431420296430587769e-01 2.014116644859313965e-01
4.502000000000000000e+03 1.484457492828369141e+01 7.084590435028076172e+00 1.176936030387878418e-01 3.771050870418548584e-01 1.484396010637283325e-01 1.768330484628677368e-01
4.503000000000000000e+03 3.434091949462890625e+01 2.729907035827636719e+01 5.376190319657325745e-02 1.025740355253219604e-01 4.690078273415565491e-02 7.042022794485092163e-02
4.504000000000000000e+03 3.486258316040039062e+01 2.735640716552734375e+01 8.539398759603500366e-02 7.369951158761978149e-02 4.772805050015449524e-02 7.910334318876266479e-02
4.505000000000000000e+03 2.125423812866210938e+01 1.361864948272705078e+01 1.154585257172584534e-01 1.594149023294448853e-01 8.246202766895294189e-02 1.353319734334945679e-01
4.506000000000000000e+03 2.264966011047363281e+01 -2.149027884006500244e-01 -1.000440955162048340e+00 -3.380559980869293213e-01 -4.015491008758544922e-01 1.568297445774078369e-01
4.507000000000000000e+03 1.509082984924316406e+01 5.354444503784179688e+00 2.117394208908081055e-01 3.887860774993896484e-01 1.801576465368270874e-01 3.223115205764770508e-01
4.508000000000000000e+03 3.208912277221679688e+01 7.514268398284912109e+00 1.842333190143108368e-02 8.642388880252838135e-02 3.145416453480720520e-02 6.093680486083030701e-02
4.509000000000000000e+03 3.149867248535156250e+01 7.660366058349609375e+00 2.576587535440921783e-02 -2.146586030721664429e-02 1.290004816837608814e-03 7.671346515417098999e-02
4.510000000000000000e+03 3.193053436279296875e+01 2.330335044860839844e+01 6.237462162971496582e-02 9.838524460792541504e-02 4.822795838117599487e-02 8.186741918325424194e-02
4.511000000000000000e+03 1.250588512420654297e+01 4.374288558959960938e+00 2.820649147033691406e-01 5.504442453384399414e-01 2.497527599334716797e-01 -2.132620364427566528e-01
4.512000000000000000e+03 3.128915596008300781e+01 5.802957534790039062e+00 1.808815151453018188e-01 1.149947196245193481e-01 8.876287192106246948e-02 -1.279854029417037964e-01
4.513000000000000000e+03 3.123473739624023438e+01 6.263539791107177734e+00 2.085184901952743530e-01 3.822723403573036194e-02 7.402371615171432495e-02 -8.818768709897994995e-02
4.514000000000000000e+03 2.885624694824218750e+01 -2.147727012634277344e+00 -2.260867059230804443e-01 -4.068360105156898499e-02 -8.003108948469161987e-02 9.771977365016937256e-02
4.515000000000000000e+03 3.183444213867187500e+01 8.522823333740234375e+00 -2.319755554199218750e-01 3.360212221741676331e-02 -5.951203033328056335e-02 6.378454715013504028e-02
4.516000000000000000e+03 3.308565521240234375e+01 6.839267253875732422e+00 4.913322255015373230e-02 2.479142695665359497e-01 8.911424875259399414e-02 7.436361163854598999e-02
4.517000000000000000e+03 8.825697898864746094e+00 -4.348704338073730469e+00 -1.431172937154769897e-01 -6.703524291515350342e-02 -6.304576247930526733e-02 -2.324253618717193604e-01
4.518000000000000000e+03 1.461293697357177734e+01 -5.493112087249755859e+00 1.566547006368637085e-01 -1.323757171630859375e-01 7.283694110810756683e-03 -1.730117499828338623e-01
4.519000000000000000e+03 8.058044433593750000e+00 -5.920445919036865234e+00 -4.965209588408470154e-02 -1.014458835124969482e-01 -4.532939195632934570e-02 -2.274683862924575806e-01
4.520000000000000000e+03 2.610602760314941406e+01 -2.039234042167663574e-01 -3.268724381923675537e-01 -1.437169313430786133e-01 -1.411768049001693726e-01 2.526821009814739227e-02
4.521000000000000000e+03 2.482176208496093750e+01 -7.631994485855102539e-01 -5.574729442596435547e-01 -2.188922613859176636e-01 -2.329095602035522461e-01 1.588753908872604370e-01
4.522000000000000000e+03 1.495900821685791016e+01 -4.658945560455322266e+00 1.098069697618484497e-01 -2.254782021045684814e-01 -3.470136970281600952e-02 -2.140708863735198975e-01
4.523000000000000000e+03 1.120369911193847656e+01 -5.229454040527343750e+00 -7.267860323190689087e-02 -1.362073272466659546e-01 -6.266577541828155518e-02 -3.025310933589935303e-01
4.524000000000000000e+03 1.180716609954833984e+01 -4.347968578338623047e+00 -1.746548861265182495e-01 -1.351914107799530029e-01 -9.295389056205749512e-02 -3.318363428115844727e-01
4.525000000000000000e+03 5.566933441162109375e+01 3.327965164184570312e+01 2.395634412765502930e+00 1.500069713592529297e+01 5.218899726867675781e+00 1.224099993705749512e+00
4.526000000000000000e+03 5.635689926147460938e+01 3.351588058471679688e+01 2.806251287460327148e+00 1.429027748107910156e+01 5.128958702087402344e+00 4.218102097511291504e-01
4.527000000000000000e+03 8.619632720947265625e+00 4.022229194641113281e+00 1.475946605205535889e-01 -1.936459392309188843e-01 -1.381537970155477524e-02 1.647373288869857788e-01
4.528000000000000000e+03 7.805619239807128906e+00 4.340341567993164062e+00 1.044296547770500183e-01 -1.668934673070907593e-01 -1.873914524912834167e-02 1.595992445945739746e-01
4.529000000000000000e+03 2.775485610961914062e+01 -1.181720495223999023e+00 -2.682910263538360596e-01 -9.194698184728622437e-02 -1.080714017152786255e-01 6.798721849918365479e-02
4.530000000000000000e+03 2.674915313720703125e+01 -1.495770573616027832e+00 -3.707965016365051270e-01 -1.648795902729034424e-01 -1.607028245925903320e-01 1.405467092990875244e-01
4.531000000000000000e+03 4.869764804840087891e+00 6.307323932647705078e+00 5.727916210889816284e-02 -1.269369423389434814e-01 -2.089733257889747620e-02 9.647881984710693359e-02
4.532000000000000000e+03 1.405080413818359375e+01 -4.466948509216308594e+00 -3.515224531292915344e-02 -2.361882477998733521e-01 -8.140214532613754272e-02 -3.256678879261016846e-01
4.533000000000000000e+03 1.024000263214111328e+01 -2.797818183898925781e+00 -3.219614028930664062e-01 -2.517951652407646179e-02 -1.041422784328460693e-01 -2.201798111200332642e-01
4.534000000000000000e+03 5.587022304534912109e+00 1.228156375885009766e+01 3.650678321719169617e-02 -8.618835359811782837e-02 -1.490447204560041428e-02 -3.687840653583407402e-03
4.535000000000000000e+03 9.668464660644531250e+00 4.519901275634765625e+00 2.633530497550964355e-01 -1.446937173604965210e-01 3.559779748320579529e-02 4.867712408304214478e-02
4.536000000000000000e+03 3.607791137695312500e+01 -9.781558036804199219e+00 -1.858166605234146118e-01 1.007178306579589844e+00 2.464085072278976440e-01 -4.289595782756805420e-02
4.537000000000000000e+03 3.652966690063476562e+01 -8.837543487548828125e+00 -2.086290717124938965e-01 1.140948891639709473e+00 2.796959578990936279e-01 -3.769424557685852051e-02
4.538000000000000000e+03 5.545633792877197266e+00 -6.731647014617919922e+00 -2.011530660092830658e-02 -1.221914812922477722e-01 -4.269203916192054749e-02 -1.702710092067718506e-01
4.539000000000000000e+03 3.681566238403320312e+01 3.109609794616699219e+01 7.137943804264068604e-02 1.094226464629173279e-01 5.424062535166740417e-02 5.553812533617019653e-02
4.540000000000000000e+03 4.742690563201904297e+00 4.188679218292236328e+00 -4.814898595213890076e-03 -9.600070118904113770e-02 -3.024467825889587402e-02 1.326004415750503540e-01
4.541000000000000000e+03 3.946998214721679688e+01 3.274865341186523438e+01 1.011682152748107910e-01 1.025627404451370239e-01 6.111928448081016541e-02 4.682036861777305603e-02
4.542000000000000000e+03 3.200892639160156250e+01 -5.865287780761718750e+00 -2.056242525577545166e-01 2.702002525329589844e-01 1.937279663980007172e-02 7.243221253156661987e-02
4.543000000000000000e+03 3.288209152221679688e+01 -6.216245174407958984e+00 -1.966117620468139648e-01 4.170010387897491455e-01 6.611678004264831543e-02 4.368046298623085022e-02
4.544000000000000000e+03 7.091927337646484375e+01 -1.096280574798583984e+01 -1.222589835524559021e-01 8.059297561645507812e+00 2.381111383438110352e+00 1.279801726341247559e-01
4.545000000000000000e+03 3.958512496948242188e+01 -1.469641876220703125e+01 -2.022976726293563843e-01 1.862658858299255371e+00 4.981083273887634277e-01 -2.183991074562072754e-01
4.546000000000000000e+03 7.182525634765625000e+01 -1.400106239318847656e+01 -9.095586091279983521e-02 8.155968666076660156e+00 2.419503927230834961e+00 1.778588443994522095e-01
4.547000000000000000e+03 1.619146156311035156e+01 -1.259460163116455078e+01 1.414000093936920166e-01 2.753281295299530029e-01 1.250184476375579834e-01 -8.805584907531738281e-02
4.548000000000000000e+03 1.749244880676269531e+01 -1.487557888031005859e+01 9.917190670967102051e-02 3.229054212570190430e-01 1.266231983900070190e-01 -1.087812259793281555e-01
4.549000000000000000e+03 7.165547943115234375e+01 7.249377250671386719e+00 -2.461376041173934937e-01 8.090866088867187500e+00 2.353418588638305664e+00 -4.696600139141082764e-01
4.550000000000000000e+03 7.208817291259765625e+01 1.160321712493896484e+01 -2.678847312927246094e-01 8.019828796386718750e+00 2.325583219528198242e+00 -6.922879815101623535e-01
4.551000000000000000e+03 7.296253204345703125e+01 1.399118232727050781e+01 -2.165356725454330444e-01 7.962685585021972656e+00 2.323845148086547852e+00 -7.738369703292846680e-01
4.552000000000000000e+03 8.185811042785644531e+00 2.518935775756835938e+01 -3.748947056010365486e-03 -3.689974918961524963e-02 -1.219460833817720413e-02 -1.388224214315414429e-02
4.553000000000000000e+03 8.464765548706054688e+00 2.336506843566894531e+01 -6.940559484064579010e-03 -2.746588550508022308e-02 -1.032193377614021301e-02 -1.489538140594959259e-02
4.554000000000000000e+03 7.316533088684082031e+00 2.116735076904296875e+01 -3.749407129362225533e-03 -4.589292407035827637e-02 -1.489270012825727463e-02 -1.635900139808654785e-02
4.555000000000000000e+03 7.289010620117187500e+01 -1.532087206840515137e+00 -1.253531575202941895e-01 8.376682281494140625e+00 2.475398540496826172e+00 -1.223236471414566040e-01
4.556000000000000000e+03 7.232679748535156250e+01 5.412911415100097656e+00 -2.083481699228286743e-01 8.199032783508300781e+00 2.397205352783203125e+00 -3.852505087852478027e-01
4.557000000000000000e+03 9.897657394409179688e+00 -8.642980575561523438e+00 9.178402274847030640e-02 -1.280253976583480835e-01 -1.087241247296333313e-02 -2.009903639554977417e-01
4.558000000000000000e+03 7.142237091064453125e+01 -3.590439796447753906e+00 -1.536873430013656616e-01 8.165748596191406250e+00 2.403618335723876953e+00 -6.196698173880577087e-02
4.559000000000000000e+03 7.241947937011718750e+01 -8.749907493591308594e+00 -1.001508757472038269e-01 8.305135726928710938e+00 2.461495399475097656e+00 7.027661055326461792e-02
4.560000000000000000e+03 1.254979133605957031e+01 -8.423340797424316406e+00 1.579374372959136963e-01 -7.474024593830108643e-02 2.495915628969669342e-02 -1.519998461008071899e-01
4.561000000000000000e+03 7.200963592529296875e+01 -1.986503410339355469e+01 -4.148285090923309326e-02 8.099246978759765625e+00 2.417329072952270508e+00 2.496511042118072510e-01
4.562000000000000000e+03 7.231651306152343750e+01 -5.555398464202880859e+00 -1.148842349648475647e-01 8.282953262329101562e+00 2.450420856475830078e+00 -1.649908907711505890e-02
4.563000000000000000e+03 3.846107864379882812e+01 -1.125407505035400391e+01 -2.219616621732711792e-01 1.602378606796264648e+00 4.141250848770141602e-01 -1.159747764468193054e-01
4.564000000000000000e+03 7.340361785888671875e+01 1.524869918823242188e+00 -1.242893114686012268e-01 8.412071228027343750e+00 2.486334562301635742e+00 -2.132888287305831909e-01
4.565000000000000000e+03 1.610962295532226562e+01 -1.162188720703125000e+01 1.381862014532089233e-01 2.930344939231872559e-01 1.293662041425704956e-01 -7.148804515600204468e-02
4.566000000000000000e+03 1.523345470428466797e+01 -1.268820095062255859e+01 1.335075050592422485e-01 2.025051265954971313e-01 1.008037850260734558e-01 -7.123629748821258545e-02
4.567000000000000000e+03 1.494688606262207031e+01 -1.071936225891113281e+01 1.716246157884597778e-01 1.719850599765777588e-01 1.030829027295112610e-01 -5.881305038928985596e-02
4.568000000000000000e+03 3.972080230712890625e+01 -1.656913948059082031e+01 -1.678944379091262817e-01 1.857426047325134277e+00 5.068594813346862793e-01 -2.605844438076019287e-01
4.569000000000000000e+03 2.561241149902343750e+01 2.766757249832153320e+00 3.678804636001586914e-02 -1.446526795625686646e-01 -3.235938772559165955e-02 -1.006035134196281433e-01
4.570000000000000000e+03 2.617385673522949219e+01 2.973252773284912109e+00 3.989379853010177612e-02 -1.491263806819915771e-01 -3.276977315545082092e-02 -9.550388902425765991e-02
4.571000000000000000e+03 2.332652473449707031e+01 1.195680260658264160e+00 -2.750871777534484863e-01 -1.338968575000762939e-01 -1.226952150464057922e-01 -4.766100645065307617e-02
4.572000000000000000e+03 2.432599258422851562e+01 1.066152691841125488e+00 -2.529478073120117188e-01 -1.490773260593414307e-01 -1.206075400114059448e-01 -8.867222815752029419e-02
4.573000000000000000e+03 2.697623443603515625e+01 3.633116245269775391e+00 5.662836506962776184e-02 -1.322772204875946045e-01 -2.269465662539005280e-02 -9.318792819976806641e-02
4.574000000000000000e+03 2.304180526733398438e+01 1.148644208908081055e+00 -2.988145053386688232e-01 -1.705013066530227661e-01 -1.407947391271591187e-01 -3.552485629916191101e-02
4.575000000000000000e+03 2.461058998107910156e+01 1.859431743621826172e+00 -9.846132993698120117e-02 -1.483584791421890259e-01 -7.404594123363494873e-02 -8.429664373397827148e-02
4.576000000000000000e+03 2.465021324157714844e+01 1.251510143280029297e+00 -2.109946608543395996e-01 -1.649488210678100586e-01 -1.127830445766448975e-01 -7.068494707345962524e-02
4.577000000000000000e+03 2.291478347778320312e+01 3.650270998477935791e-01 -6.743895411491394043e-01 -2.567494809627532959e-01 -2.793416976928710938e-01 1.966046914458274841e-02
4.578000000000000000e+03 2.494180107116699219e+01 1.766720890998840332e+00 -9.881911426782608032e-02 -1.604103595018386841e-01 -7.776884734630584717e-02 -9.110866487026214600e-02
4.579000000000000000e+03 3.690174865722656250e+01 1.550435352325439453e+01 -1.190517321228981018e-01 2.885029911994934082e-01 5.083537474274635315e-02 5.828663334250450134e-02
4.580000000000000000e+03 4.100414657592773438e+01 1.965436935424804688e+01 1.776346266269683838e-01 9.043388366699218750e-01 3.245920538902282715e-01 5.205423831939697266e-01
4.581000000000000000e+03 5.037869644165039062e+01 2.818083953857421875e+01 1.556216597557067871e+00 5.513343334197998047e+00 2.120867967605590820e+00 3.042930126190185547e+00
4.582000000000000000e+03 5.033101272583007812e+01 2.864680671691894531e+01 1.800342559814453125e+00 5.346315860748291016e+00 2.143997430801391602e+00 3.175145864486694336e+00
4.583000000000000000e+03 2.141658401489257812e+01 1.389738464355468750e+01 1.149973720312118530e-01 1.581792831420898438e-01 8.195299655199050903e-02 1.298599690198898315e-01
4.584000000000000000e+03 5.214834594726562500e+01 2.963419914245605469e+01 1.541222333908081055e+00 8.194842338562011719e+00 2.920819282531738281e+00 3.464991092681884766e+00
4.585000000000000000e+03 4.707770538330078125e+01 2.540059280395507812e+01 1.012854695320129395e+00 2.793422937393188477e+00 1.141883254051208496e+00 1.841324567794799805e+00
4.586000000000000000e+03 4.533967208862304688e+01 2.553789710998535156e+01 1.113771438598632812e+00 1.612421870231628418e+00 8.178579807281494141e-01 1.351729750633239746e+00
4.587000000000000000e+03 4.939419174194335938e+01 2.768430519104003906e+01 1.557207345962524414e+00 4.372346401214599609e+00 1.778866171836853027e+00 2.723777055740356445e+00
4.588000000000000000e+03 1.425361251831054688e+01 5.719779014587402344e+00 1.257470399141311646e-01 5.495126247406005859e-01 2.025779038667678833e-01 2.149666994810104370e-01
4.589000000000000000e+03 1.379005050659179688e+01 5.884838581085205078e+00 9.910752624273300171e-02 5.627849698066711426e-01 1.985677629709243774e-01 1.373618245124816895e-01
4.590000000000000000e+03 4.170635223388671875e+01 2.057521820068359375e+01 2.628844380378723145e-01 9.930920004844665527e-01 3.767929375171661377e-01 6.121549606323242188e-01
4.591000000000000000e+03 4.033927917480468750e+01 1.890537834167480469e+01 1.253843158483505249e-01 7.927854657173156738e-01 2.754509449005126953e-01 4.308352768421173096e-01
4.592000000000000000e+03 5.111987304687500000e+01 2.958635711669921875e+01 2.040343284606933594e+00 6.635953426361083984e+00 2.602889060974121094e+00 3.642587661743164062e+00
4.593000000000000000e+03 5.130024719238281250e+01 2.919854354858398438e+01 1.738568305969238281e+00 6.835353851318359375e+00 2.572176694869995117e+00 3.437804222106933594e+00
4.594000000000000000e+03 3.987593460083007812e+01 1.842680168151855469e+01 8.710595965385437012e-02 7.220023870468139648e-01 2.427324950695037842e-01 3.707624971866607666e-01
4.595000000000000000e+03 4.316556167602539062e+01 2.208424568176269531e+01 4.646855592727661133e-01 1.298291802406311035e+00 5.288931727409362793e-01 8.680465817451477051e-01
4.596000000000000000e+03 4.196382522583007812e+01 2.106744956970214844e+01 3.093444705009460449e-01 9.914931654930114746e-01 3.902512788772583008e-01 6.399775147438049316e-01
4.597000000000000000e+03 4.330199432373046875e+01 2.181756401062011719e+01 4.285067617893218994e-01 1.431269407272338867e+00 5.579328536987304688e-01 8.973340392112731934e-01
4.598000000000000000e+03 4.353462600708007812e+01 2.189630317687988281e+01 4.410150349140167236e-01 1.520618796348571777e+00 5.884901285171508789e-01 9.601391553878784180e-01
4.599000000000000000e+03 2.577177810668945312e+01 1.745235824584960938e+01 1.010937690734863281e-01 1.223833635449409485e-01 6.704314053058624268e-02 1.118132546544075012e-01
4.600000000000000000e+03 2.318356513977050781e+01 1.456157016754150391e+01 1.215081810951232910e-01 1.484492123126983643e-01 8.098721504211425781e-02 1.276871860027313232e-01
4.601000000000000000e+03 1.735021781921386719e+01 1.039059638977050781e+01 1.138364523649215698e-01 2.191350609064102173e-01 9.989145398139953613e-02 1.513043493032455444e-01
4.602000000000000000e+03 1.741272544860839844e+01 9.267404556274414062e+00 1.449161469936370850e-01 2.301663905382156372e-01 1.125247627496719360e-01 1.734064817428588867e-01
4.603000000000000000e+03 3.641679382324218750e+01 1.503747940063476562e+01 -1.519169509410858154e-01 2.336047440767288208e-01 2.450634166598320007e-02 1.712645962834358215e-02
4.604000000000000000e+03 3.195470046997070312e+01 9.835887908935546875e+00 -4.888389110565185547e-01 -1.587564684450626373e-02 -1.514143645763397217e-01 -1.092195212841033936e-01
4.605000000000000000e+03 5.071780395507812500e+01 2.952595138549804688e+01 2.224419832229614258e+00 5.965324401855468750e+00 2.456923246383666992e+00 3.623017072677612305e+00
4.606000000000000000e+03 3.785693359375000000e+01 1.658563232421875000e+01 -5.618115514516830444e-02 4.026356339454650879e-01 1.039363443851470947e-01 1.407251209020614624e-01
4.607000000000000000e+03 3.806102371215820312e+01 1.697641563415527344e+01 -2.879176847636699677e-02 3.960233628749847412e-01 1.101694777607917786e-01 1.528505682945251465e-01
4.608000000000000000e+03 4.540474700927734375e+01 2.463992500305175781e+01 9.364095926284790039e-01 1.891019701957702637e+00 8.482288122177124023e-01 1.364351511001586914e+00
4.609000000000000000e+03 2.011979675292968750e+01 1.118016433715820312e+01 1.413756310939788818e-01 1.734528541564941406e-01 9.444854408502578735e-02 1.558911651372909546e-01
4.610000000000000000e+03 1.585557651519775391e+01 8.523946762084960938e+00 1.222271695733070374e-01 2.824660837650299072e-01 1.214079782366752625e-01 1.717753857374191284e-01
4.611000000000000000e+03 4.476850509643554688e+01 2.403827285766601562e+01 7.972313761711120605e-01 1.680740952491760254e+00 7.433916926383972168e-01 1.183604478836059570e+00
4.612000000000000000e+03 4.406252670288085938e+01 2.367557907104492188e+01 7.153966426849365234e-01 1.399563789367675781e+00 6.344881057739257812e-01 1.044981718063354492e+00
4.613000000000000000e+03 3.275506591796875000e+01 1.150934886932373047e+01 -4.342189133167266846e-01 -1.034189760684967041e-01 -1.612913757562637329e-01 -2.336367070674896240e-01
4.614000000000000000e+03 3.874043273925781250e+01 1.743368148803710938e+01 1.060221903026103973e-02 5.386884808540344238e-01 1.647872030735015869e-01 2.371402084827423096e-01
4.615000000000000000e+03 4.116794204711914062e+01 1.870269012451171875e+01 1.259644776582717896e-01 1.110449075698852539e+00 3.709240555763244629e-01 5.602073669433593750e-01
4.616000000000000000e+03 4.033792495727539062e+01 1.845281219482421875e+01 9.038888663053512573e-02 8.698840737342834473e-01 2.880818843841552734e-01 4.351576268672943115e-01
4.617000000000000000e+03 2.644248580932617188e+01 1.934595489501953125e+01 8.150780200958251953e-02 1.183463409543037415e-01 5.995624512434005737e-02 9.616652131080627441e-02
4.618000000000000000e+03 3.821699523925781250e+01 1.848091888427734375e+01 2.025813609361648560e-02 2.440487891435623169e-01 7.929207384586334229e-02 1.151532232761383057e-01
4.619000000000000000e+03 3.099780654907226562e+01 4.855763435363769531e+00 1.014146134257316589e-01 1.701406240463256836e-01 8.146657049655914307e-02 -1.247863695025444031e-01
4.620000000000000000e+03 1.521132373809814453e+01 7.520450115203857422e+00 1.260695010423660278e-01 3.430697023868560791e-01 1.407417654991149902e-01 1.832209080457687378e-01
4.621000000000000000e+03 2.789644813537597656e+01 1.960144042968750000e+01 8.399607241153717041e-02 1.115071550011634827e-01 5.865096673369407654e-02 1.028889268636703491e-01
4.622000000000000000e+03 3.329329681396484375e+01 2.621030616760253906e+01 6.397738307714462280e-02 1.021050214767456055e-01 4.982472211122512817e-02 7.490375638008117676e-02
4.623000000000000000e+03 1.786028861999511719e+01 1.048826122283935547e+01 1.192716509103775024e-01 2.118014991283416748e-01 9.932194650173187256e-02 1.553424447774887085e-01
4.624000000000000000e+03 3.551071929931640625e+01 1.309310722351074219e+01 -2.246789634227752686e-01 2.534258961677551270e-01 8.624081499874591827e-03 -4.861226305365562439e-03
4.625000000000000000e+03 3.049906349182128906e+01 2.384345245361328125e+01 6.490834802389144897e-02 8.812532573938369751e-02 4.591010510921478271e-02 8.807495981454849243e-02
4.626000000000000000e+03 2.995303153991699219e+01 2.272267341613769531e+01 6.926953047513961792e-02 1.052056849002838135e-01 5.234256386756896973e-02 8.190533518791198730e-02
4.627000000000000000e+03 3.429109573364257812e+01 1.252699375152587891e+01 -2.963584363460540771e-01 5.907553061842918396e-02 -7.118487358093261719e-02 -1.199511662125587463e-01
4.628000000000000000e+03 3.573852157592773438e+01 1.365927600860595703e+01 -2.116888612508773804e-01 2.412735819816589355e-01 8.875417523086071014e-03 -6.601424887776374817e-03
4.629000000000000000e+03 1.868889808654785156e+01 1.139918041229248047e+01 1.169376522302627563e-01 1.897834837436676025e-01 9.201633930206298828e-02 1.504256874322891235e-01
4.630000000000000000e+03 2.330067062377929688e+01 1.516984081268310547e+01 1.090354993939399719e-01 1.450858116149902344e-01 7.623638957738876343e-02 1.243593767285346985e-01
4.631000000000000000e+03 2.187890625000000000e+01 1.453125476837158203e+01 1.097436398267745972e-01 1.531033217906951904e-01 7.885409146547317505e-02 1.242470368742942810e-01
4.632000000000000000e+03 2.397310829162597656e+01 1.754933929443359375e+01 8.327870070934295654e-02 1.311677098274230957e-01 6.433392316102981567e-02 1.078774556517601013e-01
4.633000000000000000e+03 2.415446853637695312e+01 1.693806266784667969e+01 9.875132143497467041e-02 1.306999474763870239e-01 6.883537769317626953e-02 1.138732656836509705e-01
4.634000000000000000e+03 3.386550903320312500e+01 2.715369415283203125e+01 6.223045289516448975e-02 8.192107826471328735e-02 4.324545711278915405e-02 8.202795684337615967e-02
4.635000000000000000e+03 3.187008476257324219e+01 5.333134174346923828e+00 1.416868716478347778e-01 1.910841166973114014e-01 9.983129799365997314e-02 -7.985780388116836548e-02
4.636000000000000000e+03 3.184260749816894531e+01 6.202580451965332031e+00 1.484255790710449219e-01 1.234499886631965637e-01 8.156266808509826660e-02 -3.829218819737434387e-02
4.637000000000000000e+03 4.916421508789062500e+01 2.750423622131347656e+01 1.540028095245361328e+00 4.180500507354736328e+00 1.716158509254455566e+00 2.677598714828491211e+00
4.638000000000000000e+03 4.960913848876953125e+01 2.745401191711425781e+01 1.379086494445800781e+00 4.712398529052734375e+00 1.827445507049560547e+00 2.699182987213134766e+00
4.639000000000000000e+03 4.417059707641601562e+01 2.321372795104980469e+01 6.421927809715270996e-01 1.567192792892456055e+00 6.628156304359436035e-01 1.071945786476135254e+00
4.640000000000000000e+03 5.432242965698242188e+01 3.289691543579101562e+01 2.149331331253051758e+00 1.466227626800537109e+01 5.043482303619384766e+00 3.483628511428833008e+00
4.641000000000000000e+03 5.489495086669921875e+01 3.287410354614257812e+01 2.034908294677734375e+00 1.491756248474121094e+01 5.085741519927978516e+00 2.395159244537353516e+00
4.642000000000000000e+03 3.684193038940429688e+01 2.933531761169433594e+01 5.220142379403114319e-02 9.989204257726669312e-02 4.562804102897644043e-02 8.417242020368576050e-02
4.643000000000000000e+03 3.253716659545898438e+01 2.521589660644531250e+01 6.800412386655807495e-02 9.031087905168533325e-02 4.749450087547302246e-02 8.053257316350936890e-02
4.644000000000000000e+03 3.511531829833984375e+01 1.291935157775878906e+01 -2.441748678684234619e-01 1.888090968132019043e-01 -1.660973206162452698e-02 -4.036193341016769409e-02
4.645000000000000000e+03 1.574087142944335938e+01 7.712173461914062500e+00 1.354993432760238647e-01 3.103685975074768066e-01 1.337603777647018433e-01 1.931894719600677490e-01
4.646000000000000000e+03 1.534698104858398438e+01 7.965686798095703125e+00 1.186559647321701050e-01 3.217040896415710449e-01 1.321080178022384644e-01 1.739769279956817627e-01
4.647000000000000000e+03 2.362868881225585938e+01 1.680495452880859375e+01 9.038426727056503296e-02 1.352148056030273438e-01 6.767972558736801147e-02 1.130588129162788391e-01
4.648000000000000000e+03 2.309694862365722656e+01 1.667438507080078125e+01 9.173175692558288574e-02 1.380760222673416138e-01 6.894233822822570801e-02 1.122530475258827209e-01
4.649000000000000000e+03 3.236052322387695312e+01 2.582930183410644531e+01 5.388974398374557495e-02 1.003357917070388794e-01 4.626766219735145569e-02 7.164856791496276855e-02
4.650000000000000000e+03 4.685734176635742188e+01 2.590915679931640625e+01 1.169801354408264160e+00 2.461270809173583984e+00 1.089321613311767578e+00 1.814496636390686035e+00
4.651000000000000000e+03 3.306262588500976562e+01 1.165345478057861328e+01 -4.056264758110046387e-01 -7.654952257871627808e-02 -1.446527987718582153e-01 -2.152124941349029541e-01
4.652000000000000000e+03 1.274952411651611328e+01 5.279598236083984375e+00 1.599967330694198608e-01 5.794934630393981934e-01 2.218470573425292969e-01 -7.759734243154525757e-02
4.653000000000000000e+03 3.344522857666015625e+01 2.693470001220703125e+01 7.143985480070114136e-02 9.730233252048492432e-02 5.062265694141387939e-02 7.198512554168701172e-02
4.654000000000000000e+03 3.405324172973632812e+01 2.664421081542968750e+01 6.870805472135543823e-02 9.698778390884399414e-02 4.970875009894371033e-02 7.129919528961181641e-02
4.655000000000000000e+03 5.373994827270507812e+01 3.191096687316894531e+01 2.010992288589477539e+00 1.216586017608642578e+01 4.253055572509765625e+00 3.907457113265991211e+00
4.656000000000000000e+03 2.347866821289062500e+01 2.797536849975585938e-01 -5.998404026031494141e-01 -2.221913039684295654e-01 -2.466095238924026489e-01 5.391760542988777161e-02
4.657000000000000000e+03 1.705899429321289062e+01 9.834325790405273438e+00 1.231463104486465454e-01 2.310806959867477417e-01 1.062681004405021667e-01 1.592350155115127563e-01
4.658000000000000000e+03 1.659567260742187500e+01 9.462663650512695312e+00 1.210389658808708191e-01 2.439656257629394531e-01 1.095013767480850220e-01 1.586833149194717407e-01
4.659000000000000000e+03 2.046611785888671875e+01 1.298259067535400391e+01 1.139036342501640320e-01 1.673989444971084595e-01 8.439077436923980713e-02 1.368128359317779541e-01
4.660000000000000000e+03 3.522617721557617188e+01 2.809313392639160156e+01 8.531162142753601074e-02 7.517884671688079834e-02 4.814714193344116211e-02 7.324084639549255371e-02
4.661000000000000000e+03 3.820402145385742188e+01 1.786974525451660156e+01 -3.568234387785196304e-04 3.197514414787292480e-01 9.581838548183441162e-02 1.344899982213973999e-01
4.662000000000000000e+03 2.956931304931640625e+01 2.321510124206542969e+01 6.072496250271797180e-02 9.497068077325820923e-02 4.670869186520576477e-02 9.022881090641021729e-02
4.663000000000000000e+03 3.860808563232421875e+01 3.089497566223144531e+01 8.781699836254119873e-02 9.235980361700057983e-02 5.405304208397865295e-02 5.288991332054138184e-02
4.664000000000000000e+03 2.177546119689941406e+01 1.362283515930175781e+01 1.213400289416313171e-01 1.549025326967239380e-01 8.287277072668075562e-02 1.363972127437591553e-01
4.665000000000000000e+03 4.842391967773437500e+01 2.669887733459472656e+01 1.276089310646057129e+00 3.643885612487792969e+00 1.475992560386657715e+00 2.312381505966186523e+00
4.666000000000000000e+03 1.394215869903564453e+01 5.627558231353759766e+00 1.038585156202316284e-01 5.875476598739624023e-01 2.074218541383743286e-01 1.645462512969970703e-01
4.667000000000000000e+03 3.509521484375000000e+01 1.388699245452880859e+01 -2.405008822679519653e-01 6.471965461969375610e-02 -5.273436754941940308e-02 -9.562925994396209717e-02
4.668000000000000000e+03 2.041238212585449219e+01 1.243607425689697266e+01 1.228627413511276245e-01 1.699366420507431030e-01 8.783981949090957642e-02 1.434011757373809814e-01
4.669000000000000000e+03 3.173986244201660156e+01 9.490128517150878906e+00 -4.345077574253082275e-01 -5.216263700276613235e-03 -1.319172084331512451e-01 -5.896500125527381897e-02
4.670000000000000000e+03 3.152061462402343750e+01 9.122377395629882812e+00 -4.152011275291442871e-01 -1.900328509509563446e-02 -1.302613317966461182e-01 -3.922784700989723206e-02
4.671000000000000000e+03 5.523242187500000000e+01 3.311989593505859375e+01 2.232465744018554688e+00 1.506835269927978516e+01 5.190245628356933594e+00 1.828541994094848633e+00
4.672000000000000000e+03 5.494115066528320312e+01 3.346782684326171875e+01 2.378591299057006836e+00 1.593537902832031250e+01 5.494191169738769531e+00 2.252490520477294922e+00
4.673000000000000000e+03 4.773838996887207031e+00 5.215821266174316406e+00 3.534862771630287170e-02 -1.185143738985061646e-01 -2.494972385466098785e-02 1.212244182825088501e-01
4.674000000000000000e+03 4.435787200927734375e+00 -5.005574703216552734e+00 -4.084229841828346252e-02 -8.449368923902511597e-02 -3.760079666972160339e-02 -1.289335340261459351e-01
4.675000000000000000e+03 5.506224632263183594e+00 -5.731575965881347656e+00 -4.100677743554115295e-02 -9.699138998985290527e-02 -4.139945283532142639e-02 -1.617579460144042969e-01
4.676000000000000000e+03 1.313831806182861328e+01 4.948625564575195312e+00 1.377787739038467407e-01 7.544518113136291504e-01 2.676691710948944092e-01 -5.238202586770057678e-02
4.677000000000000000e+03 3.323917770385742188e+01 -5.328306674957275391e+00 -1.748131066560745239e-01 5.197657942771911621e-01 1.034858077764511108e-01 2.643786184489727020e-02
4.678000000000000000e+03 3.401129150390625000e+01 -5.538809299468994141e+00 -1.679783165454864502e-01 6.612058877944946289e-01 1.479682773351669312e-01 5.903192795813083649e-03
4.679000000000000000e+03 3.899758529663085938e+01 3.116453742980957031e+01 7.519593089818954468e-02 4.903361201286315918e-02 3.726886212825775146e-02 9.386391937732696533e-02
4.680000000000000000e+03 3.165975952148437500e+01 2.516147613525390625e+01 7.029496878385543823e-02 9.793977439403533936e-02 5.047042295336723328e-02 7.125951349735260010e-02
4.681000000000000000e+03 3.162053489685058594e+01 2.458771133422851562e+01 5.611930415034294128e-02 9.112495183944702148e-02 4.417327791452407837e-02 8.480756729841232300e-02
4.682000000000000000e+03 6.520838260650634766e+00 -4.942242145538330078e+00 -7.134079188108444214e-02 -7.739905267953872681e-02 -4.462195560336112976e-02 -1.778255850076675415e-01
4.683000000000000000e+03 6.382740497589111328e+00 -5.723318576812744141e+00 -5.101060122251510620e-02 -9.509374201297760010e-02 -4.383130371570587158e-02 -1.838678866624832153e-01
4.684000000000000000e+03 2.451727867126464844e+01 7.463556528091430664e-01 -3.274972140789031982e-01 -1.704036891460418701e-01 -1.493702679872512817e-01 -3.279315680265426636e-02
4.685000000000000000e+03 6.387599945068359375e+00 9.863069534301757812e+00 7.440506666898727417e-02 -7.525265216827392578e-02 -2.542755391914397478e-04 1.233612373471260071e-02
4.686000000000000000e+03 2.555500793457031250e+01 -9.908953905105590820e-01 -4.657889902591705322e-01 -1.851266771554946899e-01 -1.952746957540512085e-01 1.295090764760971069e-01
4.687000000000000000e+03 2.628114509582519531e+01 -8.710139989852905273e-01 -3.921024799346923828e-01 -1.691518723964691162e-01 -1.683762967586517334e-01 9.564492106437683105e-02
4.688000000000000000e+03 2.803777122497558594e+01 -5.892544984817504883e-01 -2.042803317308425903e-01 -5.548343434929847717e-02 -7.792913168668746948e-02 1.349829696118831635e-02
4.689000000000000000e+03 3.616745376586914062e+01 3.165063285827636719e+01 5.499351024627685547e-02 5.695804208517074585e-02 3.358546644449234009e-02 7.844623923301696777e-02
4.690000000000000000e+03 1.161273097991943359e+01 3.749962568283081055e+00 5.008879899978637695e-01 8.652759343385696411e-02 1.762246787548065186e-01 -1.960619986057281494e-01
4.691000000000000000e+03 1.226001644134521484e+01 2.525164842605590820e+00 8.163157701492309570e-01 8.113044500350952148e-02 2.692338824272155762e-01 -1.785124987363815308e-01
4.692000000000000000e+03 9.199676513671875000e+00 5.478712558746337891e+00 2.211246937513351440e-01 -9.857081621885299683e-02 3.676616400480270386e-02 2.398844808340072632e-02
4.693000000000000000e+03 5.535153579711914062e+01 3.376461791992187500e+01 2.715685367584228516e+00 1.578824234008789062e+01 5.551178455352783203e+00 1.529602169990539551e+00
4.694000000000000000e+03 3.223074722290039062e+01 7.947574615478515625e+00 -6.930883228778839111e-02 7.424833625555038452e-02 1.481850747950375080e-03 7.912804186344146729e-02
4.695000000000000000e+03 1.141089344024658203e+01 4.304788589477539062e+00 3.828897774219512939e-01 1.306193619966506958e-01 1.540527343750000000e-01 -1.714585572481155396e-01
4.696000000000000000e+03 1.041312122344970703e+01 -5.277232170104980469e+00 -8.017054200172424316e-02 -1.125824227929115295e-01 -5.782588943839073181e-02 -2.866512835025787354e-01
4.697000000000000000e+03 1.194458961486816406e+01 -5.083569526672363281e+00 -6.818191707134246826e-02 -1.506111770868301392e-01 -6.563793122768402100e-02 -3.189614713191986084e-01
4.698000000000000000e+03 2.884465980529785156e+01 -2.964812994003295898e+00 -2.613263726234436035e-01 -9.266261756420135498e-02 -1.061967015266418457e-01 1.412155032157897949e-01
4.699000000000000000e+03 1.358608818054199219e+01 -6.896666049957275391e+00 1.748582869768142700e-01 -8.656185865402221680e-02 2.648892998695373535e-02 -1.616185605525970459e-01
4.700000000000000000e+03 2.761733436584472656e+01 -3.278047740459442139e-01 -2.097404450178146362e-01 -8.096321672201156616e-02 -8.721110224723815918e-02 9.617043659090995789e-03
4.701000000000000000e+03 2.723972129821777344e+01 -4.717514850199222565e-03 -2.161534428596496582e-01 -9.546467661857604980e-02 -9.348543733358383179e-02 -5.003464873880147934e-03
4.702000000000000000e+03 8.171545982360839844e+00 5.131601810455322266e+00 1.659539341926574707e-01 -1.491025537252426147e-01 5.055413115769624710e-03 1.009763777256011963e-01
4.703000000000000000e+03 3.826843261718750000e+01 3.143878555297851562e+01 6.504212319850921631e-02 5.791616439819335938e-02 3.688748553395271301e-02 8.687229454517364502e-02
4.704000000000000000e+03 3.735747528076171875e+01 3.060145378112792969e+01 6.592160463333129883e-02 5.574329569935798645e-02 3.649947047233581543e-02 8.090367168188095093e-02
4.705000000000000000e+03 3.727185058593750000e+01 -1.006224822998046875e+01 -2.060328274965286255e-01 1.304383039474487305e+00 3.295050561428070068e-01 -7.589557021856307983e-02
4.706000000000000000e+03 7.237051010131835938e+00 1.796396446228027344e+01 1.768518122844398022e-03 -4.043767601251602173e-02 -1.160074770450592041e-02 -1.773817650973796844e-02
4.707000000000000000e+03 4.651484489440917969e+00 -6.650109767913818359e+00 -1.479791384190320969e-02 -1.216681897640228271e-01 -4.093983024358749390e-02 -1.492955237627029419e-01
4.708000000000000000e+03 7.305959701538085938e+00 -4.284516334533691406e+00 -1.121141761541366577e-01 -6.002378463745117188e-02 -5.164138972759246826e-02 -1.851058751344680786e-01
4.709000000000000000e+03 6.600703239440917969e+00 -4.278828144073486328e+00 -1.004550457000732422e-01 -5.550314486026763916e-02 -4.678745940327644348e-02 -1.691664755344390869e-01
4.710000000000000000e+03 3.168853759765625000e+01 -4.576781749725341797e+00 -1.852264702320098877e-01 2.416129261255264282e-01 1.691593602299690247e-02 5.911858752369880676e-02
4.711000000000000000e+03 7.262358856201171875e+01 7.033383846282958984e+00 -1.976345926523208618e-01 8.211772918701171875e+00 2.404241561889648438e+00 -4.437633156776428223e-01
4.712000000000000000e+03 4.135093307495117188e+01 -1.421944236755371094e+01 -2.527339160442352295e-01 2.376518964767456055e+00 6.371355652809143066e-01 -2.094731181859970093e-01
4.713000000000000000e+03 6.993824768066406250e+01 -1.575961112976074219e+01 -9.727413952350616455e-02 7.848726272583007812e+00 2.325435638427734375e+00 2.307032048702239990e-01
4.714000000000000000e+03 7.115367126464843750e+01 -1.587033939361572266e+01 -7.776096463203430176e-02 8.050618171691894531e+00 2.391857147216796875e+00 2.200852930545806885e-01
4.715000000000000000e+03 7.039376831054687500e+01 1.083420085906982422e+01 -3.372545838356018066e-01 7.952492237091064453e+00 2.284571409225463867e+00 -6.784484982490539551e-01
4.716000000000000000e+03 7.068167114257812500e+01 9.989521026611328125e+00 -3.351273536682128906e-01 7.976824283599853516e+00 2.292509078979492188e+00 -6.301602721214294434e-01
4.717000000000000000e+03 1.038901042938232422e+01 2.518548583984375000e+01 -4.072661511600017548e-03 -1.119603402912616730e-03 -1.557679497636854649e-03 -8.502178825438022614e-03
4.718000000000000000e+03 1.015129089355468750e+01 2.307918739318847656e+01 -7.229487411677837372e-03 2.516742097213864326e-03 -1.413823454640805721e-03 -8.832739666104316711e-03
4.719000000000000000e+03 8.851383209228515625e+00 2.088864898681640625e+01 -3.156172810122370720e-03 -1.294058095663785934e-02 -4.829026293009519577e-03 -9.770913049578666687e-03
4.720000000000000000e+03 1.099590492248535156e+01 -8.215520858764648438e+00 1.124531924724578857e-01 -1.257989555597305298e-01 -4.003728274255990982e-03 -1.959332972764968872e-01
4.721000000000000000e+03 6.975782775878906250e+01 -3.184953689575195312e+00 -2.089250832796096802e-01 7.908215045928955078e+00 2.309787034988403320e+00 -7.820080965757369995e-02
4.722000000000000000e+03 7.062066650390625000e+01 5.895395278930664062e+00 -2.822450697422027588e-01 8.007762908935546875e+00 2.317655324935913086e+00 -4.235540926456451416e-01
4.723000000000000000e+03 7.153376770019531250e+01 4.010410308837890625e+00 -2.254090309143066406e-01 8.120015144348144531e+00 2.368381738662719727e+00 -3.387556374073028564e-01
4.724000000000000000e+03 8.723163604736328125e+00 -1.342730522155761719e+01 8.929172158241271973e-02 -1.341636329889297485e-01 -1.346157491207122803e-02 -1.120236366987228394e-01
4.725000000000000000e+03 4.045210647583007812e+01 -1.195980548858642578e+01 -2.560040950775146484e-01 2.109106302261352539e+00 5.559306740760803223e-01 -1.568145751953125000e-01
4.726000000000000000e+03 4.457746887207031250e+01 -1.880885696411132812e+01 -2.867279648780822754e-01 3.389158248901367188e+00 9.307290911674499512e-01 -2.870099842548370361e-01
4.727000000000000000e+03 6.905884552001953125e+01 2.014536666870117188e+01 -3.709973990917205811e-01 7.948063373565673828e+00 2.273119688034057617e+00 -1.235924482345581055e+00
4.728000000000000000e+03 4.313770294189453125e+01 -1.611816787719726562e+01 -2.938122153282165527e-01 2.909613609313964844e+00 7.847403883934020996e-01 -2.401145696640014648e-01
4.729000000000000000e+03 1.232291698455810547e+01 -1.015109348297119141e+01 1.606706827878952026e-01 -4.484190046787261963e-02 3.474863618612289429e-02 -1.219265758991241455e-01
4.730000000000000000e+03 1.265594387054443359e+01 -1.110417652130126953e+01 1.608474999666213989e-01 4.310866352170705795e-03 4.954750835895538330e-02 -9.880609065294265747e-02
4.731000000000000000e+03 1.418748092651367188e+01 -1.307769298553466797e+01 1.392867416143417358e-01 1.319949626922607422e-01 8.138451725244522095e-02 -7.448031753301620483e-02
4.732000000000000000e+03 4.099657440185546875e+01 -1.606958198547363281e+01 -2.219091653823852539e-01 2.248455286026000977e+00 6.079638600349426270e-01 -2.499461919069290161e-01
4.733000000000000000e+03 7.116912841796875000e+01 -1.279389953613281250e+01 -1.064784750342369080e-01 8.079786300659179688e+00 2.391992330551147461e+00 1.612902581691741943e-01
4.734000000000000000e+03 7.372074890136718750e+01 1.519315242767333984e+01 -1.846141070127487183e-01 7.903610706329345703e+00 2.315699100494384766e+00 -7.968164682388305664e-01
4.735000000000000000e+03 7.136408233642578125e+01 1.536660766601562500e+01 -3.153290748596191406e-01 7.875962734222412109e+00 2.268190145492553711e+00 -9.359719157218933105e-01
4.736000000000000000e+03 2.608930587768554688e+01 2.484696388244628906e+00 5.307944491505622864e-03 -1.434958577156066895e-01 -4.145637527108192444e-02 -1.031491607427597046e-01
4.737000000000000000e+03 2.663196945190429688e+01 3.078344583511352539e+00 3.620113059878349304e-02 -1.405789107084274292e-01 -3.131333366036415100e-02 -9.802553057670593262e-02
4.738000000000000000e+03 2.835652732849121094e+01 4.084952831268310547e+00 4.492633417248725891e-02 -4.143601283431053162e-02 1.047096215188503265e-03 -7.813723385334014893e-02
4.739000000000000000e+03 2.690143966674804688e+01 2.896839618682861328e+00 3.151550889015197754e-02 -1.273472160100936890e-01 -2.874951437115669250e-02 -1.017614379525184631e-01
4.740000000000000000e+03 2.322205924987792969e+01 6.153113245964050293e-01 -4.921998977661132812e-01 -1.370683461427688599e-01 -1.887804716825485229e-01 -2.223720401525497437e-02
4.741000000000000000e+03 2.785426902770996094e+01 4.166493892669677734e+00 4.666610807180404663e-02 -9.466315805912017822e-02 -1.439911499619483948e-02 -7.910391688346862793e-02
4.742000000000000000e+03 2.810312843322753906e+01 3.537973642349243164e+00 4.480096697807312012e-02 -5.625100061297416687e-02 -3.435011021792888641e-03 -8.549690991640090942e-02
4.743000000000000000e+03 2.582815742492675781e+01 1.893787741661071777e+00 -6.235544383525848389e-02 -1.470471620559692383e-01 -6.282077729701995850e-02 -9.861990809440612793e-02
4.744000000000000000e+03 2.768691062927246094e+01 3.676128149032592773e+00 5.138840153813362122e-02 -9.167617559432983398e-02 -1.208633091300725937e-02 -8.752366900444030762e-02
4.745000000000000000e+03 2.829183578491210938e+01 3.774152755737304688e+00 4.084792360663414001e-02 -4.676094651222229004e-02 -1.773906522430479527e-03 -7.906322926282882690e-02
4.746000000000000000e+03 2.803901863098144531e+01 3.966695785522460938e+00 4.736346378922462463e-02 -6.968169659376144409e-02 -6.695468910038471222e-03 -8.191119879484176636e-02
4.747000000000000000e+03 4.470436859130859375e+01 2.339601325988769531e+01 6.715136170387268066e-01 1.821779727935791016e+00 7.479879856109619141e-01 1.188396453857421875e+00
4.748000000000000000e+03 4.196219635009765625e+01 1.984860420227050781e+01 2.140234112739562988e-01 1.225892782211303711e+00 4.319748580455780029e-01 6.781472563743591309e-01
4.749000000000000000e+03 4.622214508056640625e+01 2.461330795288085938e+01 8.845803141593933105e-01 2.392264127731323242e+00 9.830533862113952637e-01 1.560594201087951660e+00
4.750000000000000000e+03 4.288289260864257812e+01 2.145438385009765625e+01 3.831384778022766113e-01 1.310257554054260254e+00 5.080187916755676270e-01 8.178820610046386719e-01
4.751000000000000000e+03 3.329655075073242188e+01 1.146878147125244141e+01 -3.752261996269226074e-01 1.750767929479479790e-03 -1.120426282286643982e-01 -1.569144874811172485e-01
4.752000000000000000e+03 3.002167701721191406e+01 4.179949760437011719e+00 5.175395682454109192e-02 1.238819062709808350e-01 5.269075930118560791e-02 -1.113788783550262451e-01
4.753000000000000000e+03 4.074866867065429688e+01 1.845576667785644531e+01 1.013531088829040527e-01 1.005365252494812012e+00 3.320154845714569092e-01 5.043936967849731445e-01
4.754000000000000000e+03 4.094029617309570312e+01 1.921373367309570312e+01 1.530560106039047241e-01 9.620119929313659668e-01 3.345203995704650879e-01 5.230414271354675293e-01
4.755000000000000000e+03 2.725086402893066406e+01 2.029986381530761719e+01 8.081854134798049927e-02 1.110393926501274109e-01 5.755738168954849243e-02 9.844165295362472534e-02
4.756000000000000000e+03 2.733774757385253906e+01 1.955165290832519531e+01 7.968109101057052612e-02 1.115098744630813599e-01 5.735728889703750610e-02 1.022373437881469727e-01
4.757000000000000000e+03 5.088986587524414062e+01 2.861838912963867188e+01 1.576666235923767090e+00 6.231662750244140625e+00 2.342498779296875000e+00 3.206465721130371094e+00
4.758000000000000000e+03 4.217942428588867188e+01 2.129301643371582031e+01 3.473992943763732910e-01 1.033669471740722656e+00 4.143206179141998291e-01 6.780090332031250000e-01
4.759000000000000000e+03 3.850884628295898438e+01 1.811577224731445312e+01 1.878929324448108673e-02 3.670131862163543701e-01 1.157407462596893311e-01 1.695554405450820923e-01
4.760000000000000000e+03 3.870391464233398438e+01 1.776506996154785156e+01 2.189077436923980713e-02 4.732690751552581787e-01 1.485479623079299927e-01 2.164994776248931885e-01
4.761000000000000000e+03 3.863732528686523438e+01 1.707706642150878906e+01 -8.176689967513084412e-03 5.553557872772216797e-01 1.641537398099899292e-01 2.324754595756530762e-01
4.762000000000000000e+03 3.250685119628906250e+01 1.079772472381591797e+01 -4.572297930717468262e-01 -6.315208226442337036e-02 -1.561145633459091187e-01 -1.851785033941268921e-01
4.763000000000000000e+03 5.225441741943359375e+01 3.010208320617675781e+01 1.828793525695800781e+00 8.524043083190917969e+00 3.105851173400878906e+00 3.704048395156860352e+00
4.764000000000000000e+03 5.171870422363281250e+01 2.976957130432128906e+01 1.924802422523498535e+00 7.502193450927734375e+00 2.828098773956298828e+00 3.708893537521362305e+00
4.765000000000000000e+03 1.988062477111816406e+01 1.319616413116455078e+01 1.036978289484977722e-01 1.691742837429046631e-01 8.186163753271102905e-02 1.304359734058380127e-01
4.766000000000000000e+03 2.075181961059570312e+01 1.318181896209716797e+01 1.155423521995544434e-01 1.626496315002441406e-01 8.345759660005569458e-02 1.366759836673736572e-01
4.767000000000000000e+03 1.880440521240234375e+01 1.066112136840820312e+01 1.286489367485046387e-01 1.931687891483306885e-01 9.654532372951507568e-02 1.619774103164672852e-01
4.768000000000000000e+03 1.751307868957519531e+01 9.896792411804199219e+00 1.288926452398300171e-01 2.220367938280105591e-01 1.052788347005844116e-01 1.612701117992401123e-01
4.769000000000000000e+03 4.702189254760742188e+01 2.502717590332031250e+01 9.439131021499633789e-01 2.853180170059204102e+00 1.139127969741821289e+00 1.809000492095947266e+00
4.770000000000000000e+03 4.794698715209960938e+01 2.618921089172363281e+01 1.173274755477905273e+00 3.282838821411132812e+00 1.336834073066711426e+00 2.134207487106323242e+00
4.771000000000000000e+03 5.201925659179687500e+01 2.886523056030273438e+01 1.216204404830932617e+00 7.826488971710205078e+00 2.712807893753051758e+00 3.155717849731445312e+00
4.772000000000000000e+03 3.593399429321289062e+01 1.323128986358642578e+01 -2.024215161800384521e-01 3.268315196037292480e-01 3.732300549745559692e-02 3.249259665608406067e-02
4.773000000000000000e+03 3.472335433959960938e+01 1.268562126159667969e+01 -2.739735841751098633e-01 1.264133006334304810e-01 -4.426808655261993408e-02 -7.502956688404083252e-02
4.774000000000000000e+03 3.317003250122070312e+01 1.117553615570068359e+01 -3.838299512863159180e-01 1.534087862819433212e-02 -1.105467155575752258e-01 -1.437463760375976562e-01
4.775000000000000000e+03 3.278781509399414062e+01 1.120037364959716797e+01 -4.286660254001617432e-01 -6.690737605094909668e-02 -1.486720293760299683e-01 -2.016015946865081787e-01
4.776000000000000000e+03 4.876475524902343750e+01 2.692496299743652344e+01 1.323410153388977051e+00 3.893327713012695312e+00 1.565021395683288574e+00 2.446340084075927734e+00
4.777000000000000000e+03 4.994525527954101562e+01 2.737320137023925781e+01 1.231763958930969238e+00 5.106687068939208984e+00 1.901535272598266602e+00 2.728035688400268555e+00
4.778000000000000000e+03 4.914584350585937500e+01 2.653249549865722656e+01 1.094308018684387207e+00 4.357224941253662109e+00 1.635459780693054199e+00 2.436508178710937500e+00
4.779000000000000000e+03 1.372263622283935547e+01 6.372581481933593750e+00 8.369258046150207520e-02 4.929463565349578857e-01 1.729916781187057495e-01 1.116836145520210266e-01
4.780000000000000000e+03 1.309352111816406250e+01 5.722780227661132812e+00 1.144819855690002441e-01 5.631209015846252441e-01 2.032808661460876465e-01 2.064723521471023560e-03
4.781000000000000000e+03 4.534733200073242188e+01 2.417774581909179688e+01 8.321236968040466309e-01 1.984084963798522949e+00 8.448625802993774414e-01 1.337522029876708984e+00
4.782000000000000000e+03 3.415737915039062500e+01 2.793064308166503906e+01 7.786644250154495239e-02 7.332855463027954102e-02 4.535850137472152710e-02 7.828785479068756104e-02
4.783000000000000000e+03 3.693153762817382812e+01 1.499249649047851562e+01 -1.353517323732376099e-01 3.681519031524658203e-01 6.984005123376846313e-02 8.231758326292037964e-02
4.784000000000000000e+03 2.159798622131347656e+01 1.422945117950439453e+01 1.086342930793762207e-01 1.544235199689865112e-01 7.891733944416046143e-02 1.281657665967941284e-01
4.785000000000000000e+03 4.495089340209960938e+01 2.434691238403320312e+01 8.544299006462097168e-01 1.713488817214965820e+00 7.703756093978881836e-01 1.219021320343017578e+00
4.786000000000000000e+03 3.053026962280273438e+01 2.571385765075683594e+01 6.772585213184356689e-02 9.794092923402786255e-02 4.970003291964530945e-02 6.622359901666641235e-02
4.787000000000000000e+03 3.109334754943847656e+01 2.397613716125488281e+01 5.338364839553833008e-02 1.010264754295349121e-01 4.632303863763809204e-02 8.264565467834472656e-02
4.788000000000000000e+03 2.227816581726074219e+01 1.540715885162353516e+01 9.949579089879989624e-02 1.471986919641494751e-01 7.400834560394287109e-02 1.195413023233413696e-01
4.789000000000000000e+03 2.119561195373535156e+01 1.532954120635986328e+01 9.038753062486648560e-02 1.526419669389724731e-01 7.290884852409362793e-02 1.143580898642539978e-01
4.790000000000000000e+03 4.415085601806640625e+01 2.179084587097167969e+01 4.114810526371002197e-01 1.842162609100341797e+00 6.760931015014648438e-01 1.048830986022949219e+00
4.791000000000000000e+03 4.271836853027343750e+01 2.076961135864257812e+01 3.035867214202880859e-01 1.360991001129150391e+00 4.993733167648315430e-01 7.958248257637023926e-01
4.792000000000000000e+03 4.309896469116210938e+01 2.164402198791503906e+01 4.101284742355346680e-01 1.360366582870483398e+00 5.311484932899475098e-01 8.611766695976257324e-01
4.793000000000000000e+03 3.619732284545898438e+01 1.386649513244628906e+01 -1.861932724714279175e-01 3.245616257190704346e-01 4.151050373911857605e-02 3.747457265853881836e-02
4.794000000000000000e+03 1.816859054565429688e+01 1.118678474426269531e+01 1.108304709196090698e-01 2.005890160799026489e-01 9.342584758996963501e-02 1.478256136178970337e-01
4.795000000000000000e+03 2.756778526306152344e+01 2.098862457275390625e+01 7.921155542135238647e-02 1.084306314587593079e-01 5.629265680909156799e-02 9.326981008052825928e-02
4.796000000000000000e+03 1.609378242492675781e+01 9.517789840698242188e+00 1.053430661559104919e-01 2.525492310523986816e-01 1.073676943778991699e-01 1.510248482227325439e-01
4.797000000000000000e+03 1.564763355255126953e+01 8.053461074829101562e+00 1.277890652418136597e-01 3.029910922050476074e-01 1.292340457439422607e-01 1.803826540708541870e-01
4.798000000000000000e+03 1.490925884246826172e+01 8.113383293151855469e+00 1.043208763003349304e-01 3.263683915138244629e-01 1.292067766189575195e-01 1.462143063545227051e-01
4.799000000000000000e+03 4.464223480224609375e+01 2.209199714660644531e+01 4.488450884819030762e-01 2.011925697326660156e+00 7.382312417030334473e-01 1.141798496246337891e+00
4.800000000000000000e+03 1.617156219482421875e+01 9.021822929382324219e+00 1.208576411008834839e-01 2.597173750400543213e-01 1.141725033521652222e-01 1.633949130773544312e-01
4.801000000000000000e+03 3.524143981933593750e+01 2.881856155395507812e+01 4.814311861991882324e-02 9.611101448535919189e-02 4.327623918652534485e-02 7.816692441701889038e-02
4.802000000000000000e+03 2.015821456909179688e+01 1.279674625396728516e+01 1.138001382350921631e-01 1.692953556776046753e-01 8.492864668369293213e-02 1.393316686153411865e-01
4.803000000000000000e+03 1.969539451599121094e+01 1.223429679870605469e+01 1.151940524578094482e-01 1.746671050786972046e-01 8.695834875106811523e-02 1.438270509243011475e-01
4.804000000000000000e+03 2.956659317016601562e+01 2.244250106811523438e+01 6.541611999273300171e-02 9.662880003452301025e-02 4.861347749829292297e-02 9.126901626586914062e-02
4.805000000000000000e+03 2.875004196166992188e+01 2.254542732238769531e+01 5.913406983017921448e-02 1.010427176952362061e-01 4.805303737521171570e-02 9.112385660409927368e-02
4.806000000000000000e+03 2.805539321899414062e+01 2.156937217712402344e+01 7.882202416658401489e-02 1.042385473847389221e-01 5.491816997528076172e-02 9.079437702894210815e-02
4.807000000000000000e+03 2.377095985412597656e+01 5.667753219604492188e-01 -4.424680769443511963e-01 -1.537513434886932373e-01 -1.788658201694488525e-01 -3.782069683074951172e-02
4.808000000000000000e+03 1.437618637084960938e+01 7.138589859008789062e+00 1.071557626128196716e-01 3.924614489078521729e-01 1.498851627111434937e-01 1.463968008756637573e-01
4.809000000000000000e+03 1.388442897796630859e+01 7.240087509155273438e+00 8.374486863613128662e-02 3.932259380817413330e-01 1.430912464857101440e-01 1.112892329692840576e-01
4.810000000000000000e+03 1.687236785888671875e+01 1.024712276458740234e+01 1.083958372473716736e-01 2.284251898527145386e-01 1.010463088750839233e-01 1.459908634424209595e-01
4.811000000000000000e+03 4.997246170043945312e+01 2.778058242797851562e+01 1.475932002067565918e+00 5.068439006805419922e+00 1.963311314582824707e+00 2.877227306365966797e+00
4.812000000000000000e+03 3.175855064392089844e+01 1.053649806976318359e+01 -5.645160079002380371e-01 -1.545489430427551270e-01 -2.157194912433624268e-01 -2.562277913093566895e-01
4.813000000000000000e+03 3.161542129516601562e+01 1.003246974945068359e+01 -5.647941827774047852e-01 -9.750188142061233521e-02 -1.986888200044631958e-01 -1.960881352424621582e-01
4.814000000000000000e+03 5.350994491577148438e+01 3.158698844909667969e+01 1.947891116142272949e+00 1.157513046264648438e+01 4.056906223297119141e+00 3.880641222000122070e+00
4.815000000000000000e+03 5.332684707641601562e+01 3.217342376708984375e+01 2.533213853836059570e+00 1.182487392425537109e+01 4.307426452636718750e+00 4.585780620574951172e+00
4.816000000000000000e+03 2.954768562316894531e+01 2.408267784118652344e+01 5.506173148751258850e-02 9.396784752607345581e-02 4.470887407660484314e-02 9.002141654491424561e-02
4.817000000000000000e+03 3.565924453735351562e+01 1.190869617462158203e+01 -2.284604310989379883e-01 4.045467078685760498e-01 5.282587930560112000e-02 6.282531470060348511e-02
4.818000000000000000e+03 3.386294555664062500e+01 1.211103820800781250e+01 -3.319596052169799805e-01 1.754488795995712280e-02 -9.432441741228103638e-02 -1.482024192810058594e-01
4.819000000000000000e+03 3.376252746582031250e+01 1.173167133331298828e+01 -3.389122486114501953e-01 4.832847043871879578e-02 -8.717513084411621094e-02 -1.292219758033752441e-01
4.820000000000000000e+03 5.035924530029296875e+01 2.775459671020507812e+01 1.297791719436645508e+00 5.533551216125488281e+00 2.049402952194213867e+00 2.872959613800048828e+00
4.821000000000000000e+03 5.266469192504882812e+01 2.945633125305175781e+01 1.221892356872558594e+00 8.846431732177734375e+00 3.020497322082519531e+00 3.200985908508300781e+00
4.822000000000000000e+03 3.663214874267578125e+01 1.419223880767822266e+01 -1.583804488182067871e-01 3.855082988739013672e-01 6.813835352659225464e-02 7.563726603984832764e-02
4.823000000000000000e+03 3.513047790527343750e+01 2.964973449707031250e+01 7.521390169858932495e-02 5.772643536329269409e-02 3.988210111856460571e-02 7.163587957620620728e-02
4.824000000000000000e+03 3.234439849853515625e+01 1.031017398834228516e+01 -4.663775265216827393e-01 -2.575637772679328918e-02 -1.476401686668395996e-01 -1.401998102664947510e-01
4.825000000000000000e+03 3.281890487670898438e+01 1.090921401977539062e+01 -4.189707934856414795e-01 -9.202180430293083191e-03 -1.284518986940383911e-01 -1.589545160531997681e-01
4.826000000000000000e+03 3.459441757202148438e+01 2.875383758544921875e+01 8.433282375335693359e-02 6.989977508783340454e-02 4.626978188753128052e-02 6.587657332420349121e-02
4.827000000000000000e+03 4.579480361938476562e+01 2.497214126586914062e+01 9.986534118652343750e-01 2.007074832916259766e+00 9.017184972763061523e-01 1.472506523132324219e+00
4.828000000000000000e+03 3.845782089233398438e+01 1.758967018127441406e+01 3.353660693392157555e-03 4.231644868850708008e-01 1.279554367065429688e-01 1.812982857227325439e-01
4.829000000000000000e+03 3.827830123901367188e+01 1.644396591186523438e+01 -5.108123645186424255e-02 5.434672832489013672e-01 1.477158218622207642e-01 1.993979215621948242e-01
4.830000000000000000e+03 2.667206764221191406e+01 2.009545326232910156e+01 7.434546202421188354e-02 1.172531470656394958e-01 5.747958272695541382e-02 9.228455275297164917e-02
4.831000000000000000e+03 2.775120925903320312e+01 2.050824546813964844e+01 7.506444305181503296e-02 1.135996505618095398e-01 5.659922957420349121e-02 9.285098314285278320e-02
4.832000000000000000e+03 2.616139411926269531e+01 1.871983146667480469e+01 8.581573516130447388e-02 1.201668530702590942e-01 6.179477646946907043e-02 1.019859686493873596e-01
4.833000000000000000e+03 2.567752647399902344e+01 1.963635253906250000e+01 7.522710412740707397e-02 1.216519549489021301e-01 5.906371772289276123e-02 9.363587200641632080e-02
4.834000000000000000e+03 2.450634574890136719e+01 1.765538978576660156e+01 9.204371273517608643e-02 1.272298544645309448e-01 6.578207015991210938e-02 1.086788624525070190e-01
4.835000000000000000e+03 2.479565620422363281e+01 1.727214050292968750e+01 9.792634844779968262e-02 1.281615644693374634e-01 6.782637536525726318e-02 1.092755943536758423e-01
4.836000000000000000e+03 3.201112365722656250e+01 8.922094345092773438e+00 -3.099678754806518555e-01 6.510689109563827515e-02 -7.345829159021377563e-02 2.736661210656166077e-02
4.837000000000000000e+03 2.317449378967285156e+01 1.562155628204345703e+01 1.045707613229751587e-01 1.437514424324035645e-01 7.449666410684585571e-02 1.212948113679885864e-01
4.838000000000000000e+03 3.069948005676269531e+01 4.355047225952148438e+00 7.419618964195251465e-02 1.661623716354370117e-01 7.210756838321685791e-02 -1.162252649664878845e-01
4.839000000000000000e+03 2.291336631774902344e+01 1.722309875488281250e+01 7.682624459266662598e-02 1.388241499662399292e-01 6.469511985778808594e-02 1.061742156744003296e-01
4.840000000000000000e+03 2.913990783691406250e+01 2.369672393798828125e+01 6.263552606105804443e-02 1.065532565116882324e-01 5.075663700699806213e-02 7.523518800735473633e-02
4.841000000000000000e+03 3.000929641723632812e+01 2.353640556335449219e+01 6.292547285556793213e-02 1.063533052802085876e-01 5.078363418579101562e-02 7.847451418638229370e-02
4.842000000000000000e+03 2.428243446350097656e+01 5.591005682945251465e-01 -3.790614604949951172e-01 -1.690932661294937134e-01 -1.644464135169982910e-01 -3.899982199072837830e-02
4.843000000000000000e+03 2.578050422668457031e+01 1.804212760925292969e+01 9.246793389320373535e-02 1.224707663059234619e-01 6.448160856962203979e-02 1.072054952383041382e-01
4.844000000000000000e+03 5.260089492797851562e+01 2.891812896728515625e+01 9.930573105812072754e-01 8.459531784057617188e+00 2.835776567459106445e+00 2.994144201278686523e+00
4.845000000000000000e+03 4.057467269897460938e+01 1.968321990966796875e+01 1.710311621427536011e-01 7.336158752441406250e-01 2.713941037654876709e-01 4.418249130249023438e-01
4.846000000000000000e+03 3.237755584716796875e+01 8.366434097290039062e+00 -1.530296504497528076e-01 1.136450618505477905e-01 -1.181537657976150513e-02 8.018784970045089722e-02
4.847000000000000000e+03 3.218521881103515625e+01 9.300043106079101562e+00 -3.664517104625701904e-01 4.659928008913993835e-02 -9.595572948455810547e-02 -1.695429719984531403e-02
4.848000000000000000e+03 3.293274688720703125e+01 6.015051841735839844e+00 9.622433781623840332e-02 2.746475636959075928e-01 1.112615689635276794e-01 3.005010448396205902e-02
4.849000000000000000e+03 2.516113853454589844e+01 9.652845263481140137e-01 -2.482748925685882568e-01 -1.619458496570587158e-01 -1.230662241578102112e-01 -6.191237643361091614e-02
4.850000000000000000e+03 3.265900421142578125e+01 7.386157035827636719e+00 1.269323565065860748e-02 1.543391495943069458e-01 5.010971426963806152e-02 7.671466469764709473e-02
4.851000000000000000e+03 5.410255432128906250e+01 3.259152984619140625e+01 2.063770055770874023e+00 1.378436946868896484e+01 4.754441738128662109e+00 3.798075675964355469e+00
4.852000000000000000e+03 1.438882160186767578e+01 7.567188262939453125e+00 9.169547259807586670e-02 3.672808408737182617e-01 1.376928985118865967e-01 1.344348043203353882e-01
4.853000000000000000e+03 3.146605491638183594e+01 4.880973339080810547e+00 1.224649921059608459e-01 1.941416710615158081e-01 9.498199820518493652e-02 -1.044554486870765686e-01
4.854000000000000000e+03 3.779949569702148438e+01 3.108571815490722656e+01 8.355217427015304565e-02 9.881303459405899048e-02 5.470956116914749146e-02 6.009850278496742249e-02
4.855000000000000000e+03 3.114116859436035156e+01 2.539134979248046875e+01 4.476243630051612854e-02 9.254455566406250000e-02 4.119209572672843933e-02 8.700758218765258789e-02
4.856000000000000000e+03 1.350661563873291016e+01 5.749895095825195312e+00 8.599727600812911987e-02 6.073338985443115234e-01 2.079993486404418945e-01 8.054730296134948730e-02
4.857000000000000000e+03 1.262427330017089844e+01 5.636096477508544922e+00 1.414089351892471313e-01 4.839496612548828125e-01 1.876075863838195801e-01 -7.439672946929931641e-02
4.858000000000000000e+03 2.922534179687500000e+01 2.214723396301269531e+01 7.402039319276809692e-02 1.072430312633514404e-01 5.437902733683586121e-02 8.443073928356170654e-02
4.859000000000000000e+03 4.944758415222167969e+00 7.342194080352783203e+00 6.822294741868972778e-02 -1.274902969598770142e-01 -1.778020523488521576e-02 7.257661968469619751e-02
4.860000000000000000e+03 5.554997253417968750e+01 3.281613540649414062e+01 1.990239977836608887e+00 1.457536506652832031e+01 4.969681739807128906e+00 1.366631627082824707e+00
4.861000000000000000e+03 3.193159675598144531e+01 4.889742374420166016e+00 1.159388348460197449e-01 2.283061891794204712e-01 1.032735034823417664e-01 -7.332075387239456177e-02
4.862000000000000000e+03 3.237248229980468750e+01 5.700187206268310547e+00 1.264572292566299438e-01 2.204992026090621948e-01 1.040869355201721191e-01 -2.550999261438846588e-02
4.863000000000000000e+03 1.049294185638427734e+01 3.876112937927246094e+00 3.303194344043731689e-01 -1.420666277408599854e-01 5.647584050893783569e-02 1.547871157526969910e-02
4.864000000000000000e+03 1.062991809844970703e+01 3.205264568328857422e+00 3.729620873928070068e-01 -2.414941936731338501e-01 3.944036737084388733e-02 9.599885344505310059e-02
4.865000000000000000e+03 3.678782653808593750e+01 -8.069592475891113281e+00 -1.916323751211166382e-01 1.249394655227661133e+00 3.173286914825439453e-01 -4.600331559777259827e-02
4.866000000000000000e+03 3.596614456176757812e+01 -6.244421958923339844e+00 -1.804672181606292725e-01 1.065896034240722656e+00 2.656286358833312988e-01 -2.123179472982883453e-02
4.867000000000000000e+03 8.458432197570800781e+00 -7.098508358001708984e+00 7.216678466647863388e-03 -1.268620938062667847e-01 -3.589362278580665588e-02 -2.240529507398605347e-01
4.868000000000000000e+03 8.846903800964355469e+00 -5.970814228057861328e+00 -4.534948244690895081e-02 -1.097476556897163391e-01 -4.652914032340049744e-02 -2.428974509239196777e-01
4.869000000000000000e+03 1.192518520355224609e+01 5.915103912353515625e+00 1.639843136072158813e-01 3.284449875354766846e-01 1.477287858724594116e-01 -9.376797080039978027e-02
4.870000000000000000e+03 1.238211154937744141e+01 4.864967346191406250e+00 2.431676238775253296e-01 4.964466989040374756e-01 2.218842953443527222e-01 -1.530991345643997192e-01
4.871000000000000000e+03 2.849559593200683594e+01 -7.733801007270812988e-01 -1.952436119318008423e-01 -2.982565760612487793e-02 -6.752078235149383545e-02 2.078563533723354340e-02
4.872000000000000000e+03 2.891444587707519531e+01 -1.444663166999816895e+00 -2.087550908327102661e-01 -1.157150324434041977e-02 -6.609798222780227661e-02 4.919546842575073242e-02
4.873000000000000000e+03 2.866395759582519531e+01 -2.821752130985260010e-01 -1.508609503507614136e-01 -7.616978138685226440e-03 -4.754337668418884277e-02 -9.954619221389293671e-03
4.874000000000000000e+03 2.657381629943847656e+01 -9.026280604302883148e-03 -2.841222584247589111e-01 -1.386020034551620483e-01 -1.268172860145568848e-01 5.562935955822467804e-03
4.875000000000000000e+03 3.312614440917968750e+01 2.746776008605957031e+01 4.812086373567581177e-02 8.358144760131835938e-02 3.951069340109825134e-02 8.145377039909362793e-02
4.876000000000000000e+03 3.270669174194335938e+01 2.652165031433105469e+01 5.044230446219444275e-02 9.668930619955062866e-02 4.413948208093643188e-02 7.532102614641189575e-02
4.877000000000000000e+03 7.540346145629882812e+00 5.663995265960693359e+00 1.355479359626770020e-01 -1.353158652782440186e-01 6.962330371607095003e-05 9.358297288417816162e-02
4.878000000000000000e+03 2.964878845214843750e+01 -2.812735319137573242e+00 -2.065183818340301514e-01 1.552781276404857635e-02 -5.729717016220092773e-02 9.583505243062973022e-02
4.879000000000000000e+03 5.659204101562500000e+01 3.173226165771484375e+01 1.305853247642517090e+00 1.282666110992431641e+01 4.239754199981689453e+00 4.343884587287902832e-01
4.880000000000000000e+03 3.188614082336425781e+01 2.561102294921875000e+01 5.409186333417892456e-02 8.560321480035781860e-02 4.190852493047714233e-02 8.517947047948837280e-02
4.881000000000000000e+03 1.283082771301269531e+01 -6.431188106536865234e+00 1.185206547379493713e-01 -1.393074244260787964e-01 -6.236031185835599899e-03 -2.328303605318069458e-01
4.882000000000000000e+03 3.288222122192382812e+01 5.604254245758056641e+00 1.102725341916084290e-01 2.863426804542541504e-01 1.189845576882362366e-01 7.407371886074542999e-03
4.883000000000000000e+03 3.299814605712890625e+01 6.425966739654541016e+00 8.067611604928970337e-02 2.607282996177673340e-01 1.024213209748268127e-01 4.415221884846687317e-02
4.884000000000000000e+03 3.479994964599609375e+01 -5.408339977264404297e+00 -1.687348783016204834e-01 8.347708582878112793e-01 1.998107880353927612e-01 -4.677032586187124252e-03
4.885000000000000000e+03 5.871616363525390625e+00 5.217270374298095703e+00 5.982670933008193970e-02 -1.279776692390441895e-01 -2.044528909027576447e-02 1.308246105909347534e-01
4.886000000000000000e+03 8.072954177856445312e+00 -5.112014293670654297e+00 -8.759061992168426514e-02 -8.450494706630706787e-02 -5.162867158651351929e-02 -2.222038656473159790e-01
4.887000000000000000e+03 8.058422088623046875e+00 -4.311854362487792969e+00 -1.294427812099456787e-01 -5.864445120096206665e-02 -5.642616748809814453e-02 -2.081287056207656860e-01
4.888000000000000000e+03 5.157884597778320312e+00 9.522242546081542969e+00 5.627299845218658447e-02 -1.107529774308204651e-01 -1.634399406611919403e-02 2.771084569394588470e-02
4.889000000000000000e+03 5.755567169189453125e+01 3.273606109619140625e+01 2.040383338928222656e+00 1.272635173797607422e+01 4.430020809173583984e+00 -1.874495148658752441e-01
4.890000000000000000e+03 4.095180130004882812e+01 -1.054709148406982422e+01 -2.763583958148956299e-01 2.265617609024047852e+00 5.967777967453002930e-01 -1.302759498357772827e-01
4.891000000000000000e+03 1.044867801666259766e+01 -6.215687274932861328e+00 -2.360589103773236275e-03 -1.338044106960296631e-01 -4.084949940443038940e-02 -2.660726308822631836e-01
4.892000000000000000e+03 6.469593524932861328e+00 5.798550128936767578e+00 9.677818417549133301e-02 -1.337487399578094482e-01 -1.109116617590188980e-02 1.068887040019035339e-01
4.893000000000000000e+03 1.839211845397949219e+01 -1.659355163574218750e+01 9.071209281682968140e-02 3.410882651805877686e-01 1.295401155948638916e-01 -1.359493434429168701e-01
4.894000000000000000e+03 6.850712585449218750e+01 -1.598579025268554688e+01 -1.328213363885879517e-01 7.658251285552978516e+00 2.257628917694091797e+00 2.517266273498535156e-01
4.895000000000000000e+03 4.457987976074218750e+01 -1.742283248901367188e+01 -3.206494450569152832e-01 3.321360826492309570e+00 9.002134203910827637e-01 -2.399687021970748901e-01
4.896000000000000000e+03 6.849429321289062500e+01 -1.852973937988281250e+01 -1.054378896951675415e-01 7.632012367248535156e+00 2.257972240447998047e+00 2.925174832344055176e-01
4.897000000000000000e+03 1.290364074707031250e+01 -1.349691009521484375e+01 1.252935081720352173e-01 4.897447675466537476e-02 5.228039622306823730e-02 -8.128357678651809692e-02
4.898000000000000000e+03 1.054399204254150391e+01 -1.079646205902099609e+01 1.241895854473114014e-01 -9.304018318653106689e-02 9.344821795821189880e-03 -1.418853104114532471e-01
4.899000000000000000e+03 1.019504451751708984e+01 -1.202498054504394531e+01 1.221108436584472656e-01 -9.446839243173599243e-02 8.292735554277896881e-03 -1.283376067876815796e-01
4.900000000000000000e+03 7.068875122070312500e+01 7.372534751892089844e+00 -2.846988439559936523e-01 8.006474494934082031e+00 2.316532611846923828e+00 -4.898087084293365479e-01
4.901000000000000000e+03 6.993451690673828125e+01 1.357152748107910156e+01 -4.065342545509338379e-01 7.914664745330810547e+00 2.252439022064208984e+00 -8.451112508773803711e-01
4.902000000000000000e+03 1.241911697387695312e+01 2.258201408386230469e+01 -8.551818318665027618e-03 4.037027060985565186e-02 9.545535780489444733e-03 5.287376232445240021e-03
4.903000000000000000e+03 1.036099338531494141e+01 2.057589530944824219e+01 -1.912623760290443897e-03 1.883120834827423096e-02 5.075575783848762512e-03 -3.197995712980628014e-03
4.904000000000000000e+03 6.994097137451171875e+01 -1.550735950469970703e+00 -2.161450088024139404e-01 7.939963340759277344e+00 2.317145586013793945e+00 -1.323177516460418701e-01
4.905000000000000000e+03 7.031348419189453125e+01 2.174617946147918701e-01 -2.226220816373825073e-01 7.984731197357177734e+00 2.328632831573486328e+00 -1.918649375438690186e-01
4.906000000000000000e+03 6.928272247314453125e+01 -8.833324432373046875e+00 -1.732085794210433960e-01 7.815697669982910156e+00 2.292746543884277344e+00 8.324274420738220215e-02
4.907000000000000000e+03 7.199985504150390625e+00 -1.186870479583740234e+01 6.765306740999221802e-02 -1.718567460775375366e-01 -3.126110509037971497e-02 -1.339153200387954712e-01
4.908000000000000000e+03 8.218853950500488281e+00 -1.248046207427978516e+01 8.626129478216171265e-02 -1.475638747215270996e-01 -1.839077658951282501e-02 -1.308577060699462891e-01
4.909000000000000000e+03 7.210717010498046875e+01 1.295560169219970703e+01 -2.677531540393829346e-01 7.976096153259277344e+00 2.312502861022949219e+00 -7.613309025764465332e-01
4.910000000000000000e+03 6.981958007812500000e+01 9.013995170593261719e+00 -3.633573651313781738e-01 7.916285991668701172e+00 2.265878677368164062e+00 -5.871939063072204590e-01
4.911000000000000000e+03 6.899228668212890625e+01 -1.225697517395019531e+01 -1.547271162271499634e-01 7.752546787261962891e+00 2.279345989227294922e+00 1.719092279672622681e-01
4.912000000000000000e+03 7.045764160156250000e+01 -1.232036972045898438e+01 -1.199127212166786194e-01 7.967103004455566406e+00 2.354156970977783203e+00 1.628814339637756348e-01
4.913000000000000000e+03 7.024724578857421875e+01 -2.147240829467773438e+01 -5.452851951122283936e-02 7.819662094116210938e+00 2.329540014266967773e+00 2.979996800422668457e-01
4.914000000000000000e+03 7.126342010498046875e+01 -2.086171913146972656e+01 -4.566088691353797913e-02 7.968990802764892578e+00 2.376998901367187500e+00 2.808575630187988281e-01
4.915000000000000000e+03 7.217559051513671875e+01 2.090616941452026367e+00 -1.771726459264755249e-01 8.224105834960937500e+00 2.414079904556274414e+00 -2.528303861618041992e-01
4.916000000000000000e+03 6.990625000000000000e+01 2.432221174240112305e+00 -2.683889865875244141e-01 7.927387714385986328e+00 2.297699689865112305e+00 -2.742007970809936523e-01
4.917000000000000000e+03 1.273384284973144531e+01 -1.221407890319824219e+01 1.507782340049743652e-01 2.288612537086009979e-02 5.209930986166000366e-02 -9.057124704122543335e-02
4.918000000000000000e+03 2.756241226196289062e+01 3.314610719680786133e+00 4.153896495699882507e-02 -9.535086154937744141e-02 -1.614356972277164459e-02 -9.061893820762634277e-02
4.919000000000000000e+03 2.618307685852050781e+01 2.730965375900268555e+00 1.826637610793113708e-02 -1.438874453306198120e-01 -3.768631815910339355e-02 -1.032774597406387329e-01
4.920000000000000000e+03 2.644954299926757812e+01 2.667989969253540039e+00 1.784166879951953888e-02 -1.410204470157623291e-01 -3.695363551378250122e-02 -1.026646867394447327e-01
4.921000000000000000e+03 2.676982879638671875e+01 2.549054145812988281e+00 4.293745849281549454e-03 -1.311836391687393188e-01 -3.806696832180023193e-02 -1.005881875753402710e-01
4.922000000000000000e+03 2.727782058715820312e+01 3.243923664093017578e+00 4.208078980445861816e-02 -1.193053275346755981e-01 -2.316736243665218353e-02 -9.388126432895660400e-02
4.923000000000000000e+03 2.861381340026855469e+01 3.668399095535278320e+00 3.925216570496559143e-02 -1.925618015229701996e-02 5.998795386403799057e-03 -8.405597507953643799e-02
4.924000000000000000e+03 2.528761291503906250e+01 1.850317358970642090e+00 -7.286576181650161743e-02 -1.449030190706253052e-01 -6.533063203096389771e-02 -1.042491048574447632e-01
4.925000000000000000e+03 2.482535362243652344e+01 8.515196442604064941e-01 -2.655753493309020996e-01 -1.469569504261016846e-01 -1.237596869468688965e-01 -7.434210181236267090e-02
4.926000000000000000e+03 2.788313865661621094e+01 3.803515911102294922e+00 4.552457481622695923e-02 -8.633188158273696899e-02 -1.224219240248203278e-02 -8.295263350009918213e-02
4.927000000000000000e+03 4.370089340209960938e+01 2.081275939941406250e+01 3.036107122898101807e-01 1.781487584114074707e+00 6.255294680595397949e-01 9.635940790176391602e-01
4.928000000000000000e+03 4.349007034301757812e+01 2.164054870605468750e+01 4.129240810871124268e-01 1.571257829666137695e+00 5.952546000480651855e-01 9.529849886894226074e-01
4.929000000000000000e+03 4.478786468505859375e+01 2.256193923950195312e+01 5.271732807159423828e-01 2.007358551025390625e+00 7.603595852851867676e-01 1.184544801712036133e+00
4.930000000000000000e+03 4.178562927246093750e+01 2.023899269104003906e+01 2.401879280805587769e-01 1.086071133613586426e+00 3.978777229785919189e-01 6.363192796707153320e-01
4.931000000000000000e+03 4.512211227416992188e+01 2.374307823181152344e+01 7.338383793830871582e-01 1.975890398025512695e+00 8.129186034202575684e-01 1.283857703208923340e+00
4.932000000000000000e+03 4.582408523559570312e+01 2.411803817749023438e+01 7.991916537284851074e-01 2.260415792465209961e+00 9.178822040557861328e-01 1.450961947441101074e+00
4.933000000000000000e+03 5.263065338134765625e+01 2.844621086120605469e+01 8.109117746353149414e-01 8.365180015563964844e+00 2.752827644348144531e+00 2.795584678649902344e+00
4.934000000000000000e+03 3.789527893066406250e+01 1.347759914398193359e+01 -1.309051811695098877e-01 7.878077626228332520e-01 1.970707625150680542e-01 2.369913160800933838e-01
4.935000000000000000e+03 4.244150924682617188e+01 2.103757667541503906e+01 3.171594142913818359e-01 1.203503251075744629e+00 4.561988115310668945e-01 7.373820543289184570e-01
4.936000000000000000e+03 4.314279556274414062e+01 2.117947578430175781e+01 3.512691557407379150e-01 1.500289440155029297e+00 5.554676055908203125e-01 8.797788619995117188e-01
4.937000000000000000e+03 1.564420509338378906e+01 9.002956390380859375e+00 1.031633391976356506e-01 2.761235535144805908e-01 1.137860715389251709e-01 1.507730633020401001e-01
4.938000000000000000e+03 1.336613750457763672e+01 6.911574840545654297e+00 7.698385417461395264e-02 4.199543595314025879e-01 1.490814685821533203e-01 6.191973015666007996e-02
4.939000000000000000e+03 2.272460937500000000e+01 1.555946350097656250e+01 9.694226831197738647e-02 1.457642167806625366e-01 7.281194627285003662e-02 1.182648763060569763e-01
4.940000000000000000e+03 2.188633537292480469e+01 1.517064285278320312e+01 9.845220297574996948e-02 1.515398472547531128e-01 7.499761879444122314e-02 1.184506267309188843e-01
4.941000000000000000e+03 2.119080352783203125e+01 1.460608577728271484e+01 1.010196059942245483e-01 1.559700369834899902e-01 7.709689438343048096e-02 1.214663684368133545e-01
4.942000000000000000e+03 4.149582672119140625e+01 1.971058654785156250e+01 1.918859034776687622e-01 1.064673066139221191e+00 3.769676983356475830e-01 5.950623154640197754e-01
4.943000000000000000e+03 3.751007461547851562e+01 1.460890483856201172e+01 -1.193484961986541748e-01 5.480121374130249023e-01 1.285990923643112183e-01 1.621357649564743042e-01
4.944000000000000000e+03 2.497874069213867188e+01 -1.496109515428543091e-01 -4.429793953895568848e-01 -1.624329239130020142e-01 -1.816236972808837891e-01 3.193917125463485718e-02
4.945000000000000000e+03 3.309186172485351562e+01 1.089673328399658203e+01 -3.864642381668090820e-01 2.475652657449245453e-02 -1.085123121738433838e-01 -1.280132383108139038e-01
4.946000000000000000e+03 4.616302871704101562e+01 2.506534767150878906e+01 1.008989810943603516e+00 2.236203908920288086e+00 9.735580682754516602e-01 1.579101204872131348e+00
4.947000000000000000e+03 3.743412017822265625e+01 1.505092525482177734e+01 -1.129700317978858948e-01 4.932070076465606689e-01 1.140710934996604919e-01 1.411412507295608521e-01
4.948000000000000000e+03 1.188782787322998047e+01 4.874677658081054688e+00 2.681965827941894531e-01 3.324879705905914307e-01 1.802053749561309814e-01 -1.722667068243026733e-01
4.949000000000000000e+03 3.237085342407226562e+01 9.676849365234375000e+00 -3.874104917049407959e-01 4.924065619707107544e-02 -1.014509499073028564e-01 -4.869760945439338684e-02
4.950000000000000000e+03 4.551238250732421875e+01 2.337405586242675781e+01 6.632515192031860352e-01 2.243103742599487305e+00 8.719065785408020020e-01 1.355125427246093750e+00
4.951000000000000000e+03 4.198487854003906250e+01 2.064631843566894531e+01 2.778961956501007080e-01 1.096029520034790039e+00 4.121777117252349854e-01 6.635451912879943848e-01
4.952000000000000000e+03 4.246062088012695312e+01 2.054776382446289062e+01 2.837731838226318359e-01 1.307009577751159668e+00 4.772348105907440186e-01 7.550093531608581543e-01
4.953000000000000000e+03 4.934986877441406250e+01 2.720360565185546875e+01 1.325056195259094238e+00 4.498405456542968750e+00 1.747038483619689941e+00 2.629403591156005859e+00
4.954000000000000000e+03 2.614387512207031250e+01 1.988371086120605469e+01 7.688647508621215820e-02 1.175137162208557129e-01 5.832005664706230164e-02 9.904073178768157959e-02
4.955000000000000000e+03 2.691244697570800781e+01 1.954631042480468750e+01 8.625925332307815552e-02 1.165738999843597412e-01 6.084994599223136902e-02 1.020636931061744690e-01
4.956000000000000000e+03 3.083415031433105469e+01 3.906511783599853516e+00 7.239282131195068359e-02 1.834826320409774780e-01 7.676263153553009033e-02 -1.010170504450798035e-01
4.957000000000000000e+03 1.922850799560546875e+01 1.160564899444580078e+01 1.203782930970191956e-01 1.824199557304382324e-01 9.083947539329528809e-02 1.490907818078994751e-01
4.958000000000000000e+03 2.105068969726562500e+01 1.393335628509521484e+01 1.087206974625587463e-01 1.576479971408843994e-01 7.991060614585876465e-02 1.279897391796112061e-01
4.959000000000000000e+03 2.101064872741699219e+01 1.340145397186279297e+01 1.169813349843025208e-01 1.614101529121398926e-01 8.351744711399078369e-02 1.348914653062820435e-01
4.960000000000000000e+03 5.136376571655273438e+01 2.787388420104980469e+01 1.029121875762939453e+00 6.762013435363769531e+00 2.337340593338012695e+00 2.907088994979858398e+00
4.961000000000000000e+03 5.237058639526367188e+01 2.791821670532226562e+01 6.915140151977539062e-01 7.906881809234619141e+00 2.579518795013427734e+00 2.661691904067993164e+00
4.962000000000000000e+03 3.500590515136718750e+01 1.231094837188720703e+01 -2.548451721668243408e-01 2.258732616901397705e-01 -8.691572584211826324e-03 -2.231750637292861938e-02
4.963000000000000000e+03 3.214959716796875000e+01 1.066226005554199219e+01 -5.010044574737548828e-01 -1.065790727734565735e-01 -1.822750568389892578e-01 -2.216609269380569458e-01
4.964000000000000000e+03 3.734649658203125000e+01 1.403935146331787109e+01 -1.422251909971237183e-01 5.953340530395507812e-01 1.359326541423797607e-01 1.638678014278411865e-01
4.965000000000000000e+03 1.352816200256347656e+01 6.057448387145996094e+00 9.611068665981292725e-02 5.512279868125915527e-01 1.942015886306762695e-01 8.141472935676574707e-02
4.966000000000000000e+03 3.998429107666015625e+01 1.790257263183593750e+01 5.629862844944000244e-02 8.357871174812316895e-01 2.676257193088531494e-01 3.936988413333892822e-01
4.967000000000000000e+03 2.873847198486328125e+01 2.334098434448242188e+01 5.640837922692298889e-02 9.904560446739196777e-02 4.663619771599769592e-02 8.909789472818374634e-02
4.968000000000000000e+03 2.756960868835449219e+01 2.382426071166992188e+01 6.534751504659652710e-02 1.041228920221328735e-01 5.084111914038658142e-02 7.707213610410690308e-02
4.969000000000000000e+03 5.031487274169921875e+01 2.738285827636718750e+01 1.153742074966430664e+00 5.530001640319824219e+00 2.005123138427734375e+00 2.760270595550537109e+00
4.970000000000000000e+03 2.250411224365234375e+01 1.493541526794433594e+01 1.058377772569656372e-01 1.497743129730224609e-01 7.668362557888031006e-02 1.230202913284301758e-01
4.971000000000000000e+03 2.157407951354980469e+01 1.559137058258056641e+01 9.026336669921875000e-02 1.491995900869369507e-01 7.183888554573059082e-02 1.152749583125114441e-01
4.972000000000000000e+03 3.396118927001953125e+01 1.058263301849365234e+01 -2.940357625484466553e-01 2.182407379150390625e-01 -2.273850888013839722e-02 -6.706094369292259216e-03
4.973000000000000000e+03 2.756200027465820312e+01 1.985870933532714844e+01 8.492194861173629761e-02 1.129974573850631714e-01 5.937582254409790039e-02 9.470247477293014526e-02
4.974000000000000000e+03 2.695764923095703125e+01 2.087252426147460938e+01 6.595096737146377563e-02 1.150610819458961487e-01 5.430361628532409668e-02 8.927649259567260742e-02
4.975000000000000000e+03 1.764795684814453125e+01 1.103134346008300781e+01 1.071549206972122192e-01 2.069398164749145508e-01 9.422842413187026978e-02 1.448053717613220215e-01
4.976000000000000000e+03 3.053487205505371094e+01 3.428232431411743164e+00 5.436502397060394287e-02 1.640094220638275146e-01 6.551233679056167603e-02 -9.371978044509887695e-02
4.977000000000000000e+03 5.000146484375000000e+01 2.696243858337402344e+01 1.083906412124633789e+00 5.215466499328613281e+00 1.889811873435974121e+00 2.630891084671020508e+00
4.978000000000000000e+03 1.838987731933593750e+01 1.193741989135742188e+01 1.030815690755844116e-01 1.906025856733322144e-01 8.810524642467498779e-02 1.385504454374313354e-01
4.979000000000000000e+03 1.480747604370117188e+01 7.846408367156982422e+00 1.003661230206489563e-01 3.371298015117645264e-01 1.312487721443176270e-01 1.509318351745605469e-01
4.980000000000000000e+03 1.547434425354003906e+01 8.434374809265136719e+00 1.102602928876876831e-01 2.983921468257904053e-01 1.225957348942756653e-01 1.623599231243133545e-01
4.981000000000000000e+03 4.079612731933593750e+01 1.882925605773925781e+01 1.240878775715827942e-01 9.717593193054199219e-01 3.287541568279266357e-01 5.042472481727600098e-01
4.982000000000000000e+03 3.419900894165039062e+01 1.159335994720458984e+01 -3.002634346485137939e-01 1.557405441999435425e-01 -4.335686936974525452e-02 -6.335222721099853516e-02
4.983000000000000000e+03 2.263712882995605469e+01 1.609546661376953125e+01 9.465681761503219604e-02 1.441642493009567261e-01 7.164631783962249756e-02 1.145454272627830505e-01
4.984000000000000000e+03 2.315660667419433594e+01 1.612100028991699219e+01 9.323886036872863770e-02 1.396878361701965332e-01 6.987800449132919312e-02 1.171068921685218811e-01
4.985000000000000000e+03 2.388580322265625000e+01 1.816154861450195312e+01 8.272828161716461182e-02 1.314278542995452881e-01 6.424684077501296997e-02 1.017222180962562561e-01
4.986000000000000000e+03 2.545658874511718750e+01 1.835198593139648438e+01 9.255813807249069214e-02 1.231373324990272522e-01 6.470864266157150269e-02 1.041814759373664856e-01
4.987000000000000000e+03 2.518653297424316406e+01 1.805993080139160156e+01 8.884277939796447754e-02 1.215337812900543213e-01 6.311296671628952026e-02 1.049702912569046021e-01
4.988000000000000000e+03 2.439799308776855469e+01 1.812410163879394531e+01 8.192959427833557129e-02 1.250919252634048462e-01 6.210645660758018494e-02 1.037975549697875977e-01
4.989000000000000000e+03 2.491038322448730469e+01 1.782626914978027344e+01 9.113745391368865967e-02 1.266686767339706421e-01 6.534183770418167114e-02 1.060147508978843689e-01
4.990000000000000000e+03 5.337959671020507812e+01 2.988344764709472656e+01 1.097941398620605469e+00 9.963304519653320312e+00 3.318373918533325195e+00 2.969430923461914062e+00
4.991000000000000000e+03 5.349925231933593750e+01 3.042976570129394531e+01 1.291513085365295410e+00 1.050825977325439453e+01 3.539931774139404297e+00 3.139315605163574219e+00
4.992000000000000000e+03 3.639919281005859375e+01 1.336976528167724609e+01 -1.820961236953735352e-01 4.253083467483520508e-01 7.296366244554519653e-02 8.119260519742965698e-02
4.993000000000000000e+03 2.596774673461914062e+01 1.917626190185546875e+01 8.479990810155868530e-02 1.196180582046508789e-01 6.132538989186286926e-02 1.014983579516410828e-01
4.994000000000000000e+03 2.019024467468261719e+01 1.370060825347900391e+01 9.931378066539764404e-02 1.627155989408493042e-01 7.860881090164184570e-02 1.271511167287826538e-01
4.995000000000000000e+03 1.912054824829101562e+01 1.322992420196533203e+01 9.593008458614349365e-02 1.737238913774490356e-01 8.089619129896163940e-02 1.256103813648223877e-01
4.996000000000000000e+03 5.392192077636718750e+01 3.122120285034179688e+01 1.530560374259948730e+00 1.161622238159179688e+01 3.944034814834594727e+00 3.231391429901123047e+00
4.997000000000000000e+03 3.431384277343750000e+01 1.204703044891357422e+01 -2.994309067726135254e-01 1.247760877013206482e-01 -5.239644646644592285e-02 -8.311749994754791260e-02
4.998000000000000000e+03 1.444446849822998047e+01 7.977463722229003906e+00 9.650421142578125000e-02 3.392994999885559082e-01 1.307411044836044312e-01 1.243970170617103577e-01
4.999000000000000000e+03 1.522400379180908203e+01 8.842720985412597656e+00 9.749471396207809448e-02 2.826071381568908691e-01 1.140305548906326294e-01 1.414948999881744385e-01
5.000000000000000000e+03 1.487291812896728516e+01 8.643505096435546875e+00 8.908583968877792358e-02 3.048796951770782471e-01 1.181896626949310303e-01 1.294213235378265381e-01
5.001000000000000000e+03 1.925116729736328125e+01 1.250257301330566406e+01 1.075451001524925232e-01 1.781578958034515381e-01 8.571089804172515869e-02 1.359212398529052734e-01
5.002000000000000000e+03 3.251473236083984375e+01 8.767407417297363281e+00 -2.310167253017425537e-01 1.032465100288391113e-01 -3.833106532692909241e-02 5.581891164183616638e-02
5.003000000000000000e+03 3.263893127441406250e+01 9.146805763244628906e+00 -2.836187779903411865e-01 1.173800006508827209e-01 -4.987163096666336060e-02 3.104623779654502869e-02
5.004000000000000000e+03 4.626502227783203125e+01 2.420039367675781250e+01 7.941991686820983887e-01 2.522458791732788086e+00 9.949973821640014648e-01 1.555666565895080566e+00
5.005000000000000000e+03 2.860602378845214844e+01 3.911578059196472168e-01 -1.134979426860809326e-01 -2.907790709286928177e-03 -3.492172062397003174e-02 -4.258144274353981018e-02
5.006000000000000000e+03 5.324540710449218750e+01 2.935284042358398438e+01 8.881360888481140137e-01 9.480780601501464844e+00 3.110674858093261719e+00 2.805072546005249023e+00
5.007000000000000000e+03 4.830014419555664062e+01 2.596443748474121094e+01 1.057367444038391113e+00 3.669278621673583984e+00 1.417993783950805664e+00 2.200662374496459961e+00
5.008000000000000000e+03 3.294317245483398438e+01 1.025082969665527344e+01 -3.885663747787475586e-01 7.372050732374191284e-02 -9.445375949144363403e-02 -7.452274858951568604e-02
5.009000000000000000e+03 1.849121665954589844e+01 1.268328762054443359e+01 9.326675534248352051e-02 1.823993921279907227e-01 8.269984275102615356e-02 1.277605742216110229e-01
5.010000000000000000e+03 2.830324363708496094e+01 2.300730133056640625e+01 6.101276725530624390e-02 1.091611161828041077e-01 5.105216428637504578e-02 7.991124689579010010e-02
5.011000000000000000e+03 2.790907669067382812e+01 2.219215583801269531e+01 5.588878318667411804e-02 1.090537905693054199e-01 4.948277026414871216e-02 8.607113361358642578e-02
5.012000000000000000e+03 3.535416793823242188e+01 1.207809638977050781e+01 -2.360784858465194702e-01 3.339476585388183594e-01 2.936075627803802490e-02 3.164095059037208557e-02
5.013000000000000000e+03 4.508265304565429688e+01 2.300013542175292969e+01 5.935526490211486816e-01 2.072112321853637695e+00 7.996995449066162109e-01 1.246001839637756348e+00
5.014000000000000000e+03 3.279655838012695312e+01 7.818344593048095703e+00 -5.021118372678756714e-02 1.814477592706680298e-01 3.937097266316413879e-02 8.965121209621429443e-02
5.015000000000000000e+03 2.933058166503906250e+01 2.502992057800292969e+01 4.371933639049530029e-02 9.480804204940795898e-02 4.155821353197097778e-02 8.616573363542556763e-02
5.016000000000000000e+03 2.900701141357421875e+01 2.456451797485351562e+01 6.076693162322044373e-02 1.042709201574325562e-01 4.951135814189910889e-02 7.002776861190795898e-02
5.017000000000000000e+03 1.189750671386718750e+01 5.412957191467285156e+00 2.185779362916946411e-01 3.336775600910186768e-01 1.656766533851623535e-01 -1.305865198373794556e-01
5.018000000000000000e+03 1.127213287353515625e+01 4.898673057556152344e+00 3.079800307750701904e-01 1.538732796907424927e-01 1.385559886693954468e-01 -1.368889212608337402e-01
5.019000000000000000e+03 2.555285263061523438e+01 -2.398949265480041504e-01 -3.945293426513671875e-01 -1.624964475631713867e-01 -1.671077460050582886e-01 4.352524504065513611e-02
5.020000000000000000e+03 2.531505393981933594e+01 5.402398109436035156e-01 -2.934921085834503174e-01 -1.472740769386291504e-01 -1.322298645973205566e-01 -4.090062901377677917e-02
5.021000000000000000e+03 3.308137130737304688e+01 2.667447090148925781e+01 5.940296873450279236e-02 8.124625682830810547e-02 4.219476506114006042e-02 7.143987715244293213e-02
5.022000000000000000e+03 5.433737564086914062e+01 3.206719970703125000e+01 1.687269568443298340e+00 1.323104000091552734e+01 4.475492954254150391e+00 3.118650197982788086e+00
5.023000000000000000e+03 3.320224761962890625e+01 7.259930610656738281e+00 8.716247044503688812e-03 2.629571259021759033e-01 8.150201290845870972e-02 8.788374811410903931e-02
5.024000000000000000e+03 3.410784912109375000e+01 6.599311351776123047e+00 3.118105418980121613e-02 4.321276247501373291e-01 1.389926075935363770e-01 1.124154776334762573e-01
5.025000000000000000e+03 2.561522865295410156e+01 2.994728088378906250e-01 -3.173839449882507324e-01 -1.439808905124664307e-01 -1.384094506502151489e-01 -3.065284900367259979e-02
5.026000000000000000e+03 3.163442802429199219e+01 2.667977333068847656e+01 4.579212889075279236e-02 8.738232403993606567e-02 3.995233774185180664e-02 8.153569698333740234e-02
5.027000000000000000e+03 5.392404174804687500e+01 3.225682067871093750e+01 2.070570945739746094e+00 1.291196537017822266e+01 4.494760990142822266e+00 3.798003911972045898e+00
5.028000000000000000e+03 2.756091308593750000e+01 4.249597787857055664e-01 -1.529377996921539307e-01 -7.520990818738937378e-02 -6.844431161880493164e-02 -3.795303031802177429e-02
5.029000000000000000e+03 1.237683868408203125e+01 5.316136837005615234e+00 1.791266798973083496e-01 4.459875524044036865e-01 1.875342726707458496e-01 -1.139358207583427429e-01
5.030000000000000000e+03 3.204145431518554688e+01 4.446606159210205078e+00 1.081713363528251648e-01 2.678358256816864014e-01 1.128021478652954102e-01 -7.181923836469650269e-02
5.031000000000000000e+03 3.236076354980468750e+01 5.286535739898681641e+00 1.257246583700180054e-01 2.363772839307785034e-01 1.086305826902389526e-01 -3.826957941055297852e-02
5.032000000000000000e+03 1.092426109313964844e+01 4.131351470947265625e+00 3.890657424926757812e-01 -2.358778379857540131e-02 1.096433848142623901e-01 -7.820411026477813721e-02
5.033000000000000000e+03 1.040930461883544922e+01 4.383251667022705078e+00 3.388846814632415771e-01 -8.684600144624710083e-02 7.561160624027252197e-02 -3.194783627986907959e-02
5.034000000000000000e+03 3.492279815673828125e+01 -6.307145595550537109e+00 -1.806320250034332275e-01 8.482686281204223633e-01 2.002909928560256958e-01 -2.573986537754535675e-03
5.035000000000000000e+03 2.898666572570800781e+01 -8.441326022148132324e-01 -1.622129678726196289e-01 1.231132354587316513e-02 -4.497049376368522644e-02 1.749517582356929779e-02
5.036000000000000000e+03 3.447707366943359375e+01 2.950270652770996094e+01 3.268763050436973572e-02 1.076008901000022888e-01 4.208655655384063721e-02 7.282963395118713379e-02
5.037000000000000000e+03 3.395094299316406250e+01 2.865031433105468750e+01 4.006572812795639038e-02 1.070551201701164246e-01 4.413625225424766541e-02 6.272295117378234863e-02
5.038000000000000000e+03 3.334907531738281250e+01 7.691295623779296875e+00 -3.905716910958290100e-02 2.580576837062835693e-01 6.570015102624893188e-02 1.009007245302200317e-01
5.039000000000000000e+03 9.468659400939941406e+00 6.132012367248535156e+00 2.084508389234542847e-01 -3.317357972264289856e-02 5.258318036794662476e-02 -2.155296504497528076e-02
5.040000000000000000e+03 8.570528030395507812e+00 5.811417102813720703e+00 1.845918446779251099e-01 -1.070424541831016541e-01 2.326481603085994720e-02 4.370495304465293884e-02
5.041000000000000000e+03 7.881656646728515625e+00 -6.633069515228271484e+00 -1.352316420525312424e-02 -1.164914965629577637e-01 -3.900440037250518799e-02 -2.262801080942153931e-01
5.042000000000000000e+03 3.337554168701171875e+01 -3.516379594802856445e+00 -1.331997215747833252e-01 5.795960426330566406e-01 1.339189112186431885e-01 1.826028339564800262e-03
5.043000000000000000e+03 3.185698890686035156e+01 -2.328772068023681641e+00 -1.217758953571319580e-01 3.428227305412292480e-01 6.631404906511306763e-02 4.352426622062921524e-03
5.044000000000000000e+03 5.376527786254882812e+00 5.782890796661376953e+00 5.817624554038047791e-02 -1.284177303314208984e-01 -2.107244543731212616e-02 1.106563508510589600e-01
5.045000000000000000e+03 3.173984336853027344e+01 -3.352140665054321289e+00 -1.509101390838623047e-01 3.011278510093688965e-01 4.506531357765197754e-02 2.729916758835315704e-02
5.046000000000000000e+03 6.945181369781494141e+00 5.213709354400634766e+00 1.052063703536987305e-01 -1.403362303972244263e-01 -1.053896080702543259e-02 1.246222034096717834e-01
5.047000000000000000e+03 1.235021400451660156e+01 -7.119283676147460938e+00 1.209601089358329773e-01 -1.206447780132293701e-01 9.460025466978549957e-05 -2.100197523832321167e-01
5.048000000000000000e+03 3.018380737304687500e+01 -1.896258831024169922e+00 -1.580240428447723389e-01 1.095429882407188416e-01 -1.454431563615798950e-02 3.458928689360618591e-02
5.049000000000000000e+03 3.362057495117187500e+01 2.774852371215820312e+01 5.841419100761413574e-02 1.018118038773536682e-01 4.806779697537422180e-02 6.096989288926124573e-02
5.050000000000000000e+03 3.338747024536132812e+01 5.493916034698486328e+00 9.078958630561828613e-02 3.734337985515594482e-01 1.392670124769210815e-01 3.488243743777275085e-02
5.051000000000000000e+03 3.154042816162109375e+01 -1.823113679885864258e+00 -1.131520867347717285e-01 2.900910973548889160e-01 5.308170616626739502e-02 4.231769416946917772e-04
5.052000000000000000e+03 3.766419982910156250e+01 -8.146292686462402344e+00 -2.131814658641815186e-01 1.429976701736450195e+00 3.650385737419128418e-01 -5.047975108027458191e-02
5.053000000000000000e+03 8.111183166503906250e+00 1.020780372619628906e+01 8.125445246696472168e-02 -1.144386827945709229e-02 2.094317600131034851e-02 -8.481037802994251251e-03
5.054000000000000000e+03 3.773584365844726562e+01 -7.284928321838378906e+00 -1.971736103296279907e-01 1.472400307655334473e+00 3.825680017471313477e-01 -4.719704762101173401e-02
5.055000000000000000e+03 3.457162857055664062e+01 3.024492454528808594e+01 8.978001028299331665e-02 8.579739928245544434e-02 5.267322435975074768e-02 4.610173776745796204e-02
5.056000000000000000e+03 5.583965682983398438e+01 3.236427688598632812e+01 1.754019498825073242e+00 1.367202091217041016e+01 4.627811908721923828e+00 1.027828931808471680e+00
5.057000000000000000e+03 1.000895309448242188e+01 1.918029022216796875e+01 -9.128160891123116016e-04 1.890319027006626129e-02 5.397112108767032623e-03 -4.396947100758552551e-03
5.058000000000000000e+03 8.642781257629394531e+00 1.855073356628417969e+01 -1.698345295153558254e-03 -5.502024665474891663e-03 -2.160110976547002792e-03 -1.252111047506332397e-02
5.059000000000000000e+03 4.582868099212646484e+00 7.848625659942626953e+00 5.369650200009346008e-02 -1.306520849466323853e-01 -2.308667451143264771e-02 6.035924330353736877e-02
5.060000000000000000e+03 9.429789543151855469e+00 1.996384429931640625e+01 -2.989437198266386986e-03 4.517162684351205826e-03 4.583176923915743828e-04 -1.095662079751491547e-02
5.061000000000000000e+03 6.873351287841796875e+01 7.369486808776855469e+00 -3.830045461654663086e-01 7.816191196441650391e+00 2.229955911636352539e+00 -4.911152720451354980e-01
5.062000000000000000e+03 6.758727264404296875e+01 -6.486817836761474609e+00 -2.430561184883117676e-01 7.564152717590332031e+00 2.196328878402709961e+00 2.970051579177379608e-02
5.063000000000000000e+03 6.718206787109375000e+01 -1.119814014434814453e+01 -2.002670317888259888e-01 7.488336563110351562e+00 2.186420917510986328e+00 1.583008021116256714e-01
5.064000000000000000e+03 4.559938049316406250e+01 -1.496073722839355469e+01 -3.564910888671875000e-01 3.514948844909667969e+00 9.475373625755310059e-01 -1.455397903919219971e-01
5.065000000000000000e+03 6.718371582031250000e+01 -1.359424304962158203e+01 -1.844277232885360718e-01 7.477739810943603516e+00 2.187993764877319336e+00 2.068158388137817383e-01
5.066000000000000000e+03 4.444424057006835938e+01 -1.610425949096679688e+01 -3.103954493999481201e-01 3.252761602401733398e+00 8.827098011970520020e-01 -2.222290933132171631e-01
5.067000000000000000e+03 6.706395721435546875e+01 -1.625194168090820312e+01 -1.495809108018875122e-01 7.432066440582275391e+00 2.184745788574218750e+00 2.629080414772033691e-01
5.068000000000000000e+03 4.617822265625000000e+01 -1.734085845947265625e+01 -3.456054627895355225e-01 3.752900600433349609e+00 1.022188544273376465e+00 -1.859606057405471802e-01
5.069000000000000000e+03 6.724048614501953125e+01 -1.848808670043945312e+01 -1.059553176164627075e-01 7.466761589050292969e+00 2.208241939544677734e+00 3.036886751651763916e-01
5.070000000000000000e+03 1.116597080230712891e+01 -1.488272571563720703e+01 9.984684735536575317e-02 -3.107265755534172058e-02 2.063225768506526947e-02 -8.372899144887924194e-02
5.071000000000000000e+03 7.097009277343750000e+01 1.362732887268066406e+01 -3.343155086040496826e-01 7.931005954742431641e+00 2.279007196426391602e+00 -8.313696384429931641e-01
5.072000000000000000e+03 6.880786895751953125e+01 1.351789283752441406e+01 -4.629346728324890137e-01 7.895303249359130859e+00 2.229710578918457031e+00 -8.292061090469360352e-01
5.073000000000000000e+03 1.133943653106689453e+01 2.113747978210449219e+01 -5.248200614005327225e-03 3.308552131056785583e-02 8.351195603609085083e-03 -2.670787274837493896e-03
5.074000000000000000e+03 1.176980876922607422e+01 2.007715225219726562e+01 1.705031259916722775e-03 4.839366674423217773e-02 1.502960920333862305e-02 6.841532420367002487e-03
5.075000000000000000e+03 6.905994415283203125e+01 2.598789453506469727e+00 -3.007193207740783691e-01 7.831593513488769531e+00 2.259262323379516602e+00 -2.806030511856079102e-01
5.076000000000000000e+03 6.894810485839843750e+01 8.882651329040527344e+00 -3.968919515609741211e-01 7.851486206054687500e+00 2.236378192901611328e+00 -5.772299766540527344e-01
5.077000000000000000e+03 6.807180023193359375e+01 -2.136408233642578125e+01 -6.288962811231613159e-02 7.543995857238769531e+00 2.244331836700439453e+00 3.316524028778076172e-01
5.078000000000000000e+03 6.793797302246093750e+01 1.896357154846191406e+01 -4.722670614719390869e-01 8.021740913391113281e+00 2.264842271804809570e+00 -1.147719979286193848e+00
5.079000000000000000e+03 4.329248428344726562e+01 -1.293371295928955078e+01 -3.190189301967620850e-01 2.885099411010742188e+00 7.698242068290710449e-01 -1.518989652395248413e-01
5.080000000000000000e+03 7.003388214111328125e+01 1.461848449707031250e+01 -3.936478495597839355e-01 7.913457870483398438e+00 2.255943059921264648e+00 -9.001840353012084961e-01
5.081000000000000000e+03 2.751207733154296875e+01 2.653192758560180664e+00 9.632139466702938080e-03 -1.014347150921821594e-01 -2.754077129065990448e-02 -9.777215123176574707e-02
5.082000000000000000e+03 2.551636505126953125e+01 1.068423271179199219e+00 -1.954435259103775024e-01 -1.409694701433181763e-01 -1.009238958358764648e-01 -8.194877952337265015e-02
5.083000000000000000e+03 2.783545112609863281e+01 3.408206701278686523e+00 4.106599837541580200e-02 -8.572176098823547363e-02 -1.339672878384590149e-02 -8.737120032310485840e-02
5.084000000000000000e+03 2.496403121948242188e+01 3.993279039859771729e-01 -3.652222454547882080e-01 -1.648773849010467529e-01 -1.590298861265182495e-01 -1.154022850096225739e-02
5.085000000000000000e+03 2.611911773681640625e+01 1.817461609840393066e+00 -7.241991162300109863e-02 -1.441160142421722412e-01 -6.496077775955200195e-02 -1.000142842531204224e-01
5.086000000000000000e+03 2.635920333862304688e+01 2.361377000808715820e+00 -1.234423555433750153e-02 -1.422563642263412476e-01 -4.638018086552619934e-02 -1.034652367234230042e-01
5.087000000000000000e+03 2.897533988952636719e+01 3.646749019622802734e+00 3.605685010552406311e-02 2.796554565429687500e-02 1.920671947300434113e-02 -8.470990508794784546e-02
5.088000000000000000e+03 3.011318969726562500e+01 3.815266847610473633e+00 5.282585322856903076e-02 1.316020786762237549e-01 5.532838031649589539e-02 -9.995936602354049683e-02
5.089000000000000000e+03 3.867800903320312500e+01 1.603253555297851562e+01 -4.606276750564575195e-02 7.111229300498962402e-01 1.995180547237396240e-01 2.680631279945373535e-01
5.090000000000000000e+03 3.093816184997558594e+01 3.458821773529052734e+00 5.597867444157600403e-02 1.953586190938949585e-01 7.540118694305419922e-02 -9.256789088249206543e-02
5.091000000000000000e+03 3.045515251159667969e+01 3.858561515808105469e+00 5.645613372325897217e-02 1.525445282459259033e-01 6.270019710063934326e-02 -1.047371178865432739e-01
5.092000000000000000e+03 2.080661964416503906e+01 1.432773208618164062e+01 9.968733787536621094e-02 1.574924141168594360e-01 7.715392112731933594e-02 1.242303028702735901e-01
5.093000000000000000e+03 3.783567428588867188e+01 1.557263278961181641e+01 -8.669394999742507935e-02 5.303841233253479004e-01 1.331070512533187866e-01 1.741202026605606079e-01
5.094000000000000000e+03 2.978414154052734375e+01 4.121432781219482422e+00 4.432002827525138855e-02 1.070659980177879333e-01 4.541580751538276672e-02 -1.036470159888267517e-01
5.095000000000000000e+03 2.917400360107421875e+01 4.189932823181152344e+00 3.824436292052268982e-02 5.508403480052947998e-02 2.799852006137371063e-02 -9.025215357542037964e-02
5.096000000000000000e+03 4.422917175292968750e+01 2.221271705627441406e+01 4.789387583732604980e-01 1.809975147247314453e+00 6.866741776466369629e-01 1.075969934463500977e+00
5.097000000000000000e+03 4.237437057495117188e+01 2.001805305480957031e+01 2.325641214847564697e-01 1.356363177299499512e+00 4.766781926155090332e-01 7.443265914916992188e-01
5.098000000000000000e+03 4.272053527832031250e+01 2.023965263366699219e+01 2.523348927497863770e-01 1.465751767158508301e+00 5.154259800910949707e-01 7.981440424919128418e-01
5.099000000000000000e+03 4.370658874511718750e+01 2.124259185791015625e+01 3.601281046867370605e-01 1.726875424385070801e+00 6.261010766029357910e-01 9.792292714118957520e-01
5.100000000000000000e+03 4.291957092285156250e+01 2.100153732299804688e+01 3.164615631103515625e-01 1.412041783332824707e+00 5.185509920120239258e-01 8.199768662452697754e-01
5.101000000000000000e+03 3.909651565551757812e+01 1.739576148986816406e+01 2.106874436140060425e-02 6.418043375015258789e-01 1.988619267940521240e-01 2.859763801097869873e-01
5.102000000000000000e+03 4.585348892211914062e+01 2.236127281188964844e+01 4.477687478065490723e-01 2.638151407241821289e+00 9.257760643959045410e-01 1.368623852729797363e+00
5.103000000000000000e+03 3.737213134765625000e+01 1.554427051544189453e+01 -1.049319878220558167e-01 4.212272465229034424e-01 9.488858282566070557e-02 1.157508790493011475e-01
5.104000000000000000e+03 1.550619983673095703e+01 9.528248786926269531e+00 9.529500454664230347e-02 2.641266286373138428e-01 1.078264936804771423e-01 1.355501264333724976e-01
5.105000000000000000e+03 1.477493476867675781e+01 9.063486099243164062e+00 8.787753432989120483e-02 2.884871065616607666e-01 1.129093915224075317e-01 1.208186522126197815e-01
5.106000000000000000e+03 3.687145614624023438e+01 1.338935852050781250e+01 -1.636292189359664917e-01 5.254274010658264160e-01 1.085394546389579773e-01 1.313793659210205078e-01
5.107000000000000000e+03 2.654953956604003906e+01 1.435187578201293945e+00 -1.077094152569770813e-01 -1.362826526165008545e-01 -7.319761812686920166e-02 -8.343119174242019653e-02
5.108000000000000000e+03 3.827801132202148438e+01 1.559510517120361328e+01 -7.437868416309356689e-02 6.399679183959960938e-01 1.696767657995223999e-01 2.274641841650009155e-01
5.109000000000000000e+03 4.760380554199218750e+01 2.427331924438476562e+01 6.868787407875061035e-01 3.397788763046264648e+00 1.225400328636169434e+00 1.830046772956848145e+00
5.110000000000000000e+03 4.765399551391601562e+01 2.511468696594238281e+01 8.874737620353698730e-01 3.302491188049316406e+00 1.256989479064941406e+00 1.943565011024475098e+00
5.111000000000000000e+03 3.382372283935546875e+01 1.088165950775146484e+01 -3.160450458526611328e-01 1.666119396686553955e-01 -4.482992738485336304e-02 -4.809535294771194458e-02
5.112000000000000000e+03 4.451061248779296875e+01 2.165421295166015625e+01 3.949713408946990967e-01 2.034595489501953125e+00 7.288700342178344727e-01 1.112960577011108398e+00
5.113000000000000000e+03 3.743289947509765625e+01 1.362949371337890625e+01 -1.407918930053710938e-01 6.693921685218811035e-01 1.585800945758819580e-01 1.900417804718017578e-01
5.114000000000000000e+03 3.950840759277343750e+01 1.736757469177246094e+01 2.444031834602355957e-02 7.688268423080444336e-01 2.379801571369171143e-01 3.411359786987304688e-01
5.115000000000000000e+03 4.174535369873046875e+01 1.925524139404296875e+01 1.665399074554443359e-01 1.225792050361633301e+00 4.176995754241943359e-01 6.426638960838317871e-01
5.116000000000000000e+03 4.886509704589843750e+01 2.614556121826171875e+01 1.024273037910461426e+00 4.134229660034179688e+00 1.547550797462463379e+00 2.322267770767211914e+00
5.117000000000000000e+03 5.076863098144531250e+01 2.764632606506347656e+01 1.117989301681518555e+00 6.033304691314697266e+00 2.145388126373291016e+00 2.826216936111450195e+00
5.118000000000000000e+03 4.335673522949218750e+01 2.138181304931640625e+01 3.717261552810668945e-01 1.553736448287963867e+00 5.776388049125671387e-01 9.171437621116638184e-01
5.119000000000000000e+03 4.020747375488281250e+01 1.741148376464843750e+01 4.171065986156463623e-02 9.810413122177124023e-01 3.068255782127380371e-01 4.395756721496582031e-01
5.120000000000000000e+03 4.050621414184570312e+01 1.702070236206054688e+01 2.568117342889308929e-02 1.128824114799499512e+00 3.463515937328338623e-01 4.857236146926879883e-01
5.121000000000000000e+03 4.304002761840820312e+01 2.050365829467773438e+01 2.795727550983428955e-01 1.575657010078430176e+00 5.565689206123352051e-01 8.629031181335449219e-01
5.122000000000000000e+03 3.318444061279296875e+01 1.050034999847412109e+01 -3.697649836540222168e-01 8.709910511970520020e-02 -8.479976654052734375e-02 -7.506547868251800537e-02
5.123000000000000000e+03 3.328069686889648438e+01 1.001039028167724609e+01 -3.317644596099853516e-01 1.482118815183639526e-01 -5.506577342748641968e-02 -1.340266223996877670e-02
5.124000000000000000e+03 4.741233444213867188e+01 2.529344749450683594e+01 9.806466698646545410e-01 3.058486223220825195e+00 1.211739897727966309e+00 1.925580382347106934e+00
5.125000000000000000e+03 4.809523010253906250e+01 2.563612747192382812e+01 9.657090306282043457e-01 3.554592847824096680e+00 1.356090545654296875e+00 2.096580505371093750e+00
5.126000000000000000e+03 4.955282592773437500e+01 2.681081771850585938e+01 1.121339678764343262e+00 4.714878082275390625e+00 1.750865340232849121e+00 2.552320241928100586e+00
5.127000000000000000e+03 2.947878074645996094e+01 -2.618745267391204834e-01 -1.114122867584228516e-01 6.394171714782714844e-02 -1.424116920679807663e-02 -1.556377578526735306e-02
5.128000000000000000e+03 3.477560806274414062e+01 1.190229797363281250e+01 -2.659919857978820801e-01 2.267764806747436523e-01 -1.176465209573507309e-02 -2.206672914326190948e-02
5.129000000000000000e+03 3.511865997314453125e+01 1.129342555999755859e+01 -2.400384098291397095e-01 3.610331714153289795e-01 3.629842773079872131e-02 4.969480261206626892e-02
5.130000000000000000e+03 2.195671844482421875e+01 1.582075595855712891e+01 9.009104967117309570e-02 1.480838358402252197e-01 7.145246118307113647e-02 1.117621958255767822e-01
5.131000000000000000e+03 2.215056419372558594e+01 1.616024398803710938e+01 8.518081903457641602e-02 1.432040780782699585e-01 6.851547211408615112e-02 1.130210012197494507e-01
5.132000000000000000e+03 4.418672561645507812e+01 2.034573554992675781e+01 2.408041059970855713e-01 2.063199281692504883e+00 6.912010312080383301e-01 1.023563027381896973e+00
5.133000000000000000e+03 3.651930999755859375e+01 1.286811065673828125e+01 -1.794032901525497437e-01 5.203496813774108887e-01 1.022839173674583435e-01 1.153812408447265625e-01
5.134000000000000000e+03 5.198444747924804688e+01 2.780574607849121094e+01 7.387946248054504395e-01 7.467233657836914062e+00 2.461808443069458008e+00 2.704601049423217773e+00
5.135000000000000000e+03 2.483399391174316406e+01 1.816867256164550781e+01 8.845438808202743530e-02 1.290293186902999878e-01 6.524511426687240601e-02 1.059014350175857544e-01
5.136000000000000000e+03 1.661136245727539062e+01 1.070741844177246094e+01 9.629513323307037354e-02 2.237770706415176392e-01 9.602165967226028442e-02 1.359851509332656860e-01
5.137000000000000000e+03 4.109509277343750000e+01 1.843145751953125000e+01 1.012072265148162842e-01 1.118832111358642578e+00 3.660117983818054199e-01 5.468294024467468262e-01
5.138000000000000000e+03 4.170841217041015625e+01 1.861650276184082031e+01 1.256283074617385864e-01 1.321163058280944824e+00 4.340374171733856201e-01 6.498636007308959961e-01
5.139000000000000000e+03 2.588402366638183594e+01 1.144676327705383301e+00 -1.698154211044311523e-01 -1.493297070264816284e-01 -9.574353694915771484e-02 -6.705214083194732666e-02
5.140000000000000000e+03 1.130974483489990234e+01 5.491893768310546875e+00 2.293719947338104248e-01 1.898835450410842896e-01 1.257766634225845337e-01 -1.141994148492813110e-01
5.141000000000000000e+03 3.268034744262695312e+01 1.050717449188232422e+01 -4.211835265159606934e-01 1.315656863152980804e-02 -1.224080845713615417e-01 -1.262198239564895630e-01
5.142000000000000000e+03 3.465155029296875000e+01 1.141254234313964844e+01 -2.733437418937683105e-01 2.557467222213745117e-01 -5.279102362692356110e-03 -6.365058012306690216e-03
5.143000000000000000e+03 1.609315299987792969e+01 1.003906440734863281e+01 9.923340380191802979e-02 2.438894808292388916e-01 1.029368638992309570e-01 1.389930099248886108e-01
5.144000000000000000e+03 2.286907768249511719e+01 1.426809787750244141e+01 1.215350553393363953e-01 1.503384709358215332e-01 8.156205713748931885e-02 1.327321529388427734e-01
5.145000000000000000e+03 1.973822402954101562e+01 1.369744491577148438e+01 9.802702069282531738e-02 1.669304668903350830e-01 7.948724925518035889e-02 1.251394152641296387e-01
5.146000000000000000e+03 1.359217548370361328e+01 8.373788833618164062e+00 7.707907259464263916e-02 3.136027157306671143e-01 1.172045394778251648e-01 7.143882662057876587e-02
5.147000000000000000e+03 1.069985485076904297e+01 5.635964870452880859e+00 2.445833384990692139e-01 9.147791564464569092e-02 1.008183807134628296e-01 -8.942435681819915771e-02
5.148000000000000000e+03 3.169695854187011719e+01 3.970325708389282227e+00 8.869360387325286865e-02 2.552562057971954346e-01 1.031849458813667297e-01 -8.270207792520523071e-02
5.149000000000000000e+03 3.269028472900390625e+01 4.060819149017333984e+00 9.277517348527908325e-02 3.601401150226593018e-01 1.358745843172073364e-01 -3.934255987405776978e-02
5.150000000000000000e+03 2.268333053588867188e+01 1.770790290832519531e+01 7.915847003459930420e-02 1.329408586025238037e-01 6.362979859113693237e-02 1.027892827987670898e-01
5.151000000000000000e+03 2.258807182312011719e+01 1.661334609985351562e+01 8.168759942054748535e-02 1.416984945535659790e-01 6.701582670211791992e-02 1.101145297288894653e-01
5.152000000000000000e+03 3.360380172729492188e+01 6.718451976776123047e+00 3.830520063638687134e-02 3.499087691307067871e-01 1.164641901850700378e-01 8.680973201990127563e-02
5.153000000000000000e+03 3.435268020629882812e+01 7.361836910247802734e+00 -2.418502978980541229e-02 4.524696171283721924e-01 1.284853816032409668e-01 1.342642605304718018e-01
5.154000000000000000e+03 2.516876220703125000e+01 1.872030067443847656e+01 8.087773621082305908e-02 1.249112635850906372e-01 6.173669919371604919e-02 1.013479828834533691e-01
5.155000000000000000e+03 3.333145141601562500e+01 2.845521354675292969e+01 6.599801778793334961e-02 7.566720992326736450e-02 4.249956831336021423e-02 8.152575045824050903e-02
5.156000000000000000e+03 3.057843399047851562e+01 -1.122786641120910645e+00 -1.168843507766723633e-01 1.704997569322586060e-01 1.608462072908878326e-02 -1.757404068484902382e-03
5.157000000000000000e+03 3.006623840332031250e+01 -1.285582065582275391e+00 -1.428409516811370850e-01 1.063437014818191528e-01 -1.094917673617601395e-02 1.135362498462200165e-02
5.158000000000000000e+03 1.294449520111083984e+01 6.981645584106445312e+00 9.464176744222640991e-02 3.856372535228729248e-01 1.440837085247039795e-01 2.428386360406875610e-02
5.159000000000000000e+03 1.267831420898437500e+01 6.330485343933105469e+00 1.151387616991996765e-01 4.337750077247619629e-01 1.646741330623626709e-01 -2.598689310252666473e-02
5.160000000000000000e+03 5.374895477294921875e+01 2.924716567993164062e+01 7.154775261878967285e-01 9.872630119323730469e+00 3.176432132720947266e+00 2.497839450836181641e+00
5.161000000000000000e+03 1.887615966796875000e+01 1.216995716094970703e+01 1.082366928458213806e-01 1.815578043460845947e-01 8.693835139274597168e-02 1.406156718730926514e-01
5.162000000000000000e+03 1.713512039184570312e+01 1.206640720367431641e+01 8.376959711313247681e-02 1.979203075170516968e-01 8.450696617364883423e-02 1.228438094258308411e-01
5.163000000000000000e+03 5.063077545166015625e+01 2.727781677246093750e+01 1.016233682632446289e+00 5.843029022216796875e+00 2.057778835296630859e+00 2.720114707946777344e+00
5.164000000000000000e+03 5.157786560058593750e+01 2.719571876525878906e+01 7.062231898307800293e-01 6.910037517547607422e+00 2.284878253936767578e+00 2.651879787445068359e+00
5.165000000000000000e+03 3.293402481079101562e+01 8.245824813842773438e+00 -1.182293742895126343e-01 1.697501987218856812e-01 1.545624528080224991e-02 8.680761605501174927e-02
5.166000000000000000e+03 2.604861259460449219e+01 3.203602433204650879e-01 -2.868506908416748047e-01 -1.423916816711425781e-01 -1.287727206945419312e-01 -2.203182131052017212e-02
5.167000000000000000e+03 2.689240264892578125e+01 3.278781175613403320e-01 -2.046931535005569458e-01 -1.123197376728057861e-01 -9.510386735200881958e-02 -3.645487502217292786e-02
5.168000000000000000e+03 4.598683929443359375e+01 2.364818382263183594e+01 6.973239779472351074e-01 2.466852903366088867e+00 9.492530822753906250e-01 1.464797019958496094e+00
5.169000000000000000e+03 5.318249511718750000e+01 2.881153297424316406e+01 7.117775678634643555e-01 9.132441520690917969e+00 2.953265905380249023e+00 2.631252527236938477e+00
5.170000000000000000e+03 2.997742652893066406e+01 2.450105285644531250e+01 6.464792042970657349e-02 1.044933348894119263e-01 5.074237659573554993e-02 7.122394442558288574e-02
5.171000000000000000e+03 3.303927612304687500e+01 8.662292480468750000e+00 -1.768530458211898804e-01 1.934190690517425537e-01 4.969808273017406464e-03 8.111240714788436890e-02
5.172000000000000000e+03 4.505252075195312500e+01 2.190561485290527344e+01 4.164968729019165039e-01 2.259344577789306641e+00 8.027524352073669434e-01 1.216670632362365723e+00
5.173000000000000000e+03 4.550429916381835938e+01 2.266491127014160156e+01 5.213820934295654297e-01 2.386270999908447266e+00 8.722959160804748535e-01 1.325708866119384766e+00
5.174000000000000000e+03 3.586071014404296875e+01 1.215308856964111328e+01 -2.139745950698852539e-01 4.365041553974151611e-01 6.675886362791061401e-02 7.603580504655838013e-02
5.175000000000000000e+03 3.606931686401367188e+01 1.276933765411376953e+01 -2.006577402353286743e-01 4.122329950332641602e-01 6.347257643938064575e-02 7.358033210039138794e-02
5.176000000000000000e+03 2.866141700744628906e+01 2.414599800109863281e+01 4.910009354352951050e-02 9.996685385704040527e-02 4.472008347511291504e-02 8.862501382827758789e-02
5.177000000000000000e+03 3.228363418579101562e+01 3.520810604095458984e+00 7.838364690542221069e-02 3.334469199180603027e-01 1.235491707921028137e-01 -5.846085399389266968e-02
5.178000000000000000e+03 3.125038909912109375e+01 3.944283723831176758e+00 7.507284730672836304e-02 2.129636108875274658e-01 8.641093224287033081e-02 -9.461326152086257935e-02
5.179000000000000000e+03 3.331814956665039062e+01 5.075343608856201172e+00 9.950164705514907837e-02 3.800799846649169922e-01 1.438744962215423584e-01 2.000449039041996002e-02
5.180000000000000000e+03 3.446082687377929688e+01 5.337535858154296875e+00 6.013014540076255798e-02 5.704342126846313477e-01 1.891693025827407837e-01 8.377073705196380615e-02
5.181000000000000000e+03 5.460540008544921875e+01 3.266055297851562500e+01 1.859067320823669434e+00 1.435993957519531250e+01 4.865702152252197266e+00 2.898069620132446289e+00
5.182000000000000000e+03 4.980987167358398438e+01 2.640755081176757812e+01 8.917819857597351074e-01 5.025591373443603516e+00 1.775211930274963379e+00 2.461076736450195312e+00
5.183000000000000000e+03 2.722707366943359375e+01 2.216596221923828125e+01 6.869815289974212646e-02 1.079842895269393921e-01 5.300473421812057495e-02 8.659879118204116821e-02
5.184000000000000000e+03 2.653713035583496094e+01 2.213848876953125000e+01 5.063491687178611755e-02 1.145232766866683960e-01 4.954745993018150330e-02 8.251956850290298462e-02
5.185000000000000000e+03 3.139086914062500000e+01 2.601886940002441406e+01 7.124550640583038330e-02 9.752541035413742065e-02 5.063127726316452026e-02 6.657580286264419556e-02
5.186000000000000000e+03 7.513649940490722656e+00 8.810522079467773438e+00 1.026975437998771667e-01 -5.291835963726043701e-02 1.493375655263662338e-02 1.007775310426950455e-02
5.187000000000000000e+03 6.652708053588867188e+00 8.306458473205566406e+00 9.386588633060455322e-02 -8.891133219003677368e-02 1.486366149038076401e-03 3.266064077615737915e-02
5.188000000000000000e+03 2.705124282836914062e+01 2.281040000915527344e+01 4.676131531596183777e-02 1.126779392361640930e-01 4.783177748322486877e-02 8.201818913221359253e-02
5.189000000000000000e+03 1.287639331817626953e+01 6.658935070037841797e+00 8.883079886436462402e-02 4.160495400428771973e-01 1.514641046524047852e-01 1.423816476017236710e-02
5.190000000000000000e+03 3.966678237915039062e+01 -8.967256546020507812e+00 -2.421991378068923950e-01 1.909808635711669922e+00 5.002828836441040039e-01 -8.865572512149810791e-02
5.191000000000000000e+03 6.001513481140136719e+00 7.591734886169433594e+00 8.912982791662216187e-02 -1.153312548995018005e-01 -7.860426791012287140e-03 5.813110619783401489e-02
5.192000000000000000e+03 2.330624771118164062e+01 1.839630508422851562e+01 7.018050551414489746e-02 1.282075643539428711e-01 5.951642245054244995e-02 1.002577468752861023e-01
5.193000000000000000e+03 1.054032611846923828e+01 7.019086837768554688e+00 1.606241315603256226e-01 1.066080853343009949e-01 8.016967028379440308e-02 -5.428849533200263977e-02
5.194000000000000000e+03 9.123353004455566406e+00 7.038731098175048828e+00 1.727477759122848511e-01 -1.797217875719070435e-02 4.643267765641212463e-02 -1.804364100098609924e-02
5.195000000000000000e+03 3.323955535888671875e+01 4.618013858795166016e+00 9.512309730052947998e-02 4.052674770355224609e-01 1.501171737909317017e-01 4.461689677555114031e-04
5.196000000000000000e+03 3.283653640747070312e+01 5.190376758575439453e+00 1.082445457577705383e-01 3.181855678558349609e-01 1.279290318489074707e-01 -1.021360605955123901e-02
5.197000000000000000e+03 3.226983642578125000e+01 -2.781381607055664062e+00 -1.284157037734985352e-01 4.001432359218597412e-01 8.151826262474060059e-02 6.013668142259120941e-03
5.198000000000000000e+03 3.267931365966796875e+01 -2.244915485382080078e+00 -1.057767346501350403e-01 4.655402600765228271e-01 1.079290583729743958e-01 -4.604920744895935059e-03
5.199000000000000000e+03 1.311402034759521484e+01 6.143746376037597656e+00 9.037669003009796143e-02 4.937952756881713867e-01 1.752515882253646851e-01 2.087760344147682190e-02
5.200000000000000000e+03 7.648606300354003906e+00 6.770947933197021484e+00 1.395735889673233032e-01 -1.039243116974830627e-01 1.069478131830692291e-02 4.745484888553619385e-02
5.201000000000000000e+03 5.592245483398437500e+01 3.171244621276855469e+01 1.318484306335449219e+00 1.315721702575683594e+01 4.342710494995117188e+00 1.018720388412475586e+00
5.202000000000000000e+03 5.640179824829101562e+01 3.090903282165527344e+01 9.524260759353637695e-01 1.215942287445068359e+01 3.933554649353027344e+00 6.987119317054748535e-01
5.203000000000000000e+03 3.370212173461914062e+01 -2.871182680130004883e+00 -1.157666370272636414e-01 6.417384147644042969e-01 1.577915251255035400e-01 -1.910164952278137207e-03
5.204000000000000000e+03 7.803645133972167969e+00 1.235377407073974609e+01 4.104453325271606445e-02 -1.310201361775398254e-02 8.382755331695079803e-03 -1.066705957055091858e-02
5.205000000000000000e+03 3.277664947509765625e+01 2.704183197021484375e+01 7.639110833406448364e-02 9.711094200611114502e-02 5.205061659216880798e-02 7.129908353090286255e-02
5.206000000000000000e+03 3.232065963745117188e+01 2.717405128479003906e+01 4.586861282587051392e-02 8.953527361154556274e-02 4.062116518616676331e-02 6.745173782110214233e-02
5.207000000000000000e+03 6.562554931640625000e+01 1.781208038330078125e+01 -6.632310748100280762e-01 8.066144943237304688e+00 2.220874309539794922e+00 -9.872760176658630371e-01
5.208000000000000000e+03 6.669255065917968750e+01 1.679089736938476562e+01 -6.104708313941955566e-01 7.986532211303710938e+00 2.212818384170532227e+00 -9.822891354560852051e-01
5.209000000000000000e+03 4.502721786499023438e+01 -1.252654552459716797e+01 -3.548386096954345703e-01 3.309131383895874023e+00 8.862878680229187012e-01 -1.165040731430053711e-01
5.210000000000000000e+03 3.951005554199218750e+01 -7.161301136016845703e+00 -2.229881137609481812e-01 1.892347812652587891e+00 5.008078813552856445e-01 -5.280575528740882874e-02
5.211000000000000000e+03 4.150668334960937500e+01 -1.129309177398681641e+01 -2.821839451789855957e-01 2.388562917709350586e+00 6.319137215614318848e-01 -1.248839721083641052e-01
5.212000000000000000e+03 4.310073471069335938e+01 -1.132809543609619141e+01 -3.180925846099853516e-01 2.816402435302734375e+00 7.494929432868957520e-01 -1.265170127153396606e-01
5.213000000000000000e+03 4.308345794677734375e+01 -9.919272422790527344e+00 -3.161321580410003662e-01 2.796095609664916992e+00 7.439890503883361816e-01 -9.911225736141204834e-02
5.214000000000000000e+03 3.298057174682617188e+01 -1.719281911849975586e+00 -8.709510415792465210e-02 5.286598801612854004e-01 1.324694305658340454e-01 -1.327091548591852188e-02
5.215000000000000000e+03 3.101677513122558594e+01 2.704815864562988281e+01 6.134248524904251099e-02 1.001287996768951416e-01 4.844138771295547485e-02 5.940943956375122070e-02
5.216000000000000000e+03 3.014772796630859375e+01 2.673750686645507812e+01 6.095799803733825684e-02 9.838968515396118164e-02 4.780430346727371216e-02 5.910651385784149170e-02
5.217000000000000000e+03 8.755603790283203125e+00 9.518795013427734375e+00 9.277021884918212891e-02 1.526554208248853683e-02 3.241072967648506165e-02 -1.395213790237903595e-02
5.218000000000000000e+03 9.597797393798828125e+00 -6.090731620788574219e+00 -2.821774221956729889e-02 -1.174189224839210510e-01 -4.369099810719490051e-02 -2.562184631824493408e-01
5.219000000000000000e+03 1.154302978515625000e+01 -6.977138996124267578e+00 8.488093316555023193e-02 -1.429467797279357910e-01 -1.741975359618663788e-02 -2.400244027376174927e-01
5.220000000000000000e+03 6.601787567138671875e+01 -1.408305931091308594e+01 -1.935974359512329102e-01 7.306329727172851562e+00 2.133819580078125000e+00 2.263576090335845947e-01
5.221000000000000000e+03 6.553255462646484375e+01 -1.301562595367431641e+01 -2.264874577522277832e-01 7.235556125640869141e+00 2.102720499038696289e+00 2.058102488517761230e-01
5.222000000000000000e+03 4.668192291259765625e+01 -1.537184429168701172e+01 -3.755540847778320312e-01 3.814629316329956055e+00 1.031722545623779297e+00 -1.381457149982452393e-01
5.223000000000000000e+03 6.585357666015625000e+01 -1.649127769470214844e+01 -1.781854182481765747e-01 7.273971557617187500e+00 2.128735780715942383e+00 2.715723514556884766e-01
5.224000000000000000e+03 4.789632797241210938e+01 -1.726306724548339844e+01 -3.837455213069915771e-01 4.175036430358886719e+00 1.137387275695800781e+00 -1.094788983464241028e-01
5.225000000000000000e+03 6.597716522216796875e+01 -1.847103118896484375e+01 -1.325723975896835327e-01 7.287314891815185547e+00 2.146422863006591797e+00 3.075540661811828613e-01
5.226000000000000000e+03 1.467188167572021484e+01 2.582128143310546875e+01 -6.712372851325199008e-05 5.046520382165908813e-02 1.511942502111196518e-02 1.076181977987289429e-02
5.227000000000000000e+03 6.606240844726562500e+01 -9.020423889160156250e+00 -2.562821507453918457e-01 7.316754817962646484e+00 2.118141889572143555e+00 1.088425517082214355e-01
5.228000000000000000e+03 6.700479125976562500e+01 -2.071098327636718750e+01 -8.185859769582748413e-02 7.410997867584228516e+00 2.198741912841796875e+00 3.275921046733856201e-01
5.229000000000000000e+03 6.679389190673828125e+01 1.889701843261718750e+01 -5.711734890937805176e-01 8.081376075744628906e+00 2.253060579299926758e+00 -1.120760798454284668e+00
5.230000000000000000e+03 1.360298633575439453e+01 2.064171028137207031e+01 4.097377415746450424e-03 7.096930593252182007e-02 2.252000570297241211e-02 1.837093196809291840e-02
5.231000000000000000e+03 5.940175247192382812e+01 3.097236251831054688e+01 1.145203590393066406e+00 1.103951930999755859e+01 3.655416727066040039e+00 -6.835168600082397461e-01
5.232000000000000000e+03 5.798508071899414062e+01 3.059294319152832031e+01 8.744814991950988770e-01 1.147306919097900391e+01 3.704265356063842773e+00 -2.061945050954818726e-01
5.233000000000000000e+03 2.722761344909667969e+01 2.703061580657958984e+00 1.449699793010950089e-02 -1.129700616002082825e-01 -2.954192087054252625e-02 -9.486012160778045654e-02
5.234000000000000000e+03 2.862159156799316406e+01 3.251018524169921875e+00 3.387343138456344604e-02 -1.163517124950885773e-02 6.671478506177663803e-03 -8.370992541313171387e-02
5.235000000000000000e+03 2.794885444641113281e+01 3.114689111709594727e+00 3.057962842285633087e-02 -6.682904809713363647e-02 -1.087482552975416183e-02 -9.005127102136611938e-02
5.236000000000000000e+03 2.611352729797363281e+01 1.552747845649719238e+00 -1.061569526791572571e-01 -1.449062675237655640e-01 -7.531896233558654785e-02 -8.708346635103225708e-02
5.237000000000000000e+03 2.895551681518554688e+01 3.237277984619140625e+00 3.520716354250907898e-02 1.550721470266580582e-02 1.521431282162666321e-02 -8.721718937158584595e-02
5.238000000000000000e+03 3.837365722656250000e+01 1.512192058563232422e+01 -8.278125524520874023e-02 7.305300235748291016e-01 1.943246424198150635e-01 2.530699968338012695e-01
5.239000000000000000e+03 3.869261169433593750e+01 1.562256336212158203e+01 -6.232734769582748413e-02 7.637951970100402832e-01 2.104403674602508545e-01 2.788197696208953857e-01
5.240000000000000000e+03 3.014577674865722656e+01 3.413582086563110352e+00 4.315142706036567688e-02 1.262343972921371460e-01 5.081574618816375732e-02 -9.518076479434967041e-02
5.241000000000000000e+03 4.629318618774414062e+01 2.322777748107910156e+01 5.783268809318542480e-01 2.723192930221557617e+00 9.904559850692749023e-01 1.486834049224853516e+00
5.242000000000000000e+03 2.623604965209960938e+01 2.079752206802368164e+00 -3.861072286963462830e-02 -1.394322663545608521e-01 -5.341289937496185303e-02 -1.009445339441299438e-01
5.243000000000000000e+03 2.579137802124023438e+01 1.530890345573425293e+00 -1.135393679141998291e-01 -1.392586827278137207e-01 -7.583941519260406494e-02 -9.815766662359237671e-02
5.244000000000000000e+03 2.649434852600097656e+01 4.247491955757141113e-01 -2.234914898872375488e-01 -1.269888430833816528e-01 -1.051440984010696411e-01 -3.399042412638664246e-02
5.245000000000000000e+03 4.477493667602539062e+01 2.107950973510742188e+01 3.091123402118682861e-01 2.261318683624267578e+00 7.711293101310729980e-01 1.138936519622802734e+00
5.246000000000000000e+03 3.664143371582031250e+01 1.240587425231933594e+01 -1.864518225193023682e-01 5.839223861694335938e-01 1.192411631345748901e-01 1.410248577594757080e-01
5.247000000000000000e+03 4.746855163574218750e+01 2.466972160339355469e+01 8.026423454284667969e-01 3.236512184143066406e+00 1.211746335029602051e+00 1.851477622985839844e+00
5.248000000000000000e+03 4.788000106811523438e+01 2.534692192077636719e+01 9.337297081947326660e-01 3.413618803024291992e+00 1.304204583168029785e+00 2.027333974838256836e+00
5.249000000000000000e+03 1.604482650756835938e+01 1.058652210235595703e+01 8.522902429103851318e-02 2.317543029785156250e-01 9.509500116109848022e-02 1.264205574989318848e-01
5.250000000000000000e+03 1.491670513153076172e+01 1.060036373138427734e+01 6.631462275981903076e-02 2.341703325510025024e-01 9.014548361301422119e-02 9.907803684473037720e-02
5.251000000000000000e+03 4.125573730468750000e+01 1.789712715148925781e+01 8.605642616748809814e-02 1.255703210830688477e+00 4.025278985500335693e-01 5.885960459709167480e-01
5.252000000000000000e+03 4.042175292968750000e+01 1.800519371032714844e+01 7.566844671964645386e-02 9.689207673072814941e-01 3.133767545223236084e-01 4.620898067951202393e-01
5.253000000000000000e+03 2.554745674133300781e+01 1.897035789489746094e+01 8.326674997806549072e-02 1.225171014666557312e-01 6.173515319824218750e-02 9.970521181821823120e-02
5.254000000000000000e+03 5.173246002197265625e+01 2.757515525817871094e+01 7.596077322959899902e-01 7.167352676391601562e+00 2.378088235855102539e+00 2.710664987564086914e+00
5.255000000000000000e+03 4.202483367919921875e+01 1.824391555786132812e+01 1.001316085457801819e-01 1.476207971572875977e+00 4.729018807411193848e-01 6.838414072990417480e-01
5.256000000000000000e+03 4.215443801879882812e+01 2.035979461669921875e+01 2.598690688610076904e-01 1.213627815246582031e+00 4.420490562915802002e-01 7.045658826828002930e-01
5.257000000000000000e+03 3.792266845703125000e+01 1.506017684936523438e+01 -9.595922380685806274e-02 6.244601607322692871e-01 1.585502773523330688e-01 2.028541564941406250e-01
5.258000000000000000e+03 1.338685607910156250e+01 7.353335380554199219e+00 8.766382932662963867e-02 3.799966871738433838e-01 1.402981579303741455e-01 6.241051480174064636e-02
5.259000000000000000e+03 3.434807586669921875e+01 1.059117126464843750e+01 -2.772058546543121338e-01 2.717073559761047363e-01 -1.649548183195292950e-03 2.028013765811920166e-02
5.260000000000000000e+03 3.336129760742187500e+01 1.077015304565429688e+01 -3.574084937572479248e-01 9.550267457962036133e-02 -7.857174426317214966e-02 -8.105056732892990112e-02
5.261000000000000000e+03 4.705671310424804688e+01 2.461558151245117188e+01 8.300496339797973633e-01 2.933054447174072266e+00 1.128931283950805664e+00 1.770686030387878418e+00
5.262000000000000000e+03 1.740435981750488281e+01 1.155333137512207031e+01 9.369613230228424072e-02 2.038625329732894897e-01 8.926760405302047729e-02 1.327290683984756470e-01
5.263000000000000000e+03 4.490654373168945312e+01 2.149441528320312500e+01 3.574150800704956055e-01 2.241501569747924805e+00 7.796749472618103027e-01 1.168072462081909180e+00
5.264000000000000000e+03 4.324169540405273438e+01 2.084069442749023438e+01 3.108986616134643555e-01 1.597478389739990234e+00 5.725131034851074219e-01 9.013904333114624023e-01
5.265000000000000000e+03 1.411172771453857422e+01 9.116642951965332031e+00 6.997407227754592896e-02 2.804906666278839111e-01 1.051394194364547729e-01 9.236856549978256226e-02
5.266000000000000000e+03 3.558408737182617188e+01 1.237567901611328125e+01 -2.249689996242523193e-01 3.488275408744812012e-01 3.715756163001060486e-02 3.926032781600952148e-02
5.267000000000000000e+03 3.404243087768554688e+01 1.118527698516845703e+01 -3.086670339107513428e-01 1.640863120555877686e-01 -4.337421432137489319e-02 -4.936143383383750916e-02
5.268000000000000000e+03 2.541463088989257812e+01 1.477152347564697266e+00 -1.359791010618209839e-01 -1.600086987018585205e-01 -8.879633992910385132e-02 -8.627290278673171997e-02
5.269000000000000000e+03 4.140364456176757812e+01 1.845130538940429688e+01 1.108602136373519897e-01 1.234964728355407715e+00 4.037474691867828369e-01 6.023913025856018066e-01
5.270000000000000000e+03 4.112547302246093750e+01 1.814683723449707031e+01 9.273834526538848877e-02 1.157037496566772461e+00 3.749327659606933594e-01 5.558232069015502930e-01
5.271000000000000000e+03 2.307484817504882812e+01 1.792885208129882812e+01 7.560618221759796143e-02 1.352237910032272339e-01 6.324899196624755859e-02 9.997900575399398804e-02
5.272000000000000000e+03 3.950918197631835938e+01 1.693536758422851562e+01 3.279189579188823700e-03 8.455468416213989258e-01 2.546478211879730225e-01 3.521305918693542480e-01
5.273000000000000000e+03 3.986545562744140625e+01 1.712273216247558594e+01 2.018848434090614319e-02 9.141997098922729492e-01 2.803164720535278320e-01 3.972869515419006348e-01
5.274000000000000000e+03 2.200337982177734375e+01 1.696670341491699219e+01 7.326368987560272217e-02 1.434188187122344971e-01 6.500475853681564331e-02 1.018777489662170410e-01
5.275000000000000000e+03 3.298426437377929688e+01 9.750592231750488281e+00 -3.273372352123260498e-01 1.297761499881744385e-01 -5.926832929253578186e-02 -1.119740307331085205e-02
5.276000000000000000e+03 1.488100624084472656e+01 1.011230659484863281e+01 7.600183784961700439e-02 2.496755570173263550e-01 9.770321846008300781e-02 1.047939583659172058e-01
5.277000000000000000e+03 3.275912857055664062e+01 9.489809036254882812e+00 -3.245802521705627441e-01 1.086565703153610229e-01 -6.477710604667663574e-02 -2.845931157935410738e-04
5.278000000000000000e+03 1.760130500793457031e+01 1.225990200042724609e+01 8.638637512922286987e-02 1.931729018688201904e-01 8.386778086423873901e-02 1.244853660464286804e-01
5.279000000000000000e+03 1.620127487182617188e+01 1.172899913787841797e+01 7.466151565313339233e-02 2.071557492017745972e-01 8.454518020153045654e-02 1.119060367345809937e-01
5.280000000000000000e+03 3.368466949462890625e+01 9.817408561706542969e+00 -2.718792259693145752e-01 2.261423915624618530e-01 -1.372104976326227188e-02 3.236435726284980774e-02
5.281000000000000000e+03 3.364370727539062500e+01 1.062663459777832031e+01 -3.306479752063751221e-01 1.518978327512741089e-01 -5.362504720687866211e-02 -4.459415376186370850e-02
5.282000000000000000e+03 1.640729522705078125e+01 1.123320388793945312e+01 8.170785754919052124e-02 2.166832834482192993e-01 8.951734006404876709e-02 1.215634271502494812e-01
5.283000000000000000e+03 3.135865783691406250e+01 3.486518621444702148e+00 6.900599598884582520e-02 2.373246103525161743e-01 9.189918637275695801e-02 -8.400429040193557739e-02
5.284000000000000000e+03 4.865593338012695312e+01 2.573683547973632812e+01 9.090998172760009766e-01 4.017224788665771484e+00 1.477897405624389648e+00 2.187063932418823242e+00
5.285000000000000000e+03 3.420287322998046875e+01 6.985318183898925781e+00 8.025059476494789124e-03 4.447979927062988281e-01 1.358469128608703613e-01 1.202619150280952454e-01
5.286000000000000000e+03 3.518899154663085938e+01 1.172135829925537109e+01 -2.465256899595260620e-01 3.326404988765716553e-01 2.583444677293300629e-02 2.979982271790504456e-02
5.287000000000000000e+03 4.843665695190429688e+01 2.537200164794921875e+01 8.590101003646850586e-01 3.864660024642944336e+00 1.417101025581359863e+00 2.124352693557739258e+00
5.288000000000000000e+03 4.204834747314453125e+01 1.884948348999023438e+01 1.348953396081924438e-01 1.414612174034118652e+00 4.648522436618804932e-01 6.899142861366271973e-01
5.289000000000000000e+03 5.451854705810546875e+01 3.088892364501953125e+01 1.078411936759948730e+00 1.194557952880859375e+01 3.907197237014770508e+00 2.392102956771850586e+00
5.290000000000000000e+03 5.479186630249023438e+01 3.199692344665527344e+01 1.494311332702636719e+00 1.341036033630371094e+01 4.471401214599609375e+00 2.346092462539672852e+00
5.291000000000000000e+03 1.806118965148925781e+01 1.246676158905029297e+01 9.206292778253555298e-02 1.855544149875640869e-01 8.328520506620407104e-02 1.281139254570007324e-01
5.292000000000000000e+03 1.684006500244140625e+01 1.256613254547119141e+01 7.123246043920516968e-02 1.929925084114074707e-01 7.926749438047409058e-02 1.090550795197486877e-01
5.293000000000000000e+03 2.821663475036621094e+01 9.953598976135253906e-01 -7.678290456533432007e-02 -3.149100393056869507e-02 -3.248217329382896423e-02 -6.639346480369567871e-02
5.294000000000000000e+03 2.819660377502441406e+01 5.832127332687377930e-01 -1.157257705926895142e-01 -3.392564877867698669e-02 -4.489542543888092041e-02 -4.074130952358245850e-02
5.295000000000000000e+03 2.041196632385253906e+01 1.405394172668457031e+01 1.001621857285499573e-01 1.620166599750518799e-01 7.865364849567413330e-02 1.238277480006217957e-01
5.296000000000000000e+03 1.962630271911621094e+01 1.422018527984619141e+01 8.674194663763046265e-02 1.636240333318710327e-01 7.510979473590850830e-02 1.172435879707336426e-01
5.297000000000000000e+03 1.886386108398437500e+01 1.290782642364501953e+01 9.650698304176330566e-02 1.767395585775375366e-01 8.197396248579025269e-02 1.305808871984481812e-01
5.298000000000000000e+03 1.953133964538574219e+01 1.291245937347412109e+01 1.046421006321907043e-01 1.703716069459915161e-01 8.250410854816436768e-02 1.337319016456604004e-01
5.299000000000000000e+03 3.907087326049804688e+01 1.648739624023437500e+01 -2.459768578410148621e-02 7.632626891136169434e-01 2.215995043516159058e-01 3.019596338272094727e-01
5.300000000000000000e+03 2.650258445739746094e+01 1.924556612968444824e+00 -5.642676353454589844e-02 -1.381622552871704102e-01 -5.837670713663101196e-02 -9.527055174112319946e-02
5.301000000000000000e+03 5.019067764282226562e+01 2.657214927673339844e+01 8.500640392303466797e-01 5.371990680694580078e+00 1.866616368293762207e+00 2.505105018615722656e+00
5.302000000000000000e+03 5.120938873291015625e+01 2.564366340637207031e+01 3.266960382461547852e-01 6.273261547088623047e+00 1.979987263679504395e+00 2.221956968307495117e+00
5.303000000000000000e+03 4.523617172241210938e+01 2.230294990539550781e+01 4.718258976936340332e-01 2.300296783447265625e+00 8.316367864608764648e-01 1.264395594596862793e+00
5.304000000000000000e+03 4.594967651367187500e+01 2.185870552062988281e+01 3.630459904670715332e-01 2.762224912643432617e+00 9.375813007354736328e-01 1.345895767211914062e+00
5.305000000000000000e+03 1.345814418792724609e+01 9.298473358154296875e+00 6.676983088254928589e-02 2.713776528835296631e-01 1.014442443847656250e-01 6.068789586424827576e-02
5.306000000000000000e+03 4.561582183837890625e+01 2.205789566040039062e+01 4.129468500614166260e-01 2.546910524368286133e+00 8.879571557044982910e-01 1.312232971191406250e+00
5.307000000000000000e+03 5.307236862182617188e+01 2.833141517639160156e+01 5.908706784248352051e-01 8.716691970825195312e+00 2.792268753051757812e+00 2.536863088607788086e+00
5.308000000000000000e+03 3.351997375488281250e+01 8.141421318054199219e+00 -9.367022663354873657e-02 2.869725525379180908e-01 5.799070000648498535e-02 1.113849729299545288e-01
5.309000000000000000e+03 3.438434219360351562e+01 8.303370475769042969e+00 -9.830961376428604126e-02 4.132507443428039551e-01 9.448233246803283691e-02 1.386329382658004761e-01
5.310000000000000000e+03 2.936185264587402344e+01 3.559457063674926758e+00 3.906528651714324951e-02 5.831777304410934448e-02 2.921491861343383789e-02 -9.024319797754287720e-02
5.311000000000000000e+03 1.229514789581298828e+01 6.643396377563476562e+00 1.178710833191871643e-01 3.429538309574127197e-01 1.382474750280380249e-01 -4.199869558215141296e-02
5.312000000000000000e+03 1.203363800048828125e+01 6.320889472961425781e+00 1.472931653261184692e-01 3.187986016273498535e-01 1.398275345563888550e-01 -6.409638375043869019e-02
5.313000000000000000e+03 3.906541442871093750e+01 1.695464706420898438e+01 -5.822706036269664764e-03 7.049867510795593262e-01 2.097492069005966187e-01 2.943816483020782471e-01
5.314000000000000000e+03 2.673229789733886719e+01 2.148663520812988281e+01 7.078351080417633057e-02 1.113340407609939575e-01 5.463526397943496704e-02 9.018647670745849609e-02
5.315000000000000000e+03 2.664737892150878906e+01 2.217947721481323242e+00 -1.885152980685234070e-02 -1.314063370227813721e-01 -4.507736116647720337e-02 -1.018049865961074829e-01
5.316000000000000000e+03 2.479720878601074219e+01 1.853345870971679688e+01 8.335542678833007812e-02 1.226187869906425476e-01 6.179226189851760864e-02 1.014806479215621948e-01
5.317000000000000000e+03 4.421089172363281250e+01 2.077839469909667969e+01 2.950830161571502686e-01 2.030206203460693359e+00 6.975867748260498047e-01 1.042364835739135742e+00
5.318000000000000000e+03 3.280554199218750000e+01 3.534811258316040039e+00 7.364757359027862549e-02 3.973207473754882812e-01 1.412904858589172363e-01 -3.426351398229598999e-02
5.319000000000000000e+03 3.325399780273437500e+01 4.101963996887207031e+00 8.428905159235000610e-02 4.261752367019653320e-01 1.531392931938171387e-01 -7.807611487805843353e-03
5.320000000000000000e+03 5.512920379638671875e+01 3.253114318847656250e+01 1.736480116844177246e+00 1.406427478790283203e+01 4.740226268768310547e+00 1.979372024536132812e+00
5.321000000000000000e+03 3.909344863891601562e+01 1.560422515869140625e+01 -5.153749510645866394e-02 8.860282301902770996e-01 2.503472268581390381e-01 3.310733735561370850e-01
5.322000000000000000e+03 1.140515613555908203e+01 6.052797317504882812e+00 1.958093345165252686e-01 2.243655174970626831e-01 1.260524541139602661e-01 -1.010099500417709351e-01
5.323000000000000000e+03 1.007874202728271484e+01 5.855880737304687500e+00 2.280945926904678345e-01 5.386537406593561172e-03 7.004433870315551758e-02 -4.564980417490005493e-02
5.324000000000000000e+03 3.345450592041015625e+01 -2.018299818038940430e+00 -9.131496399641036987e-02 5.992651581764221191e-01 1.523850560188293457e-01 -9.394793771207332611e-03
5.325000000000000000e+03 3.001893997192382812e+01 -7.122273445129394531e-01 -1.121292486786842346e-01 1.127816289663314819e-01 1.957139320438727736e-04 -4.097828641533851624e-03
5.326000000000000000e+03 2.998178100585937500e+01 -1.602370142936706543e-01 -1.009182482957839966e-01 1.111730560660362244e-01 3.076442051678895950e-03 -2.886002324521541595e-02
5.327000000000000000e+03 3.382508850097656250e+01 4.962548732757568359e+00 8.008919656276702881e-02 4.771302640438079834e-01 1.671658456325531006e-01 4.238555207848548889e-02
5.328000000000000000e+03 5.412373733520507812e+01 2.901773262023925781e+01 4.838739931583404541e-01 1.001292324066162109e+01 3.149039268493652344e+00 2.127842187881469727e+00
5.329000000000000000e+03 2.258376693725585938e+01 1.817837333679199219e+01 6.335082650184631348e-02 1.326035112142562866e-01 5.878629907965660095e-02 9.776368737220764160e-02
5.330000000000000000e+03 2.441727447509765625e+01 1.852814865112304688e+01 8.249079436063766479e-02 1.296501457691192627e-01 6.364227831363677979e-02 1.008218154311180115e-01
5.331000000000000000e+03 3.771490097045898438e+01 1.423866844177246094e+01 -1.246206462383270264e-01 6.623707413673400879e-01 1.613250225782394409e-01 2.013792246580123901e-01
5.332000000000000000e+03 3.810612487792968750e+01 1.393676090240478516e+01 -1.251325458288192749e-01 7.898772954940795898e-01 1.994234323501586914e-01 2.465753257274627686e-01
5.333000000000000000e+03 3.916835021972656250e+01 -5.140515804290771484e+00 -1.961477994918823242e-01 1.809509992599487305e+00 4.840086400508880615e-01 -1.587500236928462982e-02
5.334000000000000000e+03 3.392514419555664062e+01 5.370241641998291016e+00 7.787960022687911987e-02 4.662855565547943115e-01 1.632495373487472534e-01 5.988783761858940125e-02
5.335000000000000000e+03 3.455316162109375000e+01 6.104763507843017578e+00 3.952838853001594543e-02 5.303686857223510742e-01 1.709691286087036133e-01 1.154500544071197510e-01
5.336000000000000000e+03 2.214519500732421875e+01 1.658598136901855469e+01 8.596847206354141235e-02 1.443285942077636719e-01 6.908912211656570435e-02 1.095963194966316223e-01
5.337000000000000000e+03 3.232645797729492188e+01 2.895176887512207031e+01 4.981186240911483765e-02 7.935529947280883789e-02 3.875014930963516235e-02 7.708472758531570435e-02
5.338000000000000000e+03 3.174139404296875000e+01 2.839727973937988281e+01 5.930739641189575195e-02 9.986475855112075806e-02 4.775164648890495300e-02 5.543172731995582581e-02
5.339000000000000000e+03 3.251409912109375000e+01 -1.438453078269958496e+00 -8.424317836761474609e-02 4.444831907749176025e-01 1.080720052123069763e-01 -1.558791194111108780e-02
5.340000000000000000e+03 3.227667617797851562e+01 -1.906866431236267090e+00 -1.043502464890480042e-01 4.095856845378875732e-01 9.157063066959381104e-02 -8.928415365517139435e-03
5.341000000000000000e+03 2.797917556762695312e+01 2.348661994934082031e+01 5.150902271270751953e-02 1.044507473707199097e-01 4.678793251514434814e-02 8.556025475263595581e-02
5.342000000000000000e+03 2.045033645629882812e+01 1.475345516204833984e+01 9.002372622489929199e-02 1.576388478279113770e-01 7.429876923561096191e-02 1.156528070569038391e-01
5.343000000000000000e+03 2.961776542663574219e+01 2.554737472534179688e+01 6.411905586719512939e-02 1.019249707460403442e-01 4.981320723891258240e-02 6.681563705205917358e-02
5.344000000000000000e+03 2.893166732788085938e+01 2.605314064025878906e+01 3.514461591839790344e-02 9.587007761001586914e-02 3.930440917611122131e-02 8.106630295515060425e-02
5.345000000000000000e+03 1.401702594757080078e+01 8.124983787536621094e+00 7.711365818977355957e-02 3.429387211799621582e-01 1.260157078504562378e-01 1.027067527174949646e-01
5.346000000000000000e+03 1.407485866546630859e+01 8.568587303161621094e+00 8.266629278659820557e-02 3.060857653617858887e-01 1.166256144642829895e-01 9.597238898277282715e-02
5.347000000000000000e+03 2.170960807800292969e+01 1.742524528503417969e+01 7.221298664808273315e-02 1.375927776098251343e-01 6.294173002243041992e-02 1.008492782711982727e-01
5.348000000000000000e+03 7.255890846252441406e+00 7.503313541412353516e+00 1.243237257003784180e-01 -8.715299516916275024e-02 1.115121878683567047e-02 3.662282973527908325e-02
5.349000000000000000e+03 1.259469890594482422e+01 6.894612789154052734e+00 9.629790484905242920e-02 3.685941696166992188e-01 1.394676268100738525e-01 -1.222365535795688629e-02
5.350000000000000000e+03 6.580788612365722656e+00 6.963586330413818359e+00 1.039164438843727112e-01 -1.148059517145156860e-01 -3.266852349042892456e-03 6.835316866636276245e-02
5.351000000000000000e+03 8.836203575134277344e+00 1.079787349700927734e+01 6.364005059003829956e-02 2.695574797689914703e-02 2.717874012887477875e-02 -1.154951285570859909e-02
5.352000000000000000e+03 6.558946609497070312e+00 1.259839916229248047e+01 3.456312045454978943e-02 -5.272493511438369751e-02 -5.448543932288885117e-03 -8.540410548448562622e-03
5.353000000000000000e+03 2.930332756042480469e+01 7.397011518478393555e-01 -6.166383996605873108e-02 5.392922461032867432e-02 -2.320384373888373375e-03 -5.038660764694213867e-02
5.354000000000000000e+03 2.893311309814453125e+01 6.866595149040222168e-02 -1.112035140395164490e-01 2.087282016873359680e-02 -2.709920890629291534e-02 -2.484858036041259766e-02
5.355000000000000000e+03 5.528359603881835938e+01 3.210445404052734375e+01 1.524362564086914062e+00 1.367902374267578125e+01 4.561016082763671875e+00 1.871044039726257324e+00
5.356000000000000000e+03 5.719933700561523438e+01 3.083876609802246094e+01 8.724094033241271973e-01 1.192024803161621094e+01 3.837797164916992188e+00 1.175926998257637024e-01
5.357000000000000000e+03 2.577370834350585938e+01 2.043308830261230469e+01 6.908424943685531616e-02 1.201345697045326233e-01 5.676564574241638184e-02 8.827789872884750366e-02
5.358000000000000000e+03 2.525239181518554688e+01 1.937405586242675781e+01 7.538518309593200684e-02 1.218313425779342651e-01 5.916495621204376221e-02 9.926129877567291260e-02
5.359000000000000000e+03 3.483864593505859375e+01 -4.178636074066162109e+00 -1.426997184753417969e-01 8.390911221504211426e-01 2.089174240827560425e-01 -4.037417005747556686e-03
5.360000000000000000e+03 2.634765434265136719e+01 2.282166290283203125e+01 6.184717267751693726e-02 1.078775376081466675e-01 5.091741308569908142e-02 8.319455385208129883e-02
5.361000000000000000e+03 3.067870140075683594e+01 2.820820617675781250e+01 6.067073717713356018e-02 9.732383489608764648e-02 4.739836975932121277e-02 5.396637320518493652e-02
5.362000000000000000e+03 3.183652305603027344e+01 2.733716011047363281e+01 6.198989972472190857e-02 1.002237051725387573e-01 4.866408184170722961e-02 6.148670613765716553e-02
5.363000000000000000e+03 3.960785675048828125e+01 -8.033305168151855469e+00 -2.375510483980178833e-01 1.904821395874023438e+00 5.001811385154724121e-01 -6.820458173751831055e-02
5.364000000000000000e+03 3.596566772460937500e+01 -2.702504158020019531e+00 -1.104077473282814026e-01 1.091039299964904785e+00 2.941894829273223877e-01 -2.923342632129788399e-03
5.365000000000000000e+03 2.953741836547851562e+01 2.708161926269531250e+01 3.718679025769233704e-02 9.353125095367431641e-02 3.921541199088096619e-02 7.943743467330932617e-02
5.366000000000000000e+03 8.013463973999023438e+00 6.207042217254638672e+00 1.649261116981506348e-01 -1.109177917242050171e-01 1.620249450206756592e-02 5.442592501640319824e-02
5.367000000000000000e+03 2.814265823364257812e+01 2.455181312561035156e+01 5.793566629290580750e-02 1.036629974842071533e-01 4.847959801554679871e-02 6.779373437166213989e-02
5.368000000000000000e+03 1.215311336517333984e+01 1.912255287170410156e+01 1.712665398372337222e-04 6.211047247052192688e-02 1.868452131748199463e-02 7.036059163510799408e-03
5.369000000000000000e+03 1.310079765319824219e+01 1.942975616455078125e+01 7.195975631475448608e-03 7.427727431058883667e-02 2.444197423756122589e-02 1.934925653040409088e-02
5.370000000000000000e+03 4.613393020629882812e+01 -1.290819644927978516e+01 -3.728880286216735840e-01 3.607228279113769531e+00 9.703020453453063965e-01 -1.126804500818252563e-01
5.371000000000000000e+03 4.723381042480468750e+01 -1.320923137664794922e+01 -4.041650891304016113e-01 3.889519929885864258e+00 1.045606493949890137e+00 -8.132766932249069214e-02
5.372000000000000000e+03 6.373833465576171875e+01 2.071423530578613281e+01 -6.702936291694641113e-01 8.398712158203125000e+00 2.318525552749633789e+00 -9.527118206024169922e-01
5.373000000000000000e+03 5.808137512207031250e+01 2.943609428405761719e+01 3.986845016479492188e-01 1.098382759094238281e+01 3.414753675460815430e+00 -1.662591546773910522e-01
5.374000000000000000e+03 1.409261798858642578e+01 2.189996910095214844e+01 -1.341969822533428669e-03 6.849341094493865967e-02 2.014543302357196808e-02 1.847444102168083191e-02
5.375000000000000000e+03 1.485214996337890625e+01 2.139499092102050781e+01 6.790338084101676941e-03 8.308012038469314575e-02 2.696113847196102142e-02 2.367414161562919617e-02
5.376000000000000000e+03 3.628492736816406250e+01 -5.220555305480957031e+00 -1.639007925987243652e-01 1.145073771476745605e+00 2.943519055843353271e-01 -2.055797725915908813e-02
5.377000000000000000e+03 3.804285049438476562e+01 -5.659762859344482422e+00 -1.821355223655700684e-01 1.550572037696838379e+00 4.105309545993804932e-01 -2.467555366456508636e-02
5.378000000000000000e+03 3.693893814086914062e+01 -6.351949691772460938e+00 -1.806640923023223877e-01 1.300538301467895508e+00 3.359622657299041748e-01 -3.206349909305572510e-02
5.379000000000000000e+03 5.114401245117187500e+01 -1.706455802917480469e+01 -3.978836238384246826e-01 4.921479225158691406e+00 1.357078671455383301e+00 3.561423346400260925e-02
5.380000000000000000e+03 6.467788696289062500e+01 -1.842602920532226562e+01 -1.534466147422790527e-01 7.093595504760742188e+00 2.082044601440429688e+00 3.100182116031646729e-01
5.381000000000000000e+03 6.462927246093750000e+01 2.166779136657714844e+01 -5.622195005416870117e-01 8.486656188964843750e+00 2.377331018447875977e+00 -1.128274559974670410e+00
5.382000000000000000e+03 6.524167633056640625e+01 2.307628250122070312e+01 -4.185776710510253906e-01 8.536756515502929688e+00 2.435453653335571289e+00 -1.268509864807128906e+00
5.383000000000000000e+03 1.691090774536132812e+01 2.287217330932617188e+01 4.893379285931587219e-03 8.761297166347503662e-02 2.775190584361553192e-02 3.830320015549659729e-02
5.384000000000000000e+03 6.593972778320312500e+01 -2.039702224731445312e+01 -1.101618260145187378e-01 7.270829200744628906e+00 2.148200273513793945e+00 3.407311439514160156e-01
5.385000000000000000e+03 3.174769783020019531e+01 2.991206359863281250e+01 5.814822018146514893e-02 9.779220074415206909e-02 4.678212478756904602e-02 4.674940928816795349e-02
5.386000000000000000e+03 2.827704620361328125e+01 3.177926540374755859e+00 3.190038353204727173e-02 -4.768099263310432434e-02 -4.734183661639690399e-03 -8.573956787586212158e-02
5.387000000000000000e+03 2.744259071350097656e+01 2.092067241668701172e+00 -2.427892200648784637e-02 -9.895077347755432129e-02 -3.696890547871589661e-02 -9.129910916090011597e-02
5.388000000000000000e+03 2.775199890136718750e+01 2.775828838348388672e+00 1.823255978524684906e-02 -7.844028621912002563e-02 -1.806231774389743805e-02 -9.314052760601043701e-02
5.389000000000000000e+03 4.112000274658203125e+01 1.687083435058593750e+01 1.842088438570499420e-02 1.348939061164855957e+00 4.102079868316650391e-01 5.638818740844726562e-01
5.390000000000000000e+03 4.532609558105468750e+01 2.132956314086914062e+01 3.184984326362609863e-01 2.497203111648559570e+00 8.447104692459106445e-01 1.235545277595520020e+00
5.391000000000000000e+03 4.510007476806640625e+01 2.053549957275390625e+01 2.362942993640899658e-01 2.491660118103027344e+00 8.183863162994384766e-01 1.166934370994567871e+00
5.392000000000000000e+03 3.632624816894531250e+01 1.185040092468261719e+01 -1.932997554540634155e-01 5.694299936294555664e-01 1.128390654921531677e-01 1.339622735977172852e-01
5.393000000000000000e+03 3.715799331665039062e+01 1.201055812835693359e+01 -1.634162515401840210e-01 7.555738091468811035e-01 1.776472777128219604e-01 2.083792686462402344e-01
5.394000000000000000e+03 1.868021583557128906e+01 1.380138683319091797e+01 8.214721828699111938e-02 1.729567050933837891e-01 7.653117924928665161e-02 1.151180937886238098e-01
5.395000000000000000e+03 1.865132904052734375e+01 1.333651161193847656e+01 8.449672162532806396e-02 1.740922331809997559e-01 7.757668197154998779e-02 1.203875318169593811e-01
5.396000000000000000e+03 2.774902343750000000e+01 1.771117687225341797e+00 -3.922020271420478821e-02 -6.561249494552612305e-02 -3.144980967044830322e-02 -8.563778549432754517e-02
5.397000000000000000e+03 2.711117935180664062e+01 2.355981349945068359e+00 -3.418026259168982506e-03 -1.113174781203269958e-01 -3.442065045237541199e-02 -9.919796139001846313e-02
5.398000000000000000e+03 1.599637031555175781e+01 1.217531967163085938e+01 6.542555242776870728e-02 2.007666528224945068e-01 7.985766232013702393e-02 1.009201556444168091e-01
5.399000000000000000e+03 4.658483886718750000e+01 2.281628608703613281e+01 4.871126413345336914e-01 2.975094079971313477e+00 1.038661956787109375e+00 1.513654470443725586e+00
5.400000000000000000e+03 3.416199111938476562e+01 8.691296577453613281e+00 -1.380444765090942383e-01 3.727951347827911377e-01 7.042519748210906982e-02 1.192969456315040588e-01
5.401000000000000000e+03 3.355434417724609375e+01 9.461379051208496094e+00 -2.547720968723297119e-01 2.219476401805877686e-01 -9.847339242696762085e-03 4.995455965399742126e-02
5.402000000000000000e+03 4.805685043334960938e+01 2.445578956604003906e+01 6.660013794898986816e-01 3.727602005004882812e+00 1.318081021308898926e+00 1.921662807464599609e+00
5.403000000000000000e+03 5.209023284912109375e+01 2.743940162658691406e+01 6.217606663703918457e-01 7.467054367065429688e+00 2.426644563674926758e+00 2.569721221923828125e+00
5.404000000000000000e+03 2.220319557189941406e+01 1.760216522216796875e+01 6.678402423858642578e-02 1.394501626491546631e-01 6.187025830149650574e-02 9.859775006771087646e-02
5.405000000000000000e+03 4.143202972412109375e+01 1.813228797912597656e+01 9.997358918190002441e-02 1.279499650001525879e+00 4.138419628143310547e-01 6.104214787483215332e-01
5.406000000000000000e+03 4.095936203002929688e+01 1.774108886718750000e+01 7.308570295572280884e-02 1.172906041145324707e+00 3.737975060939788818e-01 5.414925217628479004e-01
5.407000000000000000e+03 4.301486968994140625e+01 1.990414237976074219e+01 2.215892076492309570e-01 1.638495683670043945e+00 5.580254793167114258e-01 8.444468975067138672e-01
5.408000000000000000e+03 4.711753082275390625e+01 2.415841674804687500e+01 7.232466936111450195e-01 3.082635164260864258e+00 1.141764521598815918e+00 1.730919480323791504e+00
5.409000000000000000e+03 1.288777065277099609e+01 7.385506153106689453e+00 7.844547927379608154e-02 3.572705388069152832e-01 1.307148039340972900e-01 2.664612233638763428e-02
5.410000000000000000e+03 3.389159774780273438e+01 1.018206501007080078e+01 -2.895554304122924805e-01 2.352187782526016235e-01 -1.630099117755889893e-02 1.772302947938442230e-02
5.411000000000000000e+03 3.475636291503906250e+01 1.067432975769042969e+01 -2.437333911657333374e-01 3.530827462673187256e-01 3.280480578541755676e-02 5.347593501210212708e-02
5.412000000000000000e+03 3.954653549194335938e+01 1.646208763122558594e+01 -1.392612326890230179e-02 9.064496159553527832e-01 2.677570581436157227e-01 3.671537339687347412e-01
5.413000000000000000e+03 3.396414566040039062e+01 9.546238899230957031e+00 -2.284407764673233032e-01 2.939063906669616699e-01 1.963968575000762939e-02 7.197060436010360718e-02
5.414000000000000000e+03 3.313930130004882812e+01 9.446022033691406250e+00 -2.760114371776580811e-01 1.768044978380203247e-01 -2.976208366453647614e-02 3.370787575840950012e-02
5.415000000000000000e+03 1.428084278106689453e+01 1.024103260040283203e+01 6.195533275604248047e-02 2.400175184011459351e-01 9.059185534715652466e-02 8.599815517663955688e-02
5.416000000000000000e+03 1.420204353332519531e+01 9.697768211364746094e+00 7.122536748647689819e-02 2.601848840713500977e-01 9.942308068275451660e-02 8.621224015951156616e-02
5.417000000000000000e+03 2.633990287780761719e+01 1.681809663772583008e+00 -7.993358373641967773e-02 -1.299321800470352173e-01 -6.295973062515258789e-02 -9.350468218326568604e-02
5.418000000000000000e+03 2.706686592102050781e+01 1.496345162391662598e+00 -8.583515137434005737e-02 -1.067546531558036804e-01 -5.777694284915924072e-02 -7.809942215681076050e-02
5.419000000000000000e+03 4.901535415649414062e+01 2.549155044555664062e+01 7.973468899726867676e-01 4.372457981109619141e+00 1.550941467285156250e+00 2.232693672180175781e+00
5.420000000000000000e+03 4.949015426635742188e+01 2.616627693176269531e+01 8.950955271720886230e-01 4.748461723327636719e+00 1.693067193031311035e+00 2.410531044006347656e+00
5.421000000000000000e+03 4.645339965820312500e+01 2.385075187683105469e+01 7.121536731719970703e-01 2.724653244018554688e+00 1.031042098999023438e+00 1.581735134124755859e+00
5.422000000000000000e+03 3.792244720458984375e+01 1.459136867523193359e+01 -1.069885119795799255e-01 6.821447610855102539e-01 1.725468784570693970e-01 2.157835364341735840e-01
5.423000000000000000e+03 1.261332893371582031e+01 8.423552513122558594e+00 7.338594645261764526e-02 2.789688706398010254e-01 1.057064458727836609e-01 1.972564682364463806e-02
5.424000000000000000e+03 2.973896026611328125e+01 3.000086307525634766e+00 3.063876181840896606e-02 8.992448449134826660e-02 3.616897389292716980e-02 -8.792010694742202759e-02
5.425000000000000000e+03 2.975880050659179688e+01 3.449318885803222656e+00 4.063145443797111511e-02 9.855926781892776489e-02 4.175721853971481323e-02 -9.181752800941467285e-02
5.426000000000000000e+03 3.436262130737304688e+01 1.014835929870605469e+01 -2.497242391109466553e-01 3.154076635837554932e-01 1.970502361655235291e-02 5.583599209785461426e-02
5.427000000000000000e+03 3.493021392822265625e+01 9.784650802612304688e+00 -1.961279362440109253e-01 4.499320685863494873e-01 7.614124566316604614e-02 1.180350407958030701e-01
5.428000000000000000e+03 2.741127395629882812e+01 1.508160948753356934e+00 -7.408197969198226929e-02 -9.709103405475616455e-02 -5.135190486907958984e-02 -7.945769280195236206e-02
5.429000000000000000e+03 4.922909164428710938e+01 2.585850524902343750e+01 8.503961563110351562e-01 4.549577236175537109e+00 1.619992017745971680e+00 2.319811344146728516e+00
5.430000000000000000e+03 5.031896591186523438e+01 2.586374473571777344e+01 6.021257638931274414e-01 5.536694049835205078e+00 1.841645956039428711e+00 2.345899105072021484e+00
5.431000000000000000e+03 2.048213958740234375e+01 1.622649955749511719e+01 7.154681533575057983e-02 1.505622565746307373e-01 6.663271784782409668e-02 1.007803976535797119e-01
5.432000000000000000e+03 2.047284317016601562e+01 1.547784996032714844e+01 8.041719347238540649e-02 1.541092693805694580e-01 7.035794109106063843e-02 1.082484945654869080e-01
5.433000000000000000e+03 4.294638442993164062e+01 1.917028045654296875e+01 1.607719808816909790e-01 1.727513551712036133e+00 5.664856433868408203e-01 8.353086113929748535e-01
5.434000000000000000e+03 3.407523727416992188e+01 7.955728530883789062e+00 -7.332851737737655640e-02 3.731593489646911621e-01 8.994925767183303833e-02 1.240997239947319031e-01
5.435000000000000000e+03 3.462019729614257812e+01 6.501324653625488281e+00 1.876769773662090302e-02 5.378080010414123535e-01 1.669726967811584473e-01 1.209434866905212402e-01
5.436000000000000000e+03 3.456380462646484375e+01 7.726137161254882812e+00 -4.620412737131118774e-02 4.896080195903778076e-01 1.330211609601974487e-01 1.516666263341903687e-01
5.437000000000000000e+03 1.728971099853515625e+01 1.277556705474853516e+01 7.677467167377471924e-02 1.869072318077087402e-01 7.910457253456115723e-02 1.147121787071228027e-01
5.438000000000000000e+03 3.999170303344726562e+01 1.636061096191406250e+01 -5.852789618074893951e-03 1.047706365585327148e+00 3.125560879707336426e-01 4.265408813953399658e-01
5.439000000000000000e+03 5.277356719970703125e+01 2.804774284362792969e+01 5.875085592269897461e-01 8.302417755126953125e+00 2.666977643966674805e+00 2.553178787231445312e+00
5.440000000000000000e+03 5.396714019775390625e+01 2.972791099548339844e+01 7.945628762245178223e-01 1.038187789916992188e+01 3.352932214736938477e+00 2.493413448333740234e+00
5.441000000000000000e+03 1.936507987976074219e+01 1.466641044616699219e+01 7.945352047681808472e-02 1.606162935495376587e-01 7.202094793319702148e-02 1.119517311453819275e-01
5.442000000000000000e+03 2.005579566955566406e+01 1.445395851135253906e+01 8.989445120096206665e-02 1.602180451154708862e-01 7.503375411033630371e-02 1.187421754002571106e-01
5.443000000000000000e+03 4.331982803344726562e+01 2.017347335815429688e+01 2.530160248279571533e-01 1.729368805885314941e+00 5.947154760360717773e-01 9.089295864105224609e-01
5.444000000000000000e+03 3.395045471191406250e+01 3.579955339431762695e+00 6.531640887260437012e-02 5.549304485321044922e-01 1.860740631818771362e-01 1.858706772327423096e-02
5.445000000000000000e+03 3.336287307739257812e+01 3.548628091812133789e+00 7.335323095321655273e-02 4.738737344741821289e-01 1.641680896282196045e-01 -1.211384683847427368e-02
5.446000000000000000e+03 2.171441650390625000e+01 1.669298744201660156e+01 7.476011663675308228e-02 1.425772458314895630e-01 6.520120799541473389e-02 1.065728142857551575e-01
5.447000000000000000e+03 3.058949470520019531e+01 2.992830753326416016e+00 3.765646368265151978e-02 1.674235910177230835e-01 6.152401491999626160e-02 -8.881824463605880737e-02
5.448000000000000000e+03 3.016334533691406250e+01 2.970827817916870117e+00 3.624236956238746643e-02 1.305052787065505981e-01 5.002429708838462830e-02 -8.780175447463989258e-02
5.449000000000000000e+03 5.476511001586914062e+01 3.147650718688964844e+01 1.286092877388000488e+00 1.280655956268310547e+01 4.227795600891113281e+00 2.355384349822998047e+00
5.450000000000000000e+03 3.835466003417968750e+01 1.435751247406005859e+01 -1.027392521500587463e-01 8.073685765266418457e-01 2.113887965679168701e-01 2.674305737018585205e-01
5.451000000000000000e+03 3.902548217773437500e+01 1.440060043334960938e+01 -9.365368634462356567e-02 9.953217506408691406e-01 2.705004215240478516e-01 3.357535004615783691e-01
5.452000000000000000e+03 3.375327682495117188e+01 4.572353363037109375e+00 8.107737451791763306e-02 4.802129268646240234e-01 1.683870851993560791e-01 2.524089626967906952e-02
5.453000000000000000e+03 3.101939392089843750e+01 3.012194395065307617e+00 5.122300609946250916e-02 2.147355377674102783e-01 7.978755980730056763e-02 -8.159362524747848511e-02
5.454000000000000000e+03 3.188323783874511719e+01 3.034137725830078125e+00 6.055482476949691772e-02 3.005422353744506836e-01 1.083291172981262207e-01 -6.789718568325042725e-02
5.455000000000000000e+03 3.465372467041015625e+01 6.870469093322753906e+00 3.391394158825278282e-03 5.318214893341064453e-01 1.605638563632965088e-01 1.380233615636825562e-01
5.456000000000000000e+03 4.848896408081054688e+01 2.471071624755859375e+01 6.720193028450012207e-01 4.016131877899169922e+00 1.406445384025573730e+00 2.026626348495483398e+00
5.457000000000000000e+03 4.817373657226562500e+01 2.506031799316406250e+01 8.017228245735168457e-01 3.728080511093139648e+00 1.358941078186035156e+00 2.035130262374877930e+00
5.458000000000000000e+03 4.466724014282226562e+01 2.066379165649414062e+01 2.636033892631530762e-01 2.272575616836547852e+00 7.608536481857299805e-01 1.106925487518310547e+00
5.459000000000000000e+03 4.374720764160156250e+01 2.030635833740234375e+01 2.542670071125030518e-01 1.887584924697875977e+00 6.425555944442749023e-01 9.628035426139831543e-01
5.460000000000000000e+03 5.117005920410156250e+01 2.743211746215820312e+01 9.173755049705505371e-01 6.449377059936523438e+00 2.210025787353515625e+00 2.742619752883911133e+00
5.461000000000000000e+03 1.238876056671142578e+01 7.275300502777099609e+00 9.877946972846984863e-02 3.161853253841400146e-01 1.244894415140151978e-01 -1.194540597498416901e-02
5.462000000000000000e+03 2.937947463989257812e+01 2.587381601333618164e-01 -9.981138259172439575e-02 5.667068064212799072e-02 -1.294221170246601105e-02 -3.811930119991302490e-02
5.463000000000000000e+03 2.536944770812988281e+01 2.139804458618164062e+01 6.579042226076126099e-02 1.172277405858039856e-01 5.490544810891151428e-02 8.720227330923080444e-02
5.464000000000000000e+03 3.438153839111328125e+01 4.201719284057617188e+00 6.429527699947357178e-02 6.017320752143859863e-01 1.998081952333450317e-01 5.117621272802352905e-02
5.465000000000000000e+03 3.606997299194335938e+01 -3.908340454101562500e+00 -1.392539441585540771e-01 1.114680409431457520e+00 2.926279306411743164e-01 -1.437379978597164154e-02
5.466000000000000000e+03 3.718379211425781250e+01 -5.465638160705566406e+00 -1.787884682416915894e-01 1.350867509841918945e+00 3.516237139701843262e-01 -2.611409686505794525e-02
5.467000000000000000e+03 3.522477340698242188e+01 5.111817359924316406e+00 3.818819671869277954e-02 7.223438024520874023e-01 2.281596064567565918e-01 1.161297112703323364e-01
5.468000000000000000e+03 3.488930130004882812e+01 5.538249969482421875e+00 4.062690213322639465e-02 6.397349238395690918e-01 2.041085511445999146e-01 1.131819188594818115e-01
5.469000000000000000e+03 3.420241546630859375e+01 -1.745892405509948730e+00 -8.491268754005432129e-02 7.312266826629638672e-01 1.938942074775695801e-01 -3.598273498937487602e-03
5.470000000000000000e+03 5.184582519531250000e+01 2.607213020324707031e+01 2.751685678958892822e-01 6.908781051635742188e+00 2.155184984207153320e+00 2.228812932968139648e+00
5.471000000000000000e+03 5.061745071411132812e+01 2.670913124084472656e+01 8.127869963645935059e-01 5.854181766510009766e+00 2.000090599060058594e+00 2.557474613189697266e+00
5.472000000000000000e+03 3.358563613891601562e+01 9.054266929626464844e+00 -2.008613049983978271e-01 2.566677629947662354e-01 1.674193888902664185e-02 8.099500834941864014e-02
5.473000000000000000e+03 2.618601989746093750e+01 2.355223274230957031e+01 3.588579595088958740e-02 1.127010434865951538e-01 4.457605257630348206e-02 7.478926330804824829e-02
5.474000000000000000e+03 6.350550460815429688e+01 1.776013374328613281e+01 -7.852586507797241211e-01 8.066125869750976562e+00 2.184260129928588867e+00 -7.953948974609375000e-01
5.475000000000000000e+03 6.454062652587890625e+01 1.779356765747070312e+01 -7.120743989944458008e-01 8.093882560729980469e+00 2.214542388916015625e+00 -8.784754872322082520e-01
5.476000000000000000e+03 5.700188827514648438e+01 3.014092636108398438e+01 6.381109356880187988e-01 1.157217597961425781e+01 3.663086175918579102e+00 3.180460035800933838e-01
5.477000000000000000e+03 5.777837371826171875e+01 2.833794212341308594e+01 3.924492746591567993e-02 1.055033874511718750e+01 3.176875114440917969e+00 2.440753951668739319e-02
5.478000000000000000e+03 1.443593406677246094e+01 2.053638458251953125e+01 1.818158198148012161e-03 8.145961910486221313e-02 2.498333342373371124e-02 2.671208046376705170e-02
5.479000000000000000e+03 3.235359191894531250e+01 3.029143095016479492e+00 5.974616855382919312e-02 3.555054366588592529e-01 1.245754808187484741e-01 -5.274156108498573303e-02
5.480000000000000000e+03 1.085886287689208984e+01 6.231756210327148438e+00 1.905014514923095703e-01 1.399515122175216675e-01 9.913589060306549072e-02 -7.713796943426132202e-02
5.481000000000000000e+03 9.979519844055175781e+00 7.410177230834960938e+00 1.477054059505462646e-01 6.914483755826950073e-02 6.505507230758666992e-02 -4.160839691758155823e-02
5.482000000000000000e+03 1.005267238616943359e+01 1.067641830444335938e+01 6.253756582736968994e-02 8.000636100769042969e-02 4.276318103075027466e-02 -1.195799838751554489e-02
5.483000000000000000e+03 1.313575649261474609e+01 8.779045104980468750e+00 6.826210021972656250e-02 2.799550294876098633e-01 1.044651418924331665e-01 5.065491050481796265e-02
5.484000000000000000e+03 2.790734863281250000e+01 2.530166244506835938e+01 5.830305069684982300e-02 1.023573428392410278e-01 4.819811880588531494e-02 6.807280331850051880e-02
5.485000000000000000e+03 1.546823215484619141e+01 1.056353282928466797e+01 7.998859137296676636e-02 2.366016358137130737e-01 9.497706592082977295e-02 1.141354665160179138e-01
5.486000000000000000e+03 5.370189666748046875e+01 2.878533172607421875e+01 5.359169244766235352e-01 9.479691505432128906e+00 3.004682540893554688e+00 2.374429225921630859e+00
5.487000000000000000e+03 3.539486694335937500e+01 -2.228591442108154297e+00 -9.712462127208709717e-02 9.618314504623413086e-01 2.594120502471923828e-01 -9.527613408863544464e-03
5.488000000000000000e+03 3.493226242065429688e+01 -2.879414081573486328e+00 -1.131618395447731018e-01 8.627984523773193359e-01 2.248909920454025269e-01 -9.477384388446807861e-03
5.489000000000000000e+03 2.374877738952636719e+01 1.940951728820800781e+01 6.251593679189682007e-02 1.254401206970214844e-01 5.638681724667549133e-02 9.512823075056076050e-02
5.490000000000000000e+03 2.348577117919921875e+01 1.894007492065429688e+01 7.222132384777069092e-02 1.297826170921325684e-01 6.060118228197097778e-02 9.373301267623901367e-02
5.491000000000000000e+03 3.110941314697265625e+01 2.903806686401367188e+01 3.842638432979583740e-02 8.317475020885467529e-02 3.648034110665321350e-02 7.623040676116943359e-02
5.492000000000000000e+03 2.912852859497070312e+01 2.895765495300292969e+01 5.801470577716827393e-02 8.968809992074966431e-02 4.431084170937538147e-02 5.891164392232894897e-02
5.493000000000000000e+03 3.833956146240234375e+01 -4.887052059173583984e+00 -1.866342127323150635e-01 1.605669617652893066e+00 4.257106184959411621e-01 -1.514280121773481369e-02
5.494000000000000000e+03 4.039636611938476562e+01 -6.907803058624267578e+00 -2.421493232250213623e-01 2.096097469329833984e+00 5.561844706535339355e-01 -4.798631370067596436e-02
5.495000000000000000e+03 9.546227455139160156e+00 1.133207035064697266e+01 5.821695551276206970e-02 5.560333281755447388e-02 3.414608538150787354e-02 -1.050652004778385162e-02
5.496000000000000000e+03 3.315474700927734375e+01 -2.575391530990600586e+00 -1.073489338159561157e-01 5.520319342613220215e-01 1.334048956632614136e-01 -4.370937589555978775e-03
5.497000000000000000e+03 3.055009460449218750e+01 -6.258738040924072266e-01 -9.754234552383422852e-02 1.738751530647277832e-01 2.289984375238418579e-02 -1.936255209147930145e-02
5.498000000000000000e+03 3.098309898376464844e+01 -8.188027143478393555e-01 -9.130433946847915649e-02 2.248557507991790771e-01 4.006542265415191650e-02 -1.581970229744911194e-02
5.499000000000000000e+03 3.178717994689941406e+01 -9.333741068840026855e-01 -7.888639718294143677e-02 3.374772369861602783e-01 7.757725566625595093e-02 -1.950654573738574982e-02
5.500000000000000000e+03 2.586299133300781250e+01 2.209299468994140625e+01 6.299159675836563110e-02 1.120403259992599487e-01 5.250957608222961426e-02 8.708921074867248535e-02
5.501000000000000000e+03 6.371252059936523438e+01 2.147180175781250000e+01 -6.609122157096862793e-01 8.503417968750000000e+00 2.352751731872558594e+00 -1.014186978340148926e+00
5.502000000000000000e+03 1.339347934722900391e+01 2.149220085144042969e+01 -3.289062995463609695e-03 6.289611011743545532e-02 1.788211427628993988e-02 1.348112709820270538e-02
5.503000000000000000e+03 4.845455932617187500e+01 -1.245251083374023438e+01 -4.186426401138305664e-01 4.141488075256347656e+00 1.116853594779968262e+00 -3.943020850419998169e-02
5.504000000000000000e+03 2.721359062194824219e+01 2.462559890747070312e+01 5.512706190347671509e-02 1.020070686936378479e-01 4.714024066925048828e-02 6.575743854045867920e-02
5.505000000000000000e+03 2.782205963134765625e+01 2.418574714660644531e+01 3.982644900679588318e-02 1.073965504765510559e-01 4.416690021753311157e-02 8.587899804115295410e-02
5.506000000000000000e+03 7.979725837707519531e+00 8.022890090942382812e+00 1.227563470602035522e-01 -5.453174188733100891e-02 2.046738192439079285e-02 1.156346779316663742e-02
5.507000000000000000e+03 3.656793212890625000e+01 -3.142047405242919922e+00 -1.297379136085510254e-01 1.208662509918212891e+00 3.236773610115051270e-01 -2.824701601639389992e-03
5.508000000000000000e+03 2.925445556640625000e+01 2.656434631347656250e+01 5.420713871717453003e-02 1.013593003153800964e-01 4.666993021965026855e-02 5.746586248278617859e-02
5.509000000000000000e+03 2.896262931823730469e+01 2.804356765747070312e+01 2.541264705359935760e-02 9.782442450523376465e-02 3.697112202644348145e-02 6.532683968544006348e-02
5.510000000000000000e+03 9.240529060363769531e+00 7.672584533691406250e+00 1.398760229349136353e-01 6.808125413954257965e-03 4.400524497032165527e-02 -1.610368862748146057e-02
5.511000000000000000e+03 1.700849723815917969e+01 2.128792953491210938e+01 1.150204520672559738e-02 9.675896912813186646e-02 3.247830271720886230e-02 4.266419634222984314e-02
5.512000000000000000e+03 4.940748977661132812e+01 -1.343221759796142578e+01 -4.140863716602325439e-01 4.394433975219726562e+00 1.194104194641113281e+00 -1.318194251507520676e-02
5.513000000000000000e+03 6.407600402832031250e+01 -1.396850013732910156e+01 -2.435882240533828735e-01 7.020764350891113281e+00 2.033152818679809570e+00 2.279307395219802856e-01
5.514000000000000000e+03 6.394299316406250000e+01 2.290301322937011719e+01 -5.406925678253173828e-01 8.649535179138183594e+00 2.432652950286865234e+00 -1.122281432151794434e+00
5.515000000000000000e+03 1.835991287231445312e+01 2.544241142272949219e+01 1.364592928439378738e-03 8.256908506155014038e-02 2.518010325729846954e-02 3.722133859992027283e-02
5.516000000000000000e+03 6.363080978393554688e+01 -1.220947933197021484e+01 -2.716271281242370605e-01 6.954624176025390625e+00 2.004899024963378906e+00 1.854337155818939209e-01
5.517000000000000000e+03 6.613249969482421875e+01 2.513346099853515625e+01 -1.566503047943115234e-01 8.487664222717285156e+00 2.499304294586181641e+00 -1.398861527442932129e+00
5.518000000000000000e+03 5.941011047363281250e+01 2.933976745605468750e+01 4.607052803039550781e-01 1.060725116729736328e+01 3.320386886596679688e+00 -6.244888305664062500e-01
5.519000000000000000e+03 2.815571212768554688e+01 2.438831329345703125e+00 9.305414743721485138e-03 -4.756394773721694946e-02 -1.147755980491638184e-02 -8.595452457666397095e-02
5.520000000000000000e+03 2.694033813476562500e+01 2.030623912811279297e+00 -3.779856488108634949e-02 -1.193584054708480835e-01 -4.714709147810935974e-02 -9.460847824811935425e-02
5.521000000000000000e+03 2.932469749450683594e+01 3.109818458557128906e+00 2.979652956128120422e-02 5.592846497893333435e-02 2.571749873459339142e-02 -8.691935241222381592e-02
5.522000000000000000e+03 4.675959396362304688e+01 2.346825027465820312e+01 6.020991206169128418e-01 2.971082210540771484e+00 1.071954369544982910e+00 1.595219254493713379e+00
5.523000000000000000e+03 4.726592254638671875e+01 2.367381286621093750e+01 5.978586673736572266e-01 3.247594356536865234e+00 1.153635859489440918e+00 1.701976180076599121e+00
5.524000000000000000e+03 4.452777862548828125e+01 1.952752876281738281e+01 1.442815959453582764e-01 2.350536823272705078e+00 7.484455704689025879e-01 1.044802784919738770e+00
5.525000000000000000e+03 4.261212158203125000e+01 1.827269744873046875e+01 9.236500412225723267e-02 1.706832289695739746e+00 5.397592186927795410e-01 7.688058614730834961e-01
5.526000000000000000e+03 1.773667335510253906e+01 1.299330139160156250e+01 7.757560908794403076e-02 1.838384419679641724e-01 7.842421531677246094e-02 1.154895499348640442e-01
5.527000000000000000e+03 3.873731994628906250e+01 1.524493026733398438e+01 -7.050471752882003784e-02 8.211059570312500000e-01 2.251803725957870483e-01 2.958956658840179443e-01
5.528000000000000000e+03 3.906161117553710938e+01 1.523896884918212891e+01 -6.559979915618896484e-02 9.121243953704833984e-01 2.539573907852172852e-01 3.311018049716949463e-01
5.529000000000000000e+03 3.891833877563476562e+01 1.495672130584716797e+01 -7.532121241092681885e-02 8.987182378768920898e-01 2.470190972089767456e-01 3.184789121150970459e-01
5.530000000000000000e+03 4.018547058105468750e+01 1.675319862365722656e+01 1.144280470907688141e-02 1.063489913940429688e+00 3.224798142910003662e-01 4.487781226634979248e-01
5.531000000000000000e+03 4.881113052368164062e+01 2.507598495483398438e+01 6.973600983619689941e-01 4.236346244812011719e+00 1.480111837387084961e+00 2.102555036544799805e+00
5.532000000000000000e+03 4.938753890991210938e+01 2.529737663269042969e+01 6.562795639038085938e-01 4.701282024383544922e+00 1.607268452644348145e+00 2.203813076019287109e+00
5.533000000000000000e+03 3.545339965820312500e+01 9.829404830932617188e+00 -1.749636083841323853e-01 5.428067445755004883e-01 1.103529408574104309e-01 1.466490328311920166e-01
5.534000000000000000e+03 4.403192520141601562e+01 1.937541580200195312e+01 1.472947299480438232e-01 2.158185482025146484e+00 6.916440725326538086e-01 9.754164218902587891e-01
5.535000000000000000e+03 3.673243331909179688e+01 1.196328735351562500e+01 -1.757188737392425537e-01 6.528607010841369629e-01 1.431425511837005615e-01 1.711670160293579102e-01
5.536000000000000000e+03 3.773478698730468750e+01 1.297599887847900391e+01 -1.441835314035415649e-01 7.979952692985534668e-01 1.961435228586196899e-01 2.334097772836685181e-01
5.537000000000000000e+03 4.341145324707031250e+01 1.975830268859863281e+01 2.018759250640869141e-01 1.839311838150024414e+00 6.123563051223754883e-01 9.134076237678527832e-01
5.538000000000000000e+03 2.722126770019531250e+01 1.811632156372070312e+00 -4.036519676446914673e-02 -1.011770218610763550e-01 -4.246266558766365051e-02 -9.073566645383834839e-02
5.539000000000000000e+03 4.521009826660156250e+01 2.093768310546875000e+01 2.756783664226531982e-01 2.483582258224487305e+00 8.277782201766967773e-01 1.194049477577209473e+00
5.540000000000000000e+03 4.085293960571289062e+01 1.722285842895507812e+01 3.951287269592285156e-02 1.210060358047485352e+00 3.748719692230224609e-01 5.295407176017761230e-01
5.541000000000000000e+03 2.974386215209960938e+01 8.754554986953735352e-01 -5.472755059599876404e-02 9.651900827884674072e-02 1.253743842244148254e-02 -5.751512199640274048e-02
5.542000000000000000e+03 2.828375625610351562e+01 2.780453443527221680e+00 2.084223181009292603e-02 -3.884824365377426147e-02 -5.401803646236658096e-03 -8.618658035993576050e-02
5.543000000000000000e+03 3.538784790039062500e+01 1.031290245056152344e+01 -1.944121569395065308e-01 5.083904862403869629e-01 9.419350326061248779e-02 1.243857070803642273e-01
5.544000000000000000e+03 2.889684677124023438e+01 8.318313360214233398e-01 -7.099626213312149048e-02 1.496542058885097504e-02 -1.680925115942955017e-02 -5.065047368407249451e-02
5.545000000000000000e+03 2.921803092956542969e+01 1.164163827896118164e+00 -4.747637733817100525e-02 5.052969977259635925e-02 9.159969631582498550e-04 -6.597063690423965454e-02
5.546000000000000000e+03 3.855688476562500000e+01 1.367766380310058594e+01 -1.140405535697937012e-01 9.386212229728698730e-01 2.473742067813873291e-01 3.062334060668945312e-01
5.547000000000000000e+03 4.659757614135742188e+01 2.188907051086425781e+01 3.224929273128509521e-01 3.076058864593505859e+00 1.019565463066101074e+00 1.441000819206237793e+00
5.548000000000000000e+03 4.612828063964843750e+01 2.208964347839355469e+01 3.849589228630065918e-01 2.817827939987182617e+00 9.608360528945922852e-01 1.395999431610107422e+00
5.549000000000000000e+03 3.441904830932617188e+01 9.697684288024902344e+00 -2.151252180337905884e-01 3.521304726600646973e-01 4.110157489776611328e-02 8.412633836269378662e-02
5.550000000000000000e+03 5.304537963867187500e+01 2.757677841186523438e+01 3.772667050361633301e-01 8.348468780517578125e+00 2.617720603942871094e+00 2.322669744491577148e+00
5.551000000000000000e+03 3.144823455810546875e+01 3.020828962326049805e+00 5.324210971593856812e-02 2.499557137489318848e-01 9.095934778451919556e-02 -7.691665738821029663e-02
5.552000000000000000e+03 1.921683883666992188e+01 1.368024444580078125e+01 8.935790508985519409e-02 1.678667962551116943e-01 7.716741412878036499e-02 1.223992854356765747e-01
5.553000000000000000e+03 1.784100341796875000e+01 1.374697971343994141e+01 7.027755677700042725e-02 1.755526363849639893e-01 7.374905794858932495e-02 1.073563173413276672e-01
5.554000000000000000e+03 5.004127120971679688e+01 2.607835197448730469e+01 7.531112432479858398e-01 5.213017463684082031e+00 1.789838671684265137e+00 2.385937213897705078e+00
5.555000000000000000e+03 3.878275680541992188e+01 1.307591056823730469e+01 -1.208547949790954590e-01 1.056344389915466309e+00 2.806468904018402100e-01 3.380940854549407959e-01
5.556000000000000000e+03 3.553990936279296875e+01 1.161805725097656250e+01 -2.275605201721191406e-01 4.130064845085144043e-01 5.563378706574440002e-02 6.874584406614303589e-02
5.557000000000000000e+03 4.874044799804687500e+01 2.427220344543457031e+01 5.242992043495178223e-01 4.274415969848632812e+00 1.439614653587341309e+00 1.984510779380798340e+00
5.558000000000000000e+03 5.254780197143554688e+01 2.742675781250000000e+01 4.367353618144989014e-01 7.892388820648193359e+00 2.498737335205078125e+00 2.415667295455932617e+00
5.559000000000000000e+03 2.085410118103027344e+01 1.578836631774902344e+01 8.018470555543899536e-02 1.489154845476150513e-01 6.873005628585815430e-02 1.084963828325271606e-01
5.560000000000000000e+03 2.169333839416503906e+01 1.624404144287109375e+01 8.349333703517913818e-02 1.470125317573547363e-01 6.915175914764404297e-02 1.083119139075279236e-01
5.561000000000000000e+03 3.583521652221679688e+01 1.147689628601074219e+01 -2.031070739030838013e-01 5.016709566116333008e-01 8.956916630268096924e-02 1.109405905008316040e-01
5.562000000000000000e+03 2.540971374511718750e+01 2.355469322204589844e+01 5.246783420443534851e-02 1.082984134554862976e-01 4.822987318038940430e-02 7.951711863279342651e-02
5.563000000000000000e+03 5.192395782470703125e+01 2.658483505249023438e+01 3.932520747184753418e-01 7.140062808990478516e+00 2.259994506835937500e+00 2.365402460098266602e+00
5.564000000000000000e+03 5.096229171752929688e+01 2.699982452392578125e+01 8.141015768051147461e-01 6.199554443359375000e+00 2.104096889495849609e+00 2.635868072509765625e+00
5.565000000000000000e+03 2.266792106628417969e+01 1.873069190979003906e+01 6.701107323169708252e-02 1.325855255126953125e-01 5.987897887825965881e-02 9.221793711185455322e-02
5.566000000000000000e+03 1.539738464355468750e+01 1.105676364898681641e+01 6.776364147663116455e-02 2.247151583433151245e-01 8.774363994598388672e-02 1.035133078694343567e-01
5.567000000000000000e+03 1.493940734863281250e+01 1.102936363220214844e+01 6.787327677011489868e-02 2.244696915149688721e-01 8.770289272069931030e-02 9.520959854125976562e-02
5.568000000000000000e+03 5.419432830810546875e+01 3.029314994812011719e+01 9.576937556266784668e-01 1.102976131439208984e+01 3.596236467361450195e+00 2.559920310974121094e+00
5.569000000000000000e+03 5.569525146484375000e+01 3.109242820739746094e+01 9.159461855888366699e-01 1.256391525268554688e+01 4.043958663940429688e+00 1.257516741752624512e+00
5.570000000000000000e+03 3.682296371459960938e+01 1.156871986389160156e+01 -1.697593927383422852e-01 7.050260901451110840e-01 1.605800241231918335e-01 1.888246536254882812e-01
5.571000000000000000e+03 3.647292327880859375e+01 1.140130519866943359e+01 -1.774693280458450317e-01 6.425665020942687988e-01 1.395291537046432495e-01 1.680004149675369263e-01
5.572000000000000000e+03 3.152162170410156250e+01 2.526171207427978516e+00 4.203094169497489929e-02 2.738165557384490967e-01 9.475424885749816895e-02 -6.935444474220275879e-02
5.573000000000000000e+03 3.508429718017578125e+01 6.906289577484130859e+00 -1.103088725358247757e-02 6.216320991516113281e-01 1.831803619861602783e-01 1.526273190975189209e-01
5.574000000000000000e+03 4.348976135253906250e+01 1.927725791931152344e+01 1.571482717990875244e-01 1.921982765197753906e+00 6.237393021583557129e-01 9.023492336273193359e-01
5.575000000000000000e+03 3.287824630737304688e+01 2.992699146270751953e+00 6.260535866022109985e-02 4.325129985809326172e-01 1.485355049371719360e-01 -3.538952767848968506e-02
5.576000000000000000e+03 3.053581047058105469e+01 -7.160819321870803833e-02 -7.152199000120162964e-02 1.780080199241638184e-01 3.194580972194671631e-02 -3.243688493967056274e-02
5.577000000000000000e+03 2.564191818237304688e+01 2.279616165161132812e+01 4.061003029346466064e-02 1.148264333605766296e-01 4.663093760609626770e-02 7.473607361316680908e-02
5.578000000000000000e+03 3.836440658569335938e+01 1.326127815246582031e+01 -1.266186982393264771e-01 9.348568916320800781e-01 2.424714565277099609e-01 2.910341024398803711e-01
5.579000000000000000e+03 4.983336639404296875e+01 2.484614944458007812e+01 4.442830085754394531e-01 5.124917507171630859e+00 1.670760154724121094e+00 2.123275995254516602e+00
5.580000000000000000e+03 4.955069732666015625e+01 2.559624671936035156e+01 7.289499640464782715e-01 4.855563163757324219e+00 1.675354003906250000e+00 2.302025318145751953e+00
5.581000000000000000e+03 1.281509399414062500e+01 7.892293453216552734e+00 8.325059711933135986e-02 3.171543478965759277e-01 1.201214864850044250e-01 2.560887113213539124e-02
5.582000000000000000e+03 1.221291351318359375e+01 7.741056919097900391e+00 8.964116126298904419e-02 2.802060842514038086e-01 1.109541729092597961e-01 -8.926437236368656158e-03
5.583000000000000000e+03 3.581147384643554688e+01 5.322610378265380859e+00 1.967457681894302368e-02 8.221856951713562012e-01 2.525580823421478271e-01 1.428571492433547974e-01
5.584000000000000000e+03 3.287295150756835938e+01 2.433830022811889648e+00 4.470854997634887695e-02 4.397915303707122803e-01 1.453500241041183472e-01 -3.524857014417648315e-02
5.585000000000000000e+03 9.718881607055664062e+00 6.765403270721435547e+00 1.827094703912734985e-01 8.378567174077033997e-03 5.732640996575355530e-02 -3.185224533081054688e-02
5.586000000000000000e+03 2.691807556152343750e+01 2.346792030334472656e+01 6.173909083008766174e-02 1.047808378934860229e-01 4.995597898960113525e-02 7.867611199617385864e-02
5.587000000000000000e+03 2.964468765258789062e+01 1.857684493064880371e+00 -8.094928227365016937e-03 7.985795289278030396e-02 2.152890712022781372e-02 -7.491253316402435303e-02
5.588000000000000000e+03 2.989866828918457031e+01 3.976228535175323486e-01 -6.281612813472747803e-02 1.118523478507995605e-01 1.471086498349905014e-02 -4.292555525898933411e-02
5.589000000000000000e+03 1.190838623046875000e+01 7.033511161804199219e+00 1.200397089123725891e-01 2.695257067680358887e-01 1.168696284294128418e-01 -4.539072886109352112e-02
5.590000000000000000e+03 4.136787796020507812e+01 1.649073791503906250e+01 -4.614310804754495621e-03 1.480981469154357910e+00 4.429101645946502686e-01 5.944417715072631836e-01
5.591000000000000000e+03 4.826329421997070312e+01 2.404195785522460938e+01 5.576429963111877441e-01 3.893218517303466797e+00 1.335258483886718750e+00 1.891884565353393555e+00
5.592000000000000000e+03 4.643775177001953125e+01 2.225107574462890625e+01 3.948154151439666748e-01 2.962441205978393555e+00 1.007176995277404785e+00 1.447877764701843262e+00
5.593000000000000000e+03 4.703574752807617188e+01 2.300369262695312500e+01 4.774832725524902344e-01 3.226248502731323242e+00 1.111119508743286133e+00 1.599776387214660645e+00
5.594000000000000000e+03 3.418859481811523438e+01 4.678949832916259766e+00 7.026682794094085693e-02 5.531663298606872559e-01 1.870299428701400757e-01 5.315713211894035339e-02
5.595000000000000000e+03 3.493141555786132812e+01 4.364198684692382812e+00 5.189989507198333740e-02 6.982346773147583008e-01 2.250403761863708496e-01 7.984133064746856689e-02
5.596000000000000000e+03 3.406556701660156250e+01 9.131776809692382812e+00 -1.843627840280532837e-01 3.212400674819946289e-01 4.106318578124046326e-02 9.833081811666488647e-02
5.597000000000000000e+03 9.920554161071777344e+00 8.553433418273925781e+00 1.132861226797103882e-01 7.223778218030929565e-02 5.565717071294784546e-02 -2.875122427940368652e-02
5.598000000000000000e+03 1.043417358398437500e+01 7.969878196716308594e+00 1.277322322130203247e-01 1.130403205752372742e-01 7.223176956176757812e-02 -3.770383074879646301e-02
5.599000000000000000e+03 1.920093917846679688e+01 1.411774730682373047e+01 8.563112467527389526e-02 1.670533418655395508e-01 7.580534368753433228e-02 1.166320666670799255e-01
5.600000000000000000e+03 2.491653633117675781e+01 2.050908660888671875e+01 6.209563463926315308e-02 1.216426715254783630e-01 5.512149259448051453e-02 8.389411866664886475e-02
5.601000000000000000e+03 2.489118003845214844e+01 1.977983283996582031e+01 7.140958309173583984e-02 1.228851750493049622e-01 5.828842893242835999e-02 8.993919938802719116e-02
5.602000000000000000e+03 4.129841995239257812e+01 -6.572031497955322266e+00 -2.566346526145935059e-01 2.314962863922119141e+00 6.174984574317932129e-01 -3.707480803132057190e-02
5.603000000000000000e+03 4.102117156982421875e+01 -5.740561485290527344e+00 -2.419440895318984985e-01 2.249786376953125000e+00 6.023526787757873535e-01 -1.654749177396297455e-02
5.604000000000000000e+03 5.439832687377929688e+01 2.862744140625000000e+01 3.250806629657745361e-01 9.987682342529296875e+00 3.093828678131103516e+00 1.992082715034484863e+00
5.605000000000000000e+03 5.562957763671875000e+01 2.917741012573242188e+01 2.502094209194183350e-01 1.091032314300537109e+01 3.348159790039062500e+00 1.149488091468811035e+00
5.606000000000000000e+03 1.740402221679687500e+01 1.350693321228027344e+01 7.030948996543884277e-02 1.768214851617813110e-01 7.413928955793380737e-02 1.070171967148780823e-01
5.607000000000000000e+03 1.291804599761962891e+01 9.545913696289062500e+00 5.940948054194450378e-02 2.383807897567749023e-01 8.933708071708679199e-02 3.959316760301589966e-02
5.608000000000000000e+03 1.696666908264160156e+01 1.327232360839843750e+01 6.443457305431365967e-02 1.826837360858917236e-01 7.413549721240997314e-02 1.016199439764022827e-01
5.609000000000000000e+03 1.640148735046386719e+01 1.236433601379394531e+01 6.972250342369079590e-02 1.964865475893020630e-01 7.986271381378173828e-02 1.075086072087287903e-01
5.610000000000000000e+03 1.207304859161376953e+01 8.208793640136718750e+00 8.876612037420272827e-02 2.564224302768707275e-01 1.035565659403800964e-01 -6.546446587890386581e-03
5.611000000000000000e+03 1.146164226531982422e+01 9.887836456298828125e+00 6.704551726579666138e-02 1.649315059185028076e-01 6.959310919046401978e-02 1.903865602798759937e-03
5.612000000000000000e+03 3.324152755737304688e+01 -1.209565401077270508e+00 -6.848621368408203125e-02 5.597195029258728027e-01 1.473699808120727539e-01 -1.563772559165954590e-02
5.613000000000000000e+03 3.504353332519531250e+01 -4.363773763179779053e-01 -4.608828574419021606e-02 8.729133605957031250e-01 2.480475306510925293e-01 4.997878801077604294e-03
5.614000000000000000e+03 1.667060470581054688e+01 1.188580131530761719e+01 7.760240882635116577e-02 2.041561007499694824e-01 8.452755212783813477e-02 1.161271482706069946e-01
5.615000000000000000e+03 3.484127044677734375e+01 -1.260698795318603516e+00 -7.105281203985214233e-02 8.497321605682373047e-01 2.336038053035736084e-01 -3.545558778569102287e-03
5.616000000000000000e+03 3.450280761718750000e+01 -2.503983020782470703e+00 -1.037707999348640442e-01 7.941769361495971680e-01 2.071218341588973999e-01 -5.211559473536908627e-04
5.617000000000000000e+03 9.149544715881347656e+00 1.310911369323730469e+01 3.496416285634040833e-02 3.681407123804092407e-02 2.153347060084342957e-02 -8.253628388047218323e-03
5.618000000000000000e+03 3.237553024291992188e+01 3.672401309013366699e-01 -2.167796716094017029e-02 4.224129617214202881e-01 1.202204972505569458e-01 -3.766665235161781311e-02
5.619000000000000000e+03 3.479725646972656250e+01 8.085620880126953125e+00 -7.766139507293701172e-02 5.057800412178039551e-01 1.284355968236923218e-01 1.540590822696685791e-01
5.620000000000000000e+03 3.453432846069335938e+01 9.261276245117187500e+00 -1.723525524139404297e-01 4.127879142761230469e-01 7.213061302900314331e-02 1.157447025179862976e-01
5.621000000000000000e+03 2.683414840698242188e+01 2.639474487304687500e+01 3.430786728858947754e-02 9.968407452106475830e-02 4.019758105278015137e-02 7.384525239467620850e-02
5.622000000000000000e+03 2.598106384277343750e+01 2.528292465209960938e+01 2.618833817541599274e-02 1.053193062543869019e-01 3.945229575037956238e-02 6.811088323593139648e-02
5.623000000000000000e+03 3.642551422119140625e+01 -2.035721063613891602e+00 -1.019943952560424805e-01 1.169965505599975586e+00 3.203913569450378418e-01 6.851266603916883469e-03
5.624000000000000000e+03 5.471744155883789062e+01 2.749106597900390625e+01 -6.370735913515090942e-02 9.570733070373535156e+00 2.852107763290405273e+00 1.509597301483154297e+00
5.625000000000000000e+03 5.391818618774414062e+01 2.830636215209960938e+01 3.460532724857330322e-01 9.469308853149414062e+00 2.944608688354492188e+00 2.117619276046752930e+00
5.626000000000000000e+03 1.394327831268310547e+01 1.984963226318359375e+01 4.532297141849994659e-03 8.331917971372604370e-02 2.635544352233409882e-02 1.957209222018718719e-02
5.627000000000000000e+03 1.568068790435791016e+01 1.252208518981933594e+01 5.681549012660980225e-02 1.933708190917968750e-01 7.505588978528976440e-02 9.335768967866897583e-02
5.628000000000000000e+03 1.572210407257080078e+01 1.162332725524902344e+01 6.527654081583023071e-02 2.116815000772476196e-01 8.308741450309753418e-02 1.021692529320716858e-01
5.629000000000000000e+03 9.934406280517578125e+00 9.571259498596191406e+00 8.732383698225021362e-02 7.416599243879318237e-02 4.844694957137107849e-02 -1.989211514592170715e-02
5.630000000000000000e+03 5.640293884277343750e+01 2.933270454406738281e+01 3.163707554340362549e-01 1.113048744201660156e+01 3.434057235717773438e+00 6.939248442649841309e-01
5.631000000000000000e+03 2.142037200927734375e+01 1.806272697448730469e+01 5.919796600937843323e-02 1.372035592794418335e-01 5.892045795917510986e-02 9.185329824686050415e-02
5.632000000000000000e+03 6.491415023803710938e+00 1.341515159606933594e+01 2.910367771983146667e-02 -5.448978394269943237e-02 -7.615832146257162094e-03 -1.184411812573671341e-02
5.633000000000000000e+03 3.721321868896484375e+01 -3.525731801986694336e+00 -1.410354524850845337e-01 1.353043913841247559e+00 3.636025488376617432e-01 -3.856545547023415565e-03
5.634000000000000000e+03 2.806265068054199219e+01 2.579688835144042969e+01 2.830684743821620941e-02 1.024228408932685852e-01 3.921890631318092346e-02 7.543589919805526733e-02
5.635000000000000000e+03 2.939665794372558594e+01 2.996546173095703125e+01 2.124273031949996948e-02 9.362192451953887939e-02 3.445939719676971436e-02 5.571850016713142395e-02
5.636000000000000000e+03 5.172846603393554688e+01 -1.327800369262695312e+01 -4.282832443714141846e-01 4.887633800506591797e+00 1.337805151939392090e+00 4.217558354139328003e-02
5.637000000000000000e+03 6.214600372314453125e+01 -1.525762748718261719e+01 -2.565682828426361084e-01 6.732643604278564453e+00 1.942822575569152832e+00 2.459663301706314087e-01
5.638000000000000000e+03 6.253426361083984375e+01 -1.424317169189453125e+01 -2.668931782245635986e-01 6.789863109588623047e+00 1.956891059875488281e+00 2.309056669473648071e-01
5.639000000000000000e+03 6.083628463745117188e+01 -1.870563888549804688e+01 -2.169797718524932861e-01 6.562439918518066406e+00 1.903638124465942383e+00 2.986382246017456055e-01
5.640000000000000000e+03 6.296899795532226562e+01 2.238920211791992188e+01 -6.323451995849609375e-01 8.655653953552246094e+00 2.406992673873901367e+00 -9.846669435501098633e-01
5.641000000000000000e+03 5.686087036132812500e+01 -1.912667846679687500e+01 -2.776791155338287354e-01 5.983253955841064453e+00 1.711672425270080566e+00 2.505522668361663818e-01
5.642000000000000000e+03 6.060720062255859375e+01 -2.051013374328613281e+01 -1.752327978610992432e-01 6.541813850402832031e+00 1.909974336624145508e+00 3.272863924503326416e-01
5.643000000000000000e+03 5.892647933959960938e+01 2.797060775756835938e+01 2.269588038325309753e-02 1.030554580688476562e+01 3.098472595214843750e+00 -4.089867770671844482e-01
5.644000000000000000e+03 2.799108314514160156e+01 2.097132921218872070e+00 -2.272064238786697388e-02 -5.701835826039314270e-02 -2.392170019447803497e-02 -8.628638833761215210e-02
5.645000000000000000e+03 2.862598609924316406e+01 2.616427183151245117e+00 1.720406487584114075e-02 -1.094445679336786270e-02 1.877882750704884529e-03 -8.638557791709899902e-02
5.646000000000000000e+03 4.632497787475585938e+01 2.144157409667968750e+01 2.717864811420440674e-01 3.036274909973144531e+00 9.924184083938598633e-01 1.376940369606018066e+00
5.647000000000000000e+03 3.002637672424316406e+01 1.190036058425903320e+00 -2.969924360513687134e-02 1.213777139782905579e-01 2.750354260206222534e-02 -6.210832297801971436e-02
5.648000000000000000e+03 3.064424705505371094e+01 2.567202568054199219e+00 3.281873837113380432e-02 1.853811740875244141e-01 6.545997411012649536e-02 -7.807681709527969360e-02
5.649000000000000000e+03 2.768395233154296875e+01 2.354279756546020508e+00 -3.479085280559957027e-04 -7.915456593036651611e-02 -2.385074086487293243e-02 -9.165358543395996094e-02
5.650000000000000000e+03 4.263615417480468750e+01 1.862905502319335938e+01 1.215262189507484436e-01 1.666086912155151367e+00 5.362839698791503906e-01 7.776964306831359863e-01
5.651000000000000000e+03 3.542030334472656250e+01 9.418215751647949219e+00 -1.555178016424179077e-01 5.696212649345397949e-01 1.242310404777526855e-01 1.595187336206436157e-01
5.652000000000000000e+03 2.883100318908691406e+01 2.915619373321533203e+00 2.064601145684719086e-02 -5.486229929374530911e-05 6.177344825118780136e-03 -8.487643301486968994e-02
5.653000000000000000e+03 2.898612785339355469e+01 1.479973554611206055e+00 -2.711555361747741699e-02 3.126285225152969360e-02 1.244189450517296791e-03 -6.815417110919952393e-02
5.654000000000000000e+03 3.194626617431640625e+01 2.547455549240112305e+00 4.306145384907722473e-02 3.129369318485260010e-01 1.067995205521583557e-01 -6.390818953514099121e-02
5.655000000000000000e+03 1.974931716918945312e+01 1.559758377075195312e+01 7.189659029245376587e-02 1.544854640960693359e-01 6.791461259126663208e-02 1.024636626243591309e-01
5.656000000000000000e+03 2.865597724914550781e+01 2.089562892913818359e+00 -1.403635460883378983e-02 -2.144851488992571831e-03 -4.854361992329359055e-03 -8.263454586267471313e-02
5.657000000000000000e+03 3.942205429077148438e+01 1.510630512237548828e+01 -6.250843405723571777e-02 1.023468494415283203e+00 2.882880270481109619e-01 3.712007105350494385e-01
5.658000000000000000e+03 4.423256683349609375e+01 1.888330650329589844e+01 1.000230610370635986e-01 2.303813457489013672e+00 7.211509346961975098e-01 9.860860705375671387e-01
5.659000000000000000e+03 4.474158477783203125e+01 1.902583312988281250e+01 9.032536298036575317e-02 2.519271373748779297e+00 7.828790545463562012e-01 1.050553441047668457e+00
5.660000000000000000e+03 3.952463531494140625e+01 1.597604942321777344e+01 -2.971893735229969025e-02 9.662531018257141113e-01 2.809602618217468262e-01 3.736652433872222900e-01
5.661000000000000000e+03 3.909861373901367188e+01 1.602495574951171875e+01 -3.772896155714988708e-02 8.333699703216552734e-01 2.386922985315322876e-01 3.197659552097320557e-01
5.662000000000000000e+03 4.683004760742187500e+01 2.238235855102539062e+01 3.831966221332550049e-01 3.196205139160156250e+00 1.073820471763610840e+00 1.506029725074768066e+00
5.663000000000000000e+03 3.715666961669921875e+01 1.160099601745605469e+01 -1.631456315517425537e-01 7.921750545501708984e-01 1.887088268995285034e-01 2.183642089366912842e-01
5.664000000000000000e+03 4.577504348754882812e+01 2.117089271545410156e+01 2.748160660266876221e-01 2.741381883621215820e+00 9.048593640327453613e-01 1.286264896392822266e+00
5.665000000000000000e+03 5.011717605590820312e+01 2.551968383789062500e+01 5.684067606925964355e-01 5.337878227233886719e+00 1.771885514259338379e+00 2.274997472763061523e+00
5.666000000000000000e+03 4.979651260375976562e+01 2.584174156188964844e+01 7.281818389892578125e-01 5.026045799255371094e+00 1.726268291473388672e+00 2.348412990570068359e+00
5.667000000000000000e+03 4.177307510375976562e+01 1.793348884582519531e+01 8.473141491413116455e-02 1.432211875915527344e+00 4.550829827785491943e-01 6.559816598892211914e-01
5.668000000000000000e+03 2.800610351562500000e+01 1.403025627136230469e+00 -6.315080821514129639e-02 -5.536291748285293579e-02 -3.555411845445632935e-02 -7.152637839317321777e-02
5.669000000000000000e+03 3.728702163696289062e+01 1.320082664489746094e+01 -1.509407609701156616e-01 6.801614761352539062e-01 1.587662249803543091e-01 1.868911087512969971e-01
5.670000000000000000e+03 3.897980117797851562e+01 1.342976570129394531e+01 -1.148966476321220398e-01 1.077938437461853027e+00 2.889125347137451172e-01 3.436314761638641357e-01
5.671000000000000000e+03 5.251795959472656250e+01 2.694737625122070312e+01 3.586307764053344727e-01 7.775861740112304688e+00 2.440347671508789062e+00 2.303873777389526367e+00
5.672000000000000000e+03 3.610101318359375000e+01 8.918175697326660156e+00 -1.153853461146354675e-01 7.209705710411071777e-01 1.816755682229995728e-01 2.095565199851989746e-01
5.673000000000000000e+03 3.994612121582031250e+01 1.589593887329101562e+01 -3.061352670192718506e-02 1.090052604675292969e+00 3.178316950798034668e-01 4.245157241821289062e-01
5.674000000000000000e+03 4.100320434570312500e+01 1.633539581298828125e+01 -8.507040329277515411e-03 1.382716059684753418e+00 4.122627079486846924e-01 5.476124286651611328e-01
5.675000000000000000e+03 1.881872558593750000e+01 1.419426345825195312e+01 7.738916575908660889e-02 1.652998924255371094e-01 7.280671596527099609e-02 1.128548011183738708e-01
5.676000000000000000e+03 5.071762084960937500e+01 2.575037574768066406e+01 4.925175309181213379e-01 5.897865295410156250e+00 1.917114853858947754e+00 2.320095062255859375e+00
5.677000000000000000e+03 5.175983810424804688e+01 2.552057647705078125e+01 1.882541030645370483e-01 6.738751411437988281e+00 2.078101634979248047e+00 2.135309219360351562e+00
5.678000000000000000e+03 3.590971755981445312e+01 1.047956562042236328e+01 -1.781500428915023804e-01 5.947209000587463379e-01 1.249712482094764709e-01 1.563432216644287109e-01
5.679000000000000000e+03 3.486518096923828125e+01 1.022248554229736328e+01 -2.185248434543609619e-01 4.031091332435607910e-01 5.537528917193412781e-02 9.119127690792083740e-02
5.680000000000000000e+03 4.847702789306640625e+01 2.359049987792968750e+01 4.208036661148071289e-01 4.138017654418945312e+00 1.367646455764770508e+00 1.854678988456726074e+00
5.681000000000000000e+03 4.777998733520507812e+01 2.384188461303710938e+01 5.751977562904357910e-01 3.602646112442016602e+00 1.253353118896484375e+00 1.806019544601440430e+00
5.682000000000000000e+03 3.539843368530273438e+01 -1.018847465515136719e+00 -6.696289032697677612e-02 9.509320855140686035e-01 2.651907503604888916e-01 2.674361458048224449e-03
5.683000000000000000e+03 2.878599357604980469e+01 1.768900752067565918e+00 -2.433453872799873352e-02 -2.538309898227453232e-03 -8.061855100095272064e-03 -7.837466150522232056e-02
5.684000000000000000e+03 3.569706344604492188e+01 5.875945091247558594e+00 1.347489748150110245e-02 7.773265242576599121e-01 2.372404336929321289e-01 1.565118134021759033e-01
5.685000000000000000e+03 3.545582199096679688e+01 7.201708793640136719e+00 -2.790061384439468384e-02 6.789949536323547363e-01 1.953282952308654785e-01 1.780450791120529175e-01
5.686000000000000000e+03 4.148119354248046875e+01 1.707037734985351562e+01 3.026630915701389313e-02 1.447668910026550293e+00 4.433805644512176514e-01 6.105289459228515625e-01
5.687000000000000000e+03 3.046661949157714844e+01 9.820988178253173828e-01 -2.400061860680580139e-02 1.697839200496673584e-01 4.373499006032943726e-02 -5.755583196878433228e-02
5.688000000000000000e+03 1.339716815948486328e+01 7.866883754730224609e+00 7.389867305755615234e-02 3.363312780857086182e-01 1.230689883232116699e-01 6.718492507934570312e-02
5.689000000000000000e+03 3.407549285888671875e+01 2.992577791213989258e+00 5.261966586112976074e-02 6.027720570564270020e-01 1.966175138950347900e-01 1.215301919728517532e-02
5.690000000000000000e+03 3.345544433593750000e+01 2.963157415390014648e+00 5.753169208765029907e-02 5.088422298431396484e-01 1.699121743440628052e-01 -1.005840115249156952e-02
5.691000000000000000e+03 3.236740493774414062e+01 2.552687644958496094e+00 4.828203096985816956e-02 3.798058629035949707e-01 1.284263730049133301e-01 -5.004275217652320862e-02
5.692000000000000000e+03 3.455524444580078125e+01 3.667209625244140625e+00 5.697409436106681824e-02 6.596705913543701172e-01 2.149934172630310059e-01 4.497134685516357422e-02
5.693000000000000000e+03 4.932516860961914062e+01 2.395267868041992188e+01 3.489429056644439697e-01 4.728644847869873047e+00 1.523276329040527344e+00 1.959117174148559570e+00
5.694000000000000000e+03 4.891949081420898438e+01 2.379837226867675781e+01 3.957858979701995850e-01 4.430632591247558594e+00 1.447925567626953125e+00 1.912577509880065918e+00
5.695000000000000000e+03 3.482020950317382812e+01 8.459678649902343750e+00 -1.092411056160926819e-01 4.993698000907897949e-01 1.170386075973510742e-01 1.531739830970764160e-01
5.696000000000000000e+03 1.705459785461425781e+01 1.402474117279052734e+01 5.768539756536483765e-02 1.727872341871261597e-01 6.914179027080535889e-02 9.390719234943389893e-02
5.697000000000000000e+03 3.465691375732421875e+01 8.851491928100585938e+00 -1.358045041561126709e-01 4.507882595062255859e-01 9.449512511491775513e-02 1.408355683088302612e-01
5.698000000000000000e+03 1.369528007507324219e+01 1.041606807708740234e+01 5.972229689359664917e-02 2.307450622320175171e-01 8.714020997285842896e-02 6.260725110769271851e-02
5.699000000000000000e+03 1.663700675964355469e+01 1.374728393554687500e+01 5.864435434341430664e-02 1.736351549625396729e-01 6.968384981155395508e-02 9.364277124404907227e-02
5.700000000000000000e+03 2.520834922790527344e+01 2.204430770874023438e+01 4.579875990748405457e-02 1.162692233920097351e-01 4.862039536237716675e-02 7.734215259552001953e-02
5.701000000000000000e+03 2.475715637207031250e+01 2.145028305053710938e+01 5.010284110903739929e-02 1.148073151707649231e-01 4.947304725646972656e-02 8.023442327976226807e-02
5.702000000000000000e+03 5.387594604492187500e+01 2.745436668395996094e+01 1.055530682206153870e-01 9.071612358093261719e+00 2.753149509429931641e+00 1.918645262718200684e+00
5.703000000000000000e+03 2.115547943115234375e+01 1.888470649719238281e+01 5.339643359184265137e-02 1.320326924324035645e-01 5.562873557209968567e-02 8.553709089756011963e-02
5.704000000000000000e+03 4.978388214111328125e+01 2.528335762023925781e+01 5.578538179397583008e-01 5.095820426940917969e+00 1.696102261543273926e+00 2.226481914520263672e+00
5.705000000000000000e+03 4.928493881225585938e+01 2.488104820251464844e+01 5.806913971900939941e-01 4.627049446105957031e+00 1.562322258949279785e+00 2.133578300476074219e+00
5.706000000000000000e+03 1.453054237365722656e+01 1.115391731262207031e+01 5.709939450025558472e-02 2.179216742515563965e-01 8.250632137060165405e-02 8.313498646020889282e-02
5.707000000000000000e+03 5.493069458007812500e+01 2.897039413452148438e+01 2.878829836845397949e-01 1.065778732299804688e+01 3.283701181411743164e+00 1.628373622894287109e+00
5.708000000000000000e+03 5.453388214111328125e+01 2.944063568115234375e+01 5.272415876388549805e-01 1.064987945556640625e+01 3.353136301040649414e+00 2.024959802627563477e+00
5.709000000000000000e+03 3.083958435058593750e+01 6.593849658966064453e-01 -3.370888903737068176e-02 2.182953059673309326e-01 5.537592619657516479e-02 -4.906103387475013733e-02
5.710000000000000000e+03 4.311330032348632812e+01 1.864236640930175781e+01 1.071806997060775757e-01 1.869110941886901855e+00 5.928875207901000977e-01 8.423759937286376953e-01
5.711000000000000000e+03 4.499127578735351562e+01 2.010555267333984375e+01 1.837048083543777466e-01 2.487574577331542969e+00 8.013837933540344238e-01 1.125716209411621094e+00
5.712000000000000000e+03 4.554212951660156250e+01 2.040685081481933594e+01 1.836375594139099121e-01 2.728890180587768555e+00 8.737583160400390625e-01 1.203226566314697266e+00
5.713000000000000000e+03 1.139505672454833984e+01 8.991863250732421875e+00 8.356906473636627197e-02 1.777357757091522217e-01 7.839144766330718994e-02 -9.026103653013706207e-03
5.714000000000000000e+03 4.627033615112304688e+01 2.180136871337890625e+01 3.362454175949096680e-01 2.961909055709838867e+00 9.894463419914245605e-01 1.406936287879943848e+00
5.715000000000000000e+03 4.431487274169921875e+01 1.996179962158203125e+01 1.967752277851104736e-01 2.204751253128051758e+00 7.204579114913940430e-01 1.038048386573791504e+00
5.716000000000000000e+03 3.894452285766601562e+01 -3.400869369506835938e+00 -1.722276806831359863e-01 1.738912820816040039e+00 4.700055122375488281e-01 1.461727172136306763e-02
5.717000000000000000e+03 4.043297958374023438e+01 -3.812379360198974609e+00 -2.107861638069152832e-01 2.088892459869384766e+00 5.634319186210632324e-01 1.697231456637382507e-02
5.718000000000000000e+03 1.972976875305175781e+01 1.490647506713867188e+01 7.961470633745193481e-02 1.590127199888229370e-01 7.158822566270828247e-02 1.093364730477333069e-01
5.719000000000000000e+03 3.355720520019531250e+01 -7.365333437919616699e-01 -5.425928533077239990e-02 6.155190467834472656e-01 1.683779209852218628e-01 -1.670224964618682861e-02
5.720000000000000000e+03 3.312542343139648438e+01 -3.613626062870025635e-01 -4.165542498230934143e-02 5.377507209777832031e-01 1.488285809755325317e-01 -2.120238542556762695e-02
5.721000000000000000e+03 3.108661460876464844e+01 1.274766772985458374e-01 -5.462261289358139038e-02 2.409387379884719849e-01 5.589483678340911865e-02 -4.026541113853454590e-02
5.722000000000000000e+03 3.140997314453125000e+01 -4.107111990451812744e-01 -6.398847699165344238e-02 2.854863107204437256e-01 6.644934415817260742e-02 -2.979875728487968445e-02
5.723000000000000000e+03 3.431896972656250000e+01 -1.268710851669311523e+00 -6.468410044908523560e-02 7.448297739028930664e-01 2.040437012910842896e-01 -6.268445402383804321e-03
5.724000000000000000e+03 2.124233436584472656e+01 1.709899520874023438e+01 6.936357170343399048e-02 1.438968926668167114e-01 6.397813558578491211e-02 9.826547652482986450e-02
5.725000000000000000e+03 2.011490058898925781e+01 1.589187240600585938e+01 7.178544998168945312e-02 1.511158943176269531e-01 6.687039881944656372e-02 1.045115888118743896e-01
5.726000000000000000e+03 1.844308090209960938e+01 1.445795536041259766e+01 7.204068452119827271e-02 1.669462323188781738e-01 7.169607281684875488e-02 1.046431884169578552e-01
5.727000000000000000e+03 1.927123069763183594e+01 2.082587432861328125e+01 2.863472700119018555e-02 1.173153966665267944e-01 4.378503561019897461e-02 5.785709992051124573e-02
5.728000000000000000e+03 6.166145324707031250e+01 1.765161132812500000e+01 -8.735804557800292969e-01 7.998518943786621094e+00 2.137481451034545898e+00 -5.588882565498352051e-01
5.729000000000000000e+03 6.156475067138671875e+01 1.682223320007324219e+01 -8.698766827583312988e-01 7.891328811645507812e+00 2.106435537338256836e+00 -4.930101633071899414e-01
5.730000000000000000e+03 5.564431762695312500e+01 2.844197654724121094e+01 1.012114584445953369e-01 1.047798442840576172e+01 3.173758745193481445e+00 1.085517883300781250e+00
5.731000000000000000e+03 5.741022109985351562e+01 2.898116874694824219e+01 2.362673580646514893e-01 1.093367195129394531e+01 3.350981712341308594e+00 1.498539149761199951e-01
5.732000000000000000e+03 2.731220436096191406e+01 2.733126449584960938e+01 4.743659496307373047e-02 9.352803230285644531e-02 4.228938743472099304e-02 6.528197228908538818e-02
5.733000000000000000e+03 2.447201347351074219e+01 2.020685005187988281e+01 6.055450811982154846e-02 1.218082606792449951e-01 5.470883101224899292e-02 9.380309283733367920e-02
5.734000000000000000e+03 2.320513343811035156e+01 1.981212806701660156e+01 6.121998280286788940e-02 1.265858113765716553e-01 5.634173750877380371e-02 8.583921939134597778e-02
5.735000000000000000e+03 1.142123413085937500e+01 1.228664779663085938e+01 4.071801900863647461e-02 1.225655898451805115e-01 4.898508265614509583e-02 8.401385508477687836e-03
5.736000000000000000e+03 1.120903491973876953e+01 1.292550563812255859e+01 3.306297212839126587e-02 1.064018756151199341e-01 4.183945432305335999e-02 7.143858354538679123e-03
5.737000000000000000e+03 5.520385742187500000e+01 3.055005645751953125e+01 8.113287091255187988e-01 1.189714622497558594e+01 3.812542438507080078e+00 1.620639085769653320e+00
5.738000000000000000e+03 1.043788909912109375e+01 9.019671440124511719e+00 9.702114015817642212e-02 1.127207130193710327e-01 6.292255222797393799e-02 -2.475465461611747742e-02
5.739000000000000000e+03 1.990844154357910156e+01 1.819869995117187500e+01 4.942395910620689392e-02 1.346456408500671387e-01 5.522088333964347839e-02 8.245479315519332886e-02
5.740000000000000000e+03 5.708185577392578125e+01 2.800642585754394531e+01 -5.348359793424606323e-02 1.042669582366943359e+01 3.111963748931884766e+00 3.464214205741882324e-01
5.741000000000000000e+03 1.079955673217773438e+01 1.115162086486816406e+01 5.413437262177467346e-02 1.131014078855514526e-01 5.017073079943656921e-02 -3.014867193996906281e-03
5.742000000000000000e+03 3.700946807861328125e+01 -2.442587375640869141e+00 -1.143276542425155640e-01 1.300868034362792969e+00 3.559620976448059082e-01 8.635698817670345306e-03
5.743000000000000000e+03 2.559573936462402344e+01 2.689647674560546875e+01 3.219590336084365845e-02 9.937171638011932373e-02 3.947028890252113342e-02 6.884390860795974731e-02
5.744000000000000000e+03 2.675019073486328125e+01 2.527259826660156250e+01 4.151203110814094543e-02 1.076861321926116943e-01 4.475944861769676208e-02 7.976529002189636230e-02
5.745000000000000000e+03 1.608289718627929688e+01 1.280462169647216797e+01 5.861014127731323242e-02 1.898435652256011963e-01 7.453610748052597046e-02 9.262059628963470459e-02
5.746000000000000000e+03 1.554222011566162109e+01 1.659318923950195312e+01 3.000387549400329590e-02 1.321557462215423584e-01 4.864788427948951721e-02 5.344988033175468445e-02
5.747000000000000000e+03 1.536535358428955078e+01 1.736810493469238281e+01 1.749550364911556244e-02 1.233163923025131226e-01 4.224356636404991150e-02 4.756233096122741699e-02
5.748000000000000000e+03 1.160564327239990234e+01 1.154557228088378906e+01 4.442336037755012512e-02 1.393305808305740356e-01 5.512618273496627808e-02 1.043034717440605164e-02
5.749000000000000000e+03 4.188989257812500000e+01 -8.362492561340332031e+00 -2.841399908065795898e-01 2.477538824081420898e+00 6.580196022987365723e-01 -7.765676081180572510e-02
5.750000000000000000e+03 8.206404685974121094e+00 1.481920146942138672e+01 1.791927963495254517e-02 -3.562052501365542412e-03 4.307168070226907730e-03 -1.253096014261245728e-02
5.751000000000000000e+03 3.826363754272460938e+01 -3.126249313354492188e+00 -1.480734050273895264e-01 1.580479979515075684e+00 4.297219812870025635e-01 1.000577397644519806e-02
5.752000000000000000e+03 2.608897590637207031e+01 2.436605834960937500e+01 5.431893095374107361e-02 1.051626726984977722e-01 4.784448072314262390e-02 7.460792362689971924e-02
5.753000000000000000e+03 1.095820617675781250e+01 7.390698432922363281e+00 1.279555261135101318e-01 1.678266227245330811e-01 8.873464167118072510e-02 -5.167005956172943115e-02
5.754000000000000000e+03 9.656484603881835938e+00 1.366154098510742188e+01 2.960491552948951721e-02 4.933685809373855591e-02 2.368253283202648163e-02 -7.017053198069334030e-03
5.755000000000000000e+03 2.392612075805664062e+01 2.532157516479492188e+01 2.599253877997398376e-02 1.024996861815452576e-01 3.854766860604286194e-02 5.780952423810958862e-02
5.756000000000000000e+03 5.919789886474609375e+01 2.613891220092773438e+01 -3.757301867008209229e-01 9.718424797058105469e+00 2.802808523178100586e+00 -4.168499708175659180e-01
5.757000000000000000e+03 5.278990554809570312e+01 -1.198337173461914062e+01 -4.365388751029968262e-01 5.069207668304443359e+00 1.389800667762756348e+00 6.726077198982238770e-02
5.758000000000000000e+03 1.524070930480957031e+01 2.004283142089843750e+01 1.093385927379131317e-02 9.651612490415573120e-02 3.223499655723571777e-02 3.066497482359409332e-02
5.759000000000000000e+03 1.775844001770019531e+01 2.098634719848632812e+01 2.239369787275791168e-02 1.089871600270271301e-01 3.941425681114196777e-02 5.092799663543701172e-02
5.760000000000000000e+03 6.435297393798828125e+01 1.578694438934326172e+01 -7.315756678581237793e-01 7.911314487457275391e+00 2.153921604156494141e+00 -7.542052268981933594e-01
5.761000000000000000e+03 2.892221260070800781e+01 2.720865631103515625e+01 5.719752609729766846e-02 9.087146073579788208e-02 4.442069679498672485e-02 7.022916525602340698e-02
5.762000000000000000e+03 5.459800720214843750e+01 -1.373175239562988281e+01 -4.018871486186981201e-01 5.466297149658203125e+00 1.519322991371154785e+00 1.288315951824188232e-01
5.763000000000000000e+03 5.996152496337890625e+01 -1.442044353485107422e+01 -3.154006600379943848e-01 6.388042926788330078e+00 1.821792721748352051e+00 2.111463844776153564e-01
5.764000000000000000e+03 5.390651321411132812e+01 -1.515957164764404297e+01 -3.874228000640869141e-01 5.373310089111328125e+00 1.495766162872314453e+00 1.189003661274909973e-01
5.765000000000000000e+03 6.024439239501953125e+01 -1.645896720886230469e+01 -2.737207114696502686e-01 6.456455707550048828e+00 1.854820489883422852e+00 2.606551945209503174e-01
5.766000000000000000e+03 6.096700286865234375e+01 -1.709823799133300781e+01 -2.518207132816314697e-01 6.570855617523193359e+00 1.895710468292236328e+00 2.711220383644104004e-01
5.767000000000000000e+03 5.639984512329101562e+01 -1.767845916748046875e+01 -3.161414563655853271e-01 5.870440483093261719e+00 1.666289687156677246e+00 2.130875289440155029e-01
5.768000000000000000e+03 6.340100860595703125e+01 2.390720367431640625e+01 -4.771948456764221191e-01 8.826994895935058594e+00 2.504940032958984375e+00 -1.169102430343627930e+00
5.769000000000000000e+03 6.231502532958984375e+01 2.458002662658691406e+01 -4.266047477722167969e-01 9.082649230957031250e+00 2.596813440322875977e+00 -1.013216495513916016e+00
5.770000000000000000e+03 2.175418853759765625e+01 2.470283889770507812e+01 2.257850207388401031e-02 1.042818352580070496e-01 3.805810213088989258e-02 5.125579237937927246e-02
5.771000000000000000e+03 2.922039604187011719e+01 2.653817892074584961e+00 1.676556281745433807e-02 4.197642207145690918e-02 1.762259565293788910e-02 -8.626505732536315918e-02
5.772000000000000000e+03 4.306414794921875000e+01 1.812627601623535156e+01 7.498013973236083984e-02 1.915619969367980957e+00 5.971800088882446289e-01 8.264842033386230469e-01
5.773000000000000000e+03 2.840841293334960938e+01 1.600324630737304688e+00 -3.440300375223159790e-02 -2.167435362935066223e-02 -1.682320795953273773e-02 -7.844328135251998901e-02
5.774000000000000000e+03 3.920469665527343750e+01 1.378479003906250000e+01 -1.051359251141548157e-01 1.111848711967468262e+00 3.020138442516326904e-01 3.622764050960540771e-01
5.775000000000000000e+03 3.568299484252929688e+01 1.093378257751464844e+01 -2.050833702087402344e-01 5.108298659324645996e-01 9.172394126653671265e-02 1.169460341334342957e-01
5.776000000000000000e+03 4.230150222778320312e+01 1.849774169921875000e+01 1.170733347535133362e-01 1.548227787017822266e+00 4.995903670787811279e-01 7.265667319297790527e-01
5.777000000000000000e+03 1.903165817260742188e+01 1.572388267517089844e+01 6.260935962200164795e-02 1.545732766389846802e-01 6.515479087829589844e-02 9.571549296379089355e-02
5.778000000000000000e+03 1.938710403442382812e+01 1.532162952423095703e+01 7.187503576278686523e-02 1.555076241493225098e-01 6.821479648351669312e-02 1.051897034049034119e-01
5.779000000000000000e+03 4.613277435302734375e+01 2.062023735046386719e+01 1.657683998346328735e-01 3.011746406555175781e+00 9.532544016838073730e-01 1.281906485557556152e+00
5.780000000000000000e+03 4.218944168090820312e+01 1.690917778015136719e+01 1.153898052871227264e-02 1.726552605628967285e+00 5.214274525642395020e-01 6.949592232704162598e-01
5.781000000000000000e+03 3.595106506347656250e+01 9.698740959167480469e+00 -1.535161435604095459e-01 6.559470295906066895e-01 1.507292687892913818e-01 1.848668158054351807e-01
5.782000000000000000e+03 3.499216842651367188e+01 9.366802215576171875e+00 -1.629565209150314331e-01 4.821024835109710693e-01 9.574379026889801025e-02 1.382908523082733154e-01
5.783000000000000000e+03 3.558424377441406250e+01 8.315192222595214844e+00 -9.011108428239822388e-02 6.486297845840454102e-01 1.675556153059005737e-01 1.865548938512802124e-01
5.784000000000000000e+03 4.049966049194335938e+01 1.649229431152343750e+01 3.591704880818724632e-04 1.201739668846130371e+00 3.606296479701995850e-01 4.867493510246276855e-01
5.785000000000000000e+03 4.598692321777343750e+01 2.024538612365722656e+01 1.430402249097824097e-01 2.981168985366821289e+00 9.372627139091491699e-01 1.251808881759643555e+00
5.786000000000000000e+03 4.119997406005859375e+01 1.741518020629882812e+01 4.942977055907249451e-02 1.303501129150390625e+00 4.058792591094970703e-01 5.750751495361328125e-01
5.787000000000000000e+03 4.214553833007812500e+01 1.760579299926757812e+01 5.712144821882247925e-02 1.615180969238281250e+00 5.016907453536987305e-01 6.998881697654724121e-01
5.788000000000000000e+03 2.915598106384277344e+01 1.878224730491638184e+00 -1.199075672775506973e-02 4.459819570183753967e-02 9.782231412827968597e-03 -7.594496756792068481e-02
5.789000000000000000e+03 4.777830505371093750e+01 2.267646026611328125e+01 3.374105095863342285e-01 3.717488050460815430e+00 1.216469526290893555e+00 1.651088714599609375e+00
5.790000000000000000e+03 4.457301330566406250e+01 2.024467086791992188e+01 2.170810401439666748e-01 2.287783622741699219e+00 7.514594197273254395e-01 1.080390453338623047e+00
5.791000000000000000e+03 2.310725784301757812e+01 2.076306915283203125e+01 5.128829553723335266e-02 1.231581941246986389e-01 5.233394727110862732e-02 8.053097873926162720e-02
5.792000000000000000e+03 3.108757019042968750e+01 2.191392421722412109e+00 2.993540838360786438e-02 2.237218171358108521e-01 7.609716802835464478e-02 -6.965400278568267822e-02
5.793000000000000000e+03 3.145864295959472656e+01 2.057461738586425781e+00 2.164207398891448975e-02 2.714024484157562256e-01 8.791335672140121460e-02 -6.708969920873641968e-02
5.794000000000000000e+03 3.592447280883789062e+01 6.910645961761474609e+00 -2.435225062072277069e-02 7.759083509445190430e-01 2.254668325185775757e-01 1.891695559024810791e-01
5.795000000000000000e+03 3.576575851440429688e+01 7.631721973419189453e+00 -5.287653952836990356e-02 7.224476933479309082e-01 2.008713483810424805e-01 1.930737495422363281e-01
5.796000000000000000e+03 3.020101928710937500e+01 2.483044385910034180e+00 1.902821287512779236e-02 1.309018731117248535e-01 4.497902840375900269e-02 -8.475228399038314819e-02
5.797000000000000000e+03 3.636749267578125000e+01 1.073289775848388672e+01 -1.680473834276199341e-01 6.805184483528137207e-01 1.537413150072097778e-01 1.828256994485855103e-01
5.798000000000000000e+03 2.049443626403808594e+01 1.852531242370605469e+01 4.792891442775726318e-02 1.347580105066299438e-01 5.480607599020004272e-02 8.262570202350616455e-02
5.799000000000000000e+03 3.566318130493164062e+01 8.717834472656250000e+00 -1.082758307456970215e-01 6.571829319000244141e-01 1.646721363067626953e-01 1.838063895702362061e-01
5.800000000000000000e+03 5.038340377807617188e+01 2.477437591552734375e+01 3.321819901466369629e-01 5.562902927398681641e+00 1.768525481224060059e+00 2.121696949005126953e+00
5.801000000000000000e+03 5.107904052734375000e+01 2.511881637573242188e+01 2.562153041362762451e-01 6.131075382232666016e+00 1.916187167167663574e+00 2.129816055297851562e+00
5.802000000000000000e+03 1.665582084655761719e+01 1.446015739440917969e+01 5.080860108137130737e-02 1.639862954616546631e-01 6.443846970796585083e-02 8.718162775039672852e-02
5.803000000000000000e+03 1.618968963623046875e+01 1.350504302978515625e+01 5.266744643449783325e-02 1.794717609882354736e-01 6.964176148176193237e-02 8.699265122413635254e-02
5.804000000000000000e+03 3.625945281982421875e+01 6.307972908020019531e+00 -1.385762449353933334e-02 8.760607838630676270e-01 2.586609423160552979e-01 1.909502744674682617e-01
5.805000000000000000e+03 1.181177043914794922e+01 8.596648216247558594e+00 8.432265371084213257e-02 2.129420191049575806e-01 8.917940407991409302e-02 -1.023033354431390762e-02
5.806000000000000000e+03 3.421665191650390625e+01 -8.590794801712036133e-01 -5.688902363181114197e-02 7.282165288925170898e-01 2.013982385396957397e-01 -8.114401251077651978e-03
5.807000000000000000e+03 3.392353820800781250e+01 -5.994887324050068855e-04 -2.958789840340614319e-02 6.647838950157165527e-01 1.905588060617446899e-01 -1.143234316259622574e-02
5.808000000000000000e+03 3.364362335205078125e+01 7.726296782493591309e-01 -3.681225003674626350e-03 6.020659208297729492e-01 1.795154064893722534e-01 -1.505381427705287933e-02
5.809000000000000000e+03 3.349609756469726562e+01 2.317124366760253906e+00 3.983766213059425354e-02 5.436560511589050293e-01 1.750481128692626953e-01 -1.592426374554634094e-02
5.810000000000000000e+03 1.804795265197753906e+01 1.480638313293457031e+01 6.288474053144454956e-02 1.621510535478591919e-01 6.751073896884918213e-02 9.911074489355087280e-02
5.811000000000000000e+03 3.685626983642578125e+01 -1.415044307708740234e+00 -9.249126911163330078e-02 1.251643776893615723e+00 3.477457463741302490e-01 2.092562429606914520e-02
5.812000000000000000e+03 1.216680717468261719e+01 1.253904914855957031e+01 3.469317033886909485e-02 1.437165886163711548e-01 5.352292954921722412e-02 2.139839902520179749e-02
5.813000000000000000e+03 3.985051727294921875e+01 1.493254470825195312e+01 -6.868498027324676514e-02 1.172707319259643555e+00 3.312067091464996338e-01 4.194778203964233398e-01
5.814000000000000000e+03 5.508034896850585938e+01 2.842994308471679688e+01 1.215605139732360840e-01 1.030289268493652344e+01 3.127336025238037109e+00 1.416358113288879395e+00
5.815000000000000000e+03 2.022656250000000000e+01 1.755703926086425781e+01 5.414474382996559143e-02 1.403338015079498291e-01 5.834356322884559631e-02 8.958968520164489746e-02
5.816000000000000000e+03 2.031625747680664062e+01 1.696612358093261719e+01 6.581366807222366333e-02 1.449235528707504272e-01 6.322116404771804810e-02 9.371427446603775024e-02
5.817000000000000000e+03 3.549634552001953125e+01 4.561969280242919922e+00 3.373192995786666870e-02 7.966862320899963379e-01 2.491254359483718872e-01 1.096584573388099670e-01
5.818000000000000000e+03 3.606623840332031250e+01 4.766886234283447266e+00 1.746901869773864746e-02 9.021561741828918457e-01 2.758875489234924316e-01 1.380419731140136719e-01
5.819000000000000000e+03 4.873022842407226562e+01 2.312814712524414062e+01 2.862274944782257080e-01 4.339929580688476562e+00 1.387847065925598145e+00 1.793063640594482422e+00
5.820000000000000000e+03 4.367557144165039062e+01 1.872481727600097656e+01 1.002870053052902222e-01 2.079058170318603516e+00 6.538035869598388672e-01 9.104375243186950684e-01
5.821000000000000000e+03 1.779779815673828125e+01 1.446349906921386719e+01 6.365644186735153198e-02 1.683165729045867920e-01 6.959190219640731812e-02 9.906304627656936646e-02
5.822000000000000000e+03 1.738183403015136719e+01 1.472137355804443359e+01 5.417956411838531494e-02 1.620705872774124146e-01 6.487504392862319946e-02 9.233012050390243530e-02
5.823000000000000000e+03 1.526754093170166016e+01 1.291944789886474609e+01 4.994456842541694641e-02 1.850083917379379272e-01 7.048588991165161133e-02 7.820291072130203247e-02
5.824000000000000000e+03 3.206008529663085938e+01 8.533642888069152832e-01 -1.055481191724538803e-02 3.686502277851104736e-01 1.074286252260208130e-01 -4.304639995098114014e-02
5.825000000000000000e+03 4.499067687988281250e+01 1.964041328430175781e+01 1.404803544282913208e-01 2.545861721038818359e+00 8.059026002883911133e-01 1.107485175132751465e+00
5.826000000000000000e+03 4.073262023925781250e+01 -4.979959011077880859e+00 -2.308510541915893555e-01 2.174548149108886719e+00 5.831091403961181641e-01 -5.829109810292720795e-03
5.827000000000000000e+03 3.245789718627929688e+01 1.343662858009338379e+00 1.109512243419885635e-02 4.180014431476593018e-01 1.287289708852767944e-01 -4.213497787714004517e-02
5.828000000000000000e+03 3.516527938842773438e+01 3.810341119766235352e+00 4.035210609436035156e-02 7.655259966850280762e-01 2.417634278535842896e-01 7.493359595537185669e-02
5.829000000000000000e+03 1.225393581390380859e+01 8.898244857788085938e+00 7.331146299839019775e-02 2.345542013645172119e-01 9.235969930887222290e-02 1.394617371261119843e-02
5.830000000000000000e+03 1.188484668731689453e+01 9.394345283508300781e+00 6.900620460510253906e-02 1.941868215799331665e-01 7.895790785551071167e-02 3.763446817174553871e-03
5.831000000000000000e+03 1.039361953735351562e+01 1.547325992584228516e+01 1.414616685360670090e-02 5.585093423724174500e-02 2.099912986159324646e-02 -2.162584336474537849e-03
5.832000000000000000e+03 4.915628814697265625e+01 2.336887741088867188e+01 2.603339850902557373e-01 4.644562721252441406e+00 1.471468925476074219e+00 1.851711869239807129e+00
5.833000000000000000e+03 6.529253387451171875e+01 1.463935661315917969e+01 -6.751578450202941895e-01 7.854082107543945312e+00 2.153677225112915039e+00 -7.624099850654602051e-01
5.834000000000000000e+03 2.159262657165527344e+01 2.134973526000976562e+01 4.190649837255477905e-02 1.201264038681983948e-01 4.860987141728401184e-02 6.997669488191604614e-02
5.835000000000000000e+03 2.074109649658203125e+01 2.178041267395019531e+01 2.564267814159393311e-02 1.149487048387527466e-01 4.217741638422012329e-02 6.390371918678283691e-02
5.836000000000000000e+03 4.977702331542968750e+01 2.436835098266601562e+01 3.554803133010864258e-01 5.106782436370849609e+00 1.638678789138793945e+00 2.049445390701293945e+00
5.837000000000000000e+03 3.580080413818359375e+01 9.294690132141113281e+00 -1.415391713380813599e-01 6.459854245185852051e-01 1.513338834047317505e-01 1.836209595203399658e-01
5.838000000000000000e+03 4.341262817382812500e+01 -6.540565490722656250e+00 -3.090751767158508301e-01 2.847853660583496094e+00 7.616335153579711914e-01 -1.697151735424995422e-02
5.839000000000000000e+03 5.756665802001953125e+01 2.592184257507324219e+01 -4.520314037799835205e-01 9.608745574951171875e+00 2.747014284133911133e+00 1.468371450901031494e-01
5.840000000000000000e+03 5.948661804199218750e+01 2.483320617675781250e+01 -5.459778904914855957e-01 9.405017852783203125e+00 2.657711982727050781e+00 -4.324763119220733643e-01
5.841000000000000000e+03 6.140055084228515625e+01 2.123937606811523438e+01 -7.815222740173339844e-01 8.556748390197753906e+00 2.332567930221557617e+00 -6.673819422721862793e-01
5.842000000000000000e+03 3.539009094238281250e+01 3.222310304641723633e+00 3.161562234163284302e-02 8.387666940689086914e-01 2.611146867275238037e-01 6.913559138774871826e-02
5.843000000000000000e+03 1.240468978881835938e+01 9.617213249206542969e+00 6.547857820987701416e-02 2.141893953084945679e-01 8.390039205551147461e-02 2.142659202218055725e-02
5.844000000000000000e+03 1.095495223999023438e+01 8.487535476684570312e+00 1.008917316794395447e-01 1.584309637546539307e-01 7.779680937528610229e-02 -2.837139554321765900e-02
5.845000000000000000e+03 2.067227935791015625e+01 1.969386672973632812e+01 4.307298362255096436e-02 1.287050396203994751e-01 5.153340473771095276e-02 7.437317073345184326e-02
5.846000000000000000e+03 3.629095840454101562e+01 -5.229856446385383606e-02 -5.461361259222030640e-02 1.109110951423645020e+00 3.163492083549499512e-01 3.163712471723556519e-02
5.847000000000000000e+03 1.437702846527099609e+01 1.074116802215576172e+01 6.299688667058944702e-02 2.294622510671615601e-01 8.773773908615112305e-02 8.203775435686111450e-02
5.848000000000000000e+03 4.115256500244140625e+01 -3.109407424926757812e+00 -2.153229117393493652e-01 2.245836257934570312e+00 6.091540455818176270e-01 4.323801398277282715e-02
5.849000000000000000e+03 2.457380867004394531e+01 2.195277595520019531e+01 5.132841318845748901e-02 1.166712418198585510e-01 5.039989575743675232e-02 8.375573158264160156e-02
5.850000000000000000e+03 2.359700775146484375e+01 2.023790168762207031e+01 5.459880828857421875e-02 1.229582801461219788e-01 5.326712504029273987e-02 8.956934511661529541e-02
5.851000000000000000e+03 1.884262084960937500e+01 2.029700279235839844e+01 2.532240934669971466e-02 1.183658391237258911e-01 4.310647398233413696e-02 6.370984762907028198e-02
5.852000000000000000e+03 5.619560241699218750e+01 2.822044563293457031e+01 1.223020441830158234e-02 1.047289752960205078e+01 3.145538330078125000e+00 7.976803779602050781e-01
5.853000000000000000e+03 5.649979782104492188e+01 2.773875045776367188e+01 -1.183120682835578918e-01 1.022656917572021484e+01 3.032477140426635742e+00 5.941484570503234863e-01
5.854000000000000000e+03 2.426560974121093750e+01 2.430800819396972656e+01 3.860453516244888306e-02 1.073286980390548706e-01 4.377996921539306641e-02 7.159516960382461548e-02
5.855000000000000000e+03 3.778438949584960938e+01 -1.181086301803588867e+00 -1.036223247647285461e-01 1.451915740966796875e+00 4.044880270957946777e-01 4.305420443415641785e-02
5.856000000000000000e+03 1.505208396911621094e+01 1.204892539978027344e+01 5.353651940822601318e-02 2.009668350219726562e-01 7.635100930929183960e-02 8.319999277591705322e-02
5.857000000000000000e+03 1.310904788970947266e+01 1.057131576538085938e+01 4.986803233623504639e-02 2.125423848628997803e-01 7.872312515974044800e-02 4.608820751309394836e-02
5.858000000000000000e+03 4.287535095214843750e+01 -7.819986820220947266e+00 -3.034335076808929443e-01 2.733727455139160156e+00 7.290881872177124023e-01 -5.200000107288360596e-02
5.859000000000000000e+03 4.377138137817382812e+01 -7.317833900451660156e+00 -3.181996941566467285e-01 2.941268920898437500e+00 7.869207859039306641e-01 -3.259298577904701233e-02
5.860000000000000000e+03 1.273895168304443359e+01 1.734419822692871094e+01 8.016292005777359009e-03 8.849988877773284912e-02 2.895485423505306244e-02 1.800598762929439545e-02
5.861000000000000000e+03 1.462055873870849609e+01 1.711598587036132812e+01 2.200199849903583527e-02 1.152884215116500854e-01 4.118712618947029114e-02 4.000107944011688232e-02
5.862000000000000000e+03 1.152809715270996094e+01 8.172679901123046875e+00 9.521874785423278809e-02 2.001720815896987915e-01 8.861725032329559326e-02 -2.323172613978385925e-02
5.863000000000000000e+03 1.301429176330566406e+01 1.003022575378417969e+01 5.981067940592765808e-02 2.328432798385620117e-01 8.779618889093399048e-02 4.138852655887603760e-02
5.864000000000000000e+03 2.473208618164062500e+01 2.096059417724609375e+01 6.292762607336044312e-02 1.211869493126869202e-01 5.523437261581420898e-02 8.854254335165023804e-02
5.865000000000000000e+03 3.633903884887695312e+01 -1.004578828811645508e+00 -7.405429333448410034e-02 1.136369347572326660e+00 3.186945021152496338e-01 1.876544207334518433e-02
5.866000000000000000e+03 3.585698699951171875e+01 -1.579939842224121094e+00 -8.451116085052490234e-02 1.046292781829833984e+00 2.885344624519348145e-01 3.835290204733610153e-03
5.867000000000000000e+03 1.024379920959472656e+01 1.420898151397705078e+01 2.366987429559230804e-02 6.350796669721603394e-02 2.615335211157798767e-02 -2.609935123473405838e-03
5.868000000000000000e+03 5.731569671630859375e+01 2.734338378906250000e+01 -1.998949050903320312e-01 1.011453819274902344e+01 2.974392890930175781e+00 2.356843352317810059e-01
5.869000000000000000e+03 1.104245376586914062e+01 6.802859783172607422e+00 1.632867008447647095e-01 1.780134737491607666e-01 1.023900508880615234e-01 -6.604167819023132324e-02
5.870000000000000000e+03 1.468582916259765625e+01 1.925974464416503906e+01 6.813477259129285812e-03 9.544423222541809082e-02 3.067731112241744995e-02 3.341858834028244019e-02
5.871000000000000000e+03 1.678475761413574219e+01 1.755682945251464844e+01 2.793015167117118835e-02 1.299193650484085083e-01 4.735485464334487915e-02 6.046121940016746521e-02
5.872000000000000000e+03 2.084077835083007812e+01 2.266089630126953125e+01 2.934060990810394287e-02 1.118386015295982361e-01 4.235376045107841492e-02 5.761921778321266174e-02
5.873000000000000000e+03 2.367303848266601562e+01 2.637584114074707031e+01 2.485505864024162292e-02 1.038448736071586609e-01 3.860997781157493591e-02 6.048401817679405212e-02
5.874000000000000000e+03 5.967607879638671875e+01 -1.533308696746826172e+01 -3.119868040084838867e-01 6.350745677947998047e+00 1.811627626419067383e+00 2.322719991207122803e-01
5.875000000000000000e+03 6.118103790283203125e+01 2.469823646545410156e+01 -5.159649252891540527e-01 9.190922737121582031e+00 2.602487325668334961e+00 -8.060199618339538574e-01
5.876000000000000000e+03 2.336127662658691406e+01 2.403106498718261719e+01 3.003754466772079468e-02 1.085580214858055115e-01 4.157866910099983215e-02 6.034987792372703552e-02
5.877000000000000000e+03 6.059798812866210938e+01 -1.244445228576660156e+01 -3.356513082981109619e-01 6.470519542694091797e+00 1.840460538864135742e+00 1.790719181299209595e-01
5.878000000000000000e+03 6.213156509399414062e+01 2.614533805847167969e+01 -2.214806079864501953e-01 9.407550811767578125e+00 2.755820989608764648e+00 -1.031999349594116211e+00
5.879000000000000000e+03 2.133953666687011719e+01 2.717302513122558594e+01 1.687603071331977844e-02 9.250244498252868652e-02 3.281354159116744995e-02 3.966598957777023315e-02
5.880000000000000000e+03 4.176131439208984375e+01 1.667836570739746094e+01 5.222804378718137741e-03 1.589699387550354004e+00 4.784766733646392822e-01 6.421649456024169922e-01
5.881000000000000000e+03 2.843966293334960938e+01 2.307041645050048828e+00 -3.317588940262794495e-03 -2.756123803555965424e-02 -9.263648651540279388e-03 -8.727160841226577759e-02
5.882000000000000000e+03 2.970385551452636719e+01 2.465145826339721680e+00 1.683824323117733002e-02 8.867726475000381470e-02 3.165465220808982849e-02 -8.145181834697723389e-02
5.883000000000000000e+03 4.728871536254882812e+01 2.250602340698242188e+01 3.630044162273406982e-01 3.459175825119018555e+00 1.146654129028320312e+00 1.588982820510864258e+00
5.884000000000000000e+03 4.902708816528320312e+01 2.267573165893554688e+01 1.582974791526794434e-01 4.561491966247558594e+00 1.415936827659606934e+00 1.739262104034423828e+00
5.885000000000000000e+03 4.548239898681640625e+01 1.870880699157714844e+01 1.293498929589986801e-02 2.874248981475830078e+00 8.661552071571350098e-01 1.094003558158874512e+00
5.886000000000000000e+03 4.538780212402343750e+01 1.966893386840820312e+01 1.203520223498344421e-01 2.730955839157104492e+00 8.553923964500427246e-01 1.148377776145935059e+00
5.887000000000000000e+03 4.772612380981445312e+01 2.066865539550781250e+01 3.429972007870674133e-02 3.823493242263793945e+00 1.157337903976440430e+00 1.399792432785034180e+00
5.888000000000000000e+03 3.609405517578125000e+01 1.116123867034912109e+01 -1.900456249713897705e-01 5.802816748619079590e-01 1.170708164572715759e-01 1.425050348043441772e-01
5.889000000000000000e+03 4.946261596679687500e+01 2.296962928771972656e+01 1.449520140886306763e-01 4.829809665679931641e+00 1.492428421974182129e+00 1.774069190025329590e+00
5.890000000000000000e+03 2.897096824645996094e+01 2.307341337203979492e+00 3.425007162149995565e-04 1.879998296499252319e-02 5.742745008319616318e-03 -8.264090120792388916e-02
5.891000000000000000e+03 4.354029083251953125e+01 1.785990905761718750e+01 4.209169745445251465e-02 2.120210886001586914e+00 6.486907601356506348e-01 8.665126562118530273e-01
5.892000000000000000e+03 4.394779586791992188e+01 1.820819664001464844e+01 5.199235305190086365e-02 2.239613056182861328e+00 6.874816417694091797e-01 9.235092401504516602e-01
5.893000000000000000e+03 5.027043914794921875e+01 2.426862335205078125e+01 2.330646514892578125e-01 5.449403285980224609e+00 1.704740405082702637e+00 2.002525329589843750e+00
5.894000000000000000e+03 5.146661758422851562e+01 2.443838882446289062e+01 3.591345250606536865e-02 6.351869583129882812e+00 1.916334986686706543e+00 1.936851620674133301e+00
5.895000000000000000e+03 3.621379852294921875e+01 1.005371284484863281e+01 -1.580397933721542358e-01 6.877505183219909668e-01 1.589132100343704224e-01 1.877858489751815796e-01
5.896000000000000000e+03 3.670527267456054688e+01 1.028434371948242188e+01 -1.548661440610885620e-01 7.877064943313598633e-01 1.898521184921264648e-01 2.160687297582626343e-01
5.897000000000000000e+03 4.971260833740234375e+01 2.393851089477539062e+01 2.751366198062896729e-01 4.997609138488769531e+00 1.581823706626892090e+00 1.950143456459045410e+00
5.898000000000000000e+03 1.573153495788574219e+01 1.324658584594726562e+01 5.373729020357131958e-02 1.793681085109710693e-01 6.993161886930465698e-02 8.649427443742752075e-02
5.899000000000000000e+03 1.421661281585693359e+01 1.229115867614746094e+01 4.518004879355430603e-02 1.897853016853332520e-01 7.048960030078887939e-02 6.332129240036010742e-02
5.900000000000000000e+03 4.543655776977539062e+01 2.002936744689941406e+01 1.541109979152679443e-01 2.728523015975952148e+00 8.647902607917785645e-01 1.173064470291137695e+00
5.901000000000000000e+03 1.313310718536376953e+01 1.183261203765869141e+01 4.071201011538505554e-02 1.785050630569458008e-01 6.576512008905410767e-02 4.403802379965782166e-02
5.902000000000000000e+03 3.393951797485351562e+01 1.328301548957824707e+00 9.727340191602706909e-03 6.348311305046081543e-01 1.933675408363342285e-01 -7.323687430471181870e-03
5.903000000000000000e+03 3.753964996337890625e+01 1.149605941772460938e+01 -1.504130512475967407e-01 8.823198676109313965e-01 2.195720523595809937e-01 2.529093921184539795e-01
5.904000000000000000e+03 3.760967636108398438e+01 1.196337795257568359e+01 -1.536388695240020752e-01 8.614971637725830078e-01 2.123574912548065186e-01 2.472342848777770996e-01
5.905000000000000000e+03 4.711162185668945312e+01 2.013823890686035156e+01 3.514530882239341736e-02 3.574422121047973633e+00 1.082870244979858398e+00 1.338910818099975586e+00
5.906000000000000000e+03 3.064347267150878906e+01 1.449298024177551270e+00 -8.662941865622997284e-03 1.888957470655441284e-01 5.406984314322471619e-02 -6.471625715494155884e-02
5.907000000000000000e+03 3.641299819946289062e+01 9.639055252075195312e+00 -1.390024125576019287e-01 7.532716393470764160e-01 1.842807680368423462e-01 2.097714245319366455e-01
5.908000000000000000e+03 3.994151687622070312e+01 1.541095256805419922e+01 -4.700047522783279419e-02 1.149554729461669922e+00 3.307662904262542725e-01 4.268013238906860352e-01
5.909000000000000000e+03 4.183561325073242188e+01 1.730981063842773438e+01 4.361047595739364624e-02 1.537003517150878906e+00 4.741842150688171387e-01 6.608972549438476562e-01
5.910000000000000000e+03 3.071848106384277344e+01 2.191409111022949219e+00 1.944803260266780853e-02 1.894763559103012085e-01 6.267731636762619019e-02 -7.555055618286132812e-02
5.911000000000000000e+03 3.038159179687500000e+01 2.062452077865600586e+00 1.284202653914690018e-02 1.563116461038589478e-01 5.074610188603401184e-02 -7.410970330238342285e-02
5.912000000000000000e+03 4.584470367431640625e+01 1.989452743530273438e+01 1.126630008220672607e-01 2.948477983474731445e+00 9.183422923088073730e-01 1.211095690727233887e+00
5.913000000000000000e+03 3.190483283996582031e+01 -1.931150630116462708e-02 -4.214046895503997803e-02 3.459715247154235840e-01 9.114931523799896240e-02 -3.378340974450111389e-02
5.914000000000000000e+03 3.524689483642578125e+01 8.588577270507812500e+00 -1.108408123254776001e-01 5.675966739654541016e-01 1.370267570018768311e-01 1.662254780530929565e-01
5.915000000000000000e+03 3.305519485473632812e+01 1.037744760513305664e+00 2.785961376503109932e-03 5.102984309196472168e-01 1.539253294467926025e-01 -3.105876594781875610e-02
5.916000000000000000e+03 5.303392791748046875e+01 2.599753189086914062e+01 -2.002443000674247742e-02 7.868046283721923828e+00 2.354406595230102539e+00 1.924194693565368652e+00
5.917000000000000000e+03 5.242438125610351562e+01 2.599208068847656250e+01 1.392590552568435669e-01 7.380099296569824219e+00 2.255807638168334961e+00 2.097422838211059570e+00
5.918000000000000000e+03 3.221055603027343750e+01 2.152098894119262695e+00 3.415198251605033875e-02 3.617188036441802979e-01 1.187612339854240417e-01 -5.280491337180137634e-02
5.919000000000000000e+03 1.976002120971679688e+01 1.627848243713378906e+01 6.536429375410079956e-02 1.492279022932052612e-01 6.437765806913375854e-02 9.595093876123428345e-02
5.920000000000000000e+03 4.986542129516601562e+01 2.331601715087890625e+01 1.259481757879257202e-01 5.130843162536621094e+00 1.577037453651428223e+00 1.836832523345947266e+00
5.921000000000000000e+03 3.621894836425781250e+01 7.357394695281982422e+00 -4.520541056990623474e-02 8.247050642967224121e-01 2.338498979806900024e-01 2.116917818784713745e-01
5.922000000000000000e+03 5.292081832885742188e+01 2.662753486633300781e+01 1.540800482034683228e-01 7.981246471405029297e+00 2.440598011016845703e+00 2.089344739913940430e+00
5.923000000000000000e+03 5.243327331542968750e+01 2.650837516784667969e+01 2.219134569168090820e-01 7.480475425720214844e+00 2.310716629028320312e+00 2.183334350585937500e+00
5.924000000000000000e+03 5.059822463989257812e+01 2.365443801879882812e+01 5.729930847883224487e-02 5.631201744079589844e+00 1.706550240516662598e+00 1.858551263809204102e+00
5.925000000000000000e+03 3.489225006103515625e+01 2.501019239425659180e+00 2.849585935473442078e-02 7.705992460250854492e-01 2.397285401821136475e-01 3.678949549794197083e-02
5.926000000000000000e+03 3.191083908081054688e+01 1.731584310531616211e+00 1.861490309238433838e-02 3.285811245441436768e-01 1.041588112711906433e-01 -5.545825883746147156e-02
5.927000000000000000e+03 4.447140121459960938e+01 1.839868736267089844e+01 4.140578955411911011e-02 2.449892044067382812e+00 7.473893761634826660e-01 9.864260554313659668e-01
5.928000000000000000e+03 4.501617431640625000e+01 1.851023101806640625e+01 2.258963510394096375e-02 2.693705081939697266e+00 8.148884177207946777e-01 1.042077779769897461e+00
5.929000000000000000e+03 1.632429122924804688e+01 1.418482494354248047e+01 4.745715856552124023e-02 1.702559888362884521e-01 6.531394273042678833e-02 8.243698626756668091e-02
5.930000000000000000e+03 5.392276000976562500e+01 2.654265594482421875e+01 -9.463897347450256348e-02 8.646632194519042969e+00 2.565598011016845703e+00 1.707492351531982422e+00
5.931000000000000000e+03 5.547066879272460938e+01 2.779470062255859375e+01 -7.433561235666275024e-02 9.985660552978515625e+00 2.973397731781005859e+00 1.125358581542968750e+00
5.932000000000000000e+03 3.442266082763671875e+01 1.743893265724182129e+00 1.837419532239437103e-02 7.052279710769653320e-01 2.170806527137756348e-01 9.883830323815345764e-03
5.933000000000000000e+03 4.029294967651367188e+01 1.466688442230224609e+01 -7.273241877555847168e-02 1.328966498374938965e+00 3.768702447414398193e-01 4.665884971618652344e-01
5.934000000000000000e+03 2.417258834838867188e+01 2.105565643310546875e+01 4.858099296689033508e-02 1.174085289239883423e-01 4.979685693979263306e-02 8.492363989353179932e-02
5.935000000000000000e+03 2.399156188964843750e+01 2.060897827148437500e+01 6.067754328250885010e-02 1.206585168838500977e-01 5.440081655979156494e-02 8.181063085794448853e-02
5.936000000000000000e+03 2.262336349487304688e+01 2.035579109191894531e+01 5.042212083935737610e-02 1.218872144818305969e-01 5.169279873371124268e-02 8.505659550428390503e-02
5.937000000000000000e+03 5.598461532592773438e+01 2.766958236694335938e+01 -1.120487898588180542e-01 1.011813163757324219e+01 3.001824855804443359e+00 9.183467030525207520e-01
5.938000000000000000e+03 3.158128929138183594e+01 4.660996198654174805e-01 -3.050574846565723419e-02 3.060471713542938232e-01 8.266242593526840210e-02 -4.647335037589073181e-02
5.939000000000000000e+03 1.759411811828613281e+01 1.517212295532226562e+01 5.560924857854843140e-02 1.604507267475128174e-01 6.481799483299255371e-02 8.831238746643066406e-02
5.940000000000000000e+03 4.282615661621093750e+01 1.767241859436035156e+01 4.494645446538925171e-02 1.884408235549926758e+00 5.788064002990722656e-01 7.842541933059692383e-01
5.941000000000000000e+03 4.826447677612304688e+01 2.289325332641601562e+01 3.076605498790740967e-01 4.046855926513671875e+00 1.306354999542236328e+00 1.729487895965576172e+00
5.942000000000000000e+03 4.855889511108398438e+01 2.240450859069824219e+01 1.830322146415710449e-01 4.269734382629394531e+00 1.335829973220825195e+00 1.678173065185546875e+00
5.943000000000000000e+03 1.751597404479980469e+01 2.005652999877929688e+01 1.540308818221092224e-02 1.136575043201446533e-01 3.871817514300346375e-02 5.186963826417922974e-02
5.944000000000000000e+03 3.640625000000000000e+01 5.473465442657470703e+00 -9.959114249795675278e-04 9.434670209884643555e-01 2.827413380146026611e-01 1.756199300289154053e-01
5.945000000000000000e+03 1.871717834472656250e+01 1.477923297882080078e+01 7.125995308160781860e-02 1.607626527547836304e-01 6.960678100585937500e-02 1.061202287673950195e-01
5.946000000000000000e+03 4.331639099121093750e+01 -8.583673477172851562e+00 -3.145647943019866943e-01 2.841783523559570312e+00 7.581655979156494141e-01 -6.373679637908935547e-02
5.947000000000000000e+03 4.496954345703125000e+01 -7.610926151275634766e+00 -3.454707860946655273e-01 3.241147279739379883e+00 8.687030076980590820e-01 -1.610331051051616669e-02
5.948000000000000000e+03 3.936063766479492188e+01 1.316641044616699219e+01 -1.143621727824211121e-01 1.224937200546264648e+00 3.331725001335144043e-01 3.856529891490936279e-01
5.949000000000000000e+03 3.961158370971679688e+01 1.350970458984375000e+01 -1.069517359137535095e-01 1.254431724548339844e+00 3.442439734935760498e-01 4.073708057403564453e-01
5.950000000000000000e+03 1.905831718444824219e+01 1.641126060485839844e+01 5.603258684277534485e-02 1.488884240388870239e-01 6.147630140185356140e-02 8.990280330181121826e-02
5.951000000000000000e+03 6.029844284057617188e+01 2.157871627807617188e+01 -8.203547596931457520e-01 8.612389564514160156e+00 2.337610483169555664e+00 -4.721789658069610596e-01
5.952000000000000000e+03 1.963073730468750000e+01 1.738640403747558594e+01 5.359009280800819397e-02 1.409588754177093506e-01 5.836468935012817383e-02 8.577988296747207642e-02
5.953000000000000000e+03 1.983971023559570312e+01 1.691553497314453125e+01 5.820963531732559204e-02 1.428565084934234619e-01 6.031984463334083557e-02 9.079544246196746826e-02
5.954000000000000000e+03 1.253359031677246094e+01 1.068027305603027344e+01 5.542110279202461243e-02 1.930413842201232910e-01 7.453874498605728149e-02 2.757451310753822327e-02
5.955000000000000000e+03 5.779227066040039062e+01 2.443299865722656250e+01 -6.623021364212036133e-01 9.106842994689941406e+00 2.533362388610839844e+00 7.547470182180404663e-02
5.956000000000000000e+03 1.538390922546386719e+01 1.374952507019042969e+01 4.353155195713043213e-02 1.719131916761398315e-01 6.463342159986495972e-02 7.308764010667800903e-02
5.957000000000000000e+03 4.273048019409179688e+01 -4.889141082763671875e+00 -2.736759483814239502e-01 2.650578975677490234e+00 7.130709290504455566e-01 1.693226955831050873e-02
5.958000000000000000e+03 4.238656616210937500e+01 -4.086425304412841797e+00 -2.594206631183624268e-01 2.557299137115478516e+00 6.893635988235473633e-01 3.088822029531002045e-02
5.959000000000000000e+03 1.861376571655273438e+01 1.884788703918457031e+01 3.397892788052558899e-02 1.304921954870223999e-01 4.934133961796760559e-02 6.783618777990341187e-02
5.960000000000000000e+03 1.409475612640380859e+01 1.147829818725585938e+01 5.147584527730941772e-02 2.059538960456848145e-01 7.722891867160797119e-02 6.555634737014770508e-02
5.961000000000000000e+03 1.254349708557128906e+01 1.118367385864257812e+01 4.318697005510330200e-02 1.777219921350479126e-01 6.627269089221954346e-02 3.005347773432731628e-02
5.962000000000000000e+03 3.691179656982421875e+01 4.441276550292968750e+00 -6.159425247460603714e-03 1.097105503082275391e+00 3.272837996482849121e-01 1.639680415391921997e-01
5.963000000000000000e+03 5.163488388061523438e+01 2.496795654296875000e+01 8.910256624221801758e-02 6.544376373291015625e+00 1.990043640136718750e+00 2.016044855117797852e+00
5.964000000000000000e+03 3.891249847412109375e+01 -1.784251809120178223e+00 -1.363916099071502686e-01 1.708852291107177734e+00 4.717382192611694336e-01 4.514735564589500427e-02
5.965000000000000000e+03 3.834282302856445312e+01 -1.497031211853027344e+00 -1.265686452388763428e-01 1.579712629318237305e+00 4.359431862831115723e-01 4.425464197993278503e-02
5.966000000000000000e+03 2.350836181640625000e+01 2.180415344238281250e+01 3.993780165910720825e-02 1.153076067566871643e-01 4.657362401485443115e-02 7.590344548225402832e-02
5.967000000000000000e+03 2.201520538330078125e+01 2.312354850769042969e+01 3.184652701020240784e-02 1.153812035918235779e-01 4.416831955313682556e-02 6.356973201036453247e-02
5.968000000000000000e+03 6.127711868286132812e+01 1.513672161102294922e+01 -8.641174435615539551e-01 7.656584739685058594e+00 2.037740230560302734e+00 -4.067246913909912109e-01
5.969000000000000000e+03 8.874046325683593750e+00 1.570147705078125000e+01 1.362833194434642792e-02 1.349899265915155411e-02 8.138197474181652069e-03 -1.152747590094804764e-02
5.970000000000000000e+03 4.306912231445312500e+01 -5.724719524383544922e+00 -2.904567420482635498e-01 2.749238252639770508e+00 7.376344203948974609e-01 -3.687290474772453308e-03
5.971000000000000000e+03 1.629748535156250000e+01 1.817462158203125000e+01 2.059762179851531982e-02 1.207153648138046265e-01 4.239389672875404358e-02 5.413061380386352539e-02
5.972000000000000000e+03 1.680187225341796875e+01 1.885067939758300781e+01 2.370799705386161804e-02 1.202914789319038391e-01 4.319984093308448792e-02 5.110287666320800781e-02
5.973000000000000000e+03 1.246351242065429688e+01 1.821938705444335938e+01 9.078545495867729187e-03 7.499143481254577637e-02 2.522099390625953674e-02 1.565894298255443573e-02
5.974000000000000000e+03 2.264903068542480469e+01 2.196486854553222656e+01 4.459738731384277344e-02 1.195718646049499512e-01 4.925077781081199646e-02 7.365355640649795532e-02
5.975000000000000000e+03 2.124485015869140625e+01 2.041128349304199219e+01 3.729019314050674438e-02 1.224233508110046387e-01 4.791406542062759399e-02 7.640880346298217773e-02
5.976000000000000000e+03 2.004999732971191406e+01 1.919568252563476562e+01 4.205809906125068665e-02 1.278820931911468506e-01 5.098205804824829102e-02 7.789575308561325073e-02
5.977000000000000000e+03 5.671815872192382812e+01 2.645710372924804688e+01 -3.685736656188964844e-01 9.698926925659179688e+00 2.799105882644653320e+00 4.854864776134490967e-01
5.978000000000000000e+03 1.138673114776611328e+01 1.396415996551513672e+01 2.489663101732730865e-02 9.752804785966873169e-02 3.672740235924720764e-02 9.390500374138355255e-03
5.979000000000000000e+03 3.725141525268554688e+01 -8.242860436439514160e-01 -8.349637687206268311e-02 1.321169853210449219e+00 3.713020384311676025e-01 4.063649475574493408e-02
5.980000000000000000e+03 4.150412368774414062e+01 -1.997082233428955078e+00 -2.143110334873199463e-01 2.310505151748657227e+00 6.288582086563110352e-01 7.583133876323699951e-02
5.981000000000000000e+03 4.068671798706054688e+01 -2.424513101577758789e+00 -1.977692842483520508e-01 2.138283729553222656e+00 5.821543335914611816e-01 5.759298428893089294e-02
5.982000000000000000e+03 1.628735542297363281e+01 1.661854171752929688e+01 2.802826277911663055e-02 1.377262473106384277e-01 4.972635209560394287e-02 6.317389011383056641e-02
5.983000000000000000e+03 1.749812507629394531e+01 1.771116447448730469e+01 3.681503608822822571e-02 1.350046396255493164e-01 5.154590308666229248e-02 6.624064594507217407e-02
5.984000000000000000e+03 1.493027782440185547e+01 1.594524955749511719e+01 2.986730635166168213e-02 1.363036334514617920e-01 4.985127970576286316e-02 5.119463801383972168e-02
5.985000000000000000e+03 6.293592071533203125e+01 2.101560592651367188e+01 -7.191683053970336914e-01 8.490019798278808594e+00 2.331255435943603516e+00 -8.931882381439208984e-01
5.986000000000000000e+03 3.507676696777343750e+01 3.739407062530517578e-01 -2.362364903092384338e-02 8.614956736564636230e-01 2.513616085052490234e-01 1.373663917183876038e-02
5.987000000000000000e+03 3.395484542846679688e+01 -4.562188684940338135e-01 -3.949851170182228088e-02 6.753833293914794922e-01 1.907654553651809692e-01 -1.255181152373552322e-02
5.988000000000000000e+03 3.585356140136718750e+01 3.091409206390380859e-01 -3.942524269223213196e-02 1.016077041625976562e+00 2.929955422878265381e-01 2.561826817691326141e-02
5.989000000000000000e+03 6.023372268676757812e+01 2.521737480163574219e+01 -4.753230214118957520e-01 9.396347999572753906e+00 2.676307678222656250e+00 -6.309437155723571777e-01
5.990000000000000000e+03 2.392331695556640625e+01 2.320044517517089844e+01 3.567146509885787964e-02 1.139270812273025513e-01 4.487956315279006958e-02 7.745932787656784058e-02
5.991000000000000000e+03 4.125590896606445312e+01 -3.766489267349243164e+00 -2.274956405162811279e-01 2.277908563613891602e+00 6.151239275932312012e-01 2.600417658686637878e-02
5.992000000000000000e+03 6.093255615234375000e+01 -1.139845943450927734e+01 -3.477992713451385498e-01 6.531911373138427734e+00 1.855233669281005859e+00 1.634398102760314941e-01
5.993000000000000000e+03 6.291831207275390625e+01 1.411060619354248047e+01 -7.992437481880187988e-01 7.683673858642578125e+00 2.065329074859619141e+00 -5.556518435478210449e-01
5.994000000000000000e+03 6.417357635498046875e+01 1.477586364746093750e+01 -7.448388934135437012e-01 7.818318367004394531e+00 2.122043848037719727e+00 -6.999817490577697754e-01
5.995000000000000000e+03 5.659582901000976562e+01 -1.366646480560302734e+01 -3.879099190235137939e-01 5.811149120330810547e+00 1.626971840858459473e+00 1.602112352848052979e-01
5.996000000000000000e+03 5.752742767333984375e+01 -1.504835510253906250e+01 -3.560382425785064697e-01 6.007344722747802734e+00 1.695392012596130371e+00 1.947751790285110474e-01
5.997000000000000000e+03 5.962507247924804688e+01 -1.695381927490234375e+01 -2.804331779479980469e-01 6.371270656585693359e+00 1.827251195907592773e+00 2.580576539039611816e-01
5.998000000000000000e+03 5.844618225097656250e+01 -1.199945354461669922e+01 -3.730931282043457031e-01 6.115210533142089844e+00 1.722635269165039062e+00 1.572213470935821533e-01
5.999000000000000000e+03 2.833294296264648438e+01 1.986094713211059570e+00 -2.413981221616268158e-02 -3.622980043292045593e-02 -1.811088435351848602e-02 -8.285667002201080322e-02
6.000000000000000000e+03 3.986212158203125000e+01 1.385728740692138672e+01 -9.990005940198898315e-02 1.285180926322937012e+00 3.555842339992523193e-01 4.279965162277221680e-01
6.001000000000000000e+03 4.122014617919921875e+01 1.417602443695068359e+01 -9.366451948881149292e-02 1.678543925285339355e+00 4.754638373851776123e-01 5.593371987342834473e-01
6.002000000000000000e+03 4.200242996215820312e+01 1.623443031311035156e+01 -2.225101180374622345e-02 1.712893605232238770e+00 5.071927905082702637e-01 6.609622240066528320e-01
6.003000000000000000e+03 4.075583267211914062e+01 1.586200904846191406e+01 -3.029263019561767578e-02 1.358376264572143555e+00 3.984250724315643311e-01 5.183008313179016113e-01
6.004000000000000000e+03 4.158112335205078125e+01 1.606486701965332031e+01 -2.017699182033538818e-02 1.599461913108825684e+00 4.737854897975921631e-01 6.164762973785400391e-01
6.005000000000000000e+03 4.303709030151367188e+01 1.696713829040527344e+01 -4.886519629508256912e-03 2.022789716720581055e+00 6.053709387779235840e-01 7.836614251136779785e-01
6.006000000000000000e+03 3.712118530273437500e+01 1.061681270599365234e+01 -1.497903913259506226e-01 8.587110638618469238e-01 2.126761972904205322e-01 2.369034439325332642e-01
6.007000000000000000e+03 5.125961685180664062e+01 2.394421958923339844e+01 -2.350841276347637177e-02 6.137965202331542969e+00 1.834337115287780762e+00 1.851888298988342285e+00
6.008000000000000000e+03 3.965462493896484375e+01 1.451115703582763672e+01 -8.360762149095535278e-02 1.161213040351867676e+00 3.232816457748413086e-01 4.016132056713104248e-01
6.009000000000000000e+03 4.660453033447265625e+01 2.040133857727050781e+01 1.215730533003807068e-01 3.259825706481933594e+00 1.014419555664062500e+00 1.336575269699096680e+00
6.010000000000000000e+03 4.255659866333007812e+01 1.724923896789550781e+01 2.318169549107551575e-02 1.824809908866882324e+00 5.543974637985229492e-01 7.422047853469848633e-01
6.011000000000000000e+03 4.326819992065429688e+01 1.741199874877929688e+01 1.847274415194988251e-02 2.053033113479614258e+00 6.214517951011657715e-01 8.210941553115844727e-01
6.012000000000000000e+03 4.980351638793945312e+01 2.256336593627929688e+01 1.952216774225234985e-02 5.054374694824218750e+00 1.522169113159179688e+00 1.705534577369689941e+00
6.013000000000000000e+03 4.642261886596679688e+01 2.002990150451660156e+01 8.550991117954254150e-02 3.227847576141357422e+00 9.940072298049926758e-01 1.282480597496032715e+00
6.014000000000000000e+03 4.393643188476562500e+01 1.751818466186523438e+01 8.223365992307662964e-03 2.324632167816162109e+00 6.998566389083862305e-01 9.052091836929321289e-01
6.015000000000000000e+03 4.427239990234375000e+01 1.779356384277343750e+01 9.291552007198333740e-03 2.434747457504272461e+00 7.332116961479187012e-01 9.391373395919799805e-01
6.016000000000000000e+03 4.676291275024414062e+01 2.081319999694824219e+01 1.541199982166290283e-01 3.289695501327514648e+00 1.033144593238830566e+00 1.361384630203247070e+00
6.017000000000000000e+03 4.008533477783203125e+01 1.424645805358886719e+01 -8.823006600141525269e-02 1.306479692459106445e+00 3.654749095439910889e-01 4.469402730464935303e-01
6.018000000000000000e+03 4.841537475585937500e+01 2.165248298645019531e+01 9.087427705526351929e-02 4.199605941772460938e+00 1.287144064903259277e+00 1.560189008712768555e+00
6.019000000000000000e+03 4.517089462280273438e+01 1.917593574523925781e+01 7.616648823022842407e-02 2.674943923950195312e+00 8.253331184387207031e-01 1.095128536224365234e+00
6.020000000000000000e+03 4.580644989013671875e+01 1.902609062194824219e+01 1.809303835034370422e-02 3.006651401519775391e+00 9.074233174324035645e-01 1.149069666862487793e+00
6.021000000000000000e+03 3.693174362182617188e+01 9.770446777343750000e+00 -1.330387890338897705e-01 8.765172958374023438e-01 2.230435460805892944e-01 2.409797608852386475e-01
6.022000000000000000e+03 3.288192749023437500e+01 4.479652643203735352e-01 -1.829954981803894043e-02 4.869081377983093262e-01 1.405825763940811157e-01 -3.020029328763484955e-02
6.023000000000000000e+03 4.889349365234375000e+01 2.192807197570800781e+01 6.705403327941894531e-02 4.486969470977783203e+00 1.366207122802734375e+00 1.631484508514404297e+00
6.024000000000000000e+03 4.805601119995117188e+01 2.212409400939941406e+01 2.041616588830947876e-01 3.972381591796875000e+00 1.252962946891784668e+00 1.611281394958496094e+00
6.025000000000000000e+03 3.870370864868164062e+01 1.221481227874755859e+01 -1.314974278211593628e-01 1.114303588867187500e+00 2.948418259620666504e-01 3.353486955165863037e-01
6.026000000000000000e+03 3.971442031860351562e+01 1.290419578552246094e+01 -1.214294433593750000e-01 1.325749874114990234e+00 3.612961173057556152e-01 4.144751429557800293e-01
6.027000000000000000e+03 5.202375030517578125e+01 2.703815078735351562e+01 4.965254664421081543e-01 7.307647705078125000e+00 2.341252088546752930e+00 2.465432405471801758e+00
6.028000000000000000e+03 1.934858322143554688e+01 1.790567398071289062e+01 4.517121240496635437e-02 1.384162902832031250e-01 5.507624894380569458e-02 8.064301311969757080e-02
6.029000000000000000e+03 3.666888046264648438e+01 6.103233337402343750e+00 -2.094357460737228394e-02 9.887512326240539551e-01 2.903423011302947998e-01 2.045737653970718384e-01
6.030000000000000000e+03 3.705384826660156250e+01 6.885829925537109375e+00 -4.813075810670852661e-02 1.034837841987609863e+00 2.960121333599090576e-01 2.341392189264297485e-01
6.031000000000000000e+03 3.604129409790039062e+01 3.388771295547485352e+00 1.575523056089878082e-02 9.551087021827697754e-01 2.912591695785522461e-01 1.015412732958793640e-01
6.032000000000000000e+03 3.634720611572265625e+01 4.204751491546630859e+00 1.108198799192905426e-02 9.821813702583312988e-01 2.979789972305297852e-01 1.356149464845657349e-01
6.033000000000000000e+03 3.559286117553710938e+01 2.617203712463378906e+00 1.560471672564744949e-02 8.889462947845458984e-01 2.713653147220611572e-01 6.428424268960952759e-02
6.034000000000000000e+03 3.126382446289062500e+01 9.270064830780029297e-01 -1.858318410813808441e-02 2.594782114028930664e-01 7.226850837469100952e-02 -5.410920828580856323e-02
6.035000000000000000e+03 4.039492797851562500e+01 1.539827060699462891e+01 -4.882782697677612305e-02 1.284365057945251465e+00 3.706611692905426025e-01 4.754931628704071045e-01
6.036000000000000000e+03 3.442216110229492188e+01 9.388670325279235840e-01 -3.097988897934556007e-03 7.372246980667114258e-01 2.202380150556564331e-01 4.876501392573118210e-03
6.037000000000000000e+03 1.790260505676269531e+01 1.555316829681396484e+01 5.396205559372901917e-02 1.555838137865066528e-01 6.286375969648361206e-02 9.080103039741516113e-02
6.038000000000000000e+03 1.870844650268554688e+01 1.682946205139160156e+01 4.991878569126129150e-02 1.412072032690048218e-01 5.733779445290565491e-02 8.407985419034957886e-02
6.039000000000000000e+03 3.763861846923828125e+01 1.246517562866210938e+01 -1.515630930662155151e-01 8.224631547927856445e-01 2.012700140476226807e-01 2.373814880847930908e-01
6.040000000000000000e+03 3.711946487426757812e+01 1.248694229125976562e+01 -1.661513000726699829e-01 6.980062723159790039e-01 1.595564782619476318e-01 1.896045058965682983e-01
6.041000000000000000e+03 5.235033798217773438e+01 2.540517616271972656e+01 2.124807424843311310e-02 7.181867122650146484e+00 2.160934686660766602e+00 1.973776817321777344e+00
6.042000000000000000e+03 5.442974853515625000e+01 2.622750854492187500e+01 -2.303537130355834961e-01 8.790956497192382812e+00 2.568180799484252930e+00 1.451080083847045898e+00
6.043000000000000000e+03 1.702385139465332031e+01 1.557012939453125000e+01 4.386290162801742554e-02 1.514854282140731812e-01 5.860449746251106262e-02 8.048411458730697632e-02
6.044000000000000000e+03 3.738299179077148438e+01 1.105116462707519531e+01 -1.518853902816772461e-01 8.873721361160278320e-01 2.206460237503051758e-01 2.511737942695617676e-01
6.045000000000000000e+03 1.317809295654296875e+01 1.117191219329833984e+01 5.092952027916908264e-02 1.965733170509338379e-01 7.425084710121154785e-02 4.377656057476997375e-02
6.046000000000000000e+03 1.454850292205810547e+01 1.181710433959960938e+01 5.481529608368873596e-02 1.991963833570480347e-01 7.620350271463394165e-02 7.690740376710891724e-02
6.047000000000000000e+03 1.996343421936035156e+01 2.033268356323242188e+01 3.048283047974109650e-02 1.197287812829017639e-01 4.506348446011543274e-02 6.960081309080123901e-02
6.048000000000000000e+03 3.608128356933593750e+01 8.081192016601562500e+00 -7.405415177345275879e-02 7.678480744361877441e-01 2.081381678581237793e-01 2.129802703857421875e-01
6.049000000000000000e+03 3.645343017578125000e+01 8.505089759826660156e+00 -9.314855188131332397e-02 8.320275545120239258e-01 2.216636985540390015e-01 2.286356389522552490e-01
6.050000000000000000e+03 5.962690734863281250e+01 1.620892524719238281e+01 -9.279609918594360352e-01 7.596673011779785156e+00 2.000613689422607422e+00 -2.292807251214981079e-01
6.051000000000000000e+03 5.928540420532226562e+01 1.466474819183349609e+01 -9.133111238479614258e-01 7.337588787078857422e+00 1.927283406257629395e+00 -1.600577682256698608e-01
6.052000000000000000e+03 6.027188491821289062e+01 2.278752136230468750e+01 -7.424950599670410156e-01 8.867831230163574219e+00 2.437600851058959961e+00 -5.302204489707946777e-01
6.053000000000000000e+03 5.013465118408203125e+01 2.376563072204589844e+01 1.690025627613067627e-01 5.344711780548095703e+00 1.654114365577697754e+00 1.922617793083190918e+00
6.054000000000000000e+03 1.900949478149414062e+01 1.928734207153320312e+01 3.233040869235992432e-02 1.263340264558792114e-01 4.759933054447174072e-02 6.992011517286300659e-02
6.055000000000000000e+03 1.947671127319335938e+01 1.977315139770507812e+01 3.524812683463096619e-02 1.251850277185440063e-01 4.812994599342346191e-02 6.502572447061538696e-02
6.056000000000000000e+03 6.238799285888671875e+01 1.346398925781250000e+01 -8.088129758834838867e-01 7.570931911468505859e+00 2.028635740280151367e+00 -4.743743836879730225e-01
6.057000000000000000e+03 6.386700820922851562e+01 1.374688434600830078e+01 -7.401989698410034180e-01 7.712775707244873047e+00 2.091773033142089844e+00 -6.114940047264099121e-01
6.058000000000000000e+03 3.729387664794921875e+01 7.179943084716796875e+00 -5.903262645006179810e-02 1.073370575904846191e+00 3.043013811111450195e-01 2.488059997558593750e-01
6.059000000000000000e+03 3.665640640258789062e+01 7.103889942169189453e+00 -4.616911709308624268e-02 9.345352649688720703e-01 2.665098607540130615e-01 2.190342843532562256e-01
6.060000000000000000e+03 4.552540588378906250e+01 -6.449335098266601562e+00 -3.490157425403594971e-01 3.352731704711914062e+00 9.011147618293762207e-01 7.224453147500753403e-03
6.061000000000000000e+03 5.177082061767578125e+01 2.367554855346679688e+01 -1.488642245531082153e-01 6.461247444152832031e+00 1.893714904785156250e+00 1.746306300163269043e+00
6.062000000000000000e+03 5.222279357910156250e+01 2.480685043334960938e+01 -6.114780157804489136e-02 6.964967250823974609e+00 2.071145772933959961e+00 1.887655735015869141e+00
6.063000000000000000e+03 2.451929664611816406e+01 1.945518875122070312e+01 6.733062118291854858e-02 1.239019483327865601e-01 5.736977234482765198e-02 9.757131338119506836e-02
6.064000000000000000e+03 1.284113883972167969e+01 1.291516399383544922e+01 3.666485100984573364e-02 1.509741842746734619e-01 5.629170686006546021e-02 3.525327518582344055e-02
6.065000000000000000e+03 3.922005844116210938e+01 -1.145836353302001953e+00 -1.403239518404006958e-01 1.761961340904235840e+00 4.864912331104278564e-01 6.517230719327926636e-02
6.066000000000000000e+03 3.866593170166015625e+01 -8.760061860084533691e-01 -1.182178556919097900e-01 1.645204067230224609e+00 4.580958783626556396e-01 6.179522350430488586e-02
6.067000000000000000e+03 1.481818103790283203e+01 1.534981155395507812e+01 2.767977677285671234e-02 1.412328481674194336e-01 5.067379027605056763e-02 5.406774580478668213e-02
6.068000000000000000e+03 1.631928634643554688e+01 1.583535575866699219e+01 4.079013317823410034e-02 1.479218453168869019e-01 5.661359429359436035e-02 6.832307577133178711e-02
6.069000000000000000e+03 3.127839279174804688e+01 -1.301055669784545898e+00 -1.019399315118789673e-01 2.640410065650939941e-01 4.863031953573226929e-02 -1.013829372823238373e-02
6.070000000000000000e+03 5.596659469604492188e+01 2.631178092956542969e+01 -3.605374991893768311e-01 9.496493339538574219e+00 2.740786790847778320e+00 8.332263231277465820e-01
6.071000000000000000e+03 3.745673751831054688e+01 4.691737651824951172e+00 -2.738928981125354767e-02 1.210989594459533691e+00 3.550800979137420654e-01 1.900819242000579834e-01
6.072000000000000000e+03 1.475486564636230469e+01 1.259189510345458984e+01 5.047906935214996338e-02 1.851980835199356079e-01 7.070314884185791016e-02 7.535050064325332642e-02
6.073000000000000000e+03 1.383339977264404297e+01 1.278993892669677734e+01 4.064346849918365479e-02 1.707496643066406250e-01 6.341794133186340332e-02 5.411827564239501953e-02
6.074000000000000000e+03 1.836457252502441406e+01 1.656182289123535156e+01 4.593675583600997925e-02 1.484317928552627563e-01 5.831056460738182068e-02 8.208045363426208496e-02
6.075000000000000000e+03 5.899031066894531250e+01 2.529967689514160156e+01 -5.053414702415466309e-01 9.491947174072265625e+00 2.695981740951538086e+00 -3.127732872962951660e-01
6.076000000000000000e+03 1.273217010498046875e+01 1.464997291564941406e+01 2.143659442663192749e-02 1.201794296503067017e-01 4.248480871319770813e-02 2.529415115714073181e-02
6.077000000000000000e+03 6.507113647460937500e+01 1.350629425048828125e+01 -6.892369389533996582e-01 7.763721942901611328e+00 2.122345447540283203e+00 -6.911842226982116699e-01
6.078000000000000000e+03 1.326373386383056641e+01 1.563828659057617188e+01 1.618413627147674561e-02 1.164616495370864868e-01 3.979373723268508911e-02 2.954539284110069275e-02
6.079000000000000000e+03 1.407070636749267578e+01 1.559999370574951172e+01 2.516812644898891449e-02 1.294225305318832397e-01 4.637719690799713135e-02 3.966751694679260254e-02
6.080000000000000000e+03 4.461552429199218750e+01 -8.774751663208007812e+00 -3.413297235965728760e-01 3.174451828002929688e+00 8.499366641044616699e-01 -4.750025644898414612e-02
6.081000000000000000e+03 1.432909202575683594e+01 1.619534301757812500e+01 2.091402746737003326e-02 1.230729222297668457e-01 4.319608584046363831e-02 4.167794436216354370e-02
6.082000000000000000e+03 1.460664939880371094e+01 1.479626369476318359e+01 3.224949166178703308e-02 1.478553861379623413e-01 5.403146147727966309e-02 5.262889340519905090e-02
6.083000000000000000e+03 1.764189910888671875e+01 1.696268463134765625e+01 3.693001717329025269e-02 1.417013108730316162e-01 5.358939617872238159e-02 7.351177185773849487e-02
6.084000000000000000e+03 1.812155723571777344e+01 1.913260459899902344e+01 2.244590595364570618e-02 1.242004781961441040e-01 4.399391636252403259e-02 6.218906864523887634e-02
6.085000000000000000e+03 5.995359039306640625e+01 2.102888298034667969e+01 -8.592666983604431152e-01 8.475467681884765625e+00 2.284860134124755859e+00 -3.627421855926513672e-01
6.086000000000000000e+03 5.980250549316406250e+01 2.037073135375976562e+01 -8.853619694709777832e-01 8.316198348999023438e+00 2.229250907897949219e+00 -3.447638750076293945e-01
6.087000000000000000e+03 1.175302028656005859e+01 1.039918613433837891e+01 5.875094607472419739e-02 1.685645580291748047e-01 6.819465011358261108e-02 8.606020361185073853e-03
6.088000000000000000e+03 6.247401809692382812e+01 2.006827354431152344e+01 -7.708395123481750488e-01 8.365316390991210938e+00 2.278343200683593750e+00 -7.655453085899353027e-01
6.089000000000000000e+03 5.975526428222656250e+01 1.814051246643066406e+01 -9.289459586143493652e-01 7.926738262176513672e+00 2.099337816238403320e+00 -2.913746535778045654e-01
6.090000000000000000e+03 5.988344955444335938e+01 1.693078422546386719e+01 -9.179342985153198242e-01 7.736732959747314453e+00 2.045639514923095703e+00 -2.622399926185607910e-01
6.091000000000000000e+03 1.125673103332519531e+01 1.589318180084228516e+01 1.471749134361743927e-02 7.277865707874298096e-02 2.624884434044361115e-02 7.799582555890083313e-03
6.092000000000000000e+03 5.488058090209960938e+01 2.663464927673339844e+01 -2.360517978668212891e-01 9.231729507446289062e+00 2.698703289031982422e+00 1.301115632057189941e+00
6.093000000000000000e+03 5.711927032470703125e+01 -1.266745185852050781e+01 -3.821281492710113525e-01 5.896662712097167969e+00 1.654360413551330566e+00 1.543241739273071289e-01
6.094000000000000000e+03 5.746685409545898438e+01 2.664769172668457031e+01 -3.368635177612304688e-01 9.923298835754394531e+00 2.875930786132812500e+00 2.085254341363906860e-01
6.095000000000000000e+03 6.086563873291015625e+01 2.356633377075195312e+01 -6.323848962783813477e-01 8.975286483764648438e+00 2.502870559692382812e+00 -6.587386131286621094e-01
6.096000000000000000e+03 6.123321533203125000e+01 1.939859199523925781e+01 -8.454360961914062500e-01 8.247155189514160156e+00 2.220515727996826172e+00 -5.581417083740234375e-01
6.097000000000000000e+03 4.493501663208007812e+01 1.762879943847656250e+01 -3.798026219010353088e-02 2.747675657272338867e+00 8.129085898399353027e-01 9.948626756668090820e-01
6.098000000000000000e+03 3.816300582885742188e+01 1.233682060241699219e+01 -1.407274603843688965e-01 9.634594321250915527e-01 2.468195855617523193e-01 2.885372638702392578e-01
6.099000000000000000e+03 4.083703613281250000e+01 1.546905899047851562e+01 -4.272229596972465515e-02 1.431357622146606445e+00 4.165906012058258057e-01 5.320933461189270020e-01
6.100000000000000000e+03 3.823857879638671875e+01 1.280967140197753906e+01 -1.328293383121490479e-01 9.458245038986206055e-01 2.438985407352447510e-01 2.855077981948852539e-01
6.101000000000000000e+03 4.819932174682617188e+01 2.122904777526855469e+01 5.479668080806732178e-02 4.094132423400878906e+00 1.244678735733032227e+00 1.510345935821533203e+00
6.102000000000000000e+03 3.162692451477050781e+01 1.258548736572265625e+00 5.462430417537689209e-04 3.066525757312774658e-01 9.215964376926422119e-02 -5.455809831619262695e-02
6.103000000000000000e+03 3.652336502075195312e+01 9.195110321044921875e+00 -1.195921376347541809e-01 8.107619285583496094e-01 2.073509395122528076e-01 2.255470752716064453e-01
6.104000000000000000e+03 4.222689056396484375e+01 1.575191402435302734e+01 -4.460497945547103882e-02 1.853896617889404297e+00 5.427874922752380371e-01 6.800444126129150391e-01
6.105000000000000000e+03 4.073676681518554688e+01 1.437494659423828125e+01 -8.417285978794097900e-02 1.511628508567810059e+00 4.282366931438446045e-01 5.137576460838317871e-01
6.106000000000000000e+03 4.622763442993164062e+01 1.969069290161132812e+01 6.573034077882766724e-02 3.166367292404174805e+00 9.696292877197265625e-01 1.236962199211120605e+00
6.107000000000000000e+03 4.623950576782226562e+01 1.875018310546875000e+01 -2.983512915670871735e-02 3.201483488082885742e+00 9.514945149421691895e-01 1.163070082664489746e+00
6.108000000000000000e+03 4.571157836914062500e+01 1.957431030273437500e+01 8.412530273199081421e-02 2.923974752426147461e+00 9.024299979209899902e-01 1.175275325775146484e+00
6.109000000000000000e+03 4.352057647705078125e+01 1.677146530151367188e+01 -2.643572352826595306e-02 2.238321304321289062e+00 6.635656356811523438e-01 8.325648903846740723e-01
6.110000000000000000e+03 3.999428939819335938e+01 1.319334602355957031e+01 -1.100281551480293274e-01 1.399265766143798828e+00 3.867712914943695068e-01 4.438566565513610840e-01
6.111000000000000000e+03 3.782822799682617188e+01 1.085925483703613281e+01 -1.418369263410568237e-01 9.958558082580566406e-01 2.562056779861450195e-01 2.856118083000183105e-01
6.112000000000000000e+03 3.798221588134765625e+01 1.135711383819580078e+01 -1.431504338979721069e-01 9.990829229354858398e-01 2.567797601222991943e-01 2.903148233890533447e-01
6.113000000000000000e+03 5.076060867309570312e+01 2.413162803649902344e+01 1.264492720365524292e-01 5.797582626342773438e+00 1.777209520339965820e+00 1.965200424194335938e+00
6.114000000000000000e+03 4.116605758666992188e+01 1.594212722778320312e+01 -2.299974858760833740e-02 1.485918164253234863e+00 4.388755261898040771e-01 5.688439011573791504e-01
6.115000000000000000e+03 5.471508026123046875e+01 2.582638931274414062e+01 -3.377449214458465576e-01 8.822167396545410156e+00 2.545326948165893555e+00 1.290032386779785156e+00
6.116000000000000000e+03 4.088941574096679688e+01 1.474440670013427734e+01 -7.565055787563323975e-02 1.514873027801513672e+00 4.317667484283447266e-01 5.285974144935607910e-01
6.117000000000000000e+03 4.055879211425781250e+01 1.498569297790527344e+01 -6.262262165546417236e-02 1.375553369522094727e+00 3.938792347908020020e-01 4.932159781455993652e-01
6.118000000000000000e+03 1.365639114379882812e+01 1.422730827331542969e+01 2.727326005697250366e-02 1.440512537956237793e-01 5.139735341072082520e-02 4.085615649819374084e-02
6.119000000000000000e+03 1.560930728912353516e+01 1.457014846801757812e+01 3.728621080517768860e-02 1.599426865577697754e-01 5.916867032647132874e-02 6.918630748987197876e-02
6.120000000000000000e+03 1.504529094696044922e+01 1.431999397277832031e+01 3.894881531596183777e-02 1.570013910531997681e-01 5.878506228327751160e-02 6.472403556108474731e-02
6.121000000000000000e+03 1.553502082824707031e+01 1.522268486022949219e+01 3.913310170173645020e-02 1.500623077154159546e-01 5.675862357020378113e-02 6.373038887977600098e-02
6.122000000000000000e+03 3.418325042724609375e+01 4.714156389236450195e-01 -1.371976360678672791e-02 7.006468176841735840e-01 2.060781270265579224e-01 -3.947091754525899887e-03
6.123000000000000000e+03 3.472700119018554688e+01 1.278817892074584961e+00 -4.488803460844792426e-05 7.707732915878295898e-01 2.312185168266296387e-01 1.464956440031528473e-02
6.124000000000000000e+03 3.681802368164062500e+01 8.864713668823242188e+00 -1.098142564296722412e-01 8.916208744049072266e-01 2.345419824123382568e-01 2.455430179834365845e-01
6.125000000000000000e+03 1.399456501007080078e+01 1.365594959259033203e+01 3.681156411767005920e-02 1.569235026836395264e-01 5.812051892280578613e-02 5.221145600080490112e-02
6.126000000000000000e+03 1.340734100341796875e+01 1.487725448608398438e+01 2.701669558882713318e-02 1.295824199914932251e-01 4.697973653674125671e-02 3.636647388339042664e-02
6.127000000000000000e+03 5.365299224853515625e+01 2.593071174621582031e+01 -1.443131268024444580e-01 8.264935493469238281e+00 2.436186790466308594e+00 1.711418628692626953e+00
6.128000000000000000e+03 4.424606323242187500e+01 1.725681495666503906e+01 -4.028999432921409607e-02 2.472539424896240234e+00 7.296748161315917969e-01 9.049587845802307129e-01
6.129000000000000000e+03 3.828181457519531250e+01 4.465917587280273438e+00 -4.999015852808952332e-02 1.406341910362243652e+00 4.069055318832397461e-01 2.157728672027587891e-01
6.130000000000000000e+03 3.718626785278320312e+01 5.200393676757812500e+00 -1.960919611155986786e-02 1.134253740310668945e+00 3.343933820724487305e-01 1.996807605028152466e-01
6.131000000000000000e+03 3.632509613037109375e+01 2.725028991699218750e+00 4.646563029382377863e-04 1.044541716575622559e+00 3.135018944740295410e-01 9.006258100271224976e-02
6.132000000000000000e+03 3.808843994140625000e+01 1.184976100921630859e+01 -1.409764587879180908e-01 9.829658269882202148e-01 2.525967955589294434e-01 2.906279563903808594e-01
6.133000000000000000e+03 1.823739814758300781e+01 1.703690719604492188e+01 4.670953005552291870e-02 1.426960825920104980e-01 5.682168528437614441e-02 7.687054574489593506e-02
6.134000000000000000e+03 3.654322433471679688e+01 7.777624130249023438e+00 -6.708358973264694214e-02 8.877434730529785156e-01 2.461979687213897705e-01 2.275008410215377808e-01
6.135000000000000000e+03 5.353147125244140625e+01 2.457398414611816406e+01 -3.266144096851348877e-01 7.747996330261230469e+00 2.226414442062377930e+00 1.515418171882629395e+00
6.136000000000000000e+03 3.695683288574218750e+01 7.480432987213134766e+00 -6.202493980526924133e-02 9.910817742347717285e-01 2.787170410156250000e-01 2.402782738208770752e-01
6.137000000000000000e+03 3.750987243652343750e+01 9.140954971313476562e+00 -1.126474589109420776e-01 1.037815809249877930e+00 2.775505185127258301e-01 2.765679359436035156e-01
6.138000000000000000e+03 3.665222549438476562e+01 3.616157293319702148e+00 3.885863989125937223e-04 1.070134282112121582e+00 3.211568593978881836e-01 1.268183439970016479e-01
6.139000000000000000e+03 3.722491836547851562e+01 3.890747547149658203e+00 -1.971517689526081085e-02 1.190632224082946777e+00 3.512751162052154541e-01 1.567062884569168091e-01
6.140000000000000000e+03 5.295870971679687500e+01 2.531628990173339844e+01 -1.246400922536849976e-01 7.630050659179687500e+00 2.251623153686523438e+00 1.795211553573608398e+00
6.141000000000000000e+03 1.833806991577148438e+01 1.514017391204833984e+01 6.288717687129974365e-02 1.604940742254257202e-01 6.701437383890151978e-02 9.554612636566162109e-02
6.142000000000000000e+03 1.828064537048339844e+01 1.586227321624755859e+01 5.266594886779785156e-02 1.543984413146972656e-01 6.211931630969047546e-02 8.708011358976364136e-02
6.143000000000000000e+03 1.700768089294433594e+01 1.675180435180664062e+01 3.864597529172897339e-02 1.411550790071487427e-01 5.394031852483749390e-02 6.983938068151473999e-02
6.144000000000000000e+03 1.943340682983398438e+01 1.668413352966308594e+01 5.763686820864677429e-02 1.458067893981933594e-01 6.103309988975524902e-02 9.095763415098190308e-02
6.145000000000000000e+03 1.823532295227050781e+01 1.761032676696777344e+01 3.723732382059097290e-02 1.355937868356704712e-01 5.184933170676231384e-02 7.574614882469177246e-02
6.146000000000000000e+03 4.924013137817382812e+01 2.140781593322753906e+01 -5.917960405349731445e-02 4.694294929504394531e+00 1.390534639358520508e+00 1.541345238685607910e+00
6.147000000000000000e+03 5.016888046264648438e+01 2.215752983093261719e+01 -8.832725137472152710e-02 5.285552978515625000e+00 1.559167742729187012e+00 1.641206860542297363e+00
6.148000000000000000e+03 5.964601135253906250e+01 2.406297302246093750e+01 -6.607378125190734863e-01 9.126342773437500000e+00 2.539681673049926758e+00 -4.547865092754364014e-01
6.149000000000000000e+03 4.031663894653320312e+01 1.351531791687011719e+01 -1.068747416138648987e-01 1.448763132095336914e+00 4.025664925575256348e-01 4.731050431728363037e-01
6.150000000000000000e+03 3.506003952026367188e+01 1.943412303924560547e+00 1.341387629508972168e-02 8.079109191894531250e-01 2.463974356651306152e-01 3.439610451459884644e-02
6.151000000000000000e+03 3.762873458862304688e+01 1.034092426300048828e+01 -1.396200060844421387e-01 9.887800216674804688e-01 2.547479867935180664e-01 2.783525586128234863e-01
6.152000000000000000e+03 4.598014068603515625e+01 1.831527900695800781e+01 -4.568398371338844299e-02 3.119505643844604492e+00 9.221464991569519043e-01 1.113735556602478027e+00
6.153000000000000000e+03 5.421376800537109375e+01 2.577943420410156250e+01 -2.667869329452514648e-01 8.506195068359375000e+00 2.471822500228881836e+00 1.462175846099853516e+00
6.154000000000000000e+03 6.041907882690429688e+01 1.953386306762695312e+01 -8.929381966590881348e-01 8.222229957580566406e+00 2.198787450790405273e+00 -4.491164982318878174e-01
6.155000000000000000e+03 6.174780273437500000e+01 1.844656562805175781e+01 -8.539674282073974609e-01 8.111078262329101562e+00 2.177133321762084961e+00 -5.830267071723937988e-01
6.156000000000000000e+03 5.946509170532226562e+01 1.542305183410644531e+01 -9.105434417724609375e-01 7.465315818786621094e+00 1.966431617736816406e+00 -1.781008243560791016e-01
6.157000000000000000e+03 1.739910697937011719e+01 1.605983543395996094e+01 4.340781643986701965e-02 1.502315104007720947e-01 5.809179693460464478e-02 7.681126147508621216e-02
6.158000000000000000e+03 5.098324203491210938e+01 2.285962867736816406e+01 -1.288042217493057251e-01 5.811562538146972656e+00 1.704827547073364258e+00 1.690798163414001465e+00
6.159000000000000000e+03 5.023361968994140625e+01 2.293504524230957031e+01 9.731261059641838074e-03 5.358310222625732422e+00 1.610412359237670898e+00 1.759802699089050293e+00
6.160000000000000000e+03 4.974735260009765625e+01 2.174340629577636719e+01 -8.749801665544509888e-02 5.006085872650146484e+00 1.475576400756835938e+00 1.584139585494995117e+00
6.161000000000000000e+03 4.472922515869140625e+01 -4.878795146942138672e+00 -3.265042006969451904e-01 3.142709732055664062e+00 8.448616862297058105e-01 3.864066675305366516e-02
6.162000000000000000e+03 5.682922744750976562e+01 2.574837493896484375e+01 -4.769427180290222168e-01 9.482314109802246094e+00 2.701611518859863281e+00 4.606567919254302979e-01
6.163000000000000000e+03 1.059418678283691406e+01 1.760823249816894531e+01 7.255690637975931168e-03 4.679068550467491150e-02 1.621391251683235168e-02 -1.213274008478038013e-04
6.164000000000000000e+03 1.087763404846191406e+01 1.673469352722167969e+01 7.030352018773555756e-03 5.727306753396987915e-02 1.929102651774883270e-02 2.067887689918279648e-03
6.165000000000000000e+03 4.124312591552734375e+01 -2.566854000091552734e+00 -2.061171233654022217e-01 2.263082027435302734e+00 6.170894503593444824e-01 6.140727549791336060e-02
6.166000000000000000e+03 4.090063476562500000e+01 -1.800388216972351074e+00 -1.904336363077163696e-01 2.175865650177001953e+00 5.956296324729919434e-01 7.920210063457489014e-02
6.167000000000000000e+03 4.383955764770507812e+01 -9.287970542907714844e+00 -3.297286629676818848e-01 2.982049942016601562e+00 7.956963777542114258e-01 -7.232554256916046143e-02
6.168000000000000000e+03 6.347980499267578125e+01 1.876788711547851562e+01 -7.550531625747680664e-01 8.203061103820800781e+00 2.234402418136596680e+00 -8.253512978553771973e-01
6.169000000000000000e+03 3.714267730712890625e+01 1.232108995318412781e-01 -6.473084539175033569e-02 1.272873044013977051e+00 3.624426722526550293e-01 5.467002093791961670e-02
6.170000000000000000e+03 3.616337203979492188e+01 8.007721304893493652e-01 -3.127573058009147644e-02 1.068958759307861328e+00 3.113048970699310303e-01 4.781357198953628540e-02
6.171000000000000000e+03 6.016462707519531250e+01 1.445876693725585938e+01 -8.833966255187988281e-01 7.435684680938720703e+00 1.965686440467834473e+00 -2.535663843154907227e-01
6.172000000000000000e+03 4.517446136474609375e+01 -5.645710468292236328e+00 -3.397524356842041016e-01 3.274192333221435547e+00 8.803319931030273438e-01 2.327354811131954193e-02
6.173000000000000000e+03 6.637098693847656250e+01 1.344746875762939453e+01 -5.988628864288330078e-01 7.825509071350097656e+00 2.167993783950805664e+00 -7.580242753028869629e-01
6.174000000000000000e+03 4.114899444580078125e+01 -4.217833280563354492e-01 -1.804890036582946777e-01 2.198447465896606445e+00 6.053875684738159180e-01 1.234403029084205627e-01
6.175000000000000000e+03 1.881697082519531250e+01 1.763459205627441406e+01 4.561490565538406372e-02 1.392616331577301025e-01 5.546296015381813049e-02 7.839825749397277832e-02
6.176000000000000000e+03 3.955572891235351562e+01 -4.997158646583557129e-01 -1.370863318443298340e-01 1.835884571075439453e+00 5.096394419670104980e-01 9.048242866992950439e-02
6.177000000000000000e+03 3.487500381469726562e+01 8.483271598815917969e-01 -8.170214481651782990e-03 8.140134811401367188e-01 2.417529821395874023e-01 1.503075007349252701e-02
6.178000000000000000e+03 6.094549179077148438e+01 1.854521560668945312e+01 -8.961440920829772949e-01 8.079860687255859375e+00 2.155114889144897461e+00 -4.878756999969482422e-01
6.179000000000000000e+03 5.922933578491210938e+01 1.837874412536621094e+01 -9.196714162826538086e-01 7.892219543457031250e+00 2.091764450073242188e+00 -1.829080879688262939e-01
6.180000000000000000e+03 1.244233989715576172e+01 1.541360855102539062e+01 1.986096054315567017e-02 1.037396937608718872e-01 3.708019480109214783e-02 2.140756510198116302e-02
6.181000000000000000e+03 5.939591598510742188e+01 2.317567825317382812e+01 -7.211078405380249023e-01 8.927474021911621094e+00 2.461909770965576172e+00 -3.269446492195129395e-01
6.182000000000000000e+03 3.548558425903320312e+01 6.355963349342346191e-01 -2.044582366943359375e-02 9.385198950767517090e-01 2.754222154617309570e-01 2.725993469357490540e-02
6.183000000000000000e+03 3.636388397216796875e+01 1.369000196456909180e+00 -2.110409922897815704e-02 1.093330979347229004e+00 3.216680586338043213e-01 6.305579841136932373e-02
6.184000000000000000e+03 6.001954650878906250e+01 1.759438705444335938e+01 -9.247143268585205078e-01 7.864704132080078125e+00 2.081996917724609375e+00 -3.163453936576843262e-01
6.185000000000000000e+03 5.611619567871093750e+01 2.558358383178710938e+01 -4.822696447372436523e-01 9.179988861083984375e+00 2.609315633773803711e+00 7.037104964256286621e-01
6.186000000000000000e+03 6.321849822998046875e+01 1.287015819549560547e+01 -7.638226747512817383e-01 7.600224018096923828e+00 2.050920248031616211e+00 -5.196681618690490723e-01
6.187000000000000000e+03 6.111810684204101562e+01 1.422974300384521484e+01 -8.711561560630798340e-01 7.530705451965332031e+00 1.997864842414855957e+00 -3.742557764053344727e-01
6.188000000000000000e+03 5.780873107910156250e+01 2.365933036804199219e+01 -7.218247056007385254e-01 8.925052642822265625e+00 2.460968255996704102e+00 7.984852045774459839e-02
6.189000000000000000e+03 5.943815231323242188e+01 1.898519325256347656e+01 -9.349272251129150391e-01 8.024215698242187500e+00 2.126786470413208008e+00 -2.391066551208496094e-01
6.190000000000000000e+03 5.007790374755859375e+01 2.084097671508789062e+01 -2.295649647712707520e-01 5.147790908813476562e+00 1.475467801094055176e+00 1.453202009201049805e+00
6.191000000000000000e+03 4.128567504882812500e+01 1.551994419097900391e+01 -4.354723915457725525e-02 1.559023857116699219e+00 4.546429812908172607e-01 5.768744945526123047e-01
6.192000000000000000e+03 4.182755279541015625e+01 1.506974983215332031e+01 -7.142019271850585938e-02 1.784752249717712402e+00 5.139996409416198730e-01 6.267952919006347656e-01
6.193000000000000000e+03 4.658516693115234375e+01 1.944269371032714844e+01 1.032092701643705368e-02 3.362754821777343750e+00 1.011922717094421387e+00 1.249126911163330078e+00
6.194000000000000000e+03 4.762422180175781250e+01 1.976683044433593750e+01 -5.190383270382881165e-02 3.856055974960327148e+00 1.141245603561401367e+00 1.320644617080688477e+00
6.195000000000000000e+03 4.882611465454101562e+01 2.064746475219726562e+01 -8.572661876678466797e-02 4.447272777557373047e+00 1.308463931083679199e+00 1.458745837211608887e+00
6.196000000000000000e+03 4.576052474975585938e+01 1.778581809997558594e+01 -7.736028730869293213e-02 3.057885408401489258e+00 8.941575884819030762e-01 1.057915568351745605e+00
6.197000000000000000e+03 4.515473175048828125e+01 1.798264312744140625e+01 -2.632547169923782349e-02 2.796307802200317383e+00 8.309947252273559570e-01 1.028164863586425781e+00
6.198000000000000000e+03 3.947602462768554688e+01 1.251183509826660156e+01 -1.215547621250152588e-01 1.291703462600708008e+00 3.510445952415466309e-01 3.966780900955200195e-01
6.199000000000000000e+03 5.360389328002929688e+01 2.395765686035156250e+01 -4.134329259395599365e-01 7.569876194000244141e+00 2.146933078765869141e+00 1.400507807731628418e+00
6.200000000000000000e+03 3.700867080688476562e+01 1.112766742706298828e+00 -4.341889545321464539e-02 1.231883406639099121e+00 3.565393388271331787e-01 7.450293004512786865e-02
6.201000000000000000e+03 3.752342224121093750e+01 9.760837554931640625e+00 -1.267416477203369141e-01 1.001428842544555664e+00 2.624061703681945801e-01 2.763056755065917969e-01
6.202000000000000000e+03 4.131368637084960938e+01 1.463682842254638672e+01 -8.169915527105331421e-02 1.658848762512207031e+00 4.731448888778686523e-01 5.753065943717956543e-01
6.203000000000000000e+03 3.859471511840820312e+01 1.170935058593750000e+01 -1.369459778070449829e-01 1.129220247268676758e+00 2.976822853088378906e-01 3.327758014202117920e-01
6.204000000000000000e+03 1.867975997924804688e+01 1.613599395751953125e+01 5.699175968766212463e-02 1.481130272150039673e-01 6.153143942356109619e-02 9.070102125406265259e-02
6.205000000000000000e+03 3.832417297363281250e+01 1.070612144470214844e+01 -1.383733749389648438e-01 1.127972006797790527e+00 2.968795895576477051e-01 3.184790015220642090e-01
6.206000000000000000e+03 4.945849990844726562e+01 2.080784225463867188e+01 -1.499350965023040771e-01 4.841207027435302734e+00 1.407381653785705566e+00 1.467943429946899414e+00
6.207000000000000000e+03 5.023060226440429688e+01 2.137087631225585938e+01 -1.893917322158813477e-01 5.259840011596679688e+00 1.521134495735168457e+00 1.519975900650024414e+00
6.208000000000000000e+03 1.331473922729492188e+01 1.239515209197998047e+01 4.068009182810783386e-02 1.698554009199142456e-01 6.316065043210983276e-02 4.123734310269355774e-02
6.209000000000000000e+03 3.745233154296875000e+01 6.833703994750976562e+00 -5.231258273124694824e-02 1.119026780128479004e+00 3.200142383575439453e-01 2.504817247390747070e-01
6.210000000000000000e+03 5.232901000976562500e+01 2.341426849365234375e+01 -2.849777340888977051e-01 6.732417106628417969e+00 1.934231877326965332e+00 1.587659955024719238e+00
6.211000000000000000e+03 5.202922439575195312e+01 2.422870826721191406e+01 -1.235767453908920288e-01 6.720607757568359375e+00 1.979109287261962891e+00 1.793672919273376465e+00
6.212000000000000000e+03 5.101849365234375000e+01 2.351561355590820312e+01 -3.561555966734886169e-02 5.962011337280273438e+00 1.777918696403503418e+00 1.822670936584472656e+00
6.213000000000000000e+03 5.527313613891601562e+01 2.609045410156250000e+01 -3.476456105709075928e-01 9.120720863342285156e+00 2.631922483444213867e+00 1.075947284698486328e+00
6.214000000000000000e+03 3.743820190429687500e+01 6.398605346679687500e+00 -4.360443726181983948e-02 1.136548876762390137e+00 3.278833329677581787e-01 2.395725101232528687e-01
6.215000000000000000e+03 3.812136077880859375e+01 3.658970832824707031e+00 -4.554937034845352173e-02 1.392085313796997070e+00 4.039607942104339600e-01 1.854788810014724731e-01
6.216000000000000000e+03 5.056945800781250000e+01 2.180535125732421875e+01 -1.955772489309310913e-01 5.495291233062744141e+00 1.589914202690124512e+00 1.561089873313903809e+00
6.217000000000000000e+03 4.483075332641601562e+01 1.674921226501464844e+01 -9.141527116298675537e-02 2.789311885833740234e+00 8.093689680099487305e-01 9.403935670852661133e-01
6.218000000000000000e+03 4.383073425292968750e+01 1.644968795776367188e+01 -5.916265770792961121e-02 2.381733417510986328e+00 6.967712044715881348e-01 8.479263186454772949e-01
6.219000000000000000e+03 3.844636154174804688e+01 5.202237129211425781e+00 -5.784252285957336426e-02 1.423840880393981934e+00 4.097994863986968994e-01 2.461995035409927368e-01
6.220000000000000000e+03 1.621821784973144531e+01 1.516756534576416016e+01 3.845456987619400024e-02 1.552296280860900879e-01 5.810526013374328613e-02 7.429150491952896118e-02
6.221000000000000000e+03 4.643754577636718750e+01 -6.312484264373779297e+00 -3.744958341121673584e-01 3.575036764144897461e+00 9.601622819900512695e-01 2.541093900799751282e-02
6.222000000000000000e+03 4.517365646362304688e+01 -3.757078886032104492e+00 -3.281377553939819336e-01 3.229542493820190430e+00 8.704214096069335938e-01 6.681394577026367188e-02
6.223000000000000000e+03 1.305983543395996094e+01 1.394685268402099609e+01 3.058826550841331482e-02 1.378141641616821289e-01 5.052072927355766296e-02 3.533309698104858398e-02
6.224000000000000000e+03 4.055480194091796875e+01 1.395018005371093750e+01 -9.529065340757369995e-02 1.486096620559692383e+00 4.172417819499969482e-01 4.941539764404296875e-01
6.225000000000000000e+03 4.296328735351562500e+01 1.648038482666015625e+01 -2.791916020214557648e-02 2.053434133529663086e+00 6.076545119285583496e-01 7.650780677795410156e-01
6.226000000000000000e+03 3.818741989135742188e+01 1.020207881927490234e+01 -1.311814039945602417e-01 1.130069971084594727e+00 2.996665537357330322e-01 3.151315450668334961e-01
6.227000000000000000e+03 5.782007980346679688e+01 1.775860404968261719e+01 -9.402922391891479492e-01 7.547240257263183594e+00 1.982084393501281738e+00 4.917709529399871826e-02
6.228000000000000000e+03 3.529870986938476562e+01 9.942173361778259277e-01 -1.347472518682479858e-02 8.870167136192321777e-01 2.620626091957092285e-01 2.437093295156955719e-02
6.229000000000000000e+03 4.685236358642578125e+01 1.974057388305664062e+01 2.317668870091438293e-02 3.453925609588623047e+00 1.043130636215209961e+00 1.295654892921447754e+00
6.230000000000000000e+03 3.761099624633789062e+01 -2.769514918327331543e-01 -8.202515542507171631e-02 1.390031576156616211e+00 3.924019038677215576e-01 6.034501269459724426e-02
6.231000000000000000e+03 5.357332611083984375e+01 2.524935531616210938e+01 -2.443565130233764648e-01 7.924988269805908203e+00 2.304189443588256836e+00 1.608645439147949219e+00
6.232000000000000000e+03 5.775712585449218750e+01 1.631675720214843750e+01 -9.371445178985595703e-01 7.300265789031982422e+00 1.908936262130737305e+00 4.932040721178054810e-02
6.233000000000000000e+03 5.906106567382812500e+01 1.394677352905273438e+01 -8.867780566215515137e-01 7.211196422576904297e+00 1.897325515747070312e+00 -1.162743195891380310e-01
6.234000000000000000e+03 4.047454071044921875e+01 -4.865093529224395752e-01 -1.651060581207275391e-01 2.047117948532104492e+00 5.646035671234130859e-01 1.086007654666900635e-01
6.235000000000000000e+03 9.516820907592773438e+00 1.737183189392089844e+01 2.779047004878520966e-03 1.870834827423095703e-02 6.446218583732843399e-03 -8.827712386846542358e-03
6.236000000000000000e+03 4.174116134643554688e+01 -1.325871109962463379e+00 -2.098358422517776489e-01 2.356760978698730469e+00 6.440775394439697266e-01 1.033918187022209167e-01
6.237000000000000000e+03 4.411480331420898438e+01 -3.137786626815795898e+00 -2.940821051597595215e-01 2.965677738189697266e+00 8.014787435531616211e-01 7.797791808843612671e-02
6.238000000000000000e+03 4.405873489379882812e+01 -2.141933679580688477e+00 -2.889156937599182129e-01 2.938234806060791016e+00 7.947957515716552734e-01 1.037189364433288574e-01
6.239000000000000000e+03 4.439083480834960938e+01 -4.049470901489257812e+00 -3.151512742042541504e-01 3.044327259063720703e+00 8.187527656555175781e-01 5.544961243867874146e-02
6.240000000000000000e+03 5.066875839233398438e+01 2.322525024414062500e+01 -1.999613456428050995e-02 5.666728973388671875e+00 1.694019794464111328e+00 1.789821982383728027e+00
6.241000000000000000e+03 5.854808425903320312e+01 2.344676399230957031e+01 -7.412465214729309082e-01 8.950394630432128906e+00 2.462744474411010742e+00 -1.221408098936080933e-01
6.242000000000000000e+03 5.969925689697265625e+01 2.199310302734375000e+01 -8.065771460533142090e-01 8.640184402465820312e+00 2.350082159042358398e+00 -3.533057272434234619e-01
6.243000000000000000e+03 3.750157928466796875e+01 5.910027503967285156e+00 -3.630883991718292236e-02 1.176123023033142090e+00 3.419442474842071533e-01 2.326211035251617432e-01
6.244000000000000000e+03 5.864989471435546875e+01 1.705669212341308594e+01 -9.424368143081665039e-01 7.571908473968505859e+00 1.988841533660888672e+00 -8.864521980285644531e-02
6.245000000000000000e+03 4.584936904907226562e+01 -9.043207168579101562e+00 -3.669068515300750732e-01 3.456228017807006836e+00 9.267963767051696777e-01 -3.568301722407341003e-02
6.246000000000000000e+03 5.778529739379882812e+01 1.703842163085937500e+01 -9.280260205268859863e-01 7.423730373382568359e+00 1.948711395263671875e+00 6.314513087272644043e-02
6.247000000000000000e+03 5.920106124877929688e+01 1.785095977783203125e+01 -9.398942589759826660e-01 7.758625984191894531e+00 2.045619487762451172e+00 -1.721732616424560547e-01
6.248000000000000000e+03 3.811560440063476562e+01 -6.097360849380493164e-01 -9.991174936294555664e-02 1.516777873039245605e+00 4.250598251819610596e-01 6.365987658500671387e-02
6.249000000000000000e+03 4.003949356079101562e+01 -8.646388053894042969e-01 -1.564391106367111206e-01 1.948202610015869141e+00 5.375290513038635254e-01 9.144728630781173706e-02
6.250000000000000000e+03 4.006277465820312500e+01 2.589237876236438751e-02 -1.448217779397964478e-01 1.946250200271606445e+00 5.404285192489624023e-01 1.176951676607131958e-01
6.251000000000000000e+03 1.488701152801513672e+01 1.344318485260009766e+01 4.414489120244979858e-02 1.700342446565628052e-01 6.425374001264572144e-02 6.950898468494415283e-02
6.252000000000000000e+03 6.354040527343750000e+01 1.980064773559570312e+01 -7.393425703048706055e-01 8.300021171569824219e+00 2.268203496932983398e+00 -9.176629185676574707e-01
6.253000000000000000e+03 4.509578704833984375e+01 -1.027541732788085938e+01 -3.523553013801574707e-01 3.314586162567138672e+00 8.886692523956298828e-01 -7.214345037937164307e-02
6.254000000000000000e+03 5.693447494506835938e+01 2.501642227172851562e+01 -5.797585844993591309e-01 9.169018745422363281e+00 2.576778173446655273e+00 3.816105425357818604e-01
6.255000000000000000e+03 5.622594451904296875e+01 2.485762786865234375e+01 -5.738635659217834473e-01 9.000866889953613281e+00 2.528100967407226562e+00 6.546068191528320312e-01
6.256000000000000000e+03 5.894865798950195312e+01 2.423824882507324219e+01 -6.600084304809570312e-01 9.170595169067382812e+00 2.553176164627075195e+00 -2.029260396957397461e-01
6.257000000000000000e+03 5.972046279907226562e+01 1.185375404357910156e+01 -8.355264067649841309e-01 7.081904411315917969e+00 1.873913407325744629e+00 -1.712460815906524658e-01
6.258000000000000000e+03 5.906597518920898438e+01 2.052190017700195312e+01 -8.938027620315551758e-01 8.290736198425292969e+00 2.219079971313476562e+00 -1.735378056764602661e-01
6.259000000000000000e+03 1.201570034027099609e+01 1.094158935546875000e+01 5.112908408045768738e-02 1.645379215478897095e-01 6.470010429620742798e-02 1.649548299610614777e-02
6.260000000000000000e+03 4.223045730590820312e+01 1.352240180969238281e+01 -1.386180520057678223e-01 2.045627832412719727e+00 5.721029043197631836e-01 6.209019422531127930e-01
6.261000000000000000e+03 4.823692321777343750e+01 2.065633773803710938e+01 -2.105613797903060913e-02 4.142155647277832031e+00 1.236329913139343262e+00 1.440597891807556152e+00
6.262000000000000000e+03 4.085761642456054688e+01 1.317716789245605469e+01 -1.213351935148239136e-01 1.645870208740234375e+00 4.573604762554168701e-01 5.128514766693115234e-01
6.263000000000000000e+03 4.011683654785156250e+01 1.277932262420654297e+01 -1.210080236196517944e-01 1.460794568061828613e+00 4.019359648227691650e-01 4.551144540309906006e-01
6.264000000000000000e+03 4.902020263671875000e+01 2.005043220520019531e+01 -1.721059530973434448e-01 4.562372684478759766e+00 1.317079901695251465e+00 1.387381196022033691e+00
6.265000000000000000e+03 3.910317230224609375e+01 1.281514549255371094e+01 -1.284457892179489136e-01 1.174044013023376465e+00 3.136794567108154297e-01 3.615851700305938721e-01
6.266000000000000000e+03 5.097550201416015625e+01 2.151650619506835938e+01 -2.790306210517883301e-01 5.692501544952392578e+00 1.624041318893432617e+00 1.478184700012207031e+00
6.267000000000000000e+03 5.140903472900390625e+01 2.321114349365234375e+01 -1.594149470329284668e-01 6.161221981048583984e+00 1.800542116165161133e+00 1.702721953392028809e+00
6.268000000000000000e+03 4.725131225585937500e+01 1.932056045532226562e+01 -6.770112365484237671e-02 3.671328783035278320e+00 1.081088304519653320e+00 1.258819937705993652e+00
6.269000000000000000e+03 5.170429229736328125e+01 2.282925987243652344e+01 -2.442140132188796997e-01 6.276336193084716797e+00 1.809636592864990234e+00 1.612250208854675293e+00
6.270000000000000000e+03 3.794494247436523438e+01 6.942310333251953125e+00 -6.911713629961013794e-02 1.239369153976440430e+00 3.510755896568298340e-01 2.721599340438842773e-01
6.271000000000000000e+03 3.768863677978515625e+01 7.421634674072265625e+00 -7.085866481065750122e-02 1.153823614120483398e+00 3.248894810676574707e-01 2.749586701393127441e-01
6.272000000000000000e+03 3.729998016357421875e+01 8.604967117309570312e+00 -1.005342975258827209e-01 1.016430735588073730e+00 2.747689187526702881e-01 2.676950097084045410e-01
6.273000000000000000e+03 5.481662368774414062e+01 2.526951599121093750e+01 -4.203669726848602295e-01 8.641160011291503906e+00 2.466237783432006836e+00 1.171710133552551270e+00
6.274000000000000000e+03 5.544740295410156250e+01 2.541571998596191406e+01 -4.633462727069854736e-01 8.984225273132324219e+00 2.556263685226440430e+00 9.621284008026123047e-01
6.275000000000000000e+03 4.658534622192382812e+01 1.805547904968261719e+01 -1.243537738919258118e-01 3.429532766342163086e+00 9.915536642074584961e-01 1.124240040779113770e+00
6.276000000000000000e+03 4.679252624511718750e+01 1.857622337341308594e+01 -8.942623436450958252e-02 3.495160818099975586e+00 1.021720409393310547e+00 1.181544303894042969e+00
6.277000000000000000e+03 4.410223388671875000e+01 1.697168540954589844e+01 -4.363723471760749817e-02 2.438229560852050781e+00 7.183777093887329102e-01 8.882856965065002441e-01
6.278000000000000000e+03 4.222974777221679688e+01 1.447771072387695312e+01 -1.071921959519386292e-01 1.961740016937255859e+00 5.563643574714660645e-01 6.433253288269042969e-01
6.279000000000000000e+03 4.265203475952148438e+01 1.438256645202636719e+01 -1.206654012203216553e-01 2.118661880493164062e+00 5.993989109992980957e-01 6.787688136100769043e-01
6.280000000000000000e+03 4.256360244750976562e+01 1.535368537902832031e+01 -8.080814033746719360e-02 2.007037639617919922e+00 5.778688788414001465e-01 6.926645636558532715e-01
6.281000000000000000e+03 4.232450485229492188e+01 1.495508575439453125e+01 -8.391902595758438110e-02 1.959016084671020508e+00 5.625290870666503906e-01 6.663418412208557129e-01
6.282000000000000000e+03 3.747020339965820312e+01 2.462512493133544922e+00 -3.299835324287414551e-02 1.279537081718444824e+00 3.739615976810455322e-01 1.230152025818824768e-01
6.283000000000000000e+03 3.757543945312500000e+01 3.342494726181030273e+00 -2.787591516971588135e-02 1.293576121330261230e+00 3.797100484371185303e-01 1.577474921941757202e-01
6.284000000000000000e+03 3.645418167114257812e+01 2.021222591400146484e+00 -1.532972510904073715e-02 1.084375500679016113e+00 3.207137286663055420e-01 7.949199527502059937e-02
6.285000000000000000e+03 5.314494705200195312e+01 2.368373680114746094e+01 -3.837982118129730225e-01 7.296315193176269531e+00 2.073755025863647461e+00 1.466978311538696289e+00
6.286000000000000000e+03 3.814730834960937500e+01 7.690595626831054688e+00 -8.468265831470489502e-02 1.250511884689331055e+00 3.497487604618072510e-01 2.936147451400756836e-01
6.287000000000000000e+03 5.694556427001953125e+01 1.708909797668457031e+01 -9.325690865516662598e-01 7.262373924255371094e+00 1.898941516876220703e+00 1.909591108560562134e-01
6.288000000000000000e+03 5.771324920654296875e+01 1.560327816009521484e+01 -9.201936125755310059e-01 7.207175731658935547e+00 1.886094570159912109e+00 6.524180620908737183e-02
6.289000000000000000e+03 3.770905303955078125e+01 5.423565387725830078e+00 -3.977248445153236389e-02 1.240709900856018066e+00 3.602812290191650391e-01 2.187111228704452515e-01
6.290000000000000000e+03 3.949964904785156250e+01 1.087025737762451172e+01 -1.363578885793685913e-01 1.423672437667846680e+00 3.861943483352661133e-01 3.950865864753723145e-01
6.291000000000000000e+03 5.421478652954101562e+01 2.459523010253906250e+01 -4.294914305210113525e-01 8.107130050659179688e+00 2.303291559219360352e+00 1.301064014434814453e+00
6.292000000000000000e+03 4.044791793823242188e+01 1.214315032958984375e+01 -1.339779645204544067e-01 1.602387070655822754e+00 4.405227303504943848e-01 4.691555202007293701e-01
6.293000000000000000e+03 4.176565551757812500e+01 1.558502578735351562e+01 -4.580397903919219971e-02 1.718488931655883789e+00 5.018054842948913574e-01 6.296951174736022949e-01
6.294000000000000000e+03 3.802354431152343750e+01 6.046272754669189453e+00 -5.729098618030548096e-02 1.294706702232360840e+00 3.712247312068939209e-01 2.466417104005813599e-01
6.295000000000000000e+03 4.474224090576171875e+01 1.711041831970214844e+01 -7.422572374343872070e-02 2.695213317871093750e+00 7.862963080406188965e-01 9.481331706047058105e-01
6.296000000000000000e+03 5.741993713378906250e+01 2.296855163574218750e+01 -7.917031645774841309e-01 8.648383140563964844e+00 2.357004165649414062e+00 1.893046647310256958e-01
6.297000000000000000e+03 5.723893737792968750e+01 1.855792617797851562e+01 -9.365690946578979492e-01 7.564504146575927734e+00 1.988380551338195801e+00 1.698110103607177734e-01
6.298000000000000000e+03 4.568428421020507812e+01 1.718371009826660156e+01 -1.122253090143203735e-01 3.070604562759399414e+00 8.875137567520141602e-01 1.008821368217468262e+00
6.299000000000000000e+03 4.697293090820312500e+01 1.731037330627441406e+01 -2.009235173463821411e-01 3.618793725967407227e+00 1.025361061096191406e+00 1.079070806503295898e+00
6.300000000000000000e+03 4.665056228637695312e+01 -5.408183097839355469e+00 -3.687174022197723389e-01 3.604646682739257812e+00 9.707787632942199707e-01 4.574074968695640564e-02
6.301000000000000000e+03 4.606394577026367188e+01 -4.321621417999267578e+00 -3.542914390563964844e-01 3.481529235839843750e+00 9.381713271141052246e-01 5.781679227948188782e-02
6.302000000000000000e+03 1.453042888641357422e+01 1.396731281280517578e+01 3.373583033680915833e-02 1.599000543355941772e-01 5.809076502919197083e-02 5.619969218969345093e-02
6.303000000000000000e+03 5.754148101806640625e+01 1.426353549957275391e+01 -8.890855312347412109e-01 6.973281383514404297e+00 1.825258731842041016e+00 7.307166606187820435e-02
6.304000000000000000e+03 5.780784225463867188e+01 1.292994976043701172e+01 -8.810047507286071777e-01 6.879442691802978516e+00 1.799531459808349609e+00 2.628682367503643036e-02
6.305000000000000000e+03 5.816065216064453125e+01 1.990760993957519531e+01 -9.136921167373657227e-01 8.035182952880859375e+00 2.136447191238403320e+00 1.756241917610168457e-02
6.306000000000000000e+03 3.813574218750000000e+01 9.889259934425354004e-01 -7.071369886398315430e-02 1.476103186607360840e+00 4.216168522834777832e-01 9.796314686536788940e-02
6.307000000000000000e+03 6.100119400024414062e+01 1.207007503509521484e+01 -8.166125416755676270e-01 7.288127422332763672e+00 1.941454410552978516e+00 -2.964563965797424316e-01
6.308000000000000000e+03 6.421932983398437500e+01 1.134755802154541016e+01 -6.821327209472656250e-01 7.576588630676269531e+00 2.068336725234985352e+00 -5.279041528701782227e-01
6.309000000000000000e+03 4.507729339599609375e+01 -9.488551139831542969e+00 -3.590006530284881592e-01 3.304764986038208008e+00 8.837293386459350586e-01 -5.950881168246269226e-02
6.310000000000000000e+03 5.857185745239257812e+01 2.148474311828613281e+01 -8.595166802406311035e-01 8.444715499877929688e+00 2.275559663772583008e+00 -8.546613901853561401e-02
6.311000000000000000e+03 6.168064880371093750e+01 1.154554843902587891e+01 -7.969529628753662109e-01 7.333983898162841797e+00 1.961109161376953125e+00 -3.412752747535705566e-01
6.312000000000000000e+03 6.299638366699218750e+01 1.153725719451904297e+01 -7.495192289352416992e-01 7.473651409149169922e+00 2.017239809036254883e+00 -4.450854063034057617e-01
6.313000000000000000e+03 4.319930267333984375e+01 -1.959835767745971680e+00 -2.622855305671691895e-01 2.736136436462402344e+00 7.421552538871765137e-01 9.829238057136535645e-02
6.314000000000000000e+03 5.804055023193359375e+01 1.917424583435058594e+01 -9.404979944229125977e-01 7.851848602294921875e+00 2.073405027389526367e+00 3.158464282751083374e-02
6.315000000000000000e+03 4.122774887084960938e+01 3.600793182849884033e-01 -1.768771260976791382e-01 2.210236072540283203e+00 6.100077033042907715e-01 1.503526419401168823e-01
6.316000000000000000e+03 5.764865112304687500e+01 1.491284084320068359e+01 -9.210925102233886719e-01 7.083004951477050781e+00 1.848573803901672363e+00 5.887443572282791138e-02
6.317000000000000000e+03 1.790616989135742188e+01 1.635612106323242188e+01 4.881772398948669434e-02 1.463846713304519653e-01 5.856071785092353821e-02 8.211852610111236572e-02
6.318000000000000000e+03 3.576224136352539062e+01 1.474440574645996094e+00 -1.078204531222581863e-02 9.644628763198852539e-01 2.861042320728302002e-01 4.660847038030624390e-02
6.319000000000000000e+03 3.570851516723632812e+01 9.935659766197204590e-01 -1.760631985962390900e-02 9.708614349365234375e-01 2.859765291213989258e-01 3.705556318163871765e-02
6.320000000000000000e+03 1.040180873870849609e+01 1.846219635009765625e+01 1.272250199690461159e-03 3.324713185429573059e-02 1.035581436008214951e-02 -5.010260734707117081e-03
6.321000000000000000e+03 4.266009521484375000e+01 -7.963143587112426758e-01 -2.336228489875793457e-01 2.586185932159423828e+00 7.057689428329467773e-01 1.243092045187950134e-01
6.322000000000000000e+03 3.798603439331054688e+01 1.648156762123107910e+00 -6.186413019895553589e-02 1.437018275260925293e+00 4.125462472438812256e-01 1.142592132091522217e-01
6.323000000000000000e+03 4.190867233276367188e+01 -5.780482888221740723e-01 -2.115327119827270508e-01 2.394241809844970703e+00 6.548127532005310059e-01 1.296819299459457397e-01
6.324000000000000000e+03 5.888813400268554688e+01 1.980150222778320312e+01 -9.242894053459167480e-01 8.104591369628906250e+00 2.154090642929077148e+00 -1.419666260480880737e-01
6.325000000000000000e+03 4.519640350341796875e+01 1.675344848632812500e+01 -1.020402908325195312e-01 2.891469001770019531e+00 8.368286490440368652e-01 9.794437289237976074e-01
6.326000000000000000e+03 4.303231430053710938e+01 1.600188255310058594e+01 -6.031307578086853027e-02 2.115088701248168945e+00 6.164326667785644531e-01 7.511547803878784180e-01
6.327000000000000000e+03 4.738436889648437500e+01 1.835126113891601562e+01 -1.598402410745620728e-01 3.770605087280273438e+00 1.083229422569274902e+00 1.184982299804687500e+00
6.328000000000000000e+03 4.803029632568359375e+01 2.018490409851074219e+01 -5.080985650420188904e-02 4.045176029205322266e+00 1.198309779167175293e+00 1.382793784141540527e+00
6.329000000000000000e+03 3.777647018432617188e+01 8.205563545227050781e+00 -9.215536713600158691e-02 1.140145421028137207e+00 3.143970370292663574e-01 2.870603203773498535e-01
6.330000000000000000e+03 4.219982910156250000e+01 1.400191688537597656e+01 -1.213108822703361511e-01 1.997215747833251953e+00 5.627714991569519043e-01 6.293344497680664062e-01
6.331000000000000000e+03 4.275659942626953125e+01 1.475714015960693359e+01 -1.068083792924880981e-01 2.131707668304443359e+00 6.074697971343994141e-01 6.955129504203796387e-01
6.332000000000000000e+03 4.351807403564453125e+01 1.594679069519042969e+01 -7.307939976453781128e-02 2.293766260147094727e+00 6.662060618400573730e-01 7.996473908424377441e-01
6.333000000000000000e+03 3.832164382934570312e+01 8.505035400390625000e+00 -1.050653681159019470e-01 1.248154640197753906e+00 3.429268002510070801e-01 3.116615116596221924e-01
6.334000000000000000e+03 3.812619400024414062e+01 9.090293884277343750e+00 -1.119256988167762756e-01 1.178271651268005371e+00 3.199037611484527588e-01 3.098553121089935303e-01
6.335000000000000000e+03 5.424599838256835938e+01 2.395895385742187500e+01 -5.019639730453491211e-01 7.972043514251708984e+00 2.241023778915405273e+00 1.221387267112731934e+00
6.336000000000000000e+03 4.639857864379882812e+01 1.753684425354003906e+01 -1.392524391412734985e-01 3.381424188613891602e+00 9.726514816284179688e-01 1.083516716957092285e+00
6.337000000000000000e+03 3.897747802734375000e+01 1.104753971099853516e+01 -1.378811895847320557e-01 1.273825407028198242e+00 3.407832682132720947e-01 3.622789680957794189e-01
6.338000000000000000e+03 3.979322052001953125e+01 1.183666515350341797e+01 -1.313935816287994385e-01 1.443530678749084473e+00 3.936411142349243164e-01 4.230408072471618652e-01
6.339000000000000000e+03 3.996379852294921875e+01 1.230691051483154297e+01 -1.293699145317077637e-01 1.460831522941589355e+00 3.994385004043579102e-01 4.368666410446166992e-01
6.340000000000000000e+03 5.166517639160156250e+01 2.148599433898925781e+01 -3.861753046512603760e-01 6.091570377349853516e+00 1.711618423461914062e+00 1.400069952011108398e+00
6.341000000000000000e+03 5.130886459350585938e+01 2.250696563720703125e+01 -2.258853465318679810e-01 6.002140045166015625e+00 1.732876420021057129e+00 1.614016294479370117e+00
6.342000000000000000e+03 4.109675979614257812e+01 1.367816638946533203e+01 -1.102114468812942505e-01 1.682237029075622559e+00 4.716076850891113281e-01 5.395997762680053711e-01
6.343000000000000000e+03 4.168356323242187500e+01 1.353864002227783203e+01 -1.221519559621810913e-01 1.870240569114685059e+00 5.244265794754028320e-01 5.816475749015808105e-01
6.344000000000000000e+03 4.153777694702148438e+01 1.219883823394775391e+01 -1.533132642507553101e-01 1.927361488342285156e+00 5.322144627571105957e-01 5.463597774505615234e-01
6.345000000000000000e+03 4.133789443969726562e+01 1.284617519378662109e+01 -1.331437826156616211e-01 1.809008955955505371e+00 5.027595162391662598e-01 5.460354089736938477e-01
6.346000000000000000e+03 4.560072708129882812e+01 1.661754035949707031e+01 -1.510964334011077881e-01 3.068071365356445312e+00 8.750925064086914062e-01 9.550954699516296387e-01
6.347000000000000000e+03 3.844860839843750000e+01 6.279903888702392578e+00 -7.236375659704208374e-02 1.384882569313049316e+00 3.937556743621826172e-01 2.747239768505096436e-01
6.348000000000000000e+03 3.866819000244140625e+01 5.847277164459228516e+00 -6.750074774026870728e-02 1.452834844589233398e+00 4.156002402305603027e-01 2.752868533134460449e-01
6.349000000000000000e+03 4.809061431884765625e+01 1.931097602844238281e+01 -1.441036760807037354e-01 4.094634056091308594e+00 1.185159087181091309e+00 1.290769577026367188e+00
6.350000000000000000e+03 4.850327301025390625e+01 1.973669624328613281e+01 -1.433351337909698486e-01 4.289096832275390625e+00 1.243728518486022949e+00 1.346034646034240723e+00
6.351000000000000000e+03 4.959684371948242188e+01 2.022110176086425781e+01 -2.321924567222595215e-01 4.883183956146240234e+00 1.395297527313232422e+00 1.386661887168884277e+00
6.352000000000000000e+03 3.946878051757812500e+01 7.703372001647949219e+00 -1.124576479196548462e-01 1.579249739646911621e+00 4.400376379489898682e-01 3.496034145355224609e-01
6.353000000000000000e+03 5.554519271850585938e+01 2.472570037841796875e+01 -5.559123158454895020e-01 8.716571807861328125e+00 2.448198080062866211e+00 8.515580892562866211e-01
6.354000000000000000e+03 3.900805282592773438e+01 3.501475572586059570e+00 -7.593364268541336060e-02 1.606118798255920410e+00 4.590555429458618164e-01 2.038824707269668579e-01
6.355000000000000000e+03 5.104307937622070312e+01 2.068343162536621094e+01 -3.734649717807769775e-01 5.660442829132080078e+00 1.586093306541442871e+00 1.364625096321105957e+00
6.356000000000000000e+03 4.062880325317382812e+01 1.315282225608825684e+00 -1.463494747877120972e-01 2.056343078613281250e+00 5.729980468750000000e-01 1.715484410524368286e-01
6.357000000000000000e+03 3.810992431640625000e+01 9.670528411865234375e+00 -1.245625093579292297e-01 1.145707726478576660e+00 3.063435554504394531e-01 3.119928538799285889e-01
6.358000000000000000e+03 4.344368743896484375e+01 1.640014457702636719e+01 -4.914423078298568726e-02 2.232184410095214844e+00 6.549120545387268066e-01 8.095489144325256348e-01
6.359000000000000000e+03 4.296487045288085938e+01 1.507617950439453125e+01 -9.612996876239776611e-02 2.167220830917358398e+00 6.213272809982299805e-01 7.199367880821228027e-01
6.360000000000000000e+03 5.487968826293945312e+01 2.463532829284667969e+01 -5.074654817581176758e-01 8.489813804626464844e+00 2.394704580307006836e+00 1.097171306610107422e+00
6.361000000000000000e+03 4.060660171508789062e+01 1.266390991210937500e+01 -1.308873891830444336e-01 1.605462670326232910e+00 4.423725903034210205e-01 4.824031293392181396e-01
6.362000000000000000e+03 4.079045867919921875e+01 1.148797512054443359e+01 -1.466796845197677612e-01 1.745432615280151367e+00 4.796258807182312012e-01 4.862492084503173828e-01
6.363000000000000000e+03 5.216330718994140625e+01 2.289426612854003906e+01 -3.100424706935882568e-01 6.559391021728515625e+00 1.874804615974426270e+00 1.552355885505676270e+00
6.364000000000000000e+03 3.862769699096679688e+01 1.665540933609008789e+00 -7.489190250635147095e-02 1.575759768486022949e+00 4.502603709697723389e-01 1.306285262107849121e-01
6.365000000000000000e+03 3.838329315185546875e+01 4.134876430034637451e-01 -9.297159314155578613e-02 1.541129469871520996e+00 4.344473779201507568e-01 8.851042389869689941e-02
6.366000000000000000e+03 3.886291122436523438e+01 5.460487842559814453e+00 -7.322361320257186890e-02 1.516689181327819824e+00 4.330396652221679688e-01 2.629287540912628174e-01
6.367000000000000000e+03 4.663652420043945312e+01 -3.513185977935791016e+00 -3.654725253582000732e-01 3.587992906570434570e+00 9.667561054229736328e-01 9.455341845750808716e-02
6.368000000000000000e+03 4.594396209716796875e+01 -3.546922922134399414e+00 -3.535806536674499512e-01 3.432127475738525391e+00 9.235640764236450195e-01 8.585057407617568970e-02
6.369000000000000000e+03 5.642551803588867188e+01 2.334959983825683594e+01 -7.270376682281494141e-01 8.568872451782226562e+00 2.352550506591796875e+00 5.137472152709960938e-01
6.370000000000000000e+03 5.907583236694335938e+01 1.230845260620117188e+01 -8.581372499465942383e-01 7.034954071044921875e+00 1.853045105934143066e+00 -1.090993434190750122e-01
6.371000000000000000e+03 5.805166244506835938e+01 1.213557529449462891e+01 -8.539925813674926758e-01 6.837027549743652344e+00 1.794910430908203125e+00 2.260645153000950813e-03
6.372000000000000000e+03 5.608082962036132812e+01 1.644173431396484375e+01 -9.075910449028015137e-01 6.953658103942871094e+00 1.813820004463195801e+00 3.070964515209197998e-01
6.373000000000000000e+03 5.687187576293945312e+01 1.560618972778320312e+01 -9.201112985610961914e-01 7.007253646850585938e+00 1.826142668724060059e+00 1.762032955884933472e-01
6.374000000000000000e+03 6.469754791259765625e+01 1.079687976837158203e+01 -6.400538086891174316e-01 7.569970130920410156e+00 2.078974962234497070e+00 -5.382814407348632812e-01
6.375000000000000000e+03 4.737657928466796875e+01 -1.006857109069824219e+01 -4.015016853809356689e-01 3.845211029052734375e+00 1.033112764358520508e+00 -3.094181604683399200e-02
6.376000000000000000e+03 4.728890991210937500e+01 -8.131167411804199219e+00 -3.879635035991668701e-01 3.788996458053588867e+00 1.020309805870056152e+00 -3.488987567834556103e-04
6.377000000000000000e+03 3.876246643066406250e+01 4.765618324279785156e+00 -6.609781831502914429e-02 1.511474370956420898e+00 4.336129724979400635e-01 2.356972843408584595e-01
6.378000000000000000e+03 5.690102386474609375e+01 1.493554973602294922e+01 -8.945193886756896973e-01 6.926938056945800781e+00 1.809725642204284668e+00 1.680762767791748047e-01
6.379000000000000000e+03 5.807065200805664062e+01 1.350962352752685547e+01 -8.776376843452453613e-01 6.986807823181152344e+00 1.832751035690307617e+00 2.200539456680417061e-03
6.380000000000000000e+03 4.726204299926757812e+01 -6.401865005493164062e+00 -3.861444592475891113e-01 3.773571014404296875e+00 1.016227960586547852e+00 4.110195115208625793e-02
6.381000000000000000e+03 4.693335342407226562e+01 -1.095572185516357422e+01 -3.857943415641784668e-01 3.766354799270629883e+00 1.014168143272399902e+00 -5.575090646743774414e-02
6.382000000000000000e+03 3.946763992309570312e+01 1.288920164108276367e+00 -1.085526719689369202e-01 1.774804592132568359e+00 4.998755753040313721e-01 1.448876708745956421e-01
6.383000000000000000e+03 5.676556777954101562e+01 1.895551490783691406e+01 -9.056025743484497070e-01 7.530781745910644531e+00 1.987553715705871582e+00 2.702892720699310303e-01
6.384000000000000000e+03 3.807160186767578125e+01 2.280210494995117188e+00 -5.503474175930023193e-02 1.433066010475158691e+00 4.134093821048736572e-01 1.377216875553131104e-01
6.385000000000000000e+03 6.038314056396484375e+01 1.131459236145019531e+01 -8.142516016960144043e-01 7.139931678771972656e+00 1.897704005241394043e+00 -2.234347015619277954e-01
6.386000000000000000e+03 6.228796005249023438e+01 1.096385002136230469e+01 -7.490304112434387207e-01 7.339652538299560547e+00 1.977186679840087891e+00 -3.797203898429870605e-01
6.387000000000000000e+03 5.663193130493164062e+01 2.255194473266601562e+01 -7.972384095191955566e-01 8.348491668701171875e+00 2.265376091003417969e+00 3.894539177417755127e-01
6.388000000000000000e+03 4.341381835937500000e+01 -1.024701595306396484e+00 -2.632241547107696533e-01 2.778359889984130859e+00 7.545406818389892578e-01 1.322382092475891113e-01
6.389000000000000000e+03 5.910474777221679688e+01 1.126322746276855469e+01 -8.286717534065246582e-01 6.941895961761474609e+00 1.833967208862304688e+00 -1.047431305050849915e-01
6.390000000000000000e+03 5.880161666870117188e+01 1.018368434906005859e+01 -7.962206602096557617e-01 6.786674022674560547e+00 1.797135949134826660e+00 -6.979339569807052612e-02
6.391000000000000000e+03 4.745092010498046875e+01 -5.630893230438232422e+00 -3.896546363830566406e-01 3.807114124298095703e+00 1.025237798690795898e+00 5.430224910378456116e-02
6.392000000000000000e+03 4.264482879638671875e+01 1.397202873229980469e+01 -1.366776674985885620e-01 2.143462657928466797e+00 6.020355224609375000e-01 6.628546714782714844e-01
6.393000000000000000e+03 4.770428848266601562e+01 1.885851860046386719e+01 -1.413112729787826538e-01 3.900353670120239258e+00 1.127712726593017578e+00 1.240153193473815918e+00
6.394000000000000000e+03 5.027637863159179688e+01 1.980629158020019531e+01 -3.502296507358551025e-01 5.207198143005371094e+00 1.457090497016906738e+00 1.305121898651123047e+00
6.395000000000000000e+03 5.014285659790039062e+01 2.029565429687500000e+01 -2.829336225986480713e-01 5.160150527954101562e+00 1.463165044784545898e+00 1.371077656745910645e+00
6.396000000000000000e+03 4.290090560913085938e+01 1.564815998077392578e+01 -7.175856083631515503e-02 2.100411176681518555e+00 6.085957884788513184e-01 7.320629358291625977e-01
6.397000000000000000e+03 4.323796844482421875e+01 1.536189174652099609e+01 -9.703396260738372803e-02 2.224998712539672852e+00 6.383894085884094238e-01 7.498599886894226074e-01
6.398000000000000000e+03 3.966676712036132812e+01 6.575312614440917969e+00 -1.063420400023460388e-01 1.662462949752807617e+00 4.668362736701965332e-01 3.221346735954284668e-01
6.399000000000000000e+03 3.920602035522460938e+01 5.090249538421630859e+00 -8.350776135921478271e-02 1.604684710502624512e+00 4.563530981540679932e-01 2.632748782634735107e-01
6.400000000000000000e+03 4.137451553344726562e+01 1.179302120208740234e+01 -1.539341062307357788e-01 1.895341396331787109e+00 5.224221944808959961e-01 5.312834382057189941e-01
6.401000000000000000e+03 3.911793899536132812e+01 1.154312992095947266e+01 -1.338793188333511353e-01 1.272899627685546875e+00 3.417060971260070801e-01 3.696031570434570312e-01
6.402000000000000000e+03 3.964242553710937500e+01 1.135473442077636719e+01 -1.384252458810806274e-01 1.432945609092712402e+00 3.883561193943023682e-01 4.100673794746398926e-01
6.403000000000000000e+03 3.871191024780273438e+01 1.008709812164306641e+01 -1.304314285516738892e-01 1.264857530593872070e+00 3.403278291225433350e-01 3.424624204635620117e-01
6.404000000000000000e+03 4.003157806396484375e+01 1.068044281005859375e+01 -1.440218836069107056e-01 1.583141922950744629e+00 4.317359924316406250e-01 4.300706684589385986e-01
6.405000000000000000e+03 5.130424499511718750e+01 2.184006881713867188e+01 -3.045317530632019043e-01 5.933580875396728516e+00 1.688714623451232910e+00 1.498498797416687012e+00
6.406000000000000000e+03 5.198175811767578125e+01 2.249020004272460938e+01 -3.410024046897888184e-01 6.390274047851562500e+00 1.814781546592712402e+00 1.497072935104370117e+00
6.407000000000000000e+03 3.864658355712890625e+01 7.957437515258789062e+00 -9.880820661783218384e-02 1.360512495040893555e+00 3.785113096237182617e-01 3.185890614986419678e-01
6.408000000000000000e+03 3.892876434326171875e+01 8.712957382202148438e+00 -1.162740066647529602e-01 1.401526212692260742e+00 3.855756521224975586e-01 3.461176753044128418e-01
6.409000000000000000e+03 5.677608871459960938e+01 2.169939613342285156e+01 -8.359836935997009277e-01 8.204968452453613281e+00 2.210695505142211914e+00 3.451367914676666260e-01
6.410000000000000000e+03 5.421795654296875000e+01 2.330788040161132812e+01 -5.650233626365661621e-01 7.707430362701416016e+00 2.142722129821777344e+00 1.136221766471862793e+00
6.411000000000000000e+03 4.931756591796875000e+01 1.953120422363281250e+01 -2.629950642585754395e-01 4.705670833587646484e+00 1.332802653312683105e+00 1.307990789413452148e+00
6.412000000000000000e+03 4.978733825683593750e+01 1.971605682373046875e+01 -2.957252264022827148e-01 4.943947792053222656e+00 1.394466757774353027e+00 1.318260669708251953e+00
6.413000000000000000e+03 4.358723068237304688e+01 1.509045314788818359e+01 -1.200547590851783752e-01 2.404722929000854492e+00 6.854004263877868652e-01 7.715562582015991211e-01
6.414000000000000000e+03 3.897938919067382812e+01 2.636190414428710938e+00 -7.956905663013458252e-02 1.614638686180114746e+00 4.605208933353424072e-01 1.733723431825637817e-01
6.415000000000000000e+03 3.881128692626953125e+01 1.101383447647094727e+00 -9.221742302179336548e-02 1.629491806030273438e+00 4.611822962760925293e-01 1.246134266257286072e-01
6.416000000000000000e+03 3.911675262451171875e+01 4.319168090820312500e+00 -7.700459659099578857e-02 1.607776403427124023e+00 4.592315256595611572e-01 2.344058305025100708e-01
6.417000000000000000e+03 3.863026809692382812e+01 3.984084129333496094e+00 -6.013970822095870972e-02 1.501375794410705566e+00 4.323708415031433105e-01 2.064844518899917603e-01
6.418000000000000000e+03 4.401261520385742188e+01 1.599338626861572266e+01 -9.391651302576065063e-02 2.492222070693969727e+00 7.194916605949401855e-01 8.422896265983581543e-01
6.419000000000000000e+03 5.149819564819335938e+01 2.092133712768554688e+01 -4.142074286937713623e-01 5.902967453002929688e+00 1.646628022193908691e+00 1.322693586349487305e+00
6.420000000000000000e+03 5.112699127197265625e+01 2.099336624145507812e+01 -3.553397655487060547e-01 5.717637062072753906e+00 1.608689188957214355e+00 1.409222006797790527e+00
6.421000000000000000e+03 4.612778854370117188e+01 1.638583183288574219e+01 -1.875418126583099365e-01 3.293093919754028320e+00 9.316656589508056641e-01 9.860160350799560547e-01
6.422000000000000000e+03 6.014808273315429688e+01 9.902839660644531250e+00 -7.746531963348388672e-01 6.987045764923095703e+00 1.863717794418334961e+00 -1.805645525455474854e-01
6.423000000000000000e+03 4.854172897338867188e+01 1.889052200317382812e+01 -2.207476049661636353e-01 4.316556453704833984e+00 1.228742718696594238e+00 1.260796427726745605e+00
6.424000000000000000e+03 6.284954071044921875e+01 1.029963493347167969e+01 -7.154127359390258789e-01 7.370186328887939453e+00 1.996432065963745117e+00 -3.925409913063049316e-01
6.425000000000000000e+03 4.792831039428710938e+01 -6.444411277770996094e+00 -4.051666855812072754e-01 3.911187410354614258e+00 1.051806211471557617e+00 3.533128276467323303e-02
6.426000000000000000e+03 4.713190078735351562e+01 -4.661461830139160156e+00 -3.821712136268615723e-01 3.699631690979003906e+00 9.952381849288940430e-01 7.389129698276519775e-02
6.427000000000000000e+03 4.852091598510742188e+01 -7.554247379302978516e+00 -4.100932478904724121e-01 4.071005344390869141e+00 1.098273634910583496e+00 2.649705484509468079e-02
6.428000000000000000e+03 4.177378082275390625e+01 1.301409435272216797e+01 -1.423206478357315063e-01 1.934466361999511719e+00 5.376436710357666016e-01 5.750358104705810547e-01
6.429000000000000000e+03 5.362012481689453125e+01 2.342649269104003906e+01 -4.726610183715820312e-01 7.481006145477294922e+00 2.102503538131713867e+00 1.315835714340209961e+00
6.430000000000000000e+03 3.862007904052734375e+01 9.632250785827636719e+00 -1.258813589811325073e-01 1.265630125999450684e+00 3.419246077537536621e-01 3.360960483551025391e-01
6.431000000000000000e+03 3.921134185791015625e+01 9.937069892883300781e+00 -1.323327273130416870e-01 1.413773775100708008e+00 3.844323158264160156e-01 3.738797307014465332e-01
6.432000000000000000e+03 4.768096923828125000e+01 1.756110382080078125e+01 -2.436942160129547119e-01 3.921247959136962891e+00 1.103266119956970215e+00 1.120112538337707520e+00
6.433000000000000000e+03 4.715509796142578125e+01 1.782244682312011719e+01 -1.783152222633361816e-01 3.689598083496093750e+00 1.053384900093078613e+00 1.131660103797912598e+00
6.434000000000000000e+03 3.918358230590820312e+01 8.192684173583984375e+00 -1.165181919932365417e-01 1.489152073860168457e+00 4.117901623249053955e-01 3.450340330600738525e-01
6.435000000000000000e+03 6.411659240722656250e+01 1.019755554199218750e+01 -6.603344082832336426e-01 7.496846675872802734e+00 2.050953626632690430e+00 -4.712968766689300537e-01
6.436000000000000000e+03 4.780197906494140625e+01 -9.213569641113281250e+00 -3.985141217708587646e-01 3.911218643188476562e+00 1.053811311721801758e+00 -1.286312937736511230e-02
6.437000000000000000e+03 5.641661071777343750e+01 1.950260925292968750e+01 -9.020951986312866211e-01 7.590098857879638672e+00 2.006401062011718750e+00 3.501877784729003906e-01
6.438000000000000000e+03 5.677702331542968750e+01 2.084024047851562500e+01 -8.822118639945983887e-01 7.943881988525390625e+00 2.118501186370849609e+00 3.047498464584350586e-01
6.439000000000000000e+03 5.673675155639648438e+01 2.006416702270507812e+01 -8.869251608848571777e-01 7.765615463256835938e+00 2.063606977462768555e+00 3.056282699108123779e-01
6.440000000000000000e+03 4.811598205566406250e+01 -4.270793914794921875e+00 -4.026215076446533203e-01 3.948286056518554688e+00 1.063699364662170410e+00 8.942494541406631470e-02
6.441000000000000000e+03 4.694490432739257812e+01 -2.875612258911132812e+00 -3.736355006694793701e-01 3.670362234115600586e+00 9.890180826187133789e-01 1.080811992287635803e-01
6.442000000000000000e+03 4.579496002197265625e+01 -2.801640748977661133e+00 -3.392882049083709717e-01 3.384822845458984375e+00 9.136604070663452148e-01 9.995966404676437378e-02
6.443000000000000000e+03 5.560910034179687500e+01 2.399959564208984375e+01 -6.301649808883666992e-01 8.543273925781250000e+00 2.373932600021362305e+00 8.025239109992980957e-01
6.444000000000000000e+03 5.602025985717773438e+01 1.316553688049316406e+01 -8.456590175628662109e-01 6.518819808959960938e+00 1.701948165893554688e+00 2.338372170925140381e-01
6.445000000000000000e+03 5.675952529907226562e+01 1.371632862091064453e+01 -8.692124485969543457e-01 6.743573188781738281e+00 1.762308120727539062e+00 1.627856642007827759e-01
6.446000000000000000e+03 4.653684616088867188e+01 -8.407649993896484375e+00 -3.793852627277374268e-01 3.626566171646118164e+00 9.741542935371398926e-01 -1.432548835873603821e-02
6.447000000000000000e+03 6.345310592651367188e+01 9.599308013916015625e+00 -6.779200434684753418e-01 7.385318756103515625e+00 2.012219667434692383e+00 -4.141941666603088379e-01
6.448000000000000000e+03 4.508853912353515625e+01 -4.423673450946807861e-01 -3.120861947536468506e-01 3.182474374771118164e+00 8.611164689064025879e-01 1.676538884639739990e-01
6.449000000000000000e+03 4.843385314941406250e+01 -6.602898120880126953e+00 -4.133302271366119385e-01 4.065628528594970703e+00 1.095689415931701660e+00 3.704892471432685852e-02
6.450000000000000000e+03 6.099241256713867188e+01 1.016259670257568359e+01 -7.762782573699951172e-01 7.121610641479492188e+00 1.903599739074707031e+00 -2.494716197252273560e-01
6.451000000000000000e+03 5.806366729736328125e+01 1.134095668792724609e+01 -8.336961269378662109e-01 6.759912967681884766e+00 1.777865052223205566e+00 -7.853869348764419556e-03
6.452000000000000000e+03 4.357018280029296875e+01 -1.604606211185455322e-01 -2.609412670135498047e-01 2.799746036529541016e+00 7.616414427757263184e-01 1.625873744487762451e-01
6.453000000000000000e+03 4.297293090820312500e+01 9.047926068305969238e-01 -2.330436259508132935e-01 2.647064447402954102e+00 7.242062687873840332e-01 1.932186782360076904e-01
6.454000000000000000e+03 5.574641418457031250e+01 1.590526485443115234e+01 -8.823521733283996582e-01 6.801887035369873047e+00 1.775860548019409180e+00 3.333035111427307129e-01
6.455000000000000000e+03 4.175095367431640625e+01 1.257847690582275391e+01 -1.440232098102569580e-01 1.974357843399047852e+00 5.491003990173339844e-01 5.674579143524169922e-01
6.456000000000000000e+03 4.233607101440429688e+01 1.302113819122314453e+01 -1.503404527902603149e-01 2.110532999038696289e+00 5.880577564239501953e-01 6.184472441673278809e-01
6.457000000000000000e+03 4.271210479736328125e+01 1.354262161254882812e+01 -1.475909352302551270e-01 2.196701288223266602e+00 6.147330999374389648e-01 6.554886698722839355e-01
6.458000000000000000e+03 4.419866180419921875e+01 1.657132148742675781e+01 -6.464488804340362549e-02 2.498257398605346680e+00 7.300837635993957520e-01 8.844435811042785645e-01
6.459000000000000000e+03 5.319264602661132812e+01 2.237143707275390625e+01 -5.139550566673278809e-01 7.033402442932128906e+00 1.955834150314331055e+00 1.288213491439819336e+00
6.460000000000000000e+03 5.490447616577148438e+01 2.321517181396484375e+01 -6.372233033180236816e-01 8.034701347351074219e+00 2.219243526458740234e+00 9.443166255950927734e-01
6.461000000000000000e+03 4.309605789184570312e+01 1.458523082733154297e+01 -1.247900798916816711e-01 2.258627176284790039e+00 6.401511430740356445e-01 7.145633697509765625e-01
6.462000000000000000e+03 4.331587600708007812e+01 1.482383537292480469e+01 -1.232248321175575256e-01 2.324335575103759766e+00 6.603332161903381348e-01 7.406315803527832031e-01
6.463000000000000000e+03 3.972618865966796875e+01 8.399374008178710938e+00 -1.301041096448898315e-01 1.612000703811645508e+00 4.445689618587493896e-01 3.763140141963958740e-01
6.464000000000000000e+03 4.525310134887695312e+01 1.631160545349121094e+01 -1.453819423913955688e-01 2.956575632095336914e+00 8.433581590652465820e-01 9.347333908081054688e-01
6.465000000000000000e+03 3.935728836059570312e+01 1.039589023590087891e+01 -1.368278264999389648e-01 1.415119528770446777e+00 3.834875226020812988e-01 3.860562145709991455e-01
6.466000000000000000e+03 4.107029342651367188e+01 9.779632568359375000e+00 -1.592951864004135132e-01 1.914040684700012207e+00 5.264236330986022949e-01 4.664276838302612305e-01
6.467000000000000000e+03 4.961545181274414062e+01 1.909550285339355469e+01 -3.230383694171905518e-01 4.850353717803955078e+00 1.358194589614868164e+00 1.255879282951354980e+00
6.468000000000000000e+03 5.165600585937500000e+01 2.215993118286132812e+01 -3.174215555191040039e-01 6.172402381896972656e+00 1.756494164466857910e+00 1.505140781402587891e+00
6.469000000000000000e+03 5.132255935668945312e+01 2.124734497070312500e+01 -3.569299876689910889e-01 5.881735324859619141e+00 1.657441616058349609e+00 1.398165822029113770e+00
6.470000000000000000e+03 3.885890197753906250e+01 6.633291244506835938e+00 -8.359231054782867432e-02 1.466001510620117188e+00 4.147227704524993896e-01 2.967383563518524170e-01
6.471000000000000000e+03 3.870017242431640625e+01 9.195904731750488281e+00 -1.171897128224372864e-01 1.327002882957458496e+00 3.629439473152160645e-01 3.392911255359649658e-01
6.472000000000000000e+03 5.064593505859375000e+01 2.031270599365234375e+01 -3.545419871807098389e-01 5.432014465332031250e+00 1.523241758346557617e+00 1.354925394058227539e+00
6.473000000000000000e+03 4.607334518432617188e+01 1.575306415557861328e+01 -2.201751917600631714e-01 3.292899131774902344e+00 9.218171238899230957e-01 9.390141963958740234e-01
6.474000000000000000e+03 4.683812713623046875e+01 1.677996444702148438e+01 -2.203966528177261353e-01 3.583710670471191406e+00 1.008994221687316895e+00 1.037591457366943359e+00
6.475000000000000000e+03 5.617327117919921875e+01 1.856861114501953125e+01 -8.992612957954406738e-01 7.364218711853027344e+00 1.939487338066101074e+00 3.637212514877319336e-01
6.476000000000000000e+03 4.029858779907226562e+01 1.165345096588134766e+01 -1.405793428421020508e-01 1.599045157432556152e+00 4.375397264957427979e-01 4.529676139354705811e-01
6.477000000000000000e+03 3.866140747070312500e+01 2.178807497024536133e+00 -7.842607796192169189e-02 1.558651685714721680e+00 4.440676867961883545e-01 1.482442766427993774e-01
6.478000000000000000e+03 3.942151260375976562e+01 3.031931638717651367e+00 -8.947648108005523682e-02 1.708166241645812988e+00 4.856069087982177734e-01 1.970396190881729126e-01
6.479000000000000000e+03 4.394609069824218750e+01 1.474560356140136719e+01 -1.541264355182647705e-01 2.545796632766723633e+00 7.175011038780212402e-01 7.765835523605346680e-01
6.480000000000000000e+03 4.418808746337890625e+01 1.548989105224609375e+01 -1.335235685110092163e-01 2.585699319839477539e+00 7.356527447700500488e-01 8.290968537330627441e-01
6.481000000000000000e+03 4.750994873046875000e+01 1.709539222717285156e+01 -2.543734312057495117e-01 3.862635135650634766e+00 1.082478523254394531e+00 1.080168008804321289e+00
6.482000000000000000e+03 6.215486526489257812e+01 9.791023254394531250e+00 -7.298340201377868652e-01 7.250563144683837891e+00 1.956218719482421875e+00 -3.333332240581512451e-01
6.483000000000000000e+03 3.912845611572265625e+01 5.801222324371337891e+00 -8.388002961874008179e-02 1.567572236061096191e+00 4.451076686382293701e-01 2.844404876232147217e-01
6.484000000000000000e+03 4.813516616821289062e+01 -8.339948654174804688e+00 -4.092350900173187256e-01 3.985614776611328125e+00 1.072913885116577148e+00 1.734122820198535919e-02
6.485000000000000000e+03 4.138507461547851562e+01 1.133640766143798828e+00 -1.729506850242614746e-01 2.241994142532348633e+00 6.207130551338195801e-01 1.741639822721481323e-01
6.486000000000000000e+03 4.216203308105468750e+01 1.006064414978027344e+00 -2.051404714584350586e-01 2.426913738250732422e+00 6.665319800376892090e-01 1.854853183031082153e-01
6.487000000000000000e+03 5.623486328125000000e+01 1.490190982818603516e+01 -8.959883451461791992e-01 6.780861377716064453e+00 1.765461921691894531e+00 2.269845753908157349e-01
6.488000000000000000e+03 4.804344177246093750e+01 -3.674915313720703125e+00 -3.948568105697631836e-01 3.928461551666259766e+00 1.060081362724304199e+00 9.617702662944793701e-02
6.489000000000000000e+03 4.862902069091796875e+01 -3.183476209640502930e+00 -4.157220125198364258e-01 4.054896354675292969e+00 1.091752409934997559e+00 1.141044348478317261e-01
6.490000000000000000e+03 5.657888412475585938e+01 1.216721153259277344e+01 -8.292330503463745117e-01 6.530916213989257812e+00 1.710505008697509766e+00 1.408956348896026611e-01
6.491000000000000000e+03 5.676583862304687500e+01 1.153026103973388672e+01 -8.278589248657226562e-01 6.521078586578369141e+00 1.707965970039367676e+00 1.211423650383949280e-01
6.492000000000000000e+03 4.591576004028320312e+01 -4.082830250263214111e-01 -3.435797393321990967e-01 3.395821809768676758e+00 9.156726598739624023e-01 1.752991974353790283e-01
6.493000000000000000e+03 5.723656082153320312e+01 1.312043476104736328e+01 -8.677697181701660156e-01 6.792799472808837891e+00 1.777508974075317383e+00 9.020776301622390747e-02
6.494000000000000000e+03 5.667945098876953125e+01 1.312260150909423828e+01 -8.736510872840881348e-01 6.655779361724853516e+00 1.734638452529907227e+00 1.431714743375778198e-01
6.495000000000000000e+03 4.757198715209960938e+01 -4.095431327819824219e+00 -3.918107748031616211e-01 3.812723159790039062e+00 1.026273727416992188e+00 7.996536791324615479e-02
6.496000000000000000e+03 5.377536773681640625e+01 2.205166435241699219e+01 -6.271565556526184082e-01 7.261353492736816406e+00 1.990259170532226562e+00 1.105069160461425781e+00
6.497000000000000000e+03 4.871411895751953125e+01 -6.024196624755859375e+00 -4.157853126525878906e-01 4.104660034179687500e+00 1.106662392616271973e+00 5.445643141865730286e-02
6.498000000000000000e+03 4.676129531860351562e+01 -1.193198204040527344e+00 -3.693858981132507324e-01 3.597300767898559570e+00 9.683744311332702637e-01 1.521456390619277954e-01
6.499000000000000000e+03 5.567297744750976562e+01 2.236218261718750000e+01 -7.539967894554138184e-01 8.037764549255371094e+00 2.185130357742309570e+00 6.795931458473205566e-01
6.500000000000000000e+03 4.512397003173828125e+01 2.557294070720672607e-01 -3.111199140548706055e-01 3.185390472412109375e+00 8.622812032699584961e-01 1.913603544235229492e-01
6.501000000000000000e+03 4.413134002685546875e+01 1.412493705749511719e+00 -2.729972898960113525e-01 2.921786308288574219e+00 7.946367263793945312e-01 2.257397621870040894e-01
6.502000000000000000e+03 6.614817047119140625e+01 9.833448410034179688e+00 -5.768735408782958984e-01 7.639149665832519531e+00 2.118682861328125000e+00 -5.458068847656250000e-01
6.503000000000000000e+03 5.463867568969726562e+01 2.002760696411132812e+01 -7.947838306427001953e-01 7.178475856781005859e+00 1.915107607841491699e+00 7.546943426132202148e-01
6.504000000000000000e+03 5.621965408325195312e+01 1.791394233703613281e+01 -9.160245656967163086e-01 7.232356071472167969e+00 1.894899368286132812e+00 3.286693096160888672e-01
6.505000000000000000e+03 3.986185836791992188e+01 2.578352928161621094e+00 -1.095817014575004578e-01 1.836286306381225586e+00 5.180113911628723145e-01 1.892257332801818848e-01
6.506000000000000000e+03 4.330656051635742188e+01 1.435876846313476562e+01 -1.427580267190933228e-01 2.353114843368530273e+00 6.631070375442504883e-01 7.210690379142761230e-01
6.507000000000000000e+03 4.671826553344726562e+01 1.564286994934082031e+01 -2.664377093315124512e-01 3.568616151809692383e+00 9.906535148620605469e-01 9.558246135711669922e-01
6.508000000000000000e+03 4.674745559692382812e+01 1.622092247009277344e+01 -2.460294067859649658e-01 3.558674097061157227e+00 9.937934279441833496e-01 9.908215403556823730e-01
6.509000000000000000e+03 4.256119537353515625e+01 1.251405525207519531e+01 -1.705649644136428833e-01 2.202768325805664062e+00 6.096609830856323242e-01 6.126328706741333008e-01
6.510000000000000000e+03 3.993717193603515625e+01 5.877860069274902344e+00 -1.101544350385665894e-01 1.774529218673706055e+00 4.993124306201934814e-01 3.130875527858734131e-01
6.511000000000000000e+03 3.936714935302734375e+01 6.210868835449218750e+00 -9.472019225358963013e-02 1.603706121444702148e+00 4.526957571506500244e-01 3.042523562908172607e-01
6.512000000000000000e+03 4.360140228271484375e+01 1.452102565765380859e+01 -1.493739783763885498e-01 2.439940929412841797e+00 6.871700882911682129e-01 7.411704063415527344e-01
6.513000000000000000e+03 5.077015304565429688e+01 1.986049461364746094e+01 -3.978629708290100098e-01 5.454702377319335938e+00 1.517051815986633301e+00 1.284316420555114746e+00
6.514000000000000000e+03 4.961417770385742188e+01 1.849057197570800781e+01 -3.731673061847686768e-01 4.828217029571533203e+00 1.336514830589294434e+00 1.187016725540161133e+00
6.515000000000000000e+03 4.170003509521484375e+01 1.126860713958740234e+01 -1.685993522405624390e-01 2.016545295715332031e+00 5.543838143348693848e-01 5.319020748138427734e-01
6.516000000000000000e+03 4.802568817138671875e+01 1.689930152893066406e+01 -3.086610734462738037e-01 4.073276519775390625e+00 1.129384636878967285e+00 1.075760245323181152e+00
6.517000000000000000e+03 5.026904296875000000e+01 1.897145652770996094e+01 -4.116439819335937500e-01 5.168232440948486328e+00 1.426976561546325684e+00 1.215662837028503418e+00
6.518000000000000000e+03 5.406805801391601562e+01 2.265888214111328125e+01 -5.909568667411804199e-01 7.495922565460205078e+00 2.071489810943603516e+00 1.119987249374389648e+00
6.519000000000000000e+03 4.478883743286132812e+01 1.639310646057128906e+01 -1.078737601637840271e-01 2.781638622283935547e+00 8.021295070648193359e-01 9.131424427032470703e-01
6.520000000000000000e+03 4.927040100097656250e+01 1.884740638732910156e+01 -3.064193427562713623e-01 4.672399044036865234e+00 1.309793829917907715e+00 1.233904719352722168e+00
6.521000000000000000e+03 4.935718154907226562e+01 1.825439453125000000e+01 -3.581180572509765625e-01 4.711888790130615234e+00 1.306131243705749512e+00 1.168913364410400391e+00
6.522000000000000000e+03 5.539909744262695312e+01 1.641008186340332031e+01 -8.803082108497619629e-01 6.790035724639892578e+00 1.772918224334716797e+00 4.170957505702972412e-01
6.523000000000000000e+03 5.513253021240234375e+01 1.546199798583984375e+01 -8.619478344917297363e-01 6.578763484954833984e+00 1.715044617652893066e+00 4.052205085754394531e-01
6.524000000000000000e+03 4.058679580688476562e+01 1.049097919464111328e+01 -1.496016979217529297e-01 1.740361332893371582e+00 4.772278666496276855e-01 4.550458788871765137e-01
6.525000000000000000e+03 3.998358917236328125e+01 7.925324440002441406e+00 -1.285141855478286743e-01 1.703966140747070312e+00 4.726355969905853271e-01 3.773032724857330322e-01
6.526000000000000000e+03 3.971460723876953125e+01 9.745646476745605469e+00 -1.371874213218688965e-01 1.540312409400939941e+00 4.209374785423278809e-01 3.991852402687072754e-01
6.527000000000000000e+03 4.195847702026367188e+01 1.197586536407470703e+01 -1.646362096071243286e-01 2.053442001342773438e+00 5.666417479515075684e-01 5.607491135597229004e-01
6.528000000000000000e+03 4.248702239990234375e+01 1.147211551666259766e+01 -1.904011815786361694e-01 2.248388528823852539e+00 6.173961758613586426e-01 5.745625495910644531e-01
6.529000000000000000e+03 4.088537979125976562e+01 4.926374912261962891e+00 -1.430951356887817383e-01 2.032412528991699219e+00 5.667951703071594238e-01 3.055566251277923584e-01
6.530000000000000000e+03 3.987036132812500000e+01 3.398885250091552734e+00 -1.082105934619903564e-01 1.814685583114624023e+00 5.119425058364868164e-01 2.207468897104263306e-01
6.531000000000000000e+03 3.988660812377929688e+01 1.020522212982177734e+01 -1.397238224744796753e-01 1.570334434509277344e+00 4.291831851005554199e-01 4.120783209800720215e-01
6.532000000000000000e+03 4.025532531738281250e+01 9.495063781738281250e+00 -1.413748860359191895e-01 1.712978839874267578e+00 4.714811742305755615e-01 4.246851205825805664e-01
6.533000000000000000e+03 4.845423126220703125e+01 -5.152803897857666016e+00 -4.129734337329864502e-01 4.035837173461914062e+00 1.086859226226806641e+00 6.747713685035705566e-02
6.534000000000000000e+03 3.958402252197265625e+01 4.671597957611083984e+00 -9.285931289196014404e-02 1.711590647697448730e+00 4.856193959712982178e-01 2.603099644184112549e-01
6.535000000000000000e+03 5.140316009521484375e+01 2.056745910644531250e+01 -4.242350459098815918e-01 5.840302467346191406e+00 1.624820232391357422e+00 1.323383688926696777e+00
6.536000000000000000e+03 5.215592193603515625e+01 2.052683067321777344e+01 -5.203405618667602539e-01 6.190102100372314453e+00 1.700928568840026855e+00 1.207865953445434570e+00
6.537000000000000000e+03 5.579253005981445312e+01 2.150220680236816406e+01 -8.085219264030456543e-01 7.831022262573242188e+00 2.106750011444091797e+00 5.902096033096313477e-01
6.538000000000000000e+03 5.613994979858398438e+01 2.002811813354492188e+01 -8.779085278511047363e-01 7.606987953186035156e+00 2.018723964691162109e+00 4.203042685985565186e-01
6.539000000000000000e+03 5.286020278930664062e+01 2.186816787719726562e+01 -5.271300077438354492e-01 6.789917469024658203e+00 1.878836274147033691e+00 1.273889064788818359e+00
6.540000000000000000e+03 5.204566574096679688e+01 2.180217170715332031e+01 -4.164020419120788574e-01 6.327049255371093750e+00 1.773194074630737305e+00 1.388135552406311035e+00
6.541000000000000000e+03 5.974773406982421875e+01 8.733399391174316406e+00 -7.466359734535217285e-01 6.830041408538818359e+00 1.825021743774414062e+00 -1.294841468334197998e-01
6.542000000000000000e+03 4.824089050292968750e+01 1.844922637939453125e+01 -2.347819954156875610e-01 4.180081367492675781e+00 1.183589696884155273e+00 1.206881880760192871e+00
6.543000000000000000e+03 4.126534652709960938e+01 1.135258483886718750e+01 -1.576056182384490967e-01 1.889683723449707031e+00 5.196233987808227539e-01 5.131404399871826172e-01
6.544000000000000000e+03 4.180273437500000000e+01 1.162432384490966797e+01 -1.683395504951477051e-01 2.032487869262695312e+00 5.592444539070129395e-01 5.463328957557678223e-01
6.545000000000000000e+03 4.148722839355468750e+01 1.903182148933410645e+00 -1.739998161792755127e-01 2.247272968292236328e+00 6.219819188117980957e-01 2.055491954088211060e-01
6.546000000000000000e+03 4.016368103027343750e+01 1.116613197326660156e+01 -1.405210494995117188e-01 1.588299512863159180e+00 4.343335330486297607e-01 4.409178495407104492e-01
6.547000000000000000e+03 6.189079284667968750e+01 8.587789535522460938e+00 -7.053769826889038086e-01 7.134557247161865234e+00 1.928754091262817383e+00 -2.804987430572509766e-01
6.548000000000000000e+03 6.271579360961914062e+01 9.040656089782714844e+00 -6.941879391670227051e-01 7.270846366882324219e+00 1.972997426986694336e+00 -3.397393226623535156e-01
6.549000000000000000e+03 4.953613281250000000e+01 -7.108244419097900391e+00 -4.232288897037506104e-01 4.300633907318115234e+00 1.163221478462219238e+00 4.534815251827239990e-02
6.550000000000000000e+03 4.957956314086914062e+01 -5.828342437744140625e+00 -4.243780076503753662e-01 4.304192066192626953e+00 1.163944244384765625e+00 6.710534542798995972e-02
6.551000000000000000e+03 5.336761474609375000e+01 2.150948905944824219e+01 -5.941726565361022949e-01 6.937821388244628906e+00 1.903094649314880371e+00 1.136994838714599609e+00
6.552000000000000000e+03 5.442265701293945312e+01 2.167525672912597656e+01 -6.968137025833129883e-01 7.432203292846679688e+00 2.020616769790649414e+00 9.204564690589904785e-01
6.553000000000000000e+03 5.561524200439453125e+01 1.820200157165527344e+01 -8.716564774513244629e-01 7.093563556671142578e+00 1.866572141647338867e+00 4.501622915267944336e-01
6.554000000000000000e+03 5.436232376098632812e+01 1.679964065551757812e+01 -8.290552496910095215e-01 6.538489341735839844e+00 1.712830305099487305e+00 5.941228270530700684e-01
6.555000000000000000e+03 4.375258255004882812e+01 6.886836886405944824e-01 -2.623369991779327393e-01 2.833852529525756836e+00 7.714546322822570801e-01 1.974849253892898560e-01
6.556000000000000000e+03 5.404405975341796875e+01 1.417818546295166016e+01 -7.999107241630554199e-01 6.118755340576171875e+00 1.595653414726257324e+00 4.781005084514617920e-01
6.557000000000000000e+03 5.474751281738281250e+01 1.432517242431640625e+01 -8.295775055885314941e-01 6.350482940673828125e+00 1.656271576881408691e+00 4.143411815166473389e-01
6.558000000000000000e+03 6.496193695068359375e+01 8.246056556701660156e+00 -5.850147604942321777e-01 7.473824501037597656e+00 2.066642999649047852e+00 -4.391599297523498535e-01
6.559000000000000000e+03 5.615960693359375000e+01 1.108731269836425781e+01 -8.118177652359008789e-01 6.354032993316650391e+00 1.662664651870727539e+00 1.712274849414825439e-01
6.560000000000000000e+03 5.439472961425781250e+01 1.908836364746093750e+01 -8.043282032012939453e-01 6.919120788574218750e+00 1.834437727928161621e+00 7.311977148056030273e-01
6.561000000000000000e+03 5.526298522949218750e+01 1.880002021789550781e+01 -8.614228367805480957e-01 7.135345458984375000e+00 1.882176756858825684e+00 5.405377149581909180e-01
6.562000000000000000e+03 4.739141464233398438e+01 -2.332428693771362305e+00 -3.854000866413116455e-01 3.764156103134155273e+00 1.013626813888549805e+00 1.259859502315521240e-01
6.563000000000000000e+03 4.757881546020507812e+01 -1.108297348022460938e+00 -3.885551691055297852e-01 3.816741466522216797e+00 1.028455853462219238e+00 1.580076813697814941e-01
6.564000000000000000e+03 4.897402191162109375e+01 -8.652151107788085938e+00 -4.165602028369903564e-01 4.197296142578125000e+00 1.134220838546752930e+00 1.588274724781513214e-02
6.565000000000000000e+03 6.101707458496093750e+01 8.245126724243164062e+00 -7.074359655380249023e-01 6.989122867584228516e+00 1.884506106376647949e+00 -2.103456407785415649e-01
6.566000000000000000e+03 5.787286376953125000e+01 8.527350425720214844e+00 -7.542304992675781250e-01 6.478396892547607422e+00 1.717249870300292969e+00 9.511495940387248993e-03
6.567000000000000000e+03 4.033793258666992188e+01 3.738247156143188477e+00 -1.212696433067321777e-01 1.922313094139099121e+00 5.403130650520324707e-01 2.472291588783264160e-01
6.568000000000000000e+03 4.030864334106445312e+01 2.166308879852294922e+00 -1.294133216142654419e-01 1.959755778312683105e+00 5.491027235984802246e-01 1.897341758012771606e-01
6.569000000000000000e+03 4.755189895629882812e+01 -3.228296995162963867e+00 -3.870532512664794922e-01 3.822466373443603516e+00 1.030623912811279297e+00 9.651761502027511597e-02
6.570000000000000000e+03 4.518595123291015625e+01 8.135135173797607422e-01 -3.116376399993896484e-01 3.205882549285888672e+00 8.682734370231628418e-01 2.119640558958053589e-01
6.571000000000000000e+03 4.580727005004882812e+01 3.065651953220367432e-01 -3.340144753456115723e-01 3.372363328933715820e+00 9.115046262741088867e-01 1.998339146375656128e-01
6.572000000000000000e+03 5.754636001586914062e+01 1.055343818664550781e+01 -8.059926033020019531e-01 6.577538013458251953e+00 1.731463551521301270e+00 4.750292375683784485e-02
6.573000000000000000e+03 4.121589660644531250e+01 1.086596298217773438e+01 -1.609228849411010742e-01 1.903060913085937500e+00 5.226414203643798828e-01 5.010632276535034180e-01
6.574000000000000000e+03 4.494976806640625000e+01 1.505510044097900391e+01 -1.876668483018875122e-01 2.907241582870483398e+00 8.158723711967468262e-01 8.562399148941040039e-01
6.575000000000000000e+03 4.044774627685546875e+01 9.995697021484375000e+00 -1.480741351842880249e-01 1.731185436248779297e+00 4.749333858489990234e-01 4.444038867950439453e-01
6.576000000000000000e+03 4.119983673095703125e+01 1.032334136962890625e+01 -1.626134812831878662e-01 1.929078698158264160e+00 5.299395918846130371e-01 4.849446713924407959e-01
6.577000000000000000e+03 4.013090133666992188e+01 6.345000743865966797e+00 -1.221389248967170715e-01 1.803660154342651367e+00 5.044564008712768555e-01 3.341730237007141113e-01
6.578000000000000000e+03 4.304796981811523438e+01 1.397852420806884766e+01 -1.496445387601852417e-01 2.276975870132446289e+00 6.381994485855102539e-01 6.938539147377014160e-01
6.579000000000000000e+03 4.388446426391601562e+01 1.371121692657470703e+01 -1.859101355075836182e-01 2.591497421264648438e+00 7.216762304306030273e-01 7.326375246047973633e-01
6.580000000000000000e+03 3.996916580200195312e+01 4.216950416564941406e+00 -1.066072285175323486e-01 1.821386337280273438e+00 5.144337415695190430e-01 2.540561854839324951e-01
6.581000000000000000e+03 4.284839630126953125e+01 1.309830284118652344e+01 -1.635883152484893799e-01 2.272080183029174805e+00 6.325475573539733887e-01 6.506412029266357422e-01
6.582000000000000000e+03 4.733462905883789062e+01 1.607529067993164062e+01 -2.903165519237518311e-01 3.810218811035156250e+00 1.055970668792724609e+00 1.001192092895507812e+00
6.583000000000000000e+03 4.792625427246093750e+01 1.543108940124511719e+01 -3.664070963859558105e-01 4.046054363250732422e+00 1.103894233703613281e+00 9.510009288787841797e-01
6.584000000000000000e+03 5.145559310913085938e+01 1.949910545349121094e+01 -5.061299800872802734e-01 5.776262760162353516e+00 1.581039786338806152e+00 1.184174895286560059e+00
6.585000000000000000e+03 5.128060150146484375e+01 1.998020172119140625e+01 -4.545879065990447998e-01 5.707763671875000000e+00 1.575952768325805664e+00 1.255208373069763184e+00
6.586000000000000000e+03 3.795499420166015625e+01 2.822102785110473633e+00 -4.719127714633941650e-02 1.384437203407287598e+00 4.011737704277038574e-01 1.526525914669036865e-01
6.587000000000000000e+03 4.552923965454101562e+01 1.513238811492919922e+01 -2.171321511268615723e-01 3.115285634994506836e+00 8.694460391998291016e-01 8.763839602470397949e-01
6.588000000000000000e+03 4.475878906250000000e+01 1.562651443481445312e+01 -1.519798785448074341e-01 2.794214963912963867e+00 7.926704883575439453e-01 8.707290887832641602e-01
6.589000000000000000e+03 4.897594833374023438e+01 1.853867912292480469e+01 -3.027742803096771240e-01 4.534351348876953125e+00 1.269473075866699219e+00 1.205992460250854492e+00
6.590000000000000000e+03 4.875667190551757812e+01 1.771585464477539062e+01 -3.218793869018554688e-01 4.372050762176513672e+00 1.215051293373107910e+00 1.140249848365783691e+00
6.591000000000000000e+03 6.051195526123046875e+01 7.135868549346923828e+00 -6.883172988891601562e-01 6.843607425689697266e+00 1.846587061882019043e+00 -1.574028581380844116e-01
6.592000000000000000e+03 3.950202560424804688e+01 9.303504943847656250e+00 -1.251504272222518921e-01 1.512361645698547363e+00 4.161633551120758057e-01 3.823877871036529541e-01
6.593000000000000000e+03 5.196913146972656250e+01 2.104049873352050781e+01 -4.703218340873718262e-01 6.207774639129638672e+00 1.721235871315002441e+00 1.289357542991638184e+00
6.594000000000000000e+03 5.332489776611328125e+01 2.063160896301269531e+01 -6.534675955772399902e-01 6.751235961914062500e+00 1.829330444335937500e+00 1.037992715835571289e+00
6.595000000000000000e+03 4.002733993530273438e+01 6.804384231567382812e+00 -1.196413561701774597e-01 1.764957189559936523e+00 4.935947656631469727e-01 3.469035625457763672e-01
6.596000000000000000e+03 4.045508956909179688e+01 5.453565597534179688e+00 -1.260042935609817505e-01 1.908194541931152344e+00 5.346570611000061035e-01 3.138280808925628662e-01
6.597000000000000000e+03 4.330774307250976562e+01 1.320515823364257812e+01 -1.762298047542572021e-01 2.421900033950805664e+00 6.737010478973388672e-01 6.829240322113037109e-01
6.598000000000000000e+03 5.599266433715820312e+01 2.071381759643554688e+01 -8.495843410491943359e-01 7.733685493469238281e+00 2.065230369567871094e+00 5.030400753021240234e-01
6.599000000000000000e+03 4.287347030639648438e+01 2.549040079116821289e+00 -2.202893495559692383e-01 2.594104290008544922e+00 7.121444940567016602e-01 2.552376091480255127e-01
6.600000000000000000e+03 4.674169921875000000e+01 1.505799102783203125e+01 -2.984023988246917725e-01 3.581657648086547852e+00 9.849765896797180176e-01 9.128969907760620117e-01
6.601000000000000000e+03 5.522861862182617188e+01 1.707993888854980469e+01 -8.689613938331604004e-01 6.829294204711914062e+00 1.788099765777587891e+00 4.621879458427429199e-01
6.602000000000000000e+03 5.446857452392578125e+01 1.507040119171142578e+01 -8.290148973464965820e-01 6.344257831573486328e+00 1.654572844505310059e+00 4.676589369773864746e-01
6.603000000000000000e+03 4.835641479492187500e+01 -3.457747697830200195e-01 -4.152061343193054199e-01 4.001955986022949219e+00 1.076024889945983887e+00 1.852259486913681030e-01
6.604000000000000000e+03 4.835386276245117188e+01 3.985025584697723389e-01 -4.220447540283203125e-01 3.997164487838745117e+00 1.072535991668701172e+00 2.054844051599502563e-01
6.605000000000000000e+03 5.487582397460937500e+01 1.275818824768066406e+01 -8.061769604682922363e-01 6.202703475952148438e+00 1.618957996368408203e+00 3.422821760177612305e-01
6.606000000000000000e+03 5.462694931030273438e+01 1.209735298156738281e+01 -7.977851629257202148e-01 6.086588859558105469e+00 1.586641073226928711e+00 3.354955315589904785e-01
6.607000000000000000e+03 6.016841888427734375e+01 7.946738719940185547e+00 -7.193124890327453613e-01 6.834535121917724609e+00 1.834566831588745117e+00 -1.532108783721923828e-01
6.608000000000000000e+03 4.922920989990234375e+01 -1.942409038543701172e+00 -4.343730211257934570e-01 4.204379558563232422e+00 1.131001949310302734e+00 1.415621191263198853e-01
6.609000000000000000e+03 4.973034667968750000e+01 -6.400460720062255859e+00 -4.292874634265899658e-01 4.341430187225341797e+00 1.173642873764038086e+00 6.398781388998031616e-02
6.610000000000000000e+03 5.937936019897460938e+01 7.660140991210937500e+00 -7.185931205749511719e-01 6.698783397674560547e+00 1.794057130813598633e+00 -9.423839300870895386e-02
6.611000000000000000e+03 5.491556930541992188e+01 1.111611843109130859e+01 -7.811783552169799805e-01 6.061130523681640625e+00 1.583985686302185059e+00 2.802816927433013916e-01
6.612000000000000000e+03 4.930813217163085938e+01 -1.080109977722167969e+01 -4.258774220943450928e-01 4.301767349243164062e+00 1.162767052650451660e+00 2.241951646283268929e-03
6.613000000000000000e+03 5.043035507202148438e+01 -1.103335475921630859e+01 -4.279892444610595703e-01 4.552850723266601562e+00 1.237458467483520508e+00 1.639320328831672668e-02
6.614000000000000000e+03 4.505758285522460938e+01 1.546976089477539062e+00 -3.116854429244995117e-01 3.159352064132690430e+00 8.542999625205993652e-01 2.406394034624099731e-01
6.615000000000000000e+03 4.082874679565429688e+01 1.973596572875976562e+00 -1.467523872852325439e-01 2.093749046325683594e+00 5.840989947319030762e-01 2.013427317142486572e-01
6.616000000000000000e+03 5.414435195922851562e+01 1.353662681579589844e+01 -7.947121262550354004e-01 6.083161830902099609e+00 1.586534976959228516e+00 4.472339153289794922e-01
6.617000000000000000e+03 4.704067993164062500e+01 1.283207178115844727e+00 -3.801335990428924561e-01 3.676374197006225586e+00 9.888722300529479980e-01 2.384188622236251831e-01
6.618000000000000000e+03 5.021728515625000000e+01 -7.234907150268554688e+00 -4.396050572395324707e-01 4.445588111877441406e+00 1.201794981956481934e+00 5.612072348594665527e-02
6.619000000000000000e+03 4.221603775024414062e+01 1.089980888366699219e+01 -1.884795874357223511e-01 2.201212167739868164e+00 6.038197875022888184e-01 5.512335300445556641e-01
6.620000000000000000e+03 4.859081649780273438e+01 1.717340278625488281e+01 -3.509386181831359863e-01 4.357772350311279297e+00 1.202050089836120605e+00 1.083165645599365234e+00
6.621000000000000000e+03 4.837052536010742188e+01 1.760532569885253906e+01 -3.071656823158264160e-01 4.260949611663818359e+00 1.186135172843933105e+00 1.138339281082153320e+00
6.622000000000000000e+03 4.281325149536132812e+01 1.202194976806640625e+01 -1.894030570983886719e-01 2.332127571105957031e+00 6.428173184394836426e-01 6.074181795120239258e-01
6.623000000000000000e+03 4.305788040161132812e+01 1.263384532928466797e+01 -1.863222420215606689e-01 2.370171070098876953e+00 6.551546454429626465e-01 6.472683548927307129e-01
6.624000000000000000e+03 4.418330383300781250e+01 1.425357532501220703e+01 -1.768865138292312622e-01 2.665008783340454102e+00 7.464367151260375977e-01 7.781027555465698242e-01
6.625000000000000000e+03 4.082981872558593750e+01 9.283675193786621094e+00 -1.552359163761138916e-01 1.870222687721252441e+00 5.144960284233093262e-01 4.440981149673461914e-01
6.626000000000000000e+03 5.385855102539062500e+01 2.109441947937011719e+01 -6.911387443542480469e-01 7.071792602539062500e+00 1.914196133613586426e+00 9.764334559440612793e-01
6.627000000000000000e+03 4.342214584350585938e+01 1.404058456420898438e+01 -1.569668948650360107e-01 2.402702093124389648e+00 6.737205386161804199e-01 7.148694992065429688e-01
6.628000000000000000e+03 4.379067230224609375e+01 1.413768100738525391e+01 -1.650492548942565918e-01 2.535122871398925781e+00 7.110220789909362793e-01 7.437474131584167480e-01
6.629000000000000000e+03 4.432026290893554688e+01 1.372746276855468750e+01 -2.050276696681976318e-01 2.741243600845336914e+00 7.608647942543029785e-01 7.575108408927917480e-01
6.630000000000000000e+03 4.992302703857421875e+01 1.872485351562500000e+01 -3.899980187416076660e-01 4.987453460693359375e+00 1.379236578941345215e+00 1.190469145774841309e+00
6.631000000000000000e+03 5.108477020263671875e+01 1.882377243041992188e+01 -5.003327131271362305e-01 5.517610073089599609e+00 1.505183219909667969e+00 1.143783926963806152e+00
6.632000000000000000e+03 5.185350036621093750e+01 1.850467109680175781e+01 -5.958462953567504883e-01 5.816968917846679688e+00 1.566336750984191895e+00 1.023443341255187988e+00
6.633000000000000000e+03 4.918272018432617188e+01 1.760048866271972656e+01 -3.785516619682312012e-01 4.592434883117675781e+00 1.264164924621582031e+00 1.112365841865539551e+00
6.634000000000000000e+03 4.912917327880859375e+01 -2.951332628726959229e-01 -4.378840029239654541e-01 4.184520244598388672e+00 1.123990893363952637e+00 1.836925297975540161e-01
6.635000000000000000e+03 4.565760040283203125e+01 1.455365085601806641e+01 -2.483748346567153931e-01 3.188266277313232422e+00 8.819674253463745117e-01 8.545182943344116211e-01
6.636000000000000000e+03 5.472081375122070312e+01 1.610849571228027344e+01 -8.406404852867126465e-01 6.537008762359619141e+00 1.708910465240478516e+00 4.899515509605407715e-01
6.637000000000000000e+03 4.024963760375976562e+01 7.448050498962402344e+00 -1.308302283287048340e-01 1.793757915496826172e+00 4.988783001899719238e-01 3.777256906032562256e-01
6.638000000000000000e+03 4.101990127563476562e+01 8.291424751281738281e+00 -1.607226133346557617e-01 1.958661675453186035e+00 5.393817424774169922e-01 4.243760108947753906e-01
6.639000000000000000e+03 4.065262222290039062e+01 3.266375780105590820e+00 -1.349685490131378174e-01 2.001200437545776367e+00 5.598695278167724609e-01 2.415202260017395020e-01
6.640000000000000000e+03 4.085328674316406250e+01 4.037033081054687500e+00 -1.414252370595932007e-01 2.058954238891601562e+00 5.752586722373962402e-01 2.721165418624877930e-01
6.641000000000000000e+03 4.102730178833007812e+01 7.147037982940673828e+00 -1.556113511323928833e-01 2.002755403518676758e+00 5.541431903839111328e-01 3.828486204147338867e-01
6.642000000000000000e+03 4.172933959960937500e+01 1.083253479003906250e+01 -1.715275198221206665e-01 2.037929058074951172e+00 5.599204897880554199e-01 5.219379663467407227e-01
6.643000000000000000e+03 4.297785949707031250e+01 1.154063701629638672e+01 -2.042911648750305176e-01 2.399754285812377930e+00 6.586389541625976562e-01 6.060627698898315430e-01
6.644000000000000000e+03 5.378415679931640625e+01 1.479691982269287109e+01 -7.925156950950622559e-01 6.125792026519775391e+00 1.599982857704162598e+00 5.423263311386108398e-01
6.645000000000000000e+03 5.427795410156250000e+01 2.059601020812988281e+01 -7.350744009017944336e-01 7.120237827301025391e+00 1.915548920631408691e+00 8.741297125816345215e-01
6.646000000000000000e+03 5.407576751708984375e+01 1.963761520385742188e+01 -7.510375380516052246e-01 6.860754966735839844e+00 1.832915306091308594e+00 8.253982663154602051e-01
6.647000000000000000e+03 5.386159896850585938e+01 1.883335494995117188e+01 -7.661706209182739258e-01 6.662373542785644531e+00 1.768860936164855957e+00 7.841355800628662109e-01
6.648000000000000000e+03 4.793371963500976562e+01 1.645050811767578125e+01 -3.190453648567199707e-01 4.064949035644531250e+00 1.123771071434020996e+00 1.042101383209228516e+00
6.649000000000000000e+03 4.790390777587890625e+01 1.595879554748535156e+01 -3.473795354366302490e-01 4.042539119720458984e+00 1.108547806739807129e+00 9.882076382637023926e-01
6.650000000000000000e+03 6.515983581542968750e+01 6.830273151397705078e+00 -5.338507294654846191e-01 7.443976402282714844e+00 2.073037624359130859e+00 -3.873124420642852783e-01
6.651000000000000000e+03 6.170715332031250000e+01 6.484745502471923828e+00 -6.449080109596252441e-01 6.984515666961669922e+00 1.901882290840148926e+00 -2.099518030881881714e-01
6.652000000000000000e+03 6.273112869262695312e+01 6.699407100677490234e+00 -6.282614469528198242e-01 7.142013549804687500e+00 1.954125642776489258e+00 -2.777351737022399902e-01
6.653000000000000000e+03 5.165144348144531250e+01 -8.182235717773437500e+00 -4.458494782447814941e-01 4.767802238464355469e+00 1.296585917472839355e+00 5.788465961813926697e-02
6.654000000000000000e+03 4.134237289428710938e+01 5.270562171936035156e+00 -1.583217829465866089e-01 2.146626472473144531e+00 5.964913964271545410e-01 3.277437686920166016e-01
6.655000000000000000e+03 4.166153717041015625e+01 9.442869186401367188e+00 -1.782270520925521851e-01 2.104820966720581055e+00 5.779781937599182129e-01 4.825074374675750732e-01
6.656000000000000000e+03 5.494896316528320312e+01 1.019069385528564453e+01 -7.616338133811950684e-01 5.977539539337158203e+00 1.564771771430969238e+00 2.565857470035552979e-01
6.657000000000000000e+03 5.526411819458007812e+01 9.747053146362304688e+00 -7.584204673767089844e-01 6.019866466522216797e+00 1.578433752059936523e+00 2.115760594606399536e-01
6.658000000000000000e+03 5.007757949829101562e+01 -4.084002017974853516e+00 -4.406067132949829102e-01 4.401396274566650391e+00 1.188236832618713379e+00 9.420969337224960327e-02
6.659000000000000000e+03 5.031844711303710938e+01 -2.634172439575195312e+00 -4.552798569202423096e-01 4.449405670166015625e+00 1.198237776756286621e+00 1.268452107906341553e-01
6.660000000000000000e+03 4.517374420166015625e+01 2.400782108306884766e+00 -3.099279999732971191e-01 3.191218376159667969e+00 8.643870949745178223e-01 2.737296521663665771e-01
6.661000000000000000e+03 4.541630935668945312e+01 1.211768269538879395e+00 -3.283101022243499756e-01 3.246441841125488281e+00 8.754394650459289551e-01 2.344039082527160645e-01
6.662000000000000000e+03 4.918419647216796875e+01 -1.078896760940551758e+00 -4.339098334312438965e-01 4.191537857055664062e+00 1.127288341522216797e+00 1.649126112461090088e-01
6.663000000000000000e+03 5.012681579589843750e+01 -1.772273421287536621e+00 -4.510465562343597412e-01 4.409674167633056641e+00 1.187588334083557129e+00 1.427234411239624023e-01
6.664000000000000000e+03 4.952946472167968750e+01 -4.808963298797607422e+00 -4.313566088676452637e-01 4.282999515533447266e+00 1.155492901802062988e+00 8.331678062677383423e-02
6.665000000000000000e+03 5.710007095336914062e+01 8.706191062927246094e+00 -7.617220282554626465e-01 6.354194164276123047e+00 1.677741646766662598e+00 6.222022697329521179e-02
6.666000000000000000e+03 4.159227752685546875e+01 2.664885520935058594e+00 -1.676474809646606445e-01 2.255449533462524414e+00 6.263406276702880859e-01 2.332930564880371094e-01
6.667000000000000000e+03 6.242077636718750000e+01 7.694741725921630859e+00 -6.586335301399230957e-01 7.155863761901855469e+00 1.949169039726257324e+00 -2.825939655303955078e-01
6.668000000000000000e+03 6.378814315795898438e+01 5.830714225769042969e+00 -5.772477984428405762e-01 7.222688674926757812e+00 1.993632316589355469e+00 -2.875968515872955322e-01
6.669000000000000000e+03 3.975926208496093750e+01 7.240455627441406250e+00 -1.155230700969696045e-01 1.676159024238586426e+00 4.681907892227172852e-01 3.485408127307891846e-01
6.670000000000000000e+03 3.930079650878906250e+01 6.973991870880126953e+00 -9.807735681533813477e-02 1.565072774887084961e+00 4.400986135005950928e-01 3.244950771331787109e-01
6.671000000000000000e+03 4.771994781494140625e+01 1.234431862831115723e+00 -4.039587378501892090e-01 3.832170009613037109e+00 1.028463363647460938e+00 2.309460192918777466e-01
6.672000000000000000e+03 5.408573913574218750e+01 1.292866230010986328e+01 -7.943763136863708496e-01 6.014429569244384766e+00 1.566015958786010742e+00 4.124799370765686035e-01
6.673000000000000000e+03 4.025683212280273438e+01 2.941691398620605469e+00 -1.212122067809104919e-01 1.927975773811340332e+00 5.420290827751159668e-01 2.190867215394973755e-01
6.674000000000000000e+03 4.839260864257812500e+01 1.108185410499572754e+00 -4.239378571510314941e-01 4.014144897460937500e+00 1.077062129974365234e+00 2.267424315214157104e-01
6.675000000000000000e+03 5.441907119750976562e+01 1.057347297668457031e+01 -7.553016543388366699e-01 5.897812366485595703e+00 1.542753219604492188e+00 3.040218353271484375e-01
6.676000000000000000e+03 5.541204071044921875e+01 1.170044994354248047e+01 -8.011439442634582520e-01 6.233846664428710938e+00 1.629810810089111328e+00 2.475444227457046509e-01
6.677000000000000000e+03 5.898623657226562500e+01 8.381255149841308594e+00 -7.440615296363830566e-01 6.667607307434082031e+00 1.777063727378845215e+00 -7.573999464511871338e-02
6.678000000000000000e+03 5.163209915161132812e+01 -9.055965423583984375e+00 -4.462456703186035156e-01 4.775586128234863281e+00 1.298802137374877930e+00 5.209155380725860596e-02
6.679000000000000000e+03 4.512798309326171875e+01 1.448546123504638672e+01 -2.225948423147201538e-01 2.994232416152954102e+00 8.314912915229797363e-01 8.257723450660705566e-01
6.680000000000000000e+03 4.353467559814453125e+01 1.277664279937744141e+01 -1.985943913459777832e-01 2.512017488479614258e+00 6.940268874168395996e-01 6.784833669662475586e-01
6.681000000000000000e+03 4.399523162841796875e+01 1.298835468292236328e+01 -2.122055143117904663e-01 2.659733533859252930e+00 7.342584133148193359e-01 7.080373764038085938e-01
6.682000000000000000e+03 4.843062210083007812e+01 1.633654022216796875e+01 -3.772751390933990479e-01 4.260658740997314453e+00 1.165014982223510742e+00 1.020567297935485840e+00
6.683000000000000000e+03 5.336759185791015625e+01 1.308284378051757812e+01 -7.522063851356506348e-01 5.822660446166992188e+00 1.521136283874511719e+00 5.037090182304382324e-01
6.684000000000000000e+03 5.326585388183593750e+01 1.257938003540039062e+01 -7.499920129776000977e-01 5.743313789367675781e+00 1.497996568679809570e+00 4.782125651836395264e-01
6.685000000000000000e+03 4.180924606323242188e+01 1.032046890258789062e+01 -1.781440377235412598e-01 2.096880912780761719e+00 5.756210684776306152e-01 5.152784585952758789e-01
6.686000000000000000e+03 4.210134124755859375e+01 9.810519218444824219e+00 -1.894660890102386475e-01 2.213533639907836914e+00 6.072202324867248535e-01 5.143433809280395508e-01
6.687000000000000000e+03 4.228117370605468750e+01 3.248368501663208008e+00 -1.936768889427185059e-01 2.429729461669921875e+00 6.708157658576965332e-01 2.747621536254882812e-01
6.688000000000000000e+03 4.132284545898437500e+01 9.011608123779296875e+00 -1.665599942207336426e-01 2.019427776336669922e+00 5.558603405952453613e-01 4.540394544601440430e-01
6.689000000000000000e+03 4.074906158447265625e+01 7.644325256347656250e+00 -1.474411636590957642e-01 1.920437812805175781e+00 5.318990349769592285e-01 3.969353735446929932e-01
6.690000000000000000e+03 5.059616470336914062e+01 1.860181808471679688e+01 -4.596465528011322021e-01 5.263334274291992188e+00 1.441106319427490234e+00 1.153687715530395508e+00
6.691000000000000000e+03 5.162119674682617188e+01 1.898972129821777344e+01 -5.564563274383544922e-01 5.788119792938232422e+00 1.569499135017395020e+00 1.093813180923461914e+00
6.692000000000000000e+03 4.330634689331054688e+01 1.213057327270507812e+01 -2.055755704641342163e-01 2.476185083389282227e+00 6.811828613281250000e-01 6.444625258445739746e-01
6.693000000000000000e+03 5.275360488891601562e+01 2.050146865844726562e+01 -5.898970961570739746e-01 6.495028495788574219e+00 1.771539449691772461e+00 1.120693802833557129e+00
6.694000000000000000e+03 4.263555526733398438e+01 1.104572486877441406e+01 -1.954876631498336792e-01 2.315727949142456055e+00 6.360720992088317871e-01 5.646803379058837891e-01
6.695000000000000000e+03 4.179096603393554688e+01 8.612851142883300781e+00 -1.801156550645828247e-01 2.161063671112060547e+00 5.942844152450561523e-01 4.612530469894409180e-01
6.696000000000000000e+03 5.360281753540039062e+01 1.639517021179199219e+01 -7.783073186874389648e-01 6.233626842498779297e+00 1.636595845222473145e+00 6.585943698883056641e-01
6.697000000000000000e+03 4.132494735717773438e+01 4.403406620025634766e+00 -1.564493328332901001e-01 2.162675142288208008e+00 6.018677353858947754e-01 2.985596358776092529e-01
6.698000000000000000e+03 5.020439529418945312e+01 1.837634277343750000e+01 -4.344794452190399170e-01 5.097303390502929688e+00 1.398847103118896484e+00 1.156218767166137695e+00
6.699000000000000000e+03 6.006385040283203125e+01 5.301005840301513672e+00 -6.530746817588806152e-01 6.666959762573242188e+00 1.804165601730346680e+00 -1.038625687360763550e-01
6.700000000000000000e+03 4.911132431030273438e+01 1.646856880187988281e+01 -4.283723235130310059e-01 4.565339565277099609e+00 1.241090178489685059e+00 1.004581332206726074e+00
6.701000000000000000e+03 4.951550674438476562e+01 1.687447357177734375e+01 -4.359517395496368408e-01 4.729514598846435547e+00 1.288068771362304688e+00 1.047273397445678711e+00
6.702000000000000000e+03 4.069995880126953125e+01 6.394555091857910156e+00 -1.399458199739456177e-01 1.940904736518859863e+00 5.402876734733581543e-01 3.507056832313537598e-01
6.703000000000000000e+03 5.032826232910156250e+01 1.797919464111328125e+01 -4.702386856079101562e-01 5.103643894195556641e+00 1.390021681785583496e+00 1.103042006492614746e+00
6.704000000000000000e+03 4.993129730224609375e+01 1.812898635864257812e+01 -4.210598468780517578e-01 4.957292556762695312e+00 1.360869884490966797e+00 1.134996414184570312e+00
6.705000000000000000e+03 5.317518997192382812e+01 1.452573585510253906e+01 -7.531266808509826660e-01 5.899758815765380859e+00 1.543989539146423340e+00 5.914679169654846191e-01
6.706000000000000000e+03 5.990749740600585938e+01 6.127202987670898438e+00 -6.723265051841735840e-01 6.687833786010742188e+00 1.804652214050292969e+00 -1.038801148533821106e-01
6.707000000000000000e+03 5.909511184692382812e+01 5.993717670440673828e+00 -6.842812895774841309e-01 6.536884307861328125e+00 1.755780935287475586e+00 -5.926403775811195374e-02
6.708000000000000000e+03 4.371605682373046875e+01 1.337939262390136719e+01 -1.864412724971771240e-01 2.552965641021728516e+00 7.099573016166687012e-01 7.168301343917846680e-01
6.709000000000000000e+03 5.627489852905273438e+01 8.683844566345214844e+00 -7.494733929634094238e-01 6.185294628143310547e+00 1.630746364593505859e+00 1.267313957214355469e-01
6.710000000000000000e+03 5.266864776611328125e+01 1.992396926879882812e+01 -6.224017143249511719e-01 6.344664096832275391e+00 1.716678738594055176e+00 1.053528666496276855e+00
6.711000000000000000e+03 5.783658218383789062e+01 7.154335498809814453e+00 -7.137894034385681152e-01 6.380985260009765625e+00 1.700158834457397461e+00 1.287713740020990372e-02
6.712000000000000000e+03 5.367505264282226562e+01 2.013500595092773438e+01 -7.065503597259521484e-01 6.823017120361328125e+00 1.834939956665039062e+00 9.369866251945495605e-01
6.713000000000000000e+03 5.169883346557617188e+01 -7.381630897521972656e+00 -4.523556530475616455e-01 4.774915218353271484e+00 1.296767830848693848e+00 6.308163702487945557e-02
6.714000000000000000e+03 5.144783020019531250e+01 -4.057698249816894531e+00 -4.599023759365081787e-01 4.707702159881591797e+00 1.274339914321899414e+00 9.811102598905563354e-02
6.715000000000000000e+03 4.466019821166992188e+01 1.950574517250061035e+00 -2.928245663642883301e-01 3.058196306228637695e+00 8.296114802360534668e-01 2.562292814254760742e-01
6.716000000000000000e+03 4.482226562500000000e+01 2.872094154357910156e+00 -2.972942590713500977e-01 3.099216461181640625e+00 8.405767083168029785e-01 2.904362380504608154e-01
6.717000000000000000e+03 4.631282043457031250e+01 1.784482002258300781e+00 -3.550418019294738770e-01 3.480187177658081055e+00 9.375436305999755859e-01 2.452466040849685669e-01
6.718000000000000000e+03 4.646798324584960938e+01 1.226074218750000000e+00 -3.632715046405792236e-01 3.528798103332519531e+00 9.496579766273498535e-01 2.256928682327270508e-01
6.719000000000000000e+03 4.851050186157226562e+01 1.719131231307983398e+00 -4.321115911006927490e-01 4.037005901336669922e+00 1.081468224525451660e+00 2.407227754592895508e-01
6.720000000000000000e+03 4.111006546020507812e+01 3.454379558563232422e+00 -1.511258035898208618e-01 2.139031648635864258e+00 5.963717699050903320e-01 2.565281391143798828e-01
6.721000000000000000e+03 4.677317428588867188e+01 1.448410606384277344e+01 -3.163371086120605469e-01 3.612253904342651367e+00 9.887750148773193359e-01 8.740561008453369141e-01
6.722000000000000000e+03 4.846071243286132812e+01 1.591360473632812500e+01 -3.940703272819519043e-01 4.271841526031494141e+00 1.163331389427185059e+00 9.833418726921081543e-01
6.723000000000000000e+03 5.170484924316406250e+01 2.027048683166503906e+01 -4.924127161502838135e-01 5.968826770782470703e+00 1.642924308776855469e+00 1.235641837120056152e+00
6.724000000000000000e+03 4.990351867675781250e+01 -1.780810505151748657e-01 -4.583663642406463623e-01 4.370911598205566406e+00 1.173763632774353027e+00 1.808423399925231934e-01
6.725000000000000000e+03 4.551784515380859375e+01 1.955896496772766113e+00 -3.242607414722442627e-01 3.270925521850585938e+00 8.839994072914123535e-01 2.587812840938568115e-01
6.726000000000000000e+03 5.305937194824218750e+01 1.690650939941406250e+01 -7.484962344169616699e-01 6.130844116210937500e+00 1.614704370498657227e+00 7.474521398544311523e-01
6.727000000000000000e+03 5.250763702392578125e+01 1.646749114990234375e+01 -7.036381959915161133e-01 5.858129978179931641e+00 1.546347498893737793e+00 7.747380137443542480e-01
6.728000000000000000e+03 6.077362823486328125e+01 6.291271209716796875e+00 -6.649664044380187988e-01 6.830835342407226562e+00 1.849760770797729492e+00 -1.606763899326324463e-01
6.729000000000000000e+03 5.096836471557617188e+01 -7.281636714935302734e+00 -4.418859183788299561e-01 4.627037048339843750e+00 1.255545377731323242e+00 6.012425571680068970e-02
6.730000000000000000e+03 5.293067932128906250e+01 2.102859687805175781e+01 -5.927952527999877930e-01 6.653356075286865234e+00 1.818168163299560547e+00 1.160247921943664551e+00
6.731000000000000000e+03 5.541724395751953125e+01 9.199748992919921875e+00 -7.450868487358093262e-01 6.042442321777343750e+00 1.589206695556640625e+00 1.946120113134384155e-01
6.732000000000000000e+03 5.552102279663085938e+01 8.116954803466796875e+00 -7.182427644729614258e-01 5.959672927856445312e+00 1.572429060935974121e+00 1.681394279003143311e-01
6.733000000000000000e+03 5.527416610717773438e+01 2.041539192199707031e+01 -8.177171349525451660e-01 7.446160793304443359e+00 1.988533139228820801e+00 6.303161382675170898e-01
6.734000000000000000e+03 5.271439743041992188e+01 1.765353202819824219e+01 -6.961289644241333008e-01 6.050811767578125000e+00 1.606404900550842285e+00 8.502259254455566406e-01
6.735000000000000000e+03 5.556331253051757812e+01 8.647519111633300781e+00 -7.433596849441528320e-01 6.018692970275878906e+00 1.582599997520446777e+00 1.781672984361648560e-01
6.736000000000000000e+03 5.146891021728515625e+01 -2.950272321701049805e+00 -4.708849787712097168e-01 4.708965778350830078e+00 1.271424293518066406e+00 1.151051297783851624e-01
6.737000000000000000e+03 5.082233428955078125e+01 -7.567527294158935547e-01 -4.752736091613769531e-01 4.580481529235839844e+00 1.231562376022338867e+00 1.591828316450119019e-01
6.738000000000000000e+03 4.127608489990234375e+01 6.614378452301025391e+00 -1.600642949342727661e-01 2.084721803665161133e+00 5.773972272872924805e-01 3.769743442535400391e-01
6.739000000000000000e+03 4.121809387207031250e+01 7.854262828826904297e+00 -1.630622595548629761e-01 2.031229257583618164e+00 5.604501366615295410e-01 4.154038131237030029e-01
6.740000000000000000e+03 4.414977645874023438e+01 1.070520591735839844e+01 -2.587068080902099609e-01 2.797045707702636719e+00 7.615016698837280273e-01 6.119163036346435547e-01
6.741000000000000000e+03 4.338242340087890625e+01 1.057828712463378906e+01 -2.260016947984695435e-01 2.578043937683105469e+00 7.056126594543457031e-01 5.960731506347656250e-01
6.742000000000000000e+03 4.168535995483398438e+01 3.390363931655883789e+00 -1.740669608116149902e-01 2.271005868911743164e+00 6.290816664695739746e-01 2.687889337539672852e-01
6.743000000000000000e+03 4.254093933105468750e+01 1.007999992370605469e+01 -2.032104730606079102e-01 2.329686164855957031e+00 6.379427313804626465e-01 5.442170500755310059e-01
6.744000000000000000e+03 4.351922225952148438e+01 1.369384574890136719e+01 -1.727736741304397583e-01 2.447698354721069336e+00 6.824774146080017090e-01 7.133408188819885254e-01
6.745000000000000000e+03 4.480561828613281250e+01 1.383729839324951172e+01 -2.248021513223648071e-01 2.908819198608398438e+00 8.052051067352294922e-01 7.785752415657043457e-01
6.746000000000000000e+03 4.627738571166992188e+01 1.405469417572021484e+01 -2.987326681613922119e-01 3.420458078384399414e+00 9.365175962448120117e-01 8.457182049751281738e-01
6.747000000000000000e+03 5.240639877319335938e+01 1.871756553649902344e+01 -6.440526843070983887e-01 6.080959320068359375e+00 1.631071925163269043e+00 9.815464615821838379e-01
6.748000000000000000e+03 4.447540664672851562e+01 1.319079208374023438e+01 -2.273056060075759888e-01 2.811439037322998047e+00 7.752400040626525879e-01 7.362563014030456543e-01
6.749000000000000000e+03 5.621805191040039062e+01 7.977289676666259766e+00 -7.342109084129333496e-01 6.123381137847900391e+00 1.616751074790954590e+00 1.190684288740158081e-01
6.750000000000000000e+03 5.699197387695312500e+01 7.897112369537353516e+00 -7.329064011573791504e-01 6.269463539123535156e+00 1.660967111587524414e+00 6.585079431533813477e-02
6.751000000000000000e+03 4.184783935546875000e+01 4.027691841125488281e+00 -1.776245683431625366e-01 2.309855222702026367e+00 6.396691799163818359e-01 2.946940660476684570e-01
6.752000000000000000e+03 4.152915954589843750e+01 8.181209564208984375e+00 -1.768459081649780273e-01 2.091091871261596680e+00 5.742737650871276855e-01 4.417167305946350098e-01
6.753000000000000000e+03 5.198670959472656250e+01 1.957903099060058594e+01 -5.651954412460327148e-01 6.015269756317138672e+00 1.635022282600402832e+00 1.121827483177185059e+00
6.754000000000000000e+03 4.379614639282226562e+01 1.228033161163330078e+01 -2.195894271135330200e-01 2.619733333587646484e+00 7.200431227684020996e-01 6.721706986427307129e-01
6.755000000000000000e+03 4.425770187377929688e+01 1.248303699493408203e+01 -2.349692285060882568e-01 2.771659851074218750e+00 7.610071897506713867e-01 6.955362558364868164e-01
6.756000000000000000e+03 4.882571792602539062e+01 1.611618232727050781e+01 -4.156946837902069092e-01 4.399578571319580078e+00 1.195165157318115234e+00 9.826778769493103027e-01
6.757000000000000000e+03 4.153253173828125000e+01 6.067070484161376953e+00 -1.687340885400772095e-01 2.178077220916748047e+00 6.028029322624206543e-01 3.698604106903076172e-01
6.758000000000000000e+03 4.205658721923828125e+01 6.282789230346679688e+00 -1.875784695148468018e-01 2.312241315841674805e+00 6.373988389968872070e-01 3.872551620006561279e-01
6.759000000000000000e+03 5.018449020385742188e+01 1.643984985351562500e+01 -5.171226263046264648e-01 4.968822002410888672e+00 1.335509777069091797e+00 9.611452817916870117e-01
6.760000000000000000e+03 4.735408020019531250e+01 1.436146545410156250e+01 -3.599264621734619141e-01 3.821611642837524414e+00 1.038505554199218750e+00 8.769218921661376953e-01
6.761000000000000000e+03 4.863236236572265625e+01 1.417290878295898438e+01 -4.565924406051635742e-01 4.302536010742187500e+00 1.153782963752746582e+00 8.439955711364746094e-01
6.762000000000000000e+03 5.038951873779296875e+01 1.744364738464355469e+01 -4.938252568244934082e-01 5.125617504119873047e+00 1.389537692070007324e+00 1.051690936088562012e+00
6.763000000000000000e+03 4.962668609619140625e+01 1.792331504821777344e+01 -4.082138538360595703e-01 4.854749679565429688e+00 1.333960771560668945e+00 1.130428194999694824e+00
6.764000000000000000e+03 5.100122451782226562e+01 1.763068771362304688e+01 -5.500501990318298340e-01 5.396213531494140625e+00 1.453849077224731445e+00 1.014795541763305664e+00
6.765000000000000000e+03 4.675274276733398438e+01 1.393890953063964844e+01 -3.337097764015197754e-01 3.600956439971923828e+00 9.801739454269409180e-01 8.356328606605529785e-01
6.766000000000000000e+03 4.237159729003906250e+01 3.832025289535522461e+00 -1.995566636323928833e-01 2.428692102432250977e+00 6.687406897544860840e-01 2.935362756252288818e-01
6.767000000000000000e+03 4.859286880493164062e+01 1.479665851593017578e+01 -4.366109967231750488e-01 4.308625698089599609e+00 1.161604404449462891e+00 8.967795372009277344e-01
6.768000000000000000e+03 4.856112670898437500e+01 1.539611434936523438e+01 -4.144528508186340332e-01 4.293052673339843750e+00 1.163579940795898438e+00 9.429993629455566406e-01
6.769000000000000000e+03 4.357199478149414062e+01 1.101165866851806641e+01 -2.301518470048904419e-01 2.597445249557495117e+00 7.101880311965942383e-01 6.159626841545104980e-01
6.770000000000000000e+03 4.455336761474609375e+01 1.198291110992431641e+01 -2.601628005504608154e-01 2.897404909133911133e+00 7.911726236343383789e-01 6.847356557846069336e-01
6.771000000000000000e+03 5.333525085449218750e+01 1.752381324768066406e+01 -7.516497373580932617e-01 6.295093059539794922e+00 1.663033008575439453e+00 7.717396616935729980e-01
6.772000000000000000e+03 5.333335113525390625e+01 1.881392669677734375e+01 -7.237382531166076660e-01 6.479082107543945312e+00 1.726603150367736816e+00 8.854029178619384766e-01
6.773000000000000000e+03 5.361158370971679688e+01 1.926605033874511719e+01 -7.358294129371643066e-01 6.664704322814941406e+00 1.778662443161010742e+00 8.741111755371093750e-01
6.774000000000000000e+03 5.426758193969726562e+01 1.151599884033203125e+01 -7.662566304206848145e-01 5.941168785095214844e+00 1.552473545074462891e+00 3.472678959369659424e-01
6.775000000000000000e+03 5.351487731933593750e+01 1.357417392730712891e+01 -7.741576433181762695e-01 5.905799388885498047e+00 1.539492607116699219e+00 5.020020604133605957e-01
6.776000000000000000e+03 5.233971023559570312e+01 1.293872261047363281e+01 -7.027475833892822266e-01 5.495952606201171875e+00 1.437961578369140625e+00 5.810977220535278320e-01
6.777000000000000000e+03 5.204177474975585938e+01 -2.039410591125488281e+00 -4.875130653381347656e-01 4.858777523040771484e+00 1.311379313468933105e+00 1.227927580475807190e-01
6.778000000000000000e+03 5.164070129394531250e+01 -5.350167155265808105e-01 -4.941638112068176270e-01 4.771369934082031250e+00 1.283161878585815430e+00 1.515963673591613770e-01
6.779000000000000000e+03 5.340977096557617188e+01 1.538451004028320312e+01 -7.691424489021301270e-01 6.058191299438476562e+00 1.586714625358581543e+00 6.141611337661743164e-01
6.780000000000000000e+03 5.261468505859375000e+01 1.420876884460449219e+01 -7.222095131874084473e-01 5.689089298248291016e+00 1.490064024925231934e+00 6.200571060180664062e-01
6.781000000000000000e+03 5.334616088867187500e+01 -7.906788349151611328e+00 -4.499040544033050537e-01 5.120235919952392578e+00 1.401099562644958496e+00 7.565223425626754761e-02
6.782000000000000000e+03 5.836745452880859375e+01 5.201778888702392578e+00 -6.665865182876586914e-01 6.374563694000244141e+00 1.712393164634704590e+00 -1.755377463996410370e-02
6.783000000000000000e+03 6.205096817016601562e+01 4.594997406005859375e+00 -5.901477336883544922e-01 6.941849708557128906e+00 1.905510544776916504e+00 -1.801873445510864258e-01
6.784000000000000000e+03 6.311694717407226562e+01 4.681273460388183594e+00 -5.699804425239562988e-01 7.097499370574951172e+00 1.958255767822265625e+00 -2.282181382179260254e-01
6.785000000000000000e+03 5.196032714843750000e+01 -3.402194738388061523e+00 -4.764125943183898926e-01 4.827899456024169922e+00 1.305446028709411621e+00 1.088754013180732727e-01
6.786000000000000000e+03 6.563005828857421875e+01 4.570084571838378906e+00 -4.734798371791839600e-01 7.437058448791503906e+00 2.089073657989501953e+00 -3.097250163555145264e-01
6.787000000000000000e+03 6.508385467529296875e+01 5.445147037506103516e+00 -5.112186074256896973e-01 7.396591663360595703e+00 2.065611839294433594e+00 -3.286184966564178467e-01
6.788000000000000000e+03 6.288182830810546875e+01 5.681432247161865234e+00 -5.851759910583496094e-01 7.111865043640136719e+00 1.958006739616394043e+00 -2.487484216690063477e-01
6.789000000000000000e+03 4.900749588012695312e+01 1.693613529205322266e+00 -4.470591545104980469e-01 4.171909809112548828e+00 1.117455244064331055e+00 2.403867542743682861e-01
6.790000000000000000e+03 5.131511306762695312e+01 -5.427006244659423828e+00 -4.532951712608337402e-01 4.683211326599121094e+00 1.268974900245666504e+00 8.043086528778076172e-02
6.791000000000000000e+03 5.227521896362304688e+01 -4.464974403381347656e+00 -4.718127250671386719e-01 4.877470016479492188e+00 1.321697115898132324e+00 9.108243137598037720e-02
6.792000000000000000e+03 6.107630920410156250e+01 4.505904674530029297e+00 -6.154050827026367188e-01 6.791404724121093750e+00 1.852799892425537109e+00 -1.370012611150741577e-01
6.793000000000000000e+03 4.346026611328125000e+01 2.684668302536010742e+00 -2.437489777803421021e-01 2.727653503417968750e+00 7.451713085174560547e-01 2.669057250022888184e-01
6.794000000000000000e+03 4.844884872436523438e+01 2.549841642379760742e+00 -4.352781772613525391e-01 4.033530712127685547e+00 1.079475760459899902e+00 2.757376730442047119e-01
6.795000000000000000e+03 4.749655914306640625e+01 2.455976963043212891e+00 -3.998120725154876709e-01 3.788651466369628906e+00 1.016651868820190430e+00 2.752030193805694580e-01
6.796000000000000000e+03 5.013686752319335938e+01 2.123163461685180664e+00 -4.867278337478637695e-01 4.452593803405761719e+00 1.189759850502014160e+00 2.399938404560089111e-01
6.797000000000000000e+03 5.159035491943359375e+01 -1.102617740631103516e+01 -4.423432350158691406e-01 4.809942245483398438e+00 1.310279726982116699e+00 4.486175626516342163e-02
6.798000000000000000e+03 4.332056808471679688e+01 3.779734134674072266e+00 -2.381328195333480835e-01 2.684543609619140625e+00 7.339231967926025391e-01 3.074130415916442871e-01
6.799000000000000000e+03 4.655632400512695312e+01 2.649748563766479492e+00 -3.645114004611968994e-01 3.549285650253295898e+00 9.554322361946105957e-01 2.843950688838958740e-01
6.800000000000000000e+03 4.531649780273437500e+01 3.287339448928833008e+00 -3.176537156105041504e-01 3.227495193481445312e+00 8.729524016380310059e-01 3.078154623508453369e-01
6.801000000000000000e+03 5.096603775024414062e+01 -6.491308212280273438e+00 -4.451674222946166992e-01 4.629945755004882812e+00 1.255433440208435059e+00 6.887508928775787354e-02
6.802000000000000000e+03 4.215611648559570312e+01 9.016828536987304688e+00 -1.935551017522811890e-01 2.273748397827148438e+00 6.240579485893249512e-01 4.908077120780944824e-01
6.803000000000000000e+03 4.257634735107421875e+01 9.377919197082519531e+00 -2.101026326417922974e-01 2.369816541671752930e+00 6.479141712188720703e-01 5.149161219596862793e-01
6.804000000000000000e+03 4.183876037597656250e+01 5.541519641876220703e+00 -1.819787919521331787e-01 2.274779796600341797e+00 6.278402805328369141e-01 3.539910614490509033e-01
6.805000000000000000e+03 5.319293212890625000e+01 1.963942337036132812e+01 -6.831853985786437988e-01 6.559897422790527344e+00 1.763013601303100586e+00 9.782601594924926758e-01
6.806000000000000000e+03 5.264702987670898438e+01 1.818755722045898438e+01 -6.795563697814941406e-01 6.122590065002441406e+00 1.632910132408142090e+00 9.030464291572570801e-01
6.807000000000000000e+03 4.546551895141601562e+01 1.343242263793945312e+01 -2.717233002185821533e-01 3.156237840652465820e+00 8.653543591499328613e-01 7.817218899726867676e-01
6.808000000000000000e+03 4.529896926879882812e+01 1.393682670593261719e+01 -2.458539009094238281e-01 3.084190368652343750e+00 8.515009284019470215e-01 8.060598373413085938e-01
6.809000000000000000e+03 4.450165176391601562e+01 1.118903064727783203e+01 -2.691269516944885254e-01 2.892615556716918945e+00 7.870465517044067383e-01 6.471472382545471191e-01
6.810000000000000000e+03 4.283638000488281250e+01 8.234711647033691406e+00 -2.209241539239883423e-01 2.468610763549804688e+00 6.743060350418090820e-01 4.771943688392639160e-01
6.811000000000000000e+03 4.795550537109375000e+01 1.485933399200439453e+01 -3.851966559886932373e-01 4.051024913787841797e+00 1.099748492240905762e+00 9.092149138450622559e-01
6.812000000000000000e+03 4.732523727416992188e+01 1.374578571319580078e+01 -3.724690675735473633e-01 3.814130783081054688e+00 1.032498478889465332e+00 8.347942829132080078e-01
6.813000000000000000e+03 4.897203826904296875e+01 3.001793146133422852e+00 -4.542211890220642090e-01 4.166676044464111328e+00 1.113736391067504883e+00 2.839102447032928467e-01
6.814000000000000000e+03 4.709253311157226562e+01 3.052347898483276367e+00 -3.874799907207489014e-01 3.680293798446655273e+00 9.878441691398620605e-01 2.985497713088989258e-01
6.815000000000000000e+03 4.263306808471679688e+01 4.290766716003417969e+00 -2.098188251256942749e-01 2.499412298202514648e+00 6.868780255317687988e-01 3.168672323226928711e-01
6.816000000000000000e+03 5.834671401977539062e+01 5.894770145416259766e+00 -6.791259646415710449e-01 6.400344371795654297e+00 1.716365456581115723e+00 -1.852419041097164154e-02
6.817000000000000000e+03 4.233677673339843750e+01 5.766461849212646484e+00 -1.997494399547576904e-01 2.383790016174316406e+00 6.552122235298156738e-01 3.767822682857513428e-01
6.818000000000000000e+03 4.157931137084960938e+01 7.398439884185791016e+00 -1.755268275737762451e-01 2.146751403808593750e+00 5.913673639297485352e-01 4.138555824756622314e-01
6.819000000000000000e+03 4.240878677368164062e+01 6.912631034851074219e+00 -2.038532048463821411e-01 2.376044750213623047e+00 6.516574621200561523e-01 4.241367280483245850e-01
6.820000000000000000e+03 6.019318389892578125e+01 3.545503377914428711e+00 -6.044209003448486328e-01 6.613131046295166016e+00 1.802613019943237305e+00 -8.579926937818527222e-02
6.821000000000000000e+03 5.114183807373046875e+01 1.641208267211914062e+01 -6.038790941238403320e-01 5.352572917938232422e+00 1.424608230590820312e+00 9.008412957191467285e-01
6.822000000000000000e+03 4.881775283813476562e+01 2.148648738861083984e+00 -4.460066556930541992e-01 4.116213798522949219e+00 1.101062178611755371e+00 2.546810507774353027e-01
6.823000000000000000e+03 4.969441604614257812e+01 1.235923886299133301e+00 -4.630622863769531250e-01 4.337687492370605469e+00 1.162387609481811523e+00 2.192128151655197144e-01
6.824000000000000000e+03 5.210408782958984375e+01 1.915377044677734375e+01 -5.926382541656494141e-01 6.006226539611816406e+00 1.624076485633850098e+00 1.066820859909057617e+00
6.825000000000000000e+03 4.921310424804687500e+01 1.536754703521728516e+01 -4.665498733520507812e-01 4.559000968933105469e+00 1.227735400199890137e+00 9.289801120758056641e-01
6.826000000000000000e+03 4.972455978393554688e+01 1.742552947998046875e+01 -4.394219517707824707e-01 4.844677925109863281e+00 1.321576833724975586e+00 1.074737787246704102e+00
6.827000000000000000e+03 5.068655776977539062e+01 1.686873054504394531e+01 -5.409259200096130371e-01 5.187683105468750000e+00 1.394027113914489746e+00 9.770823121070861816e-01
6.828000000000000000e+03 5.282795333862304688e+01 1.091497325897216797e+01 -7.064499855041503906e-01 5.498279571533203125e+00 1.437548875808715820e+00 4.414992332458496094e-01
6.829000000000000000e+03 5.364924240112304688e+01 1.185004711151123047e+01 -7.534119486808776855e-01 5.794876098632812500e+00 1.512439250946044922e+00 4.155363142490386963e-01
6.830000000000000000e+03 5.273123168945312500e+01 1.249510002136230469e+01 -7.241808176040649414e-01 5.599876403808593750e+00 1.462708592414855957e+00 5.272018313407897949e-01
6.831000000000000000e+03 5.275580215454101562e+01 1.174212932586669922e+01 -7.165213823318481445e-01 5.551264762878417969e+00 1.450423002243041992e+00 4.823363721370697021e-01
6.832000000000000000e+03 5.206771850585937500e+01 1.803328514099121094e+01 -6.320189833641052246e-01 5.835279941558837891e+00 1.560978293418884277e+00 9.676575064659118652e-01
6.833000000000000000e+03 5.926796722412109375e+01 4.428327560424804688e+00 -6.392101049423217773e-01 6.492693901062011719e+00 1.756045103073120117e+00 -5.688946321606636047e-02
6.834000000000000000e+03 5.839475250244140625e+01 4.448202133178710938e+00 -6.417298913002014160e-01 6.338136672973632812e+00 1.708922028541564941e+00 -8.288179524242877960e-03
6.835000000000000000e+03 5.310062789916992188e+01 -7.096438407897949219e+00 -4.618778526782989502e-01 5.055525302886962891e+00 1.378094196319580078e+00 7.350459694862365723e-02
6.836000000000000000e+03 5.177173233032226562e+01 -1.315039277076721191e+00 -4.884753227233886719e-01 4.802685737609863281e+00 1.294263124465942383e+00 1.392015963792800903e-01
6.837000000000000000e+03 5.243057632446289062e+01 -4.642524123191833496e-01 -5.026017427444458008e-01 4.949170589447021484e+00 1.333970665931701660e+00 1.411924511194229126e-01
6.838000000000000000e+03 4.568176269531250000e+01 2.801810026168823242e+00 -3.296684622764587402e-01 3.319764137268066406e+00 8.970287442207336426e-01 2.900263369083404541e-01
6.839000000000000000e+03 4.493086624145507812e+01 3.781061410903930664e+00 -3.029454350471496582e-01 3.121556997299194336e+00 8.455834388732910156e-01 3.256084918975830078e-01
6.840000000000000000e+03 5.602422332763671875e+01 7.237424373626708984e+00 -7.044715285301208496e-01 6.021894931793212891e+00 1.595227122306823730e+00 1.206144243478775024e-01
6.841000000000000000e+03 5.688943099975585938e+01 6.242232799530029297e+00 -6.887272000312805176e-01 6.146421432495117188e+00 1.637308359146118164e+00 6.199567764997482300e-02
6.842000000000000000e+03 4.470510101318359375e+01 1.268873119354248047e+01 -2.532607614994049072e-01 2.919234514236450195e+00 7.997921109199523926e-01 7.215857505798339844e-01
6.843000000000000000e+03 5.099948883056640625e+01 1.699459195137023926e+00 -5.046752691268920898e-01 4.653150081634521484e+00 1.244542360305786133e+00 2.139618694782257080e-01
6.844000000000000000e+03 5.457594299316406250e+01 7.929414749145507812e+00 -7.005812525749206543e-01 5.733585357666015625e+00 1.509901285171508789e+00 2.331958562135696411e-01
6.845000000000000000e+03 4.618725204467773438e+01 3.187819480895996094e+00 -3.527425825595855713e-01 3.451824426651000977e+00 9.297245740890502930e-01 3.041372895240783691e-01
6.846000000000000000e+03 5.272824859619140625e+01 -6.412382602691650391e+00 -4.602282047271728516e-01 4.975434780120849609e+00 1.354561924934387207e+00 8.035107702016830444e-02
6.847000000000000000e+03 5.237300491333007812e+01 -7.373664379119873047e+00 -4.499140977859497070e-01 4.920316219329833984e+00 1.341120600700378418e+00 6.628354638814926147e-02
6.848000000000000000e+03 6.015666198730468750e+01 4.444239139556884766e+00 -6.226028203964233398e-01 6.644207477569580078e+00 1.806481361389160156e+00 -9.371572732925415039e-02
6.849000000000000000e+03 4.992824935913085938e+01 1.585927104949951172e+01 -5.074163675308227539e-01 4.841606140136718750e+00 1.300256967544555664e+00 9.382534623146057129e-01
6.850000000000000000e+03 4.929037475585937500e+01 1.596455001831054688e+01 -4.539014101028442383e-01 4.593589782714843750e+00 1.241906523704528809e+00 9.742698669433593750e-01
6.851000000000000000e+03 5.282963180541992188e+01 1.502854347229003906e+01 -7.403221726417541504e-01 5.845479011535644531e+00 1.531547069549560547e+00 6.459520459175109863e-01
6.852000000000000000e+03 5.178419494628906250e+01 1.738199424743652344e+01 -6.226121783256530762e-01 5.680266857147216797e+00 1.517296433448791504e+00 9.347634315490722656e-01
6.853000000000000000e+03 5.253577041625976562e+01 1.724256324768066406e+01 -6.870281100273132324e-01 5.947847843170166016e+00 1.578245878219604492e+00 8.500411510467529297e-01
6.854000000000000000e+03 5.220421981811523438e+01 -2.745514631271362305e+00 -4.758476912975311279e-01 4.883830547332763672e+00 1.322394847869873047e+00 1.126395538449287415e-01
6.855000000000000000e+03 4.497013473510742188e+01 1.332652282714843750e+01 -2.490406781435012817e-01 2.989668369293212891e+00 8.221882581710815430e-01 7.637261748313903809e-01
6.856000000000000000e+03 4.596900558471679688e+01 1.350611209869384766e+01 -2.950527667999267578e-01 3.341425657272338867e+00 9.139118194580078125e-01 7.983393669128417969e-01
6.857000000000000000e+03 4.980676651000976562e+01 1.472490978240966797e+01 -5.243478417396545410e-01 4.748809337615966797e+00 1.267338514328002930e+00 8.568234443664550781e-01
6.858000000000000000e+03 4.501421737670898438e+01 1.081617450714111328e+01 -2.992485463619232178e-01 3.064453840255737305e+00 8.295615911483764648e-01 6.420394778251647949e-01
6.859000000000000000e+03 4.732991027832031250e+01 1.310120677947998047e+01 -3.878752291202545166e-01 3.814473152160644531e+00 1.027979373931884766e+00 7.883571386337280273e-01
6.860000000000000000e+03 4.798775100708007812e+01 1.363235664367675781e+01 -4.232741892337799072e-01 4.056079864501953125e+00 1.089841723442077637e+00 8.194898962974548340e-01
6.861000000000000000e+03 4.231512069702148438e+01 8.268726348876953125e+00 -2.010904848575592041e-01 2.336049318313598633e+00 6.404876112937927246e-01 4.626693129539489746e-01
6.862000000000000000e+03 4.302047348022460938e+01 8.959955215454101562e+00 -2.224901765584945679e-01 2.494829654693603516e+00 6.817018389701843262e-01 5.114073157310485840e-01
6.863000000000000000e+03 4.231728363037109375e+01 1.045913219451904297e+01 -1.910433173179626465e-01 2.259317398071289062e+00 6.204822063446044922e-01 5.436844825744628906e-01
6.864000000000000000e+03 4.376102447509765625e+01 1.023943614959716797e+01 -2.507853806018829346e-01 2.689038991928100586e+00 7.314760684967041016e-01 5.831969380378723145e-01
6.865000000000000000e+03 4.491934967041015625e+01 1.153547859191894531e+01 -2.809675037860870361e-01 3.019022226333618164e+00 8.214163780212402344e-01 6.782187819480895996e-01
6.866000000000000000e+03 4.868223571777343750e+01 1.290682220458984375e+01 -4.803146421909332275e-01 4.280236244201660156e+00 1.139976501464843750e+00 7.593984007835388184e-01
6.867000000000000000e+03 4.281305313110351562e+01 6.009215831756591797e+00 -2.165912091732025146e-01 2.508074760437011719e+00 6.874451041221618652e-01 3.936956524848937988e-01
6.868000000000000000e+03 5.215184402465820312e+01 6.048104166984558105e-01 -5.137889981269836426e-01 4.895703315734863281e+00 1.314574241638183594e+00 1.637147516012191772e-01
6.869000000000000000e+03 4.307115173339843750e+01 4.715854644775390625e+00 -2.244478166103363037e-01 2.602677822113037109e+00 7.134689688682556152e-01 3.482291400432586670e-01
6.870000000000000000e+03 5.224293899536132812e+01 1.759435844421386719e+01 -6.657922267913818359e-01 5.899205207824707031e+00 1.570023894309997559e+00 9.180930256843566895e-01
6.871000000000000000e+03 5.153805541992187500e+01 1.783946418762207031e+01 -5.946109890937805176e-01 5.638747215270996094e+00 1.513240814208984375e+00 9.981152415275573730e-01
6.872000000000000000e+03 5.076990127563476562e+01 1.604284667968750000e+01 -5.739079713821411133e-01 5.199788570404052734e+00 1.387764215469360352e+00 8.952535390853881836e-01
6.873000000000000000e+03 5.162012481689453125e+01 1.669326400756835938e+01 -6.278262734413146973e-01 5.556781291961669922e+00 1.478686571121215820e+00 8.842000961303710938e-01
6.874000000000000000e+03 5.750467681884765625e+01 5.260643482208251953e+00 -6.651105880737304688e-01 6.190338134765625000e+00 1.657568216323852539e+00 3.892078995704650879e-02
6.875000000000000000e+03 5.750827407836914062e+01 4.466657161712646484e+00 -6.486119031906127930e-01 6.157444477081298828e+00 1.652649760246276855e+00 3.297938778996467590e-02
6.876000000000000000e+03 4.408070755004882812e+01 3.855089426040649414e+00 -2.680429816246032715e-01 2.890612602233886719e+00 7.867709398269653320e-01 3.195430338382720947e-01
6.877000000000000000e+03 4.370506286621093750e+01 3.466581106185913086e+00 -2.510190904140472412e-01 2.791168212890625000e+00 7.620447278022766113e-01 3.029881715774536133e-01
6.878000000000000000e+03 5.342013168334960938e+01 9.481023788452148438e+00 -7.033573985099792480e-01 5.560939311981201172e+00 1.457274675369262695e+00 3.408905565738677979e-01
6.879000000000000000e+03 5.235009384155273438e+01 1.049552631378173828e+01 -6.747654080390930176e-01 5.324713706970214844e+00 1.394984483718872070e+00 4.555612802505493164e-01
6.880000000000000000e+03 5.288879394531250000e+01 1.002047729492187500e+01 -6.944410800933837891e-01 5.456239700317382812e+00 1.428539514541625977e+00 3.991109132766723633e-01
6.881000000000000000e+03 5.278195571899414062e+01 -5.417767047882080078e+00 -4.680137038230895996e-01 4.997993946075439453e+00 1.358994007110595703e+00 9.145588427782058716e-02
6.882000000000000000e+03 5.424249649047851562e+01 7.318259716033935547e+00 -6.841748356819152832e-01 5.607433319091796875e+00 1.476977586746215820e+00 2.371733784675598145e-01
6.883000000000000000e+03 6.380097579956054688e+01 2.641760587692260742e+00 -4.957905113697052002e-01 7.129560947418212891e+00 1.990131020545959473e+00 -1.891759634017944336e-01
6.884000000000000000e+03 6.509896087646484375e+01 2.787662982940673828e+00 -4.492195248603820801e-01 7.324058055877685547e+00 2.062451601028442383e+00 -2.317837923765182495e-01
6.885000000000000000e+03 4.669314575195312500e+01 3.596534967422485352e+00 -3.733685314655303955e-01 3.582174539566040039e+00 9.626418352127075195e-01 3.220511674880981445e-01
6.886000000000000000e+03 5.613325119018554688e+01 5.998475074768066406e+00 -6.773011088371276855e-01 5.968616485595703125e+00 1.587394595146179199e+00 1.088106483221054077e-01
6.887000000000000000e+03 5.351203536987304688e+01 -4.038137435913085938e+00 -4.861612319946289062e-01 5.142266750335693359e+00 1.396831631660461426e+00 9.101545810699462891e-02
6.888000000000000000e+03 5.345254516601562500e+01 -2.071114778518676758e+00 -5.006924271583557129e-01 5.148112297058105469e+00 1.394225835800170898e+00 1.117818355560302734e-01
6.889000000000000000e+03 6.120993041992187500e+01 2.577893972396850586e+00 -5.616928339004516602e-01 6.731077194213867188e+00 1.850815296173095703e+00 -1.077029556035995483e-01
6.890000000000000000e+03 5.190780639648437500e+01 1.282439351081848145e+00 -5.212766528129577637e-01 4.853805541992187500e+00 1.299758672714233398e+00 1.822627335786819458e-01
6.891000000000000000e+03 5.272926712036132812e+01 -1.709414124488830566e+00 -4.983138442039489746e-01 4.992837905883789062e+00 1.348357200622558594e+00 1.212632358074188232e-01
6.892000000000000000e+03 4.954326629638671875e+01 3.404394149780273438e+00 -4.789935946464538574e-01 4.321626663208007812e+00 1.152789950370788574e+00 2.922310531139373779e-01
6.893000000000000000e+03 6.306872940063476562e+01 2.871814727783203125e+00 -5.232344269752502441e-01 7.028977870941162109e+00 1.951723098754882812e+00 -1.789505779743194580e-01
6.894000000000000000e+03 6.212615585327148438e+01 3.667494773864746094e+00 -5.746451616287231445e-01 6.913163661956787109e+00 1.901555538177490234e+00 -1.662241071462631226e-01
6.895000000000000000e+03 5.141839981079101562e+01 1.295954227447509766e+01 -6.482462882995605469e-01 5.199056148529052734e+00 1.365242958068847656e+00 6.373326778411865234e-01
6.896000000000000000e+03 5.273263168334960938e+01 1.336793041229248047e+01 -7.325710654258728027e-01 5.660243511199951172e+00 1.478301763534545898e+00 5.593110918998718262e-01
6.897000000000000000e+03 5.557670211791992188e+01 6.537175655364990234e+00 -6.889985203742980957e-01 5.892444133758544922e+00 1.561033606529235840e+00 1.425768584012985229e-01
6.898000000000000000e+03 5.387610244750976562e+01 -1.079431343078613281e+01 -4.422452151775360107e-01 5.270715713500976562e+00 1.448541164398193359e+00 8.736742287874221802e-02
6.899000000000000000e+03 4.586836242675781250e+01 4.585782527923583984e+00 -3.455469310283660889e-01 3.366824150085449219e+00 9.063831567764282227e-01 3.643197715282440186e-01
6.900000000000000000e+03 4.213874053955078125e+01 5.031363487243652344e+00 -1.869049817323684692e-01 2.359658002853393555e+00 6.518259048461914062e-01 3.417080938816070557e-01
6.901000000000000000e+03 5.218612289428710938e+01 1.379516601562500000e+01 -6.947929263114929199e-01 5.508956909179687500e+00 1.444249153137207031e+00 6.512170433998107910e-01
6.902000000000000000e+03 5.228982162475585938e+01 1.469247817993164062e+01 -6.959394216537475586e-01 5.604376316070556641e+00 1.472531080245971680e+00 6.744871139526367188e-01
6.903000000000000000e+03 4.867193222045898438e+01 1.353912925720214844e+01 -4.668691456317901611e-01 4.298003673553466797e+00 1.149340271949768066e+00 8.039126396179199219e-01
6.904000000000000000e+03 4.591094970703125000e+01 1.233306312561035156e+01 -3.181461095809936523e-01 3.341533422470092773e+00 9.070162177085876465e-01 7.297658324241638184e-01
6.905000000000000000e+03 4.497089767456054688e+01 1.223206806182861328e+01 -2.718250751495361328e-01 3.018178224563598633e+00 8.239059448242187500e-01 7.116156816482543945e-01
6.906000000000000000e+03 4.468364334106445312e+01 9.846342086791992188e+00 -2.907457649707794189e-01 2.979053974151611328e+00 8.064924478530883789e-01 5.988041162490844727e-01
6.907000000000000000e+03 4.473367309570312500e+01 1.037753391265869141e+01 -2.892153263092041016e-01 2.990323066711425781e+00 8.103322982788085938e-01 6.136747002601623535e-01
6.908000000000000000e+03 4.987804794311523438e+01 1.416087436676025391e+01 -5.441515445709228516e-01 4.738595962524414062e+00 1.258333325386047363e+00 8.033698201179504395e-01
6.909000000000000000e+03 4.940058135986328125e+01 1.347544670104980469e+01 -5.230991244316101074e-01 4.556536197662353516e+00 1.210031151771545410e+00 7.738034129142761230e-01
6.910000000000000000e+03 4.360068511962890625e+01 4.287002563476562500e+00 -2.475220561027526855e-01 2.742617368698120117e+00 7.485285997390747070e-01 3.304542303085327148e-01
6.911000000000000000e+03 4.265081787109375000e+01 5.233300209045410156e+00 -2.092659026384353638e-01 2.477247953414916992e+00 6.803946495056152344e-01 3.608608841896057129e-01
6.912000000000000000e+03 4.647028350830078125e+01 1.360569667816162109e+01 -3.237705528736114502e-01 3.513996839523315430e+00 9.570679068565368652e-01 8.159481287002563477e-01
6.913000000000000000e+03 5.169125366210937500e+01 1.465088367462158203e+01 -6.625573635101318359e-01 5.431451797485351562e+00 1.430668234825134277e+00 7.314991354942321777e-01
6.914000000000000000e+03 4.983554840087890625e+01 1.527734375000000000e+01 -5.204709768295288086e-01 4.773309707641601562e+00 1.275851607322692871e+00 8.864697813987731934e-01
6.915000000000000000e+03 5.042894363403320312e+01 1.512518596649169922e+01 -5.653017163276672363e-01 4.988703727722167969e+00 1.327020525932312012e+00 8.630922436714172363e-01
6.916000000000000000e+03 5.124517059326171875e+01 1.574637126922607422e+01 -6.258633732795715332e-01 5.361085414886474609e+00 1.420566558837890625e+00 8.428611755371093750e-01
6.917000000000000000e+03 4.260819244384765625e+01 7.398978710174560547e+00 -2.104682326316833496e-01 2.420946836471557617e+00 6.631435751914978027e-01 4.444325566291809082e-01
6.918000000000000000e+03 4.284150695800781250e+01 3.810201168060302734e+00 -2.141464203596115112e-01 2.569561004638671875e+00 7.066243886947631836e-01 3.125210404396057129e-01
6.919000000000000000e+03 6.220273590087890625e+01 2.762900352478027344e+00 -5.361824035644531250e-01 6.908656120300292969e+00 1.911742091178894043e+00 -1.457381546497344971e-01
6.920000000000000000e+03 5.312895202636718750e+01 -4.784116268157958984e+00 -4.682253301143646240e-01 5.061034679412841797e+00 1.377842903137207031e+00 8.467303216457366943e-02
6.921000000000000000e+03 4.301361846923828125e+01 9.751158714294433594e+00 -2.244506031274795532e-01 2.477977037429809570e+00 6.760579347610473633e-01 5.423264503479003906e-01
6.922000000000000000e+03 5.396642684936523438e+01 9.993559837341308594e+00 -7.291542291641235352e-01 5.726809024810791016e+00 1.499296426773071289e+00 3.203566074371337891e-01
6.923000000000000000e+03 5.919512939453125000e+01 2.757139682769775391e+00 -6.002373695373535156e-01 6.396378040313720703e+00 1.738842248916625977e+00 -3.128567337989807129e-02
6.924000000000000000e+03 5.188508224487304688e+01 1.255323982238769531e+01 -6.761381626129150391e-01 5.320650100708007812e+00 1.393353581428527832e+00 5.867626667022705078e-01
6.925000000000000000e+03 4.561050415039062500e+01 1.298462104797363281e+01 -2.921234667301177979e-01 3.218528509140014648e+00 8.779215216636657715e-01 7.613149285316467285e-01
6.926000000000000000e+03 4.669639205932617188e+01 1.308373069763183594e+01 -3.494611680507659912e-01 3.592539787292480469e+00 9.729236364364624023e-01 7.895146012306213379e-01
6.927000000000000000e+03 5.512796783447265625e+01 -7.304126739501953125e+00 -4.586286246776580811e-01 5.470837593078613281e+00 1.503662705421447754e+00 8.767846226692199707e-02
6.928000000000000000e+03 5.137336349487304688e+01 1.370332050323486328e+01 -6.454409956932067871e-01 5.244741439819335938e+00 1.379790067672729492e+00 6.833948493003845215e-01
6.929000000000000000e+03 5.549191665649414062e+01 5.403111457824707031e+00 -6.629353165626525879e-01 5.803995132446289062e+00 1.542317986488342285e+00 1.407075226306915283e-01
6.930000000000000000e+03 5.263017272949218750e+01 1.567718029022216797e+00 -5.401415824890136719e-01 5.039730548858642578e+00 1.349876642227172852e+00 1.708719432353973389e-01
6.931000000000000000e+03 5.233368682861328125e+01 2.285595893859863281e+00 -5.428375005722045898e-01 4.987534999847412109e+00 1.333409190177917480e+00 1.968080848455429077e-01
6.932000000000000000e+03 5.016305923461914062e+01 3.787924766540527344e+00 -5.038304924964904785e-01 4.488184452056884766e+00 1.195306181907653809e+00 2.887593507766723633e-01
6.933000000000000000e+03 5.189944839477539062e+01 1.177118492126464844e+01 -6.713957786560058594e-01 5.288889408111572266e+00 1.385248184204101562e+00 5.426163077354431152e-01
6.934000000000000000e+03 5.190043258666992188e+01 1.008811187744140625e+01 -6.532207727432250977e-01 5.190301895141601562e+00 1.361124396324157715e+00 4.630803763866424561e-01
6.935000000000000000e+03 5.669456100463867188e+01 4.266458511352539062e+00 -6.394931077957153320e-01 6.007987499237060547e+00 1.610548257827758789e+00 6.463958323001861572e-02
6.936000000000000000e+03 4.497440719604492188e+01 4.699396610260009766e+00 -3.078640103340148926e-01 3.122132539749145508e+00 8.442806005477905273e-01 3.645467162132263184e-01
6.937000000000000000e+03 5.393220520019531250e+01 -3.237381696701049805e+00 -4.936187863349914551e-01 5.243869781494140625e+00 1.425075292587280273e+00 9.379068762063980103e-02
6.938000000000000000e+03 5.331201553344726562e+01 8.011597633361816406e+00 -6.736091375350952148e-01 5.446901798248291016e+00 1.431987762451171875e+00 3.110786676406860352e-01
6.939000000000000000e+03 5.446818542480468750e+01 -8.529063224792480469e+00 -4.475866854190826416e-01 5.351920127868652344e+00 1.471300125122070312e+00 8.479873090982437134e-02
6.940000000000000000e+03 5.108075714111328125e+01 1.408166408538818359e+01 -6.317927837371826172e-01 5.188582420349121094e+00 1.367036938667297363e+00 7.457166910171508789e-01
6.941000000000000000e+03 6.016548538208007812e+01 2.579198360443115234e+00 -5.741315484046936035e-01 6.569475650787353516e+00 1.798603296279907227e+00 -6.675349920988082886e-02
6.942000000000000000e+03 6.325590515136718750e+01 2.178236484527587891e+00 -4.988761246204376221e-01 7.038548469543457031e+00 1.961901783943176270e+00 -1.618396788835525513e-01
6.943000000000000000e+03 5.569528961181640625e+01 -9.114222526550292969e+00 -4.382075667381286621e-01 5.596753597259521484e+00 1.547563791275024414e+00 9.478923678398132324e-02
6.944000000000000000e+03 4.311862182617187500e+01 7.040757179260253906e+00 -2.300816625356674194e-01 2.589083433151245117e+00 7.077005505561828613e-01 4.387069940567016602e-01
6.945000000000000000e+03 5.241287231445312500e+01 1.550087738037109375e+01 -6.978243589401245117e-01 5.725486278533935547e+00 1.508298635482788086e+00 7.211610674858093262e-01
6.946000000000000000e+03 5.193941497802734375e+01 1.580682754516601562e+01 -6.826356649398803711e-01 5.623906135559082031e+00 1.482381105422973633e+00 7.808736562728881836e-01
6.947000000000000000e+03 5.207813262939453125e+01 3.003890991210937500e+00 -5.487126111984252930e-01 4.934627532958984375e+00 1.315774559974670410e+00 2.200449407100677490e-01
6.948000000000000000e+03 5.075933837890625000e+01 2.404528617858886719e+00 -5.044423937797546387e-01 4.604395389556884766e+00 1.229985833168029785e+00 2.340480536222457886e-01
6.949000000000000000e+03 4.351151275634765625e+01 5.189126014709472656e+00 -2.410799711942672729e-01 2.726568460464477539e+00 7.456465363502502441e-01 3.772335350513458252e-01
6.950000000000000000e+03 4.720026397705078125e+01 4.048625469207763672e+00 -3.954668343067169189e-01 3.715689420700073242e+00 9.960668087005615234e-01 3.377191424369812012e-01
6.951000000000000000e+03 5.375165939331054688e+01 -7.563169002532958984e-01 -5.174446105957031250e-01 5.231364250183105469e+00 1.414175987243652344e+00 1.270532160997390747e-01
6.952000000000000000e+03 5.404037094116210938e+01 -1.406798958778381348e-01 -5.315218567848205566e-01 5.302624225616455078e+00 1.431330680847167969e+00 1.218200325965881348e-01
6.953000000000000000e+03 5.321319961547851562e+01 7.078015804290771484e+00 -6.523286700248718262e-01 5.371908664703369141e+00 1.415874004364013672e+00 2.879994809627532959e-01
6.954000000000000000e+03 5.441788864135742188e+01 6.412672996520996094e+00 -6.617904901504516602e-01 5.625957012176513672e+00 1.489249944686889648e+00 1.985857635736465454e-01
6.955000000000000000e+03 5.461293029785156250e+01 9.688136100769042969e+00 -7.391414642333984375e-01 5.852249145507812500e+00 1.533932328224182129e+00 2.706641256809234619e-01
6.956000000000000000e+03 4.550400543212890625e+01 1.053160190582275391e+01 -3.264670372009277344e-01 3.217453002929687500e+00 8.672958016395568848e-01 6.306913495063781738e-01
6.957000000000000000e+03 4.406238937377929688e+01 9.683928489685058594e+00 -2.638336420059204102e-01 2.792689800262451172e+00 7.586568593978881836e-01 5.655710101127624512e-01
6.958000000000000000e+03 4.521902847290039062e+01 9.851770401000976562e+00 -3.128847181797027588e-01 3.148368835449218750e+00 8.506452441215515137e-01 5.964674353599548340e-01
6.959000000000000000e+03 4.306067657470703125e+01 7.777267932891845703e+00 -2.226713299751281738e-01 2.534839868545532227e+00 6.936505436897277832e-01 4.687518477439880371e-01
6.960000000000000000e+03 4.529691696166992188e+01 1.183271598815917969e+01 -2.964811325073242188e-01 3.136930942535400391e+00 8.521349430084228516e-01 6.967153549194335938e-01
6.961000000000000000e+03 4.598195266723632812e+01 1.180375003814697266e+01 -3.327345550060272217e-01 3.358114004135131836e+00 9.076138734817504883e-01 7.051382660865783691e-01
6.962000000000000000e+03 4.683844757080078125e+01 1.252623271942138672e+01 -3.692542910575866699e-01 3.630737304687500000e+00 9.784449338912963867e-01 7.640479207038879395e-01
6.963000000000000000e+03 5.007120895385742188e+01 1.356882572174072266e+01 -5.632585883140563965e-01 4.790792942047119141e+00 1.268260359764099121e+00 7.511454820632934570e-01
6.964000000000000000e+03 4.453765106201171875e+01 5.251855850219726562e+00 -2.884343266487121582e-01 2.987684488296508789e+00 8.097749948501586914e-01 3.847570121288299561e-01
6.965000000000000000e+03 5.061123657226562500e+01 1.380911064147949219e+01 -5.960354804992675781e-01 4.987773895263671875e+00 1.317521572113037109e+00 7.476500272750854492e-01
6.966000000000000000e+03 5.126535797119140625e+01 1.714611053466796875e+01 -5.859892368316650391e-01 5.477396011352539062e+00 1.467422008514404297e+00 9.596869349479675293e-01
6.967000000000000000e+03 5.158567428588867188e+01 1.544090938568115234e+01 -6.476324200630187988e-01 5.460664749145507812e+00 1.443909645080566406e+00 7.850036621093750000e-01
6.968000000000000000e+03 5.111693572998046875e+01 1.537304592132568359e+01 -6.131576299667358398e-01 5.295401096343994141e+00 1.404673099517822266e+00 8.149279952049255371e-01
6.969000000000000000e+03 4.438337707519531250e+01 9.113007545471191406e+00 -2.819411456584930420e-01 2.920595645904541016e+00 7.915963530540466309e-01 5.512055754661560059e-01
6.970000000000000000e+03 4.350102615356445312e+01 9.326595306396484375e+00 -2.432069480419158936e-01 2.625661611557006836e+00 7.147364020347595215e-01 5.408329963684082031e-01
6.971000000000000000e+03 5.757769012451171875e+01 3.000567674636840820e+00 -6.139402389526367188e-01 6.115425586700439453e+00 1.650445580482482910e+00 2.797002345323562622e-02
6.972000000000000000e+03 5.694863510131835938e+01 3.104867696762084961e+00 -6.111071705818176270e-01 6.009030342102050781e+00 1.619377017021179199e+00 5.224414542317390442e-02
6.973000000000000000e+03 5.112647247314453125e+01 1.183959960937500000e+01 -6.335615515708923340e-01 5.060092926025390625e+00 1.327959418296813965e+00 6.059724688529968262e-01
6.974000000000000000e+03 5.484186172485351562e+01 -6.388599395751953125e+00 -4.688745737075805664e-01 5.406908512115478516e+00 1.481410145759582520e+00 8.600729703903198242e-02
6.975000000000000000e+03 4.545765304565429688e+01 5.072084426879882812e+00 -3.292283713817596436e-01 3.251214742660522461e+00 8.765959739685058594e-01 3.836414217948913574e-01
6.976000000000000000e+03 4.676526641845703125e+01 4.541058063507080078e+00 -3.809770047664642334e-01 3.602762460708618164e+00 9.665356278419494629e-01 3.586454391479492188e-01
6.977000000000000000e+03 4.644359588623046875e+01 1.235920047760009766e+01 -3.492152690887451172e-01 3.534729957580566406e+00 9.556543827056884766e-01 7.450112700462341309e-01
6.978000000000000000e+03 5.232592391967773438e+01 1.134330654144287109e+01 -6.815724372863769531e-01 5.382531166076660156e+00 1.410287499427795410e+00 5.004997849464416504e-01
6.979000000000000000e+03 5.022253417968750000e+01 1.050853157043457031e+01 -5.751072764396667480e-01 4.717190265655517578e+00 1.242624878883361816e+00 5.604757666587829590e-01
6.980000000000000000e+03 5.475008392333984375e+01 -5.506723880767822266e+00 -4.709904491901397705e-01 5.384615421295166016e+00 1.474087476730346680e+00 8.141736686229705811e-02
6.981000000000000000e+03 6.245465087890625000e+01 1.898610711097717285e+00 -5.176150798797607422e-01 6.915948867797851562e+00 1.919500112533569336e+00 -1.352737247943878174e-01
6.982000000000000000e+03 6.376055145263671875e+01 1.462088346481323242e+00 -4.734336733818054199e-01 7.093569278717041016e+00 1.986040592193603516e+00 -1.584062129259109497e-01
6.983000000000000000e+03 5.367708969116210938e+01 7.615400314331054688e+00 -6.716239452362060547e-01 5.514780044555664062e+00 1.452946901321411133e+00 2.739535570144653320e-01
6.984000000000000000e+03 5.523854446411132812e+01 -2.874558448791503906e+00 -5.012707114219665527e-01 5.515544891357421875e+00 1.504282236099243164e+00 8.231993764638900757e-02
6.985000000000000000e+03 4.819741439819335938e+01 5.042788505554199219e+00 -4.423260390758514404e-01 4.001047134399414062e+00 1.067616343498229980e+00 3.678377270698547363e-01
6.986000000000000000e+03 4.633053970336914062e+01 4.997917652130126953e+00 -3.662569820880889893e-01 3.492440223693847656e+00 9.378550052642822266e-01 3.773860633373260498e-01
6.987000000000000000e+03 5.184078598022460938e+01 3.723246812820434570e+00 -5.522903203964233398e-01 4.898649215698242188e+00 1.303907752037048340e+00 2.466876059770584106e-01
6.988000000000000000e+03 5.113879776000976562e+01 3.418923139572143555e+00 -5.288228392601013184e-01 4.716722011566162109e+00 1.256369709968566895e+00 2.544474601745605469e-01
6.989000000000000000e+03 4.488288116455078125e+01 9.323178291320800781e+00 -3.030488193035125732e-01 3.039618253707885742e+00 8.209708333015441895e-01 5.722413659095764160e-01
6.990000000000000000e+03 6.150591278076171875e+01 1.594493508338928223e+00 -5.261672139167785645e-01 6.749412059783935547e+00 1.866973519325256348e+00 -9.439012408256530762e-02
6.991000000000000000e+03 5.833538436889648438e+01 2.892889499664306641e+00 -6.025848388671875000e-01 6.249378681182861328e+00 1.694038152694702148e+00 3.042607102543115616e-03
6.992000000000000000e+03 5.381742858886718750e+01 1.416220903396606445e+00 -5.519774556159973145e-01 5.284690380096435547e+00 1.419813871383666992e+00 1.399620622396469116e-01
6.993000000000000000e+03 5.279802322387695312e+01 8.628581762313842773e-01 -5.322763919830322266e-01 5.066469192504882812e+00 1.360257863998413086e+00 1.597186326980590820e-01
6.994000000000000000e+03 4.562865829467773438e+01 1.209665870666503906e+01 -3.093653917312622070e-01 3.240136861801147461e+00 8.792314529418945312e-01 7.146897912025451660e-01
6.995000000000000000e+03 4.568141174316406250e+01 1.149709510803222656e+01 -3.195525407791137695e-01 3.268152475357055664e+00 8.845799565315246582e-01 6.839326620101928711e-01
6.996000000000000000e+03 4.360118103027343750e+01 5.751819133758544922e+00 -2.530757188796997070e-01 2.739910364151000977e+00 7.460503578186035156e-01 3.945884704589843750e-01
6.997000000000000000e+03 5.153105926513671875e+01 1.605176544189453125e+01 -6.285085678100585938e-01 5.444564819335937500e+00 1.444816946983337402e+00 8.497519493103027344e-01
6.998000000000000000e+03 5.313549041748046875e+01 -5.842087268829345703e-01 -5.157245993614196777e-01 5.122753620147705078e+00 1.382108807563781738e+00 1.254624724388122559e-01
6.999000000000000000e+03 5.460277175903320312e+01 -4.915437400341033936e-01 -5.286079049110412598e-01 5.437648296356201172e+00 1.472712039947509766e+00 9.975469857454299927e-02
7.000000000000000000e+03 4.420531463623046875e+01 5.891137123107910156e+00 -2.713026702404022217e-01 2.892012357711791992e+00 7.862129211425781250e-01 4.103171229362487793e-01
7.001000000000000000e+03 5.492069625854492188e+01 5.926462173461914062e+00 -6.622563600540161133e-01 5.711508750915527344e+00 1.514775753021240234e+00 1.704147905111312866e-01
7.002000000000000000e+03 5.551300430297851562e+01 4.300914764404296875e+00 -6.318333148956298828e-01 5.752960681915283203e+00 1.536338210105895996e+00 1.197124347090721130e-01
7.003000000000000000e+03 5.096056747436523438e+01 1.336881732940673828e+01 -6.273121833801269531e-01 5.097050189971923828e+00 1.340921401977539062e+00 7.031984925270080566e-01
7.004000000000000000e+03 4.858338928222656250e+01 3.516320228576660156e+00 -4.462867379188537598e-01 4.079017162322998047e+00 1.089819192886352539e+00 3.072819113731384277e-01
7.005000000000000000e+03 5.418734359741210938e+01 5.382039070129394531e+00 -6.396614313125610352e-01 5.506438255310058594e+00 1.460033059120178223e+00 1.991459876298904419e-01
7.006000000000000000e+03 5.239535522460937500e+01 8.235785484313964844e+00 -6.486657857894897461e-01 5.212494850158691406e+00 1.369148731231689453e+00 3.676387071609497070e-01
7.007000000000000000e+03 4.339597702026367188e+01 8.477327346801757812e+00 -2.445500493049621582e-01 2.631825208663940430e+00 7.161825895309448242e-01 5.049700140953063965e-01
7.008000000000000000e+03 4.707064056396484375e+01 1.204066944122314453e+01 -3.916316330432891846e-01 3.736883163452148438e+00 1.003575444221496582e+00 7.264659404754638672e-01
7.009000000000000000e+03 4.797462463378906250e+01 1.231747531890869141e+01 -4.419659972190856934e-01 4.026147365570068359e+00 1.075254440307617188e+00 7.370675802230834961e-01
7.010000000000000000e+03 4.463519287109375000e+01 7.398055076599121094e+00 -2.945237457752227783e-01 2.997692823410034180e+00 8.109507560729980469e-01 4.818263351917266846e-01
7.011000000000000000e+03 4.340470504760742188e+01 7.386614799499511719e+00 -2.467878162860870361e-01 2.660367488861083984e+00 7.240738868713378906e-01 4.582411348819732666e-01
7.012000000000000000e+03 4.360317611694335938e+01 6.691562175750732422e+00 -2.516981661319732666e-01 2.739680051803588867e+00 7.463945150375366211e-01 4.338557720184326172e-01
7.013000000000000000e+03 4.870143508911132812e+01 4.534321308135986328e+00 -4.588913023471832275e-01 4.124588489532470703e+00 1.099709153175354004e+00 3.417483866214752197e-01
7.014000000000000000e+03 4.592229843139648438e+01 5.434420108795166016e+00 -3.502396643161773682e-01 3.384321928024291992e+00 9.102246761322021484e-01 4.016068577766418457e-01
7.015000000000000000e+03 4.535571289062500000e+01 1.244811534881591797e+01 -2.862229645252227783e-01 3.145160675048828125e+00 8.576812744140625000e-01 7.302399277687072754e-01
7.016000000000000000e+03 4.767605972290039062e+01 5.535116195678710938e+00 -4.277714490890502930e-01 3.865625143051147461e+00 1.031356096267700195e+00 3.967157900333404541e-01
7.017000000000000000e+03 4.941782379150390625e+01 1.281739521026611328e+01 -5.269207358360290527e-01 4.549291610717773438e+00 1.206711292266845703e+00 7.351573109626770020e-01
7.018000000000000000e+03 4.934285736083984375e+01 1.219022274017333984e+01 -5.310295820236206055e-01 4.498634815216064453e+00 1.190281629562377930e+00 6.905462145805358887e-01
7.019000000000000000e+03 5.048214340209960938e+01 1.302480983734130859e+01 -5.900545120239257812e-01 4.896356582641601562e+00 1.291890621185302734e+00 7.009531855583190918e-01
7.020000000000000000e+03 5.505759429931640625e+01 -4.780378341674804688e+00 -4.836525619029998779e-01 5.456014156341552734e+00 1.491708517074584961e+00 8.572539687156677246e-02
7.021000000000000000e+03 5.711920547485351562e+01 1.618494868278503418e+00 -5.804837346076965332e-01 5.984959125518798828e+00 1.621342658996582031e+00 4.078953713178634644e-02
7.022000000000000000e+03 4.534494018554687500e+01 1.117255115509033203e+01 -3.109973967075347900e-01 3.158285617828369141e+00 8.541864752769470215e-01 6.628249883651733398e-01
7.023000000000000000e+03 4.508532333374023438e+01 5.583423614501953125e+00 -3.127330541610717773e-01 3.146839618682861328e+00 8.502319455146789551e-01 4.063558280467987061e-01
7.024000000000000000e+03 5.965701293945312500e+01 -2.869354784488677979e-01 -5.244950652122497559e-01 6.392769813537597656e+00 1.760482311248779297e+00 -6.546212825924158096e-03
7.025000000000000000e+03 4.526886749267578125e+01 1.020365905761718750e+01 -3.096694350242614746e-01 3.166960000991821289e+00 8.571872115135192871e-01 6.165285706520080566e-01
7.026000000000000000e+03 4.564310836791992188e+01 9.938379287719726562e+00 -3.348430097103118896e-01 3.294353485107421875e+00 8.878531455993652344e-01 6.048388481140136719e-01
7.027000000000000000e+03 4.867390060424804688e+01 1.226033401489257812e+01 -4.838470518589019775e-01 4.279842853546142578e+00 1.138798832893371582e+00 7.195703983306884766e-01
7.028000000000000000e+03 5.237573623657226562e+01 9.632911682128906250e+00 -6.660740375518798828e-01 5.287943840026855469e+00 1.386560916900634766e+00 4.140424132347106934e-01
7.029000000000000000e+03 5.306815719604492188e+01 8.550214767456054688e+00 -6.756607890129089355e-01 5.392055034637451172e+00 1.414918303489685059e+00 3.395434617996215820e-01
7.030000000000000000e+03 5.859038925170898438e+01 5.040578842163085938e-01 -5.450509786605834961e-01 6.226534366607666016e+00 1.704445004463195801e+00 1.012479979544878006e-02
7.031000000000000000e+03 5.869219207763671875e+01 1.224699497222900391e+00 -5.667883157730102539e-01 6.260985374450683594e+00 1.708259224891662598e+00 3.076408058404922485e-03
7.032000000000000000e+03 5.552035140991210938e+01 -1.139859485626220703e+01 -4.218598008155822754e-01 5.592346191406250000e+00 1.551145911216735840e+00 1.132987141609191895e-01
7.033000000000000000e+03 5.547930526733398438e+01 -4.082092285156250000e+00 -4.860394001007080078e-01 5.552242279052734375e+00 1.519860863685607910e+00 8.249424397945404053e-02
7.034000000000000000e+03 5.488418197631835938e+01 -1.508700966835021973e+00 -5.199655890464782715e-01 5.465119838714599609e+00 1.483546376228332520e+00 9.473137557506561279e-02
7.035000000000000000e+03 5.560337448120117188e+01 3.292535305023193359e+00 -6.118556261062622070e-01 5.729563713073730469e+00 1.535312414169311523e+00 1.049566119909286499e-01
7.036000000000000000e+03 5.632925033569335938e+01 -5.057373046875000000e+00 -4.757942557334899902e-01 5.706135272979736328e+00 1.569102287292480469e+00 7.827556878328323364e-02
7.037000000000000000e+03 5.330678176879882812e+01 4.999461650848388672e+00 -6.117261648178100586e-01 5.298243045806884766e+00 1.405955076217651367e+00 2.218832373619079590e-01
7.038000000000000000e+03 5.575543212890625000e+01 -6.475130319595336914e-01 -5.338530540466308594e-01 5.635970115661621094e+00 1.530635118484497070e+00 9.064231067895889282e-02
7.039000000000000000e+03 5.352613067626953125e+01 7.680507898330688477e-01 -5.431772470474243164e-01 5.196213245391845703e+00 1.395910739898681641e+00 1.432744115591049194e-01
7.040000000000000000e+03 5.731531143188476562e+01 -7.515728950500488281e+00 -4.479212760925292969e-01 5.895648956298828125e+00 1.634318232536315918e+00 9.520716965198516846e-02
7.041000000000000000e+03 5.611436843872070312e+01 2.864712476730346680e+00 -6.052355170249938965e-01 5.829698562622070312e+00 1.567338943481445312e+00 8.834703266620635986e-02
7.042000000000000000e+03 6.062573242187500000e+01 1.083443045616149902e+00 -5.369170308113098145e-01 6.589070796966552734e+00 1.815646052360534668e+00 -5.752193927764892578e-02
7.043000000000000000e+03 5.431778335571289062e+01 4.093934059143066406e+00 -6.168306469917297363e-01 5.484206676483154297e+00 1.460212826728820801e+00 1.723760962486267090e-01
7.044000000000000000e+03 6.599970245361328125e+01 2.134326219558715820e+00 -4.161996543407440186e-01 7.426959991455078125e+00 2.103228092193603516e+00 -2.242240458726882935e-01
7.045000000000000000e+03 5.377439880371093750e+01 2.392676830291748047e+00 -5.673072934150695801e-01 5.316892623901367188e+00 1.424875617027282715e+00 1.506488025188446045e-01
7.046000000000000000e+03 4.479446411132812500e+01 6.116304397583007812e+00 -2.991034686565399170e-01 3.067471504211425781e+00 8.305103778839111328e-01 4.260002970695495605e-01
7.047000000000000000e+03 5.350495910644531250e+01 2.832699775695800781e+00 -5.713325738906860352e-01 5.260945320129394531e+00 1.406883835792541504e+00 1.647771596908569336e-01
7.048000000000000000e+03 5.159049224853515625e+01 4.444049358367919922e+00 -5.582760572433471680e-01 4.852563381195068359e+00 1.288286089897155762e+00 2.737229466438293457e-01
7.049000000000000000e+03 5.665632629394531250e+01 -8.739974975585937500e+00 -4.395942389965057373e-01 5.786047935485839844e+00 1.603936076164245605e+00 1.041016131639480591e-01
7.050000000000000000e+03 5.793453598022460938e+01 -9.228247642517089844e+00 -4.195032417774200439e-01 6.013378143310546875e+00 1.678162574768066406e+00 1.172559559345245361e-01
7.051000000000000000e+03 4.582900619506835938e+01 6.646883487701416016e+00 -3.479552865028381348e-01 3.342637777328491211e+00 8.984047770500183105e-01 4.509688913822174072e-01
7.052000000000000000e+03 4.810725402832031250e+01 6.039045810699462891e+00 -4.438105523586273193e-01 3.982057571411132812e+00 1.061474084854125977e+00 4.088269174098968506e-01
7.053000000000000000e+03 4.623957824707031250e+01 1.058265781402587891e+01 -3.601934611797332764e-01 3.454188346862792969e+00 9.281984567642211914e-01 6.433408260345458984e-01
7.054000000000000000e+03 4.472064590454101562e+01 8.658332824707031250e+00 -2.953703403472900391e-01 3.008203506469726562e+00 8.138499259948730469e-01 5.415205359458923340e-01
7.055000000000000000e+03 4.378188323974609375e+01 7.583087444305419922e+00 -2.618620991706848145e-01 2.772026538848876953e+00 7.530493736267089844e-01 4.705937206745147705e-01
7.056000000000000000e+03 4.413954544067382812e+01 7.859103202819824219e+00 -2.752949595451354980e-01 2.854969739913940430e+00 7.739024758338928223e-01 4.951710700988769531e-01
7.057000000000000000e+03 4.866239547729492188e+01 5.554866313934326172e+00 -4.674785137176513672e-01 4.125173091888427734e+00 1.097308278083801270e+00 3.870375454425811768e-01
7.058000000000000000e+03 4.572129440307617188e+01 1.261006736755371094e+01 -3.020361363887786865e-01 3.255719900131225586e+00 8.861051201820373535e-01 7.438669204711914062e-01
7.059000000000000000e+03 4.802363204956054688e+01 1.159296703338623047e+01 -4.471686184406280518e-01 4.032671928405761719e+00 1.075650930404663086e+00 6.922320723533630371e-01
7.060000000000000000e+03 4.871031951904296875e+01 1.159850978851318359e+01 -4.983035326004028320e-01 4.275925159454345703e+00 1.133286595344543457e+00 6.741716265678405762e-01
7.061000000000000000e+03 5.038497543334960938e+01 1.425240612030029297e+01 -5.806254148483276367e-01 4.934383392333984375e+00 1.306127429008483887e+00 7.799097895622253418e-01
7.062000000000000000e+03 5.148596954345703125e+01 1.218518161773681641e+01 -6.444780230522155762e-01 5.169341564178466797e+00 1.357459068298339844e+00 5.939322710037231445e-01
7.063000000000000000e+03 5.791593933105468750e+01 1.398536682128906250e+00 -5.677459836006164551e-01 6.138586044311523438e+00 1.671252012252807617e+00 1.998062431812286377e-02
7.064000000000000000e+03 5.749381256103515625e+01 -5.447476863861083984e+00 -4.648963510990142822e-01 5.924991607666015625e+00 1.638028621673583984e+00 7.334040850400924683e-02
7.065000000000000000e+03 5.695580291748046875e+01 -3.315681219100952148e+00 -4.959301650524139404e-01 5.838599205017089844e+00 1.602800726890563965e+00 6.470587104558944702e-02
7.066000000000000000e+03 6.281428909301757812e+01 -9.187877774238586426e-01 -4.506249725818634033e-01 6.895561695098876953e+00 1.933481097221374512e+00 -7.340948283672332764e-02
7.067000000000000000e+03 6.371247100830078125e+01 -6.561926603317260742e-01 -4.376859366893768311e-01 7.029444694519042969e+00 1.977527618408203125e+00 -9.041485190391540527e-02
7.068000000000000000e+03 6.476406097412109375e+01 -4.509262144565582275e-01 -4.063239395618438721e-01 7.199151515960693359e+00 2.037848234176635742e+00 -1.190013140439987183e-01
7.069000000000000000e+03 5.427477264404296875e+01 2.225307226181030273e+00 -5.734081268310546875e-01 5.408855915069580078e+00 1.450634360313415527e+00 1.450714319944381714e-01
7.070000000000000000e+03 5.632549285888671875e+01 1.883483409881591797e+00 -5.836265683174133301e-01 5.826651096343994141e+00 1.572907328605651855e+00 7.816763967275619507e-02
7.071000000000000000e+03 5.669355773925781250e+01 2.530203819274902344e+00 -6.026230454444885254e-01 5.936574459075927734e+00 1.600185394287109375e+00 5.984985455870628357e-02
7.072000000000000000e+03 5.442624664306640625e+01 2.688122987747192383e+00 -5.882103443145751953e-01 5.452399253845214844e+00 1.459256649017333984e+00 1.506293416023254395e-01
7.073000000000000000e+03 5.345796203613281250e+01 4.192091941833496094e+00 -5.985282659530639648e-01 5.305125713348388672e+00 1.411979198455810547e+00 2.007689476013183594e-01
7.074000000000000000e+03 6.244207382202148438e+01 -1.196958199143409729e-01 -4.749206900596618652e-01 6.856271743774414062e+00 1.914405345916748047e+00 -7.973042875528335571e-02
7.075000000000000000e+03 5.469704055786132812e+01 3.166724920272827148e+00 -6.029704809188842773e-01 5.530625820159912109e+00 1.478296637535095215e+00 1.513619273900985718e-01
7.076000000000000000e+03 5.571244430541992188e+01 -1.111675277352333069e-01 -5.439242720603942871e-01 5.644698143005371094e+00 1.530232191085815430e+00 9.336651861667633057e-02
7.077000000000000000e+03 6.071670913696289062e+01 -9.100939631462097168e-01 -5.004107952117919922e-01 6.563504219055175781e+00 1.818928003311157227e+00 -2.458228915929794312e-02
7.078000000000000000e+03 4.658135223388671875e+01 1.195262241363525391e+01 -3.677264153957366943e-01 3.585780382156372070e+00 9.654162526130676270e-01 7.193832993507385254e-01
7.079000000000000000e+03 4.411275482177734375e+01 6.505223274230957031e+00 -2.715078890323638916e-01 2.846782922744750977e+00 7.725824713706970215e-01 4.285950660705566406e-01
7.080000000000000000e+03 5.210356521606445312e+01 7.267757892608642578e+00 -6.186639666557312012e-01 5.094241619110107422e+00 1.342673301696777344e+00 3.484168350696563721e-01
7.081000000000000000e+03 5.256166076660156250e+01 6.579363822937011719e+00 -6.225972771644592285e-01 5.185871601104736328e+00 1.368982315063476562e+00 2.997197806835174561e-01
7.082000000000000000e+03 5.084478378295898438e+01 4.135201930999755859e+00 -5.293838977813720703e-01 4.662667274475097656e+00 1.239984989166259766e+00 2.839383184909820557e-01
7.083000000000000000e+03 5.141660690307617188e+01 8.603386878967285156e+00 -6.115321516990661621e-01 4.957567214965820312e+00 1.303810596466064453e+00 4.301246404647827148e-01
7.084000000000000000e+03 5.642181396484375000e+01 -1.080262756347656250e+01 -4.173959195613861084e-01 5.748040676116943359e+00 1.599193334579467773e+00 1.256349235773086548e-01
7.085000000000000000e+03 4.978213882446289062e+01 4.472871303558349609e+00 -4.984706342220306396e-01 4.404221057891845703e+00 1.171725034713745117e+00 3.232966065406799316e-01
7.086000000000000000e+03 5.428573608398437500e+01 5.524321794509887695e-01 -5.436569452285766602e-01 5.387510776519775391e+00 1.453156113624572754e+00 1.183711215853691101e-01
7.087000000000000000e+03 5.410346221923828125e+01 3.409059047698974609e+00 -5.975342988967895508e-01 5.412480831146240234e+00 1.444483876228332520e+00 1.673236340284347534e-01
7.088000000000000000e+03 5.260095214843750000e+01 3.995960950851440430e+00 -5.788248777389526367e-01 5.084516048431396484e+00 1.351707339286804199e+00 2.293089628219604492e-01
7.089000000000000000e+03 5.593395614624023438e+01 -2.305137395858764648e+00 -5.153467059135437012e-01 5.649659156799316406e+00 1.540293693542480469e+00 7.854750752449035645e-02
7.090000000000000000e+03 4.517047119140625000e+01 7.709893226623535156e+00 -3.175751864910125732e-01 3.150210857391357422e+00 8.497907519340515137e-01 4.952948689460754395e-01
7.091000000000000000e+03 4.560931396484375000e+01 9.122576713562011719e+00 -3.371098637580871582e-01 3.278381586074829102e+00 8.823814988136291504e-01 5.714789628982543945e-01
7.092000000000000000e+03 4.596917343139648438e+01 1.021784973144531250e+01 -3.447010517120361328e-01 3.381992578506469727e+00 9.111874103546142578e-01 6.252006888389587402e-01
7.093000000000000000e+03 4.880613327026367188e+01 1.094954872131347656e+01 -5.000693202018737793e-01 4.295460700988769531e+00 1.138617396354675293e+00 6.368525028228759766e-01
7.094000000000000000e+03 4.427101135253906250e+01 6.985062122344970703e+00 -2.757635414600372314e-01 2.884293079376220703e+00 7.825589179992675781e-01 4.594146907329559326e-01
7.095000000000000000e+03 5.443066406250000000e+01 1.193387389183044434e+00 -5.610054135322570801e-01 5.408228874206542969e+00 1.454167008399963379e+00 1.243704333901405334e-01
7.096000000000000000e+03 4.681354522705078125e+01 1.122593402862548828e+01 -3.896261453628540039e-01 3.648117303848266602e+00 9.775473475456237793e-01 6.820129752159118652e-01
7.097000000000000000e+03 4.734827041625976562e+01 1.146301841735839844e+01 -4.124732613563537598e-01 3.810457468032836914e+00 1.019395232200622559e+00 6.908536553382873535e-01
7.098000000000000000e+03 5.039408493041992188e+01 1.177990341186523438e+01 -5.873206257820129395e-01 4.809201717376708984e+00 1.266564369201660156e+00 6.216326355934143066e-01
7.099000000000000000e+03 4.655123138427734375e+01 6.260924339294433594e+00 -3.796349763870239258e-01 3.560267686843872070e+00 9.541898369789123535e-01 4.354586601257324219e-01
7.100000000000000000e+03 5.978960800170898438e+01 -1.127977371215820312e+00 -5.149695873260498047e-01 6.383902072906494141e+00 1.760679721832275391e+00 3.393324324861168861e-03
7.101000000000000000e+03 5.889341735839843750e+01 -1.984643340110778809e+00 -5.062938332557678223e-01 6.219640254974365234e+00 1.714003920555114746e+00 2.342824265360832214e-02
7.102000000000000000e+03 6.198568725585937500e+01 -1.256377577781677246e+00 -4.659277200698852539e-01 6.761177539825439453e+00 1.888574957847595215e+00 -4.535575583577156067e-02
7.103000000000000000e+03 5.735469055175781250e+01 -1.038317871093750000e+01 -4.098267853260040283e-01 5.915721416473388672e+00 1.651768445968627930e+00 1.259532570838928223e-01
7.104000000000000000e+03 4.457936477661132812e+01 6.617131233215332031e+00 -2.968038022518157959e-01 2.999974489212036133e+00 8.109511733055114746e-01 4.463463723659515381e-01
7.105000000000000000e+03 5.103699874877929688e+01 7.647555828094482422e+00 -5.818918943405151367e-01 4.829548358917236328e+00 1.274296879768371582e+00 3.999159038066864014e-01
7.106000000000000000e+03 5.478480529785156250e+01 2.385210752487182617e+00 -5.860456228256225586e-01 5.530601978302001953e+00 1.483366966247558594e+00 1.350312083959579468e-01
7.107000000000000000e+03 5.703973388671875000e+01 -2.411684513092041016e+00 -5.142515897750854492e-01 5.864530086517333984e+00 1.605083584785461426e+00 6.069758534431457520e-02
7.108000000000000000e+03 5.397226715087890625e+01 2.853751897811889648e+00 -5.859941244125366211e-01 5.383084297180175781e+00 1.439127087593078613e+00 1.613455712795257568e-01
7.109000000000000000e+03 5.518498229980468750e+01 1.227053046226501465e+00 -5.684889554977416992e-01 5.579320430755615234e+00 1.503249526023864746e+00 1.131313145160675049e-01
7.110000000000000000e+03 5.684764862060546875e+01 -4.190393447875976562e+00 -4.843338429927825928e-01 5.821324825286865234e+00 1.601097226142883301e+00 6.705582886934280396e-02
7.111000000000000000e+03 5.077474212646484375e+01 9.460190773010253906e+00 -5.925810337066650391e-01 4.819848537445068359e+00 1.268180251121520996e+00 4.879242479801177979e-01
7.112000000000000000e+03 5.051922988891601562e+01 4.866161823272705078e+00 -5.280005931854248047e-01 4.595864295959472656e+00 1.220359086990356445e+00 3.177366852760314941e-01
7.113000000000000000e+03 4.965907287597656250e+01 5.664824485778808594e+00 -5.045143365859985352e-01 4.388723373413085938e+00 1.165262699127197266e+00 3.634610176086425781e-01
7.114000000000000000e+03 5.239984893798828125e+01 4.733207702636718750e+00 -5.825488567352294922e-01 5.065865039825439453e+00 1.344994783401489258e+00 2.551844418048858643e-01
7.115000000000000000e+03 4.676147460937500000e+01 5.457093715667724609e+00 -3.861987292766571045e-01 3.602763652801513672e+00 9.649694561958312988e-01 3.939225077629089355e-01
7.116000000000000000e+03 4.723383712768554688e+01 5.023176670074462891e+00 -4.009177684783935547e-01 3.730555295944213867e+00 9.988912343978881836e-01 3.789209127426147461e-01
7.117000000000000000e+03 5.817105865478515625e+01 -7.361902713775634766e+00 -4.339762628078460693e-01 6.038249492645263672e+00 1.681281924247741699e+00 9.530758112668991089e-02
7.118000000000000000e+03 6.598735809326171875e+01 -5.399183630943298340e-01 -3.596833646297454834e-01 7.382646083831787109e+00 2.106888771057128906e+00 -1.350254863500595093e-01
7.119000000000000000e+03 5.874489212036132812e+01 -8.835998535156250000e+00 -4.127080142498016357e-01 6.134450912475585938e+00 1.716522812843322754e+00 1.184166371822357178e-01
7.120000000000000000e+03 5.665678024291992188e+01 -5.839756965637207031e+00 -4.653539061546325684e-01 5.768944263458251953e+00 1.591077208518981934e+00 8.124145865440368652e-02
7.121000000000000000e+03 5.713324737548828125e+01 -4.777389049530029297e+00 -4.713062644004821777e-01 5.868871212005615234e+00 1.619269490242004395e+00 7.132845371961593628e-02
7.122000000000000000e+03 4.546401977539062500e+01 8.438576698303222656e+00 -3.354077339172363281e-01 3.233045578002929688e+00 8.692913055419921875e-01 5.299820899963378906e-01
7.123000000000000000e+03 4.516958236694335938e+01 8.875180244445800781e+00 -3.117310404777526855e-01 3.132138252258300781e+00 8.461222052574157715e-01 5.518069863319396973e-01
7.124000000000000000e+03 4.769236373901367188e+01 1.005168628692626953e+01 -4.398896992206573486e-01 3.912461280822753906e+00 1.041771411895751953e+00 6.041360497474670410e-01
7.125000000000000000e+03 4.648896789550781250e+01 1.093132781982421875e+01 -3.714691102504730225e-01 3.518852710723876953e+00 9.442150592803955078e-01 6.574661135673522949e-01
7.126000000000000000e+03 4.816359710693359375e+01 1.089523315429687500e+01 -4.655452966690063477e-01 4.066967010498046875e+00 1.080426573753356934e+00 6.377918720245361328e-01
7.127000000000000000e+03 4.576008987426757812e+01 7.955976009368896484e+00 -3.451966047286987305e-01 3.326788902282714844e+00 8.944776654243469238e-01 5.142816305160522461e-01
7.128000000000000000e+03 4.534151840209960938e+01 9.464127540588378906e+00 -3.250406384468078613e-01 3.165048599243164062e+00 8.520023822784423828e-01 5.857667922973632812e-01
7.129000000000000000e+03 4.530732727050781250e+01 6.386731147766113281e+00 -3.255663514137268066e-01 3.206302881240844727e+00 8.642209172248840332e-01 4.401760399341583252e-01
7.130000000000000000e+03 4.604345321655273438e+01 6.167140483856201172e+00 -3.543153405189514160e-01 3.406484603881835938e+00 9.156507849693298340e-01 4.363546967506408691e-01
7.131000000000000000e+03 5.728732299804687500e+01 -5.869711190462112427e-02 -5.473217964172363281e-01 5.973182201385498047e+00 1.627758145332336426e+00 4.529304429888725281e-02
7.132000000000000000e+03 5.749687576293945312e+01 -2.874900579452514648e+00 -4.954519569873809814e-01 5.951881408691406250e+00 1.636928796768188477e+00 5.360114201903343201e-02
7.133000000000000000e+03 4.831724929809570312e+01 1.027533435821533203e+01 -4.731455445289611816e-01 4.115293502807617188e+00 1.092644333839416504e+00 6.087452769279479980e-01
7.134000000000000000e+03 4.955527114868164062e+01 1.033056735992431641e+01 -5.346027016639709473e-01 4.493882656097412109e+00 1.187783956527709961e+00 5.898446440696716309e-01
7.135000000000000000e+03 5.178219985961914062e+01 6.211554050445556641e+00 -5.894579887390136719e-01 4.967437267303466797e+00 1.313393712043762207e+00 3.220351934432983398e-01
7.136000000000000000e+03 5.102789688110351562e+01 5.886817455291748047e+00 -5.581063628196716309e-01 4.760103225708007812e+00 1.260599136352539062e+00 3.303105533123016357e-01
7.137000000000000000e+03 4.803906250000000000e+01 7.006280422210693359e+00 -4.492996335029602051e-01 3.971647977828979492e+00 1.056704521179199219e+00 4.500016272068023682e-01
7.138000000000000000e+03 5.837821197509765625e+01 -8.111900329589843750e+00 -4.319395720958709717e-01 6.073536396026611328e+00 1.692479014396667480e+00 1.093387156724929810e-01
7.139000000000000000e+03 5.070363998413085938e+01 8.374824523925781250e+00 -5.813168287277221680e-01 4.756673812866210938e+00 1.252607107162475586e+00 4.465346932411193848e-01
7.140000000000000000e+03 5.642898559570312500e+01 -1.449257850646972656e+00 -5.242575407028198242e-01 5.771562099456787109e+00 1.574191331863403320e+00 6.707870215177536011e-02
7.141000000000000000e+03 5.669411468505859375e+01 -6.087446212768554688e-01 -5.414606332778930664e-01 5.836800575256347656e+00 1.588601946830749512e+00 6.334922462701797485e-02
7.142000000000000000e+03 5.792326354980468750e+01 -6.151493072509765625e+00 -4.493963718414306641e-01 6.003026962280273438e+00 1.666089177131652832e+00 7.978658378124237061e-02
7.143000000000000000e+03 6.177366638183593750e+01 -2.425502061843872070e+00 -4.479674994945526123e-01 6.707326412200927734e+00 1.877807736396789551e+00 -1.895041018724441528e-02
7.144000000000000000e+03 5.583879852294921875e+01 4.814435243606567383e-01 -5.535242557525634766e-01 5.687506675720214844e+00 1.540194630622863770e+00 8.832607418298721313e-02
7.145000000000000000e+03 6.298772048950195312e+01 -2.464590549468994141e+00 -4.165394604206085205e-01 6.901196956634521484e+00 1.945397257804870605e+00 -3.252625465393066406e-02
7.146000000000000000e+03 5.668204879760742188e+01 -1.925022482872009277e+00 -5.154142379760742188e-01 5.807928562164306641e+00 1.587754368782043457e+00 6.378055363893508911e-02
7.147000000000000000e+03 5.873181152343750000e+01 -3.165401816368103027e-01 -5.370938777923583984e-01 6.225850105285644531e+00 1.706626892089843750e+00 7.901166565716266632e-03
7.148000000000000000e+03 5.781849288940429688e+01 -6.188500523567199707e-01 -5.368301868438720703e-01 6.056719779968261719e+00 1.655966997146606445e+00 3.584894165396690369e-02
7.149000000000000000e+03 5.872927856445312500e+01 -5.612435340881347656e+00 -4.444617927074432373e-01 6.153876304626464844e+00 1.712824344635009766e+00 6.918029487133026123e-02
7.150000000000000000e+03 5.003504180908203125e+01 6.220514297485351562e+00 -5.270121693611145020e-01 4.513378143310546875e+00 1.195909857749938965e+00 3.830868899822235107e-01
7.151000000000000000e+03 5.066444778442382812e+01 6.613320827484130859e+00 -5.534838438034057617e-01 4.679098129272460938e+00 1.237684249877929688e+00 3.778969645500183105e-01
7.152000000000000000e+03 5.761518478393554688e+01 -1.112162017822265625e+01 -3.981467485427856445e-01 5.954648494720458984e+00 1.666950583457946777e+00 1.394758224487304688e-01
7.153000000000000000e+03 5.623620605468750000e+01 -2.560781240463256836e-01 -5.403204560279846191e-01 5.759545326232910156e+00 1.565767526626586914e+00 6.871379911899566650e-02
7.154000000000000000e+03 4.609599304199218750e+01 7.429090976715087891e+00 -3.626055717468261719e-01 3.427432537078857422e+00 9.194481372833251953e-01 4.889646172523498535e-01
7.155000000000000000e+03 4.597142410278320312e+01 8.731911659240722656e+00 -3.574416339397430420e-01 3.386221170425415039e+00 9.086338877677917480e-01 5.505333542823791504e-01
7.156000000000000000e+03 5.045290374755859375e+01 9.964490890502929688e+00 -5.782105922698974609e-01 4.747214317321777344e+00 1.250701069831848145e+00 5.297055840492248535e-01
7.157000000000000000e+03 4.646931457519531250e+01 9.953965187072753906e+00 -3.772119879722595215e-01 3.511150598526000977e+00 9.401816129684448242e-01 6.075302958488464355e-01
7.158000000000000000e+03 4.693045043945312500e+01 9.358403205871582031e+00 -4.017744362354278564e-01 3.702450990676879883e+00 9.902029037475585938e-01 5.854344964027404785e-01
7.159000000000000000e+03 5.708221817016601562e+01 -1.057233095169067383e+00 -5.362817049026489258e-01 5.890291213989257812e+00 1.606202840805053711e+00 5.785234645009040833e-02
7.160000000000000000e+03 5.067909622192382812e+01 1.088930034637451172e+01 -6.053650379180908203e-01 4.869405269622802734e+00 1.279212117195129395e+00 5.670721530914306641e-01
7.161000000000000000e+03 4.890168762207031250e+01 1.031438541412353516e+01 -5.080220699310302734e-01 4.305617332458496094e+00 1.139278531074523926e+00 6.000337600708007812e-01
7.162000000000000000e+03 5.801649475097656250e+01 -3.336357593536376953e+00 -4.882227480411529541e-01 6.044310092926025391e+00 1.666826248168945312e+00 4.902819544076919556e-02
7.163000000000000000e+03 5.032126617431640625e+01 7.362100601196289062e+00 -5.521268844604492188e-01 4.624462127685546875e+00 1.221700549125671387e+00 4.205087721347808838e-01
7.164000000000000000e+03 5.004520416259765625e+01 8.081676483154296875e+00 -5.484571456909179688e-01 4.571949481964111328e+00 1.207047700881958008e+00 4.559278786182403564e-01
7.165000000000000000e+03 4.854980468750000000e+01 6.527833461761474609e+00 -4.659630954265594482e-01 4.102574825286865234e+00 1.090983510017395020e+00 4.299552440643310547e-01
7.166000000000000000e+03 5.760026931762695312e+01 -2.046287775039672852e+00 -5.134248137474060059e-01 5.982165336608886719e+00 1.640622138977050781e+00 4.904248937964439392e-02
7.167000000000000000e+03 5.992124938964843750e+01 -2.786207199096679688e+00 -4.788995087146759033e-01 6.378411769866943359e+00 1.769853711128234863e+00 1.756615377962589264e-02
7.168000000000000000e+03 6.478918457031250000e+01 -1.462737321853637695e+00 -3.837831020355224609e-01 7.193711280822753906e+00 2.042978525161743164e+00 -8.880104869604110718e-02
7.169000000000000000e+03 6.113151931762695312e+01 -2.953708648681640625e+00 -4.534141123294830322e-01 6.595909118652343750e+00 1.842748403549194336e+00 4.749337676912546158e-03
7.170000000000000000e+03 6.174330520629882812e+01 -3.648430585861206055e+00 -4.294592440128326416e-01 6.686810016632080078e+00 1.877205133438110352e+00 1.317212637513875961e-02
7.171000000000000000e+03 4.501970291137695312e+01 6.893389225006103516e+00 -3.142021000385284424e-01 3.124017477035522461e+00 8.429446220397949219e-01 4.571080803871154785e-01
7.172000000000000000e+03 5.030822753906250000e+01 5.592489719390869141e+00 -5.301255583763122559e-01 4.568665504455566406e+00 1.211562037467956543e+00 3.511929214000701904e-01
7.173000000000000000e+03 4.704291915893554688e+01 9.900054931640625000e+00 -4.092797040939331055e-01 3.725235700607299805e+00 9.947867989540100098e-01 6.073514223098754883e-01
7.174000000000000000e+03 4.802875900268554688e+01 7.886603832244873047e+00 -4.529851675033569336e-01 3.981653928756713867e+00 1.058600664138793945e+00 4.896214306354522705e-01
7.175000000000000000e+03 4.756897735595703125e+01 7.510923385620117188e+00 -4.333985447883605957e-01 3.867722034454345703e+00 1.030297040939331055e+00 4.845284521579742432e-01
7.176000000000000000e+03 4.852651977539062500e+01 7.470188617706298828e+00 -4.745889902114868164e-01 4.116871356964111328e+00 1.092684745788574219e+00 4.691478312015533447e-01
7.177000000000000000e+03 4.919080734252929688e+01 9.308438301086425781e+00 -5.170017480850219727e-01 4.360445976257324219e+00 1.153033256530761719e+00 5.466315150260925293e-01
7.178000000000000000e+03 4.649636459350585938e+01 9.010520935058593750e+00 -3.784374892711639404e-01 3.542855978012084961e+00 9.493255615234375000e-01 5.652602910995483398e-01
7.179000000000000000e+03 4.899929809570312500e+01 6.999890327453613281e+00 -4.911731481552124023e-01 4.237054347991943359e+00 1.123764395713806152e+00 4.421715736389160156e-01
7.180000000000000000e+03 4.981923675537109375e+01 9.680345535278320312e+00 -5.507757067680358887e-01 4.544919967651367188e+00 1.198243260383605957e+00 5.468070507049560547e-01
7.181000000000000000e+03 6.312395477294921875e+01 -3.740751266479492188e+00 -3.975007236003875732e-01 6.902870655059814453e+00 1.951610922813415527e+00 -2.727773739024996758e-03
7.182000000000000000e+03 6.465378570556640625e+01 -3.698929309844970703e+00 -3.592808544635772705e-01 7.144820213317871094e+00 2.035661935806274414e+00 -2.319997362792491913e-02
7.183000000000000000e+03 4.635458374023437500e+01 9.483147621154785156e+00 -3.684849441051483154e-01 3.486249446868896484e+00 9.353293776512145996e-01 5.906966924667358398e-01
7.184000000000000000e+03 4.915715026855468750e+01 8.393272399902343750e+00 -5.106799602508544922e-01 4.340683937072753906e+00 1.149001240730285645e+00 5.009906291961669922e-01
7.185000000000000000e+03 4.966955184936523438e+01 8.717206001281738281e+00 -5.364081263542175293e-01 4.478994846343994141e+00 1.182776093482971191e+00 4.981407225131988525e-01
7.186000000000000000e+03 6.002959442138671875e+01 -8.227109909057617188e+00 -3.966629207134246826e-01 6.376549720764160156e+00 1.793966054916381836e+00 1.038784086704254150e-01
7.187000000000000000e+03 6.072954559326171875e+01 -7.359843254089355469e+00 -3.860319256782531738e-01 6.491657733917236328e+00 1.831687688827514648e+00 8.844524621963500977e-02
7.188000000000000000e+03 6.053282928466796875e+01 -2.283806800842285156e+00 -4.779502451419830322e-01 6.505984783172607422e+00 1.808410286903381348e+00 2.063173335045576096e-03
7.189000000000000000e+03 5.902442932128906250e+01 -4.480233669281005859e+00 -4.585619568824768066e-01 6.215889453887939453e+00 1.727198362350463867e+00 5.368337407708168030e-02
7.190000000000000000e+03 5.997888565063476562e+01 -5.822675704956054688e+00 -4.250752925872802734e-01 6.369485855102539062e+00 1.783323168754577637e+00 6.332942098379135132e-02
7.191000000000000000e+03 5.853133773803710938e+01 -3.867818117141723633e+00 -4.761784076690673828e-01 6.128331184387207031e+00 1.695645809173583984e+00 4.843072965741157532e-02
7.192000000000000000e+03 4.863555908203125000e+01 8.846922874450683594e+00 -4.854974448680877686e-01 4.181580543518066406e+00 1.108824849128723145e+00 5.234257578849792480e-01
7.193000000000000000e+03 4.630576324462890625e+01 8.238870620727539062e+00 -3.738287687301635742e-01 3.488144159317016602e+00 9.342946410179138184e-01 5.265992283821105957e-01
7.194000000000000000e+03 4.685047531127929688e+01 8.554491996765136719e+00 -4.008209109306335449e-01 3.633192062377929688e+00 9.697113037109375000e-01 5.376447439193725586e-01
7.195000000000000000e+03 4.703813934326171875e+01 7.117653369903564453e+00 -4.034798741340637207e-01 3.691934585571289062e+00 9.865363836288452148e-01 4.734275937080383301e-01
7.196000000000000000e+03 4.643156433105468750e+01 6.845467090606689453e+00 -3.762660622596740723e-01 3.528409957885742188e+00 9.456431865692138672e-01 4.596473872661590576e-01
7.197000000000000000e+03 4.885051727294921875e+01 7.971200942993164062e+00 -4.897952079772949219e-01 4.235211372375488281e+00 1.123624801635742188e+00 4.814100563526153564e-01
7.198000000000000000e+03 4.942255783081054688e+01 7.865071296691894531e+00 -5.203289389610290527e-01 4.394950389862060547e+00 1.162386536598205566e+00 4.640944302082061768e-01
7.199000000000000000e+03 6.045658111572265625e+01 -3.468904972076416016e+00 -4.568924009799957275e-01 6.464732646942138672e+00 1.802352070808410645e+00 2.633640915155410767e-02
7.200000000000000000e+03 5.974466323852539062e+01 -3.967887401580810547e+00 -4.552221596240997314e-01 6.345480918884277344e+00 1.767077684402465820e+00 3.460630774497985840e-02
7.201000000000000000e+03 6.160577774047851562e+01 -4.924448013305664062e+00 -4.109719991683959961e-01 6.649323463439941406e+00 1.871505379676818848e+00 3.998715430498123169e-02
7.202000000000000000e+03 4.743792724609375000e+01 8.944138526916503906e+00 -4.298649132251739502e-01 3.833526849746704102e+00 1.021098613739013672e+00 5.532103180885314941e-01
7.203000000000000000e+03 4.719042587280273438e+01 8.042403221130371094e+00 -4.118047058582305908e-01 3.734597921371459961e+00 9.968379735946655273e-01 5.194448232650756836e-01
7.204000000000000000e+03 5.987245559692382812e+01 -7.564526557922363281e+00 -4.041396081447601318e-01 6.348993301391601562e+00 1.783456206321716309e+00 9.259852766990661621e-02
7.205000000000000000e+03 4.830480957031250000e+01 8.339287757873535156e+00 -4.681828916072845459e-01 4.067631244659423828e+00 1.079834580421447754e+00 5.084928870201110840e-01
7.206000000000000000e+03 6.079308700561523438e+01 -5.399199008941650391e+00 -4.198375940322875977e-01 6.515253067016601562e+00 1.828624725341796875e+00 5.212637409567832947e-02
7.207000000000000000e+03 6.218504714965820312e+01 -5.748363494873046875e+00 -3.882586658000946045e-01 6.738170623779296875e+00 1.904973626136779785e+00 5.051775649189949036e-02
7.208000000000000000e+03 6.202240371704101562e+01 -8.144566535949707031e+00 -3.543425202369689941e-01 6.700486660003662109e+00 1.903843283653259277e+00 9.977603703737258911e-02
7.209000000000000000e+03 6.376978683471679688e+01 -6.061226367950439453e+00 -3.478919565677642822e-01 6.982988834381103516e+00 1.990529179573059082e+00 4.205968230962753296e-02
7.210000000000000000e+03 6.188388442993164062e+01 -9.269142150878906250e+00 -3.537317812442779541e-01 6.676631927490234375e+00 1.896870017051696777e+00 1.218180730938911438e-01
7.211000000000000000e+03 6.071775817871093750e+01 -9.104976654052734375e+00 -3.740511238574981689e-01 6.477760314941406250e+00 1.831112861633300781e+00 1.197620034217834473e-01
7.212000000000000000e+03 5.214175701141357422e+00 3.599453353881835938e+01 -4.704548511654138565e-03 -8.308378607034683228e-02 -2.633650042116641998e-02 -4.613598808646202087e-03
7.213000000000000000e+03 3.172807502746582031e+01 4.112257003784179688e+01 2.748148702085018158e-02 8.367263525724411011e-02 3.334623575210571289e-02 -1.295148208737373352e-02
7.214000000000000000e+03 3.302749633789062500e+01 3.770138931274414062e+01 1.507426705211400986e-02 8.969634026288986206e-02 3.143117949366569519e-02 3.359226882457733154e-02
7.215000000000000000e+03 8.066804885864257812e+00 -4.113248062133789062e+01 3.467066271696239710e-04 -2.405010908842086792e-01 -7.204630970954895020e-02 -5.009464453905820847e-03
7.216000000000000000e+03 2.288262939453125000e+01 4.118861770629882812e+01 7.647257763892412186e-03 6.377717852592468262e-02 2.142732962965965271e-02 -6.726444698870182037e-03
7.217000000000000000e+03 2.515079307556152344e+01 -3.768914413452148438e+01 8.645350486040115356e-02 2.558820545673370361e-01 1.027006730437278748e-01 -6.335651129484176636e-02
7.218000000000000000e+03 6.845600605010986328e+00 -3.609149551391601562e+01 9.424931369721889496e-03 -2.805007398128509521e-01 -8.132274448871612549e-02 -9.359963238239288330e-03
7.219000000000000000e+03 3.476425170898437500e+01 3.656685256958007812e+01 9.041903913021087646e-02 6.700135022401809692e-02 4.722611606121063232e-02 1.226559933274984360e-02
7.220000000000000000e+03 1.296617221832275391e+01 1.828251004219055176e+00 1.259073138236999512e+00 3.868228793144226074e-01 4.937688112258911133e-01 -2.962360084056854248e-01
7.221000000000000000e+03 1.627571296691894531e+01 -2.791699171066284180e+00 -2.299668341875076294e-01 -4.170289337635040283e-01 -1.940987259149551392e-01 -2.947779893875122070e-01
7.222000000000000000e+03 1.707563400268554688e+01 -2.487733602523803711e+00 -1.513844579458236694e-01 -1.482847779989242554e-01 -8.990077674388885498e-02 -1.822838485240936279e-01
7.223000000000000000e+03 1.698546409606933594e+01 -2.072346687316894531e+00 -4.921891093254089355e-01 -2.193734943866729736e-01 -2.134687900543212891e-01 -2.674381732940673828e-01
7.224000000000000000e+03 1.753148651123046875e+01 -1.690630793571472168e+00 -7.516819238662719727e-01 2.372647449374198914e-02 -2.183866351842880249e-01 -2.778962850570678711e-01
7.225000000000000000e+03 1.788171386718750000e+01 -1.495427250862121582e+00 -8.916195631027221680e-01 1.644845157861709595e-01 -2.181405276060104370e-01 -2.589463591575622559e-01
7.226000000000000000e+03 1.836265563964843750e+01 -1.325502634048461914e+00 -8.297571539878845215e-01 5.643331408500671387e-01 -7.962721586227416992e-02 -2.022218704223632812e-01
7.227000000000000000e+03 1.911986732482910156e+01 -7.056217789649963379e-01 -1.269718170166015625e+00 1.165890455245971680e+00 -3.114831633865833282e-02 -2.066626399755477905e-01
7.228000000000000000e+03 1.972180747985839844e+01 -4.534863233566284180e-01 -1.323985219001770020e+00 1.280448913574218750e+00 -1.306090038269758224e-02 1.791436523199081421e-01
7.229000000000000000e+03 2.075101089477539062e+01 3.886678218841552734e-01 -9.319921731948852539e-01 2.881604246795177460e-02 -2.709528505802154541e-01 4.056594669818878174e-01
7.230000000000000000e+03 2.105436515808105469e+01 3.358698189258575439e-01 -9.217429757118225098e-01 -1.869181394577026367e-01 -3.325983285903930664e-01 3.465315103530883789e-01
7.231000000000000000e+03 2.107737350463867188e+01 6.139593124389648438e-01 -7.188206911087036133e-01 -8.353922516107559204e-02 -2.407079637050628662e-01 2.288019508123397827e-01
7.232000000000000000e+03 2.136968803405761719e+01 3.602714836597442627e-01 -8.461968302726745605e-01 -1.236451342701911926e-01 -2.909525930881500244e-01 2.647700607776641846e-01
7.233000000000000000e+03 2.161505889892578125e+01 8.762628436088562012e-01 -5.205205082893371582e-01 -4.224354028701782227e-02 -1.688292026519775391e-01 1.202133893966674805e-01
7.234000000000000000e+03 2.196348762512207031e+01 7.313586473464965820e-01 -5.352935194969177246e-01 -1.008696481585502625e-01 -1.908489465713500977e-01 7.068955153226852417e-02
7.235000000000000000e+03 2.211493301391601562e+01 1.243030071258544922e+00 -2.931271493434906006e-01 -1.141610443592071533e-01 -1.221864596009254456e-01 5.486714839935302734e-02
7.236000000000000000e+03 2.263086318969726562e+01 1.541103839874267578e+00 -1.473433077335357666e-01 -8.911387622356414795e-02 -7.093715667724609375e-02 -4.186169244349002838e-03
7.237000000000000000e+03 2.294745635986328125e+01 1.429696202278137207e+00 -1.755135208368301392e-01 -1.216462105512619019e-01 -8.914791792631149292e-02 -3.726026415824890137e-02
7.238000000000000000e+03 2.280564117431640625e+01 1.645501494407653809e+00 -1.141916811466217041e-01 -1.173693165183067322e-01 -6.946829706430435181e-02 -4.320996347814798355e-03
7.239000000000000000e+03 2.296620941162109375e+01 1.757194995880126953e+00 -8.036927133798599243e-02 -8.592520654201507568e-02 -4.988834261894226074e-02 -2.274614386260509491e-02
7.240000000000000000e+03 2.313524436950683594e+01 1.837193489074707031e+00 -6.015076115727424622e-02 -1.342826336622238159e-01 -5.833002179861068726e-02 -2.654136903584003448e-02
7.241000000000000000e+03 2.367033195495605469e+01 2.162457466125488281e+00 1.060124952346086502e-02 -1.084269508719444275e-01 -2.934771217405796051e-02 -6.043590605258941650e-02
7.242000000000000000e+03 2.466935157775878906e+01 2.461996078491210938e+00 3.163018822669982910e-02 -1.302642673254013062e-01 -2.959022298455238342e-02 -9.280419349670410156e-02
7.243000000000000000e+03 2.483392333984375000e+01 2.592235803604125977e+00 2.683007530868053436e-02 -1.380801498889923096e-01 -3.337502479553222656e-02 -7.911084592342376709e-02
7.244000000000000000e+03 2.542878341674804688e+01 3.032229661941528320e+00 6.141530349850654602e-02 -1.446556448936462402e-01 -2.497209981083869934e-02 -8.675175905227661133e-02
7.245000000000000000e+03 2.514252281188964844e+01 2.844744920730590820e+00 4.988188296556472778e-02 -1.408762633800506592e-01 -2.729831449687480927e-02 -8.216416090726852417e-02
7.246000000000000000e+03 2.541246604919433594e+01 2.843960285186767578e+00 4.010393843054771423e-02 -1.426267474889755249e-01 -3.075684234499931335e-02 -8.863882720470428467e-02
7.247000000000000000e+03 2.535088920593261719e+01 3.236381292343139648e+00 6.772959232330322266e-02 -1.200467273592948914e-01 -1.569514162838459015e-02 -8.135542273521423340e-02
7.248000000000000000e+03 2.604232788085937500e+01 3.243426322937011719e+00 5.570748448371887207e-02 -1.346810460090637207e-01 -2.369206771254539490e-02 -9.789234399795532227e-02
7.249000000000000000e+03 2.621641159057617188e+01 3.386336803436279297e+00 5.430857464671134949e-02 -1.424978971481323242e-01 -2.645679563283920288e-02 -9.062299877405166626e-02
7.250000000000000000e+03 2.670901679992675781e+01 3.649615526199340820e+00 5.448156967759132385e-02 -1.300825178623199463e-01 -2.268028259277343750e-02 -9.400135278701782227e-02
7.251000000000000000e+03 2.696375083923339844e+01 3.944283723831176758e+00 5.380087345838546753e-02 -1.269690990447998047e-01 -2.195046469569206238e-02 -9.146688878536224365e-02
7.252000000000000000e+03 2.733935546875000000e+01 3.787608385086059570e+00 5.782306939363479614e-02 -1.151772215962409973e-01 -1.720624603331089020e-02 -9.070448577404022217e-02
7.253000000000000000e+03 2.741522598266601562e+01 4.494976520538330078e+00 4.222772270441055298e-02 -1.178476959466934204e-01 -2.268599346280097961e-02 -8.684980869293212891e-02
7.254000000000000000e+03 2.771215820312500000e+01 4.380380153656005859e+00 4.540422186255455017e-02 -9.989295899868011475e-02 -1.634662225842475891e-02 -8.208697289228439331e-02
7.255000000000000000e+03 2.787526130676269531e+01 4.488920211791992188e+00 4.242512583732604980e-02 -9.712917357683181763e-02 -1.641121506690979004e-02 -7.709173858165740967e-02
7.256000000000000000e+03 2.775478744506835938e+01 4.710304737091064453e+00 3.541588038206100464e-02 -1.031721755862236023e-01 -2.032688818871974945e-02 -8.234547823667526245e-02
7.257000000000000000e+03 2.810651588439941406e+01 4.907754898071289062e+00 2.653972990810871124e-02 -7.239858806133270264e-02 -1.375765632838010788e-02 -7.367514073848724365e-02
7.258000000000000000e+03 2.863760185241699219e+01 4.801270484924316406e+00 2.626883983612060547e-02 -1.435133861377835274e-03 7.450112141668796539e-03 -7.073535025119781494e-02
7.259000000000000000e+03 2.955054855346679688e+01 5.096231460571289062e+00 3.697996586561203003e-02 1.311626732349395752e-01 5.044279247522354126e-02 -1.314750015735626221e-01
7.260000000000000000e+03 2.439704132080078125e+01 1.496732711791992188e+01 1.239694207906723022e-01 1.334122568368911743e-01 7.721450179815292358e-02 1.279888302087783813e-01
7.261000000000000000e+03 2.530537223815917969e+01 1.599990749359130859e+01 1.158192008733749390e-01 1.224907562136650085e-01 7.149298489093780518e-02 1.224076375365257263e-01
7.262000000000000000e+03 2.616976165771484375e+01 1.603684043884277344e+01 1.163404136896133423e-01 1.306142359972000122e-01 7.408639788627624512e-02 1.216556504368782043e-01
7.263000000000000000e+03 2.591707229614257812e+01 1.631070518493652344e+01 1.151375025510787964e-01 1.228887736797332764e-01 7.140788435935974121e-02 1.199098676443099976e-01
7.264000000000000000e+03 3.038147163391113281e+01 2.027015686035156250e+01 9.233319014310836792e-02 9.305697679519653320e-02 5.561704933643341064e-02 9.834148734807968140e-02
7.265000000000000000e+03 2.998445892333984375e+01 2.067014503479003906e+01 9.062144160270690918e-02 1.013263985514640808e-01 5.758435279130935669e-02 8.956252783536911011e-02
7.266000000000000000e+03 3.565296936035156250e+01 2.690326499938964844e+01 5.755354091525077820e-02 6.930047273635864258e-02 3.805620595812797546e-02 9.950309246778488159e-02
7.267000000000000000e+03 3.964815139770507812e+01 3.095175743103027344e+01 7.536357641220092773e-02 4.676043614745140076e-02 3.663720563054084778e-02 9.171681106090545654e-02
7.268000000000000000e+03 4.472990798950195312e+01 3.515737152099609375e+01 1.163968294858932495e-01 -4.369673505425453186e-02 2.181002870202064514e-02 4.249035567045211792e-02
7.269000000000000000e+03 4.727361679077148438e+01 3.703670120239257812e+01 -1.985809803009033203e-01 8.090904355049133301e-02 -3.530157729983329773e-02 -1.034396607428789139e-02
7.270000000000000000e+03 5.125585937500000000e+01 3.867961120605468750e+01 -2.313715696334838867e+00 -3.070094063878059387e-02 -7.033249735832214355e-01 -1.004795312881469727e+00
7.271000000000000000e+03 4.753903961181640625e+01 2.772831153869628906e+01 1.809399008750915527e+00 2.356385707855224609e+00 1.249735474586486816e+00 2.098632812500000000e+00
7.272000000000000000e+03 4.639590454101562500e+01 2.670931053161621094e+01 1.370389819145202637e+00 1.838641881942749023e+00 9.627095460891723633e-01 1.641021490097045898e+00
7.273000000000000000e+03 2.578325653076171875e+01 7.183521270751953125e+00 -4.761622428894042969e+00 -2.501685380935668945e+00 -2.178992271423339844e+00 -3.523334980010986328e+00
7.274000000000000000e+03 2.632100677490234375e+01 7.529623985290527344e+00 -4.616760730743408203e+00 -2.731013536453247070e+00 -2.204332351684570312e+00 -3.400892496109008789e+00
7.275000000000000000e+03 2.598767662048339844e+01 7.308847427368164062e+00 -5.327195167541503906e+00 -2.770611763000488281e+00 -2.429342031478881836e+00 -3.634863138198852539e+00
7.276000000000000000e+03 2.648138046264648438e+01 7.651388645172119141e+00 -4.272922515869140625e+00 -2.836662530899047852e+00 -2.132875442504882812e+00 -3.498514175415039062e+00
7.277000000000000000e+03 2.700991249084472656e+01 8.117956161499023438e+00 -3.893493175506591797e+00 -2.607088327407836914e+00 -1.950174450874328613e+00 -3.292185306549072266e+00
7.278000000000000000e+03 2.777424430847167969e+01 8.554430007934570312e+00 -3.063517570495605469e+00 -1.433382868766784668e+00 -1.349070191383361816e+00 -2.395184278488159180e+00
7.279000000000000000e+03 3.269036102294921875e+01 1.325348854064941406e+01 -3.865945935249328613e-01 -3.579185307025909424e-01 -2.233539372682571411e-01 -3.710769116878509521e-01
7.280000000000000000e+03 3.919876861572265625e+01 1.983363914489746094e+01 1.023312807083129883e-01 2.939502000808715820e-01 1.188844516873359680e-01 1.968351900577545166e-01
7.281000000000000000e+03 2.158920049667358398e+00 3.702641677856445312e+01 -2.155932132154703140e-03 -1.202581152319908142e-01 -3.672421351075172424e-02 -3.046160330995917320e-03
7.282000000000000000e+03 1.884581804275512695e+00 1.488296413421630859e+01 4.885248490609228611e-04 -1.978998482227325439e-01 -5.922339484095573425e-02 -9.675810113549232483e-03
7.283000000000000000e+03 7.904681396484375000e+01 2.089648628234863281e+01 -4.076311830431222916e-03 6.935145854949951172e+00 2.079320907592773438e+00 -2.372605204582214355e-01
7.284000000000000000e+03 1.505214977264404297e+01 9.229234457015991211e-01 1.143328762054443359e+01 2.391751527786254883e+00 4.147511482238769531e+00 -5.033795356750488281e+00
7.285000000000000000e+03 1.510897541046142578e+01 8.722708225250244141e-01 8.501594543457031250e+00 1.312580823898315430e+00 2.944252490997314453e+00 -2.743418693542480469e+00
7.286000000000000000e+03 4.563669586181640625e+01 -4.024497604370117188e+01 7.446638494729995728e-02 5.371814727783203125e+00 1.633884429931640625e+00 -3.566735088825225830e-01
7.287000000000000000e+03 2.064846420288085938e+01 1.289178580045700073e-01 -1.049649596214294434e+00 4.042141512036323547e-02 -3.027684688568115234e-01 4.578316211700439453e-01
7.288000000000000000e+03 2.121899795532226562e+01 1.783164590597152710e-01 -9.697479009628295898e-01 -9.715262055397033691e-02 -3.200701475143432617e-01 2.290743440389633179e-01
7.289000000000000000e+03 2.417797279357910156e+01 1.859899759292602539e+00 -8.744027465581893921e-02 -1.632856726646423340e-01 -7.521778345108032227e-02 -7.821117341518402100e-02
7.290000000000000000e+03 2.213599205017089844e+01 9.312261343002319336e-01 -4.635270833969116211e-01 -1.336833238601684570e-01 -1.791631132364273071e-01 8.800593763589859009e-02
7.291000000000000000e+03 2.833125114440917969e+01 4.376955032348632812e+00 3.883995488286018372e-02 -3.979684039950370789e-02 -2.870664757210761309e-04 -7.515574246644973755e-02
7.292000000000000000e+03 2.843499755859375000e+01 4.717871189117431641e+00 3.074269555509090424e-02 -2.592785470187664032e-02 1.444452325813472271e-03 -7.209638506174087524e-02
7.293000000000000000e+03 7.566349029541015625e+01 3.809286499023437500e+01 2.768589854240417480e-01 4.850683212280273438e+00 1.538262724876403809e+00 -4.699765443801879883e-01
7.294000000000000000e+03 7.763694000244140625e+01 3.821081924438476562e+01 1.860721111297607422e-01 4.081196784973144531e+00 1.280180692672729492e+00 -1.533113513141870499e-02
7.295000000000000000e+03 2.259679794311523438e+01 1.230010867118835449e+00 -2.623067796230316162e-01 -1.031452640891075134e-01 -1.096356064081192017e-01 -9.200705215334892273e-03
7.296000000000000000e+03 3.136951828002929688e+01 5.342440128326416016e+00 1.314969956874847412e-01 1.596899032592773438e-01 8.735607564449310303e-02 -1.118806973099708557e-01
7.297000000000000000e+03 2.977029991149902344e+01 4.700632572174072266e+00 5.192282423377037048e-02 1.257393658161163330e-01 5.329865962266921997e-02 -1.215884089469909668e-01
7.298000000000000000e+03 2.747480583190917969e+01 3.578217983245849609e+00 4.710575193166732788e-02 -1.103455126285552979e-01 -1.897192932665348053e-02 -9.090303629636764526e-02
7.299000000000000000e+03 2.634916687011718750e+01 3.542124748229980469e+00 5.850038304924964905e-02 -1.323537677526473999e-01 -2.215601503849029541e-02 -9.610711038112640381e-02
7.300000000000000000e+03 2.642081832885742188e+01 3.221005678176879883e+00 5.261322483420372009e-02 -1.387109458446502686e-01 -2.582931704819202423e-02 -9.809942543506622314e-02
7.301000000000000000e+03 2.598304557800292969e+01 2.867046594619750977e+00 3.752537071704864502e-02 -1.381401866674423218e-01 -3.018444217741489410e-02 -1.037802696228027344e-01
7.302000000000000000e+03 2.499001693725585938e+01 2.380031347274780273e+00 1.453464291989803314e-02 -1.384551376104354858e-01 -3.717615082859992981e-02 -9.840343147516250610e-02
7.303000000000000000e+03 2.470457649230957031e+01 2.115335464477539062e+00 -1.969762332737445831e-02 -1.485411375761032104e-01 -5.047162994742393494e-02 -9.925428777933120728e-02
7.304000000000000000e+03 2.382943153381347656e+01 1.943921804428100586e+00 -5.231432616710662842e-02 -1.329238116741180420e-01 -5.557144060730934143e-02 -5.946486815810203552e-02
7.305000000000000000e+03 2.399880790710449219e+01 2.075699090957641602e+00 -1.748658344149589539e-02 -1.214859113097190857e-01 -4.169175028800964355e-02 -7.542142271995544434e-02
7.306000000000000000e+03 3.196798133850097656e+01 7.072608947753906250e+00 8.715404570102691650e-02 6.771915405988693237e-02 4.646195843815803528e-02 3.969231620430946350e-02
7.307000000000000000e+03 3.913466453552246094e+00 -1.024649143218994141e+01 1.613359339535236359e-02 -2.147403806447982788e-01 -5.958203598856925964e-02 -1.168791726231575012e-01
7.308000000000000000e+03 3.518454360961914062e+01 1.533767700195312500e+01 -2.004967927932739258e-01 -1.203171387314796448e-01 -9.624417871236801147e-02 -1.718272417783737183e-01
7.309000000000000000e+03 3.521926498413085938e+01 1.494057464599609375e+01 -2.156014740467071533e-01 -4.780551418662071228e-02 -7.902209460735321045e-02 -1.401015222072601318e-01
7.310000000000000000e+03 3.794656753540039062e+01 1.757659339904785156e+01 -1.983104832470417023e-02 2.877033650875091553e-01 8.036169409751892090e-02 1.134600490331649780e-01
7.311000000000000000e+03 3.952177810668945312e+01 1.959949302673339844e+01 1.230596378445625305e-01 4.120587408542633057e-01 1.605355143547058105e-01 2.638302445411682129e-01
7.312000000000000000e+03 4.029258728027343750e+01 2.034000015258789062e+01 1.889260560274124146e-01 5.338627099990844727e-01 2.168366312980651855e-01 3.611699938774108887e-01
7.313000000000000000e+03 5.612867736816406250e+01 3.807769012451171875e+01 2.465774774551391602e+00 1.610760688781738281e+01 5.572014331817626953e+00 1.729177117347717285e+00
7.314000000000000000e+03 5.599042129516601562e+01 3.886317825317382812e+01 1.460675716400146484e+00 1.567301559448242188e+01 5.140107154846191406e+00 1.263442754745483398e+00
7.315000000000000000e+03 4.292369079589843750e+01 3.354968643188476562e+01 1.566216349601745605e-01 6.244637444615364075e-02 6.572040170431137085e-02 8.753493428230285645e-02
7.316000000000000000e+03 7.716402435302734375e+01 1.948497390747070312e+01 -3.201781585812568665e-02 7.315685749053955078e+00 2.185100317001342773e+00 -5.749937891960144043e-01
7.317000000000000000e+03 3.054828643798828125e+01 8.619542121887207031e+00 -4.494994580745697021e-01 1.102779526263475418e-02 -1.315415054559707642e-01 4.905790835618972778e-02
7.318000000000000000e+03 7.475400543212890625e+01 1.615700149536132812e+01 -1.266027688980102539e-01 7.803804874420166016e+00 2.303160667419433594e+00 -7.511402368545532227e-01
7.319000000000000000e+03 2.354670906066894531e+01 1.375060558319091797e+00 -2.244522273540496826e-01 -1.706542968750000000e-01 -1.185319572687149048e-01 -4.868767783045768738e-02
7.320000000000000000e+03 2.586840057373046875e+01 7.232078075408935547e+00 -4.611499786376953125e+00 -2.493016481399536133e+00 -2.131354808807373047e+00 -3.481569528579711914e+00
7.321000000000000000e+03 2.949771499633789062e+01 4.658766746520996094e+00 3.981064632534980774e-02 1.089552864432334900e-01 4.462977871298789978e-02 -1.103543564677238464e-01
7.322000000000000000e+03 2.247436523437500000e+01 5.521204471588134766e-01 -6.069636344909667969e-01 -1.841787099838256836e-01 -2.373427003622055054e-01 8.619211614131927490e-02
7.323000000000000000e+03 3.063147735595703125e+01 2.118402862548828125e+01 8.952723443508148193e-02 9.814087301492691040e-02 5.630043148994445801e-02 8.522812277078628540e-02
7.324000000000000000e+03 2.699780845642089844e+01 1.790995216369628906e+01 1.057131588459014893e-01 1.200341433286666870e-01 6.772419065237045288e-02 1.121970340609550476e-01
7.325000000000000000e+03 7.381737518310546875e+01 3.239267349243164062e+01 3.165158927440643311e-01 6.308167934417724609e+00 1.987405180931091309e+00 -9.564127922058105469e-01
7.326000000000000000e+03 3.338817596435546875e+00 -3.485124588012695312e+01 -4.327848728280514479e-04 -4.122420847415924072e-01 -1.238024607300758362e-01 -3.774238517507910728e-03
7.327000000000000000e+03 2.411817359924316406e+01 1.554218959808349609e+01 1.131060048937797546e-01 1.351876854896545410e-01 7.448811084032058716e-02 1.249391660094261169e-01
7.328000000000000000e+03 2.233938217163085938e+01 7.754625678062438965e-01 -4.232505857944488525e-01 -1.538230180740356445e-01 -1.731220781803131104e-01 3.639424964785575867e-02
7.329000000000000000e+03 2.810235977172851562e+01 1.861734199523925781e+01 1.023406237363815308e-01 1.044260337948799133e-01 6.202999874949455261e-02 1.085369065403938293e-01
7.330000000000000000e+03 2.786273765563964844e+01 1.890051460266113281e+01 1.012221574783325195e-01 1.135862916707992554e-01 6.444253772497177124e-02 1.041472703218460083e-01
7.331000000000000000e+03 2.362845420837402344e+01 1.601757049560546875e+01 1.027183160185813904e-01 1.406487673521041870e-01 7.301012426614761353e-02 1.185754835605621338e-01
7.332000000000000000e+03 7.754660034179687500e+01 -3.350833892822265625e+01 1.250771433115005493e-02 8.362287521362304688e+00 2.512438535690307617e+00 8.101272583007812500e-02
7.333000000000000000e+03 7.573476409912109375e+01 -3.643001556396484375e+01 2.771917916834354401e-02 8.158885002136230469e+00 2.455981254577636719e+00 9.412663429975509644e-02
7.334000000000000000e+03 5.051165390014648438e+01 3.833670043945312500e+01 -2.306328058242797852e+00 5.830703675746917725e-02 -6.744062900543212891e-01 -5.053759217262268066e-01
7.335000000000000000e+03 5.062117004394531250e+01 3.879039764404296875e+01 -1.771061062812805176e+00 4.452365636825561523e-01 -3.977473676204681396e-01 -1.422593742609024048e-01
7.336000000000000000e+03 4.426131439208984375e+01 2.468535423278808594e+01 9.514616727828979492e-01 1.270667791366577148e+00 6.666388511657714844e-01 1.077860713005065918e+00
7.337000000000000000e+03 4.430237579345703125e+01 2.435492324829101562e+01 8.654471039772033691e-01 1.358816027641296387e+00 6.672789454460144043e-01 1.086907744407653809e+00
7.338000000000000000e+03 2.460852813720703125e+01 -2.238490867614746094e+01 8.377270400524139404e-02 4.019078612327575684e-01 1.457041651010513306e-01 -2.091208845376968384e-01
7.339000000000000000e+03 2.898426437377929688e+01 -3.019882011413574219e+01 1.573422253131866455e-01 4.117403626441955566e-01 1.707247793674468994e-01 -2.009330689907073975e-01
7.340000000000000000e+03 2.749006843566894531e+01 -3.125569725036621094e+01 1.158743873238563538e-01 3.493686616420745850e-01 1.395729184150695801e-01 -1.775009781122207642e-01
7.341000000000000000e+03 1.909563446044921875e+01 9.559967994689941406e+00 1.614706516265869141e-01 1.937271952629089355e-01 1.065593510866165161e-01 1.790063530206680298e-01
7.342000000000000000e+03 1.889682769775390625e+01 9.988162040710449219e+00 1.442045420408248901e-01 1.992567777633666992e-01 1.030384004116058350e-01 1.720657199621200562e-01
7.343000000000000000e+03 2.724747467041015625e+01 3.572090625762939453e+00 4.874258488416671753e-02 -1.164890304207801819e-01 -2.032393217086791992e-02 -9.154818952083587646e-02
7.344000000000000000e+03 2.813854598999023438e+01 4.155568599700927734e+00 4.295478761196136475e-02 -6.337893754243850708e-02 -6.127243861556053162e-03 -7.638233155012130737e-02
7.345000000000000000e+03 2.862062454223632812e+01 4.056495666503906250e+00 3.962180018424987793e-02 -9.264180436730384827e-03 9.107286110520362854e-03 -7.944820076227188110e-02
7.346000000000000000e+03 2.891548919677734375e+01 4.075989723205566406e+00 3.844735026359558105e-02 1.994478702545166016e-02 1.751764118671417236e-02 -8.328607678413391113e-02
7.347000000000000000e+03 3.334306716918945312e+01 2.475674438476562500e+01 7.211504876613616943e-02 1.008023396134376526e-01 5.187521502375602722e-02 7.257024198770523071e-02
7.348000000000000000e+03 3.492224502563476562e+01 2.677125740051269531e+01 4.022319242358207703e-02 9.585027396678924561e-02 4.082204028964042664e-02 8.339118957519531250e-02
7.349000000000000000e+03 3.486080169677734375e+01 2.634243202209472656e+01 9.413329511880874634e-02 9.235899150371551514e-02 5.594768747687339783e-02 6.789668649435043335e-02
7.350000000000000000e+03 3.561432647705078125e+01 1.521899032592773438e+01 -1.852910965681076050e-01 1.747413538396358490e-02 -5.034508556127548218e-02 -9.686989337205886841e-02
7.351000000000000000e+03 3.557470321655273438e+01 1.498215484619140625e+01 -1.975349485874176025e-01 4.530786350369453430e-02 -4.566812515258789062e-02 -8.996389061212539673e-02
7.352000000000000000e+03 7.759276390075683594e+00 3.149729967117309570e+00 -1.486636884510517120e-02 -1.641296446323394775e-01 -5.369880422949790955e-02 2.293370664119720459e-01
7.353000000000000000e+03 4.008969879150390625e+01 3.186645126342773438e+01 8.997368067502975464e-02 1.011183634400367737e-01 5.732761323451995850e-02 7.065981626510620117e-02
7.354000000000000000e+03 4.649206161499023438e+01 2.613083076477050781e+01 1.248455286026000977e+00 2.131252765655517578e+00 1.013912439346313477e+00 1.712611556053161621e+00
7.355000000000000000e+03 3.165397262573242188e+01 2.219964981079101562e+01 8.960855752229690552e-02 9.166403859853744507e-02 5.438177660107612610e-02 8.128784596920013428e-02
7.356000000000000000e+03 2.273049545288085938e+01 9.179815649986267090e-01 -3.952200710773468018e-01 -1.463846266269683838e-01 -1.624814122915267944e-01 2.587701752781867981e-02
7.357000000000000000e+03 5.133644866943359375e+01 3.026782608032226562e+01 2.477749824523925781e+00 6.969340801239013672e+00 2.834127187728881836e+00 4.012441635131835938e+00
7.358000000000000000e+03 4.960671234130859375e+01 3.928440093994140625e+01 -6.101959347724914551e-01 8.647535443305969238e-01 7.636728882789611816e-02 3.952822983264923096e-01
7.359000000000000000e+03 4.952078628540039062e+01 3.830200576782226562e+01 -1.366225957870483398e+00 2.066795676946640015e-01 -3.478639423847198486e-01 -1.186615973711013794e-01
7.360000000000000000e+03 2.491872406005859375e+01 2.060422182083129883e+00 -3.933076933026313782e-02 -1.428297460079193115e-01 -5.464815720915794373e-02 -1.047839596867561340e-01
7.361000000000000000e+03 6.683182239532470703e+00 3.625063705444335938e+01 -5.268116015940904617e-03 -7.046661525964736938e-02 -2.272041887044906616e-02 -5.670521873980760574e-03
7.362000000000000000e+03 7.669007110595703125e+01 3.966269016265869141e+00 -4.211532324552536011e-02 8.846609115600585938e+00 2.641348123550415039e+00 -1.849505752325057983e-01
7.363000000000000000e+03 3.195771217346191406e+01 1.018031501770019531e+01 -4.907337129116058350e-01 -5.999430641531944275e-02 -1.652183979749679565e-01 -1.740657389163970947e-01
7.364000000000000000e+03 3.245834732055664062e+01 6.533728599548339844e+00 9.798737615346908569e-02 1.718666702508926392e-01 8.095621317625045776e-02 3.004296869039535522e-02
7.365000000000000000e+03 5.161734008789062500e+01 3.983993530273437500e+01 6.900006532669067383e-01 9.620786309242248535e-01 4.956237971782684326e-01 -1.690306067466735840e+00
7.366000000000000000e+03 2.792921304702758789e+00 7.551618099212646484e+00 2.532593533396720886e-02 -1.483767628669738770e-01 -3.691524639725685120e-02 5.806399136781692505e-02
7.367000000000000000e+03 2.748080492019653320e+00 8.419866561889648438e+00 2.179067395627498627e-02 -1.550824046134948730e-01 -3.998751565814018250e-02 4.475502669811248779e-02
7.368000000000000000e+03 4.246957015991210938e+01 -2.604072761535644531e+01 1.133480817079544067e-01 2.893694162368774414e+00 9.021126627922058105e-01 -8.289666771888732910e-01
7.369000000000000000e+03 3.541349029541015625e+01 1.479412841796875000e+01 -1.984713375568389893e-01 2.285530045628547668e-02 -5.268481001257896423e-02 -9.826541692018508911e-02
7.370000000000000000e+03 4.828152084350585938e+01 3.814917373657226562e+01 -8.424080014228820801e-01 3.608210682868957520e-01 -1.444760859012603760e-01 4.691365659236907959e-01
7.371000000000000000e+03 2.084348106384277344e+01 -1.748520088195800781e+01 7.352641969919204712e-02 3.979067206382751465e-01 1.414299458265304565e-01 -1.806518882513046265e-01
7.372000000000000000e+03 2.936560630798339844e+01 4.340590953826904297e+00 3.903089463710784912e-02 7.655651122331619263e-02 3.467622026801109314e-02 -9.320158511400222778e-02
7.373000000000000000e+03 3.263674545288085938e+01 9.998519897460937500e+00 -3.994108140468597412e-01 5.489362403750419617e-02 -1.033551543951034546e-01 -6.777943670749664307e-02
7.374000000000000000e+03 2.578750228881835938e+01 1.684524154663085938e+01 1.077084168791770935e-01 1.229497566819190979e-01 6.919745355844497681e-02 1.167612075805664062e-01
7.375000000000000000e+03 5.744618988037109375e+01 3.925669097900390625e+01 1.040650367736816406e+00 1.438478374481201172e+01 4.627630233764648438e+00 1.780320644378662109e+00
7.376000000000000000e+03 2.275758171081542969e+01 6.604234576225280762e-01 -4.873712658882141113e-01 -1.951545923948287964e-01 -2.047577500343322754e-01 1.401746924966573715e-02
7.377000000000000000e+03 3.112737655639648438e+01 4.398227691650390625e+00 9.518004953861236572e-02 1.937895566225051880e-01 8.669088035821914673e-02 -1.078736856579780579e-01
7.378000000000000000e+03 3.157918357849121094e+01 4.423814296722412109e+00 9.622143954038619995e-02 2.244670838117599487e-01 9.620655328035354614e-02 -9.054199606180191040e-02
7.379000000000000000e+03 3.585655975341796875e+01 1.483083820343017578e+01 -1.792311966419219971e-01 1.179800480604171753e-01 -1.837534643709659576e-02 -4.750014096498489380e-02
7.380000000000000000e+03 2.766197395324707031e+01 3.036975622177124023e+00 3.157397359609603882e-02 -9.786693006753921509e-02 -1.988788694143295288e-02 -9.339689463376998901e-02
7.381000000000000000e+03 2.515317916870117188e+01 2.513375043869018555e+00 9.106791578233242035e-03 -1.475236117839813232e-01 -4.152504354715347290e-02 -9.248550981283187866e-02
7.382000000000000000e+03 4.574174499511718750e+01 -3.457484817504882812e+01 1.256071567535400391e+00 6.690039634704589844e+00 2.383833408355712891e+00 -4.878334701061248779e-01
7.383000000000000000e+03 2.584426879882812500e+01 2.638798475265502930e+00 1.389639824628829956e-02 -1.479832530021667480e-01 -4.022605717182159424e-02 -9.815726429224014282e-02
7.384000000000000000e+03 3.134679603576660156e+01 -3.737314224243164062e+01 2.482986748218536377e-01 2.841179668903350830e-01 1.597249954938888550e-01 -1.373013257980346680e-01
7.385000000000000000e+03 4.031888484954833984e+00 -2.239883041381835938e+01 3.689963137730956078e-03 -3.436103761196136475e-01 -1.019761264324188232e-01 -1.917234063148498535e-02
7.386000000000000000e+03 4.727637863159179688e+01 3.907684326171875000e+01 1.540758758783340454e-01 -2.143595367670059204e-01 -1.808509975671768188e-02 9.892207384109497070e-01
7.387000000000000000e+03 4.782083129882812500e+01 3.794909667968750000e+01 -6.147128343582153320e-01 2.131535410881042480e-01 -1.204677820205688477e-01 8.579311370849609375e-01
7.388000000000000000e+03 5.271440124511718750e+01 3.210354614257812500e+01 3.137429952621459961e+00 1.049520778656005859e+01 4.089791297912597656e+00 5.102943897247314453e+00
7.389000000000000000e+03 5.311982345581054688e+01 3.186962127685546875e+01 2.530694723129272461e+00 1.109312534332275391e+01 4.087145805358886719e+00 4.525664329528808594e+00
7.390000000000000000e+03 2.772935104370117188e+01 1.934309387207031250e+01 9.752557426691055298e-02 1.125216186046600342e-01 6.301415711641311646e-02 1.007432863116264343e-01
7.391000000000000000e+03 2.758035278320312500e+01 1.878764152526855469e+01 1.018117889761924744e-01 1.113097295165061951e-01 6.393645703792572021e-02 1.066103950142860413e-01
7.392000000000000000e+03 2.027511787414550781e+01 1.185752868652343750e+01 1.309331953525543213e-01 1.717963665723800659e-01 9.081886708736419678e-02 1.485845297574996948e-01
7.393000000000000000e+03 5.425698471069335938e+01 3.346228408813476562e+01 2.424372196197509766e+00 1.594693756103515625e+01 5.511393070220947266e+00 3.888960123062133789e+00
7.394000000000000000e+03 1.896478462219238281e+01 1.097894382476806641e+01 1.282868832349777222e-01 1.893945485353469849e-01 9.530442953109741211e-02 1.565037667751312256e-01
7.395000000000000000e+03 1.468384647369384766e+01 5.402605533599853516e+00 1.769704073667526245e-01 5.159960389137268066e-01 2.078899294137954712e-01 2.990468442440032959e-01
7.396000000000000000e+03 1.431511116027832031e+01 5.371290206909179688e+00 1.347417980432510376e-01 5.915287733078002930e-01 2.178811728954315186e-01 2.477397620677947998e-01
7.397000000000000000e+03 4.692634963989257812e+01 2.673325157165527344e+01 1.404558539390563965e+00 2.212328433990478516e+00 1.085066080093383789e+00 1.846337437629699707e+00
7.398000000000000000e+03 4.722808837890625000e+01 2.658342742919921875e+01 1.351580500602722168e+00 2.545858860015869141e+00 1.169231772422790527e+00 1.965350151062011719e+00
7.399000000000000000e+03 7.492789459228515625e+01 3.151961326599121094e+01 1.755489259958267212e-01 5.964288234710693359e+00 1.841951131820678711e+00 -9.371598958969116211e-01
7.400000000000000000e+03 2.981287193298339844e+01 4.376154899597167969e+00 4.997806251049041748e-02 1.168634146451950073e-01 5.005244165658950806e-02 -1.125034093856811523e-01
7.401000000000000000e+03 2.977996444702148438e+01 3.822079181671142578e+00 4.374540969729423523e-02 9.853012859821319580e-02 4.268266260623931885e-02 -9.878180921077728271e-02
7.402000000000000000e+03 2.501970672607421875e+01 1.382632851600646973e+00 -1.576669216156005859e-01 -1.431817859411239624e-01 -9.025461226701736450e-02 -9.623058885335922241e-02
7.403000000000000000e+03 2.739337730407714844e+01 2.936908721923828125e+00 3.233931958675384521e-02 -1.042773351073265076e-01 -2.158140391111373901e-02 -9.714338183403015137e-02
7.404000000000000000e+03 2.419306755065917969e+01 -2.504462623596191406e+01 9.998286515474319458e-02 3.627390265464782715e-01 1.388165652751922607e-01 -1.784975677728652954e-01
7.405000000000000000e+03 1.638233375549316406e+01 -4.127145290374755859e+00 2.124980986118316650e-01 -9.401856362819671631e-02 3.554385900497436523e-02 -5.224239081144332886e-02
7.406000000000000000e+03 5.843533039093017578e+00 2.000746726989746094e+01 -2.489967737346887589e-03 -7.558292895555496216e-02 -2.342186868190765381e-02 -1.970005780458450317e-02
7.407000000000000000e+03 2.608079910278320312e+01 1.833790397644042969e+01 1.004311069846153259e-01 1.207394450902938843e-01 6.635116785764694214e-02 1.049294322729110718e-01
7.408000000000000000e+03 7.547459411621093750e+01 -3.799306106567382812e+01 2.239688113331794739e-02 8.065225601196289062e+00 2.426286697387695312e+00 6.570685654878616333e-02
7.409000000000000000e+03 3.131929779052734375e+01 -2.794966220855712891e+00 -1.478811353445053101e-01 2.392162084579467773e-01 2.740052156150341034e-02 2.621498331427574158e-02
7.410000000000000000e+03 1.709741592407226562e+01 -1.154951286315917969e+01 1.511210054159164429e-01 3.644348978996276855e-01 1.546667665243148804e-01 -8.743058145046234131e-02
7.411000000000000000e+03 3.345052719116210938e+01 -3.632156372070312500e+01 2.171571701765060425e-01 2.945473492145538330e-01 1.535113602876663208e-01 -1.965820491313934326e-01
7.412000000000000000e+03 4.552853393554687500e+01 3.658641433715820312e+01 -1.333410590887069702e-01 1.530113667249679565e-01 5.901092663407325745e-03 4.067288339138031006e-02
7.413000000000000000e+03 2.956288719177246094e+01 4.397912979125976562e+00 4.124582931399345398e-02 1.042592078447341919e-01 4.365151003003120422e-02 -1.033346876502037048e-01
7.414000000000000000e+03 3.983890533447265625e+01 1.891168785095214844e+01 1.090207472443580627e-01 6.324788331985473633e-01 2.224498689174652100e-01 3.486685752868652344e-01
7.415000000000000000e+03 3.287044906616210938e+01 2.419385337829589844e+01 6.696236133575439453e-02 1.026139408349990845e-01 5.087289214134216309e-02 7.528100162744522095e-02
7.416000000000000000e+03 4.045396804809570312e+01 3.205677413940429688e+01 5.569266527891159058e-02 5.732522904872894287e-02 3.390536829829216003e-02 7.745888829231262207e-02
7.417000000000000000e+03 2.720635223388671875e+01 1.921181297302246094e+01 9.790334850549697876e-02 1.133058145642280579e-01 6.336274743080139160e-02 9.958775341510772705e-02
7.418000000000000000e+03 3.296139526367187500e+01 2.511605262756347656e+01 5.690801516175270081e-02 8.493310958147048950e-02 4.255233705043792725e-02 8.827900886535644531e-02
7.419000000000000000e+03 5.533797836303710938e+01 3.602358245849609375e+01 5.145120143890380859e+00 1.899684333801269531e+01 7.242589473724365234e+00 1.469790220260620117e+00
7.420000000000000000e+03 5.619873428344726562e+01 3.639661788940429688e+01 4.654065608978271484e+00 1.587058925628662109e+01 6.157396316528320312e+00 1.203494906425476074e+00
7.421000000000000000e+03 4.352405166625976562e+01 -2.635138893127441406e+01 1.496878731995820999e-02 3.555661439895629883e+00 1.071189045906066895e+00 -7.675089836120605469e-01
7.422000000000000000e+03 2.144769668579101562e+01 -2.119563484191894531e+01 6.595569849014282227e-02 3.481357693672180176e-01 1.242274343967437744e-01 -1.768769472837448120e-01
7.423000000000000000e+03 1.924601173400878906e+01 -2.284219169616699219e+01 5.849505588412284851e-02 2.527467906475067139e-01 9.337255358695983887e-02 -1.244087815284729004e-01
7.424000000000000000e+03 9.627625465393066406e+00 -5.229087352752685547e+00 -8.557526767253875732e-02 -1.030842289328575134e-01 -5.659784749150276184e-02 -2.661384046077728271e-01
7.425000000000000000e+03 1.986865425109863281e+01 1.257551574707031250e+01 1.137636452913284302e-01 1.726172566413879395e-01 8.591426908969879150e-02 1.376604586839675903e-01
7.426000000000000000e+03 6.433466911315917969e+00 -6.647530078887939453e+00 -1.879257522523403168e-02 -1.209074333310127258e-01 -4.191000387072563171e-02 -1.879798769950866699e-01
7.427000000000000000e+03 2.596562576293945312e+01 2.206465482711791992e+00 -2.954743802547454834e-02 -1.463194638490676880e-01 -5.276007205247879028e-02 -1.048576533794403076e-01
7.428000000000000000e+03 2.954176712036132812e+01 4.176117420196533203e+00 4.347263276576995850e-02 8.974622189998626709e-02 3.996565565466880798e-02 -9.818609803915023804e-02
7.429000000000000000e+03 3.249830245971679688e+01 4.509522914886474609e+00 1.009943783283233643e-01 3.126101493835449219e-01 1.240813583135604858e-01 -4.114270582795143127e-02
7.430000000000000000e+03 3.236532974243164062e+01 4.889652729034423828e+00 1.191062629222869873e-01 2.676289379596710205e-01 1.160205528140068054e-01 -4.967720061540603638e-02
7.431000000000000000e+03 1.760821342468261719e+01 9.020759582519531250e+00 1.554475575685501099e-01 2.226471304893493652e-01 1.134284064173698425e-01 1.776341050863265991e-01
7.432000000000000000e+03 1.148556137084960938e+01 3.353397130966186523e+00 5.181295871734619141e-01 -3.403919935226440430e-02 1.452271193265914917e-01 -1.015876308083534241e-01
7.433000000000000000e+03 3.599947357177734375e+01 2.784563636779785156e+01 6.746906042098999023e-02 1.160474643111228943e-01 5.505495518445968628e-02 6.153668463230133057e-02
7.434000000000000000e+03 3.739142227172851562e+01 2.924424743652343750e+01 8.025962859392166138e-02 9.203575551509857178e-02 5.168861523270606995e-02 5.674146488308906555e-02
7.435000000000000000e+03 2.296034049987792969e+01 -2.528731727600097656e+01 7.022233307361602783e-02 3.270055949687957764e-01 1.191683784127235413e-01 -1.676383167505264282e-01
7.436000000000000000e+03 2.790156745910644531e+01 2.576015710830688477e+00 9.250049479305744171e-03 -6.884803622961044312e-02 -1.787939481437206268e-02 -8.836331963539123535e-02
7.437000000000000000e+03 2.798983192443847656e+01 2.824378728866577148e+00 2.423685975372791290e-02 -6.761369109153747559e-02 -1.301304902881383896e-02 -9.047779440879821777e-02
7.438000000000000000e+03 4.581270599365234375e+01 2.458346176147460938e+01 9.205643534660339355e-01 2.126563310623168945e+00 9.141382575035095215e-01 1.473306536674499512e+00
7.439000000000000000e+03 4.220895004272460938e+01 1.944110870361328125e+01 1.827087849378585815e-01 1.387884974479675293e+00 4.711781144142150879e-01 7.175191640853881836e-01
7.440000000000000000e+03 2.050514411926269531e+01 1.349023437500000000e+01 1.084283888339996338e-01 1.641050130128860474e-01 8.176001906394958496e-02 1.312451660633087158e-01
7.441000000000000000e+03 2.562441062927246094e+01 6.856818199157714844e-01 -2.500944733619689941e-01 -1.513755470514297485e-01 -1.204410120844841003e-01 -4.029947519302368164e-02
7.442000000000000000e+03 2.447099494934082031e+01 3.224989399313926697e-03 -4.822739660739898682e-01 -1.914043575525283813e-01 -2.021034955978393555e-01 4.339220747351646423e-02
7.443000000000000000e+03 2.533375549316406250e+01 2.300458908081054688e+00 -8.569363504648208618e-03 -1.430847197771072388e-01 -4.549622535705566406e-02 -1.036428064107894897e-01
7.444000000000000000e+03 1.324522495269775391e+01 4.647113800048828125e+00 1.509104222059249878e-01 8.531775474548339844e-01 3.012264072895050049e-01 -3.772563114762306213e-02
7.445000000000000000e+03 1.716523933410644531e+01 -1.761960411071777344e+01 7.649707794189453125e-02 2.631942927837371826e-01 1.019074171781539917e-01 -1.180270314216613770e-01
7.446000000000000000e+03 6.500490188598632812e+00 2.057332038879394531e+01 -2.726598177105188370e-03 -6.273123621940612793e-02 -1.963734999299049377e-02 -2.211437001824378967e-02
7.447000000000000000e+03 2.578556823730468750e+01 1.860188865661621094e+01 8.622153848409652710e-02 1.224280819296836853e-01 6.259489059448242188e-02 1.023534983396530151e-01
7.448000000000000000e+03 3.351746749877929688e+01 6.315059661865234375e+00 6.238856539130210876e-02 3.479914665222167969e-01 1.231140047311782837e-01 7.532697916030883789e-02
7.449000000000000000e+03 3.100307846069335938e+01 -2.207685708999633789e+00 -1.378533691167831421e-01 2.063550204038619995e-01 2.055049873888492584e-02 1.934679411351680756e-02
7.450000000000000000e+03 2.457854652404785156e+01 4.045477211475372314e-01 -4.032184183597564697e-01 -1.546372026205062866e-01 -1.673566848039627075e-01 -2.265616506338119507e-02
7.451000000000000000e+03 3.995164489746093750e+01 -1.410185813903808594e+01 -2.226442545652389526e-01 1.971287965774536133e+00 5.245931148529052734e-01 -1.947638094425201416e-01
7.452000000000000000e+03 3.210446166992187500e+01 2.510260200500488281e+01 6.311535835266113281e-02 9.077218919992446899e-02 4.616626352071762085e-02 7.855608314275741577e-02
7.453000000000000000e+03 1.512145519256591797e+01 -1.657974243164062500e+01 8.812721073627471924e-02 1.656809747219085693e-01 7.614245265722274780e-02 -8.025566488504409790e-02
7.454000000000000000e+03 1.561194419860839844e+01 -1.745775222778320312e+01 7.075639069080352783e-02 1.887580454349517822e-01 7.785433530807495117e-02 -9.159115701913833618e-02
7.455000000000000000e+03 1.547821712493896484e+01 7.660305500030517578e+00 1.309676766395568848e-01 3.210956752300262451e-01 1.356189996004104614e-01 1.855905205011367798e-01
7.456000000000000000e+03 3.294248580932617188e+01 1.068603992462158203e+01 -4.025046527385711670e-01 2.961687371134757996e-02 -1.118663325905799866e-01 -1.187184751033782959e-01
7.457000000000000000e+03 3.697564315795898438e+01 1.294897079467773438e+01 -1.666546911001205444e-01 6.143882274627685547e-01 1.343200653791427612e-01 1.629852205514907837e-01
7.458000000000000000e+03 2.554746818542480469e+01 2.063897371292114258e+00 -5.670507624745368958e-02 -1.542189270257949829e-01 -6.327719986438751221e-02 -9.985513240098953247e-02
7.459000000000000000e+03 5.320923233032226562e+01 3.134367752075195312e+01 2.037372827529907227e+00 1.085094451904296875e+01 3.866495132446289062e+00 3.958070516586303711e+00
7.460000000000000000e+03 1.508846855163574219e+01 7.852822303771972656e+00 1.093970090150833130e-01 3.336067795753479004e-01 1.329011321067810059e-01 1.616946011781692505e-01
7.461000000000000000e+03 2.950332641601562500e+01 -1.404958486557006836e+00 -1.642978787422180176e-01 4.733906686305999756e-02 -3.508764132857322693e-02 3.588054329156875610e-02
7.462000000000000000e+03 4.463432693481445312e+01 -2.571130752563476562e+01 -8.407981693744659424e-02 3.795988321304321289e+00 1.113572478294372559e+00 -5.456753969192504883e-01
7.463000000000000000e+03 2.407371711730957031e+01 2.584343850612640381e-01 -5.185648202896118164e-01 -1.766558289527893066e-01 -2.085661888122558594e-01 3.213977441191673279e-02
7.464000000000000000e+03 2.403902626037597656e+01 8.403253555297851562e-01 -3.584896028041839600e-01 -1.809741109609603882e-01 -1.618391275405883789e-01 -2.751222066581249237e-02
7.465000000000000000e+03 7.421788692474365234e+00 -7.136990547180175781e+00 5.882455501705408096e-03 -1.304462850093841553e-01 -3.736914694309234619e-02 -2.067722082138061523e-01
7.466000000000000000e+03 7.205071449279785156e+00 -6.523146152496337891e+00 -2.599792182445526123e-02 -1.139796227216720581e-01 -4.199326410889625549e-02 -2.087389528751373291e-01
7.467000000000000000e+03 3.350043487548828125e+01 1.032405853271484375e+01 -3.300604224205017090e-01 1.544432044029235840e-01 -5.268516391515731812e-02 -2.976990863680839539e-02
7.468000000000000000e+03 4.266015625000000000e+01 2.125284767150878906e+01 3.570706546306610107e-01 1.253074526786804199e+00 4.830435514450073242e-01 7.808461189270019531e-01
7.469000000000000000e+03 3.913460540771484375e+01 -1.727279853820800781e+01 -1.173020228743553162e-01 1.656914949417114258e+00 4.618839025497436523e-01 -2.818568050861358643e-01
7.470000000000000000e+03 2.599312973022460938e+01 7.523714303970336914e-01 -2.128923684358596802e-01 -1.366577595472335815e-01 -1.048650443553924561e-01 -6.270381063222885132e-02
7.471000000000000000e+03 1.354733753204345703e+01 5.198227882385253906e+00 1.042108386754989624e-01 7.449747323989868164e-01 2.547556757926940918e-01 7.690116018056869507e-02
7.472000000000000000e+03 2.219283294677734375e+01 -2.783826828002929688e+01 7.708556950092315674e-02 2.785919308662414551e-01 1.067032516002655029e-01 -1.262627393007278442e-01
7.473000000000000000e+03 2.168870925903320312e+01 -2.661579513549804688e+01 5.625259876251220703e-02 2.770593464374542236e-01 9.999357908964157104e-02 -1.353955417871475220e-01
7.474000000000000000e+03 8.172514915466308594e+00 -2.525753402709960938e+01 2.070928551256656647e-02 -1.824555099010467529e-01 -4.852386936545372009e-02 -3.057916648685932159e-02
7.475000000000000000e+03 2.676651954650878906e+01 1.717784762382507324e+00 -6.687060743570327759e-02 -1.230400502681732178e-01 -5.697319656610488892e-02 -9.387560933828353882e-02
7.476000000000000000e+03 2.624293136596679688e+01 1.242424964904785156e+00 -1.265997737646102905e-01 -1.314372569322586060e-01 -7.741110771894454956e-02 -8.538676053285598755e-02
7.477000000000000000e+03 5.419581222534179688e+01 3.165621948242187500e+01 1.568395495414733887e+00 1.243404006958007812e+01 4.200730800628662109e+00 3.020423173904418945e+00
7.478000000000000000e+03 6.684585571289062500e+00 3.046877288818359375e+01 -3.904004115611314774e-03 -6.756982952356338501e-02 -2.144215069711208344e-02 -1.090311072766780853e-02
7.479000000000000000e+03 4.400437927246093750e+01 2.141162681579589844e+01 3.654728531837463379e-01 1.829424858093261719e+00 6.584693193435668945e-01 1.014819860458374023e+00
7.480000000000000000e+03 8.661412239074707031e+00 -8.737112045288085938e+00 7.046321034431457520e-02 -1.422364860773086548e-01 -2.153198234736919403e-02 -1.982047706842422485e-01
7.481000000000000000e+03 2.399503326416015625e+01 1.867723846435546875e+01 7.038477063179016113e-02 1.260506063699722290e-01 5.893061310052871704e-02 9.975563734769821167e-02
7.482000000000000000e+03 4.756625747680664062e+01 2.556835174560546875e+01 1.015493631362915039e+00 3.113229274749755859e+00 1.238616824150085449e+00 1.971474766731262207e+00
7.483000000000000000e+03 7.135666656494140625e+01 1.970682144165039062e+01 -2.738547027111053467e-01 7.724416732788085938e+00 2.235168695449829102e+00 -1.201939344406127930e+00
7.484000000000000000e+03 4.569043350219726562e+01 -2.515987777709960938e+01 -1.704082041978836060e-01 4.275736808776855469e+00 1.231598615646362305e+00 -3.966118395328521729e-01
7.485000000000000000e+03 3.396243667602539062e+01 5.803592681884765625e+00 6.588287651538848877e-02 4.520451128482818604e-01 1.553784012794494629e-01 7.907250523567199707e-02
7.486000000000000000e+03 3.276827239990234375e+01 4.770200252532958984e+00 1.089613512158393860e-01 3.250243663787841797e-01 1.301957070827484131e-01 -2.497401647269725800e-02
7.487000000000000000e+03 3.844018554687500000e+01 1.675556945800781250e+01 -3.127383813261985779e-02 5.498563051223754883e-01 1.555747389793395996e-01 2.149480134248733521e-01
7.488000000000000000e+03 1.576823234558105469e+01 -1.342902278900146484e+01 1.243272200226783752e-01 2.358098030090332031e-01 1.080411076545715332e-01 -7.658317685127258301e-02
7.489000000000000000e+03 4.666148376464843750e+01 2.418147850036621094e+01 7.571101784706115723e-01 2.781357049942016602e+00 1.061540126800537109e+00 1.637210249900817871e+00
7.490000000000000000e+03 5.170567321777343750e+01 2.820416069030761719e+01 1.057054281234741211e+00 7.239584445953369141e+00 2.488991498947143555e+00 2.956640720367431641e+00
7.491000000000000000e+03 5.217389678955078125e+01 2.837112426757812500e+01 9.200783967971801758e-01 7.844198703765869141e+00 2.629283189773559570e+00 2.903535366058349609e+00
7.492000000000000000e+03 1.108149337768554688e+01 3.163860797882080078e+00 4.446491301059722900e-01 -1.756787151098251343e-01 8.069112896919250488e-02 1.738878339529037476e-02
7.493000000000000000e+03 5.098294448852539062e+01 -2.454629135131835938e+01 -1.766494065523147583e-01 5.326812744140625000e+00 1.545048952102661133e+00 1.201496347784996033e-01
7.494000000000000000e+03 3.865243911743164062e+01 1.644508171081542969e+01 -3.254647552967071533e-02 6.480626463890075684e-01 1.846548616886138916e-01 2.575094401836395264e-01
7.495000000000000000e+03 7.968467712402343750e+00 -7.628601551055908203e+00 2.491039410233497620e-02 -1.314280331134796143e-01 -3.195529058575630188e-02 -2.141576856374740601e-01
7.496000000000000000e+03 8.721487998962402344e+00 -7.805195331573486328e+00 3.615119680762290955e-02 -1.314352899789810181e-01 -2.858522720634937286e-02 -2.183312773704528809e-01
7.497000000000000000e+03 3.908026504516601562e+01 3.193960952758789062e+01 7.350002229213714600e-02 3.509939834475517273e-02 3.257982805371284485e-02 9.234005957841873169e-02
7.498000000000000000e+03 3.979138565063476562e+01 -1.589961147308349609e+01 -1.803941130638122559e-01 1.903307795524597168e+00 5.168741345405578613e-01 -2.522763311862945557e-01
7.499000000000000000e+03 9.622638702392578125e+00 -7.555110931396484375e+00 4.648299887776374817e-02 -1.359393000602722168e-01 -2.683689258992671967e-02 -2.259641736745834351e-01
7.500000000000000000e+03 1.100224876403808594e+01 -2.162371635437011719e+01 3.753201290965080261e-02 -4.973058030009269714e-02 -3.659570124000310898e-03 -5.437940731644630432e-02
7.501000000000000000e+03 5.140607452392578125e+01 2.673519897460937500e+01 5.982072353363037109e-01 6.600650310516357422e+00 2.159657239913940430e+00 2.507924079895019531e+00
7.502000000000000000e+03 7.008994293212890625e+01 2.022770309448242188e+01 -3.370464742183685303e-01 7.848166465759277344e+00 2.253335952758789062e+00 -1.241288542747497559e+00
7.503000000000000000e+03 1.589670562744140625e+01 1.112124443054199219e+01 7.896342873573303223e-02 2.202642560005187988e-01 8.976830542087554932e-02 1.149829626083374023e-01
7.504000000000000000e+03 2.683782768249511719e+01 1.120120763778686523e+00 -1.259578019380569458e-01 -1.117456182837486267e-01 -7.131102681159973145e-02 -7.568971812725067139e-02
7.505000000000000000e+03 5.038608932495117188e+01 2.706270599365234375e+01 9.981628656387329102e-01 5.608724594116210938e+00 1.982066273689270020e+00 2.667098760604858398e+00
7.506000000000000000e+03 3.912739562988281250e+01 -1.606835556030273438e+01 -1.648604869842529297e-01 1.672717094421386719e+00 4.523569941520690918e-01 -2.499908655881881714e-01
7.507000000000000000e+03 2.010055351257324219e+01 1.518240070343017578e+01 8.039649575948715210e-02 1.556151211261749268e-01 7.080348581075668335e-02 1.111258342862129211e-01
7.508000000000000000e+03 3.925513458251953125e+01 1.473673725128173828e+01 -8.116123080253601074e-02 1.017688751220703125e+00 2.809582650661468506e-01 3.576974868774414062e-01
7.509000000000000000e+03 4.246176147460937500e+01 1.902740097045898438e+01 1.488688588142395020e-01 1.542410731315612793e+00 5.073838829994201660e-01 7.534193396568298340e-01
7.510000000000000000e+03 1.119278240203857422e+01 3.704684257507324219e+00 4.044615030288696289e-01 -3.285479545593261719e-02 1.114820167422294617e-01 -7.557071745395660400e-02
7.511000000000000000e+03 2.995409774780273438e+01 2.862660408020019531e+01 2.778993919491767883e-02 9.257929772138595581e-02 3.611076995730400085e-02 7.135985046625137329e-02
7.512000000000000000e+03 2.786761856079101562e+01 7.886795997619628906e-01 -1.224215850234031677e-01 -6.222490593791007996e-02 -5.539394542574882507e-02 -5.237098038196563721e-02
7.513000000000000000e+03 3.553287506103515625e+01 1.130875492095947266e+01 -2.133572250604629517e-01 4.515361785888671875e-01 7.145368307828903198e-02 8.919495344161987305e-02
7.514000000000000000e+03 3.107694816589355469e+01 2.576915979385375977e+00 3.410245850682258606e-02 2.158498018980026245e-01 7.498567551374435425e-02 -7.704982906579971313e-02
7.515000000000000000e+03 4.545363616943359375e+01 2.170728874206542969e+01 3.654623031616210938e-01 2.502564430236816406e+00 8.604080080986022949e-01 1.267359137535095215e+00
7.516000000000000000e+03 4.784813308715820312e+01 2.481941413879394531e+01 7.962545752525329590e-01 3.499248266220092773e+00 1.288650870323181152e+00 1.950186252593994141e+00
7.517000000000000000e+03 3.502607345581054688e+01 7.507068157196044922e+00 -4.140450060367584229e-02 5.701959729194641113e-01 1.586374342441558838e-01 1.592739373445510864e-01
7.518000000000000000e+03 4.035275268554687500e+01 1.584180450439453125e+01 -2.878165245056152344e-02 1.217763066291809082e+00 3.566944301128387451e-01 4.713283181190490723e-01
7.519000000000000000e+03 5.194893264770507812e+01 -2.360652923583984375e+01 -2.082438915967941284e-01 5.399135589599609375e+00 1.557267546653747559e+00 1.753897368907928467e-01
7.520000000000000000e+03 3.934420013427734375e+01 -6.365895271301269531e+00 -2.167306095361709595e-01 1.845616221427917480e+00 4.886656999588012695e-01 -3.767830133438110352e-02
7.521000000000000000e+03 4.060895919799804688e+01 -1.466945457458496094e+01 -2.393255680799484253e-01 2.185516357421875000e+00 5.838572382926940918e-01 -2.251271009445190430e-01
7.522000000000000000e+03 4.040665435791015625e+01 -1.566648960113525391e+01 -2.170083671808242798e-01 2.094103336334228516e+00 5.631284713745117188e-01 -2.428155988454818726e-01
7.523000000000000000e+03 3.955288314819335938e+01 -1.526908969879150391e+01 -2.003181874752044678e-01 1.844257593154907227e+00 4.931818246841430664e-01 -2.229027897119522095e-01
7.524000000000000000e+03 2.642189598083496094e+01 8.620768785476684570e-01 -1.852888911962509155e-01 -1.374419033527374268e-01 -9.681923687458038330e-02 -5.743893980979919434e-02
7.525000000000000000e+03 3.220986175537109375e+01 2.778673362731933594e+01 5.498125031590461731e-02 8.087282627820968628e-02 4.075622186064720154e-02 8.157583326101303101e-02
7.526000000000000000e+03 1.032037830352783203e+01 -2.410753822326660156e+01 2.573315799236297607e-02 -8.609223365783691406e-02 -1.810772344470024109e-02 -4.756856709718704224e-02
7.527000000000000000e+03 1.227442646026611328e+01 -2.393549728393554688e+01 3.428969532251358032e-02 -1.500339247286319733e-02 5.785891320556402206e-03 -5.744987353682518005e-02
7.528000000000000000e+03 2.457807922363281250e+01 1.883786392211914062e+01 7.315607368946075439e-02 1.259129196405410767e-01 5.972069874405860901e-02 1.008919626474380493e-01
7.529000000000000000e+03 1.093629837036132812e+01 2.811964988708496094e+01 -1.293266657739877701e-02 -2.105440478771924973e-03 -4.511431790888309479e-03 -3.110653720796108246e-03
7.530000000000000000e+03 1.525080394744873047e+01 1.153837013244628906e+01 6.555344909429550171e-02 2.112888991832733154e-01 8.305270224809646606e-02 9.575521200895309448e-02
7.531000000000000000e+03 2.970871353149414062e+01 2.779190444946289062e+01 6.009380891919136047e-02 9.470041841268539429e-02 4.643826559185981750e-02 5.861378461122512817e-02
7.532000000000000000e+03 1.903486442565917969e+01 1.446143150329589844e+01 7.751542329788208008e-02 1.643045246601104736e-01 7.254598289728164673e-02 1.086049601435661316e-01
7.533000000000000000e+03 6.841019439697265625e+01 1.021924877166748047e+01 -4.610480964183807373e-01 7.827785968780517578e+00 2.210021495819091797e+00 -6.272017955780029297e-01
7.534000000000000000e+03 2.860826683044433594e+01 1.188941121101379395e+00 -6.794743984937667847e-02 -8.676531724631786346e-03 -2.298719063401222229e-02 -6.414815783500671387e-02
7.535000000000000000e+03 3.445513153076171875e+01 5.724233627319335938e+00 5.173145607113838196e-02 5.397704839706420898e-01 1.774505823850631714e-01 9.845514595508575439e-02
7.536000000000000000e+03 3.549322128295898438e+01 9.081883430480957031e+00 -1.340907067060470581e-01 6.066147685050964355e-01 1.417572200298309326e-01 1.709730476140975952e-01
7.537000000000000000e+03 2.734361267089843750e+01 2.543695449829101562e+01 3.255987167358398438e-02 1.034181490540504456e-01 4.079340770840644836e-02 6.495243310928344727e-02
7.538000000000000000e+03 2.616332054138183594e+01 2.829537582397460938e+01 3.725769370794296265e-02 9.278058260679244995e-02 3.901148214936256409e-02 6.018060818314552307e-02
7.539000000000000000e+03 2.717901420593261719e+01 2.830407142639160156e+01 2.281032875180244446e-02 9.755886346101760864e-02 3.611075505614280701e-02 5.693536251783370972e-02
7.540000000000000000e+03 2.753800392150878906e+01 2.338297271728515625e+01 4.555939510464668274e-02 1.097604110836982727e-01 4.659594222903251648e-02 8.021340519189834595e-02
7.541000000000000000e+03 9.015509605407714844e+00 1.201266574859619141e+01 4.514376074075698853e-02 3.306112810969352722e-02 2.346146665513515472e-02 -9.942170232534408569e-03
7.542000000000000000e+03 5.545922851562500000e+01 -2.488629150390625000e+01 -6.778166443109512329e-02 5.930870056152343750e+00 1.758926510810852051e+00 3.220825493335723877e-01
7.543000000000000000e+03 1.381138896942138672e+01 1.098826122283935547e+01 5.080469697713851929e-02 2.114657461643218994e-01 7.868113368749618530e-02 6.521952897310256958e-02
7.544000000000000000e+03 4.035908508300781250e+01 1.621923065185546875e+01 -1.126641687005758286e-02 1.188199520111083984e+00 3.530799150466918945e-01 4.738513231277465820e-01
7.545000000000000000e+03 2.962492370605468750e+01 1.307174444198608398e+00 -2.760459296405315399e-02 7.784298062324523926e-02 1.507151592522859573e-02 -6.707154214382171631e-02
7.546000000000000000e+03 6.260343170166015625e+01 2.294682121276855469e+01 -6.003028154373168945e-01 8.750901222229003906e+00 2.445179462432861328e+00 -9.834864139556884766e-01
7.547000000000000000e+03 6.711662292480468750e+01 -2.981800138950347900e-01 -3.304120898246765137e-01 7.546914577484130859e+00 2.164950609207153320e+00 -1.571638733148574829e-01
7.548000000000000000e+03 5.476123046875000000e+01 3.238277816772460938e+01 1.696585774421691895e+00 1.408380889892578125e+01 4.734118461608886719e+00 2.555013656616210938e+00
7.549000000000000000e+03 5.536329269409179688e+01 3.156092834472656250e+01 1.257677793502807617e+00 1.288553333282470703e+01 4.242963314056396484e+00 1.631420731544494629e+00
7.550000000000000000e+03 1.029678249359130859e+01 6.468020439147949219e+00 1.922124475240707397e-01 7.237946987152099609e-02 7.937757670879364014e-02 -5.919731408357620239e-02
7.551000000000000000e+03 1.165637874603271484e+01 1.509364223480224609e+01 1.699403487145900726e-02 9.057054668664932251e-02 3.226937353610992432e-02 1.115625165402889252e-02
7.552000000000000000e+03 1.377733898162841797e+01 2.308313941955566406e+01 -4.818678833544254303e-03 5.331157892942428589e-02 1.454786956310272217e-02 1.122790947556495667e-02
7.553000000000000000e+03 4.586481857299804688e+01 2.153653144836425781e+01 3.200730085372924805e-01 2.750980854034423828e+00 9.213161468505859375e-01 1.320177555084228516e+00
7.554000000000000000e+03 2.498285293579101562e+01 2.542336463928222656e+01 4.174771159887313843e-02 1.038679480552673340e-01 4.368469864130020142e-02 6.974607706069946289e-02
7.555000000000000000e+03 3.596180343627929688e+01 1.180619430541992188e+01 -2.056557089090347290e-01 5.006630420684814453e-01 8.850219845771789551e-02 1.092017069458961487e-01
7.556000000000000000e+03 6.821334075927734375e+01 8.583010673522949219e+00 -4.486910998821258545e-01 7.787570476531982422e+00 2.201663732528686523e+00 -5.511319637298583984e-01
7.557000000000000000e+03 2.739451026916503906e+01 2.598834800720214844e+01 6.230043619871139526e-02 9.625430405139923096e-02 4.756642132997512817e-02 7.155039161443710327e-02
7.558000000000000000e+03 4.460664367675781250e+01 -1.112044906616210938e+01 -3.455392718315124512e-01 3.199747323989868164e+00 8.562624454498291016e-01 -9.373075515031814575e-02
7.559000000000000000e+03 2.421076583862304688e+01 2.160847854614257812e+01 5.396228283643722534e-02 1.218493655323982239e-01 5.274349451065063477e-02 8.034998923540115356e-02
7.560000000000000000e+03 2.745039558410644531e+01 2.656196975708007812e+01 2.504204399883747101e-02 1.047761812806129456e-01 3.894546627998352051e-02 6.482458859682083130e-02
7.561000000000000000e+03 2.429767608642578125e+01 2.255229187011718750e+01 4.393183067440986633e-02 1.121671050786972046e-01 4.682967811822891235e-02 7.260403037071228027e-02
7.562000000000000000e+03 4.679105377197265625e+01 2.154232215881347656e+01 2.465420514345169067e-01 3.282074928283691406e+00 1.058585047721862793e+00 1.439284086227416992e+00
7.563000000000000000e+03 6.877611541748046875e+01 9.561766624450683594e+00 -4.055739641189575195e-01 7.844924926757812500e+00 2.231805324554443359e+00 -6.069505810737609863e-01
7.564000000000000000e+03 5.034263229370117188e+01 2.620750236511230469e+01 7.186295986175537109e-01 5.542429447174072266e+00 1.878317713737487793e+00 2.434666395187377930e+00
7.565000000000000000e+03 6.503411865234375000e+01 -2.049509620666503906e+01 -1.070732474327087402e-01 7.135758876800537109e+00 2.108605861663818359e+00 3.414784073829650879e-01
7.566000000000000000e+03 1.658863258361816406e+01 2.038150024414062500e+01 1.665536873042583466e-02 1.057661250233650208e-01 3.672644495964050293e-02 4.102985188364982605e-02
7.567000000000000000e+03 3.115497970581054688e+01 1.397506475448608398e+00 1.378314453177154064e-03 2.419121116399765015e-01 7.298713177442550659e-02 -6.020503863692283630e-02
7.568000000000000000e+03 3.114111709594726562e+01 1.832031130790710449e+00 9.696517139673233032e-03 2.395689040422439575e-01 7.477962225675582886e-02 -6.664662063121795654e-02
7.569000000000000000e+03 3.691132736206054688e+01 8.179243087768554688e+00 -8.304797857999801636e-02 9.528998732566833496e-01 2.609555721282958984e-01 2.472884953022003174e-01
7.570000000000000000e+03 3.587704849243164062e+01 -5.597532391548156738e-01 -5.945654958486557007e-02 1.040492296218872070e+00 2.943107485771179199e-01 1.355174556374549866e-02
7.571000000000000000e+03 3.950074768066406250e+01 1.552278900146484375e+01 -5.032209306955337524e-02 1.003797292709350586e+00 2.860425710678100586e-01 3.739203810691833496e-01
7.572000000000000000e+03 4.091884613037109375e+01 1.508907604217529297e+01 -6.045275181531906128e-02 1.483511090278625488e+00 4.269174933433532715e-01 5.366269350051879883e-01
7.573000000000000000e+03 3.072638893127441406e+01 1.856841325759887695e+00 1.338623650372028351e-02 1.898644566535949707e-01 6.097520887851715088e-02 -7.050176709890365601e-02
7.574000000000000000e+03 1.239377403259277344e+01 1.015805149078369141e+01 5.526304244995117188e-02 1.991020292043685913e-01 7.630952447652816772e-02 2.322875522077083588e-02
7.575000000000000000e+03 2.010271835327148438e+01 1.656704330444335938e+01 6.408713757991790771e-02 1.469839215278625488e-01 6.332131475210189819e-02 9.903896600008010864e-02
7.576000000000000000e+03 4.134315872192382812e+01 1.508226585388183594e+01 -6.211351230740547180e-02 1.618898034095764160e+00 4.670353531837463379e-01 5.789334774017333984e-01
7.577000000000000000e+03 6.754263305664062500e+01 -2.220940589904785156e+01 -5.674286186695098877e-02 7.466366767883300781e+00 2.222887277603149414e+00 3.369914889335632324e-01
7.578000000000000000e+03 1.939894104003906250e+01 1.600095367431640625e+01 6.426814198493957520e-02 1.503036618232727051e-01 6.437154114246368408e-02 9.804505854845046997e-02
7.579000000000000000e+03 6.469403839111328125e+01 2.076803588867187500e+01 -6.417322754859924316e-01 8.355069160461425781e+00 2.314001083374023438e+00 -1.096712231636047363e+00
7.580000000000000000e+03 9.657231330871582031e+00 1.250172519683837891e+01 4.097139462828636169e-02 5.439116433262825012e-02 2.860876917839050293e-02 -8.230564184486865997e-03
7.581000000000000000e+03 5.848631286621093750e+01 2.471803474426269531e+01 -6.252688169479370117e-01 9.272905349731445312e+00 2.594290971755981445e+00 -1.297691464424133301e-01
7.582000000000000000e+03 4.697320556640625000e+01 2.191070747375488281e+01 2.839164733886718750e-01 3.341179132461547852e+00 1.087528705596923828e+00 1.470506787300109863e+00
7.583000000000000000e+03 8.568138122558593750e+00 7.428289890289306641e+00 1.509834975004196167e-01 -4.265442490577697754e-02 3.249872475862503052e-02 1.612533349543809891e-03
7.584000000000000000e+03 6.468761444091796875e+01 -1.951760864257812500e+01 -1.388784795999526978e-01 7.095389366149902344e+00 2.086953401565551758e+00 3.266964554786682129e-01
7.585000000000000000e+03 1.587120342254638672e+01 1.399622821807861328e+01 5.003848299384117126e-02 1.684869378805160522e-01 6.555762887001037598e-02 8.100247383117675781e-02
7.586000000000000000e+03 3.574217987060546875e+01 6.415029525756835938e+00 -6.340912543237209320e-03 7.660272717475891113e-01 2.279058992862701416e-01 1.708601862192153931e-01
7.587000000000000000e+03 3.624621582031250000e+01 5.914098739624023438e+00 -3.078058827668428421e-03 8.977188467979431152e-01 2.683922350406646729e-01 1.775178611278533936e-01
7.588000000000000000e+03 3.697227859497070312e+01 9.261034011840820312e+00 -1.149833127856254578e-01 9.045229554176330566e-01 2.368618994951248169e-01 2.489038854837417603e-01
7.589000000000000000e+03 4.467683410644531250e+01 1.797499847412109375e+01 2.858588472008705139e-03 2.551738500595092773e+00 7.663791179656982422e-01 9.838755726814270020e-01
7.590000000000000000e+03 4.454994964599609375e+01 1.744972419738769531e+01 -3.143648430705070496e-02 2.578317880630493164e+00 7.640644311904907227e-01 9.454073905944824219e-01
7.591000000000000000e+03 1.181043624877929688e+01 1.325782299041748047e+01 3.254699334502220154e-02 1.174136474728584290e-01 4.498819261789321899e-02 1.632141508162021637e-02
7.592000000000000000e+03 1.204801273345947266e+01 1.433525371551513672e+01 2.566701546311378479e-02 1.088203042745590210e-01 4.034619405865669250e-02 1.869790442287921906e-02
7.593000000000000000e+03 1.094453334808349609e+01 9.483002662658691406e+00 7.758217304944992065e-02 1.450071185827255249e-01 6.677678972482681274e-02 -1.409699488431215286e-02
7.594000000000000000e+03 1.837046241760253906e+01 1.976216888427734375e+01 3.056493215262889862e-02 1.208476498723030090e-01 4.542377591133117676e-02 5.795674398541450500e-02
7.595000000000000000e+03 4.708115005493164062e+01 2.113808822631835938e+01 1.676179915666580200e-01 3.465172052383422852e+00 1.089837074279785156e+00 1.428806424140930176e+00
7.596000000000000000e+03 4.723207855224609375e+01 2.063022804260253906e+01 7.762613892555236816e-02 3.635688304901123047e+00 1.113994359970092773e+00 1.402134060859680176e+00
7.597000000000000000e+03 4.763116836547851562e+01 2.128402709960937500e+01 1.366525888442993164e-01 3.752980232238769531e+00 1.166889786720275879e+00 1.479243993759155273e+00
7.598000000000000000e+03 5.465395736694335938e+01 2.822287940979003906e+01 1.331828385591506958e-01 1.000443458557128906e+01 3.041285037994384766e+00 1.700907230377197266e+00
7.599000000000000000e+03 6.700725555419921875e+01 9.512891769409179688e+00 -5.178702473640441895e-01 7.719512462615966797e+00 2.160492658615112305e+00 -5.733064413070678711e-01
7.600000000000000000e+03 6.392555999755859375e+01 -1.544024348258972168e+00 -4.120015501976013184e-01 7.049084186553955078e+00 1.991124749183654785e+00 -7.288780808448791504e-02
7.601000000000000000e+03 6.408229827880859375e+01 -1.520955085754394531e+01 -2.196684777736663818e-01 7.024648666381835938e+00 2.041494131088256836e+00 2.515753507614135742e-01
7.602000000000000000e+03 3.462082672119140625e+01 -6.929589509963989258e-01 -4.805134236812591553e-02 8.050020933151245117e-01 2.270852327346801758e-01 8.037164225243031979e-04
7.603000000000000000e+03 3.391932678222656250e+01 -1.101979494094848633e+00 -6.323500722646713257e-02 6.755750775337219238e-01 1.837020218372344971e-01 -8.269366808235645294e-03
7.604000000000000000e+03 4.639976119995117188e+01 1.913902473449707031e+01 -1.003011316061019897e-02 3.272968053817749023e+00 9.788813591003417969e-01 1.195085167884826660e+00
7.605000000000000000e+03 6.319133758544921875e+01 -1.548951053619384766e+01 -2.397604286670684814e-01 6.885162353515625000e+00 1.993620514869689941e+00 2.577062249183654785e-01
7.606000000000000000e+03 4.866257095336914062e+01 -9.527647972106933594e+00 -4.194985628128051758e-01 4.128140449523925781e+00 1.112592577934265137e+00 5.325977690517902374e-03
7.607000000000000000e+03 1.403746795654296875e+01 1.496722698211669922e+01 2.330995723605155945e-02 1.361089050769805908e-01 4.782565683126449585e-02 4.309570789337158203e-02
7.608000000000000000e+03 1.419636535644531250e+01 1.445812129974365234e+01 3.385055810213088989e-02 1.462818086147308350e-01 5.403970927000045776e-02 5.105904862284660339e-02
7.609000000000000000e+03 1.742761039733886719e+01 1.921108055114746094e+01 2.946875244379043579e-02 1.170880794525146484e-01 4.396704956889152527e-02 5.592936649918556213e-02
7.610000000000000000e+03 1.814724731445312500e+01 1.855251693725585938e+01 3.627157956361770630e-02 1.279903501272201538e-01 4.927857965230941772e-02 6.742225587368011475e-02
7.611000000000000000e+03 3.465892410278320312e+01 7.290423661470413208e-02 -2.919019386172294617e-02 8.006321191787719727e-01 2.314325720071792603e-01 6.519033107906579971e-03
7.612000000000000000e+03 1.075977420806884766e+01 1.245089530944824219e+01 3.977689519524574280e-02 9.547821432352066040e-02 4.057653248310089111e-02 5.426651332527399063e-04
7.613000000000000000e+03 6.346319580078125000e+01 -1.468448543548583984e+01 -2.415039688348770142e-01 6.924408912658691406e+00 2.004871606826782227e+00 2.380855232477188110e-01
7.614000000000000000e+03 3.432543945312500000e+01 -2.541845738887786865e-01 -3.570371121168136597e-02 7.457396984100341797e-01 2.130108028650283813e-01 -2.572228899225592613e-03
7.615000000000000000e+03 3.949577713012695312e+01 -2.044351577758789062e+00 -1.589623987674713135e-01 1.846052408218383789e+00 5.061269998550415039e-01 4.942668601870536804e-02
7.616000000000000000e+03 4.452847671508789062e+01 1.668171691894531250e+01 -7.658743858337402344e-02 2.622430086135864258e+00 7.637528181076049805e-01 8.989757299423217773e-01
7.617000000000000000e+03 4.009252548217773438e+01 -2.260148525238037109e+00 -1.741024404764175415e-01 1.996206641197204590e+00 5.466312766075134277e-01 5.607562512159347534e-02
7.618000000000000000e+03 3.976227188110351562e+01 -1.421478748321533203e+00 -1.525319367647171021e-01 1.898526191711425781e+00 5.237982869148254395e-01 7.485352456569671631e-02
7.619000000000000000e+03 1.611045837402343750e+01 1.745203971862792969e+01 2.852533012628555298e-02 1.266604661941528320e-01 4.655573889613151550e-02 5.194101482629776001e-02
7.620000000000000000e+03 3.995364761352539062e+01 9.069929122924804688e+00 -1.353356838226318359e-01 1.665399551391601562e+00 4.590191543102264404e-01 4.038465321063995361e-01
7.621000000000000000e+03 3.847201156616210938e+01 7.156239986419677734e+00 -8.216156810522079468e-02 1.351863980293273926e+00 3.809107244014739990e-01 2.953884303569793701e-01
7.622000000000000000e+03 3.896587753295898438e+01 7.445233345031738281e+00 -9.866806119680404663e-02 1.468793988227844238e+00 4.110378026962280273e-01 3.189305961132049561e-01
7.623000000000000000e+03 4.364556121826171875e+01 1.547004985809326172e+01 -1.110685467720031738e-01 2.378725767135620117e+00 6.802971363067626953e-01 7.856041193008422852e-01
7.624000000000000000e+03 4.541974258422851562e+01 -4.497683525085449219e+00 -3.419799506664276123e-01 3.289219141006469727e+00 8.841717243194580078e-01 5.475488305091857910e-02
7.625000000000000000e+03 4.495108795166015625e+01 -2.102320909500122070e+00 -3.135409951210021973e-01 3.176594018936157227e+00 8.589159250259399414e-01 1.164449453353881836e-01
7.626000000000000000e+03 4.577994918823242188e+01 -2.080186843872070312e+00 -3.434440493583679199e-01 3.373804092407226562e+00 9.091079831123352051e-01 1.238105446100234985e-01
7.627000000000000000e+03 3.837133407592773438e+01 -8.952350169420242310e-02 -9.465607255697250366e-02 1.551125049591064453e+00 4.369406998157501221e-01 7.702484726905822754e-02
7.628000000000000000e+03 1.487324714660644531e+01 1.649898529052734375e+01 1.887397095561027527e-02 1.273215562105178833e-01 4.385865852236747742e-02 4.583717137575149536e-02
7.629000000000000000e+03 6.348542785644531250e+01 -1.639375686645507812e+01 -2.134497761726379395e-01 6.919942855834960938e+00 2.011947870254516602e+00 2.733261883258819580e-01
7.630000000000000000e+03 5.949868011474609375e+01 -1.218107604980468750e+01 -3.659912943840026855e-01 6.286358356475830078e+00 1.776110172271728516e+00 1.691196858882904053e-01
7.631000000000000000e+03 6.374026870727539062e+01 6.675662040710449219e+00 -5.873266458511352539e-01 7.263523578643798828e+00 2.002859115600585938e+00 -3.195552527904510498e-01
7.632000000000000000e+03 5.864163589477539062e+01 -1.516539478302001953e+01 -3.302594125270843506e-01 6.188971996307373047e+00 1.757613778114318848e+00 2.089534699916839600e-01
7.633000000000000000e+03 5.266619110107421875e+01 2.266199111938476562e+01 -4.267058670520782471e-01 6.823064327239990234e+00 1.918907523155212402e+00 1.421344280242919922e+00
7.634000000000000000e+03 4.669308090209960938e+01 -4.168371200561523438e+00 -3.755665123462677002e-01 3.602382659912109375e+00 9.680448174476623535e-01 8.175109326839447021e-02
7.635000000000000000e+03 5.930688095092773438e+01 -9.542321205139160156e+00 -3.940577507019042969e-01 6.247130870819091797e+00 1.755921959877014160e+00 1.235130801796913147e-01
7.636000000000000000e+03 5.039795684814453125e+01 1.933865165710449219e+01 -3.954433798789978027e-01 5.238722801208496094e+00 1.452983856201171875e+00 1.243892788887023926e+00
7.637000000000000000e+03 3.900419235229492188e+01 4.534453451633453369e-01 -1.045068278908729553e-01 1.683922290802001953e+00 4.738246500492095947e-01 1.084057167172431946e-01
7.638000000000000000e+03 4.300999069213867188e+01 1.431421089172363281e+01 -1.330953687429428101e-01 2.244525194168090820e+00 6.334289312362670898e-01 6.976484656333923340e-01
7.639000000000000000e+03 4.813995742797851562e+01 1.729991149902343750e+01 -2.921470105648040771e-01 4.132225990295410156e+00 1.152023673057556152e+00 1.106956362724304199e+00
7.640000000000000000e+03 4.049856567382812500e+01 8.126808166503906250e+00 -1.433851867914199829e-01 1.832843780517578125e+00 5.068376064300537109e-01 4.060028195381164551e-01
7.641000000000000000e+03 5.887144470214843750e+01 -7.211804389953613281e+00 -4.215944409370422363e-01 6.177352905273437500e+00 1.726727604866027832e+00 8.959090709686279297e-02
7.642000000000000000e+03 5.951687622070312500e+01 1.295957183837890625e+01 -8.593640327453613281e-01 7.169485092163085938e+00 1.893036246299743652e+00 -1.647527217864990234e-01
7.643000000000000000e+03 4.899815750122070312e+01 1.728789520263671875e+01 -3.808461427688598633e-01 4.485530376434326172e+00 1.231405258178710938e+00 1.087512254714965820e+00
7.644000000000000000e+03 3.948422241210937500e+01 2.184268712997436523e+00 -1.004592627286911011e-01 1.747802853584289551e+00 4.942030906677246094e-01 1.704787015914916992e-01
7.645000000000000000e+03 6.095771408081054688e+01 5.410676956176757812e+00 -6.335465312004089355e-01 6.815362453460693359e+00 1.854544878005981445e+00 -1.465631872415542603e-01
7.646000000000000000e+03 5.933121490478515625e+01 8.904991745948791504e-01 -5.490255951881408691e-01 6.368380069732666016e+00 1.745806336402893066e+00 -2.057316154241561890e-02
7.647000000000000000e+03 4.314366531372070312e+01 1.360019588470458984e+01 -1.608426570892333984e-01 2.338179826736450195e+00 6.532011628150939941e-01 6.865354180335998535e-01
7.648000000000000000e+03 5.688492965698242188e+01 -1.146988391876220703e+01 -4.084037840366363525e-01 5.834100723266601562e+00 1.627709031105041504e+00 1.350143551826477051e-01
7.649000000000000000e+03 4.207741165161132812e+01 1.133271312713623047e+01 -1.747069358825683594e-01 2.123854875564575195e+00 5.847443938255310059e-01 5.571641921997070312e-01
7.650000000000000000e+03 5.938157272338867188e+01 1.729110145568847656e+01 -9.365918636322021484e-01 7.729083061218261719e+00 2.037747383117675781e+00 -1.918260753154754639e-01
7.651000000000000000e+03 4.067117309570312500e+01 2.504225254058837891e+00 -1.404626220464706421e-01 2.052991628646850586e+00 5.737587213516235352e-01 2.135156840085983276e-01
7.652000000000000000e+03 5.164671707153320312e+01 -6.188897609710693359e+00 -4.493723511695861816e-01 4.764615535736083984e+00 1.294572949409484863e+00 7.311045378446578979e-02
7.653000000000000000e+03 5.843367385864257812e+01 1.266605186462402344e+01 -8.610996007919311523e-01 6.953701972961425781e+00 1.827780604362487793e+00 -4.306819289922714233e-02
7.654000000000000000e+03 5.495820236206054688e+01 1.941692161560058594e+01 -8.222110867500305176e-01 7.132963657379150391e+00 1.893225669860839844e+00 6.327598690986633301e-01
7.655000000000000000e+03 4.632617950439453125e+01 6.655510663986206055e-01 -3.513869643211364746e-01 3.490805864334106445e+00 9.418256282806396484e-01 2.115509957075119019e-01
7.656000000000000000e+03 4.604029464721679688e+01 1.065760374069213867e+00 -3.470662236213684082e-01 3.393516540527343750e+00 9.139351248741149902e-01 2.216434925794601440e-01
7.657000000000000000e+03 4.834864425659179688e+01 -1.914586424827575684e+00 -4.092561006546020508e-01 3.998260021209716797e+00 1.076701164245605469e+00 1.359485387802124023e-01
7.658000000000000000e+03 4.939391326904296875e+01 -2.834063053131103516e+00 -4.310368597507476807e-01 4.242249488830566406e+00 1.143363833427429199e+00 1.185314431786537170e-01
7.659000000000000000e+03 5.828159332275390625e+01 1.414169502258300781e+01 -9.097811579704284668e-01 7.106703758239746094e+00 1.859076738357543945e+00 -2.872630022466182709e-02
7.660000000000000000e+03 5.748427963256835938e+01 1.242215442657470703e+01 -8.547716736793518066e-01 6.748716831207275391e+00 1.768183588981628418e+00 5.839799344539642334e-02
7.661000000000000000e+03 5.399634552001953125e+01 1.825094032287597656e+01 -7.917990684509277344e-01 6.661705017089843750e+00 1.760971784591674805e+00 7.349576950073242188e-01
7.662000000000000000e+03 5.466171646118164062e+01 1.847352981567382812e+01 -8.264111280441284180e-01 6.869463920593261719e+00 1.812915802001953125e+00 6.307967305183410645e-01
7.663000000000000000e+03 4.096671295166015625e+01 5.808189868927001953e+00 -1.442704498767852783e-01 2.023529291152954102e+00 5.637776255607604980e-01 3.384687006473541260e-01
7.664000000000000000e+03 5.716472625732421875e+01 1.195638656616210938e+01 -8.403467535972595215e-01 6.683281898498535156e+00 1.752880573272705078e+00 7.926142215728759766e-02
7.665000000000000000e+03 4.582069778442382812e+01 1.516984701156616211e+00 -3.367173969745635986e-01 3.343356609344482422e+00 9.019917249679565430e-01 2.391736209392547607e-01
7.666000000000000000e+03 4.398966598510742188e+01 2.977466106414794922e+00 -2.658332288265228271e-01 2.876177787780761719e+00 7.831033468246459961e-01 2.823777496814727783e-01
7.667000000000000000e+03 5.210488891601562500e+01 2.003796768188476562e+01 -5.425899028778076172e-01 6.121310234069824219e+00 1.673616051673889160e+00 1.168167471885681152e+00
7.668000000000000000e+03 5.620863342285156250e+01 -4.331407070159912109e+00 -4.862543344497680664e-01 5.683003425598144531e+00 1.559024810791015625e+00 7.404918968677520752e-02
7.669000000000000000e+03 5.739802169799804688e+01 1.365993309020996094e+01 -8.931487798690795898e-01 6.881169795989990234e+00 1.796406269073486328e+00 6.934858858585357666e-02
7.670000000000000000e+03 5.000565719604492188e+01 -9.526149034500122070e-01 -4.560532271862030029e-01 4.385185241699218750e+00 1.178739547729492188e+00 1.575739681720733643e-01
7.671000000000000000e+03 5.817242813110351562e+01 -1.895424365997314453e+00 -5.114712119102478027e-01 6.091303825378417969e+00 1.673949837684631348e+00 3.426894545555114746e-02
7.672000000000000000e+03 5.888913345336914062e+01 6.713778495788574219e+00 -7.019836902618408203e-01 6.549906730651855469e+00 1.754376888275146484e+00 -5.046520009636878967e-02
7.673000000000000000e+03 5.812241363525390625e+01 6.500917434692382812e+00 -7.014695405960083008e-01 6.388379096984863281e+00 1.706072807312011719e+00 -2.635755110532045364e-03
7.674000000000000000e+03 4.610795211791992188e+01 1.261107063293457031e+01 -3.241645395755767822e-01 3.407596111297607422e+00 9.250294566154479980e-01 7.531381845474243164e-01
7.675000000000000000e+03 5.589302062988281250e+01 -3.385013818740844727e+00 -4.967551231384277344e-01 5.643482208251953125e+00 1.544018030166625977e+00 7.764443010091781616e-02
7.676000000000000000e+03 5.211439895629882812e+01 1.694298744201660156e+01 -6.684178113937377930e-01 5.795795440673828125e+00 1.538213372230529785e+00 8.675925135612487793e-01
7.677000000000000000e+03 5.613755035400390625e+01 1.543996620178222656e+01 -8.925972580909729004e-01 6.831679821014404297e+00 1.781724810600280762e+00 2.837117016315460205e-01
7.678000000000000000e+03 5.615251922607421875e+01 1.374527263641357422e+01 -8.775365948677062988e-01 6.652747631072998047e+00 1.732563376426696777e+00 2.295498996973037720e-01
7.679000000000000000e+03 5.195390319824218750e+01 1.624500083923339844e+01 -6.666212081909179688e-01 5.655063629150390625e+00 1.496532797813415527e+00 8.170391917228698730e-01
7.680000000000000000e+03 4.286246871948242188e+01 6.687007904052734375e+00 -2.208042293787002563e-01 2.523863792419433594e+00 6.909178495407104492e-01 4.295813143253326416e-01
7.681000000000000000e+03 4.360013580322265625e+01 7.993961811065673828e+00 -2.488003969192504883e-01 2.712896347045898438e+00 7.392287850379943848e-01 4.985871016979217529e-01
7.682000000000000000e+03 5.034331893920898438e+01 1.442173004150390625e+00 -4.848541319370269775e-01 4.490146636962890625e+00 1.201587796211242676e+00 2.162364870309829712e-01
7.683000000000000000e+03 4.642095947265625000e+01 1.155754375457763672e+01 -3.590348660945892334e-01 3.521148681640625000e+00 9.486342072486877441e-01 6.954927444458007812e-01
7.684000000000000000e+03 5.243455886840820312e+01 1.944065284729003906e+01 -6.109334826469421387e-01 6.201204299926757812e+00 1.677081227302551270e+00 1.047552824020385742e+00
7.685000000000000000e+03 5.065166091918945312e+01 -5.882194042205810547e+00 -4.408389031887054443e-01 4.537418365478515625e+00 1.228973865509033203e+00 7.786498963832855225e-02
7.686000000000000000e+03 4.620608139038085938e+01 1.210012245178222656e+01 -3.354579508304595947e-01 3.408833026885986328e+00 9.220125675201416016e-01 7.171538472175598145e-01
7.687000000000000000e+03 4.310992050170898438e+01 5.546287059783935547e+00 -2.319440841674804688e-01 2.589251041412353516e+00 7.071921229362487793e-01 3.779038786888122559e-01
7.688000000000000000e+03 5.512868499755859375e+01 -7.575234174728393555e-01 -5.274146795272827148e-01 5.542570114135742188e+00 1.504546523094177246e+00 9.317995607852935791e-02
7.689000000000000000e+03 5.011682510375976562e+01 1.257820510864257812e+01 -5.721415281295776367e-01 4.752887248992919922e+00 1.254223823547363281e+00 6.873691678047180176e-01
7.690000000000000000e+03 5.033286285400390625e+01 1.467809963226318359e+01 -5.685516595840454102e-01 4.936008453369140625e+00 1.310236930847167969e+00 8.188668489456176758e-01
7.691000000000000000e+03 5.489250183105468750e+01 1.352290153503417969e+01 -8.317338228225708008e-01 6.285330772399902344e+00 1.636079072952270508e+00 3.497315347194671631e-01
7.692000000000000000e+03 4.987248611450195312e+01 2.780304908752441406e+00 -4.839166402816772461e-01 4.393434524536132812e+00 1.172855377197265625e+00 2.619850337505340576e-01
7.693000000000000000e+03 4.935519409179687500e+01 1.157882404327392578e+01 -5.294921994209289551e-01 4.479700088500976562e+00 1.185062408447265625e+00 6.589264869689941406e-01
7.694000000000000000e+03 4.993611145019531250e+01 1.206931591033935547e+01 -5.578216314315795898e-01 4.670938014984130859e+00 1.233934879302978516e+00 6.736993789672851562e-01
7.695000000000000000e+03 4.996535873413085938e+01 1.156772994995117188e+01 -5.646065473556518555e-01 4.659176826477050781e+00 1.228371143341064453e+00 6.389544606208801270e-01
7.696000000000000000e+03 5.244667053222656250e+01 -1.147320389747619629e+00 -4.998317956924438477e-01 4.928676605224609375e+00 1.328653335571289062e+00 1.319444179534912109e-01
7.697000000000000000e+03 4.673190307617187500e+01 1.032215690612792969e+01 -3.797936141490936279e-01 3.634183168411254883e+00 9.763168096542358398e-01 6.312993764877319336e-01
7.698000000000000000e+03 5.327242279052734375e+01 1.136410045623779297e+01 -7.214797735214233398e-01 5.648020267486572266e+00 1.477962136268615723e+00 4.220477938652038574e-01
7.699000000000000000e+03 5.365938949584960938e+01 -1.355970740318298340e+00 -5.127918124198913574e-01 5.210792541503906250e+00 1.409400224685668945e+00 1.187672466039657593e-01
7.700000000000000000e+03 5.161235809326171875e+01 1.412325668334960938e+01 -6.647843718528747559e-01 5.348416805267333984e+00 1.405089735984802246e+00 6.956654787063598633e-01
7.701000000000000000e+03 5.067382049560546875e+01 1.219556045532226562e+01 -6.080164909362792969e-01 4.955762863159179688e+00 1.304323792457580566e+00 6.341184377670288086e-01
7.702000000000000000e+03 4.665366363525390625e+01 7.712859630584716797e+00 -3.867332637310028076e-01 3.580123186111450195e+00 9.580169916152954102e-01 5.008351802825927734e-01
7.703000000000000000e+03 5.143825149536132812e+01 1.143341064453125000e+01 -6.428204774856567383e-01 5.116830825805664062e+00 1.342203021049499512e+00 5.539804697036743164e-01
7.704000000000000000e+03 5.276183700561523438e+01 9.110617637634277344e+00 -6.718556284904479980e-01 5.361852169036865234e+00 1.406998872756958008e+00 3.704534471035003662e-01
7.705000000000000000e+03 5.331974792480468750e+01 1.936628818511962891e+00 -5.553038716316223145e-01 5.198321342468261719e+00 1.392905235290527344e+00 1.621439158916473389e-01
7.706000000000000000e+03 5.296673965454101562e+01 2.586132764816284180e+00 -5.629488825798034668e-01 5.129856586456298828e+00 1.370072245597839355e+00 1.836979836225509644e-01
7.707000000000000000e+03 5.088529586791992188e+01 1.142286777496337891e+01 -6.114901900291442871e-01 4.967593193054199219e+00 1.306830883026123047e+00 5.859706401824951172e-01
7.708000000000000000e+03 4.632798004150390625e+01 5.800260543823242188e+00 -3.652134239673614502e-01 3.501569032669067383e+00 9.409066438674926758e-01 4.143623411655426025e-01
7.709000000000000000e+03 5.153623580932617188e+01 9.682987213134765625e+00 -6.312792897224426270e-01 5.053251743316650391e+00 1.326591730117797852e+00 4.787792861461639404e-01
7.710000000000000000e+03 5.211416244506835938e+01 8.807690620422363281e+00 -6.477294564247131348e-01 5.171015262603759766e+00 1.356985807418823242e+00 4.059111177921295166e-01
7.711000000000000000e+03 5.102671432495117188e+01 9.962013244628906250e+00 -6.141057610511779785e-01 4.931283473968505859e+00 1.295153260231018066e+00 5.157259702682495117e-01
7.712000000000000000e+03 1.476313209533691406e+01 1.026000976562500000e+00 6.221350193023681641e+00 1.231943011283874512e+00 2.235987901687622070e+00 -2.876394987106323242e+00
7.713000000000000000e+03 2.861505317687988281e+01 7.151432037353515625e+00 -1.618622303009033203e+00 -2.416306585073471069e-01 -5.580759048461914062e-01 -8.976070880889892578e-01
7.714000000000000000e+03 2.862838935852050781e+01 7.137201309204101562e+00 -1.576439261436462402e+00 1.360867619514465332e-01 -4.321057498455047607e-01 -9.714714288711547852e-01
7.715000000000000000e+03 2.864424514770507812e+01 7.125844955444335938e+00 -1.189271211624145508e+00 3.594672977924346924e-01 -2.489411681890487671e-01 -1.072421550750732422e+00
7.716000000000000000e+03 2.866201019287109375e+01 7.117798805236816406e+00 -7.697654366493225098e-01 6.040400266647338867e-01 -4.971762001514434814e-02 -1.172372102737426758e+00
7.717000000000000000e+03 2.868100357055664062e+01 7.113371372222900391e+00 -2.865829765796661377e-01 8.602132201194763184e-01 1.720890700817108154e-01 -1.276951551437377930e+00
7.718000000000000000e+03 2.870049476623535156e+01 7.112733364105224609e+00 2.045993357896804810e-01 1.081849932670593262e+00 3.859347701072692871e-01 -1.407920837402343750e+00
7.719000000000000000e+03 2.871973609924316406e+01 7.115909099578857422e+00 7.738350629806518555e-01 1.243884444236755371e+00 6.053158640861511230e-01 -1.550385236740112305e+00
7.720000000000000000e+03 2.873798942565917969e+01 7.122776508331298828e+00 1.353309154510498047e+00 1.288938760757446289e+00 7.926743626594543457e-01 -1.664279222488403320e+00
7.721000000000000000e+03 2.875455474853515625e+01 7.133071899414062500e+00 2.042632818222045898e+00 1.239213466644287109e+00 9.845538735389709473e-01 -1.702685475349426270e+00
7.722000000000000000e+03 2.876879119873046875e+01 7.146399497985839844e+00 2.631674766540527344e+00 1.082005143165588379e+00 1.114104032516479492e+00 -1.639597773551940918e+00
7.723000000000000000e+03 2.878015708923339844e+01 7.162248134613037109e+00 3.260697841644287109e+00 9.369446635246276855e-01 1.259292721748352051e+00 -1.404945015907287598e+00
7.724000000000000000e+03 2.878821182250976562e+01 7.180008888244628906e+00 3.648199796676635742e+00 7.527053356170654297e-01 1.320271611213684082e+00 -1.099167227745056152e+00
7.725000000000000000e+03 2.879265022277832031e+01 7.198999881744384766e+00 3.962567329406738281e+00 7.693733572959899902e-01 1.419582247734069824e+00 -6.461777687072753906e-01
7.726000000000000000e+03 2.879329872131347656e+01 7.218491554260253906e+00 3.968998193740844727e+00 6.996877193450927734e-01 1.400605797767639160e+00 -2.532498240470886230e-01
7.727000000000000000e+03 2.879013252258300781e+01 7.237735271453857422e+00 3.905307769775390625e+00 9.964417815208435059e-01 1.470524787902832031e+00 1.319500058889389038e-01
7.728000000000000000e+03 2.878327560424804688e+01 7.255992412567138672e+00 3.626792192459106445e+00 1.090971827507019043e+00 1.415329217910766602e+00 4.003584384918212891e-01
7.729000000000000000e+03 2.877298927307128906e+01 7.272561550140380859e+00 3.370241880416870117e+00 1.459943175315856934e+00 1.449055552482604980e+00 5.295808315277099609e-01
7.730000000000000000e+03 2.875966835021972656e+01 7.286806106567382812e+00 3.084978103637695312e+00 1.569354534149169922e+00 1.396299839019775391e+00 5.778425931930541992e-01
7.731000000000000000e+03 2.874382781982421875e+01 7.298179626464843750e+00 2.979750394821166992e+00 1.888911008834838867e+00 1.460598468780517578e+00 4.606333374977111816e-01
7.732000000000000000e+03 2.872607040405273438e+01 7.306245326995849609e+00 2.825321674346923828e+00 1.990116953849792480e+00 1.444631576538085938e+00 3.628653585910797119e-01
7.733000000000000000e+03 2.870708084106445312e+01 7.310693264007568359e+00 2.898788452148437500e+00 2.106201648712158203e+00 1.501497030258178711e+00 2.341925650835037231e-01
7.734000000000000000e+03 2.868759155273437500e+01 7.311352252960205078e+00 3.260888814926147461e+00 2.278937816619873047e+00 1.661947965621948242e+00 4.595382511615753174e-02
7.735000000000000000e+03 2.866834640502929688e+01 7.308197498321533203e+00 3.411695480346679688e+00 2.237075328826904297e+00 1.694631218910217285e+00 -1.708076596260070801e-01
7.736000000000000000e+03 2.865008544921875000e+01 7.301350116729736328e+00 3.959378242492675781e+00 2.336229562759399414e+00 1.888682246208190918e+00 -2.306490093469619751e-01
7.737000000000000000e+03 2.863351058959960938e+01 7.291072845458984375e+00 4.769031524658203125e+00 2.228976488113403320e+00 2.099402427673339844e+00 -3.006830215454101562e-01
7.738000000000000000e+03 2.861925697326660156e+01 7.277760505676269531e+00 5.253790378570556641e+00 1.863932251930236816e+00 2.135316848754882812e+00 -3.050941228866577148e-01
7.739000000000000000e+03 2.860787582397460938e+01 7.261924266815185547e+00 6.187430381774902344e+00 1.908359169960021973e+00 2.428736925125122070e+00 5.154014006257057190e-02
7.740000000000000000e+03 2.859980010986328125e+01 7.244172573089599609e+00 6.661214351654052734e+00 1.348149061203002930e+00 2.402808904647827148e+00 4.802988767623901367e-01
7.741000000000000000e+03 2.859534263610839844e+01 7.225186347961425781e+00 7.131198406219482422e+00 1.460453391075134277e+00 2.577495574951171875e+00 1.102969646453857422e+00
7.742000000000000000e+03 2.859467124938964844e+01 7.205695629119873047e+00 7.117473125457763672e+00 1.258359313011169434e+00 2.512749910354614258e+00 1.847563982009887695e+00
7.743000000000000000e+03 2.859781646728515625e+01 7.186448097229003906e+00 6.925705432891845703e+00 1.517118215560913086e+00 2.532847166061401367e+00 2.476758003234863281e+00
7.744000000000000000e+03 2.860465431213378906e+01 7.168183803558349609e+00 6.218940734863281250e+00 1.816146731376647949e+00 2.410526275634765625e+00 3.179406881332397461e+00
